# vtk DataFile Version 3.0
vtk output
ASCII
DATASET UNSTRUCTURED_GRID
POINTS       496 double 
  0.00000000E+00  3.00000000E+02  0.00000000E+00
  0.00000000E+00  2.80000000E+02  0.00000000E+00
  0.00000000E+00  2.60000000E+02  0.00000000E+00
  0.00000000E+00  2.40000000E+02  0.00000000E+00
  0.00000000E+00  2.20000000E+02  0.00000000E+00
  0.00000000E+00  2.00000000E+02  0.00000000E+00
  0.00000000E+00  1.80000000E+02  0.00000000E+00
  0.00000000E+00  1.60000000E+02  0.00000000E+00
  0.00000000E+00  1.40000000E+02  0.00000000E+00
  0.00000000E+00  1.20000000E+02  0.00000000E+00
  0.00000000E+00  1.00000000E+02  0.00000000E+00
  0.00000000E+00  8.00000000E+01  0.00000000E+00
  0.00000000E+00  6.00000000E+01  0.00000000E+00
  0.00000000E+00  4.00000000E+01  0.00000000E+00
  0.00000000E+00  2.00000000E+01  0.00000000E+00
  0.00000000E+00  4.99600361E-14  0.00000000E+00
  2.00000000E+01  3.00000000E+02  0.00000000E+00
  2.00000000E+01  2.80000000E+02  0.00000000E+00
  2.00000000E+01  2.60000000E+02  0.00000000E+00
  2.00000000E+01  2.40000000E+02  0.00000000E+00
  2.00000000E+01  2.20000000E+02  0.00000000E+00
  2.00000000E+01  2.00000000E+02  0.00000000E+00
  2.00000000E+01  1.80000000E+02  0.00000000E+00
  2.00000000E+01  1.60000000E+02  0.00000000E+00
  2.00000000E+01  1.40000000E+02  0.00000000E+00
  2.00000000E+01  1.20000000E+02  0.00000000E+00
  2.00000000E+01  1.00000000E+02  0.00000000E+00
  2.00000000E+01  8.00000000E+01  0.00000000E+00
  2.00000000E+01  6.00000000E+01  0.00000000E+00
  2.00000000E+01  4.00000000E+01  0.00000000E+00
  2.00000000E+01  2.00000000E+01  0.00000000E+00
  2.00000000E+01  4.99600361E-14  0.00000000E+00
  4.00000000E+01  3.00000000E+02  0.00000000E+00
  4.00000000E+01  2.80000000E+02  0.00000000E+00
  4.00000000E+01  2.60000000E+02  0.00000000E+00
  4.00000000E+01  2.40000000E+02  0.00000000E+00
  4.00000000E+01  2.20000000E+02  0.00000000E+00
  4.00000000E+01  2.00000000E+02  0.00000000E+00
  4.00000000E+01  1.80000000E+02  0.00000000E+00
  4.00000000E+01  1.60000000E+02  0.00000000E+00
  4.00000000E+01  1.40000000E+02  0.00000000E+00
  4.00000000E+01  1.20000000E+02  0.00000000E+00
  4.00000000E+01  1.00000000E+02  0.00000000E+00
  4.00000000E+01  8.00000000E+01  0.00000000E+00
  4.00000000E+01  6.00000000E+01  0.00000000E+00
  4.00000000E+01  4.00000000E+01  0.00000000E+00
  4.00000000E+01  2.00000000E+01  0.00000000E+00
  4.00000000E+01  4.99600361E-14  0.00000000E+00
  6.00000000E+01  3.00000000E+02  0.00000000E+00
  6.00000000E+01  2.80000000E+02  0.00000000E+00
  6.00000000E+01  2.60000000E+02  0.00000000E+00
  6.00000000E+01  2.40000000E+02  0.00000000E+00
  6.00000000E+01  2.20000000E+02  0.00000000E+00
  6.00000000E+01  2.00000000E+02  0.00000000E+00
  6.00000000E+01  1.80000000E+02  0.00000000E+00
  6.00000000E+01  1.60000000E+02  0.00000000E+00
  6.00000000E+01  1.40000000E+02  0.00000000E+00
  6.00000000E+01  1.20000000E+02  0.00000000E+00
  6.00000000E+01  1.00000000E+02  0.00000000E+00
  6.00000000E+01  8.00000000E+01  0.00000000E+00
  6.00000000E+01  6.00000000E+01  0.00000000E+00
  6.00000000E+01  4.00000000E+01  0.00000000E+00
  6.00000000E+01  2.00000000E+01  0.00000000E+00
  6.00000000E+01  4.99600361E-14  0.00000000E+00
  8.00000000E+01  3.00000000E+02  0.00000000E+00
  8.00000000E+01  2.80000000E+02  0.00000000E+00
  8.00000000E+01  2.60000000E+02  0.00000000E+00
  8.00000000E+01  2.40000000E+02  0.00000000E+00
  8.00000000E+01  2.20000000E+02  0.00000000E+00
  8.00000000E+01  2.00000000E+02  0.00000000E+00
  8.00000000E+01  1.80000000E+02  0.00000000E+00
  8.00000000E+01  1.60000000E+02  0.00000000E+00
  8.00000000E+01  1.40000000E+02  0.00000000E+00
  8.00000000E+01  1.20000000E+02  0.00000000E+00
  8.00000000E+01  1.00000000E+02  0.00000000E+00
  8.00000000E+01  8.00000000E+01  0.00000000E+00
  8.00000000E+01  6.00000000E+01  0.00000000E+00
  8.00000000E+01  4.00000000E+01  0.00000000E+00
  8.00000000E+01  2.00000000E+01  0.00000000E+00
  8.00000000E+01  4.99600361E-14  0.00000000E+00
  1.00000000E+02  3.00000000E+02  0.00000000E+00
  1.00000000E+02  2.80000000E+02  0.00000000E+00
  1.00000000E+02  2.60000000E+02  0.00000000E+00
  1.00000000E+02  2.40000000E+02  0.00000000E+00
  1.00000000E+02  2.20000000E+02  0.00000000E+00
  1.00000000E+02  2.00000000E+02  0.00000000E+00
  1.00000000E+02  1.80000000E+02  0.00000000E+00
  1.00000000E+02  1.60000000E+02  0.00000000E+00
  1.00000000E+02  1.40000000E+02  0.00000000E+00
  1.00000000E+02  1.20000000E+02  0.00000000E+00
  1.00000000E+02  1.00000000E+02  0.00000000E+00
  1.00000000E+02  8.00000000E+01  0.00000000E+00
  1.00000000E+02  6.00000000E+01  0.00000000E+00
  1.00000000E+02  4.00000000E+01  0.00000000E+00
  1.00000000E+02  2.00000000E+01  0.00000000E+00
  1.00000000E+02  4.99600361E-14  0.00000000E+00
  1.20000000E+02  3.00000000E+02  0.00000000E+00
  1.20000000E+02  2.80000000E+02  0.00000000E+00
  1.20000000E+02  2.60000000E+02  0.00000000E+00
  1.20000000E+02  2.40000000E+02  0.00000000E+00
  1.20000000E+02  2.20000000E+02  0.00000000E+00
  1.20000000E+02  2.00000000E+02  0.00000000E+00
  1.20000000E+02  1.80000000E+02  0.00000000E+00
  1.20000000E+02  1.60000000E+02  0.00000000E+00
  1.20000000E+02  1.40000000E+02  0.00000000E+00
  1.20000000E+02  1.20000000E+02  0.00000000E+00
  1.20000000E+02  1.00000000E+02  0.00000000E+00
  1.20000000E+02  8.00000000E+01  0.00000000E+00
  1.20000000E+02  6.00000000E+01  0.00000000E+00
  1.20000000E+02  4.00000000E+01  0.00000000E+00
  1.20000000E+02  2.00000000E+01  0.00000000E+00
  1.20000000E+02  4.99600361E-14  0.00000000E+00
  1.40000000E+02  3.00000000E+02  0.00000000E+00
  1.40000000E+02  2.80000000E+02  0.00000000E+00
  1.40000000E+02  2.60000000E+02  0.00000000E+00
  1.40000000E+02  2.40000000E+02  0.00000000E+00
  1.40000000E+02  2.20000000E+02  0.00000000E+00
  1.40000000E+02  2.00000000E+02  0.00000000E+00
  1.40000000E+02  1.80000000E+02  0.00000000E+00
  1.40000000E+02  1.60000000E+02  0.00000000E+00
  1.40000000E+02  1.40000000E+02  0.00000000E+00
  1.40000000E+02  1.20000000E+02  0.00000000E+00
  1.40000000E+02  1.00000000E+02  0.00000000E+00
  1.40000000E+02  8.00000000E+01  0.00000000E+00
  1.40000000E+02  6.00000000E+01  0.00000000E+00
  1.40000000E+02  4.00000000E+01  0.00000000E+00
  1.40000000E+02  2.00000000E+01  0.00000000E+00
  1.40000000E+02  4.99600361E-14  0.00000000E+00
  1.60000000E+02  3.00000000E+02  0.00000000E+00
  1.60000000E+02  2.80000000E+02  0.00000000E+00
  1.60000000E+02  2.60000000E+02  0.00000000E+00
  1.60000000E+02  2.40000000E+02  0.00000000E+00
  1.60000000E+02  2.20000000E+02  0.00000000E+00
  1.60000000E+02  2.00000000E+02  0.00000000E+00
  1.60000000E+02  1.80000000E+02  0.00000000E+00
  1.60000000E+02  1.60000000E+02  0.00000000E+00
  1.60000000E+02  1.40000000E+02  0.00000000E+00
  1.60000000E+02  1.20000000E+02  0.00000000E+00
  1.60000000E+02  1.00000000E+02  0.00000000E+00
  1.60000000E+02  8.00000000E+01  0.00000000E+00
  1.60000000E+02  6.00000000E+01  0.00000000E+00
  1.60000000E+02  4.00000000E+01  0.00000000E+00
  1.60000000E+02  2.00000000E+01  0.00000000E+00
  1.60000000E+02  4.99600361E-14  0.00000000E+00
  1.80000000E+02  3.00000000E+02  0.00000000E+00
  1.80000000E+02  2.80000000E+02  0.00000000E+00
  1.80000000E+02  2.60000000E+02  0.00000000E+00
  1.80000000E+02  2.40000000E+02  0.00000000E+00
  1.80000000E+02  2.20000000E+02  0.00000000E+00
  1.80000000E+02  2.00000000E+02  0.00000000E+00
  1.80000000E+02  1.80000000E+02  0.00000000E+00
  1.80000000E+02  1.60000000E+02  0.00000000E+00
  1.80000000E+02  1.40000000E+02  0.00000000E+00
  1.80000000E+02  1.20000000E+02  0.00000000E+00
  1.80000000E+02  1.00000000E+02  0.00000000E+00
  1.80000000E+02  8.00000000E+01  0.00000000E+00
  1.80000000E+02  6.00000000E+01  0.00000000E+00
  1.80000000E+02  4.00000000E+01  0.00000000E+00
  1.80000000E+02  2.00000000E+01  0.00000000E+00
  1.80000000E+02  4.99600361E-14  0.00000000E+00
  2.00000000E+02  3.00000000E+02  0.00000000E+00
  2.00000000E+02  2.80000000E+02  0.00000000E+00
  2.00000000E+02  2.60000000E+02  0.00000000E+00
  2.00000000E+02  2.40000000E+02  0.00000000E+00
  2.00000000E+02  2.20000000E+02  0.00000000E+00
  2.00000000E+02  2.00000000E+02  0.00000000E+00
  2.00000000E+02  1.80000000E+02  0.00000000E+00
  2.00000000E+02  1.60000000E+02  0.00000000E+00
  2.00000000E+02  1.40000000E+02  0.00000000E+00
  2.00000000E+02  1.20000000E+02  0.00000000E+00
  2.00000000E+02  1.00000000E+02  0.00000000E+00
  2.00000000E+02  8.00000000E+01  0.00000000E+00
  2.00000000E+02  6.00000000E+01  0.00000000E+00
  2.00000000E+02  4.00000000E+01  0.00000000E+00
  2.00000000E+02  2.00000000E+01  0.00000000E+00
  2.00000000E+02  4.99600361E-14  0.00000000E+00
  2.20000000E+02  3.00000000E+02  0.00000000E+00
  2.20000000E+02  2.80000000E+02  0.00000000E+00
  2.20000000E+02  2.60000000E+02  0.00000000E+00
  2.20000000E+02  2.40000000E+02  0.00000000E+00
  2.20000000E+02  2.20000000E+02  0.00000000E+00
  2.20000000E+02  2.00000000E+02  0.00000000E+00
  2.20000000E+02  1.80000000E+02  0.00000000E+00
  2.20000000E+02  1.60000000E+02  0.00000000E+00
  2.20000000E+02  1.40000000E+02  0.00000000E+00
  2.20000000E+02  1.20000000E+02  0.00000000E+00
  2.20000000E+02  1.00000000E+02  0.00000000E+00
  2.20000000E+02  8.00000000E+01  0.00000000E+00
  2.20000000E+02  6.00000000E+01  0.00000000E+00
  2.20000000E+02  4.00000000E+01  0.00000000E+00
  2.20000000E+02  2.00000000E+01  0.00000000E+00
  2.20000000E+02  4.99600361E-14  0.00000000E+00
  2.40000000E+02  3.00000000E+02  0.00000000E+00
  2.40000000E+02  2.80000000E+02  0.00000000E+00
  2.40000000E+02  2.60000000E+02  0.00000000E+00
  2.40000000E+02  2.40000000E+02  0.00000000E+00
  2.40000000E+02  2.20000000E+02  0.00000000E+00
  2.40000000E+02  2.00000000E+02  0.00000000E+00
  2.40000000E+02  1.80000000E+02  0.00000000E+00
  2.40000000E+02  1.60000000E+02  0.00000000E+00
  2.40000000E+02  1.40000000E+02  0.00000000E+00
  2.40000000E+02  1.20000000E+02  0.00000000E+00
  2.40000000E+02  1.00000000E+02  0.00000000E+00
  2.40000000E+02  8.00000000E+01  0.00000000E+00
  2.40000000E+02  6.00000000E+01  0.00000000E+00
  2.40000000E+02  4.00000000E+01  0.00000000E+00
  2.40000000E+02  2.00000000E+01  0.00000000E+00
  2.40000000E+02  4.99600361E-14  0.00000000E+00
  2.60000000E+02  3.00000000E+02  0.00000000E+00
  2.60000000E+02  2.80000000E+02  0.00000000E+00
  2.60000000E+02  2.60000000E+02  0.00000000E+00
  2.60000000E+02  2.40000000E+02  0.00000000E+00
  2.60000000E+02  2.20000000E+02  0.00000000E+00
  2.60000000E+02  2.00000000E+02  0.00000000E+00
  2.60000000E+02  1.80000000E+02  0.00000000E+00
  2.60000000E+02  1.60000000E+02  0.00000000E+00
  2.60000000E+02  1.40000000E+02  0.00000000E+00
  2.60000000E+02  1.20000000E+02  0.00000000E+00
  2.60000000E+02  1.00000000E+02  0.00000000E+00
  2.60000000E+02  8.00000000E+01  0.00000000E+00
  2.60000000E+02  6.00000000E+01  0.00000000E+00
  2.60000000E+02  4.00000000E+01  0.00000000E+00
  2.60000000E+02  2.00000000E+01  0.00000000E+00
  2.60000000E+02  4.99600361E-14  0.00000000E+00
  2.80000000E+02  3.00000000E+02  0.00000000E+00
  2.80000000E+02  2.80000000E+02  0.00000000E+00
  2.80000000E+02  2.60000000E+02  0.00000000E+00
  2.80000000E+02  2.40000000E+02  0.00000000E+00
  2.80000000E+02  2.20000000E+02  0.00000000E+00
  2.80000000E+02  2.00000000E+02  0.00000000E+00
  2.80000000E+02  1.80000000E+02  0.00000000E+00
  2.80000000E+02  1.60000000E+02  0.00000000E+00
  2.80000000E+02  1.40000000E+02  0.00000000E+00
  2.80000000E+02  1.20000000E+02  0.00000000E+00
  2.80000000E+02  1.00000000E+02  0.00000000E+00
  2.80000000E+02  8.00000000E+01  0.00000000E+00
  2.80000000E+02  6.00000000E+01  0.00000000E+00
  2.80000000E+02  4.00000000E+01  0.00000000E+00
  2.80000000E+02  2.00000000E+01  0.00000000E+00
  2.80000000E+02  4.99600361E-14  0.00000000E+00
  3.00000000E+02  3.00000000E+02  0.00000000E+00
  3.00000000E+02  2.80000000E+02  0.00000000E+00
  3.00000000E+02  2.60000000E+02  0.00000000E+00
  3.00000000E+02  2.40000000E+02  0.00000000E+00
  3.00000000E+02  2.20000000E+02  0.00000000E+00
  3.00000000E+02  2.00000000E+02  0.00000000E+00
  3.00000000E+02  1.80000000E+02  0.00000000E+00
  3.00000000E+02  1.60000000E+02  0.00000000E+00
  3.00000000E+02  1.40000000E+02  0.00000000E+00
  3.00000000E+02  1.20000000E+02  0.00000000E+00
  3.00000000E+02  1.00000000E+02  0.00000000E+00
  3.00000000E+02  8.00000000E+01  0.00000000E+00
  3.00000000E+02  6.00000000E+01  0.00000000E+00
  3.00000000E+02  4.00000000E+01  0.00000000E+00
  3.00000000E+02  2.00000000E+01  0.00000000E+00
  3.00000000E+02  4.99600361E-14  0.00000000E+00
  3.20000000E+02  3.00000000E+02  0.00000000E+00
  3.20000000E+02  2.80000000E+02  0.00000000E+00
  3.20000000E+02  2.60000000E+02  0.00000000E+00
  3.20000000E+02  2.40000000E+02  0.00000000E+00
  3.20000000E+02  2.20000000E+02  0.00000000E+00
  3.20000000E+02  2.00000000E+02  0.00000000E+00
  3.20000000E+02  1.80000000E+02  0.00000000E+00
  3.20000000E+02  1.60000000E+02  0.00000000E+00
  3.20000000E+02  1.40000000E+02  0.00000000E+00
  3.20000000E+02  1.20000000E+02  0.00000000E+00
  3.20000000E+02  1.00000000E+02  0.00000000E+00
  3.20000000E+02  8.00000000E+01  0.00000000E+00
  3.20000000E+02  6.00000000E+01  0.00000000E+00
  3.20000000E+02  4.00000000E+01  0.00000000E+00
  3.20000000E+02  2.00000000E+01  0.00000000E+00
  3.20000000E+02  4.99600361E-14  0.00000000E+00
  3.40000000E+02  3.00000000E+02  0.00000000E+00
  3.40000000E+02  2.80000000E+02  0.00000000E+00
  3.40000000E+02  2.60000000E+02  0.00000000E+00
  3.40000000E+02  2.40000000E+02  0.00000000E+00
  3.40000000E+02  2.20000000E+02  0.00000000E+00
  3.40000000E+02  2.00000000E+02  0.00000000E+00
  3.40000000E+02  1.80000000E+02  0.00000000E+00
  3.40000000E+02  1.60000000E+02  0.00000000E+00
  3.40000000E+02  1.40000000E+02  0.00000000E+00
  3.40000000E+02  1.20000000E+02  0.00000000E+00
  3.40000000E+02  1.00000000E+02  0.00000000E+00
  3.40000000E+02  8.00000000E+01  0.00000000E+00
  3.40000000E+02  6.00000000E+01  0.00000000E+00
  3.40000000E+02  4.00000000E+01  0.00000000E+00
  3.40000000E+02  2.00000000E+01  0.00000000E+00
  3.40000000E+02  4.99600361E-14  0.00000000E+00
  3.60000000E+02  3.00000000E+02  0.00000000E+00
  3.60000000E+02  2.80000000E+02  0.00000000E+00
  3.60000000E+02  2.60000000E+02  0.00000000E+00
  3.60000000E+02  2.40000000E+02  0.00000000E+00
  3.60000000E+02  2.20000000E+02  0.00000000E+00
  3.60000000E+02  2.00000000E+02  0.00000000E+00
  3.60000000E+02  1.80000000E+02  0.00000000E+00
  3.60000000E+02  1.60000000E+02  0.00000000E+00
  3.60000000E+02  1.40000000E+02  0.00000000E+00
  3.60000000E+02  1.20000000E+02  0.00000000E+00
  3.60000000E+02  1.00000000E+02  0.00000000E+00
  3.60000000E+02  8.00000000E+01  0.00000000E+00
  3.60000000E+02  6.00000000E+01  0.00000000E+00
  3.60000000E+02  4.00000000E+01  0.00000000E+00
  3.60000000E+02  2.00000000E+01  0.00000000E+00
  3.60000000E+02  4.99600361E-14  0.00000000E+00
  3.80000000E+02  3.00000000E+02  0.00000000E+00
  3.80000000E+02  2.80000000E+02  0.00000000E+00
  3.80000000E+02  2.60000000E+02  0.00000000E+00
  3.80000000E+02  2.40000000E+02  0.00000000E+00
  3.80000000E+02  2.20000000E+02  0.00000000E+00
  3.80000000E+02  2.00000000E+02  0.00000000E+00
  3.80000000E+02  1.80000000E+02  0.00000000E+00
  3.80000000E+02  1.60000000E+02  0.00000000E+00
  3.80000000E+02  1.40000000E+02  0.00000000E+00
  3.80000000E+02  1.20000000E+02  0.00000000E+00
  3.80000000E+02  1.00000000E+02  0.00000000E+00
  3.80000000E+02  8.00000000E+01  0.00000000E+00
  3.80000000E+02  6.00000000E+01  0.00000000E+00
  3.80000000E+02  4.00000000E+01  0.00000000E+00
  3.80000000E+02  2.00000000E+01  0.00000000E+00
  3.80000000E+02  4.99600361E-14  0.00000000E+00
  4.00000000E+02  3.00000000E+02  0.00000000E+00
  4.00000000E+02  2.80000000E+02  0.00000000E+00
  4.00000000E+02  2.60000000E+02  0.00000000E+00
  4.00000000E+02  2.40000000E+02  0.00000000E+00
  4.00000000E+02  2.20000000E+02  0.00000000E+00
  4.00000000E+02  2.00000000E+02  0.00000000E+00
  4.00000000E+02  1.80000000E+02  0.00000000E+00
  4.00000000E+02  1.60000000E+02  0.00000000E+00
  4.00000000E+02  1.40000000E+02  0.00000000E+00
  4.00000000E+02  1.20000000E+02  0.00000000E+00
  4.00000000E+02  1.00000000E+02  0.00000000E+00
  4.00000000E+02  8.00000000E+01  0.00000000E+00
  4.00000000E+02  6.00000000E+01  0.00000000E+00
  4.00000000E+02  4.00000000E+01  0.00000000E+00
  4.00000000E+02  2.00000000E+01  0.00000000E+00
  4.00000000E+02  4.99600361E-14  0.00000000E+00
  4.20000000E+02  3.00000000E+02  0.00000000E+00
  4.20000000E+02  2.80000000E+02  0.00000000E+00
  4.20000000E+02  2.60000000E+02  0.00000000E+00
  4.20000000E+02  2.40000000E+02  0.00000000E+00
  4.20000000E+02  2.20000000E+02  0.00000000E+00
  4.20000000E+02  2.00000000E+02  0.00000000E+00
  4.20000000E+02  1.80000000E+02  0.00000000E+00
  4.20000000E+02  1.60000000E+02  0.00000000E+00
  4.20000000E+02  1.40000000E+02  0.00000000E+00
  4.20000000E+02  1.20000000E+02  0.00000000E+00
  4.20000000E+02  1.00000000E+02  0.00000000E+00
  4.20000000E+02  8.00000000E+01  0.00000000E+00
  4.20000000E+02  6.00000000E+01  0.00000000E+00
  4.20000000E+02  4.00000000E+01  0.00000000E+00
  4.20000000E+02  2.00000000E+01  0.00000000E+00
  4.20000000E+02  4.99600361E-14  0.00000000E+00
  4.40000000E+02  3.00000000E+02  0.00000000E+00
  4.40000000E+02  2.80000000E+02  0.00000000E+00
  4.40000000E+02  2.60000000E+02  0.00000000E+00
  4.40000000E+02  2.40000000E+02  0.00000000E+00
  4.40000000E+02  2.20000000E+02  0.00000000E+00
  4.40000000E+02  2.00000000E+02  0.00000000E+00
  4.40000000E+02  1.80000000E+02  0.00000000E+00
  4.40000000E+02  1.60000000E+02  0.00000000E+00
  4.40000000E+02  1.40000000E+02  0.00000000E+00
  4.40000000E+02  1.20000000E+02  0.00000000E+00
  4.40000000E+02  1.00000000E+02  0.00000000E+00
  4.40000000E+02  8.00000000E+01  0.00000000E+00
  4.40000000E+02  6.00000000E+01  0.00000000E+00
  4.40000000E+02  4.00000000E+01  0.00000000E+00
  4.40000000E+02  2.00000000E+01  0.00000000E+00
  4.40000000E+02  4.99600361E-14  0.00000000E+00
  4.60000000E+02  3.00000000E+02  0.00000000E+00
  4.60000000E+02  2.80000000E+02  0.00000000E+00
  4.60000000E+02  2.60000000E+02  0.00000000E+00
  4.60000000E+02  2.40000000E+02  0.00000000E+00
  4.60000000E+02  2.20000000E+02  0.00000000E+00
  4.60000000E+02  2.00000000E+02  0.00000000E+00
  4.60000000E+02  1.80000000E+02  0.00000000E+00
  4.60000000E+02  1.60000000E+02  0.00000000E+00
  4.60000000E+02  1.40000000E+02  0.00000000E+00
  4.60000000E+02  1.20000000E+02  0.00000000E+00
  4.60000000E+02  1.00000000E+02  0.00000000E+00
  4.60000000E+02  8.00000000E+01  0.00000000E+00
  4.60000000E+02  6.00000000E+01  0.00000000E+00
  4.60000000E+02  4.00000000E+01  0.00000000E+00
  4.60000000E+02  2.00000000E+01  0.00000000E+00
  4.60000000E+02  4.99600361E-14  0.00000000E+00
  4.80000000E+02  3.00000000E+02  0.00000000E+00
  4.80000000E+02  2.80000000E+02  0.00000000E+00
  4.80000000E+02  2.60000000E+02  0.00000000E+00
  4.80000000E+02  2.40000000E+02  0.00000000E+00
  4.80000000E+02  2.20000000E+02  0.00000000E+00
  4.80000000E+02  2.00000000E+02  0.00000000E+00
  4.80000000E+02  1.80000000E+02  0.00000000E+00
  4.80000000E+02  1.60000000E+02  0.00000000E+00
  4.80000000E+02  1.40000000E+02  0.00000000E+00
  4.80000000E+02  1.20000000E+02  0.00000000E+00
  4.80000000E+02  1.00000000E+02  0.00000000E+00
  4.80000000E+02  8.00000000E+01  0.00000000E+00
  4.80000000E+02  6.00000000E+01  0.00000000E+00
  4.80000000E+02  4.00000000E+01  0.00000000E+00
  4.80000000E+02  2.00000000E+01  0.00000000E+00
  4.80000000E+02  4.99600361E-14  0.00000000E+00
  5.00000000E+02  3.00000000E+02  0.00000000E+00
  5.00000000E+02  2.80000000E+02  0.00000000E+00
  5.00000000E+02  2.60000000E+02  0.00000000E+00
  5.00000000E+02  2.40000000E+02  0.00000000E+00
  5.00000000E+02  2.20000000E+02  0.00000000E+00
  5.00000000E+02  2.00000000E+02  0.00000000E+00
  5.00000000E+02  1.80000000E+02  0.00000000E+00
  5.00000000E+02  1.60000000E+02  0.00000000E+00
  5.00000000E+02  1.40000000E+02  0.00000000E+00
  5.00000000E+02  1.20000000E+02  0.00000000E+00
  5.00000000E+02  1.00000000E+02  0.00000000E+00
  5.00000000E+02  8.00000000E+01  0.00000000E+00
  5.00000000E+02  6.00000000E+01  0.00000000E+00
  5.00000000E+02  4.00000000E+01  0.00000000E+00
  5.00000000E+02  2.00000000E+01  0.00000000E+00
  5.00000000E+02  4.99600361E-14  0.00000000E+00
  5.20000000E+02  3.00000000E+02  0.00000000E+00
  5.20000000E+02  2.80000000E+02  0.00000000E+00
  5.20000000E+02  2.60000000E+02  0.00000000E+00
  5.20000000E+02  2.40000000E+02  0.00000000E+00
  5.20000000E+02  2.20000000E+02  0.00000000E+00
  5.20000000E+02  2.00000000E+02  0.00000000E+00
  5.20000000E+02  1.80000000E+02  0.00000000E+00
  5.20000000E+02  1.60000000E+02  0.00000000E+00
  5.20000000E+02  1.40000000E+02  0.00000000E+00
  5.20000000E+02  1.20000000E+02  0.00000000E+00
  5.20000000E+02  1.00000000E+02  0.00000000E+00
  5.20000000E+02  8.00000000E+01  0.00000000E+00
  5.20000000E+02  6.00000000E+01  0.00000000E+00
  5.20000000E+02  4.00000000E+01  0.00000000E+00
  5.20000000E+02  2.00000000E+01  0.00000000E+00
  5.20000000E+02  4.99600361E-14  0.00000000E+00
  5.40000000E+02  3.00000000E+02  0.00000000E+00
  5.40000000E+02  2.80000000E+02  0.00000000E+00
  5.40000000E+02  2.60000000E+02  0.00000000E+00
  5.40000000E+02  2.40000000E+02  0.00000000E+00
  5.40000000E+02  2.20000000E+02  0.00000000E+00
  5.40000000E+02  2.00000000E+02  0.00000000E+00
  5.40000000E+02  1.80000000E+02  0.00000000E+00
  5.40000000E+02  1.60000000E+02  0.00000000E+00
  5.40000000E+02  1.40000000E+02  0.00000000E+00
  5.40000000E+02  1.20000000E+02  0.00000000E+00
  5.40000000E+02  1.00000000E+02  0.00000000E+00
  5.40000000E+02  8.00000000E+01  0.00000000E+00
  5.40000000E+02  6.00000000E+01  0.00000000E+00
  5.40000000E+02  4.00000000E+01  0.00000000E+00
  5.40000000E+02  2.00000000E+01  0.00000000E+00
  5.40000000E+02  4.99600361E-14  0.00000000E+00
  5.60000000E+02  3.00000000E+02  0.00000000E+00
  5.60000000E+02  2.80000000E+02  0.00000000E+00
  5.60000000E+02  2.60000000E+02  0.00000000E+00
  5.60000000E+02  2.40000000E+02  0.00000000E+00
  5.60000000E+02  2.20000000E+02  0.00000000E+00
  5.60000000E+02  2.00000000E+02  0.00000000E+00
  5.60000000E+02  1.80000000E+02  0.00000000E+00
  5.60000000E+02  1.60000000E+02  0.00000000E+00
  5.60000000E+02  1.40000000E+02  0.00000000E+00
  5.60000000E+02  1.20000000E+02  0.00000000E+00
  5.60000000E+02  1.00000000E+02  0.00000000E+00
  5.60000000E+02  8.00000000E+01  0.00000000E+00
  5.60000000E+02  6.00000000E+01  0.00000000E+00
  5.60000000E+02  4.00000000E+01  0.00000000E+00
  5.60000000E+02  2.00000000E+01  0.00000000E+00
  5.60000000E+02  4.99600361E-14  0.00000000E+00
  5.80000000E+02  3.00000000E+02  0.00000000E+00
  5.80000000E+02  2.80000000E+02  0.00000000E+00
  5.80000000E+02  2.60000000E+02  0.00000000E+00
  5.80000000E+02  2.40000000E+02  0.00000000E+00
  5.80000000E+02  2.20000000E+02  0.00000000E+00
  5.80000000E+02  2.00000000E+02  0.00000000E+00
  5.80000000E+02  1.80000000E+02  0.00000000E+00
  5.80000000E+02  1.60000000E+02  0.00000000E+00
  5.80000000E+02  1.40000000E+02  0.00000000E+00
  5.80000000E+02  1.20000000E+02  0.00000000E+00
  5.80000000E+02  1.00000000E+02  0.00000000E+00
  5.80000000E+02  8.00000000E+01  0.00000000E+00
  5.80000000E+02  6.00000000E+01  0.00000000E+00
  5.80000000E+02  4.00000000E+01  0.00000000E+00
  5.80000000E+02  2.00000000E+01  0.00000000E+00
  5.80000000E+02  4.99600361E-14  0.00000000E+00
  6.00000000E+02  3.00000000E+02  0.00000000E+00
  6.00000000E+02  2.80000000E+02  0.00000000E+00
  6.00000000E+02  2.60000000E+02  0.00000000E+00
  6.00000000E+02  2.40000000E+02  0.00000000E+00
  6.00000000E+02  2.20000000E+02  0.00000000E+00
  6.00000000E+02  2.00000000E+02  0.00000000E+00
  6.00000000E+02  1.80000000E+02  0.00000000E+00
  6.00000000E+02  1.60000000E+02  0.00000000E+00
  6.00000000E+02  1.40000000E+02  0.00000000E+00
  6.00000000E+02  1.20000000E+02  0.00000000E+00
  6.00000000E+02  1.00000000E+02  0.00000000E+00
  6.00000000E+02  8.00000000E+01  0.00000000E+00
  6.00000000E+02  6.00000000E+01  0.00000000E+00
  6.00000000E+02  4.00000000E+01  0.00000000E+00
  6.00000000E+02  2.00000000E+01  0.00000000E+00
  6.00000000E+02  4.99600361E-14  0.00000000E+00
CELLS       450      2250
         4           0           1          17          16
         4           1           2          18          17
         4           2           3          19          18
         4           3           4          20          19
         4           4           5          21          20
         4           5           6          22          21
         4           6           7          23          22
         4           7           8          24          23
         4           8           9          25          24
         4           9          10          26          25
         4          10          11          27          26
         4          11          12          28          27
         4          12          13          29          28
         4          13          14          30          29
         4          14          15          31          30
         4          16          17          33          32
         4          17          18          34          33
         4          18          19          35          34
         4          19          20          36          35
         4          20          21          37          36
         4          21          22          38          37
         4          22          23          39          38
         4          23          24          40          39
         4          24          25          41          40
         4          25          26          42          41
         4          26          27          43          42
         4          27          28          44          43
         4          28          29          45          44
         4          29          30          46          45
         4          30          31          47          46
         4          32          33          49          48
         4          33          34          50          49
         4          34          35          51          50
         4          35          36          52          51
         4          36          37          53          52
         4          37          38          54          53
         4          38          39          55          54
         4          39          40          56          55
         4          40          41          57          56
         4          41          42          58          57
         4          42          43          59          58
         4          43          44          60          59
         4          44          45          61          60
         4          45          46          62          61
         4          46          47          63          62
         4          48          49          65          64
         4          49          50          66          65
         4          50          51          67          66
         4          51          52          68          67
         4          52          53          69          68
         4          53          54          70          69
         4          54          55          71          70
         4          55          56          72          71
         4          56          57          73          72
         4          57          58          74          73
         4          58          59          75          74
         4          59          60          76          75
         4          60          61          77          76
         4          61          62          78          77
         4          62          63          79          78
         4          64          65          81          80
         4          65          66          82          81
         4          66          67          83          82
         4          67          68          84          83
         4          68          69          85          84
         4          69          70          86          85
         4          70          71          87          86
         4          71          72          88          87
         4          72          73          89          88
         4          73          74          90          89
         4          74          75          91          90
         4          75          76          92          91
         4          76          77          93          92
         4          77          78          94          93
         4          78          79          95          94
         4          80          81          97          96
         4          81          82          98          97
         4          82          83          99          98
         4          83          84         100          99
         4          84          85         101         100
         4          85          86         102         101
         4          86          87         103         102
         4          87          88         104         103
         4          88          89         105         104
         4          89          90         106         105
         4          90          91         107         106
         4          91          92         108         107
         4          92          93         109         108
         4          93          94         110         109
         4          94          95         111         110
         4          96          97         113         112
         4          97          98         114         113
         4          98          99         115         114
         4          99         100         116         115
         4         100         101         117         116
         4         101         102         118         117
         4         102         103         119         118
         4         103         104         120         119
         4         104         105         121         120
         4         105         106         122         121
         4         106         107         123         122
         4         107         108         124         123
         4         108         109         125         124
         4         109         110         126         125
         4         110         111         127         126
         4         112         113         129         128
         4         113         114         130         129
         4         114         115         131         130
         4         115         116         132         131
         4         116         117         133         132
         4         117         118         134         133
         4         118         119         135         134
         4         119         120         136         135
         4         120         121         137         136
         4         121         122         138         137
         4         122         123         139         138
         4         123         124         140         139
         4         124         125         141         140
         4         125         126         142         141
         4         126         127         143         142
         4         128         129         145         144
         4         129         130         146         145
         4         130         131         147         146
         4         131         132         148         147
         4         132         133         149         148
         4         133         134         150         149
         4         134         135         151         150
         4         135         136         152         151
         4         136         137         153         152
         4         137         138         154         153
         4         138         139         155         154
         4         139         140         156         155
         4         140         141         157         156
         4         141         142         158         157
         4         142         143         159         158
         4         144         145         161         160
         4         145         146         162         161
         4         146         147         163         162
         4         147         148         164         163
         4         148         149         165         164
         4         149         150         166         165
         4         150         151         167         166
         4         151         152         168         167
         4         152         153         169         168
         4         153         154         170         169
         4         154         155         171         170
         4         155         156         172         171
         4         156         157         173         172
         4         157         158         174         173
         4         158         159         175         174
         4         160         161         177         176
         4         161         162         178         177
         4         162         163         179         178
         4         163         164         180         179
         4         164         165         181         180
         4         165         166         182         181
         4         166         167         183         182
         4         167         168         184         183
         4         168         169         185         184
         4         169         170         186         185
         4         170         171         187         186
         4         171         172         188         187
         4         172         173         189         188
         4         173         174         190         189
         4         174         175         191         190
         4         176         177         193         192
         4         177         178         194         193
         4         178         179         195         194
         4         179         180         196         195
         4         180         181         197         196
         4         181         182         198         197
         4         182         183         199         198
         4         183         184         200         199
         4         184         185         201         200
         4         185         186         202         201
         4         186         187         203         202
         4         187         188         204         203
         4         188         189         205         204
         4         189         190         206         205
         4         190         191         207         206
         4         192         193         209         208
         4         193         194         210         209
         4         194         195         211         210
         4         195         196         212         211
         4         196         197         213         212
         4         197         198         214         213
         4         198         199         215         214
         4         199         200         216         215
         4         200         201         217         216
         4         201         202         218         217
         4         202         203         219         218
         4         203         204         220         219
         4         204         205         221         220
         4         205         206         222         221
         4         206         207         223         222
         4         208         209         225         224
         4         209         210         226         225
         4         210         211         227         226
         4         211         212         228         227
         4         212         213         229         228
         4         213         214         230         229
         4         214         215         231         230
         4         215         216         232         231
         4         216         217         233         232
         4         217         218         234         233
         4         218         219         235         234
         4         219         220         236         235
         4         220         221         237         236
         4         221         222         238         237
         4         222         223         239         238
         4         224         225         241         240
         4         225         226         242         241
         4         226         227         243         242
         4         227         228         244         243
         4         228         229         245         244
         4         229         230         246         245
         4         230         231         247         246
         4         231         232         248         247
         4         232         233         249         248
         4         233         234         250         249
         4         234         235         251         250
         4         235         236         252         251
         4         236         237         253         252
         4         237         238         254         253
         4         238         239         255         254
         4         240         241         257         256
         4         241         242         258         257
         4         242         243         259         258
         4         243         244         260         259
         4         244         245         261         260
         4         245         246         262         261
         4         246         247         263         262
         4         247         248         264         263
         4         248         249         265         264
         4         249         250         266         265
         4         250         251         267         266
         4         251         252         268         267
         4         252         253         269         268
         4         253         254         270         269
         4         254         255         271         270
         4         256         257         273         272
         4         257         258         274         273
         4         258         259         275         274
         4         259         260         276         275
         4         260         261         277         276
         4         261         262         278         277
         4         262         263         279         278
         4         263         264         280         279
         4         264         265         281         280
         4         265         266         282         281
         4         266         267         283         282
         4         267         268         284         283
         4         268         269         285         284
         4         269         270         286         285
         4         270         271         287         286
         4         272         273         289         288
         4         273         274         290         289
         4         274         275         291         290
         4         275         276         292         291
         4         276         277         293         292
         4         277         278         294         293
         4         278         279         295         294
         4         279         280         296         295
         4         280         281         297         296
         4         281         282         298         297
         4         282         283         299         298
         4         283         284         300         299
         4         284         285         301         300
         4         285         286         302         301
         4         286         287         303         302
         4         288         289         305         304
         4         289         290         306         305
         4         290         291         307         306
         4         291         292         308         307
         4         292         293         309         308
         4         293         294         310         309
         4         294         295         311         310
         4         295         296         312         311
         4         296         297         313         312
         4         297         298         314         313
         4         298         299         315         314
         4         299         300         316         315
         4         300         301         317         316
         4         301         302         318         317
         4         302         303         319         318
         4         304         305         321         320
         4         305         306         322         321
         4         306         307         323         322
         4         307         308         324         323
         4         308         309         325         324
         4         309         310         326         325
         4         310         311         327         326
         4         311         312         328         327
         4         312         313         329         328
         4         313         314         330         329
         4         314         315         331         330
         4         315         316         332         331
         4         316         317         333         332
         4         317         318         334         333
         4         318         319         335         334
         4         320         321         337         336
         4         321         322         338         337
         4         322         323         339         338
         4         323         324         340         339
         4         324         325         341         340
         4         325         326         342         341
         4         326         327         343         342
         4         327         328         344         343
         4         328         329         345         344
         4         329         330         346         345
         4         330         331         347         346
         4         331         332         348         347
         4         332         333         349         348
         4         333         334         350         349
         4         334         335         351         350
         4         336         337         353         352
         4         337         338         354         353
         4         338         339         355         354
         4         339         340         356         355
         4         340         341         357         356
         4         341         342         358         357
         4         342         343         359         358
         4         343         344         360         359
         4         344         345         361         360
         4         345         346         362         361
         4         346         347         363         362
         4         347         348         364         363
         4         348         349         365         364
         4         349         350         366         365
         4         350         351         367         366
         4         352         353         369         368
         4         353         354         370         369
         4         354         355         371         370
         4         355         356         372         371
         4         356         357         373         372
         4         357         358         374         373
         4         358         359         375         374
         4         359         360         376         375
         4         360         361         377         376
         4         361         362         378         377
         4         362         363         379         378
         4         363         364         380         379
         4         364         365         381         380
         4         365         366         382         381
         4         366         367         383         382
         4         368         369         385         384
         4         369         370         386         385
         4         370         371         387         386
         4         371         372         388         387
         4         372         373         389         388
         4         373         374         390         389
         4         374         375         391         390
         4         375         376         392         391
         4         376         377         393         392
         4         377         378         394         393
         4         378         379         395         394
         4         379         380         396         395
         4         380         381         397         396
         4         381         382         398         397
         4         382         383         399         398
         4         384         385         401         400
         4         385         386         402         401
         4         386         387         403         402
         4         387         388         404         403
         4         388         389         405         404
         4         389         390         406         405
         4         390         391         407         406
         4         391         392         408         407
         4         392         393         409         408
         4         393         394         410         409
         4         394         395         411         410
         4         395         396         412         411
         4         396         397         413         412
         4         397         398         414         413
         4         398         399         415         414
         4         400         401         417         416
         4         401         402         418         417
         4         402         403         419         418
         4         403         404         420         419
         4         404         405         421         420
         4         405         406         422         421
         4         406         407         423         422
         4         407         408         424         423
         4         408         409         425         424
         4         409         410         426         425
         4         410         411         427         426
         4         411         412         428         427
         4         412         413         429         428
         4         413         414         430         429
         4         414         415         431         430
         4         416         417         433         432
         4         417         418         434         433
         4         418         419         435         434
         4         419         420         436         435
         4         420         421         437         436
         4         421         422         438         437
         4         422         423         439         438
         4         423         424         440         439
         4         424         425         441         440
         4         425         426         442         441
         4         426         427         443         442
         4         427         428         444         443
         4         428         429         445         444
         4         429         430         446         445
         4         430         431         447         446
         4         432         433         449         448
         4         433         434         450         449
         4         434         435         451         450
         4         435         436         452         451
         4         436         437         453         452
         4         437         438         454         453
         4         438         439         455         454
         4         439         440         456         455
         4         440         441         457         456
         4         441         442         458         457
         4         442         443         459         458
         4         443         444         460         459
         4         444         445         461         460
         4         445         446         462         461
         4         446         447         463         462
         4         448         449         465         464
         4         449         450         466         465
         4         450         451         467         466
         4         451         452         468         467
         4         452         453         469         468
         4         453         454         470         469
         4         454         455         471         470
         4         455         456         472         471
         4         456         457         473         472
         4         457         458         474         473
         4         458         459         475         474
         4         459         460         476         475
         4         460         461         477         476
         4         461         462         478         477
         4         462         463         479         478
         4         464         465         481         480
         4         465         466         482         481
         4         466         467         483         482
         4         467         468         484         483
         4         468         469         485         484
         4         469         470         486         485
         4         470         471         487         486
         4         471         472         488         487
         4         472         473         489         488
         4         473         474         490         489
         4         474         475         491         490
         4         475         476         492         491
         4         476         477         493         492
         4         477         478         494         493
         4         478         479         495         494
CELL_TYPES        450
9
9
9
9
9
9
9
9
9
9
9
9
9
9
9
9
9
9
9
9
9
9
9
9
9
9
9
9
9
9
9
9
9
9
9
9
9
9
9
9
9
9
9
9
9
9
9
9
9
9
9
9
9
9
9
9
9
9
9
9
9
9
9
9
9
9
9
9
9
9
9
9
9
9
9
9
9
9
9
9
9
9
9
9
9
9
9
9
9
9
9
9
9
9
9
9
9
9
9
9
9
9
9
9
9
9
9
9
9
9
9
9
9
9
9
9
9
9
9
9
9
9
9
9
9
9
9
9
9
9
9
9
9
9
9
9
9
9
9
9
9
9
9
9
9
9
9
9
9
9
9
9
9
9
9
9
9
9
9
9
9
9
9
9
9
9
9
9
9
9
9
9
9
9
9
9
9
9
9
9
9
9
9
9
9
9
9
9
9
9
9
9
9
9
9
9
9
9
9
9
9
9
9
9
9
9
9
9
9
9
9
9
9
9
9
9
9
9
9
9
9
9
9
9
9
9
9
9
9
9
9
9
9
9
9
9
9
9
9
9
9
9
9
9
9
9
9
9
9
9
9
9
9
9
9
9
9
9
9
9
9
9
9
9
9
9
9
9
9
9
9
9
9
9
9
9
9
9
9
9
9
9
9
9
9
9
9
9
9
9
9
9
9
9
9
9
9
9
9
9
9
9
9
9
9
9
9
9
9
9
9
9
9
9
9
9
9
9
9
9
9
9
9
9
9
9
9
9
9
9
9
9
9
9
9
9
9
9
9
9
9
9
9
9
9
9
9
9
9
9
9
9
9
9
9
9
9
9
9
9
9
9
9
9
9
9
9
9
9
9
9
9
9
9
9
9
9
9
9
9
9
9
9
9
9
9
9
9
9
9
9
9
9
9
9
9
9
9
9
9
9
9
9
9
9
9
9
9
9
9
9
9
9
9
9
9
9
9
9
9
9
9
9
9
9
9
9
9
9
9
9
9
9
9
9
9
9
9
9
9
9
9
9
9
9
9
9
9
9
9
POINT_DATA       496
SCALARS p double 
LOOKUP_TABLE default
   66290484.8734537     
   66308081.7809712     
   66348675.7483918     
   66397447.4114976     
   66450604.6452085     
   66505687.3399032     
   66561033.2194150     
   66615391.9827890     
   66667762.6977728     
   66717295.5881830     
   66763222.1140540     
   66804790.8311443     
   66841191.4140976     
   66871394.5799410     
   66894036.7735057     
   66903322.0449959     
   64455261.8097427     
   64463158.0432303     
   64485885.2251634     
   64519465.8113956     
   64559238.6363098     
   64602463.3821062     
   64647182.2631198     
   64691913.1361029     
   64735462.5378250     
   64776812.8143847     
   64815038.3797877     
   64849228.5759621     
   64878390.2348096     
   64901316.5270605     
   64916035.3007096     
   64921050.3679612     
   62608639.8703863     
   62613164.2417891     
   62626968.0817554     
   62649420.3825740     
   62678246.5408125     
   62711130.3303197     
   62746223.4997499     
   62782025.8212632     
   62817286.5419837     
   62850919.8703452     
   62881934.8461085     
   62909370.4292709     
   62932232.9415760     
   62949416.7788739     
   62959943.9359144     
   62963478.3892452     
   60757850.9185324     
   60760709.8745220     
   60769609.6467780     
   60784771.7884721     
   60805266.1686299     
   60829642.5267850     
   60856425.6249806     
   60884287.5547596     
   60912054.6686863     
   60938678.9013954     
   60963200.6788990     
   60984715.9267252     
   61002357.8854655     
   61015355.6259959     
   61023193.5168217     
   61025810.9644530     
   58906472.2210333     
   58908348.3776727     
   58914224.7758157     
   58924509.1999787     
   58938875.3785023     
   58956502.8419983     
   58976359.4131822     
   58997388.7670837     
   59018589.8091926     
   59039036.6573214     
   59057877.7499270     
   59074334.4589717     
   59087720.8581511     
   59097500.0323554     
   59103371.6023186     
   59105341.0303341     
   57056560.7259325     
   57057794.8006383     
   57061647.8411365     
   57068516.5024937     
   57078341.8736312     
   57090688.0127340     
   57104885.8183378     
   57120164.8654627     
   57135739.9391100     
   57150856.8802057     
   57164816.5782432     
   57176994.8506898     
   57186870.5867859     
   57194066.3303808     
   57198389.9644730     
   57199851.7031768     
   55209369.9711966     
   55210148.2138958     
   55212552.0343859     
   55216914.0620783     
   55223292.3124888     
   55231481.9983824     
   55241081.1798190     
   55251571.1303129     
   55262384.8953746     
   55272956.3532761     
   55282754.4373845     
   55291310.8572669     
   55298247.3126632     
   55303302.0245655     
   55306347.8612190     
   55307389.3680292     
   53365619.9866206     
   53366049.5003341     
   53367346.7603850     
   53369777.1406997     
   53373451.3395559     
   53378308.9333035     
   53384141.9032777     
   53390638.4636715     
   53397430.0714274     
   53404132.4561729     
   53410378.8867114     
   53415847.4872558     
   53420284.0966388     
   53423519.3377136     
   53425475.2767635     
   53426155.7169621     
   51525634.0735560     
   51525775.9286351     
   51526171.2482050     
   51527032.6900671     
   51528499.6749259     
   51530609.9507957     
   51533300.3102806     
   51536426.4821203     
   51539791.6874915     
   51543176.2883149     
   51546364.6637935     
   51549167.8941639     
   51551441.3631339     
   51553095.5541472     
   51554097.2928304     
   51554458.7050867     
   49689414.6868313     
   49689301.0449137     
   49688910.7356028     
   49688424.5630005     
   49688006.2532158     
   49687769.0645052     
   49687763.9296564     
   49687983.9444891     
   49688378.7825364     
   49688873.3818392     
   49689386.8949293     
   49689849.3239830     
   49690213.9585552     
   49690463.8218983     
   49690610.3500002     
   49690683.0469442     
   47856691.9465691     
   47856335.7673116     
   47855216.8110283     
   47853506.8118861     
   47851399.1631898     
   47849073.6493202     
   47846677.4860161     
   47844319.8856243     
   47842076.1521755     
   47839997.2206782     
   47838121.1568501     
   47836483.8987484     
   47835127.1225104     
   47834101.5286078     
   47833464.2703336     
   47833269.9129953     
   46026958.1566081     
   46026359.2445803     
   46024527.6111065     
   46021648.9271341     
   46017956.6440672     
   46013696.1736411     
   46009101.8236672     
   46004384.9439709     
   45999730.7197079     
   45995300.6630323     
   45991237.9650576     
   45987673.2432096     
   45984728.6705141     
   45982518.9443007     
   45981148.0873465     
   45980701.7421838     
   44199494.7502324     
   44198643.8262296     
   44196086.9342366     
   44192046.2965220     
   44186808.4591698     
   44180688.4423162     
   44174004.2622704     
   44167060.9464938     
   44160142.3310815     
   44153508.4670644     
   44147396.3530264     
   44142021.8660807     
   44137581.0849317     
   44134249.6311404     
   44132179.1825944     
   44131490.9322966     
   42373394.7382891     
   42372276.3673001     
   42368962.1197778     
   42363732.8436668     
   42356942.6383965     
   42348983.1003991     
   42340256.4129577     
   42331156.7818548     
   42322059.0120908     
   42313312.5479924     
   42305239.0926026     
   42298131.9582172     
   42292255.5301135     
   42287843.6037295     
   42285095.8456525     
   42284172.1969155     
   40547582.1316444     
   40546176.9438437     
   40542060.6500576     
   40535594.3372318     
   40527214.9095684     
   40517399.3274453     
   40506636.8468494     
   40495408.9889643     
   40484176.3168741     
   40473370.6164826     
   40463390.8230694     
   40454601.0084524     
   40447328.9210214     
   40441863.9126914     
   40438453.5496207     
   40437298.7414111     
   38720828.9717772     
   38719115.4262301     
   38714145.3781063     
   38706381.5246687     
   38696359.3137454     
   38684650.9147916     
   38671836.9600126     
   38658485.9192784     
   38645140.2994974     
   38632308.3476606     
   38620459.6466601     
   38610022.9384498     
   38601384.6701278     
   38594887.0954100     
   38590825.2282899     
   38589442.4852364     
   36891770.1524165     
   36889726.0034703     
   36883848.2086865     
   36874722.5405237     
   36862999.1035111     
   36849355.6388292     
   36834468.9956232     
   36818994.6889397     
   36803553.6907883     
   36788725.0219754     
   36775042.3920666     
   36762993.0813737     
   36753017.4419865     
   36745507.7654583     
   36740805.7677092     
   36739198.5205073     
   35058915.9662812     
   35056519.5505189     
   35049682.0002332     
   35039134.1801712     
   35025657.3499457     
   35010045.2687101     
   34993075.5888226     
   34975490.4196528     
   34957984.9744978     
   34941202.5302810     
   34925733.5912291     
   34912117.1347259     
   34900842.0692546     
   34892347.4818405     
   34887020.8336325     
   34885193.9200313     
   33220662.1711840     
   33217893.6153586     
   33210050.4179678     
   33198031.7119162     
   33182766.8884711     
   33165175.8319795     
   33146140.4958205     
   33126487.5056135     
   33106980.1946444     
   33088317.6655641     
   33071138.1602786     
   33056024.1164364     
   33043506.6701703     
   33034067.9324008     
   33028140.0596746     
   33026100.9153230     
   31375297.2869394     
   31372139.7352186     
   31363255.4545192     
   31349736.9764066     
   31332679.4095332     
   31313138.0107212     
   31292100.4380487     
   31270472.8753165     
   31249077.4786429     
   31228657.6846997     
   31209887.7572684     
   31193383.2822256     
   31179709.9098816     
   31169388.3587992     
   31162894.5117301     
   31160654.3553252     
   29521006.7753973     
   29517447.7472376     
   29507502.3470830     
   29492484.6347568     
   29473673.7239794     
   29452267.8434403     
   29429358.3091957     
   29405921.4805185     
   29382824.4253023     
   29360839.1781277     
   29340660.7523462     
   29322924.8663455     
   29308222.2234087     
   29297107.0155075     
   29290098.2056742     
   29287673.2167168     
   27655873.6932774     
   27651906.7203912     
   27640901.6719373     
   27624426.6330417     
   27603963.6005525     
   27580858.3706005     
   27556298.4420747     
   27531314.5795125     
   27506798.6733967     
   27483530.2864835     
   27462205.6260425     
   27443464.3250549     
   27427910.6191588     
   27416126.2623270     
   27408673.2693702     
   27406085.7523557     
   25777875.3107548     
   25773502.0865546     
   25761468.5222805     
   25743635.3570813     
   25721706.2428062     
   25697173.6438251     
   25671305.3220969     
   25645161.8221910     
   25619632.1009126     
   25595476.1723684     
   25573367.3144093     
   25553929.4086307     
   25537766.3507024     
   25525480.6088491     
   25517678.0943971     
   25514957.6289341     
   23884875.0080200     
   23880108.4742594     
   23867118.9619916     
   23848106.7819812     
   23825013.7428774     
   23799467.8744330     
   23772788.1958597     
   23746028.6911153     
   23720039.1188391     
   23695527.2597484     
   23673115.4024512     
   23653388.7399088     
   23636934.2012905     
   23624366.6297940     
   23616337.5208715     
   23613522.1301826     
   21974608.4251692     
   21969477.6343002     
   21955664.6317045     
   21935766.6920725     
   21911972.2976102     
   21886014.8077010     
   21859215.5392429     
   21832571.3923862     
   21806849.2377239     
   21782668.9020843     
   21760571.9325089     
   21741079.4454945     
   21724741.2402142     
   21712173.1134060     
   21704073.7640960     
   21701211.2378658     
   20044662.0680681     
   20039220.7642126     
   20024808.1516167     
   20004487.0034180     
   19980678.7467909     
   19955156.0505983     
   19929165.0716160     
   19903581.4023966     
   19879043.2285637     
   19856049.6930554     
   19835034.7248486     
   19816429.4721300     
   19800721.4115794     
   19788508.9795439     
   19780536.4939754     
   19777686.2250728     
   18092441.5765294     
   18086784.6251225     
   18072147.0005824     
   18052128.7957870     
   18029312.8926292     
   18005381.7693300     
   17981395.4146550     
   17958040.5588049     
   17935790.6964331     
   17915003.7692620     
   17895989.5752192     
   17879066.9605872     
   17864629.5105270     
   17853225.0905898     
   17845630.1440364     
   17842866.6832900     
   16115120.6989469     
   16109424.2191323     
   16095210.4693477     
   16076651.5342122     
   16056279.4507353     
   16035457.6808781     
   16014940.6318861     
   15995183.7631483     
   15976484.9537164     
   15959062.0170783     
   15943102.0679141     
   15928804.1659409     
   15916431.7974200     
   15906422.2830890     
   15899536.9189414     
   15896956.7438238     
   14109576.0440581     
   14104189.6414874     
   14091611.7551169     
   14076390.8809875     
   14060455.0640175     
   14044592.6618300     
   14029216.2867028     
   14014559.8282760     
   14000769.7526358     
   13987949.3506582     
   13976186.0261534     
   13965574.0074651     
   13956246.5643180     
   13948427.5523972     
   13942727.4786310     
   13940477.8587257     
   12072204.3721378     
   12068101.6880715     
   12059689.6312304     
   12050614.4609470     
   12041487.0971249     
   12032604.2787732     
   12024107.4364070     
   12016074.7019611     
   12008552.4292981     
   12001571.5524007     
   11995157.2681380     
   11989336.9132715     
   11984148.2011662     
   11979665.2655288     
   11975978.2654697     
   11974262.8002575     
   10000000.0000000     
   10000000.0000000     
   10000000.0000000     
   10000000.0000000     
   10000000.0000000     
   10000000.0000000     
   10000000.0000000     
   10000000.0000000     
   10000000.0000000     
   10000000.0000000     
   10000000.0000000     
   10000000.0000000     
   10000000.0000000     
  10000000.00000000     
   10000000.0000000     
   10000000.0000000     
VECTORS u double 
    0.00000E+00         0.18302E+00         0.00000E+00
    0.00000E+00         0.15510E+00         0.00000E+00
    0.00000E+00         0.13203E+00         0.00000E+00
    0.00000E+00         0.11349E+00         0.00000E+00
    0.00000E+00         0.98905E-01         0.00000E+00
    0.00000E+00         0.87702E-01         0.00000E+00
    0.00000E+00         0.79284E-01         0.00000E+00
    0.00000E+00         0.73023E-01         0.00000E+00
    0.00000E+00         0.68257E-01         0.00000E+00
    0.00000E+00         0.64271E-01         0.00000E+00
    0.00000E+00         0.60282E-01         0.00000E+00
    0.00000E+00         0.55403E-01         0.00000E+00
    0.00000E+00         0.48595E-01         0.00000E+00
    0.00000E+00         0.38566E-01         0.00000E+00
    0.00000E+00         0.23552E-01         0.00000E+00
    0.00000E+00         0.00000E+00         0.00000E+00
    0.20876E+00         0.16067E+00         0.00000E+00
    0.17790E+00         0.13866E+00         0.00000E+00
    0.15747E+00         0.11878E+00         0.00000E+00
    0.14166E+00         0.10236E+00         0.00000E+00
    0.12863E+00         0.89362E-01         0.00000E+00
    0.11739E+00         0.79437E-01         0.00000E+00
    0.10732E+00         0.72088E-01         0.00000E+00
    0.97985E-01         0.66755E-01         0.00000E+00
    0.89031E-01         0.62814E-01         0.00000E+00
    0.80149E-01         0.59578E-01         0.00000E+00
    0.71030E-01         0.56282E-01         0.00000E+00
    0.61326E-01         0.52053E-01         0.00000E+00
    0.50586E-01         0.45866E-01         0.00000E+00
    0.38117E-01         0.36446E-01         0.00000E+00
    0.22641E-01         0.22039E-01         0.00000E+00
    0.00000E+00         0.00000E+00         0.00000E+00
    0.40148E+00         0.10634E+00         0.00000E+00
    0.34590E+00         0.93293E-01         0.00000E+00
    0.30572E+00         0.80799E-01         0.00000E+00
    0.27432E+00         0.69962E-01         0.00000E+00
    0.24832E+00         0.61381E-01         0.00000E+00
    0.22585E+00         0.55089E-01         0.00000E+00
    0.20572E+00         0.50837E-01         0.00000E+00
    0.18705E+00         0.48215E-01         0.00000E+00
    0.16917E+00         0.46703E-01         0.00000E+00
    0.15146E+00         0.45688E-01         0.00000E+00
    0.13331E+00         0.44461E-01         0.00000E+00
    0.11405E+00         0.42195E-01         0.00000E+00
    0.92828E-01         0.37915E-01         0.00000E+00
    0.68431E-01         0.30432E-01         0.00000E+00
    0.38717E-01         0.18254E-01         0.00000E+00
    0.00000E+00         0.00000E+00         0.00000E+00
    0.57689E+00         0.29754E-01         0.00000E+00
    0.50201E+00         0.25879E-01         0.00000E+00
    0.44430E+00         0.22033E-01         0.00000E+00
    0.39804E+00         0.18750E-01         0.00000E+00
    0.35939E+00         0.16593E-01         0.00000E+00
    0.32585E+00         0.15820E-01         0.00000E+00
    0.29577E+00         0.16396E-01         0.00000E+00
    0.26788E+00         0.18080E-01         0.00000E+00
    0.24119E+00         0.20481E-01         0.00000E+00
    0.21479E+00         0.23087E-01         0.00000E+00
    0.18782E+00         0.25272E-01         0.00000E+00
    0.15933E+00         0.26294E-01         0.00000E+00
    0.12818E+00         0.25282E-01         0.00000E+00
    0.92832E-01         0.21225E-01         0.00000E+00
    0.51099E-01         0.13076E-01         0.00000E+00
    0.00000E+00         0.00000E+00         0.00000E+00
    0.73547E+00        -0.63982E-01         0.00000E+00
    0.64508E+00        -0.58625E-01         0.00000E+00
    0.57239E+00        -0.53475E-01         0.00000E+00
    0.51257E+00        -0.48337E-01         0.00000E+00
    0.46192E+00        -0.42855E-01         0.00000E+00
    0.41771E+00        -0.36765E-01         0.00000E+00
    0.37793E+00        -0.29995E-01         0.00000E+00
    0.34104E+00        -0.22661E-01         0.00000E+00
    0.30575E+00        -0.15035E-01         0.00000E+00
    0.27094E+00        -0.75222E-02         0.00000E+00
    0.23550E+00        -0.64575E-03         0.00000E+00
    0.19827E+00         0.49630E-02         0.00000E+00
    0.15793E+00         0.85764E-02         0.00000E+00
    0.11285E+00         0.94113E-02         0.00000E+00
    0.61013E-01         0.67281E-02         0.00000E+00
    0.00000E+00         0.00000E+00         0.00000E+00
    0.87780E+00        -0.17137E+00         0.00000E+00
    0.77478E+00        -0.15678E+00         0.00000E+00
    0.68937E+00        -0.14250E+00         0.00000E+00
    0.61752E+00        -0.12854E+00         0.00000E+00
    0.55582E+00        -0.11473E+00         0.00000E+00
    0.50154E+00        -0.10088E+00         0.00000E+00
    0.45251E+00        -0.86902E-01         0.00000E+00
    0.40697E+00        -0.72836E-01         0.00000E+00
    0.36345E+00        -0.58868E-01         0.00000E+00
    0.32060E+00        -0.45304E-01         0.00000E+00
    0.27716E+00        -0.32563E-01         0.00000E+00
    0.23180E+00        -0.21153E-01         0.00000E+00
    0.18312E+00        -0.11649E-01         0.00000E+00
    0.12950E+00        -0.46368E-02         0.00000E+00
    0.69130E-01        -0.63850E-03         0.00000E+00
    0.00000E+00         0.00000E+00         0.00000E+00
    0.10045E+01        -0.28979E+00         0.00000E+00
    0.89110E+00        -0.26596E+00         0.00000E+00
    0.79495E+00        -0.24250E+00         0.00000E+00
    0.71260E+00        -0.21952E+00         0.00000E+00
    0.64095E+00        -0.19698E+00         0.00000E+00
    0.57739E+00        -0.17478E+00         0.00000E+00
    0.51971E+00        -0.15285E+00         0.00000E+00
    0.46604E+00        -0.13121E+00         0.00000E+00
    0.41475E+00        -0.10997E+00         0.00000E+00
    0.36437E+00        -0.89369E-01         0.00000E+00
    0.31348E+00        -0.69725E-01         0.00000E+00
    0.26069E+00        -0.51429E-01         0.00000E+00
    0.20454E+00        -0.34917E-01         0.00000E+00
    0.14348E+00        -0.20619E-01         0.00000E+00
    0.75866E-01        -0.89034E-02         0.00000E+00
    0.00000E+00         0.00000E+00         0.00000E+00
    0.11161E+01        -0.41716E+00         0.00000E+00
    0.99421E+00        -0.38411E+00         0.00000E+00
    0.88905E+00        -0.35143E+00         0.00000E+00
    0.79762E+00        -0.31932E+00         0.00000E+00
    0.71718E+00        -0.28781E+00         0.00000E+00
    0.64525E+00        -0.25686E+00         0.00000E+00
    0.57966E+00        -0.22644E+00         0.00000E+00
    0.51849E+00        -0.19656E+00         0.00000E+00
    0.46003E+00        -0.16730E+00         0.00000E+00
    0.40270E+00        -0.13883E+00         0.00000E+00
    0.34502E+00        -0.11140E+00         0.00000E+00
    0.28553E+00        -0.85278E-01         0.00000E+00
    0.22278E+00        -0.60801E-01         0.00000E+00
    0.15526E+00        -0.38274E-01         0.00000E+00
    0.81497E-01        -0.17956E-01         0.00000E+00
    0.00000E+00         0.00000E+00         0.00000E+00
    0.12132E+01        -0.55178E+00         0.00000E+00
    0.10844E+01        -0.50952E+00         0.00000E+00
    0.97168E+00        -0.46762E+00         0.00000E+00
    0.87253E+00        -0.42631E+00         0.00000E+00
    0.78445E+00        -0.38566E+00         0.00000E+00
    0.70512E+00        -0.34568E+00         0.00000E+00
    0.63245E+00        -0.30638E+00         0.00000E+00
    0.56452E+00        -0.26775E+00         0.00000E+00
    0.49957E+00        -0.22988E+00         0.00000E+00
    0.43598E+00        -0.19286E+00         0.00000E+00
    0.37221E+00        -0.15689E+00         0.00000E+00
    0.30679E+00        -0.12216E+00         0.00000E+00
    0.23826E+00        -0.88911E-01         0.00000E+00
    0.16519E+00        -0.57362E-01         0.00000E+00
    0.86213E-01        -0.27690E-01         0.00000E+00
    0.00000E+00         0.00000E+00         0.00000E+00
    0.12964E+01        -0.69224E+00         0.00000E+00
    0.11619E+01        -0.64079E+00         0.00000E+00
    0.10430E+01        -0.58968E+00         0.00000E+00
    0.93734E+00        -0.53912E+00         0.00000E+00
    0.84273E+00        -0.48921E+00         0.00000E+00
    0.75701E+00        -0.44001E+00         0.00000E+00
    0.67814E+00        -0.39152E+00         0.00000E+00
    0.60425E+00        -0.34377E+00         0.00000E+00
    0.53358E+00        -0.29679E+00         0.00000E+00
    0.46447E+00        -0.25068E+00         0.00000E+00
    0.39536E+00        -0.20556E+00         0.00000E+00
    0.32478E+00        -0.16157E+00         0.00000E+00
    0.25128E+00        -0.11889E+00         0.00000E+00
    0.17351E+00        -0.77660E-01         0.00000E+00
    0.90143E-01        -0.38007E-01         0.00000E+00
    0.00000E+00         0.00000E+00         0.00000E+00
    0.13660E+01        -0.83737E+00         0.00000E+00
    0.12271E+01        -0.77674E+00         0.00000E+00
    0.11031E+01        -0.71641E+00         0.00000E+00
    0.99210E+00        -0.65657E+00         0.00000E+00
    0.89205E+00        -0.59734E+00         0.00000E+00
    0.80092E+00        -0.53877E+00         0.00000E+00
    0.71679E+00        -0.48087E+00         0.00000E+00
    0.63780E+00        -0.42369E+00         0.00000E+00
    0.56221E+00        -0.36724E+00         0.00000E+00
    0.48837E+00        -0.31159E+00         0.00000E+00
    0.41471E+00        -0.25683E+00         0.00000E+00
    0.33975E+00        -0.20307E+00         0.00000E+00
    0.26208E+00        -0.15041E+00         0.00000E+00
    0.18037E+00        -0.98961E-01         0.00000E+00
    0.93377E-01        -0.48809E-01         0.00000E+00
    0.00000E+00         0.00000E+00         0.00000E+00
    0.14227E+01        -0.98617E+00         0.00000E+00
    0.12802E+01        -0.91638E+00         0.00000E+00
    0.11522E+01        -0.84683E+00         0.00000E+00
    0.10369E+01        -0.77769E+00         0.00000E+00
    0.93243E+00        -0.70907E+00         0.00000E+00
    0.83690E+00        -0.64101E+00         0.00000E+00
    0.74844E+00        -0.57355E+00         0.00000E+00
    0.66525E+00        -0.50670E+00         0.00000E+00
    0.58560E+00        -0.44049E+00         0.00000E+00
    0.50784E+00        -0.37497E+00         0.00000E+00
    0.43043E+00        -0.31019E+00         0.00000E+00
    0.35187E+00        -0.24623E+00         0.00000E+00
    0.27079E+00        -0.18317E+00         0.00000E+00
    0.18589E+00        -0.12108E+00         0.00000E+00
    0.95977E-01        -0.60008E-01         0.00000E+00
    0.00000E+00         0.00000E+00         0.00000E+00
    0.14666E+01        -0.11378E+01         0.00000E+00
    0.13214E+01        -0.10588E+01         0.00000E+00
    0.11904E+01        -0.98007E+00         0.00000E+00
    0.10718E+01        -0.90162E+00         0.00000E+00
    0.96393E+00        -0.82356E+00         0.00000E+00
    0.86498E+00        -0.74594E+00         0.00000E+00
    0.77313E+00        -0.66878E+00         0.00000E+00
    0.68664E+00        -0.59209E+00         0.00000E+00
    0.60380E+00        -0.51591E+00         0.00000E+00
    0.52298E+00        -0.44025E+00         0.00000E+00
    0.44262E+00        -0.36516E+00         0.00000E+00
    0.36126E+00        -0.29070E+00         0.00000E+00
    0.27753E+00        -0.21690E+00         0.00000E+00
    0.19015E+00        -0.14383E+00         0.00000E+00
    0.97984E-01        -0.71518E-01         0.00000E+00
    0.00000E+00         0.00000E+00         0.00000E+00
    0.14981E+01        -0.12914E+01         0.00000E+00
    0.13510E+01        -0.12033E+01         0.00000E+00
    0.12178E+01        -0.11154E+01         0.00000E+00
    0.10969E+01        -0.10276E+01         0.00000E+00
    0.98659E+00        -0.94006E+00         0.00000E+00
    0.88517E+00        -0.85282E+00         0.00000E+00
    0.79089E+00        -0.76587E+00         0.00000E+00
    0.70202E+00        -0.67923E+00         0.00000E+00
    0.61688E+00        -0.59291E+00         0.00000E+00
    0.53384E+00        -0.50693E+00         0.00000E+00
    0.45136E+00        -0.42132E+00         0.00000E+00
    0.36799E+00        -0.33611E+00         0.00000E+00
    0.28235E+00        -0.25134E+00         0.00000E+00
    0.19321E+00        -0.16705E+00         0.00000E+00
    0.99423E-01        -0.83260E-01         0.00000E+00
    0.00000E+00         0.00000E+00         0.00000E+00
    0.15174E+01        -0.14465E+01         0.00000E+00
    0.13692E+01        -0.13493E+01         0.00000E+00
    0.12346E+01        -0.12521E+01         0.00000E+00
    0.11122E+01        -0.11549E+01         0.00000E+00
    0.10004E+01        -0.10579E+01         0.00000E+00
    0.89750E+00        -0.96101E+00         0.00000E+00
    0.80174E+00        -0.86421E+00         0.00000E+00
    0.71142E+00        -0.76752E+00         0.00000E+00
    0.62487E+00        -0.67096E+00         0.00000E+00
    0.54048E+00        -0.57454E+00         0.00000E+00
    0.45671E+00        -0.47827E+00         0.00000E+00
    0.37210E+00        -0.38217E+00         0.00000E+00
    0.28531E+00        -0.28626E+00         0.00000E+00
    0.19509E+00        -0.19059E+00         0.00000E+00
    0.10031E+00        -0.95158E-01         0.00000E+00
    0.00000E+00         0.00000E+00         0.00000E+00
    0.15246E+01        -0.16023E+01         0.00000E+00
    0.13759E+01        -0.14959E+01         0.00000E+00
    0.12408E+01        -0.13895E+01         0.00000E+00
    0.11178E+01        -0.12830E+01         0.00000E+00
    0.10055E+01        -0.11765E+01         0.00000E+00
    0.90199E+00        -0.10699E+01         0.00000E+00
    0.80568E+00        -0.96321E+00         0.00000E+00
    0.71483E+00        -0.85644E+00         0.00000E+00
    0.62778E+00        -0.74958E+00         0.00000E+00
    0.54291E+00        -0.64264E+00         0.00000E+00
    0.45868E+00        -0.53563E+00         0.00000E+00
    0.37363E+00        -0.42856E+00         0.00000E+00
    0.28642E+00        -0.32144E+00         0.00000E+00
    0.19580E+00        -0.21429E+00         0.00000E+00
    0.10065E+00        -0.10714E+00         0.00000E+00
    0.00000E+00         0.00000E+00         0.00000E+00
    0.15198E+01        -0.17583E+01         0.00000E+00
    0.13712E+01        -0.16428E+01         0.00000E+00
    0.12363E+01        -0.15271E+01         0.00000E+00
    0.11137E+01        -0.14113E+01         0.00000E+00
    0.10017E+01        -0.12952E+01         0.00000E+00
    0.89861E+00        -0.11789E+01         0.00000E+00
    0.80271E+00        -0.10623E+01         0.00000E+00
    0.71227E+00        -0.94544E+00         0.00000E+00
    0.62562E+00        -0.82827E+00         0.00000E+00
    0.54114E+00        -0.71081E+00         0.00000E+00
    0.45727E+00        -0.59305E+00         0.00000E+00
    0.37258E+00        -0.47499E+00         0.00000E+00
    0.28569E+00        -0.35665E+00         0.00000E+00
    0.19536E+00        -0.23802E+00         0.00000E+00
    0.10045E+00        -0.11913E+00         0.00000E+00
    0.00000E+00         0.00000E+00         0.00000E+00
    0.15028E+01        -0.19140E+01         0.00000E+00
    0.13550E+01        -0.17892E+01         0.00000E+00
    0.12212E+01        -0.16643E+01         0.00000E+00
    0.10998E+01        -0.15391E+01         0.00000E+00
    0.98911E+00        -0.14135E+01         0.00000E+00
    0.88737E+00        -0.12875E+01         0.00000E+00
    0.79281E+00        -0.11610E+01         0.00000E+00
    0.70371E+00        -0.10340E+01         0.00000E+00
    0.61836E+00        -0.90656E+00         0.00000E+00
    0.53514E+00        -0.77861E+00         0.00000E+00
    0.45248E+00        -0.65015E+00         0.00000E+00
    0.36893E+00        -0.52117E+00         0.00000E+00
    0.28310E+00        -0.39166E+00         0.00000E+00
    0.19374E+00        -0.26163E+00         0.00000E+00
    0.99710E-01        -0.13106E+00         0.00000E+00
    0.00000E+00         0.00000E+00         0.00000E+00
    0.14735E+01        -0.20685E+01         0.00000E+00
    0.13273E+01        -0.19346E+01         0.00000E+00
    0.11954E+01        -0.18004E+01         0.00000E+00
    0.10761E+01        -0.16658E+01         0.00000E+00
    0.96765E+00        -0.15306E+01         0.00000E+00
    0.86820E+00        -0.13949E+01         0.00000E+00
    0.77595E+00        -0.12586E+01         0.00000E+00
    0.68912E+00        -0.11216E+01         0.00000E+00
    0.60598E+00        -0.98395E+00         0.00000E+00
    0.52489E+00        -0.84561E+00         0.00000E+00
    0.44427E+00        -0.70657E+00         0.00000E+00
    0.36264E+00        -0.56680E+00         0.00000E+00
    0.27863E+00        -0.42626E+00         0.00000E+00
    0.19094E+00        -0.28495E+00         0.00000E+00
    0.98407E-01        -0.14286E+00         0.00000E+00
    0.00000E+00         0.00000E+00         0.00000E+00
    0.14317E+01        -0.22214E+01         0.00000E+00
    0.12879E+01        -0.20782E+01         0.00000E+00
    0.11587E+01        -0.19347E+01         0.00000E+00
    0.10425E+01        -0.17907E+01         0.00000E+00
    0.93725E+00        -0.16460E+01         0.00000E+00
    0.84108E+00        -0.15007E+01         0.00000E+00
    0.75210E+00        -0.13545E+01         0.00000E+00
    0.66846E+00        -0.12076E+01         0.00000E+00
    0.58842E+00        -0.10599E+01         0.00000E+00
    0.51032E+00        -0.91132E+00         0.00000E+00
    0.43256E+00        -0.76189E+00         0.00000E+00
    0.35367E+00        -0.61154E+00         0.00000E+00
    0.27222E+00        -0.46020E+00         0.00000E+00
    0.18691E+00        -0.30784E+00         0.00000E+00
    0.96528E-01        -0.15444E+00         0.00000E+00
    0.00000E+00         0.00000E+00         0.00000E+00
    0.13771E+01        -0.23719E+01         0.00000E+00
    0.12364E+01        -0.22194E+01         0.00000E+00
    0.11110E+01        -0.20666E+01         0.00000E+00
    0.99884E+00        -0.19131E+01         0.00000E+00
    0.89784E+00        -0.17589E+01         0.00000E+00
    0.80595E+00        -0.16039E+01         0.00000E+00
    0.72119E+00        -0.14481E+01         0.00000E+00
    0.64167E+00        -0.12914E+01         0.00000E+00
    0.56562E+00        -0.11338E+01         0.00000E+00
    0.49135E+00        -0.97523E+00         0.00000E+00
    0.41729E+00        -0.81568E+00         0.00000E+00
    0.34191E+00        -0.65504E+00         0.00000E+00
    0.26380E+00        -0.49322E+00         0.00000E+00
    0.18159E+00        -0.33013E+00         0.00000E+00
    0.94042E-01        -0.16573E+00         0.00000E+00
    0.00000E+00         0.00000E+00         0.00000E+00
    0.13092E+01        -0.25191E+01         0.00000E+00
    0.11727E+01        -0.23573E+01         0.00000E+00
    0.10521E+01        -0.21950E+01         0.00000E+00
    0.94505E+00        -0.20321E+01         0.00000E+00
    0.84934E+00        -0.18684E+01         0.00000E+00
    0.76274E+00        -0.17039E+01         0.00000E+00
    0.68316E+00        -0.15385E+01         0.00000E+00
    0.60866E+00        -0.13722E+01         0.00000E+00
    0.53746E+00        -0.12049E+01         0.00000E+00
    0.46787E+00        -0.10367E+01         0.00000E+00
    0.39830E+00        -0.86744E+00         0.00000E+00
    0.32725E+00        -0.69691E+00         0.00000E+00
    0.25325E+00        -0.52502E+00         0.00000E+00
    0.17491E+00        -0.35162E+00         0.00000E+00
    0.90904E-01        -0.17663E+00         0.00000E+00
    0.00000E+00         0.00000E+00         0.00000E+00
    0.12275E+01        -0.26620E+01         0.00000E+00
    0.10963E+01        -0.24908E+01         0.00000E+00
    0.98166E+00        -0.23191E+01         0.00000E+00
    0.88098E+00        -0.21467E+01         0.00000E+00
    0.79169E+00        -0.19736E+01         0.00000E+00
    0.71140E+00        -0.17996E+01         0.00000E+00
    0.63794E+00        -0.16248E+01         0.00000E+00
    0.56935E+00        -0.14491E+01         0.00000E+00
    0.50382E+00        -0.12727E+01         0.00000E+00
    0.43970E+00        -0.10952E+01         0.00000E+00
    0.37543E+00        -0.91663E+00         0.00000E+00
    0.30949E+00        -0.73673E+00         0.00000E+00
    0.24040E+00        -0.55530E+00         0.00000E+00
    0.16673E+00        -0.37212E+00         0.00000E+00
    0.87048E-01        -0.18705E+00         0.00000E+00
    0.00000E+00         0.00000E+00         0.00000E+00
    0.11315E+01        -0.27995E+01         0.00000E+00
    0.10069E+01        -0.26187E+01         0.00000E+00
    0.89961E+00        -0.24376E+01         0.00000E+00
    0.80654E+00        -0.22557E+01         0.00000E+00
    0.72481E+00        -0.20731E+01         0.00000E+00
    0.65187E+00        -0.18899E+01         0.00000E+00
    0.58546E+00        -0.17059E+01         0.00000E+00
    0.52359E+00        -0.15213E+01         0.00000E+00
    0.46452E+00        -0.13360E+01         0.00000E+00
    0.40663E+00        -0.11499E+01         0.00000E+00
    0.34841E+00        -0.96264E+00         0.00000E+00
    0.28837E+00        -0.77402E+00         0.00000E+00
    0.22504E+00        -0.58371E+00         0.00000E+00
    0.15688E+00        -0.39142E+00         0.00000E+00
    0.82378E-01        -0.19689E+00         0.00000E+00
    0.00000E+00         0.00000E+00         0.00000E+00
    0.10205E+01        -0.29300E+01         0.00000E+00
    0.90413E+00        -0.27397E+01         0.00000E+00
    0.80573E+00        -0.25490E+01         0.00000E+00
    0.72166E+00        -0.23577E+01         0.00000E+00
    0.64870E+00        -0.21658E+01         0.00000E+00
    0.58412E+00        -0.19735E+01         0.00000E+00
    0.52561E+00        -0.17808E+01         0.00000E+00
    0.47123E+00        -0.15877E+01         0.00000E+00
    0.41932E+00        -0.13942E+01         0.00000E+00
    0.36836E+00        -0.12000E+01         0.00000E+00
    0.31692E+00        -0.10048E+01         0.00000E+00
    0.26356E+00        -0.80825E+00         0.00000E+00
    0.20682E+00        -0.60988E+00         0.00000E+00
    0.14512E+00        -0.40926E+00         0.00000E+00
    0.76757E-01        -0.20605E+00         0.00000E+00
    0.00000E+00         0.00000E+00         0.00000E+00
    0.89380E+00        -0.30519E+01         0.00000E+00
    0.78763E+00        -0.28520E+01         0.00000E+00
    0.69990E+00        -0.26517E+01         0.00000E+00
    0.62635E+00        -0.24509E+01         0.00000E+00
    0.56338E+00        -0.22499E+01         0.00000E+00
    0.50811E+00        -0.20489E+01         0.00000E+00
    0.45827E+00        -0.18479E+01         0.00000E+00
    0.41205E+00        -0.16470E+01         0.00000E+00
    0.36791E+00        -0.14460E+01         0.00000E+00
    0.32450E+00        -0.12446E+01         0.00000E+00
    0.28049E+00        -0.10424E+01         0.00000E+00
    0.23458E+00        -0.83886E+00         0.00000E+00
    0.18532E+00        -0.63339E+00         0.00000E+00
    0.13108E+00        -0.42542E+00         0.00000E+00
    0.69990E-01        -0.21440E+00         0.00000E+00
    0.00000E+00         0.00000E+00         0.00000E+00
    0.75073E+00        -0.31631E+01         0.00000E+00
    0.65709E+00        -0.29534E+01         0.00000E+00
    0.58214E+00        -0.27435E+01         0.00000E+00
    0.52074E+00        -0.25334E+01         0.00000E+00
    0.46893E+00        -0.23236E+01         0.00000E+00
    0.42381E+00        -0.21144E+01         0.00000E+00
    0.38329E+00        -0.19059E+01         0.00000E+00
    0.34576E+00        -0.16981E+01         0.00000E+00
    0.30989E+00        -0.14905E+01         0.00000E+00
    0.27454E+00        -0.12829E+01         0.00000E+00
    0.23857E+00        -0.10747E+01         0.00000E+00
    0.20082E+00        -0.86525E+00         0.00000E+00
    0.15994E+00        -0.65382E+00         0.00000E+00
    0.11428E+00        -0.43960E+00         0.00000E+00
    0.61795E-01        -0.22184E+00         0.00000E+00
    0.00000E+00         0.00000E+00         0.00000E+00
    0.59044E+00        -0.32607E+01         0.00000E+00
    0.51241E+00        -0.30412E+01         0.00000E+00
    0.45268E+00        -0.28216E+01         0.00000E+00
    0.40507E+00        -0.26026E+01         0.00000E+00
    0.36544E+00        -0.23847E+01         0.00000E+00
    0.33114E+00        -0.21682E+01         0.00000E+00
    0.30041E+00        -0.19533E+01         0.00000E+00
    0.27196E+00        -0.17395E+01         0.00000E+00
    0.24476E+00        -0.15265E+01         0.00000E+00
    0.21788E+00        -0.13139E+01         0.00000E+00
    0.19045E+00        -0.11009E+01         0.00000E+00
    0.16150E+00        -0.88677E+00         0.00000E+00
    0.12988E+00        -0.67066E+00         0.00000E+00
    0.94032E-01        -0.45151E+00         0.00000E+00
    0.51750E-01        -0.22825E+00         0.00000E+00
    0.00000E+00         0.00000E+00         0.00000E+00
    0.41210E+00        -0.33411E+01         0.00000E+00
    0.35380E+00        -0.31116E+01         0.00000E+00
    0.31207E+00        -0.28827E+01         0.00000E+00
    0.27967E+00        -0.26555E+01         0.00000E+00
    0.25294E+00        -0.24307E+01         0.00000E+00
    0.22989E+00        -0.22084E+01         0.00000E+00
    0.20927E+00        -0.19884E+01         0.00000E+00
    0.19017E+00        -0.17701E+01         0.00000E+00
    0.17189E+00        -0.15531E+01         0.00000E+00
    0.15379E+00        -0.13367E+01         0.00000E+00
    0.13528E+00        -0.11202E+01         0.00000E+00
    0.11566E+00        -0.90278E+00         0.00000E+00
    0.94078E-01        -0.68336E+00         0.00000E+00
    0.69305E-01        -0.46076E+00         0.00000E+00
    0.39185E-01        -0.23345E+00         0.00000E+00
    0.00000E+00         0.00000E+00         0.00000E+00
    0.21494E+00        -0.33987E+01         0.00000E+00
    0.18234E+00        -0.31594E+01         0.00000E+00
    0.16106E+00        -0.29223E+01         0.00000E+00
    0.14471E+00        -0.26890E+01         0.00000E+00
    0.13127E+00        -0.24595E+01         0.00000E+00
    0.11970E+00        -0.22333E+01         0.00000E+00
    0.10935E+00        -0.20100E+01         0.00000E+00
    0.99756E-01        -0.17889E+01         0.00000E+00
    0.90566E-01        -0.15694E+01         0.00000E+00
    0.81461E-01        -0.13507E+01         0.00000E+00
    0.72129E-01        -0.11321E+01         0.00000E+00
    0.62215E-01        -0.91267E+00         0.00000E+00
    0.51266E-01        -0.69133E+00         0.00000E+00
    0.38583E-01        -0.46678E+00         0.00000E+00
    0.22880E-01        -0.23724E+00         0.00000E+00
    0.00000E+00         0.00000E+00         0.00000E+00
    0.00000E+00        -0.34227E+01         0.00000E+00
    0.00000E+00        -0.31767E+01         0.00000E+00
    0.00000E+00        -0.29361E+01         0.00000E+00
    0.00000E+00        -0.27005E+01         0.00000E+00
    0.00000E+00        -0.24693E+01         0.00000E+00
    0.00000E+00        -0.22418E+01         0.00000E+00
    0.00000E+00        -0.20173E+01         0.00000E+00
    0.00000E+00        -0.17953E+01         0.00000E+00
    0.00000E+00        -0.15749E+01         0.00000E+00
    0.00000E+00        -0.13554E+01         0.00000E+00
    0.00000E+00        -0.11361E+01         0.00000E+00
    0.00000E+00        -0.91602E+00         0.00000E+00
    0.00000E+00        -0.69405E+00         0.00000E+00
    0.00000E+00        -0.46889E+00         0.00000E+00
    0.00000E+00        -0.23874E+00         0.00000E+00
    0.00000E+00         0.00000E+00         0.00000E+00
CELL_DATA        450
VECTORS vDarcy double 
    0.11621E-05         0.80500E-08         0.00000E+00
    0.11556E-05         0.19736E-07         0.00000E+00
    0.11543E-05         0.25412E-07         0.00000E+00
    0.11537E-05         0.28442E-07         0.00000E+00
    0.11533E-05         0.29879E-07         0.00000E+00
    0.11531E-05         0.30228E-07         0.00000E+00
    0.11530E-05         0.29773E-07         0.00000E+00
    0.11529E-05         0.28681E-07         0.00000E+00
    0.11529E-05         0.27054E-07         0.00000E+00
    0.11528E-05         0.24947E-07         0.00000E+00
    0.11527E-05         0.22371E-07         0.00000E+00
    0.11526E-05         0.19286E-07         0.00000E+00
    0.11524E-05         0.15568E-07         0.00000E+00
    0.11521E-05         0.10902E-07         0.00000E+00
    0.11497E-05         0.41516E-08         0.00000E+00
    0.11567E-05         0.38864E-08         0.00000E+00
    0.11483E-05         0.11310E-07         0.00000E+00
    0.11440E-05         0.17190E-07         0.00000E+00
    0.11418E-05         0.20881E-07         0.00000E+00
    0.11406E-05         0.23012E-07         0.00000E+00
    0.11398E-05         0.23989E-07         0.00000E+00
    0.11394E-05         0.24078E-07         0.00000E+00
    0.11391E-05         0.23451E-07         0.00000E+00
    0.11389E-05         0.22215E-07         0.00000E+00
    0.11386E-05         0.20430E-07         0.00000E+00
    0.11384E-05         0.18114E-07         0.00000E+00
    0.11380E-05         0.15235E-07         0.00000E+00
    0.11373E-05         0.11702E-07         0.00000E+00
    0.11358E-05         0.73373E-08         0.00000E+00
    0.11331E-05         0.24752E-08         0.00000E+00
    0.11465E-05         0.22858E-08         0.00000E+00
    0.11388E-05         0.69695E-08         0.00000E+00
    0.11336E-05         0.11456E-07         0.00000E+00
    0.11304E-05         0.14916E-07         0.00000E+00
    0.11284E-05         0.17209E-07         0.00000E+00
    0.11271E-05         0.18493E-07         0.00000E+00
    0.11263E-05         0.18932E-07         0.00000E+00
    0.11257E-05         0.18657E-07         0.00000E+00
    0.11253E-05         0.17762E-07         0.00000E+00
    0.11248E-05         0.16306E-07         0.00000E+00
    0.11243E-05         0.14320E-07         0.00000E+00
    0.11236E-05         0.11808E-07         0.00000E+00
    0.11226E-05         0.87684E-08         0.00000E+00
    0.11208E-05         0.53178E-08         0.00000E+00
    0.11184E-05         0.17758E-08         0.00000E+00
    0.11342E-05         0.14500E-08         0.00000E+00
    0.11276E-05         0.44937E-08         0.00000E+00
    0.11225E-05         0.76876E-08         0.00000E+00
    0.11189E-05         0.10467E-07         0.00000E+00
    0.11164E-05         0.12540E-07         0.00000E+00
    0.11148E-05         0.13853E-07         0.00000E+00
    0.11136E-05         0.14453E-07         0.00000E+00
    0.11128E-05         0.14414E-07         0.00000E+00
    0.11121E-05         0.13801E-07         0.00000E+00
    0.11115E-05         0.12667E-07         0.00000E+00
    0.11108E-05         0.11054E-07         0.00000E+00
    0.11099E-05         0.90035E-08         0.00000E+00
    0.11087E-05         0.65890E-08         0.00000E+00
    0.11070E-05         0.39546E-08         0.00000E+00
    0.11049E-05         0.13197E-08         0.00000E+00
    0.11208E-05         0.94205E-09         0.00000E+00
    0.11153E-05         0.29303E-08         0.00000E+00
    0.11107E-05         0.51373E-08         0.00000E+00
    0.11071E-05         0.72066E-08         0.00000E+00
    0.11045E-05         0.88844E-08         0.00000E+00
    0.11026E-05         0.10047E-07         0.00000E+00
    0.11012E-05         0.10666E-07         0.00000E+00
    0.11002E-05         0.10761E-07         0.00000E+00
    0.10994E-05         0.10368E-07         0.00000E+00
    0.10986E-05         0.95302E-08         0.00000E+00
    0.10978E-05         0.82936E-08         0.00000E+00
    0.10969E-05         0.67177E-08         0.00000E+00
    0.10956E-05         0.48888E-08         0.00000E+00
    0.10941E-05         0.29290E-08         0.00000E+00
    0.10923E-05         0.98361E-09         0.00000E+00
    0.11070E-05         0.60292E-09         0.00000E+00
    0.11024E-05         0.18659E-08         0.00000E+00
    0.10984E-05         0.33334E-08         0.00000E+00
    0.10951E-05         0.47874E-08         0.00000E+00
    0.10926E-05         0.60409E-08         0.00000E+00
    0.10907E-05         0.69714E-08         0.00000E+00
    0.10892E-05         0.75201E-08         0.00000E+00
    0.10881E-05         0.76734E-08         0.00000E+00
    0.10872E-05         0.74450E-08         0.00000E+00
    0.10864E-05         0.68642E-08         0.00000E+00
    0.10855E-05         0.59737E-08         0.00000E+00
    0.10845E-05         0.48309E-08         0.00000E+00
    0.10834E-05         0.35117E-08         0.00000E+00
    0.10821E-05         0.21080E-08         0.00000E+00
    0.10806E-05         0.71474E-09         0.00000E+00
    0.10931E-05         0.35799E-09         0.00000E+00
    0.10893E-05         0.10928E-08         0.00000E+00
    0.10859E-05         0.19977E-08         0.00000E+00
    0.10831E-05         0.29449E-08         0.00000E+00
    0.10807E-05         0.38079E-08         0.00000E+00
    0.10789E-05         0.44877E-08         0.00000E+00
    0.10775E-05         0.49230E-08         0.00000E+00
    0.10764E-05         0.50861E-08         0.00000E+00
    0.10755E-05         0.49755E-08         0.00000E+00
    0.10746E-05         0.46087E-08         0.00000E+00
    0.10738E-05         0.40184E-08         0.00000E+00
    0.10729E-05         0.32510E-08         0.00000E+00
    0.10719E-05         0.23648E-08         0.00000E+00
    0.10708E-05         0.14242E-08         0.00000E+00
    0.10695E-05         0.48953E-09         0.00000E+00
    0.10794E-05         0.16757E-09         0.00000E+00
    0.10763E-05         0.49482E-09         0.00000E+00
    0.10735E-05         0.95921E-09         0.00000E+00
    0.10710E-05         0.14932E-08         0.00000E+00
    0.10690E-05         0.20172E-08         0.00000E+00
    0.10674E-05         0.24599E-08         0.00000E+00
    0.10661E-05         0.27690E-08         0.00000E+00
    0.10651E-05         0.29145E-08         0.00000E+00
    0.10643E-05         0.28870E-08         0.00000E+00
    0.10635E-05         0.26938E-08         0.00000E+00
    0.10628E-05         0.23565E-08         0.00000E+00
    0.10620E-05         0.19077E-08         0.00000E+00
    0.10612E-05         0.13876E-08         0.00000E+00
    0.10602E-05         0.83805E-09         0.00000E+00
    0.10592E-05         0.29482E-09         0.00000E+00
    0.10659E-05         0.81882E-11         0.00000E+00
    0.10634E-05         0.14503E-11         0.00000E+00
    0.10612E-05         0.10834E-09         0.00000E+00
    0.10592E-05         0.30192E-09         0.00000E+00
    0.10576E-05         0.53781E-09         0.00000E+00
    0.10562E-05         0.76897E-09         0.00000E+00
    0.10552E-05         0.95584E-09         0.00000E+00
    0.10543E-05         0.10715E-08         0.00000E+00
    0.10537E-05         0.11030E-08         0.00000E+00
    0.10530E-05         0.10504E-08         0.00000E+00
    0.10524E-05         0.92483E-09         0.00000E+00
    0.10518E-05         0.74581E-09         0.00000E+00
    0.10511E-05         0.53746E-09         0.00000E+00
    0.10504E-05         0.32369E-09         0.00000E+00
    0.10495E-05         0.12224E-09         0.00000E+00
    0.10529E-05        -0.13495E-09         0.00000E+00
    0.10510E-05        -0.43262E-09         0.00000E+00
    0.10493E-05        -0.62814E-09         0.00000E+00
    0.10478E-05        -0.72085E-09         0.00000E+00
    0.10465E-05        -0.72970E-09         0.00000E+00
    0.10455E-05        -0.68225E-09         0.00000E+00
    0.10447E-05        -0.60605E-09         0.00000E+00
    0.10441E-05        -0.52315E-09         0.00000E+00
    0.10436E-05        -0.44745E-09         0.00000E+00
    0.10432E-05        -0.38414E-09         0.00000E+00
    0.10427E-05        -0.33068E-09         0.00000E+00
    0.10423E-05        -0.27885E-09         0.00000E+00
    0.10418E-05        -0.21775E-09         0.00000E+00
    0.10412E-05        -0.13759E-09         0.00000E+00
    0.10406E-05        -0.34081E-10         0.00000E+00
    0.10405E-05        -0.27156E-09         0.00000E+00
    0.10391E-05        -0.83754E-09         0.00000E+00
    0.10378E-05        -0.13003E-08         0.00000E+00
    0.10368E-05        -0.16405E-08         0.00000E+00
    0.10359E-05        -0.18595E-08         0.00000E+00
    0.10352E-05        -0.19703E-08         0.00000E+00
    0.10347E-05        -0.19905E-08         0.00000E+00
    0.10344E-05        -0.19377E-08         0.00000E+00
    0.10341E-05        -0.18256E-08         0.00000E+00
    0.10339E-05        -0.16633E-08         0.00000E+00
    0.10337E-05        -0.14550E-08         0.00000E+00
    0.10335E-05        -0.12017E-08         0.00000E+00
    0.10332E-05        -0.90293E-09         0.00000E+00
    0.10328E-05        -0.55993E-09         0.00000E+00
    0.10323E-05        -0.17852E-09         0.00000E+00
    0.10288E-05        -0.40807E-09         0.00000E+00
    0.10278E-05        -0.12337E-08         0.00000E+00
    0.10269E-05        -0.19425E-08         0.00000E+00
    0.10263E-05        -0.25036E-08         0.00000E+00
    0.10258E-05        -0.29061E-08         0.00000E+00
    0.10255E-05        -0.31532E-08         0.00000E+00
    0.10254E-05        -0.32556E-08         0.00000E+00
    0.10253E-05        -0.32271E-08         0.00000E+00
    0.10253E-05        -0.30815E-08         0.00000E+00
    0.10254E-05        -0.28307E-08         0.00000E+00
    0.10254E-05        -0.24844E-08         0.00000E+00
    0.10254E-05        -0.20507E-08         0.00000E+00
    0.10252E-05        -0.15373E-08         0.00000E+00
    0.10250E-05        -0.95408E-09         0.00000E+00
    0.10247E-05        -0.31438E-09         0.00000E+00
    0.10177E-05        -0.54874E-09         0.00000E+00
    0.10171E-05        -0.16345E-08         0.00000E+00
    0.10167E-05        -0.25783E-08         0.00000E+00
    0.10165E-05        -0.33421E-08         0.00000E+00
    0.10164E-05        -0.39082E-08         0.00000E+00
    0.10165E-05        -0.42735E-08         0.00000E+00
    0.10166E-05        -0.44445E-08         0.00000E+00
    0.10169E-05        -0.44331E-08         0.00000E+00
    0.10172E-05        -0.42533E-08         0.00000E+00
    0.10175E-05        -0.39197E-08         0.00000E+00
    0.10178E-05        -0.34463E-08         0.00000E+00
    0.10180E-05        -0.28468E-08         0.00000E+00
    0.10181E-05        -0.21354E-08         0.00000E+00
    0.10180E-05        -0.13280E-08         0.00000E+00
    0.10178E-05        -0.44410E-09         0.00000E+00
    0.10074E-05        -0.69617E-09         0.00000E+00
    0.10072E-05        -0.20487E-08         0.00000E+00
    0.10071E-05        -0.32227E-08         0.00000E+00
    0.10073E-05        -0.41774E-08         0.00000E+00
    0.10076E-05        -0.48918E-08         0.00000E+00
    0.10081E-05        -0.53602E-08         0.00000E+00
    0.10086E-05        -0.55874E-08         0.00000E+00
    0.10092E-05        -0.55850E-08         0.00000E+00
    0.10098E-05        -0.53682E-08         0.00000E+00
    0.10104E-05        -0.49542E-08         0.00000E+00
    0.10109E-05        -0.43604E-08         0.00000E+00
    0.10113E-05        -0.36050E-08         0.00000E+00
    0.10116E-05        -0.27070E-08         0.00000E+00
    0.10117E-05        -0.16873E-08         0.00000E+00
    0.10117E-05        -0.56933E-09         0.00000E+00
    0.99792E-06        -0.85178E-09         0.00000E+00
    0.99799E-06        -0.24810E-08         0.00000E+00
    0.99832E-06        -0.38846E-08         0.00000E+00
    0.99886E-06        -0.50220E-08         0.00000E+00
    0.99957E-06        -0.58725E-08         0.00000E+00
    0.10004E-05        -0.64309E-08         0.00000E+00
    0.10013E-05        -0.67026E-08         0.00000E+00
    0.10022E-05        -0.67009E-08         0.00000E+00
    0.10031E-05        -0.64430E-08         0.00000E+00
    0.10039E-05        -0.59486E-08         0.00000E+00
    0.10047E-05        -0.52385E-08         0.00000E+00
    0.10054E-05        -0.43343E-08         0.00000E+00
    0.10059E-05        -0.32583E-08         0.00000E+00
    0.10062E-05        -0.20350E-08         0.00000E+00
    0.10063E-05        -0.69101E-09         0.00000E+00
    0.98917E-06        -0.10160E-08         0.00000E+00
    0.98958E-06        -0.29333E-08         0.00000E+00
    0.99028E-06        -0.45673E-08         0.00000E+00
    0.99120E-06        -0.58811E-08         0.00000E+00
    0.99228E-06        -0.68571E-08         0.00000E+00
    0.99347E-06        -0.74931E-08         0.00000E+00
    0.99471E-06        -0.77982E-08         0.00000E+00
    0.99595E-06        -0.77885E-08         0.00000E+00
    0.99716E-06        -0.74846E-08         0.00000E+00
    0.99829E-06        -0.69091E-08         0.00000E+00
    0.99931E-06        -0.60856E-08         0.00000E+00
    0.10002E-05        -0.50380E-08         0.00000E+00
    0.10009E-05        -0.37915E-08         0.00000E+00
    0.10014E-05        -0.23723E-08         0.00000E+00
    0.10017E-05        -0.80942E-09         0.00000E+00
    0.98122E-06        -0.11885E-08         0.00000E+00
    0.98196E-06        -0.34046E-08         0.00000E+00
    0.98302E-06        -0.52700E-08         0.00000E+00
    0.98433E-06        -0.67535E-08         0.00000E+00
    0.98579E-06        -0.78440E-08         0.00000E+00
    0.98734E-06        -0.85454E-08         0.00000E+00
    0.98893E-06        -0.88723E-08         0.00000E+00
    0.99050E-06        -0.88459E-08         0.00000E+00
    0.99200E-06        -0.84910E-08         0.00000E+00
    0.99340E-06        -0.78335E-08         0.00000E+00
    0.99467E-06        -0.68994E-08         0.00000E+00
    0.99578E-06        -0.57145E-08         0.00000E+00
    0.99669E-06        -0.43049E-08         0.00000E+00
    0.99738E-06        -0.26983E-08         0.00000E+00
    0.99781E-06        -0.92418E-09         0.00000E+00
    0.97404E-06        -0.13683E-08         0.00000E+00
    0.97513E-06        -0.38920E-08         0.00000E+00
    0.97657E-06        -0.59874E-08         0.00000E+00
    0.97826E-06        -0.76322E-08         0.00000E+00
    0.98010E-06        -0.88245E-08         0.00000E+00
    0.98202E-06        -0.95773E-08         0.00000E+00
    0.98395E-06        -0.99137E-08         0.00000E+00
    0.98583E-06        -0.98616E-08         0.00000E+00
    0.98762E-06        -0.94512E-08         0.00000E+00
    0.98929E-06        -0.87117E-08         0.00000E+00
    0.99080E-06        -0.76714E-08         0.00000E+00
    0.99212E-06        -0.63567E-08         0.00000E+00
    0.99323E-06        -0.47938E-08         0.00000E+00
    0.99409E-06        -0.30098E-08         0.00000E+00
    0.99468E-06        -0.10343E-08         0.00000E+00
    0.96764E-06        -0.15536E-08         0.00000E+00
    0.96910E-06        -0.43901E-08         0.00000E+00
    0.97094E-06        -0.67103E-08         0.00000E+00
    0.97302E-06        -0.85038E-08         0.00000E+00
    0.97525E-06        -0.97818E-08         0.00000E+00
    0.97752E-06        -0.10570E-07         0.00000E+00
    0.97978E-06        -0.10902E-07         0.00000E+00
    0.98196E-06        -0.10815E-07         0.00000E+00
    0.98402E-06        -0.10345E-07         0.00000E+00
    0.98593E-06        -0.95256E-08         0.00000E+00
    0.98767E-06        -0.83860E-08         0.00000E+00
    0.98920E-06        -0.69525E-08         0.00000E+00
    0.99050E-06        -0.52495E-08         0.00000E+00
    0.99154E-06        -0.33021E-08         0.00000E+00
    0.99228E-06        -0.11382E-08         0.00000E+00
    0.96200E-06        -0.17421E-08         0.00000E+00
    0.96387E-06        -0.48914E-08         0.00000E+00
    0.96613E-06        -0.74252E-08         0.00000E+00
    0.96863E-06        -0.93490E-08         0.00000E+00
    0.97124E-06        -0.10691E-07         0.00000E+00
    0.97386E-06        -0.11494E-07         0.00000E+00
    0.97643E-06        -0.11805E-07         0.00000E+00
    0.97889E-06        -0.11674E-07         0.00000E+00
    0.98120E-06        -0.11143E-07         0.00000E+00
    0.98334E-06        -0.10249E-07         0.00000E+00
    0.98529E-06        -0.90212E-08         0.00000E+00
    0.98701E-06        -0.74847E-08         0.00000E+00
    0.98850E-06        -0.56601E-08         0.00000E+00
    0.98971E-06        -0.35683E-08         0.00000E+00
    0.99061E-06        -0.12337E-08         0.00000E+00
    0.95711E-06        -0.19308E-08         0.00000E+00
    0.95944E-06        -0.53858E-08         0.00000E+00
    0.96215E-06        -0.81134E-08         0.00000E+00
    0.96508E-06        -0.10140E-07         0.00000E+00
    0.96808E-06        -0.11518E-07         0.00000E+00
    0.97104E-06        -0.12310E-07         0.00000E+00
    0.97390E-06        -0.12583E-07         0.00000E+00
    0.97661E-06        -0.12398E-07         0.00000E+00
    0.97914E-06        -0.11805E-07         0.00000E+00
    0.98148E-06        -0.10846E-07         0.00000E+00
    0.98361E-06        -0.95477E-08         0.00000E+00
    0.98552E-06        -0.79308E-08         0.00000E+00
    0.98718E-06        -0.60101E-08         0.00000E+00
    0.98856E-06        -0.37998E-08         0.00000E+00
    0.98962E-06        -0.13182E-08         0.00000E+00
    0.95295E-06        -0.21158E-08         0.00000E+00
    0.95580E-06        -0.58599E-08         0.00000E+00
    0.95902E-06        -0.87501E-08         0.00000E+00
    0.96240E-06        -0.10842E-07         0.00000E+00
    0.96579E-06        -0.12217E-07         0.00000E+00
    0.96907E-06        -0.12967E-07         0.00000E+00
    0.97219E-06        -0.13180E-07         0.00000E+00
    0.97511E-06        -0.12933E-07         0.00000E+00
    0.97782E-06        -0.12283E-07         0.00000E+00
    0.98032E-06        -0.11273E-07         0.00000E+00
    0.98260E-06        -0.99289E-08         0.00000E+00
    0.98467E-06        -0.82627E-08         0.00000E+00
    0.98649E-06        -0.62804E-08         0.00000E+00
    0.98805E-06        -0.39859E-08         0.00000E+00
    0.98928E-06        -0.13884E-08         0.00000E+00
    0.94952E-06        -0.22920E-08         0.00000E+00
    0.95298E-06        -0.62957E-08         0.00000E+00
    0.95676E-06        -0.93016E-08         0.00000E+00
    0.96062E-06        -0.11405E-07         0.00000E+00
    0.96438E-06        -0.12728E-07         0.00000E+00
    0.96796E-06        -0.13399E-07         0.00000E+00
    0.97129E-06        -0.13531E-07         0.00000E+00
    0.97437E-06        -0.13215E-07         0.00000E+00
    0.97720E-06        -0.12517E-07         0.00000E+00
    0.97981E-06        -0.11479E-07         0.00000E+00
    0.98221E-06        -0.10121E-07         0.00000E+00
    0.98441E-06        -0.84467E-08         0.00000E+00
    0.98639E-06        -0.64480E-08         0.00000E+00
    0.98812E-06        -0.41141E-08         0.00000E+00
    0.98954E-06        -0.14405E-08         0.00000E+00
    0.94682E-06        -0.24526E-08         0.00000E+00
    0.95099E-06        -0.66689E-08         0.00000E+00
    0.95540E-06        -0.97219E-08         0.00000E+00
    0.95975E-06        -0.11764E-07         0.00000E+00
    0.96388E-06        -0.12974E-07         0.00000E+00
    0.96770E-06        -0.13523E-07         0.00000E+00
    0.97118E-06        -0.13552E-07         0.00000E+00
    0.97435E-06        -0.13167E-07         0.00000E+00
    0.97725E-06        -0.12437E-07         0.00000E+00
    0.97991E-06        -0.11401E-07         0.00000E+00
    0.98237E-06        -0.10073E-07         0.00000E+00
    0.98466E-06        -0.84429E-08         0.00000E+00
    0.98678E-06        -0.64856E-08         0.00000E+00
    0.98870E-06        -0.41695E-08         0.00000E+00
    0.99033E-06        -0.14702E-08         0.00000E+00
    0.94486E-06        -0.25877E-08         0.00000E+00
    0.94989E-06        -0.69439E-08         0.00000E+00
    0.95499E-06        -0.99450E-08         0.00000E+00
    0.95986E-06        -0.11829E-07         0.00000E+00
    0.96431E-06        -0.12854E-07         0.00000E+00
    0.96830E-06        -0.13240E-07         0.00000E+00
    0.97185E-06        -0.13153E-07         0.00000E+00
    0.97502E-06        -0.12706E-07         0.00000E+00
    0.97789E-06        -0.11968E-07         0.00000E+00
    0.98053E-06        -0.10974E-07         0.00000E+00
    0.98300E-06        -0.97268E-08         0.00000E+00
    0.98535E-06        -0.82046E-08         0.00000E+00
    0.98759E-06        -0.63605E-08         0.00000E+00
    0.98969E-06        -0.41345E-08         0.00000E+00
    0.99157E-06        -0.14725E-08         0.00000E+00
    0.94369E-06        -0.26823E-08         0.00000E+00
    0.94974E-06        -0.70652E-08         0.00000E+00
    0.95563E-06        -0.98718E-08         0.00000E+00
    0.96098E-06        -0.11478E-07         0.00000E+00
    0.96567E-06        -0.12242E-07         0.00000E+00
    0.96972E-06        -0.12435E-07         0.00000E+00
    0.97323E-06        -0.12233E-07         0.00000E+00
    0.97630E-06        -0.11746E-07         0.00000E+00
    0.97906E-06        -0.11035E-07         0.00000E+00
    0.98159E-06        -0.10127E-07         0.00000E+00
    0.98400E-06        -0.90185E-08         0.00000E+00
    0.98635E-06        -0.76764E-08         0.00000E+00
    0.98869E-06        -0.60314E-08         0.00000E+00
    0.99099E-06        -0.39862E-08         0.00000E+00
    0.99317E-06        -0.14408E-08         0.00000E+00
    0.94337E-06        -0.27083E-08         0.00000E+00
    0.95069E-06        -0.69364E-08         0.00000E+00
    0.95742E-06        -0.93448E-08         0.00000E+00
    0.96318E-06        -0.10535E-07         0.00000E+00
    0.96796E-06        -0.10986E-07         0.00000E+00
    0.97193E-06        -0.10988E-07         0.00000E+00
    0.97527E-06        -0.10700E-07         0.00000E+00
    0.97813E-06        -0.10212E-07         0.00000E+00
    0.98068E-06        -0.95707E-08         0.00000E+00
    0.98302E-06        -0.87956E-08         0.00000E+00
    0.98528E-06        -0.78811E-08         0.00000E+00
    0.98756E-06        -0.67915E-08         0.00000E+00
    0.98995E-06        -0.54426E-08         0.00000E+00
    0.99247E-06        -0.36917E-08         0.00000E+00
    0.99500E-06        -0.13661E-08         0.00000E+00
    0.94406E-06        -0.26087E-08         0.00000E+00
    0.95296E-06        -0.63688E-08         0.00000E+00
    0.96050E-06        -0.81035E-08         0.00000E+00
    0.96644E-06        -0.87809E-08         0.00000E+00
    0.97110E-06        -0.89357E-08         0.00000E+00
    0.97482E-06        -0.87989E-08         0.00000E+00
    0.97786E-06        -0.84842E-08         0.00000E+00
    0.98042E-06        -0.80510E-08         0.00000E+00
    0.98266E-06        -0.75298E-08         0.00000E+00
    0.98473E-06        -0.69324E-08         0.00000E+00
    0.98676E-06        -0.62542E-08         0.00000E+00
    0.98887E-06        -0.54693E-08         0.00000E+00
    0.99124E-06        -0.45103E-08         0.00000E+00
    0.99395E-06        -0.31954E-08         0.00000E+00
    0.99694E-06        -0.12304E-08         0.00000E+00
    0.94608E-06        -0.22039E-08         0.00000E+00
    0.95691E-06        -0.49374E-08         0.00000E+00
    0.96490E-06        -0.57775E-08         0.00000E+00
    0.97064E-06        -0.60146E-08         0.00000E+00
    0.97494E-06        -0.59850E-08         0.00000E+00
    0.97825E-06        -0.58136E-08         0.00000E+00
    0.98087E-06        -0.55588E-08         0.00000E+00
    0.98304E-06        -0.52499E-08         0.00000E+00
    0.98491E-06        -0.49019E-08         0.00000E+00
    0.98664E-06        -0.45205E-08         0.00000E+00
    0.98836E-06        -0.41041E-08         0.00000E+00
    0.99022E-06        -0.36406E-08         0.00000E+00
    0.99240E-06        -0.30979E-08         0.00000E+00
    0.99522E-06        -0.23738E-08         0.00000E+00
    0.99878E-06        -0.10069E-08         0.00000E+00
    0.95032E-06        -0.94168E-09         0.00000E+00
    0.96280E-06        -0.19621E-08         0.00000E+00
    0.97033E-06        -0.21424E-08         0.00000E+00
    0.97552E-06        -0.21759E-08         0.00000E+00
    0.97925E-06        -0.21351E-08         0.00000E+00
    0.98204E-06        -0.20569E-08         0.00000E+00
    0.98418E-06        -0.19567E-08         0.00000E+00
    0.98589E-06        -0.18427E-08         0.00000E+00
    0.98736E-06        -0.17188E-08         0.00000E+00
    0.98870E-06        -0.15868E-08         0.00000E+00
    0.99007E-06        -0.14462E-08         0.00000E+00
    0.99159E-06        -0.12949E-08         0.00000E+00
    0.99347E-06        -0.11236E-08         0.00000E+00
    0.99600E-06        -0.92836E-09         0.00000E+00
    0.10002E-05        -0.43435E-09         0.00000E+00
POINT_DATA        496
VECTORS vDarcyNodal double 
    0.11590E-05         0.11113E-07         0.00000E+00
    0.11576E-05         0.18209E-07         0.00000E+00
    0.11554E-05         0.27702E-07         0.00000E+00
    0.11543E-05         0.31319E-07         0.00000E+00
    0.11537E-05         0.33011E-07         0.00000E+00
    0.11534E-05         0.33461E-07         0.00000E+00
    0.11532E-05         0.33052E-07         0.00000E+00
    0.11531E-05         0.31992E-07         0.00000E+00
    0.11530E-05         0.30404E-07         0.00000E+00
    0.11529E-05         0.28360E-07         0.00000E+00
    0.11528E-05         0.25890E-07         0.00000E+00
    0.11527E-05         0.22983E-07         0.00000E+00
    0.11525E-05         0.19558E-07         0.00000E+00
    0.11521E-05         0.15457E-07         0.00000E+00
    0.11514E-05         0.93027E-08         0.00000E+00
    0.11510E-05         0.53913E-08         0.00000E+00
    0.11573E-05         0.49641E-08         0.00000E+00
    0.11546E-05         0.95419E-08         0.00000E+00
    0.11506E-05         0.17392E-07         0.00000E+00
    0.11486E-05         0.22472E-07         0.00000E+00
    0.11475E-05         0.25243E-07         0.00000E+00
    0.11469E-05         0.26578E-07         0.00000E+00
    0.11465E-05         0.26882E-07         0.00000E+00
    0.11462E-05         0.26397E-07         0.00000E+00
    0.11460E-05         0.25270E-07         0.00000E+00
    0.11459E-05         0.23585E-07         0.00000E+00
    0.11457E-05         0.21378E-07         0.00000E+00
    0.11455E-05         0.18632E-07         0.00000E+00
    0.11451E-05         0.15262E-07         0.00000E+00
    0.11445E-05         0.10990E-07         0.00000E+00
    0.11431E-05         0.57403E-08         0.00000E+00
    0.11422E-05         0.29079E-08         0.00000E+00
    0.11508E-05         0.28163E-08         0.00000E+00
    0.11469E-05         0.56637E-08         0.00000E+00
    0.11408E-05         0.11119E-07         0.00000E+00
    0.11374E-05         0.15609E-07         0.00000E+00
    0.11353E-05         0.18659E-07         0.00000E+00
    0.11341E-05         0.20431E-07         0.00000E+00
    0.11332E-05         0.21193E-07         0.00000E+00
    0.11327E-05         0.21140E-07         0.00000E+00
    0.11323E-05         0.20404E-07         0.00000E+00
    0.11320E-05         0.19068E-07         0.00000E+00
    0.11316E-05         0.17174E-07         0.00000E+00
    0.11312E-05         0.14725E-07         0.00000E+00
    0.11305E-05         0.11683E-07         0.00000E+00
    0.11293E-05         0.80568E-08         0.00000E+00
    0.11273E-05         0.40757E-08         0.00000E+00
    0.11261E-05         0.20435E-08         0.00000E+00
    0.11399E-05         0.17606E-08         0.00000E+00
    0.11364E-05         0.35996E-08         0.00000E+00
    0.11303E-05         0.73186E-08         0.00000E+00
    0.11262E-05         0.10775E-07         0.00000E+00
    0.11235E-05         0.13478E-07         0.00000E+00
    0.11217E-05         0.15282E-07         0.00000E+00
    0.11205E-05         0.16241E-07         0.00000E+00
    0.11196E-05         0.16457E-07         0.00000E+00
    0.11190E-05         0.16023E-07         0.00000E+00
    0.11185E-05         0.15008E-07         0.00000E+00
    0.11180E-05         0.13460E-07         0.00000E+00
    0.11173E-05         0.11410E-07         0.00000E+00
    0.11163E-05         0.88991E-08         0.00000E+00
    0.11150E-05         0.60333E-08         0.00000E+00
    0.11130E-05         0.30195E-08         0.00000E+00
    0.11119E-05         0.15086E-08         0.00000E+00
    0.11272E-05         0.11428E-08         0.00000E+00
    0.11242E-05         0.23499E-08         0.00000E+00
    0.11188E-05         0.48720E-08         0.00000E+00
    0.11146E-05         0.73901E-08         0.00000E+00
    0.11117E-05         0.95403E-08         0.00000E+00
    0.11095E-05         0.11122E-07         0.00000E+00
    0.11081E-05         0.12075E-07         0.00000E+00
    0.11070E-05         0.12419E-07         0.00000E+00
    0.11062E-05         0.12200E-07         0.00000E+00
    0.11055E-05         0.11467E-07         0.00000E+00
    0.11048E-05         0.10268E-07         0.00000E+00
    0.11040E-05         0.86536E-08         0.00000E+00
    0.11029E-05         0.66977E-08         0.00000E+00
    0.11015E-05         0.45130E-08         0.00000E+00
    0.10998E-05         0.22559E-08         0.00000E+00
    0.10988E-05         0.11312E-08         0.00000E+00
    0.11138E-05         0.74353E-09         0.00000E+00
    0.11112E-05         0.15265E-08         0.00000E+00
    0.11065E-05         0.32026E-08         0.00000E+00
    0.11027E-05         0.49629E-08         0.00000E+00
    0.10997E-05         0.65606E-08         0.00000E+00
    0.10975E-05         0.78197E-08         0.00000E+00
    0.10959E-05         0.86477E-08         0.00000E+00
    0.10947E-05         0.90168E-08         0.00000E+00
    0.10938E-05         0.89373E-08         0.00000E+00
    0.10930E-05         0.84388E-08         0.00000E+00
    0.10922E-05         0.75626E-08         0.00000E+00
    0.10913E-05         0.63628E-08         0.00000E+00
    0.10902E-05         0.49124E-08         0.00000E+00
    0.10889E-05         0.33070E-08         0.00000E+00
    0.10874E-05         0.16577E-08         0.00000E+00
    0.10866E-05         0.83640E-09         0.00000E+00
    0.10999E-05         0.46385E-09         0.00000E+00
    0.10978E-05         0.94523E-09         0.00000E+00
    0.10939E-05         0.20021E-08         0.00000E+00
    0.10905E-05         0.31653E-08         0.00000E+00
    0.10878E-05         0.42762E-08         0.00000E+00
    0.10857E-05         0.52014E-08         0.00000E+00
    0.10840E-05         0.58525E-08         0.00000E+00
    0.10828E-05         0.61850E-08         0.00000E+00
    0.10818E-05         0.61886E-08         0.00000E+00
    0.10810E-05         0.58771E-08         0.00000E+00
    0.10802E-05         0.52810E-08         0.00000E+00
    0.10793E-05         0.44464E-08         0.00000E+00
    0.10783E-05         0.34334E-08         0.00000E+00
    0.10772E-05         0.23147E-08         0.00000E+00
    0.10759E-05         0.11660E-08         0.00000E+00
    0.10752E-05         0.59347E-09         0.00000E+00
    0.10861E-05         0.25328E-09         0.00000E+00
    0.10844E-05         0.50778E-09         0.00000E+00
    0.10811E-05         0.10926E-08         0.00000E+00
    0.10783E-05         0.17832E-08         0.00000E+00
    0.10759E-05         0.24837E-08         0.00000E+00
    0.10740E-05         0.31018E-08         0.00000E+00
    0.10725E-05         0.35659E-08         0.00000E+00
    0.10713E-05         0.38316E-08         0.00000E+00
    0.10703E-05         0.38799E-08         0.00000E+00
    0.10695E-05         0.37133E-08         0.00000E+00
    0.10688E-05         0.33512E-08         0.00000E+00
    0.10680E-05         0.28272E-08         0.00000E+00
    0.10671E-05         0.21853E-08         0.00000E+00
    0.10661E-05         0.14761E-08         0.00000E+00
    0.10650E-05         0.74856E-09         0.00000E+00
    0.10645E-05         0.38599E-09         0.00000E+00
    0.10726E-05         0.82774E-10         0.00000E+00
    0.10712E-05         0.15639E-09         0.00000E+00
    0.10685E-05         0.36486E-09         0.00000E+00
    0.10661E-05         0.67406E-09         0.00000E+00
    0.10641E-05         0.10326E-08         0.00000E+00
    0.10625E-05         0.13819E-08         0.00000E+00
    0.10612E-05         0.16697E-08         0.00000E+00
    0.10602E-05         0.18586E-08         0.00000E+00
    0.10594E-05         0.19278E-08         0.00000E+00
    0.10587E-05         0.18730E-08         0.00000E+00
    0.10580E-05         0.17037E-08         0.00000E+00
    0.10573E-05         0.14408E-08         0.00000E+00
    0.10566E-05         0.11127E-08         0.00000E+00
    0.10558E-05         0.75130E-09         0.00000E+00
    0.10549E-05         0.38513E-09         0.00000E+00
    0.10544E-05         0.20404E-09         0.00000E+00
    0.10594E-05        -0.65625E-10         0.00000E+00
    0.10583E-05        -0.14524E-09         0.00000E+00
    0.10562E-05        -0.25214E-09         0.00000E+00
    0.10543E-05        -0.25961E-09         0.00000E+00
    0.10527E-05        -0.18772E-09         0.00000E+00
    0.10514E-05        -0.69285E-10         0.00000E+00
    0.10504E-05         0.61148E-10         0.00000E+00
    0.10496E-05         0.17473E-09         0.00000E+00
    0.10489E-05         0.25228E-09         0.00000E+00
    0.10484E-05         0.28540E-09         0.00000E+00
    0.10479E-05         0.27580E-09         0.00000E+00
    0.10474E-05         0.23334E-09         0.00000E+00
    0.10468E-05         0.17312E-09         0.00000E+00
    0.10462E-05         0.11153E-09         0.00000E+00
    0.10455E-05         0.61612E-10         0.00000E+00
    0.10451E-05         0.40835E-10         0.00000E+00
    0.10467E-05        -0.20358E-09         0.00000E+00
    0.10458E-05        -0.42097E-09         0.00000E+00
    0.10442E-05        -0.80600E-09         0.00000E+00
    0.10428E-05        -0.10856E-08         0.00000E+00
    0.10417E-05        -0.12582E-08         0.00000E+00
    0.10407E-05        -0.13375E-08         0.00000E+00
    0.10400E-05        -0.13440E-08         0.00000E+00
    0.10395E-05        -0.12985E-08         0.00000E+00
    0.10391E-05        -0.12177E-08         0.00000E+00
    0.10387E-05        -0.11123E-08         0.00000E+00
    0.10384E-05        -0.98658E-09         0.00000E+00
    0.10381E-05        -0.83960E-09         0.00000E+00
    0.10377E-05        -0.66725E-09         0.00000E+00
    0.10373E-05        -0.46524E-09         0.00000E+00
    0.10368E-05        -0.23248E-09         0.00000E+00
    0.10365E-05        -0.10860E-09         0.00000E+00
    0.10346E-05        -0.33886E-09         0.00000E+00
    0.10340E-05        -0.68683E-09         0.00000E+00
    0.10329E-05        -0.13293E-08         0.00000E+00
    0.10319E-05        -0.18517E-08         0.00000E+00
    0.10311E-05        -0.22376E-08         0.00000E+00
    0.10306E-05        -0.24876E-08         0.00000E+00
    0.10302E-05        -0.26118E-08         0.00000E+00
    0.10300E-05        -0.26247E-08         0.00000E+00
    0.10298E-05        -0.25408E-08         0.00000E+00
    0.10297E-05        -0.23723E-08         0.00000E+00
    0.10296E-05        -0.21280E-08         0.00000E+00
    0.10295E-05        -0.18140E-08         0.00000E+00
    0.10294E-05        -0.14350E-08         0.00000E+00
    0.10291E-05        -0.99603E-09         0.00000E+00
    0.10288E-05        -0.50517E-09         0.00000E+00
    0.10286E-05        -0.24804E-09         0.00000E+00
    0.10232E-05        -0.47661E-09         0.00000E+00
    0.10228E-05        -0.95360E-09         0.00000E+00
    0.10221E-05        -0.18444E-08         0.00000E+00
    0.10215E-05        -0.25910E-08         0.00000E+00
    0.10212E-05        -0.31680E-08         0.00000E+00
    0.10210E-05        -0.35672E-08         0.00000E+00
    0.10210E-05        -0.37923E-08         0.00000E+00
    0.10211E-05        -0.38532E-08         0.00000E+00
    0.10212E-05        -0.37632E-08         0.00000E+00
    0.10214E-05        -0.35358E-08         0.00000E+00
    0.10215E-05        -0.31835E-08         0.00000E+00
    0.10217E-05        -0.27180E-08         0.00000E+00
    0.10217E-05        -0.21507E-08         0.00000E+00
    0.10216E-05        -0.14938E-08         0.00000E+00
    0.10215E-05        -0.76251E-09         0.00000E+00
    0.10213E-05        -0.38032E-09         0.00000E+00
    0.10125E-05        -0.62015E-09         0.00000E+00
    0.10123E-05        -0.12283E-08         0.00000E+00
    0.10120E-05        -0.23659E-08         0.00000E+00
    0.10118E-05        -0.33260E-08         0.00000E+00
    0.10119E-05        -0.40782E-08         0.00000E+00
    0.10121E-05        -0.46100E-08         0.00000E+00
    0.10124E-05        -0.49211E-08         0.00000E+00
    0.10128E-05        -0.50198E-08         0.00000E+00
    0.10133E-05        -0.49188E-08         0.00000E+00
    0.10137E-05        -0.46333E-08         0.00000E+00
    0.10142E-05        -0.41791E-08         0.00000E+00
    0.10145E-05        -0.35722E-08         0.00000E+00
    0.10148E-05        -0.28293E-08         0.00000E+00
    0.10149E-05        -0.19680E-08         0.00000E+00
    0.10149E-05        -0.10088E-08         0.00000E+00
    0.10148E-05        -0.50748E-09         0.00000E+00
    0.10026E-05        -0.77143E-09         0.00000E+00
    0.10026E-05        -0.15151E-08         0.00000E+00
    0.10026E-05        -0.29029E-08         0.00000E+00
    0.10029E-05        -0.40706E-08         0.00000E+00
    0.10033E-05        -0.49868E-08         0.00000E+00
    0.10039E-05        -0.56375E-08         0.00000E+00
    0.10046E-05        -0.60219E-08         0.00000E+00
    0.10053E-05        -0.61481E-08         0.00000E+00
    0.10061E-05        -0.60301E-08         0.00000E+00
    0.10068E-05        -0.56852E-08         0.00000E+00
    0.10075E-05        -0.51321E-08         0.00000E+00
    0.10081E-05        -0.43904E-08         0.00000E+00
    0.10086E-05        -0.34806E-08         0.00000E+00
    0.10089E-05        -0.24248E-08         0.00000E+00
    0.10091E-05        -0.12470E-08         0.00000E+00
    0.10091E-05        -0.63079E-09         0.00000E+00
    0.99346E-06        -0.93131E-09         0.00000E+00
    0.99359E-06        -0.18161E-08         0.00000E+00
    0.99398E-06        -0.34599E-08         0.00000E+00
    0.99462E-06        -0.48323E-08         0.00000E+00
    0.99545E-06        -0.59035E-08         0.00000E+00
    0.99641E-06        -0.66614E-08         0.00000E+00
    0.99745E-06        -0.71071E-08         0.00000E+00
    0.99853E-06        -0.72510E-08         0.00000E+00
    0.99961E-06        -0.71095E-08         0.00000E+00
    0.10006E-05        -0.67026E-08         0.00000E+00
    0.10016E-05        -0.60518E-08         0.00000E+00
    0.10024E-05        -0.51797E-08         0.00000E+00
    0.10031E-05        -0.41099E-08         0.00000E+00
    0.10036E-05        -0.28671E-08         0.00000E+00
    0.10040E-05        -0.14783E-08         0.00000E+00
    0.10041E-05        -0.75086E-09         0.00000E+00
    0.98510E-06        -0.10998E-08         0.00000E+00
    0.98540E-06        -0.21315E-08         0.00000E+00
    0.98615E-06        -0.40377E-08         0.00000E+00
    0.98716E-06        -0.56123E-08         0.00000E+00
    0.98837E-06        -0.68304E-08         0.00000E+00
    0.98970E-06        -0.76843E-08         0.00000E+00
    0.99111E-06        -0.81797E-08         0.00000E+00
    0.99253E-06        -0.83314E-08         0.00000E+00
    0.99392E-06        -0.81596E-08         0.00000E+00
    0.99524E-06        -0.76875E-08         0.00000E+00
    0.99645E-06        -0.69398E-08         0.00000E+00
    0.99753E-06        -0.59413E-08         0.00000E+00
    0.99843E-06        -0.47176E-08         0.00000E+00
    0.99914E-06        -0.32953E-08         0.00000E+00
    0.99963E-06        -0.17028E-08         0.00000E+00
    0.99982E-06        -0.86763E-09         0.00000E+00
    0.97753E-06        -0.12762E-08         0.00000E+00
    0.97800E-06        -0.24599E-08         0.00000E+00
    0.97911E-06        -0.46337E-08         0.00000E+00
    0.98050E-06        -0.64072E-08         0.00000E+00
    0.98209E-06        -0.77628E-08         0.00000E+00
    0.98380E-06        -0.87006E-08         0.00000E+00
    0.98556E-06        -0.92335E-08         0.00000E+00
    0.98731E-06        -0.93826E-08         0.00000E+00
    0.98900E-06        -0.91736E-08         0.00000E+00
    0.99060E-06        -0.86336E-08         0.00000E+00
    0.99207E-06        -0.77903E-08         0.00000E+00
    0.99338E-06        -0.66702E-08         0.00000E+00
    0.99449E-06        -0.53000E-08         0.00000E+00
    0.99539E-06        -0.37067E-08         0.00000E+00
    0.99604E-06        -0.19190E-08         0.00000E+00
    0.99630E-06        -0.98041E-09         0.00000E+00
    0.97074E-06        -0.14592E-08         0.00000E+00
    0.97140E-06        -0.27985E-08         0.00000E+00
    0.97288E-06        -0.52423E-08         0.00000E+00
    0.97466E-06        -0.72082E-08         0.00000E+00
    0.97664E-06        -0.86894E-08         0.00000E+00
    0.97872E-06        -0.96967E-08         0.00000E+00
    0.98082E-06        -0.10253E-07         0.00000E+00
    0.98289E-06        -0.10389E-07         0.00000E+00
    0.98487E-06        -0.10136E-07         0.00000E+00
    0.98674E-06        -0.95261E-08         0.00000E+00
    0.98845E-06        -0.85902E-08         0.00000E+00
    0.98998E-06        -0.73557E-08         0.00000E+00
    0.99130E-06        -0.58488E-08         0.00000E+00
    0.99238E-06        -0.40959E-08         0.00000E+00
    0.99320E-06        -0.21245E-08         0.00000E+00
    0.99354E-06        -0.10879E-08         0.00000E+00
    0.96472E-06        -0.16467E-08         0.00000E+00
    0.96557E-06        -0.31431E-08         0.00000E+00
    0.96745E-06        -0.58546E-08         0.00000E+00
    0.96964E-06        -0.80017E-08         0.00000E+00
    0.97202E-06        -0.95918E-08         0.00000E+00
    0.97446E-06        -0.10650E-07         0.00000E+00
    0.97690E-06        -0.11214E-07         0.00000E+00
    0.97927E-06        -0.11324E-07         0.00000E+00
    0.98153E-06        -0.11021E-07         0.00000E+00
    0.98364E-06        -0.10342E-07         0.00000E+00
    0.98558E-06        -0.93191E-08         0.00000E+00
    0.98732E-06        -0.79811E-08         0.00000E+00
    0.98884E-06        -0.63518E-08         0.00000E+00
    0.99010E-06        -0.44549E-08         0.00000E+00
    0.99108E-06        -0.23153E-08         0.00000E+00
    0.99150E-06        -0.11883E-08         0.00000E+00
    0.95945E-06        -0.18362E-08         0.00000E+00
    0.96052E-06        -0.34882E-08         0.00000E+00
    0.96284E-06        -0.64584E-08         0.00000E+00
    0.96547E-06        -0.87683E-08         0.00000E+00
    0.96824E-06        -0.10444E-07         0.00000E+00
    0.97106E-06        -0.11530E-07         0.00000E+00
    0.97382E-06        -0.12081E-07         0.00000E+00
    0.97647E-06        -0.12152E-07         0.00000E+00
    0.97898E-06        -0.11793E-07         0.00000E+00
    0.98131E-06        -0.11048E-07         0.00000E+00
    0.98345E-06        -0.99489E-08         0.00000E+00
    0.98538E-06        -0.85235E-08         0.00000E+00
    0.98708E-06        -0.67920E-08         0.00000E+00
    0.98852E-06        -0.47729E-08         0.00000E+00
    0.98966E-06        -0.24864E-08         0.00000E+00
    0.99016E-06        -0.12791E-08         0.00000E+00
    0.95493E-06        -0.20241E-08         0.00000E+00
    0.95624E-06        -0.38262E-08         0.00000E+00
    0.95906E-06        -0.70373E-08         0.00000E+00
    0.96214E-06        -0.94816E-08         0.00000E+00
    0.96534E-06        -0.11211E-07         0.00000E+00
    0.96850E-06        -0.12294E-07         0.00000E+00
    0.97157E-06        -0.12809E-07         0.00000E+00
    0.97447E-06        -0.12826E-07         0.00000E+00
    0.97719E-06        -0.12408E-07         0.00000E+00
    0.97970E-06        -0.11602E-07         0.00000E+00
    0.98202E-06        -0.10443E-07         0.00000E+00
    0.98411E-06        -0.89541E-08         0.00000E+00
    0.98598E-06        -0.71483E-08         0.00000E+00
    0.98759E-06        -0.50366E-08         0.00000E+00
    0.98891E-06        -0.26314E-08         0.00000E+00
    0.98949E-06        -0.13573E-08         0.00000E+00
    0.95113E-06        -0.22061E-08         0.00000E+00
    0.95274E-06        -0.41472E-08         0.00000E+00
    0.95610E-06        -0.75693E-08         0.00000E+00
    0.95969E-06        -0.10107E-07         0.00000E+00
    0.96331E-06        -0.11845E-07         0.00000E+00
    0.96682E-06        -0.12887E-07         0.00000E+00
    0.97015E-06        -0.13337E-07         0.00000E+00
    0.97326E-06        -0.13286E-07         0.00000E+00
    0.97614E-06        -0.12808E-07         0.00000E+00
    0.97880E-06        -0.11954E-07         0.00000E+00
    0.98124E-06        -0.10759E-07         0.00000E+00
    0.98348E-06        -0.92373E-08         0.00000E+00
    0.98550E-06        -0.73947E-08         0.00000E+00
    0.98728E-06        -0.52296E-08         0.00000E+00
    0.98877E-06        -0.27428E-08         0.00000E+00
    0.98944E-06        -0.14195E-08         0.00000E+00
    0.94807E-06        -0.23765E-08         0.00000E+00
    0.95001E-06        -0.44383E-08         0.00000E+00
    0.95401E-06        -0.80250E-08         0.00000E+00
    0.95814E-06        -0.10597E-07         0.00000E+00
    0.96219E-06        -0.12286E-07         0.00000E+00
    0.96601E-06        -0.13238E-07         0.00000E+00
    0.96956E-06        -0.13592E-07         0.00000E+00
    0.97282E-06        -0.13459E-07         0.00000E+00
    0.97580E-06        -0.12924E-07         0.00000E+00
    0.97854E-06        -0.12042E-07         0.00000E+00
    0.98107E-06        -0.10842E-07         0.00000E+00
    0.98341E-06        -0.93310E-08         0.00000E+00
    0.98555E-06        -0.75004E-08         0.00000E+00
    0.98750E-06        -0.53327E-08         0.00000E+00
    0.98918E-06        -0.28119E-08         0.00000E+00
    0.98996E-06        -0.14616E-08         0.00000E+00
    0.94576E-06        -0.25273E-08         0.00000E+00
    0.94809E-06        -0.46812E-08         0.00000E+00
    0.95282E-06        -0.83634E-08         0.00000E+00
    0.95754E-06        -0.10887E-07         0.00000E+00
    0.96200E-06        -0.12451E-07         0.00000E+00
    0.96609E-06        -0.13259E-07         0.00000E+00
    0.96979E-06        -0.13485E-07         0.00000E+00
    0.97312E-06        -0.13262E-07         0.00000E+00
    0.97613E-06        -0.12681E-07         0.00000E+00
    0.97888E-06        -0.11798E-07         0.00000E+00
    0.98143E-06        -0.10634E-07         0.00000E+00
    0.98382E-06        -0.91863E-08         0.00000E+00
    0.98607E-06        -0.74291E-08         0.00000E+00
    0.98817E-06        -0.53231E-08         0.00000E+00
    0.99007E-06        -0.28282E-08         0.00000E+00
    0.99096E-06        -0.14790E-08         0.00000E+00
    0.94421E-06        -0.26469E-08         0.00000E+00
    0.94703E-06        -0.48489E-08         0.00000E+00
    0.95261E-06        -0.85244E-08         0.00000E+00
    0.95794E-06        -0.10888E-07         0.00000E+00
    0.96277E-06        -0.12234E-07         0.00000E+00
    0.96705E-06        -0.12838E-07         0.00000E+00
    0.97080E-06        -0.12912E-07         0.00000E+00
    0.97411E-06        -0.12601E-07         0.00000E+00
    0.97706E-06        -0.11997E-07         0.00000E+00
    0.97975E-06        -0.11147E-07         0.00000E+00
    0.98225E-06        -0.10069E-07         0.00000E+00
    0.98463E-06        -0.87473E-08         0.00000E+00
    0.98695E-06        -0.71375E-08         0.00000E+00
    0.98920E-06        -0.51729E-08         0.00000E+00
    0.99133E-06        -0.27793E-08         0.00000E+00
    0.99236E-06        -0.14662E-08         0.00000E+00
    0.94350E-06        -0.27166E-08         0.00000E+00
    0.94690E-06        -0.48979E-08         0.00000E+00
    0.95347E-06        -0.84135E-08         0.00000E+00
    0.95941E-06        -0.10465E-07         0.00000E+00
    0.96453E-06        -0.11490E-07         0.00000E+00
    0.96887E-06        -0.11845E-07         0.00000E+00
    0.97256E-06        -0.11763E-07         0.00000E+00
    0.97574E-06        -0.11385E-07         0.00000E+00
    0.97853E-06        -0.10790E-07         0.00000E+00
    0.98106E-06        -0.10019E-07         0.00000E+00
    0.98343E-06        -0.90798E-08         0.00000E+00
    0.98574E-06        -0.79506E-08         0.00000E+00
    0.98807E-06        -0.65724E-08         0.00000E+00
    0.99046E-06        -0.48460E-08         0.00000E+00
    0.99286E-06        -0.26484E-08         0.00000E+00
    0.99405E-06        -0.14157E-08         0.00000E+00
    0.94375E-06        -0.26997E-08         0.00000E+00
    0.94788E-06        -0.47479E-08         0.00000E+00
    0.95556E-06        -0.78719E-08         0.00000E+00
    0.96201E-06        -0.94221E-08         0.00000E+00
    0.96725E-06        -0.10040E-07         0.00000E+00
    0.97149E-06        -0.10139E-07         0.00000E+00
    0.97498E-06        -0.99350E-08         0.00000E+00
    0.97791E-06        -0.95357E-08         0.00000E+00
    0.98044E-06        -0.89994E-08         0.00000E+00
    0.98273E-06        -0.83533E-08         0.00000E+00
    0.98489E-06        -0.76018E-08         0.00000E+00
    0.98704E-06        -0.67258E-08         0.00000E+00
    0.98931E-06        -0.56644E-08         0.00000E+00
    0.99180E-06        -0.42899E-08         0.00000E+00
    0.99450E-06        -0.24102E-08         0.00000E+00
    0.99590E-06        -0.13169E-08         0.00000E+00
    0.94526E-06        -0.25189E-08         0.00000E+00
    0.95025E-06        -0.42338E-08         0.00000E+00
    0.95904E-06        -0.66097E-08         0.00000E+00
    0.96573E-06        -0.74745E-08         0.00000E+00
    0.97083E-06        -0.76893E-08         0.00000E+00
    0.97479E-06        -0.76071E-08         0.00000E+00
    0.97794E-06        -0.73590E-08         0.00000E+00
    0.98052E-06        -0.70092E-08         0.00000E+00
    0.98272E-06        -0.65900E-08         0.00000E+00
    0.98468E-06        -0.61163E-08         0.00000E+00
    0.98656E-06        -0.55909E-08         0.00000E+00
    0.98847E-06        -0.50025E-08         0.00000E+00
    0.99058E-06        -0.43186E-08         0.00000E+00
    0.99306E-06        -0.34179E-08         0.00000E+00
    0.99607E-06        -0.20165E-08         0.00000E+00
    0.99775E-06        -0.11444E-08         0.00000E+00
    0.94882E-06        -0.18945E-08         0.00000E+00
    0.95445E-06        -0.29177E-08         0.00000E+00
    0.96390E-06        -0.41207E-08         0.00000E+00
    0.97040E-06        -0.43333E-08         0.00000E+00
    0.97509E-06        -0.43249E-08         0.00000E+00
    0.97860E-06        -0.42048E-08         0.00000E+00
    0.98129E-06        -0.40254E-08         0.00000E+00
    0.98345E-06        -0.38102E-08         0.00000E+00
    0.98525E-06        -0.35713E-08         0.00000E+00
    0.98684E-06        -0.33144E-08         0.00000E+00
    0.98837E-06        -0.30409E-08         0.00000E+00
    0.98998E-06        -0.27480E-08         0.00000E+00
    0.99183E-06        -0.24243E-08         0.00000E+00
    0.99414E-06        -0.20566E-08         0.00000E+00
    0.99733E-06        -0.13654E-08         0.00000E+00
    0.99920E-06        -0.87000E-09         0.00000E+00
    0.95126E-06         0.00000E+00         0.00000E+00
    0.95707E-06         0.00000E+00         0.00000E+00
    0.96666E-06        -0.27483E-20         0.00000E+00
    0.97294E-06         0.26979E-22         0.00000E+00
    0.97737E-06         0.30528E-20         0.00000E+00
    0.98061E-06         0.00000E+00         0.00000E+00
    0.98306E-06         0.00000E+00         0.00000E+00
    0.98498E-06        -0.28518E-20         0.00000E+00
    0.98656E-06        -0.28518E-20         0.00000E+00
    0.98796E-06         0.28799E-20         0.00000E+00
    0.98931E-06         0.31678E-20         0.00000E+00
    0.99075E-06        -0.31957E-20         0.00000E+00
    0.99244E-06        -0.27917E-21         0.00000E+00
    0.99464E-06         0.29205E-20         0.00000E+00
    0.99785E-06         0.58625E-21         0.00000E+00
    0.99976E-06         0.00000E+00         0.00000E+00
CELL_DATA        450
TENSORS stressef double 
    0.38667E+08        -0.39686E+06         0.00000E+00
   -0.39686E+06         0.49929E+07         0.00000E+00
    0.00000E+00         0.00000E+00         0.00000E+00
 
    0.33537E+08        -0.46233E+06         0.00000E+00
   -0.46233E+06         0.42949E+07         0.00000E+00
    0.00000E+00         0.00000E+00         0.00000E+00
 
    0.29913E+08        -0.42886E+06         0.00000E+00
   -0.42886E+06         0.34966E+07         0.00000E+00
    0.00000E+00         0.00000E+00         0.00000E+00
 
    0.27030E+08        -0.38233E+06         0.00000E+00
   -0.38233E+06         0.27578E+07         0.00000E+00
    0.00000E+00         0.00000E+00         0.00000E+00
 
    0.24602E+08        -0.32832E+06         0.00000E+00
   -0.32832E+06         0.21128E+07         0.00000E+00
    0.00000E+00         0.00000E+00         0.00000E+00
 
    0.22471E+08        -0.26958E+06         0.00000E+00
   -0.26958E+06         0.15767E+07         0.00000E+00
    0.00000E+00         0.00000E+00         0.00000E+00
 
    0.20531E+08        -0.20630E+06         0.00000E+00
   -0.20630E+06         0.11594E+07         0.00000E+00
    0.00000E+00         0.00000E+00         0.00000E+00
 
    0.18702E+08        -0.13781E+06         0.00000E+00
   -0.13781E+06         0.87073E+06         0.00000E+00
    0.00000E+00         0.00000E+00         0.00000E+00
 
    0.16918E+08        -0.62705E+05         0.00000E+00
   -0.62705E+05         0.72212E+06         0.00000E+00
    0.00000E+00         0.00000E+00         0.00000E+00
 
    0.15118E+08         0.21231E+05         0.00000E+00
    0.21231E+05         0.72856E+06         0.00000E+00
    0.00000E+00         0.00000E+00         0.00000E+00
 
    0.13236E+08         0.11765E+06         0.00000E+00
    0.11765E+06         0.91078E+06         0.00000E+00
    0.00000E+00         0.00000E+00         0.00000E+00
 
    0.11191E+08         0.23303E+06         0.00000E+00
    0.23303E+06         0.12995E+07         0.00000E+00
    0.00000E+00         0.00000E+00         0.00000E+00
 
    0.88702E+07         0.38096E+06         0.00000E+00
    0.38096E+06         0.19449E+07         0.00000E+00
    0.00000E+00         0.00000E+00         0.00000E+00
 
    0.60758E+07         0.59212E+06         0.00000E+00
    0.59212E+06         0.29420E+07         0.00000E+00
    0.00000E+00         0.00000E+00         0.00000E+00
 
    0.22641E+07         0.10564E+07         0.00000E+00
    0.10564E+07         0.45592E+07         0.00000E+00
    0.00000E+00         0.00000E+00         0.00000E+00
 
    0.36071E+08        -0.66308E+06         0.00000E+00
   -0.66308E+06         0.35047E+07         0.00000E+00
    0.00000E+00         0.00000E+00         0.00000E+00
 
    0.31625E+08        -0.11365E+07         0.00000E+00
   -0.11365E+07         0.32374E+07         0.00000E+00
    0.00000E+00         0.00000E+00         0.00000E+00
 
    0.28091E+08        -0.11588E+07         0.00000E+00
   -0.11588E+07         0.27263E+07         0.00000E+00
    0.00000E+00         0.00000E+00         0.00000E+00
 
    0.25234E+08        -0.10672E+07         0.00000E+00
   -0.10672E+07         0.21574E+07         0.00000E+00
    0.00000E+00         0.00000E+00         0.00000E+00
 
    0.22814E+08        -0.93094E+06         0.00000E+00
   -0.93094E+06         0.16218E+07         0.00000E+00
    0.00000E+00         0.00000E+00         0.00000E+00
 
    0.20685E+08        -0.76982E+06         0.00000E+00
   -0.76982E+06         0.11601E+07         0.00000E+00
    0.00000E+00         0.00000E+00         0.00000E+00
 
    0.18746E+08        -0.58968E+06         0.00000E+00
   -0.58968E+06         0.79554E+06         0.00000E+00
    0.00000E+00         0.00000E+00         0.00000E+00
 
    0.16921E+08        -0.39079E+06         0.00000E+00
   -0.39079E+06         0.54527E+06         0.00000E+00
    0.00000E+00         0.00000E+00         0.00000E+00
 
    0.15145E+08        -0.17022E+06         0.00000E+00
   -0.17022E+06         0.42507E+06         0.00000E+00
    0.00000E+00         0.00000E+00         0.00000E+00
 
    0.13359E+08         0.78016E+05         0.00000E+00
    0.78016E+05         0.45244E+06         0.00000E+00
    0.00000E+00         0.00000E+00         0.00000E+00
 
    0.11500E+08         0.36430E+06         0.00000E+00
    0.36430E+06         0.64945E+06         0.00000E+00
    0.00000E+00         0.00000E+00         0.00000E+00
 
    0.94962E+07         0.70745E+06         0.00000E+00
    0.70745E+06         0.10467E+07         0.00000E+00
    0.00000E+00         0.00000E+00         0.00000E+00
 
    0.72557E+07         0.11451E+07         0.00000E+00
    0.11451E+07         0.16903E+07         0.00000E+00
    0.00000E+00         0.00000E+00         0.00000E+00
 
    0.46390E+07         0.17695E+07         0.00000E+00
    0.17695E+07         0.26584E+07         0.00000E+00
    0.00000E+00         0.00000E+00         0.00000E+00
 
    0.16076E+07         0.28787E+07         0.00000E+00
    0.28787E+07         0.40294E+07         0.00000E+00
    0.00000E+00         0.00000E+00         0.00000E+00
 
    0.33152E+08        -0.67678E+06         0.00000E+00
   -0.67678E+06         0.16918E+07         0.00000E+00
    0.00000E+00         0.00000E+00         0.00000E+00
 
    0.29469E+08        -0.14146E+07         0.00000E+00
   -0.14146E+07         0.16340E+07         0.00000E+00
    0.00000E+00         0.00000E+00         0.00000E+00
 
    0.26231E+08        -0.16162E+07         0.00000E+00
   -0.16162E+07         0.14120E+07         0.00000E+00
    0.00000E+00         0.00000E+00         0.00000E+00
 
    0.23479E+08        -0.15669E+07         0.00000E+00
   -0.15669E+07         0.10738E+07         0.00000E+00
    0.00000E+00         0.00000E+00         0.00000E+00
 
    0.21107E+08        -0.14029E+07         0.00000E+00
   -0.14029E+07         0.70650E+06         0.00000E+00
    0.00000E+00         0.00000E+00         0.00000E+00
 
    0.19006E+08        -0.11746E+07         0.00000E+00
   -0.11746E+07         0.36764E+06         0.00000E+00
    0.00000E+00         0.00000E+00         0.00000E+00
 
    0.17088E+08        -0.90142E+06         0.00000E+00
   -0.90142E+06         0.93794E+05         0.00000E+00
    0.00000E+00         0.00000E+00         0.00000E+00
 
    0.15284E+08        -0.58906E+06         0.00000E+00
   -0.58906E+06        -0.88992E+05         0.00000E+00
    0.00000E+00         0.00000E+00         0.00000E+00
 
    0.13535E+08        -0.23566E+06         0.00000E+00
   -0.23566E+06        -0.15914E+06         0.00000E+00
    0.00000E+00         0.00000E+00         0.00000E+00
 
    0.11785E+08         0.16662E+06         0.00000E+00
    0.16662E+06        -0.95722E+05         0.00000E+00
    0.00000E+00         0.00000E+00         0.00000E+00
 
    0.99802E+07         0.63314E+06         0.00000E+00
    0.63314E+06         0.12438E+06         0.00000E+00
    0.00000E+00         0.00000E+00         0.00000E+00
 
    0.80638E+07         0.11918E+07         0.00000E+00
    0.11918E+07         0.52924E+06         0.00000E+00
    0.00000E+00         0.00000E+00         0.00000E+00
 
    0.59753E+07         0.18953E+07         0.00000E+00
    0.18953E+07         0.11540E+07         0.00000E+00
    0.00000E+00         0.00000E+00         0.00000E+00
 
    0.36782E+07         0.28531E+07         0.00000E+00
    0.28531E+07         0.20326E+07         0.00000E+00
    0.00000E+00         0.00000E+00         0.00000E+00
 
    0.12381E+07         0.42319E+07         0.00000E+00
    0.42319E+07         0.31331E+07         0.00000E+00
    0.00000E+00         0.00000E+00         0.00000E+00
 
    0.30165E+08        -0.64858E+06         0.00000E+00
   -0.64858E+06        -0.14825E+06         0.00000E+00
    0.00000E+00         0.00000E+00         0.00000E+00
 
    0.27116E+08        -0.14806E+07         0.00000E+00
   -0.14806E+07        -0.13042E+06         0.00000E+00
    0.00000E+00         0.00000E+00         0.00000E+00
 
    0.24261E+08        -0.18262E+07         0.00000E+00
   -0.18262E+07        -0.18554E+06         0.00000E+00
    0.00000E+00         0.00000E+00         0.00000E+00
 
    0.21706E+08        -0.18611E+07         0.00000E+00
   -0.18611E+07        -0.33248E+06         0.00000E+00
    0.00000E+00         0.00000E+00         0.00000E+00
 
    0.19438E+08        -0.17143E+07         0.00000E+00
   -0.17143E+07        -0.53164E+06         0.00000E+00
    0.00000E+00         0.00000E+00         0.00000E+00
 
    0.17401E+08        -0.14555E+07         0.00000E+00
   -0.14555E+07        -0.73454E+06         0.00000E+00
    0.00000E+00         0.00000E+00         0.00000E+00
 
    0.15531E+08        -0.11177E+07         0.00000E+00
   -0.11177E+07        -0.90184E+06         0.00000E+00
    0.00000E+00         0.00000E+00         0.00000E+00
 
    0.13772E+08        -0.71403E+06         0.00000E+00
   -0.71403E+06        -0.10028E+07         0.00000E+00
    0.00000E+00         0.00000E+00         0.00000E+00
 
    0.12072E+08        -0.24590E+06         0.00000E+00
   -0.24590E+06        -0.10119E+07         0.00000E+00
    0.00000E+00         0.00000E+00         0.00000E+00
 
    0.10383E+08         0.29419E+06         0.00000E+00
    0.29419E+06        -0.90616E+06         0.00000E+00
    0.00000E+00         0.00000E+00         0.00000E+00
 
    0.86615E+07         0.92347E+06         0.00000E+00
    0.92347E+06        -0.66307E+06         0.00000E+00
    0.00000E+00         0.00000E+00         0.00000E+00
 
    0.68684E+07         0.16729E+07         0.00000E+00
    0.16729E+07        -0.26005E+06         0.00000E+00
    0.00000E+00         0.00000E+00         0.00000E+00
 
    0.49764E+07         0.25954E+07         0.00000E+00
    0.25954E+07         0.32214E+06         0.00000E+00
    0.00000E+00         0.00000E+00         0.00000E+00
 
    0.29931E+07         0.37703E+07         0.00000E+00
    0.37703E+07         0.10832E+07         0.00000E+00
    0.00000E+00         0.00000E+00         0.00000E+00
 
    0.99140E+06         0.52882E+07         0.00000E+00
    0.52882E+07         0.19804E+07         0.00000E+00
    0.00000E+00         0.00000E+00         0.00000E+00
 
    0.27202E+08        -0.60715E+06         0.00000E+00
   -0.60715E+06        -0.19953E+07         0.00000E+00
    0.00000E+00         0.00000E+00         0.00000E+00
 
    0.24668E+08        -0.14536E+07         0.00000E+00
   -0.14536E+07        -0.19431E+07         0.00000E+00
    0.00000E+00         0.00000E+00         0.00000E+00
 
    0.22193E+08        -0.18781E+07         0.00000E+00
   -0.18781E+07        -0.19094E+07         0.00000E+00
    0.00000E+00         0.00000E+00         0.00000E+00
 
    0.19885E+08        -0.19864E+07         0.00000E+00
   -0.19864E+07        -0.19291E+07         0.00000E+00
    0.00000E+00         0.00000E+00         0.00000E+00
 
    0.17773E+08        -0.18749E+07         0.00000E+00
   -0.18749E+07        -0.19939E+07         0.00000E+00
    0.00000E+00         0.00000E+00         0.00000E+00
 
    0.15841E+08        -0.16108E+07         0.00000E+00
   -0.16108E+07        -0.20750E+07         0.00000E+00
    0.00000E+00         0.00000E+00         0.00000E+00
 
    0.14052E+08        -0.12329E+07         0.00000E+00
   -0.12329E+07        -0.21400E+07         0.00000E+00
    0.00000E+00         0.00000E+00         0.00000E+00
 
    0.12364E+08        -0.76008E+06         0.00000E+00
   -0.76008E+06        -0.21595E+07         0.00000E+00
    0.00000E+00         0.00000E+00         0.00000E+00
 
    0.10736E+08        -0.19775E+06         0.00000E+00
   -0.19775E+06        -0.21076E+07         0.00000E+00
    0.00000E+00         0.00000E+00         0.00000E+00
 
    0.91320E+07         0.45955E+06         0.00000E+00
    0.45955E+06        -0.19618E+07         0.00000E+00
    0.00000E+00         0.00000E+00         0.00000E+00
 
    0.75186E+07         0.12276E+07         0.00000E+00
    0.12276E+07        -0.17018E+07         0.00000E+00
    0.00000E+00         0.00000E+00         0.00000E+00
 
    0.58718E+07         0.21343E+07         0.00000E+00
    0.21343E+07        -0.13118E+07         0.00000E+00
    0.00000E+00         0.00000E+00         0.00000E+00
 
    0.41841E+07         0.32210E+07         0.00000E+00
    0.32210E+07        -0.78466E+06         0.00000E+00
    0.00000E+00         0.00000E+00         0.00000E+00
 
    0.24769E+07         0.45396E+07         0.00000E+00
    0.45396E+07        -0.13151E+06         0.00000E+00
    0.00000E+00         0.00000E+00         0.00000E+00
 
    0.81169E+06         0.61388E+07         0.00000E+00
    0.61388E+07         0.60896E+06         0.00000E+00
    0.00000E+00         0.00000E+00         0.00000E+00
 
    0.24299E+08        -0.56073E+06         0.00000E+00
   -0.56073E+06        -0.38427E+07         0.00000E+00
    0.00000E+00         0.00000E+00         0.00000E+00
 
    0.22190E+08        -0.13818E+07         0.00000E+00
   -0.13818E+07        -0.37746E+07         0.00000E+00
    0.00000E+00         0.00000E+00         0.00000E+00
 
    0.20066E+08        -0.18385E+07         0.00000E+00
   -0.18385E+07        -0.36933E+07         0.00000E+00
    0.00000E+00         0.00000E+00         0.00000E+00
 
    0.18020E+08        -0.19941E+07         0.00000E+00
   -0.19941E+07        -0.36346E+07         0.00000E+00
    0.00000E+00         0.00000E+00         0.00000E+00
 
    0.16098E+08        -0.19155E+07         0.00000E+00
   -0.19155E+07        -0.36050E+07         0.00000E+00
    0.00000E+00         0.00000E+00         0.00000E+00
 
    0.14305E+08        -0.16571E+07         0.00000E+00
   -0.16571E+07        -0.35913E+07         0.00000E+00
    0.00000E+00         0.00000E+00         0.00000E+00
 
    0.12627E+08        -0.12559E+07         0.00000E+00
   -0.12559E+07        -0.35712E+07         0.00000E+00
    0.00000E+00         0.00000E+00         0.00000E+00
 
    0.11037E+08        -0.73306E+06         0.00000E+00
   -0.73306E+06        -0.35205E+07         0.00000E+00
    0.00000E+00         0.00000E+00         0.00000E+00
 
    0.95065E+07        -0.96733E+05         0.00000E+00
   -0.96733E+05        -0.34164E+07         0.00000E+00
    0.00000E+00         0.00000E+00         0.00000E+00
 
    0.80087E+07         0.65548E+06         0.00000E+00
    0.65548E+06        -0.32386E+07         0.00000E+00
    0.00000E+00         0.00000E+00         0.00000E+00
 
    0.65213E+07         0.15355E+07         0.00000E+00
    0.15355E+07        -0.29706E+07         0.00000E+00
    0.00000E+00         0.00000E+00         0.00000E+00
 
    0.50311E+07         0.25645E+07         0.00000E+00
    0.25645E+07        -0.26017E+07         0.00000E+00
    0.00000E+00         0.00000E+00         0.00000E+00
 
    0.35400E+07         0.37711E+07         0.00000E+00
    0.37711E+07        -0.21309E+07         0.00000E+00
    0.00000E+00         0.00000E+00         0.00000E+00
 
    0.20715E+07         0.51869E+07         0.00000E+00
    0.51869E+07        -0.15714E+07         0.00000E+00
    0.00000E+00         0.00000E+00         0.00000E+00
 
    0.67362E+06         0.68365E+07         0.00000E+00
    0.68365E+07        -0.95419E+06         0.00000E+00
    0.00000E+00         0.00000E+00         0.00000E+00
 
    0.21473E+08        -0.51305E+06         0.00000E+00
   -0.51305E+06        -0.56884E+07         0.00000E+00
    0.00000E+00         0.00000E+00         0.00000E+00
 
    0.19720E+08        -0.12886E+07         0.00000E+00
   -0.12886E+07        -0.56141E+07         0.00000E+00
    0.00000E+00         0.00000E+00         0.00000E+00
 
    0.17912E+08        -0.17475E+07         0.00000E+00
   -0.17475E+07        -0.55087E+07         0.00000E+00
    0.00000E+00         0.00000E+00         0.00000E+00
 
    0.16126E+08        -0.19268E+07         0.00000E+00
   -0.19268E+07        -0.54049E+07         0.00000E+00
    0.00000E+00         0.00000E+00         0.00000E+00
 
    0.14409E+08        -0.18707E+07         0.00000E+00
   -0.18707E+07        -0.53150E+07         0.00000E+00
    0.00000E+00         0.00000E+00         0.00000E+00
 
    0.12782E+08        -0.16197E+07         0.00000E+00
   -0.16197E+07        -0.52354E+07         0.00000E+00
    0.00000E+00         0.00000E+00         0.00000E+00
 
    0.11240E+08        -0.12050E+07         0.00000E+00
   -0.12050E+07        -0.51527E+07         0.00000E+00
    0.00000E+00         0.00000E+00         0.00000E+00
 
    0.97728E+07        -0.64659E+06         0.00000E+00
   -0.64659E+06        -0.50492E+07         0.00000E+00
    0.00000E+00         0.00000E+00         0.00000E+00
 
    0.83612E+07         0.45799E+05         0.00000E+00
    0.45799E+05        -0.49066E+07         0.00000E+00
    0.00000E+00         0.00000E+00         0.00000E+00
 
    0.69879E+07         0.87157E+06         0.00000E+00
    0.87157E+06        -0.47083E+07         0.00000E+00
    0.00000E+00         0.00000E+00         0.00000E+00
 
    0.56389E+07         0.18380E+07         0.00000E+00
    0.18380E+07        -0.44414E+07         0.00000E+00
    0.00000E+00         0.00000E+00         0.00000E+00
 
    0.43084E+07         0.29587E+07         0.00000E+00
    0.29587E+07        -0.40990E+07         0.00000E+00
    0.00000E+00         0.00000E+00         0.00000E+00
 
    0.30023E+07         0.42515E+07         0.00000E+00
    0.42515E+07        -0.36823E+07         0.00000E+00
    0.00000E+00         0.00000E+00         0.00000E+00
 
    0.17417E+07         0.57336E+07         0.00000E+00
    0.57336E+07        -0.32035E+07         0.00000E+00
    0.00000E+00         0.00000E+00         0.00000E+00
 
    0.56316E+06         0.74155E+07         0.00000E+00
    0.74155E+07        -0.26859E+07         0.00000E+00
    0.00000E+00         0.00000E+00         0.00000E+00
 
    0.18729E+08        -0.46643E+06         0.00000E+00
   -0.46643E+06        -0.75314E+07         0.00000E+00
    0.00000E+00         0.00000E+00         0.00000E+00
 
    0.17281E+08        -0.11870E+07         0.00000E+00
   -0.11870E+07        -0.74568E+07         0.00000E+00
    0.00000E+00         0.00000E+00         0.00000E+00
 
    0.15755E+08        -0.16302E+07         0.00000E+00
   -0.16302E+07        -0.73424E+07         0.00000E+00
    0.00000E+00         0.00000E+00         0.00000E+00
 
    0.14218E+08        -0.18157E+07         0.00000E+00
   -0.18157E+07        -0.72162E+07         0.00000E+00
    0.00000E+00         0.00000E+00         0.00000E+00
 
    0.12714E+08        -0.17711E+07         0.00000E+00
   -0.17711E+07        -0.70925E+07         0.00000E+00
    0.00000E+00         0.00000E+00         0.00000E+00
 
    0.11266E+08        -0.15251E+07         0.00000E+00
   -0.15251E+07        -0.69729E+07         0.00000E+00
    0.00000E+00         0.00000E+00         0.00000E+00
 
    0.98814E+07        -0.11016E+07         0.00000E+00
   -0.11016E+07        -0.68505E+07         0.00000E+00
    0.00000E+00         0.00000E+00         0.00000E+00
 
    0.85561E+07        -0.51802E+06         0.00000E+00
   -0.51802E+06        -0.67134E+07         0.00000E+00
    0.00000E+00         0.00000E+00         0.00000E+00
 
    0.72811E+07         0.21567E+06         0.00000E+00
    0.21567E+06        -0.65479E+07         0.00000E+00
    0.00000E+00         0.00000E+00         0.00000E+00
 
    0.60462E+07         0.10964E+07         0.00000E+00
    0.10964E+07        -0.63415E+07         0.00000E+00
    0.00000E+00         0.00000E+00         0.00000E+00
 
    0.48441E+07         0.21271E+07         0.00000E+00
    0.21271E+07        -0.60846E+07         0.00000E+00
    0.00000E+00         0.00000E+00         0.00000E+00
 
    0.36733E+07         0.33149E+07         0.00000E+00
    0.33149E+07        -0.57726E+07         0.00000E+00
    0.00000E+00         0.00000E+00         0.00000E+00
 
    0.25409E+07         0.46688E+07         0.00000E+00
    0.46688E+07        -0.54075E+07         0.00000E+00
    0.00000E+00         0.00000E+00         0.00000E+00
 
    0.14645E+07         0.61963E+07         0.00000E+00
    0.61963E+07        -0.49990E+07         0.00000E+00
    0.00000E+00         0.00000E+00         0.00000E+00
 
    0.47156E+06         0.78988E+07         0.00000E+00
    0.78988E+07        -0.45646E+07         0.00000E+00
    0.00000E+00         0.00000E+00         0.00000E+00
 
    0.16067E+08        -0.42254E+06         0.00000E+00
   -0.42254E+06        -0.93713E+07         0.00000E+00
    0.00000E+00         0.00000E+00         0.00000E+00
 
    0.14882E+08        -0.10855E+07         0.00000E+00
   -0.10855E+07        -0.93007E+07         0.00000E+00
    0.00000E+00         0.00000E+00         0.00000E+00
 
    0.13611E+08        -0.15031E+07         0.00000E+00
   -0.15031E+07        -0.91874E+07         0.00000E+00
    0.00000E+00         0.00000E+00         0.00000E+00
 
    0.12309E+08        -0.16833E+07         0.00000E+00
   -0.16833E+07        -0.90551E+07         0.00000E+00
    0.00000E+00         0.00000E+00         0.00000E+00
 
    0.11017E+08        -0.16417E+07         0.00000E+00
   -0.16417E+07        -0.89177E+07         0.00000E+00
    0.00000E+00         0.00000E+00         0.00000E+00
 
    0.97578E+07        -0.13970E+07         0.00000E+00
   -0.13970E+07        -0.87796E+07         0.00000E+00
    0.00000E+00         0.00000E+00         0.00000E+00
 
    0.85429E+07        -0.96682E+06         0.00000E+00
   -0.96682E+06        -0.86380E+07         0.00000E+00
    0.00000E+00         0.00000E+00         0.00000E+00
 
    0.73746E+07        -0.36528E+06         0.00000E+00
   -0.36528E+06        -0.84853E+07         0.00000E+00
    0.00000E+00         0.00000E+00         0.00000E+00
 
    0.62498E+07         0.39821E+06         0.00000E+00
    0.39821E+06        -0.83124E+07         0.00000E+00
    0.00000E+00         0.00000E+00         0.00000E+00
 
    0.51642E+07         0.13189E+07         0.00000E+00
    0.13189E+07        -0.81099E+07         0.00000E+00
    0.00000E+00         0.00000E+00         0.00000E+00
 
    0.41145E+07         0.23961E+07         0.00000E+00
    0.23961E+07        -0.78713E+07         0.00000E+00
    0.00000E+00         0.00000E+00         0.00000E+00
 
    0.31021E+07         0.36317E+07         0.00000E+00
    0.36317E+07        -0.75932E+07         0.00000E+00
    0.00000E+00         0.00000E+00         0.00000E+00
 
    0.21340E+07         0.50282E+07         0.00000E+00
    0.50282E+07        -0.72778E+07         0.00000E+00
    0.00000E+00         0.00000E+00         0.00000E+00
 
    0.12242E+07         0.65864E+07         0.00000E+00
    0.65864E+07        -0.69324E+07         0.00000E+00
    0.00000E+00         0.00000E+00         0.00000E+00
 
    0.39300E+06         0.83020E+07         0.00000E+00
    0.83020E+07        -0.65697E+07         0.00000E+00
    0.00000E+00         0.00000E+00         0.00000E+00
 
    0.13484E+08        -0.38270E+06         0.00000E+00
   -0.38270E+06        -0.11208E+08         0.00000E+00
    0.00000E+00         0.00000E+00         0.00000E+00
 
    0.12527E+08        -0.98992E+06         0.00000E+00
   -0.98992E+06        -0.11145E+08         0.00000E+00
    0.00000E+00         0.00000E+00         0.00000E+00
 
    0.11487E+08        -0.13780E+07         0.00000E+00
   -0.13780E+07        -0.11040E+08         0.00000E+00
    0.00000E+00         0.00000E+00         0.00000E+00
 
    0.10408E+08        -0.15463E+07         0.00000E+00
   -0.15463E+07        -0.10913E+08         0.00000E+00
    0.00000E+00         0.00000E+00         0.00000E+00
 
    0.93235E+07        -0.15017E+07         0.00000E+00
   -0.15017E+07        -0.10778E+08         0.00000E+00
    0.00000E+00         0.00000E+00         0.00000E+00
 
    0.82567E+07        -0.12554E+07         0.00000E+00
   -0.12554E+07        -0.10638E+08         0.00000E+00
    0.00000E+00         0.00000E+00         0.00000E+00
 
    0.72201E+07        -0.81949E+06         0.00000E+00
   -0.81949E+06        -0.10494E+08         0.00000E+00
    0.00000E+00         0.00000E+00         0.00000E+00
 
    0.62191E+07        -0.20494E+06         0.00000E+00
   -0.20494E+06        -0.10342E+08         0.00000E+00
    0.00000E+00         0.00000E+00         0.00000E+00
 
    0.52545E+07         0.57973E+06         0.00000E+00
    0.57973E+06        -0.10176E+08         0.00000E+00
    0.00000E+00         0.00000E+00         0.00000E+00
 
    0.43256E+07         0.15287E+07         0.00000E+00
    0.15287E+07        -0.99882E+07         0.00000E+00
    0.00000E+00         0.00000E+00         0.00000E+00
 
    0.34322E+07         0.26387E+07         0.00000E+00
    0.26387E+07        -0.97751E+07         0.00000E+00
    0.00000E+00         0.00000E+00         0.00000E+00
 
    0.25767E+07         0.39077E+07         0.00000E+00
    0.39077E+07        -0.95344E+07         0.00000E+00
    0.00000E+00         0.00000E+00         0.00000E+00
 
    0.17655E+07         0.53335E+07         0.00000E+00
    0.53335E+07        -0.92677E+07         0.00000E+00
    0.00000E+00         0.00000E+00         0.00000E+00
 
    0.10094E+07         0.69123E+07         0.00000E+00
    0.69123E+07        -0.89805E+07         0.00000E+00
    0.00000E+00         0.00000E+00         0.00000E+00
 
    0.32344E+06         0.86359E+07         0.00000E+00
    0.86359E+07        -0.86816E+07         0.00000E+00
    0.00000E+00         0.00000E+00         0.00000E+00
 
    0.10971E+08        -0.34799E+06         0.00000E+00
   -0.34799E+06        -0.13042E+08         0.00000E+00
    0.00000E+00         0.00000E+00         0.00000E+00
 
    0.10217E+08        -0.90477E+06         0.00000E+00
   -0.90477E+06        -0.12988E+08         0.00000E+00
    0.00000E+00         0.00000E+00         0.00000E+00
 
    0.93870E+07        -0.12634E+07         0.00000E+00
   -0.12634E+07        -0.12897E+08         0.00000E+00
    0.00000E+00         0.00000E+00         0.00000E+00
 
    0.85177E+07        -0.14170E+07         0.00000E+00
   -0.14170E+07        -0.12785E+08         0.00000E+00
    0.00000E+00         0.00000E+00         0.00000E+00
 
    0.76365E+07        -0.13662E+07         0.00000E+00
   -0.13662E+07        -0.12663E+08         0.00000E+00
    0.00000E+00         0.00000E+00         0.00000E+00
 
    0.67631E+07        -0.11164E+07         0.00000E+00
   -0.11164E+07        -0.12536E+08         0.00000E+00
    0.00000E+00         0.00000E+00         0.00000E+00
 
    0.59096E+07        -0.67529E+06         0.00000E+00
   -0.67529E+06        -0.12404E+08         0.00000E+00
    0.00000E+00         0.00000E+00         0.00000E+00
 
    0.50826E+07        -0.51228E+05         0.00000E+00
   -0.51228E+05        -0.12266E+08         0.00000E+00
    0.00000E+00         0.00000E+00         0.00000E+00
 
    0.42851E+07         0.74830E+06         0.00000E+00
    0.74830E+06        -0.12117E+08         0.00000E+00
    0.00000E+00         0.00000E+00         0.00000E+00
 
    0.35182E+07         0.17170E+07         0.00000E+00
    0.17170E+07        -0.11954E+08         0.00000E+00
    0.00000E+00         0.00000E+00         0.00000E+00
 
    0.27834E+07         0.28496E+07         0.00000E+00
    0.28496E+07        -0.11772E+08         0.00000E+00
    0.00000E+00         0.00000E+00         0.00000E+00
 
    0.20834E+07         0.41414E+07         0.00000E+00
    0.41414E+07        -0.11572E+08         0.00000E+00
    0.00000E+00         0.00000E+00         0.00000E+00
 
    0.14237E+07         0.55870E+07         0.00000E+00
    0.55870E+07        -0.11354E+08         0.00000E+00
    0.00000E+00         0.00000E+00         0.00000E+00
 
    0.81234E+06         0.71793E+07         0.00000E+00
    0.71793E+07        -0.11122E+08         0.00000E+00
    0.00000E+00         0.00000E+00         0.00000E+00
 
    0.26000E+06         0.89078E+07         0.00000E+00
    0.89078E+07        -0.10882E+08         0.00000E+00
    0.00000E+00         0.00000E+00         0.00000E+00
 
    0.85180E+07        -0.31929E+06         0.00000E+00
   -0.31929E+06        -0.14874E+08         0.00000E+00
    0.00000E+00         0.00000E+00         0.00000E+00
 
    0.79454E+07        -0.83334E+06         0.00000E+00
   -0.83334E+06        -0.14831E+08         0.00000E+00
    0.00000E+00         0.00000E+00         0.00000E+00
 
    0.73103E+07        -0.11655E+07         0.00000E+00
   -0.11655E+07        -0.14758E+08         0.00000E+00
    0.00000E+00         0.00000E+00         0.00000E+00
 
    0.66403E+07        -0.13046E+07         0.00000E+00
   -0.13046E+07        -0.14668E+08         0.00000E+00
    0.00000E+00         0.00000E+00         0.00000E+00
 
    0.59571E+07        -0.12464E+07         0.00000E+00
   -0.12464E+07        -0.14568E+08         0.00000E+00
    0.00000E+00         0.00000E+00         0.00000E+00
 
    0.52763E+07        -0.99234E+06         0.00000E+00
   -0.99234E+06        -0.14463E+08         0.00000E+00
    0.00000E+00         0.00000E+00         0.00000E+00
 
    0.46084E+07        -0.54675E+06         0.00000E+00
   -0.54675E+06        -0.14353E+08         0.00000E+00
    0.00000E+00         0.00000E+00         0.00000E+00
 
    0.39597E+07         0.84242E+05         0.00000E+00
    0.84242E+05        -0.14239E+08         0.00000E+00
    0.00000E+00         0.00000E+00         0.00000E+00
 
    0.33338E+07         0.89404E+06         0.00000E+00
    0.89404E+06        -0.14118E+08         0.00000E+00
    0.00000E+00         0.00000E+00         0.00000E+00
 
    0.27325E+07         0.18761E+07         0.00000E+00
    0.18761E+07        -0.13986E+08         0.00000E+00
    0.00000E+00         0.00000E+00         0.00000E+00
 
    0.21577E+07         0.30240E+07         0.00000E+00
    0.30240E+07        -0.13843E+08         0.00000E+00
    0.00000E+00         0.00000E+00         0.00000E+00
 
    0.16121E+07         0.43311E+07         0.00000E+00
    0.43311E+07        -0.13686E+08         0.00000E+00
    0.00000E+00         0.00000E+00         0.00000E+00
 
    0.11000E+07         0.57899E+07         0.00000E+00
    0.57899E+07        -0.13517E+08         0.00000E+00
    0.00000E+00         0.00000E+00         0.00000E+00
 
    0.62707E+06         0.73910E+07         0.00000E+00
    0.73910E+07        -0.13338E+08         0.00000E+00
    0.00000E+00         0.00000E+00         0.00000E+00
 
    0.20064E+06         0.91226E+07         0.00000E+00
    0.91226E+07        -0.13153E+08         0.00000E+00
    0.00000E+00         0.00000E+00         0.00000E+00
 
    0.61133E+07        -0.29730E+06         0.00000E+00
   -0.29730E+06        -0.16705E+08         0.00000E+00
    0.00000E+00         0.00000E+00         0.00000E+00
 
    0.57063E+07        -0.77812E+06         0.00000E+00
   -0.77812E+06        -0.16674E+08         0.00000E+00
    0.00000E+00         0.00000E+00         0.00000E+00
 
    0.52536E+07        -0.10891E+07         0.00000E+00
   -0.10891E+07        -0.16623E+08         0.00000E+00
    0.00000E+00         0.00000E+00         0.00000E+00
 
    0.47746E+07        -0.12157E+07         0.00000E+00
   -0.12157E+07        -0.16558E+08         0.00000E+00
    0.00000E+00         0.00000E+00         0.00000E+00
 
    0.42847E+07        -0.11508E+07         0.00000E+00
   -0.11508E+07        -0.16487E+08         0.00000E+00
    0.00000E+00         0.00000E+00         0.00000E+00
 
    0.37952E+07        -0.89273E+06         0.00000E+00
   -0.89273E+06        -0.16411E+08         0.00000E+00
    0.00000E+00         0.00000E+00         0.00000E+00
 
    0.33141E+07        -0.44345E+06         0.00000E+00
   -0.44345E+06        -0.16333E+08         0.00000E+00
    0.00000E+00         0.00000E+00         0.00000E+00
 
    0.28462E+07         0.19249E+06         0.00000E+00
    0.19249E+06        -0.16251E+08         0.00000E+00
    0.00000E+00         0.00000E+00         0.00000E+00
 
    0.23946E+07         0.10092E+07         0.00000E+00
    0.10092E+07        -0.16164E+08         0.00000E+00
    0.00000E+00         0.00000E+00         0.00000E+00
 
    0.19611E+07         0.20001E+07         0.00000E+00
    0.20001E+07        -0.16070E+08         0.00000E+00
    0.00000E+00         0.00000E+00         0.00000E+00
 
    0.15473E+07         0.31581E+07         0.00000E+00
    0.31581E+07        -0.15968E+08         0.00000E+00
    0.00000E+00         0.00000E+00         0.00000E+00
 
    0.11554E+07         0.44753E+07         0.00000E+00
    0.44753E+07        -0.15856E+08         0.00000E+00
    0.00000E+00         0.00000E+00         0.00000E+00
 
    0.78813E+06         0.59426E+07         0.00000E+00
    0.59426E+07        -0.15737E+08         0.00000E+00
    0.00000E+00         0.00000E+00         0.00000E+00
 
    0.44946E+06         0.75495E+07         0.00000E+00
    0.75495E+07        -0.15610E+08         0.00000E+00
    0.00000E+00         0.00000E+00         0.00000E+00
 
    0.14390E+06         0.92832E+07         0.00000E+00
    0.92832E+07        -0.15478E+08         0.00000E+00
    0.00000E+00         0.00000E+00         0.00000E+00
 
    0.37431E+07        -0.28255E+06         0.00000E+00
   -0.28255E+06        -0.18535E+08         0.00000E+00
    0.00000E+00         0.00000E+00         0.00000E+00
 
    0.34905E+07        -0.74093E+06         0.00000E+00
   -0.74093E+06        -0.18518E+08         0.00000E+00
    0.00000E+00         0.00000E+00         0.00000E+00
 
    0.32115E+07        -0.10373E+07         0.00000E+00
   -0.10373E+07        -0.18489E+08         0.00000E+00
    0.00000E+00         0.00000E+00         0.00000E+00
 
    0.29174E+07        -0.11552E+07         0.00000E+00
   -0.11552E+07        -0.18454E+08         0.00000E+00
    0.00000E+00         0.00000E+00         0.00000E+00
 
    0.26174E+07        -0.10854E+07         0.00000E+00
   -0.10854E+07        -0.18416E+08         0.00000E+00
    0.00000E+00         0.00000E+00         0.00000E+00
 
    0.23180E+07        -0.82420E+06         0.00000E+00
   -0.82420E+06        -0.18375E+08         0.00000E+00
    0.00000E+00         0.00000E+00         0.00000E+00
 
    0.20240E+07        -0.37226E+06         0.00000E+00
   -0.37226E+06        -0.18333E+08         0.00000E+00
    0.00000E+00         0.00000E+00         0.00000E+00
 
    0.17383E+07         0.26699E+06         0.00000E+00
    0.26699E+06        -0.18288E+08         0.00000E+00
    0.00000E+00         0.00000E+00         0.00000E+00
 
    0.14628E+07         0.10882E+07         0.00000E+00
    0.10882E+07        -0.18240E+08         0.00000E+00
    0.00000E+00         0.00000E+00         0.00000E+00
 
    0.11984E+07         0.20847E+07         0.00000E+00
    0.20847E+07        -0.18188E+08         0.00000E+00
    0.00000E+00         0.00000E+00         0.00000E+00
 
    0.94627E+06         0.32490E+07         0.00000E+00
    0.32490E+07        -0.18131E+08         0.00000E+00
    0.00000E+00         0.00000E+00         0.00000E+00
 
    0.70744E+06         0.45725E+07         0.00000E+00
    0.45725E+07        -0.18067E+08         0.00000E+00
    0.00000E+00         0.00000E+00         0.00000E+00
 
    0.48349E+06         0.60454E+07         0.00000E+00
    0.60454E+07        -0.17997E+08         0.00000E+00
    0.00000E+00         0.00000E+00         0.00000E+00
 
    0.27647E+06         0.76562E+07         0.00000E+00
    0.76562E+07        -0.17922E+08         0.00000E+00
    0.00000E+00         0.00000E+00         0.00000E+00
 
    0.88732E+05         0.93917E+07         0.00000E+00
    0.93917E+07        -0.17842E+08         0.00000E+00
    0.00000E+00         0.00000E+00         0.00000E+00
 
    0.13926E+07        -0.27539E+06         0.00000E+00
   -0.27539E+06        -0.20365E+08         0.00000E+00
    0.00000E+00         0.00000E+00         0.00000E+00
 
    0.12879E+07        -0.72297E+06         0.00000E+00
   -0.72297E+06        -0.20362E+08         0.00000E+00
    0.00000E+00         0.00000E+00         0.00000E+00
 
    0.11775E+07        -0.10124E+07         0.00000E+00
   -0.10124E+07        -0.20359E+08         0.00000E+00
    0.00000E+00         0.00000E+00         0.00000E+00
 
    0.10647E+07        -0.11261E+07         0.00000E+00
   -0.11261E+07        -0.20355E+08         0.00000E+00
    0.00000E+00         0.00000E+00         0.00000E+00
 
    0.95244E+06        -0.10538E+07         0.00000E+00
   -0.10538E+07        -0.20352E+08         0.00000E+00
    0.00000E+00         0.00000E+00         0.00000E+00
 
    0.84240E+06        -0.79104E+06         0.00000E+00
   -0.79104E+06        -0.20349E+08         0.00000E+00
    0.00000E+00         0.00000E+00         0.00000E+00
 
    0.73573E+06        -0.33759E+06         0.00000E+00
   -0.33759E+06        -0.20346E+08         0.00000E+00
    0.00000E+00         0.00000E+00         0.00000E+00
 
    0.63301E+06         0.30355E+06         0.00000E+00
    0.30355E+06        -0.20342E+08         0.00000E+00
    0.00000E+00         0.00000E+00         0.00000E+00
 
    0.53446E+06         0.11273E+07         0.00000E+00
    0.11273E+07        -0.20336E+08         0.00000E+00
    0.00000E+00         0.00000E+00         0.00000E+00
 
    0.44010E+06         0.21269E+07         0.00000E+00
    0.21269E+07        -0.20328E+08         0.00000E+00
    0.00000E+00         0.00000E+00         0.00000E+00
 
    0.34992E+06         0.32948E+07         0.00000E+00
    0.32948E+07        -0.20317E+08         0.00000E+00
    0.00000E+00         0.00000E+00         0.00000E+00
 
    0.26399E+06         0.46219E+07         0.00000E+00
    0.46219E+07        -0.20302E+08         0.00000E+00
    0.00000E+00         0.00000E+00         0.00000E+00
 
    0.18250E+06         0.60982E+07         0.00000E+00
    0.60982E+07        -0.20282E+08         0.00000E+00
    0.00000E+00         0.00000E+00         0.00000E+00
 
    0.10581E+06         0.77118E+07         0.00000E+00
    0.77118E+07        -0.20258E+08         0.00000E+00
    0.00000E+00         0.00000E+00         0.00000E+00
 
    0.34354E+05         0.94491E+07         0.00000E+00
    0.94491E+07        -0.20230E+08         0.00000E+00
    0.00000E+00         0.00000E+00         0.00000E+00
 
   -0.95357E+06        -0.27601E+06         0.00000E+00
   -0.27601E+06        -0.22197E+08         0.00000E+00
    0.00000E+00         0.00000E+00         0.00000E+00
 
   -0.91256E+06        -0.72486E+06         0.00000E+00
   -0.72486E+06        -0.22209E+08         0.00000E+00
    0.00000E+00         0.00000E+00         0.00000E+00
 
   -0.85610E+06        -0.10154E+07         0.00000E+00
   -0.10154E+07        -0.22230E+08         0.00000E+00
    0.00000E+00         0.00000E+00         0.00000E+00
 
   -0.78848E+06        -0.11299E+07         0.00000E+00
   -0.11299E+07        -0.22259E+08         0.00000E+00
    0.00000E+00         0.00000E+00         0.00000E+00
 
   -0.71349E+06        -0.10581E+07         0.00000E+00
   -0.10581E+07        -0.22292E+08         0.00000E+00
    0.00000E+00         0.00000E+00         0.00000E+00
 
   -0.63428E+06        -0.79532E+06         0.00000E+00
   -0.79532E+06        -0.22328E+08         0.00000E+00
    0.00000E+00         0.00000E+00         0.00000E+00
 
   -0.55338E+06        -0.34157E+06         0.00000E+00
   -0.34157E+06        -0.22365E+08         0.00000E+00
    0.00000E+00         0.00000E+00         0.00000E+00
 
   -0.47272E+06         0.30015E+06         0.00000E+00
    0.30015E+06        -0.22403E+08         0.00000E+00
    0.00000E+00         0.00000E+00         0.00000E+00
 
   -0.39379E+06         0.11247E+07         0.00000E+00
    0.11247E+07        -0.22441E+08         0.00000E+00
    0.00000E+00         0.00000E+00         0.00000E+00
 
   -0.31777E+06         0.21254E+07         0.00000E+00
    0.21254E+07        -0.22477E+08         0.00000E+00
    0.00000E+00         0.00000E+00         0.00000E+00
 
   -0.24571E+06         0.32945E+07         0.00000E+00
    0.32945E+07        -0.22513E+08         0.00000E+00
    0.00000E+00         0.00000E+00         0.00000E+00
 
   -0.17866E+06         0.46230E+07         0.00000E+00
    0.46230E+07        -0.22546E+08         0.00000E+00
    0.00000E+00         0.00000E+00         0.00000E+00
 
   -0.11779E+06         0.61009E+07         0.00000E+00
    0.61009E+07        -0.22577E+08         0.00000E+00
    0.00000E+00         0.00000E+00         0.00000E+00
 
   -0.64395E+05         0.77163E+07         0.00000E+00
    0.77163E+07        -0.22604E+08         0.00000E+00
    0.00000E+00         0.00000E+00         0.00000E+00
 
   -0.19870E+05         0.94558E+07         0.00000E+00
    0.94558E+07        -0.22627E+08         0.00000E+00
    0.00000E+00         0.00000E+00         0.00000E+00
 
   -0.33113E+07        -0.28446E+06         0.00000E+00
   -0.28446E+06        -0.24032E+08         0.00000E+00
    0.00000E+00         0.00000E+00         0.00000E+00
 
   -0.31224E+07        -0.74668E+06         0.00000E+00
   -0.74668E+06        -0.24058E+08         0.00000E+00
    0.00000E+00         0.00000E+00         0.00000E+00
 
   -0.28970E+07        -0.10464E+07         0.00000E+00
   -0.10464E+07        -0.24105E+08         0.00000E+00
    0.00000E+00         0.00000E+00         0.00000E+00
 
   -0.26474E+07        -0.11667E+07         0.00000E+00
   -0.11667E+07        -0.24165E+08         0.00000E+00
    0.00000E+00         0.00000E+00         0.00000E+00
 
   -0.23840E+07        -0.10981E+07         0.00000E+00
   -0.10981E+07        -0.24233E+08         0.00000E+00
    0.00000E+00         0.00000E+00         0.00000E+00
 
   -0.21148E+07        -0.83700E+06         0.00000E+00
   -0.83700E+06        -0.24307E+08         0.00000E+00
    0.00000E+00         0.00000E+00         0.00000E+00
 
   -0.18459E+07        -0.38413E+06         0.00000E+00
   -0.38413E+06        -0.24384E+08         0.00000E+00
    0.00000E+00         0.00000E+00         0.00000E+00
 
   -0.15818E+07         0.25690E+06         0.00000E+00
    0.25690E+06        -0.24462E+08         0.00000E+00
    0.00000E+00         0.00000E+00         0.00000E+00
 
   -0.13253E+07         0.10806E+07         0.00000E+00
    0.10806E+07        -0.24542E+08         0.00000E+00
    0.00000E+00         0.00000E+00         0.00000E+00
 
   -0.10789E+07         0.20802E+07         0.00000E+00
    0.20802E+07        -0.24622E+08         0.00000E+00
    0.00000E+00         0.00000E+00         0.00000E+00
 
   -0.84438E+06         0.32481E+07         0.00000E+00
    0.32481E+07        -0.24704E+08         0.00000E+00
    0.00000E+00         0.00000E+00         0.00000E+00
 
   -0.62397E+06         0.45758E+07         0.00000E+00
    0.45758E+07        -0.24785E+08         0.00000E+00
    0.00000E+00         0.00000E+00         0.00000E+00
 
   -0.42015E+06         0.60535E+07         0.00000E+00
    0.60535E+07        -0.24866E+08         0.00000E+00
    0.00000E+00         0.00000E+00         0.00000E+00
 
   -0.23589E+06         0.76699E+07         0.00000E+00
    0.76699E+07        -0.24945E+08         0.00000E+00
    0.00000E+00         0.00000E+00         0.00000E+00
 
   -0.74529E+05         0.94117E+07         0.00000E+00
    0.94117E+07        -0.25019E+08         0.00000E+00
    0.00000E+00         0.00000E+00         0.00000E+00
 
   -0.56964E+07        -0.30060E+06         0.00000E+00
   -0.30060E+06        -0.25872E+08         0.00000E+00
    0.00000E+00         0.00000E+00         0.00000E+00
 
   -0.53528E+07        -0.78795E+06         0.00000E+00
   -0.78795E+06        -0.25912E+08         0.00000E+00
    0.00000E+00         0.00000E+00         0.00000E+00
 
   -0.49529E+07        -0.11045E+07         0.00000E+00
   -0.11045E+07        -0.25982E+08         0.00000E+00
    0.00000E+00         0.00000E+00         0.00000E+00
 
   -0.45171E+07        -0.12350E+07         0.00000E+00
   -0.12350E+07        -0.26072E+08         0.00000E+00
    0.00000E+00         0.00000E+00         0.00000E+00
 
   -0.40625E+07        -0.11720E+07         0.00000E+00
   -0.11720E+07        -0.26174E+08         0.00000E+00
    0.00000E+00         0.00000E+00         0.00000E+00
 
   -0.36018E+07        -0.91392E+06         0.00000E+00
   -0.91392E+06        -0.26282E+08         0.00000E+00
    0.00000E+00         0.00000E+00         0.00000E+00
 
   -0.31445E+07        -0.46297E+06         0.00000E+00
   -0.46297E+06        -0.26395E+08         0.00000E+00
    0.00000E+00         0.00000E+00         0.00000E+00
 
   -0.26971E+07         0.17604E+06         0.00000E+00
    0.17604E+06        -0.26510E+08         0.00000E+00
    0.00000E+00         0.00000E+00         0.00000E+00
 
   -0.22636E+07         0.99696E+06         0.00000E+00
    0.99696E+06        -0.26628E+08         0.00000E+00
    0.00000E+00         0.00000E+00         0.00000E+00
 
   -0.18471E+07         0.19930E+07         0.00000E+00
    0.19930E+07        -0.26750E+08         0.00000E+00
    0.00000E+00         0.00000E+00         0.00000E+00
 
   -0.14501E+07         0.31569E+07         0.00000E+00
    0.31569E+07        -0.26875E+08         0.00000E+00
    0.00000E+00         0.00000E+00         0.00000E+00
 
   -0.10757E+07         0.44809E+07         0.00000E+00
    0.44809E+07        -0.27004E+08         0.00000E+00
    0.00000E+00         0.00000E+00         0.00000E+00
 
   -0.72760E+06         0.59561E+07         0.00000E+00
    0.59561E+07        -0.27135E+08         0.00000E+00
    0.00000E+00         0.00000E+00         0.00000E+00
 
   -0.41061E+06         0.75720E+07         0.00000E+00
    0.75720E+07        -0.27266E+08         0.00000E+00
    0.00000E+00         0.00000E+00         0.00000E+00
 
   -0.13028E+06         0.93160E+07         0.00000E+00
    0.93160E+07        -0.27392E+08         0.00000E+00
    0.00000E+00         0.00000E+00         0.00000E+00
 
   -0.81244E+07        -0.32414E+06         0.00000E+00
   -0.32414E+06        -0.27717E+08         0.00000E+00
    0.00000E+00         0.00000E+00         0.00000E+00
 
   -0.76146E+07        -0.84762E+06         0.00000E+00
   -0.84762E+06        -0.27771E+08         0.00000E+00
    0.00000E+00         0.00000E+00         0.00000E+00
 
   -0.70309E+07        -0.11876E+07         0.00000E+00
   -0.11876E+07        -0.27863E+08         0.00000E+00
    0.00000E+00         0.00000E+00         0.00000E+00
 
   -0.64021E+07        -0.13319E+07         0.00000E+00
   -0.13319E+07        -0.27979E+08         0.00000E+00
    0.00000E+00         0.00000E+00         0.00000E+00
 
   -0.57519E+07        -0.12761E+07         0.00000E+00
   -0.12761E+07        -0.28110E+08         0.00000E+00
    0.00000E+00         0.00000E+00         0.00000E+00
 
   -0.50977E+07        -0.10217E+07         0.00000E+00
   -0.10217E+07        -0.28248E+08         0.00000E+00
    0.00000E+00         0.00000E+00         0.00000E+00
 
   -0.44518E+07        -0.57346E+06         0.00000E+00
   -0.57346E+06        -0.28391E+08         0.00000E+00
    0.00000E+00         0.00000E+00         0.00000E+00
 
   -0.38219E+07         0.62027E+05         0.00000E+00
    0.62027E+05        -0.28537E+08         0.00000E+00
    0.00000E+00         0.00000E+00         0.00000E+00
 
   -0.32127E+07         0.87774E+06         0.00000E+00
    0.87774E+06        -0.28689E+08         0.00000E+00
    0.00000E+00         0.00000E+00         0.00000E+00
 
   -0.26270E+07         0.18669E+07         0.00000E+00
    0.18669E+07        -0.28847E+08         0.00000E+00
    0.00000E+00         0.00000E+00         0.00000E+00
 
   -0.20677E+07         0.30229E+07         0.00000E+00
    0.30229E+07        -0.29013E+08         0.00000E+00
    0.00000E+00         0.00000E+00         0.00000E+00
 
   -0.15383E+07         0.43392E+07         0.00000E+00
    0.43392E+07        -0.29187E+08         0.00000E+00
    0.00000E+00         0.00000E+00         0.00000E+00
 
   -0.10438E+07         0.58086E+07         0.00000E+00
    0.58086E+07        -0.29367E+08         0.00000E+00
    0.00000E+00         0.00000E+00         0.00000E+00
 
   -0.59092E+06         0.74219E+07         0.00000E+00
    0.74219E+07        -0.29550E+08         0.00000E+00
    0.00000E+00         0.00000E+00         0.00000E+00
 
   -0.18793E+06         0.91676E+07         0.00000E+00
    0.91676E+07        -0.29730E+08         0.00000E+00
    0.00000E+00         0.00000E+00         0.00000E+00
 
   -0.10610E+08        -0.35465E+06         0.00000E+00
   -0.35465E+06        -0.29571E+08         0.00000E+00
    0.00000E+00         0.00000E+00         0.00000E+00
 
   -0.99177E+07        -0.92406E+06         0.00000E+00
   -0.92406E+06        -0.29636E+08         0.00000E+00
    0.00000E+00         0.00000E+00         0.00000E+00
 
   -0.91368E+07        -0.12927E+07         0.00000E+00
   -0.12927E+07        -0.29747E+08         0.00000E+00
    0.00000E+00         0.00000E+00         0.00000E+00
 
   -0.83057E+07        -0.14527E+07         0.00000E+00
   -0.14527E+07        -0.29886E+08         0.00000E+00
    0.00000E+00         0.00000E+00         0.00000E+00
 
   -0.74544E+07        -0.14043E+07         0.00000E+00
   -0.14043E+07        -0.30039E+08         0.00000E+00
    0.00000E+00         0.00000E+00         0.00000E+00
 
   -0.66046E+07        -0.11534E+07         0.00000E+00
   -0.11534E+07        -0.30199E+08         0.00000E+00
    0.00000E+00         0.00000E+00         0.00000E+00
 
   -0.57705E+07        -0.70846E+06         0.00000E+00
   -0.70846E+06        -0.30363E+08         0.00000E+00
    0.00000E+00         0.00000E+00         0.00000E+00
 
   -0.49601E+07        -0.78304E+05         0.00000E+00
   -0.78304E+05        -0.30532E+08         0.00000E+00
    0.00000E+00         0.00000E+00         0.00000E+00
 
   -0.41774E+07         0.72890E+06         0.00000E+00
    0.72890E+06        -0.30709E+08         0.00000E+00
    0.00000E+00         0.00000E+00         0.00000E+00
 
   -0.34244E+07         0.17065E+07         0.00000E+00
    0.17065E+07        -0.30898E+08         0.00000E+00
    0.00000E+00         0.00000E+00         0.00000E+00
 
   -0.27034E+07         0.28492E+07         0.00000E+00
    0.28492E+07        -0.31100E+08         0.00000E+00
    0.00000E+00         0.00000E+00         0.00000E+00
 
   -0.20177E+07         0.41523E+07         0.00000E+00
    0.41523E+07        -0.31316E+08         0.00000E+00
    0.00000E+00         0.00000E+00         0.00000E+00
 
   -0.13736E+07         0.56108E+07         0.00000E+00
    0.56108E+07        -0.31544E+08         0.00000E+00
    0.00000E+00         0.00000E+00         0.00000E+00
 
   -0.78000E+06         0.72181E+07         0.00000E+00
    0.72181E+07        -0.31780E+08         0.00000E+00
    0.00000E+00         0.00000E+00         0.00000E+00
 
   -0.24859E+06         0.89642E+07         0.00000E+00
    0.89642E+07        -0.32017E+08         0.00000E+00
    0.00000E+00         0.00000E+00         0.00000E+00
 
   -0.13167E+08        -0.39153E+06         0.00000E+00
   -0.39153E+06        -0.31434E+08         0.00000E+00
    0.00000E+00         0.00000E+00         0.00000E+00
 
   -0.12270E+08        -0.10149E+07         0.00000E+00
   -0.10149E+07        -0.31509E+08         0.00000E+00
    0.00000E+00         0.00000E+00         0.00000E+00
 
   -0.11275E+08        -0.14153E+07         0.00000E+00
   -0.14153E+07        -0.31635E+08         0.00000E+00
    0.00000E+00         0.00000E+00         0.00000E+00
 
   -0.10229E+08        -0.15906E+07         0.00000E+00
   -0.15906E+07        -0.31789E+08         0.00000E+00
    0.00000E+00         0.00000E+00         0.00000E+00
 
   -0.91707E+07        -0.15481E+07         0.00000E+00
   -0.15481E+07        -0.31956E+08         0.00000E+00
    0.00000E+00         0.00000E+00         0.00000E+00
 
   -0.81238E+07        -0.12995E+07         0.00000E+00
   -0.12995E+07        -0.32127E+08         0.00000E+00
    0.00000E+00         0.00000E+00         0.00000E+00
 
   -0.71032E+07        -0.85804E+06         0.00000E+00
   -0.85804E+06        -0.32301E+08         0.00000E+00
    0.00000E+00         0.00000E+00         0.00000E+00
 
   -0.61160E+07        -0.23559E+06         0.00000E+00
   -0.23559E+06        -0.32482E+08         0.00000E+00
    0.00000E+00         0.00000E+00         0.00000E+00
 
   -0.51639E+07         0.55853E+06         0.00000E+00
    0.55853E+06        -0.32674E+08         0.00000E+00
    0.00000E+00         0.00000E+00         0.00000E+00
 
   -0.42468E+07         0.15181E+07         0.00000E+00
    0.15181E+07        -0.32885E+08         0.00000E+00
    0.00000E+00         0.00000E+00         0.00000E+00
 
   -0.33651E+07         0.26398E+07         0.00000E+00
    0.26398E+07        -0.33117E+08         0.00000E+00
    0.00000E+00         0.00000E+00         0.00000E+00
 
   -0.25216E+07         0.39216E+07         0.00000E+00
    0.39216E+07        -0.33372E+08         0.00000E+00
    0.00000E+00         0.00000E+00         0.00000E+00
 
   -0.17234E+07         0.53623E+07         0.00000E+00
    0.53623E+07        -0.33648E+08         0.00000E+00
    0.00000E+00         0.00000E+00         0.00000E+00
 
   -0.98217E+06         0.69582E+07         0.00000E+00
    0.69582E+07        -0.33940E+08         0.00000E+00
    0.00000E+00         0.00000E+00         0.00000E+00
 
   -0.31377E+06         0.87022E+07         0.00000E+00
    0.87022E+07        -0.34236E+08         0.00000E+00
    0.00000E+00         0.00000E+00         0.00000E+00
 
   -0.15807E+08        -0.43402E+06         0.00000E+00
   -0.43402E+06        -0.33308E+08         0.00000E+00
    0.00000E+00         0.00000E+00         0.00000E+00
 
   -0.14678E+08        -0.11171E+07         0.00000E+00
   -0.11171E+07        -0.33392E+08         0.00000E+00
    0.00000E+00         0.00000E+00         0.00000E+00
 
   -0.13446E+08        -0.15490E+07         0.00000E+00
   -0.15490E+07        -0.33527E+08         0.00000E+00
    0.00000E+00         0.00000E+00         0.00000E+00
 
   -0.12173E+08        -0.17365E+07         0.00000E+00
   -0.17365E+07        -0.33688E+08         0.00000E+00
    0.00000E+00         0.00000E+00         0.00000E+00
 
   -0.10900E+08        -0.16959E+07         0.00000E+00
   -0.16959E+07        -0.33855E+08         0.00000E+00
    0.00000E+00         0.00000E+00         0.00000E+00
 
   -0.96560E+07        -0.14471E+07         0.00000E+00
   -0.14471E+07        -0.34023E+08         0.00000E+00
    0.00000E+00         0.00000E+00         0.00000E+00
 
   -0.84531E+07        -0.10092E+07         0.00000E+00
   -0.10092E+07        -0.34192E+08         0.00000E+00
    0.00000E+00         0.00000E+00         0.00000E+00
 
   -0.72953E+07        -0.39780E+06         0.00000E+00
   -0.39780E+06        -0.34370E+08         0.00000E+00
    0.00000E+00         0.00000E+00         0.00000E+00
 
   -0.61803E+07         0.37687E+06         0.00000E+00
    0.37687E+06        -0.34566E+08         0.00000E+00
    0.00000E+00         0.00000E+00         0.00000E+00
 
   -0.51039E+07         0.13096E+07         0.00000E+00
    0.13096E+07        -0.34787E+08         0.00000E+00
    0.00000E+00         0.00000E+00         0.00000E+00
 
   -0.40635E+07         0.23995E+07         0.00000E+00
    0.23995E+07        -0.35042E+08         0.00000E+00
    0.00000E+00         0.00000E+00         0.00000E+00
 
   -0.30604E+07         0.36491E+07         0.00000E+00
    0.36491E+07        -0.35333E+08         0.00000E+00
    0.00000E+00         0.00000E+00         0.00000E+00
 
   -0.21021E+07         0.50615E+07         0.00000E+00
    0.50615E+07        -0.35657E+08         0.00000E+00
    0.00000E+00         0.00000E+00         0.00000E+00
 
   -0.12034E+07         0.66384E+07         0.00000E+00
    0.66384E+07        -0.36007E+08         0.00000E+00
    0.00000E+00         0.00000E+00         0.00000E+00
 
   -0.38560E+06         0.83765E+07         0.00000E+00
    0.83765E+07        -0.36368E+08         0.00000E+00
    0.00000E+00         0.00000E+00         0.00000E+00
 
   -0.18541E+08        -0.48118E+06         0.00000E+00
   -0.48118E+06        -0.35196E+08         0.00000E+00
    0.00000E+00         0.00000E+00         0.00000E+00
 
   -0.17143E+08        -0.12264E+07         0.00000E+00
   -0.12264E+07        -0.35285E+08         0.00000E+00
    0.00000E+00         0.00000E+00         0.00000E+00
 
   -0.15649E+08        -0.16856E+07         0.00000E+00
   -0.16856E+07        -0.35422E+08         0.00000E+00
    0.00000E+00         0.00000E+00         0.00000E+00
 
   -0.14132E+08        -0.18778E+07         0.00000E+00
   -0.18778E+07        -0.35576E+08         0.00000E+00
    0.00000E+00         0.00000E+00         0.00000E+00
 
   -0.12640E+08        -0.18322E+07         0.00000E+00
   -0.18322E+07        -0.35728E+08         0.00000E+00
    0.00000E+00         0.00000E+00         0.00000E+00
 
   -0.11201E+08        -0.15794E+07         0.00000E+00
   -0.15794E+07        -0.35874E+08         0.00000E+00
    0.00000E+00         0.00000E+00         0.00000E+00
 
   -0.98240E+07        -0.11458E+07         0.00000E+00
   -0.11458E+07        -0.36020E+08         0.00000E+00
    0.00000E+00         0.00000E+00         0.00000E+00
 
   -0.85054E+07        -0.55021E+06         0.00000E+00
   -0.55021E+06        -0.36178E+08         0.00000E+00
    0.00000E+00         0.00000E+00         0.00000E+00
 
   -0.72369E+07         0.19620E+06         0.00000E+00
    0.19620E+06        -0.36361E+08         0.00000E+00
    0.00000E+00         0.00000E+00         0.00000E+00
 
   -0.60085E+07         0.10900E+07         0.00000E+00
    0.10900E+07        -0.36582E+08         0.00000E+00
    0.00000E+00         0.00000E+00         0.00000E+00
 
   -0.48126E+07         0.21340E+07         0.00000E+00
    0.21340E+07        -0.36852E+08         0.00000E+00
    0.00000E+00         0.00000E+00         0.00000E+00
 
   -0.36479E+07         0.33361E+07         0.00000E+00
    0.33361E+07        -0.37174E+08         0.00000E+00
    0.00000E+00         0.00000E+00         0.00000E+00
 
   -0.25217E+07         0.47061E+07         0.00000E+00
    0.47061E+07        -0.37547E+08         0.00000E+00
    0.00000E+00         0.00000E+00         0.00000E+00
 
   -0.14519E+07         0.62528E+07         0.00000E+00
    0.62528E+07        -0.37960E+08         0.00000E+00
    0.00000E+00         0.00000E+00         0.00000E+00
 
   -0.46701E+06         0.79792E+07         0.00000E+00
    0.79792E+07        -0.38394E+08         0.00000E+00
    0.00000E+00         0.00000E+00         0.00000E+00
 
   -0.21377E+08        -0.53188E+06         0.00000E+00
   -0.53188E+06        -0.37099E+08         0.00000E+00
    0.00000E+00         0.00000E+00         0.00000E+00
 
   -0.19665E+08        -0.13371E+07         0.00000E+00
   -0.13371E+07        -0.37189E+08         0.00000E+00
    0.00000E+00         0.00000E+00         0.00000E+00
 
   -0.17876E+08        -0.18130E+07         0.00000E+00
   -0.18130E+07        -0.37318E+08         0.00000E+00
    0.00000E+00         0.00000E+00         0.00000E+00
 
   -0.16099E+08        -0.19973E+07         0.00000E+00
   -0.19973E+07        -0.37448E+08         0.00000E+00
    0.00000E+00         0.00000E+00         0.00000E+00
 
   -0.14386E+08        -0.19369E+07         0.00000E+00
   -0.19369E+07        -0.37563E+08         0.00000E+00
    0.00000E+00         0.00000E+00         0.00000E+00
 
   -0.12760E+08        -0.16759E+07         0.00000E+00
   -0.16759E+07        -0.37663E+08         0.00000E+00
    0.00000E+00         0.00000E+00         0.00000E+00
 
   -0.11221E+08        -0.12482E+07         0.00000E+00
   -0.12482E+07        -0.37764E+08         0.00000E+00
    0.00000E+00         0.00000E+00         0.00000E+00
 
   -0.97558E+07        -0.67585E+06         0.00000E+00
   -0.67585E+06        -0.37881E+08         0.00000E+00
    0.00000E+00         0.00000E+00         0.00000E+00
 
   -0.83471E+07         0.30463E+05         0.00000E+00
    0.30463E+05        -0.38035E+08         0.00000E+00
    0.00000E+00         0.00000E+00         0.00000E+00
 
   -0.69767E+07         0.86971E+06         0.00000E+00
    0.86971E+06        -0.38243E+08         0.00000E+00
    0.00000E+00         0.00000E+00         0.00000E+00
 
   -0.56306E+07         0.18494E+07         0.00000E+00
    0.18494E+07        -0.38518E+08         0.00000E+00
    0.00000E+00         0.00000E+00         0.00000E+00
 
   -0.43025E+07         0.29839E+07         0.00000E+00
    0.29839E+07        -0.38868E+08         0.00000E+00
    0.00000E+00         0.00000E+00         0.00000E+00
 
   -0.29982E+07         0.42922E+07         0.00000E+00
    0.42922E+07        -0.39291E+08         0.00000E+00
    0.00000E+00         0.00000E+00         0.00000E+00
 
   -0.17389E+07         0.57931E+07         0.00000E+00
    0.57931E+07        -0.39774E+08         0.00000E+00
    0.00000E+00         0.00000E+00         0.00000E+00
 
   -0.56209E+06         0.74990E+07         0.00000E+00
    0.74990E+07        -0.40294E+08         0.00000E+00
    0.00000E+00         0.00000E+00         0.00000E+00
 
   -0.24317E+08        -0.58466E+06         0.00000E+00
   -0.58466E+06        -0.39020E+08         0.00000E+00
    0.00000E+00         0.00000E+00         0.00000E+00
 
   -0.22233E+08        -0.14408E+07         0.00000E+00
   -0.14408E+07        -0.39105E+08         0.00000E+00
    0.00000E+00         0.00000E+00         0.00000E+00
 
   -0.20113E+08        -0.19143E+07         0.00000E+00
   -0.19143E+07        -0.39209E+08         0.00000E+00
    0.00000E+00         0.00000E+00         0.00000E+00
 
   -0.18062E+08        -0.20714E+07         0.00000E+00
   -0.20714E+07        -0.39290E+08         0.00000E+00
    0.00000E+00         0.00000E+00         0.00000E+00
 
   -0.16133E+08        -0.19841E+07         0.00000E+00
   -0.19841E+07        -0.39338E+08         0.00000E+00
    0.00000E+00         0.00000E+00         0.00000E+00
 
   -0.14334E+08        -0.17119E+07         0.00000E+00
   -0.17119E+07        -0.39365E+08         0.00000E+00
    0.00000E+00         0.00000E+00         0.00000E+00
 
   -0.12652E+08        -0.12950E+07         0.00000E+00
   -0.12950E+07        -0.39395E+08         0.00000E+00
    0.00000E+00         0.00000E+00         0.00000E+00
 
   -0.11059E+08        -0.75657E+06         0.00000E+00
   -0.75657E+06        -0.39451E+08         0.00000E+00
    0.00000E+00         0.00000E+00         0.00000E+00
 
   -0.95274E+07        -0.10573E+06         0.00000E+00
   -0.10573E+06        -0.39559E+08         0.00000E+00
    0.00000E+00         0.00000E+00         0.00000E+00
 
   -0.80287E+07         0.65973E+06         0.00000E+00
    0.65973E+06        -0.39740E+08         0.00000E+00
    0.00000E+00         0.00000E+00         0.00000E+00
 
   -0.65401E+07         0.15522E+07         0.00000E+00
    0.15522E+07        -0.40011E+08         0.00000E+00
    0.00000E+00         0.00000E+00         0.00000E+00
 
   -0.50479E+07         0.25936E+07         0.00000E+00
    0.25936E+07        -0.40384E+08         0.00000E+00
    0.00000E+00         0.00000E+00         0.00000E+00
 
   -0.35536E+07         0.38140E+07         0.00000E+00
    0.38140E+07        -0.40859E+08         0.00000E+00
    0.00000E+00         0.00000E+00         0.00000E+00
 
   -0.20803E+07         0.52469E+07         0.00000E+00
    0.52469E+07        -0.41423E+08         0.00000E+00
    0.00000E+00         0.00000E+00         0.00000E+00
 
   -0.67671E+06         0.69195E+07         0.00000E+00
    0.69195E+07        -0.42045E+08         0.00000E+00
    0.00000E+00         0.00000E+00         0.00000E+00
 
   -0.27361E+08        -0.63749E+06         0.00000E+00
   -0.63749E+06        -0.40961E+08         0.00000E+00
    0.00000E+00         0.00000E+00         0.00000E+00
 
   -0.24829E+08        -0.15241E+07         0.00000E+00
   -0.15241E+07        -0.41030E+08         0.00000E+00
    0.00000E+00         0.00000E+00         0.00000E+00
 
   -0.22337E+08        -0.19629E+07         0.00000E+00
   -0.19629E+07        -0.41083E+08         0.00000E+00
    0.00000E+00         0.00000E+00         0.00000E+00
 
   -0.20006E+08        -0.20670E+07         0.00000E+00
   -0.20670E+07        -0.41079E+08         0.00000E+00
    0.00000E+00         0.00000E+00         0.00000E+00
 
   -0.17875E+08        -0.19416E+07         0.00000E+00
   -0.19416E+07        -0.41023E+08         0.00000E+00
    0.00000E+00         0.00000E+00         0.00000E+00
 
   -0.15928E+08        -0.16599E+07         0.00000E+00
   -0.16599E+07        -0.40944E+08         0.00000E+00
    0.00000E+00         0.00000E+00         0.00000E+00
 
   -0.14128E+08        -0.12642E+07         0.00000E+00
   -0.12642E+07        -0.40877E+08         0.00000E+00
    0.00000E+00         0.00000E+00         0.00000E+00
 
   -0.12432E+08        -0.77521E+06         0.00000E+00
   -0.77521E+06        -0.40854E+08         0.00000E+00
    0.00000E+00         0.00000E+00         0.00000E+00
 
   -0.10798E+08        -0.19872E+06         0.00000E+00
   -0.19872E+06        -0.40901E+08         0.00000E+00
    0.00000E+00         0.00000E+00         0.00000E+00
 
   -0.91877E+07         0.47079E+06         0.00000E+00
    0.47079E+06        -0.41043E+08         0.00000E+00
    0.00000E+00         0.00000E+00         0.00000E+00
 
   -0.75682E+07         0.12496E+07         0.00000E+00
    0.12496E+07        -0.41300E+08         0.00000E+00
    0.00000E+00         0.00000E+00         0.00000E+00
 
   -0.59144E+07         0.21666E+07         0.00000E+00
    0.21666E+07        -0.41690E+08         0.00000E+00
    0.00000E+00         0.00000E+00         0.00000E+00
 
   -0.42177E+07         0.32646E+07         0.00000E+00
    0.32646E+07        -0.42219E+08         0.00000E+00
    0.00000E+00         0.00000E+00         0.00000E+00
 
   -0.24990E+07         0.45977E+07         0.00000E+00
    0.45977E+07        -0.42877E+08         0.00000E+00
    0.00000E+00         0.00000E+00         0.00000E+00
 
   -0.81954E+06         0.62171E+07         0.00000E+00
    0.62171E+07        -0.43625E+08         0.00000E+00
    0.00000E+00         0.00000E+00         0.00000E+00
 
   -0.30498E+08        -0.68690E+06         0.00000E+00
   -0.68690E+06        -0.42923E+08         0.00000E+00
    0.00000E+00         0.00000E+00         0.00000E+00
 
   -0.27415E+08        -0.15625E+07         0.00000E+00
   -0.15625E+07        -0.42955E+08         0.00000E+00
    0.00000E+00         0.00000E+00         0.00000E+00
 
   -0.24513E+08        -0.19158E+07         0.00000E+00
   -0.19158E+07        -0.42913E+08         0.00000E+00
    0.00000E+00         0.00000E+00         0.00000E+00
 
   -0.21916E+08        -0.19387E+07         0.00000E+00
   -0.19387E+07        -0.42767E+08         0.00000E+00
    0.00000E+00         0.00000E+00         0.00000E+00
 
   -0.19616E+08        -0.17727E+07         0.00000E+00
   -0.17727E+07        -0.42561E+08         0.00000E+00
    0.00000E+00         0.00000E+00         0.00000E+00
 
   -0.17555E+08        -0.14941E+07         0.00000E+00
   -0.14941E+07        -0.42346E+08         0.00000E+00
    0.00000E+00         0.00000E+00         0.00000E+00
 
   -0.15667E+08        -0.11382E+07         0.00000E+00
   -0.11382E+07        -0.42164E+08         0.00000E+00
    0.00000E+00         0.00000E+00         0.00000E+00
 
   -0.13893E+08        -0.71918E+06         0.00000E+00
   -0.71918E+06        -0.42049E+08         0.00000E+00
    0.00000E+00         0.00000E+00         0.00000E+00
 
   -0.12180E+08        -0.23842E+06         0.00000E+00
   -0.23842E+06        -0.42026E+08         0.00000E+00
    0.00000E+00         0.00000E+00         0.00000E+00
 
   -0.10479E+08         0.31195E+06         0.00000E+00
    0.31195E+06        -0.42121E+08         0.00000E+00
    0.00000E+00         0.00000E+00         0.00000E+00
 
   -0.87453E+07         0.94981E+06         0.00000E+00
    0.94981E+06        -0.42356E+08         0.00000E+00
    0.00000E+00         0.00000E+00         0.00000E+00
 
   -0.69390E+07         0.17070E+07         0.00000E+00
    0.17070E+07        -0.42754E+08         0.00000E+00
    0.00000E+00         0.00000E+00         0.00000E+00
 
   -0.50317E+07         0.26376E+07         0.00000E+00
    0.26376E+07        -0.43336E+08         0.00000E+00
    0.00000E+00         0.00000E+00         0.00000E+00
 
   -0.30297E+07         0.38232E+07         0.00000E+00
    0.38232E+07        -0.44102E+08         0.00000E+00
    0.00000E+00         0.00000E+00         0.00000E+00
 
   -0.10045E+07         0.53572E+07         0.00000E+00
    0.53572E+07        -0.45009E+08         0.00000E+00
    0.00000E+00         0.00000E+00         0.00000E+00
 
   -0.33694E+08        -0.72472E+06         0.00000E+00
   -0.72472E+06        -0.44903E+08         0.00000E+00
    0.00000E+00         0.00000E+00         0.00000E+00
 
   -0.29923E+08        -0.15037E+07         0.00000E+00
   -0.15037E+07        -0.44853E+08         0.00000E+00
    0.00000E+00         0.00000E+00         0.00000E+00
 
   -0.26602E+08        -0.17007E+07         0.00000E+00
   -0.17007E+07        -0.44625E+08         0.00000E+00
    0.00000E+00         0.00000E+00         0.00000E+00
 
   -0.23790E+08        -0.16315E+07         0.00000E+00
   -0.16315E+07        -0.44266E+08         0.00000E+00
    0.00000E+00         0.00000E+00         0.00000E+00
 
   -0.21374E+08        -0.14460E+07         0.00000E+00
   -0.14460E+07        -0.43872E+08         0.00000E+00
    0.00000E+00         0.00000E+00         0.00000E+00
 
   -0.19239E+08        -0.11987E+07         0.00000E+00
   -0.11987E+07        -0.43504E+08         0.00000E+00
    0.00000E+00         0.00000E+00         0.00000E+00
 
   -0.17294E+08        -0.90975E+06         0.00000E+00
   -0.90975E+06        -0.43203E+08         0.00000E+00
    0.00000E+00         0.00000E+00         0.00000E+00
 
   -0.15466E+08        -0.58479E+06         0.00000E+00
   -0.58479E+06        -0.42995E+08         0.00000E+00
    0.00000E+00         0.00000E+00         0.00000E+00
 
   -0.13696E+08        -0.22156E+06         0.00000E+00
   -0.22156E+06        -0.42904E+08         0.00000E+00
    0.00000E+00         0.00000E+00         0.00000E+00
 
   -0.11926E+08         0.18834E+06         0.00000E+00
    0.18834E+06        -0.42950E+08         0.00000E+00
    0.00000E+00         0.00000E+00         0.00000E+00
 
   -0.10101E+08         0.66084E+06         0.00000E+00
    0.66084E+06        -0.43156E+08         0.00000E+00
    0.00000E+00         0.00000E+00         0.00000E+00
 
   -0.81637E+07         0.12245E+07         0.00000E+00
    0.12245E+07        -0.43553E+08         0.00000E+00
    0.00000E+00         0.00000E+00         0.00000E+00
 
   -0.60526E+07         0.19330E+07         0.00000E+00
    0.19330E+07        -0.44175E+08         0.00000E+00
    0.00000E+00         0.00000E+00         0.00000E+00
 
   -0.37293E+07         0.28971E+07         0.00000E+00
    0.28971E+07        -0.45057E+08         0.00000E+00
    0.00000E+00         0.00000E+00         0.00000E+00
 
   -0.12565E+07         0.42864E+07         0.00000E+00
    0.42864E+07        -0.46170E+08         0.00000E+00
    0.00000E+00         0.00000E+00         0.00000E+00
 
   -0.36862E+08        -0.72036E+06         0.00000E+00
   -0.72036E+06        -0.46886E+08         0.00000E+00
    0.00000E+00         0.00000E+00         0.00000E+00
 
   -0.32246E+08        -0.12159E+07         0.00000E+00
   -0.12159E+07        -0.46601E+08         0.00000E+00
    0.00000E+00         0.00000E+00         0.00000E+00
 
   -0.28596E+08        -0.12196E+07         0.00000E+00
   -0.12196E+07        -0.46047E+08         0.00000E+00
    0.00000E+00         0.00000E+00         0.00000E+00
 
   -0.25662E+08        -0.11074E+07         0.00000E+00
   -0.11074E+07        -0.45428E+08         0.00000E+00
    0.00000E+00         0.00000E+00         0.00000E+00
 
   -0.23185E+08        -0.95384E+06         0.00000E+00
   -0.95384E+06        -0.44845E+08         0.00000E+00
    0.00000E+00         0.00000E+00         0.00000E+00
 
   -0.21011E+08        -0.77895E+06         0.00000E+00
   -0.77895E+06        -0.44339E+08         0.00000E+00
    0.00000E+00         0.00000E+00         0.00000E+00
 
   -0.19033E+08        -0.58817E+06         0.00000E+00
   -0.58817E+06        -0.43936E+08         0.00000E+00
    0.00000E+00         0.00000E+00         0.00000E+00
 
   -0.17173E+08        -0.38120E+06         0.00000E+00
   -0.38120E+06        -0.43653E+08         0.00000E+00
    0.00000E+00         0.00000E+00         0.00000E+00
 
   -0.15365E+08        -0.15458E+06         0.00000E+00
   -0.15458E+06        -0.43505E+08         0.00000E+00
    0.00000E+00         0.00000E+00         0.00000E+00
 
   -0.13548E+08         0.98127E+05         0.00000E+00
    0.98127E+05        -0.43510E+08         0.00000E+00
    0.00000E+00         0.00000E+00         0.00000E+00
 
   -0.11659E+08         0.38775E+06         0.00000E+00
    0.38775E+06        -0.43690E+08         0.00000E+00
    0.00000E+00         0.00000E+00         0.00000E+00
 
   -0.96254E+07         0.73353E+06         0.00000E+00
    0.73353E+06        -0.44076E+08         0.00000E+00
    0.00000E+00         0.00000E+00         0.00000E+00
 
   -0.73534E+07         0.11735E+07         0.00000E+00
    0.11735E+07        -0.44714E+08         0.00000E+00
    0.00000E+00         0.00000E+00         0.00000E+00
 
   -0.47026E+07         0.18007E+07         0.00000E+00
    0.18007E+07        -0.45685E+08         0.00000E+00
    0.00000E+00         0.00000E+00         0.00000E+00
 
   -0.16304E+07         0.29139E+07         0.00000E+00
    0.29139E+07        -0.47069E+08         0.00000E+00
    0.00000E+00         0.00000E+00         0.00000E+00
 
   -0.39728E+08        -0.43751E+06         0.00000E+00
   -0.43751E+06        -0.48540E+08         0.00000E+00
    0.00000E+00         0.00000E+00         0.00000E+00
 
   -0.34340E+08        -0.49501E+06         0.00000E+00
   -0.49501E+06        -0.47765E+08         0.00000E+00
    0.00000E+00         0.00000E+00         0.00000E+00
 
   -0.30577E+08        -0.44933E+06         0.00000E+00
   -0.44933E+06        -0.46885E+08         0.00000E+00
    0.00000E+00         0.00000E+00         0.00000E+00
 
   -0.27599E+08        -0.39402E+06         0.00000E+00
   -0.39402E+06        -0.46075E+08         0.00000E+00
    0.00000E+00         0.00000E+00         0.00000E+00
 
   -0.25098E+08        -0.33344E+06         0.00000E+00
   -0.33344E+06        -0.45368E+08         0.00000E+00
    0.00000E+00         0.00000E+00         0.00000E+00
 
   -0.22905E+08        -0.26980E+06         0.00000E+00
   -0.26980E+06        -0.44779E+08         0.00000E+00
    0.00000E+00         0.00000E+00         0.00000E+00
 
   -0.20910E+08        -0.20290E+06         0.00000E+00
   -0.20290E+06        -0.44317E+08         0.00000E+00
    0.00000E+00         0.00000E+00         0.00000E+00
 
   -0.19032E+08        -0.13174E+06         0.00000E+00
   -0.13174E+06        -0.43991E+08         0.00000E+00
    0.00000E+00         0.00000E+00         0.00000E+00
 
   -0.17203E+08        -0.54713E+05         0.00000E+00
   -0.54713E+05        -0.43811E+08         0.00000E+00
    0.00000E+00         0.00000E+00         0.00000E+00
 
   -0.15359E+08         0.30599E+05         0.00000E+00
    0.30599E+05        -0.43792E+08         0.00000E+00
    0.00000E+00         0.00000E+00         0.00000E+00
 
   -0.13434E+08         0.12801E+06         0.00000E+00
    0.12801E+06        -0.43955E+08         0.00000E+00
    0.00000E+00         0.00000E+00         0.00000E+00
 
   -0.11348E+08         0.24413E+06         0.00000E+00
    0.24413E+06        -0.44331E+08         0.00000E+00
    0.00000E+00         0.00000E+00         0.00000E+00
 
   -0.89849E+07         0.39273E+06         0.00000E+00
    0.39273E+06        -0.44970E+08         0.00000E+00
    0.00000E+00         0.00000E+00         0.00000E+00
 
   -0.61463E+07         0.60453E+06         0.00000E+00
    0.60453E+06        -0.45969E+08         0.00000E+00
    0.00000E+00         0.00000E+00         0.00000E+00
 
   -0.22880E+07         0.10688E+07         0.00000E+00
    0.10688E+07        -0.47598E+08         0.00000E+00
    0.00000E+00         0.00000E+00         0.00000E+00
 
TENSORS stresstot double 
   -0.26712E+08        -0.39686E+06         0.00000E+00
   -0.39686E+06        -0.60386E+08         0.00000E+00
    0.00000E+00         0.00000E+00        -0.65379E+08
 
   -0.31864E+08        -0.46233E+06         0.00000E+00
   -0.46233E+06        -0.61107E+08         0.00000E+00
    0.00000E+00         0.00000E+00        -0.65401E+08
 
   -0.35525E+08        -0.42886E+06         0.00000E+00
   -0.42886E+06        -0.61941E+08         0.00000E+00
    0.00000E+00         0.00000E+00        -0.65438E+08
 
   -0.38452E+08        -0.38233E+06         0.00000E+00
   -0.38233E+06        -0.62724E+08         0.00000E+00
    0.00000E+00         0.00000E+00        -0.65482E+08
 
   -0.40927E+08        -0.32832E+06         0.00000E+00
   -0.32832E+06        -0.63417E+08         0.00000E+00
    0.00000E+00         0.00000E+00        -0.65529E+08
 
   -0.43108E+08        -0.26958E+06         0.00000E+00
   -0.26958E+06        -0.64002E+08         0.00000E+00
    0.00000E+00         0.00000E+00        -0.65579E+08
 
   -0.45098E+08        -0.20630E+06         0.00000E+00
   -0.20630E+06        -0.64469E+08         0.00000E+00
    0.00000E+00         0.00000E+00        -0.65629E+08
 
   -0.46976E+08        -0.13781E+06         0.00000E+00
   -0.13781E+06        -0.64807E+08         0.00000E+00
    0.00000E+00         0.00000E+00        -0.65678E+08
 
   -0.48806E+08        -0.62705E+05         0.00000E+00
   -0.62705E+05        -0.65002E+08         0.00000E+00
    0.00000E+00         0.00000E+00        -0.65724E+08
 
   -0.50650E+08         0.21231E+05         0.00000E+00
    0.21231E+05        -0.65040E+08         0.00000E+00
    0.00000E+00         0.00000E+00        -0.65768E+08
 
   -0.52572E+08         0.11765E+06         0.00000E+00
    0.11765E+06        -0.64897E+08         0.00000E+00
    0.00000E+00         0.00000E+00        -0.65808E+08
 
   -0.54652E+08         0.23303E+06         0.00000E+00
    0.23303E+06        -0.64544E+08         0.00000E+00
    0.00000E+00         0.00000E+00        -0.65843E+08
 
   -0.57003E+08         0.38096E+06         0.00000E+00
    0.38096E+06        -0.63928E+08         0.00000E+00
    0.00000E+00         0.00000E+00        -0.65873E+08
 
   -0.59820E+08         0.59212E+06         0.00000E+00
    0.59212E+06        -0.62954E+08         0.00000E+00
    0.00000E+00         0.00000E+00        -0.65896E+08
 
   -0.63645E+08         0.10564E+07         0.00000E+00
    0.10564E+07        -0.61349E+08         0.00000E+00
    0.00000E+00         0.00000E+00        -0.65909E+08
 
   -0.27464E+08        -0.66308E+06         0.00000E+00
   -0.66308E+06        -0.60030E+08         0.00000E+00
    0.00000E+00         0.00000E+00        -0.63535E+08
 
   -0.31923E+08        -0.11365E+07         0.00000E+00
   -0.11365E+07        -0.60310E+08         0.00000E+00
    0.00000E+00         0.00000E+00        -0.63547E+08
 
   -0.35480E+08        -0.11588E+07         0.00000E+00
   -0.11588E+07        -0.60844E+08         0.00000E+00
    0.00000E+00         0.00000E+00        -0.63570E+08
 
   -0.38367E+08        -0.10672E+07         0.00000E+00
   -0.10672E+07        -0.61444E+08         0.00000E+00
    0.00000E+00         0.00000E+00        -0.63602E+08
 
   -0.40824E+08        -0.93094E+06         0.00000E+00
   -0.93094E+06        -0.62016E+08         0.00000E+00
    0.00000E+00         0.00000E+00        -0.63638E+08
 
   -0.42992E+08        -0.76982E+06         0.00000E+00
   -0.76982E+06        -0.62517E+08         0.00000E+00
    0.00000E+00         0.00000E+00        -0.63677E+08
 
   -0.44971E+08        -0.58968E+06         0.00000E+00
   -0.58968E+06        -0.62921E+08         0.00000E+00
    0.00000E+00         0.00000E+00        -0.63717E+08
 
   -0.46836E+08        -0.39079E+06         0.00000E+00
   -0.39079E+06        -0.63211E+08         0.00000E+00
    0.00000E+00         0.00000E+00        -0.63757E+08
 
   -0.48650E+08        -0.17022E+06         0.00000E+00
   -0.17022E+06        -0.63370E+08         0.00000E+00
    0.00000E+00         0.00000E+00        -0.63795E+08
 
   -0.50473E+08         0.78016E+05         0.00000E+00
    0.78016E+05        -0.63379E+08         0.00000E+00
    0.00000E+00         0.00000E+00        -0.63831E+08
 
   -0.52364E+08         0.36430E+06         0.00000E+00
    0.36430E+06        -0.63214E+08         0.00000E+00
    0.00000E+00         0.00000E+00        -0.63864E+08
 
   -0.54396E+08         0.70745E+06         0.00000E+00
    0.70745E+06        -0.62846E+08         0.00000E+00
    0.00000E+00         0.00000E+00        -0.63892E+08
 
   -0.56660E+08         0.11451E+07         0.00000E+00
    0.11451E+07        -0.62225E+08         0.00000E+00
    0.00000E+00         0.00000E+00        -0.63915E+08
 
   -0.59293E+08         0.17695E+07         0.00000E+00
    0.17695E+07        -0.61273E+08         0.00000E+00
    0.00000E+00         0.00000E+00        -0.63932E+08
 
   -0.62333E+08         0.28787E+07         0.00000E+00
    0.28787E+07        -0.59911E+08         0.00000E+00
    0.00000E+00         0.00000E+00        -0.63940E+08
 
   -0.28533E+08        -0.67678E+06         0.00000E+00
   -0.67678E+06        -0.59993E+08         0.00000E+00
    0.00000E+00         0.00000E+00        -0.61685E+08
 
   -0.32224E+08        -0.14146E+07         0.00000E+00
   -0.14146E+07        -0.60059E+08         0.00000E+00
    0.00000E+00         0.00000E+00        -0.61693E+08
 
   -0.35477E+08        -0.16162E+07         0.00000E+00
   -0.16162E+07        -0.60296E+08         0.00000E+00
    0.00000E+00         0.00000E+00        -0.61708E+08
 
   -0.38250E+08        -0.15669E+07         0.00000E+00
   -0.15669E+07        -0.60656E+08         0.00000E+00
    0.00000E+00         0.00000E+00        -0.61729E+08
 
   -0.40649E+08        -0.14029E+07         0.00000E+00
   -0.14029E+07        -0.61050E+08         0.00000E+00
    0.00000E+00         0.00000E+00        -0.61756E+08
 
   -0.42780E+08        -0.11746E+07         0.00000E+00
   -0.11746E+07        -0.61418E+08         0.00000E+00
    0.00000E+00         0.00000E+00        -0.61786E+08
 
   -0.44729E+08        -0.90142E+06         0.00000E+00
   -0.90142E+06        -0.61723E+08         0.00000E+00
    0.00000E+00         0.00000E+00        -0.61817E+08
 
   -0.46565E+08        -0.58906E+06         0.00000E+00
   -0.58906E+06        -0.61938E+08         0.00000E+00
    0.00000E+00         0.00000E+00        -0.61849E+08
 
   -0.48345E+08        -0.23566E+06         0.00000E+00
   -0.23566E+06        -0.62039E+08         0.00000E+00
    0.00000E+00         0.00000E+00        -0.61880E+08
 
   -0.50124E+08         0.16662E+06         0.00000E+00
    0.16662E+06        -0.62004E+08         0.00000E+00
    0.00000E+00         0.00000E+00        -0.61909E+08
 
   -0.51955E+08         0.63314E+06         0.00000E+00
    0.63314E+06        -0.61810E+08         0.00000E+00
    0.00000E+00         0.00000E+00        -0.61935E+08
 
   -0.53893E+08         0.11918E+07         0.00000E+00
    0.11918E+07        -0.61428E+08         0.00000E+00
    0.00000E+00         0.00000E+00        -0.61957E+08
 
   -0.56000E+08         0.18953E+07         0.00000E+00
    0.18953E+07        -0.60821E+08         0.00000E+00
    0.00000E+00         0.00000E+00        -0.61975E+08
 
   -0.58309E+08         0.28531E+07         0.00000E+00
    0.28531E+07        -0.59954E+08         0.00000E+00
    0.00000E+00         0.00000E+00        -0.61987E+08
 
   -0.60755E+08         0.42319E+07         0.00000E+00
    0.42319E+07        -0.58860E+08         0.00000E+00
    0.00000E+00         0.00000E+00        -0.61993E+08
 
   -0.29668E+08        -0.64858E+06         0.00000E+00
   -0.64858E+06        -0.59982E+08         0.00000E+00
    0.00000E+00         0.00000E+00        -0.59833E+08
 
   -0.32722E+08        -0.14806E+07         0.00000E+00
   -0.14806E+07        -0.59969E+08         0.00000E+00
    0.00000E+00         0.00000E+00        -0.59838E+08
 
   -0.35587E+08        -0.18262E+07         0.00000E+00
   -0.18262E+07        -0.60034E+08         0.00000E+00
    0.00000E+00         0.00000E+00        -0.59848E+08
 
   -0.38157E+08        -0.18611E+07         0.00000E+00
   -0.18611E+07        -0.60196E+08         0.00000E+00
    0.00000E+00         0.00000E+00        -0.59863E+08
 
   -0.40444E+08        -0.17143E+07         0.00000E+00
   -0.17143E+07        -0.60414E+08         0.00000E+00
    0.00000E+00         0.00000E+00        -0.59883E+08
 
   -0.42504E+08        -0.14555E+07         0.00000E+00
   -0.14555E+07        -0.60639E+08         0.00000E+00
    0.00000E+00         0.00000E+00        -0.59905E+08
 
   -0.44397E+08        -0.11177E+07         0.00000E+00
   -0.11177E+07        -0.60830E+08         0.00000E+00
    0.00000E+00         0.00000E+00        -0.59929E+08
 
   -0.46181E+08        -0.71403E+06         0.00000E+00
   -0.71403E+06        -0.60956E+08         0.00000E+00
    0.00000E+00         0.00000E+00        -0.59953E+08
 
   -0.47906E+08        -0.24590E+06         0.00000E+00
   -0.24590E+06        -0.60989E+08         0.00000E+00
    0.00000E+00         0.00000E+00        -0.59977E+08
 
   -0.49617E+08         0.29419E+06         0.00000E+00
    0.29419E+06        -0.60906E+08         0.00000E+00
    0.00000E+00         0.00000E+00        -0.60000E+08
 
   -0.51359E+08         0.92347E+06         0.00000E+00
    0.92347E+06        -0.60683E+08         0.00000E+00
    0.00000E+00         0.00000E+00        -0.60020E+08
 
   -0.53169E+08         0.16729E+07         0.00000E+00
    0.16729E+07        -0.60297E+08         0.00000E+00
    0.00000E+00         0.00000E+00        -0.60037E+08
 
   -0.55074E+08         0.25954E+07         0.00000E+00
    0.25954E+07        -0.59729E+08         0.00000E+00
    0.00000E+00         0.00000E+00        -0.60051E+08
 
   -0.57067E+08         0.37703E+07         0.00000E+00
    0.37703E+07        -0.58977E+08         0.00000E+00
    0.00000E+00         0.00000E+00        -0.60060E+08
 
   -0.59073E+08         0.52882E+07         0.00000E+00
    0.52882E+07        -0.58084E+08         0.00000E+00
    0.00000E+00         0.00000E+00        -0.60064E+08
 
   -0.30780E+08        -0.60715E+06         0.00000E+00
   -0.60715E+06        -0.59978E+08         0.00000E+00
    0.00000E+00         0.00000E+00        -0.57982E+08
 
   -0.33317E+08        -0.14536E+07         0.00000E+00
   -0.14536E+07        -0.59929E+08         0.00000E+00
    0.00000E+00         0.00000E+00        -0.57986E+08
 
   -0.35799E+08        -0.18781E+07         0.00000E+00
   -0.18781E+07        -0.59902E+08         0.00000E+00
    0.00000E+00         0.00000E+00        -0.57992E+08
 
   -0.38117E+08        -0.19864E+07         0.00000E+00
   -0.19864E+07        -0.59932E+08         0.00000E+00
    0.00000E+00         0.00000E+00        -0.58003E+08
 
   -0.40243E+08        -0.18749E+07         0.00000E+00
   -0.18749E+07        -0.60010E+08         0.00000E+00
    0.00000E+00         0.00000E+00        -0.58016E+08
 
   -0.42191E+08        -0.16108E+07         0.00000E+00
   -0.16108E+07        -0.60107E+08         0.00000E+00
    0.00000E+00         0.00000E+00        -0.58032E+08
 
   -0.43998E+08        -0.12329E+07         0.00000E+00
   -0.12329E+07        -0.60190E+08         0.00000E+00
    0.00000E+00         0.00000E+00        -0.58050E+08
 
   -0.45704E+08        -0.76008E+06         0.00000E+00
   -0.76008E+06        -0.60227E+08         0.00000E+00
    0.00000E+00         0.00000E+00        -0.58068E+08
 
   -0.47350E+08        -0.19775E+06         0.00000E+00
   -0.19775E+06        -0.60194E+08         0.00000E+00
    0.00000E+00         0.00000E+00        -0.58086E+08
 
   -0.48971E+08         0.45955E+06         0.00000E+00
    0.45955E+06        -0.60065E+08         0.00000E+00
    0.00000E+00         0.00000E+00        -0.58103E+08
 
   -0.50600E+08         0.12276E+07         0.00000E+00
    0.12276E+07        -0.59820E+08         0.00000E+00
    0.00000E+00         0.00000E+00        -0.58119E+08
 
   -0.52260E+08         0.21343E+07         0.00000E+00
    0.21343E+07        -0.59443E+08         0.00000E+00
    0.00000E+00         0.00000E+00        -0.58131E+08
 
   -0.53957E+08         0.32210E+07         0.00000E+00
    0.32210E+07        -0.58926E+08         0.00000E+00
    0.00000E+00         0.00000E+00        -0.58142E+08
 
   -0.55671E+08         0.45396E+07         0.00000E+00
    0.45396E+07        -0.58280E+08         0.00000E+00
    0.00000E+00         0.00000E+00        -0.58148E+08
 
   -0.57340E+08         0.61388E+07         0.00000E+00
    0.61388E+07        -0.57543E+08         0.00000E+00
    0.00000E+00         0.00000E+00        -0.58152E+08
 
   -0.31834E+08        -0.56073E+06         0.00000E+00
   -0.56073E+06        -0.59976E+08         0.00000E+00
    0.00000E+00         0.00000E+00        -0.56133E+08
 
   -0.33946E+08        -0.13818E+07         0.00000E+00
   -0.13818E+07        -0.59910E+08         0.00000E+00
    0.00000E+00         0.00000E+00        -0.56136E+08
 
   -0.36074E+08        -0.18385E+07         0.00000E+00
   -0.18385E+07        -0.59833E+08         0.00000E+00
    0.00000E+00         0.00000E+00        -0.56140E+08
 
   -0.38127E+08        -0.19941E+07         0.00000E+00
   -0.19941E+07        -0.59781E+08         0.00000E+00
    0.00000E+00         0.00000E+00        -0.56147E+08
 
   -0.40058E+08        -0.19155E+07         0.00000E+00
   -0.19155E+07        -0.59761E+08         0.00000E+00
    0.00000E+00         0.00000E+00        -0.56156E+08
 
   -0.41862E+08        -0.16571E+07         0.00000E+00
   -0.16571E+07        -0.59758E+08         0.00000E+00
    0.00000E+00         0.00000E+00        -0.56167E+08
 
   -0.43553E+08        -0.12559E+07         0.00000E+00
   -0.12559E+07        -0.59751E+08         0.00000E+00
    0.00000E+00         0.00000E+00        -0.56179E+08
 
   -0.45156E+08        -0.73306E+06         0.00000E+00
   -0.73306E+06        -0.59713E+08         0.00000E+00
    0.00000E+00         0.00000E+00        -0.56192E+08
 
   -0.46699E+08        -0.96733E+05         0.00000E+00
   -0.96733E+05        -0.59622E+08         0.00000E+00
    0.00000E+00         0.00000E+00        -0.56205E+08
 
   -0.48209E+08         0.65548E+06         0.00000E+00
    0.65548E+06        -0.59456E+08         0.00000E+00
    0.00000E+00         0.00000E+00        -0.56218E+08
 
   -0.49708E+08         0.15355E+07         0.00000E+00
    0.15355E+07        -0.59200E+08         0.00000E+00
    0.00000E+00         0.00000E+00        -0.56229E+08
 
   -0.51207E+08         0.25645E+07         0.00000E+00
    0.25645E+07        -0.58840E+08         0.00000E+00
    0.00000E+00         0.00000E+00        -0.56238E+08
 
   -0.52706E+08         0.37711E+07         0.00000E+00
    0.37711E+07        -0.58377E+08         0.00000E+00
    0.00000E+00         0.00000E+00        -0.56246E+08
 
   -0.54179E+08         0.51869E+07         0.00000E+00
    0.51869E+07        -0.57822E+08         0.00000E+00
    0.00000E+00         0.00000E+00        -0.56251E+08
 
   -0.55579E+08         0.68365E+07         0.00000E+00
    0.68365E+07        -0.57207E+08         0.00000E+00
    0.00000E+00         0.00000E+00        -0.56253E+08
 
   -0.32815E+08        -0.51305E+06         0.00000E+00
   -0.51305E+06        -0.59976E+08         0.00000E+00
    0.00000E+00         0.00000E+00        -0.54288E+08
 
   -0.34569E+08        -0.12886E+07         0.00000E+00
   -0.12886E+07        -0.59903E+08         0.00000E+00
    0.00000E+00         0.00000E+00        -0.54289E+08
 
   -0.36380E+08        -0.17475E+07         0.00000E+00
   -0.17475E+07        -0.59800E+08         0.00000E+00
    0.00000E+00         0.00000E+00        -0.54292E+08
 
   -0.38170E+08        -0.19268E+07         0.00000E+00
   -0.19268E+07        -0.59701E+08         0.00000E+00
    0.00000E+00         0.00000E+00        -0.54296E+08
 
   -0.39892E+08        -0.18707E+07         0.00000E+00
   -0.18707E+07        -0.59617E+08         0.00000E+00
    0.00000E+00         0.00000E+00        -0.54302E+08
 
   -0.41527E+08        -0.16197E+07         0.00000E+00
   -0.16197E+07        -0.59544E+08         0.00000E+00
    0.00000E+00         0.00000E+00        -0.54309E+08
 
   -0.43077E+08        -0.12050E+07         0.00000E+00
   -0.12050E+07        -0.59470E+08         0.00000E+00
    0.00000E+00         0.00000E+00        -0.54317E+08
 
   -0.44553E+08        -0.64659E+06         0.00000E+00
   -0.64659E+06        -0.59375E+08         0.00000E+00
    0.00000E+00         0.00000E+00        -0.54326E+08
 
   -0.45973E+08         0.45799E+05         0.00000E+00
    0.45799E+05        -0.59241E+08         0.00000E+00
    0.00000E+00         0.00000E+00        -0.54334E+08
 
   -0.47355E+08         0.87157E+06         0.00000E+00
    0.87157E+06        -0.59051E+08         0.00000E+00
    0.00000E+00         0.00000E+00        -0.54343E+08
 
   -0.48711E+08         0.18380E+07         0.00000E+00
    0.18380E+07        -0.58791E+08         0.00000E+00
    0.00000E+00         0.00000E+00        -0.54350E+08
 
   -0.50048E+08         0.29587E+07         0.00000E+00
    0.29587E+07        -0.58455E+08         0.00000E+00
    0.00000E+00         0.00000E+00        -0.54356E+08
 
   -0.51359E+08         0.42515E+07         0.00000E+00
    0.42515E+07        -0.58044E+08         0.00000E+00
    0.00000E+00         0.00000E+00        -0.54361E+08
 
   -0.52623E+08         0.57336E+07         0.00000E+00
    0.57336E+07        -0.57568E+08         0.00000E+00
    0.00000E+00         0.00000E+00        -0.54365E+08
 
   -0.53803E+08         0.74155E+07         0.00000E+00
    0.74155E+07        -0.57052E+08         0.00000E+00
    0.00000E+00         0.00000E+00        -0.54366E+08
 
   -0.33717E+08        -0.46643E+06         0.00000E+00
   -0.46643E+06        -0.59977E+08         0.00000E+00
    0.00000E+00         0.00000E+00        -0.52446E+08
 
   -0.35166E+08        -0.11870E+07         0.00000E+00
   -0.11870E+07        -0.59903E+08         0.00000E+00
    0.00000E+00         0.00000E+00        -0.52446E+08
 
   -0.36693E+08        -0.16302E+07         0.00000E+00
   -0.16302E+07        -0.59790E+08         0.00000E+00
    0.00000E+00         0.00000E+00        -0.52448E+08
 
   -0.38232E+08        -0.18157E+07         0.00000E+00
   -0.18157E+07        -0.59666E+08         0.00000E+00
    0.00000E+00         0.00000E+00        -0.52450E+08
 
   -0.39739E+08        -0.17711E+07         0.00000E+00
   -0.17711E+07        -0.59545E+08         0.00000E+00
    0.00000E+00         0.00000E+00        -0.52453E+08
 
   -0.41191E+08        -0.15251E+07         0.00000E+00
   -0.15251E+07        -0.59430E+08         0.00000E+00
    0.00000E+00         0.00000E+00        -0.52457E+08
 
   -0.42580E+08        -0.11016E+07         0.00000E+00
   -0.11016E+07        -0.59312E+08         0.00000E+00
    0.00000E+00         0.00000E+00        -0.52461E+08
 
   -0.43910E+08        -0.51802E+06         0.00000E+00
   -0.51802E+06        -0.59179E+08         0.00000E+00
    0.00000E+00         0.00000E+00        -0.52466E+08
 
   -0.45190E+08         0.21567E+06         0.00000E+00
    0.21567E+06        -0.59019E+08         0.00000E+00
    0.00000E+00         0.00000E+00        -0.52471E+08
 
   -0.46430E+08         0.10964E+07         0.00000E+00
    0.10964E+07        -0.58817E+08         0.00000E+00
    0.00000E+00         0.00000E+00        -0.52476E+08
 
   -0.47636E+08         0.21271E+07         0.00000E+00
    0.21271E+07        -0.58565E+08         0.00000E+00
    0.00000E+00         0.00000E+00        -0.52480E+08
 
   -0.48811E+08         0.33149E+07         0.00000E+00
    0.33149E+07        -0.58257E+08         0.00000E+00
    0.00000E+00         0.00000E+00        -0.52484E+08
 
   -0.49946E+08         0.46688E+07         0.00000E+00
    0.46688E+07        -0.57895E+08         0.00000E+00
    0.00000E+00         0.00000E+00        -0.52487E+08
 
   -0.51025E+08         0.61963E+07         0.00000E+00
    0.61963E+07        -0.57488E+08         0.00000E+00
    0.00000E+00         0.00000E+00        -0.52489E+08
 
   -0.52018E+08         0.78988E+07         0.00000E+00
    0.78988E+07        -0.57055E+08         0.00000E+00
    0.00000E+00         0.00000E+00        -0.52490E+08
 
   -0.34540E+08        -0.42254E+06         0.00000E+00
   -0.42254E+06        -0.59979E+08         0.00000E+00
    0.00000E+00         0.00000E+00        -0.50608E+08
 
   -0.35726E+08        -0.10855E+07         0.00000E+00
   -0.10855E+07        -0.59908E+08         0.00000E+00
    0.00000E+00         0.00000E+00        -0.50608E+08
 
   -0.36997E+08        -0.15031E+07         0.00000E+00
   -0.15031E+07        -0.59795E+08         0.00000E+00
    0.00000E+00         0.00000E+00        -0.50608E+08
 
   -0.38299E+08        -0.16833E+07         0.00000E+00
   -0.16833E+07        -0.59663E+08         0.00000E+00
    0.00000E+00         0.00000E+00        -0.50608E+08
 
   -0.39592E+08        -0.16417E+07         0.00000E+00
   -0.16417E+07        -0.59526E+08         0.00000E+00
    0.00000E+00         0.00000E+00        -0.50609E+08
 
   -0.40852E+08        -0.13970E+07         0.00000E+00
   -0.13970E+07        -0.59389E+08         0.00000E+00
    0.00000E+00         0.00000E+00        -0.50610E+08
 
   -0.42068E+08        -0.96682E+06         0.00000E+00
   -0.96682E+06        -0.59249E+08         0.00000E+00
    0.00000E+00         0.00000E+00        -0.50611E+08
 
   -0.43239E+08        -0.36528E+06         0.00000E+00
   -0.36528E+06        -0.59098E+08         0.00000E+00
    0.00000E+00         0.00000E+00        -0.50613E+08
 
   -0.44365E+08         0.39821E+06         0.00000E+00
    0.39821E+06        -0.58927E+08         0.00000E+00
    0.00000E+00         0.00000E+00        -0.50615E+08
 
   -0.45453E+08         0.13189E+07         0.00000E+00
    0.13189E+07        -0.58727E+08         0.00000E+00
    0.00000E+00         0.00000E+00        -0.50617E+08
 
   -0.46504E+08         0.23961E+07         0.00000E+00
    0.23961E+07        -0.58490E+08         0.00000E+00
    0.00000E+00         0.00000E+00        -0.50619E+08
 
   -0.47518E+08         0.36317E+07         0.00000E+00
    0.36317E+07        -0.58213E+08         0.00000E+00
    0.00000E+00         0.00000E+00        -0.50620E+08
 
   -0.48487E+08         0.50282E+07         0.00000E+00
    0.50282E+07        -0.57899E+08         0.00000E+00
    0.00000E+00         0.00000E+00        -0.50621E+08
 
   -0.49398E+08         0.65864E+07         0.00000E+00
    0.65864E+07        -0.57555E+08         0.00000E+00
    0.00000E+00         0.00000E+00        -0.50622E+08
 
   -0.50229E+08         0.83020E+07         0.00000E+00
    0.83020E+07        -0.57192E+08         0.00000E+00
    0.00000E+00         0.00000E+00        -0.50622E+08
 
   -0.35289E+08        -0.38270E+06         0.00000E+00
   -0.38270E+06        -0.59981E+08         0.00000E+00
    0.00000E+00         0.00000E+00        -0.48773E+08
 
   -0.36245E+08        -0.98992E+06         0.00000E+00
   -0.98992E+06        -0.59917E+08         0.00000E+00
    0.00000E+00         0.00000E+00        -0.48772E+08
 
   -0.37285E+08        -0.13780E+07         0.00000E+00
   -0.13780E+07        -0.59811E+08         0.00000E+00
    0.00000E+00         0.00000E+00        -0.48772E+08
 
   -0.38363E+08        -0.15463E+07         0.00000E+00
   -0.15463E+07        -0.59684E+08         0.00000E+00
    0.00000E+00         0.00000E+00        -0.48770E+08
 
   -0.39446E+08        -0.15017E+07         0.00000E+00
   -0.15017E+07        -0.59547E+08         0.00000E+00
    0.00000E+00         0.00000E+00        -0.48769E+08
 
   -0.40511E+08        -0.12554E+07         0.00000E+00
   -0.12554E+07        -0.59406E+08         0.00000E+00
    0.00000E+00         0.00000E+00        -0.48768E+08
 
   -0.41547E+08        -0.81949E+06         0.00000E+00
   -0.81949E+06        -0.59261E+08         0.00000E+00
    0.00000E+00         0.00000E+00        -0.48767E+08
 
   -0.42547E+08        -0.20494E+06         0.00000E+00
   -0.20494E+06        -0.59108E+08         0.00000E+00
    0.00000E+00         0.00000E+00        -0.48766E+08
 
   -0.43510E+08         0.57973E+06         0.00000E+00
    0.57973E+06        -0.58940E+08         0.00000E+00
    0.00000E+00         0.00000E+00        -0.48765E+08
 
   -0.44438E+08         0.15287E+07         0.00000E+00
    0.15287E+07        -0.58752E+08         0.00000E+00
    0.00000E+00         0.00000E+00        -0.48764E+08
 
   -0.45331E+08         0.26387E+07         0.00000E+00
    0.26387E+07        -0.58539E+08         0.00000E+00
    0.00000E+00         0.00000E+00        -0.48763E+08
 
   -0.46186E+08         0.39077E+07         0.00000E+00
    0.39077E+07        -0.58297E+08         0.00000E+00
    0.00000E+00         0.00000E+00        -0.48763E+08
 
   -0.46997E+08         0.53335E+07         0.00000E+00
    0.53335E+07        -0.58030E+08         0.00000E+00
    0.00000E+00         0.00000E+00        -0.48762E+08
 
   -0.47753E+08         0.69123E+07         0.00000E+00
    0.69123E+07        -0.57743E+08         0.00000E+00
    0.00000E+00         0.00000E+00        -0.48762E+08
 
   -0.48439E+08         0.86359E+07         0.00000E+00
    0.86359E+07        -0.57444E+08         0.00000E+00
    0.00000E+00         0.00000E+00        -0.48762E+08
 
   -0.35971E+08        -0.34799E+06         0.00000E+00
   -0.34799E+06        -0.59984E+08         0.00000E+00
    0.00000E+00         0.00000E+00        -0.46942E+08
 
   -0.36724E+08        -0.90477E+06         0.00000E+00
   -0.90477E+06        -0.59929E+08         0.00000E+00
    0.00000E+00         0.00000E+00        -0.46941E+08
 
   -0.37552E+08        -0.12634E+07         0.00000E+00
   -0.12634E+07        -0.59836E+08         0.00000E+00
    0.00000E+00         0.00000E+00        -0.46939E+08
 
   -0.38418E+08        -0.14170E+07         0.00000E+00
   -0.14170E+07        -0.59722E+08         0.00000E+00
    0.00000E+00         0.00000E+00        -0.46936E+08
 
   -0.39297E+08        -0.13662E+07         0.00000E+00
   -0.13662E+07        -0.59596E+08         0.00000E+00
    0.00000E+00         0.00000E+00        -0.46933E+08
 
   -0.40167E+08        -0.11164E+07         0.00000E+00
   -0.11164E+07        -0.59465E+08         0.00000E+00
    0.00000E+00         0.00000E+00        -0.46930E+08
 
   -0.41017E+08        -0.67529E+06         0.00000E+00
   -0.67529E+06        -0.59330E+08         0.00000E+00
    0.00000E+00         0.00000E+00        -0.46926E+08
 
   -0.41840E+08        -0.51228E+05         0.00000E+00
   -0.51228E+05        -0.59188E+08         0.00000E+00
    0.00000E+00         0.00000E+00        -0.46923E+08
 
   -0.42634E+08         0.74830E+06         0.00000E+00
    0.74830E+06        -0.59036E+08         0.00000E+00
    0.00000E+00         0.00000E+00        -0.46919E+08
 
   -0.43398E+08         0.17170E+07         0.00000E+00
    0.17170E+07        -0.58870E+08         0.00000E+00
    0.00000E+00         0.00000E+00        -0.46916E+08
 
   -0.44130E+08         0.28496E+07         0.00000E+00
    0.28496E+07        -0.58686E+08         0.00000E+00
    0.00000E+00         0.00000E+00        -0.46913E+08
 
   -0.44828E+08         0.41414E+07         0.00000E+00
    0.41414E+07        -0.58483E+08         0.00000E+00
    0.00000E+00         0.00000E+00        -0.46911E+08
 
   -0.45485E+08         0.55870E+07         0.00000E+00
    0.55870E+07        -0.58263E+08         0.00000E+00
    0.00000E+00         0.00000E+00        -0.46909E+08
 
   -0.46095E+08         0.71793E+07         0.00000E+00
    0.71793E+07        -0.58030E+08         0.00000E+00
    0.00000E+00         0.00000E+00        -0.46908E+08
 
   -0.46647E+08         0.89078E+07         0.00000E+00
    0.89078E+07        -0.57789E+08         0.00000E+00
    0.00000E+00         0.00000E+00        -0.46907E+08
 
   -0.36595E+08        -0.31929E+06         0.00000E+00
   -0.31929E+06        -0.59987E+08         0.00000E+00
    0.00000E+00         0.00000E+00        -0.45113E+08
 
   -0.37166E+08        -0.83334E+06         0.00000E+00
   -0.83334E+06        -0.59943E+08         0.00000E+00
    0.00000E+00         0.00000E+00        -0.45111E+08
 
   -0.37798E+08        -0.11655E+07         0.00000E+00
   -0.11655E+07        -0.59867E+08         0.00000E+00
    0.00000E+00         0.00000E+00        -0.45109E+08
 
   -0.38464E+08        -0.13046E+07         0.00000E+00
   -0.13046E+07        -0.59773E+08         0.00000E+00
    0.00000E+00         0.00000E+00        -0.45105E+08
 
   -0.39143E+08        -0.12464E+07         0.00000E+00
   -0.12464E+07        -0.59668E+08         0.00000E+00
    0.00000E+00         0.00000E+00        -0.45100E+08
 
   -0.39818E+08        -0.99234E+06         0.00000E+00
   -0.99234E+06        -0.59557E+08         0.00000E+00
    0.00000E+00         0.00000E+00        -0.45094E+08
 
   -0.40480E+08        -0.54675E+06         0.00000E+00
   -0.54675E+06        -0.59442E+08         0.00000E+00
    0.00000E+00         0.00000E+00        -0.45089E+08
 
   -0.41123E+08         0.84242E+05         0.00000E+00
    0.84242E+05        -0.59322E+08         0.00000E+00
    0.00000E+00         0.00000E+00        -0.45083E+08
 
   -0.41743E+08         0.89404E+06         0.00000E+00
    0.89404E+06        -0.59195E+08         0.00000E+00
    0.00000E+00         0.00000E+00        -0.45077E+08
 
   -0.42339E+08         0.18761E+07         0.00000E+00
    0.18761E+07        -0.59058E+08         0.00000E+00
    0.00000E+00         0.00000E+00        -0.45072E+08
 
   -0.42909E+08         0.30240E+07         0.00000E+00
    0.30240E+07        -0.58910E+08         0.00000E+00
    0.00000E+00         0.00000E+00        -0.45067E+08
 
   -0.43451E+08         0.43311E+07         0.00000E+00
    0.43311E+07        -0.58749E+08         0.00000E+00
    0.00000E+00         0.00000E+00        -0.45063E+08
 
   -0.43960E+08         0.57899E+07         0.00000E+00
    0.57899E+07        -0.58576E+08         0.00000E+00
    0.00000E+00         0.00000E+00        -0.45060E+08
 
   -0.44430E+08         0.73910E+07         0.00000E+00
    0.73910E+07        -0.58395E+08         0.00000E+00
    0.00000E+00         0.00000E+00        -0.45058E+08
 
   -0.44856E+08         0.91226E+07         0.00000E+00
    0.91226E+07        -0.58209E+08         0.00000E+00
    0.00000E+00         0.00000E+00        -0.45056E+08
 
   -0.37173E+08        -0.29730E+06         0.00000E+00
   -0.29730E+06        -0.59991E+08         0.00000E+00
    0.00000E+00         0.00000E+00        -0.43286E+08
 
   -0.37578E+08        -0.77812E+06         0.00000E+00
   -0.77812E+06        -0.59958E+08         0.00000E+00
    0.00000E+00         0.00000E+00        -0.43284E+08
 
   -0.38027E+08        -0.10891E+07         0.00000E+00
   -0.10891E+07        -0.59903E+08         0.00000E+00
    0.00000E+00         0.00000E+00        -0.43280E+08
 
   -0.38500E+08        -0.12157E+07         0.00000E+00
   -0.12157E+07        -0.59833E+08         0.00000E+00
    0.00000E+00         0.00000E+00        -0.43275E+08
 
   -0.38984E+08        -0.11508E+07         0.00000E+00
   -0.11508E+07        -0.59755E+08         0.00000E+00
    0.00000E+00         0.00000E+00        -0.43268E+08
 
   -0.39466E+08        -0.89273E+06         0.00000E+00
   -0.89273E+06        -0.59672E+08         0.00000E+00
    0.00000E+00         0.00000E+00        -0.43261E+08
 
   -0.39939E+08        -0.44345E+06         0.00000E+00
   -0.44345E+06        -0.59586E+08         0.00000E+00
    0.00000E+00         0.00000E+00        -0.43253E+08
 
   -0.40399E+08         0.19249E+06         0.00000E+00
    0.19249E+06        -0.59496E+08         0.00000E+00
    0.00000E+00         0.00000E+00        -0.43245E+08
 
   -0.40843E+08         0.10092E+07         0.00000E+00
    0.10092E+07        -0.59401E+08         0.00000E+00
    0.00000E+00         0.00000E+00        -0.43237E+08
 
   -0.41269E+08         0.20001E+07         0.00000E+00
    0.20001E+07        -0.59300E+08         0.00000E+00
    0.00000E+00         0.00000E+00        -0.43230E+08
 
   -0.41676E+08         0.31581E+07         0.00000E+00
    0.31581E+07        -0.59191E+08         0.00000E+00
    0.00000E+00         0.00000E+00        -0.43223E+08
 
   -0.42062E+08         0.44753E+07         0.00000E+00
    0.44753E+07        -0.59074E+08         0.00000E+00
    0.00000E+00         0.00000E+00        -0.43217E+08
 
   -0.42425E+08         0.59426E+07         0.00000E+00
    0.59426E+07        -0.58950E+08         0.00000E+00
    0.00000E+00         0.00000E+00        -0.43213E+08
 
   -0.42760E+08         0.75495E+07         0.00000E+00
    0.75495E+07        -0.58820E+08         0.00000E+00
    0.00000E+00         0.00000E+00        -0.43210E+08
 
   -0.43064E+08         0.92832E+07         0.00000E+00
    0.92832E+07        -0.58686E+08         0.00000E+00
    0.00000E+00         0.00000E+00        -0.43208E+08
 
   -0.37717E+08        -0.28255E+06         0.00000E+00
   -0.28255E+06        -0.59995E+08         0.00000E+00
    0.00000E+00         0.00000E+00        -0.41460E+08
 
   -0.37967E+08        -0.74093E+06         0.00000E+00
   -0.74093E+06        -0.59975E+08         0.00000E+00
    0.00000E+00         0.00000E+00        -0.41457E+08
 
   -0.38241E+08        -0.10373E+07         0.00000E+00
   -0.10373E+07        -0.59942E+08         0.00000E+00
    0.00000E+00         0.00000E+00        -0.41453E+08
 
   -0.38528E+08        -0.11552E+07         0.00000E+00
   -0.11552E+07        -0.59900E+08         0.00000E+00
    0.00000E+00         0.00000E+00        -0.41446E+08
 
   -0.38820E+08        -0.10854E+07         0.00000E+00
   -0.10854E+07        -0.59853E+08         0.00000E+00
    0.00000E+00         0.00000E+00        -0.41438E+08
 
   -0.39110E+08        -0.82420E+06         0.00000E+00
   -0.82420E+06        -0.59803E+08         0.00000E+00
    0.00000E+00         0.00000E+00        -0.41428E+08
 
   -0.39394E+08        -0.37226E+06         0.00000E+00
   -0.37226E+06        -0.59751E+08         0.00000E+00
    0.00000E+00         0.00000E+00        -0.41418E+08
 
   -0.39670E+08         0.26699E+06         0.00000E+00
    0.26699E+06        -0.59696E+08         0.00000E+00
    0.00000E+00         0.00000E+00        -0.41408E+08
 
   -0.39935E+08         0.10882E+07         0.00000E+00
    0.10882E+07        -0.59639E+08         0.00000E+00
    0.00000E+00         0.00000E+00        -0.41398E+08
 
   -0.40190E+08         0.20847E+07         0.00000E+00
    0.20847E+07        -0.59577E+08         0.00000E+00
    0.00000E+00         0.00000E+00        -0.41389E+08
 
   -0.40434E+08         0.32490E+07         0.00000E+00
    0.32490E+07        -0.59511E+08         0.00000E+00
    0.00000E+00         0.00000E+00        -0.41380E+08
 
   -0.40666E+08         0.45725E+07         0.00000E+00
    0.45725E+07        -0.59440E+08         0.00000E+00
    0.00000E+00         0.00000E+00        -0.41373E+08
 
   -0.40884E+08         0.60454E+07         0.00000E+00
    0.60454E+07        -0.59364E+08         0.00000E+00
    0.00000E+00         0.00000E+00        -0.41367E+08
 
   -0.41087E+08         0.76562E+07         0.00000E+00
    0.76562E+07        -0.59285E+08         0.00000E+00
    0.00000E+00         0.00000E+00        -0.41363E+08
 
   -0.41273E+08         0.93917E+07         0.00000E+00
    0.93917E+07        -0.59203E+08         0.00000E+00
    0.00000E+00         0.00000E+00        -0.41361E+08
 
   -0.38241E+08        -0.27539E+06         0.00000E+00
   -0.27539E+06        -0.59998E+08         0.00000E+00
    0.00000E+00         0.00000E+00        -0.39633E+08
 
   -0.38342E+08        -0.72297E+06         0.00000E+00
   -0.72297E+06        -0.59993E+08         0.00000E+00
    0.00000E+00         0.00000E+00        -0.39630E+08
 
   -0.38447E+08        -0.10124E+07         0.00000E+00
   -0.10124E+07        -0.59983E+08         0.00000E+00
    0.00000E+00         0.00000E+00        -0.39625E+08
 
   -0.38552E+08        -0.11261E+07         0.00000E+00
   -0.11261E+07        -0.59971E+08         0.00000E+00
    0.00000E+00         0.00000E+00        -0.39616E+08
 
   -0.38654E+08        -0.10538E+07         0.00000E+00
   -0.10538E+07        -0.59958E+08         0.00000E+00
    0.00000E+00         0.00000E+00        -0.39606E+08
 
   -0.38753E+08        -0.79104E+06         0.00000E+00
   -0.79104E+06        -0.59944E+08         0.00000E+00
    0.00000E+00         0.00000E+00        -0.39595E+08
 
   -0.38847E+08        -0.33759E+06         0.00000E+00
   -0.33759E+06        -0.59929E+08         0.00000E+00
    0.00000E+00         0.00000E+00        -0.39583E+08
 
   -0.38938E+08         0.30355E+06         0.00000E+00
    0.30355E+06        -0.59913E+08         0.00000E+00
    0.00000E+00         0.00000E+00        -0.39571E+08
 
   -0.39024E+08         0.11273E+07         0.00000E+00
    0.11273E+07        -0.59895E+08         0.00000E+00
    0.00000E+00         0.00000E+00        -0.39559E+08
 
   -0.39107E+08         0.21269E+07         0.00000E+00
    0.21269E+07        -0.59876E+08         0.00000E+00
    0.00000E+00         0.00000E+00        -0.39547E+08
 
   -0.39187E+08         0.32948E+07         0.00000E+00
    0.32948E+07        -0.59854E+08         0.00000E+00
    0.00000E+00         0.00000E+00        -0.39537E+08
 
   -0.39264E+08         0.46219E+07         0.00000E+00
    0.46219E+07        -0.59830E+08         0.00000E+00
    0.00000E+00         0.00000E+00        -0.39528E+08
 
   -0.39339E+08         0.60982E+07         0.00000E+00
    0.60982E+07        -0.59804E+08         0.00000E+00
    0.00000E+00         0.00000E+00        -0.39521E+08
 
   -0.39411E+08         0.77118E+07         0.00000E+00
    0.77118E+07        -0.59775E+08         0.00000E+00
    0.00000E+00         0.00000E+00        -0.39517E+08
 
   -0.39480E+08         0.94491E+07         0.00000E+00
    0.94491E+07        -0.59744E+08         0.00000E+00
    0.00000E+00         0.00000E+00        -0.39514E+08
 
   -0.38759E+08        -0.27601E+06         0.00000E+00
   -0.27601E+06        -0.60002E+08         0.00000E+00
    0.00000E+00         0.00000E+00        -0.37805E+08
 
   -0.38714E+08        -0.72486E+06         0.00000E+00
   -0.72486E+06        -0.60011E+08         0.00000E+00
    0.00000E+00         0.00000E+00        -0.37802E+08
 
   -0.38651E+08        -0.10154E+07         0.00000E+00
   -0.10154E+07        -0.60025E+08         0.00000E+00
    0.00000E+00         0.00000E+00        -0.37795E+08
 
   -0.38574E+08        -0.11299E+07         0.00000E+00
   -0.11299E+07        -0.60044E+08         0.00000E+00
    0.00000E+00         0.00000E+00        -0.37785E+08
 
   -0.38487E+08        -0.10581E+07         0.00000E+00
   -0.10581E+07        -0.60065E+08         0.00000E+00
    0.00000E+00         0.00000E+00        -0.37773E+08
 
   -0.38394E+08        -0.79532E+06         0.00000E+00
   -0.79532E+06        -0.60088E+08         0.00000E+00
    0.00000E+00         0.00000E+00        -0.37760E+08
 
   -0.38299E+08        -0.34157E+06         0.00000E+00
   -0.34157E+06        -0.60111E+08         0.00000E+00
    0.00000E+00         0.00000E+00        -0.37746E+08
 
   -0.38204E+08         0.30015E+06         0.00000E+00
    0.30015E+06        -0.60134E+08         0.00000E+00
    0.00000E+00         0.00000E+00        -0.37732E+08
 
   -0.38111E+08         0.11247E+07         0.00000E+00
    0.11247E+07        -0.60158E+08         0.00000E+00
    0.00000E+00         0.00000E+00        -0.37717E+08
 
   -0.38022E+08         0.21254E+07         0.00000E+00
    0.21254E+07        -0.60181E+08         0.00000E+00
    0.00000E+00         0.00000E+00        -0.37704E+08
 
   -0.37938E+08         0.32945E+07         0.00000E+00
    0.32945E+07        -0.60205E+08         0.00000E+00
    0.00000E+00         0.00000E+00        -0.37692E+08
 
   -0.37861E+08         0.46230E+07         0.00000E+00
    0.46230E+07        -0.60228E+08         0.00000E+00
    0.00000E+00         0.00000E+00        -0.37682E+08
 
   -0.37791E+08         0.61009E+07         0.00000E+00
    0.61009E+07        -0.60251E+08         0.00000E+00
    0.00000E+00         0.00000E+00        -0.37674E+08
 
   -0.37732E+08         0.77163E+07         0.00000E+00
    0.77163E+07        -0.60272E+08         0.00000E+00
    0.00000E+00         0.00000E+00        -0.37668E+08
 
   -0.37685E+08         0.94558E+07         0.00000E+00
    0.94558E+07        -0.60292E+08         0.00000E+00
    0.00000E+00         0.00000E+00        -0.37665E+08
 
   -0.39286E+08        -0.28446E+06         0.00000E+00
   -0.28446E+06        -0.60006E+08         0.00000E+00
    0.00000E+00         0.00000E+00        -0.35974E+08
 
   -0.39092E+08        -0.74668E+06         0.00000E+00
   -0.74668E+06        -0.60028E+08         0.00000E+00
    0.00000E+00         0.00000E+00        -0.35970E+08
 
   -0.38859E+08        -0.10464E+07         0.00000E+00
   -0.10464E+07        -0.60067E+08         0.00000E+00
    0.00000E+00         0.00000E+00        -0.35962E+08
 
   -0.38598E+08        -0.11667E+07         0.00000E+00
   -0.11667E+07        -0.60115E+08         0.00000E+00
    0.00000E+00         0.00000E+00        -0.35951E+08
 
   -0.38321E+08        -0.10981E+07         0.00000E+00
   -0.10981E+07        -0.60170E+08         0.00000E+00
    0.00000E+00         0.00000E+00        -0.35937E+08
 
   -0.38037E+08        -0.83700E+06         0.00000E+00
   -0.83700E+06        -0.60229E+08         0.00000E+00
    0.00000E+00         0.00000E+00        -0.35922E+08
 
   -0.37751E+08        -0.38413E+06         0.00000E+00
   -0.38413E+06        -0.60289E+08         0.00000E+00
    0.00000E+00         0.00000E+00        -0.35906E+08
 
   -0.37471E+08         0.25690E+06         0.00000E+00
    0.25690E+06        -0.60351E+08         0.00000E+00
    0.00000E+00         0.00000E+00        -0.35889E+08
 
   -0.37198E+08         0.10806E+07         0.00000E+00
    0.10806E+07        -0.60414E+08         0.00000E+00
    0.00000E+00         0.00000E+00        -0.35873E+08
 
   -0.36937E+08         0.20802E+07         0.00000E+00
    0.20802E+07        -0.60480E+08         0.00000E+00
    0.00000E+00         0.00000E+00        -0.35858E+08
 
   -0.36688E+08         0.32481E+07         0.00000E+00
    0.32481E+07        -0.60548E+08         0.00000E+00
    0.00000E+00         0.00000E+00        -0.35844E+08
 
   -0.36456E+08         0.45758E+07         0.00000E+00
    0.45758E+07        -0.60618E+08         0.00000E+00
    0.00000E+00         0.00000E+00        -0.35832E+08
 
   -0.36243E+08         0.60535E+07         0.00000E+00
    0.60535E+07        -0.60689E+08         0.00000E+00
    0.00000E+00         0.00000E+00        -0.35823E+08
 
   -0.36052E+08         0.76699E+07         0.00000E+00
    0.76699E+07        -0.60762E+08         0.00000E+00
    0.00000E+00         0.00000E+00        -0.35816E+08
 
   -0.35888E+08         0.94117E+07         0.00000E+00
    0.94117E+07        -0.60833E+08         0.00000E+00
    0.00000E+00         0.00000E+00        -0.35813E+08
 
   -0.39835E+08        -0.30060E+06         0.00000E+00
   -0.30060E+06        -0.60010E+08         0.00000E+00
    0.00000E+00         0.00000E+00        -0.34138E+08
 
   -0.39486E+08        -0.78795E+06         0.00000E+00
   -0.78795E+06        -0.60045E+08         0.00000E+00
    0.00000E+00         0.00000E+00        -0.34134E+08
 
   -0.39077E+08        -0.11045E+07         0.00000E+00
   -0.11045E+07        -0.60106E+08         0.00000E+00
    0.00000E+00         0.00000E+00        -0.34124E+08
 
   -0.38629E+08        -0.12350E+07         0.00000E+00
   -0.12350E+07        -0.60183E+08         0.00000E+00
    0.00000E+00         0.00000E+00        -0.34111E+08
 
   -0.38158E+08        -0.11720E+07         0.00000E+00
   -0.11720E+07        -0.60270E+08         0.00000E+00
    0.00000E+00         0.00000E+00        -0.34096E+08
 
   -0.37680E+08        -0.91392E+06         0.00000E+00
   -0.91392E+06        -0.60361E+08         0.00000E+00
    0.00000E+00         0.00000E+00        -0.34079E+08
 
   -0.37205E+08        -0.46297E+06         0.00000E+00
   -0.46297E+06        -0.60455E+08         0.00000E+00
    0.00000E+00         0.00000E+00        -0.34060E+08
 
   -0.36739E+08         0.17604E+06         0.00000E+00
    0.17604E+06        -0.60552E+08         0.00000E+00
    0.00000E+00         0.00000E+00        -0.34042E+08
 
   -0.36287E+08         0.99696E+06         0.00000E+00
    0.99696E+06        -0.60652E+08         0.00000E+00
    0.00000E+00         0.00000E+00        -0.34024E+08
 
   -0.35854E+08         0.19930E+07         0.00000E+00
    0.19930E+07        -0.60757E+08         0.00000E+00
    0.00000E+00         0.00000E+00        -0.34007E+08
 
   -0.35441E+08         0.31569E+07         0.00000E+00
    0.31569E+07        -0.60867E+08         0.00000E+00
    0.00000E+00         0.00000E+00        -0.33991E+08
 
   -0.35054E+08         0.44809E+07         0.00000E+00
    0.44809E+07        -0.60982E+08         0.00000E+00
    0.00000E+00         0.00000E+00        -0.33978E+08
 
   -0.34695E+08         0.59561E+07         0.00000E+00
    0.59561E+07        -0.61103E+08         0.00000E+00
    0.00000E+00         0.00000E+00        -0.33968E+08
 
   -0.34371E+08         0.75720E+07         0.00000E+00
    0.75720E+07        -0.61226E+08         0.00000E+00
    0.00000E+00         0.00000E+00        -0.33960E+08
 
   -0.34087E+08         0.93160E+07         0.00000E+00
    0.93160E+07        -0.61349E+08         0.00000E+00
    0.00000E+00         0.00000E+00        -0.33957E+08
 
   -0.40421E+08        -0.32414E+06         0.00000E+00
   -0.32414E+06        -0.60014E+08         0.00000E+00
    0.00000E+00         0.00000E+00        -0.32296E+08
 
   -0.39905E+08        -0.84762E+06         0.00000E+00
   -0.84762E+06        -0.60062E+08         0.00000E+00
    0.00000E+00         0.00000E+00        -0.32291E+08
 
   -0.39311E+08        -0.11876E+07         0.00000E+00
   -0.11876E+07        -0.60143E+08         0.00000E+00
    0.00000E+00         0.00000E+00        -0.32280E+08
 
   -0.38668E+08        -0.13319E+07         0.00000E+00
   -0.13319E+07        -0.60245E+08         0.00000E+00
    0.00000E+00         0.00000E+00        -0.32266E+08
 
   -0.38000E+08        -0.12761E+07         0.00000E+00
   -0.12761E+07        -0.60358E+08         0.00000E+00
    0.00000E+00         0.00000E+00        -0.32248E+08
 
   -0.37327E+08        -0.10217E+07         0.00000E+00
   -0.10217E+07        -0.60477E+08         0.00000E+00
    0.00000E+00         0.00000E+00        -0.32229E+08
 
   -0.36661E+08        -0.57346E+06         0.00000E+00
   -0.57346E+06        -0.60600E+08         0.00000E+00
    0.00000E+00         0.00000E+00        -0.32209E+08
 
   -0.36010E+08         0.62027E+05         0.00000E+00
    0.62027E+05        -0.60726E+08         0.00000E+00
    0.00000E+00         0.00000E+00        -0.32188E+08
 
   -0.35381E+08         0.87774E+06         0.00000E+00
    0.87774E+06        -0.60857E+08         0.00000E+00
    0.00000E+00         0.00000E+00        -0.32168E+08
 
   -0.34777E+08         0.18669E+07         0.00000E+00
    0.18669E+07        -0.60997E+08         0.00000E+00
    0.00000E+00         0.00000E+00        -0.32150E+08
 
   -0.34200E+08         0.30229E+07         0.00000E+00
    0.30229E+07        -0.61146E+08         0.00000E+00
    0.00000E+00         0.00000E+00        -0.32133E+08
 
   -0.33656E+08         0.43392E+07         0.00000E+00
    0.43392E+07        -0.61305E+08         0.00000E+00
    0.00000E+00         0.00000E+00        -0.32118E+08
 
   -0.33150E+08         0.58086E+07         0.00000E+00
    0.58086E+07        -0.61474E+08         0.00000E+00
    0.00000E+00         0.00000E+00        -0.32107E+08
 
   -0.32690E+08         0.74219E+07         0.00000E+00
    0.74219E+07        -0.61648E+08         0.00000E+00
    0.00000E+00         0.00000E+00        -0.32099E+08
 
   -0.32282E+08         0.91676E+07         0.00000E+00
    0.91676E+07        -0.61824E+08         0.00000E+00
    0.00000E+00         0.00000E+00        -0.32094E+08
 
   -0.41056E+08        -0.35465E+06         0.00000E+00
   -0.35465E+06        -0.60017E+08         0.00000E+00
    0.00000E+00         0.00000E+00        -0.30446E+08
 
   -0.40358E+08        -0.92406E+06         0.00000E+00
   -0.92406E+06        -0.60076E+08         0.00000E+00
    0.00000E+00         0.00000E+00        -0.30440E+08
 
   -0.39565E+08        -0.12927E+07         0.00000E+00
   -0.12927E+07        -0.60175E+08         0.00000E+00
    0.00000E+00         0.00000E+00        -0.30428E+08
 
   -0.38718E+08        -0.14527E+07         0.00000E+00
   -0.14527E+07        -0.60298E+08         0.00000E+00
    0.00000E+00         0.00000E+00        -0.30412E+08
 
   -0.37847E+08        -0.14043E+07         0.00000E+00
   -0.14043E+07        -0.60432E+08         0.00000E+00
    0.00000E+00         0.00000E+00        -0.30393E+08
 
   -0.36976E+08        -0.11534E+07         0.00000E+00
   -0.11534E+07        -0.60570E+08         0.00000E+00
    0.00000E+00         0.00000E+00        -0.30372E+08
 
   -0.36120E+08        -0.70846E+06         0.00000E+00
   -0.70846E+06        -0.60712E+08         0.00000E+00
    0.00000E+00         0.00000E+00        -0.30349E+08
 
   -0.35287E+08        -0.78304E+05         0.00000E+00
   -0.78304E+05        -0.60859E+08         0.00000E+00
    0.00000E+00         0.00000E+00        -0.30327E+08
 
   -0.34483E+08         0.72890E+06         0.00000E+00
    0.72890E+06        -0.61015E+08         0.00000E+00
    0.00000E+00         0.00000E+00        -0.30305E+08
 
   -0.33709E+08         0.17065E+07         0.00000E+00
    0.17065E+07        -0.61183E+08         0.00000E+00
    0.00000E+00         0.00000E+00        -0.30285E+08
 
   -0.32970E+08         0.28492E+07         0.00000E+00
    0.28492E+07        -0.61366E+08         0.00000E+00
    0.00000E+00         0.00000E+00        -0.30267E+08
 
   -0.32269E+08         0.41523E+07         0.00000E+00
    0.41523E+07        -0.61567E+08         0.00000E+00
    0.00000E+00         0.00000E+00        -0.30251E+08
 
   -0.31612E+08         0.56108E+07         0.00000E+00
    0.56108E+07        -0.61783E+08         0.00000E+00
    0.00000E+00         0.00000E+00        -0.30239E+08
 
   -0.31010E+08         0.72181E+07         0.00000E+00
    0.72181E+07        -0.62010E+08         0.00000E+00
    0.00000E+00         0.00000E+00        -0.30230E+08
 
   -0.30474E+08         0.89642E+07         0.00000E+00
    0.89642E+07        -0.62242E+08         0.00000E+00
    0.00000E+00         0.00000E+00        -0.30225E+08
 
   -0.41753E+08        -0.39153E+06         0.00000E+00
   -0.39153E+06        -0.60020E+08         0.00000E+00
    0.00000E+00         0.00000E+00        -0.28587E+08
 
   -0.40850E+08        -0.10149E+07         0.00000E+00
   -0.10149E+07        -0.60089E+08         0.00000E+00
    0.00000E+00         0.00000E+00        -0.28579E+08
 
   -0.39841E+08        -0.14153E+07         0.00000E+00
   -0.14153E+07        -0.60202E+08         0.00000E+00
    0.00000E+00         0.00000E+00        -0.28566E+08
 
   -0.38778E+08        -0.15906E+07         0.00000E+00
   -0.15906E+07        -0.60338E+08         0.00000E+00
    0.00000E+00         0.00000E+00        -0.28549E+08
 
   -0.37698E+08        -0.15481E+07         0.00000E+00
   -0.15481E+07        -0.60483E+08         0.00000E+00
    0.00000E+00         0.00000E+00        -0.28528E+08
 
   -0.36628E+08        -0.12995E+07         0.00000E+00
   -0.12995E+07        -0.60631E+08         0.00000E+00
    0.00000E+00         0.00000E+00        -0.28505E+08
 
   -0.35584E+08        -0.85804E+06         0.00000E+00
   -0.85804E+06        -0.60782E+08         0.00000E+00
    0.00000E+00         0.00000E+00        -0.28481E+08
 
   -0.34573E+08        -0.23559E+06         0.00000E+00
   -0.23559E+06        -0.60939E+08         0.00000E+00
    0.00000E+00         0.00000E+00        -0.28457E+08
 
   -0.33597E+08         0.55853E+06         0.00000E+00
    0.55853E+06        -0.61108E+08         0.00000E+00
    0.00000E+00         0.00000E+00        -0.28433E+08
 
   -0.32659E+08         0.15181E+07         0.00000E+00
    0.15181E+07        -0.61296E+08         0.00000E+00
    0.00000E+00         0.00000E+00        -0.28412E+08
 
   -0.31757E+08         0.26398E+07         0.00000E+00
    0.26398E+07        -0.61509E+08         0.00000E+00
    0.00000E+00         0.00000E+00        -0.28392E+08
 
   -0.30897E+08         0.39216E+07         0.00000E+00
    0.39216E+07        -0.61748E+08         0.00000E+00
    0.00000E+00         0.00000E+00        -0.28376E+08
 
   -0.30086E+08         0.53623E+07         0.00000E+00
    0.53623E+07        -0.62011E+08         0.00000E+00
    0.00000E+00         0.00000E+00        -0.28362E+08
 
   -0.29335E+08         0.69582E+07         0.00000E+00
    0.69582E+07        -0.62293E+08         0.00000E+00
    0.00000E+00         0.00000E+00        -0.28353E+08
 
   -0.28662E+08         0.87022E+07         0.00000E+00
    0.87022E+07        -0.62584E+08         0.00000E+00
    0.00000E+00         0.00000E+00        -0.28348E+08
 
   -0.42522E+08        -0.43402E+06         0.00000E+00
   -0.43402E+06        -0.60023E+08         0.00000E+00
    0.00000E+00         0.00000E+00        -0.26715E+08
 
   -0.41385E+08        -0.11171E+07         0.00000E+00
   -0.11171E+07        -0.60099E+08         0.00000E+00
    0.00000E+00         0.00000E+00        -0.26707E+08
 
   -0.40139E+08        -0.15490E+07         0.00000E+00
   -0.15490E+07        -0.60220E+08         0.00000E+00
    0.00000E+00         0.00000E+00        -0.26693E+08
 
   -0.38846E+08        -0.17365E+07         0.00000E+00
   -0.17365E+07        -0.60361E+08         0.00000E+00
    0.00000E+00         0.00000E+00        -0.26673E+08
 
   -0.37551E+08        -0.16959E+07         0.00000E+00
   -0.16959E+07        -0.60506E+08         0.00000E+00
    0.00000E+00         0.00000E+00        -0.26651E+08
 
   -0.36282E+08        -0.14471E+07         0.00000E+00
   -0.14471E+07        -0.60649E+08         0.00000E+00
    0.00000E+00         0.00000E+00        -0.26626E+08
 
   -0.35054E+08        -0.10092E+07         0.00000E+00
   -0.10092E+07        -0.60793E+08         0.00000E+00
    0.00000E+00         0.00000E+00        -0.26601E+08
 
   -0.33871E+08        -0.39780E+06         0.00000E+00
   -0.39780E+06        -0.60946E+08         0.00000E+00
    0.00000E+00         0.00000E+00        -0.26576E+08
 
   -0.32732E+08         0.37687E+06         0.00000E+00
    0.37687E+06        -0.61117E+08         0.00000E+00
    0.00000E+00         0.00000E+00        -0.26551E+08
 
   -0.31633E+08         0.13096E+07         0.00000E+00
    0.13096E+07        -0.61316E+08         0.00000E+00
    0.00000E+00         0.00000E+00        -0.26529E+08
 
   -0.30572E+08         0.23995E+07         0.00000E+00
    0.23995E+07        -0.61550E+08         0.00000E+00
    0.00000E+00         0.00000E+00        -0.26508E+08
 
   -0.29551E+08         0.36491E+07         0.00000E+00
    0.36491E+07        -0.61824E+08         0.00000E+00
    0.00000E+00         0.00000E+00        -0.26491E+08
 
   -0.28579E+08         0.50615E+07         0.00000E+00
    0.50615E+07        -0.62134E+08         0.00000E+00
    0.00000E+00         0.00000E+00        -0.26477E+08
 
   -0.27670E+08         0.66384E+07         0.00000E+00
    0.66384E+07        -0.62474E+08         0.00000E+00
    0.00000E+00         0.00000E+00        -0.26467E+08
 
   -0.26847E+08         0.83765E+07         0.00000E+00
    0.83765E+07        -0.62830E+08         0.00000E+00
    0.00000E+00         0.00000E+00        -0.26462E+08
 
   -0.43370E+08        -0.48118E+06         0.00000E+00
   -0.48118E+06        -0.60025E+08         0.00000E+00
    0.00000E+00         0.00000E+00        -0.24829E+08
 
   -0.41964E+08        -0.12264E+07         0.00000E+00
   -0.12264E+07        -0.60105E+08         0.00000E+00
    0.00000E+00         0.00000E+00        -0.24821E+08
 
   -0.40454E+08        -0.16856E+07         0.00000E+00
   -0.16856E+07        -0.60227E+08         0.00000E+00
    0.00000E+00         0.00000E+00        -0.24805E+08
 
   -0.38917E+08        -0.18778E+07         0.00000E+00
   -0.18778E+07        -0.60361E+08         0.00000E+00
    0.00000E+00         0.00000E+00        -0.24785E+08
 
   -0.37401E+08        -0.18322E+07         0.00000E+00
   -0.18322E+07        -0.60489E+08         0.00000E+00
    0.00000E+00         0.00000E+00        -0.24761E+08
 
   -0.35937E+08        -0.15794E+07         0.00000E+00
   -0.15794E+07        -0.60609E+08         0.00000E+00
    0.00000E+00         0.00000E+00        -0.24735E+08
 
   -0.34533E+08        -0.11458E+07         0.00000E+00
   -0.11458E+07        -0.60729E+08         0.00000E+00
    0.00000E+00         0.00000E+00        -0.24709E+08
 
   -0.33188E+08        -0.55021E+06         0.00000E+00
   -0.55021E+06        -0.60861E+08         0.00000E+00
    0.00000E+00         0.00000E+00        -0.24683E+08
 
   -0.31895E+08         0.19620E+06         0.00000E+00
    0.19620E+06        -0.61019E+08         0.00000E+00
    0.00000E+00         0.00000E+00        -0.24658E+08
 
   -0.30643E+08         0.10900E+07         0.00000E+00
    0.10900E+07        -0.61217E+08         0.00000E+00
    0.00000E+00         0.00000E+00        -0.24634E+08
 
   -0.29426E+08         0.21340E+07         0.00000E+00
    0.21340E+07        -0.61465E+08         0.00000E+00
    0.00000E+00         0.00000E+00        -0.24613E+08
 
   -0.28243E+08         0.33361E+07         0.00000E+00
    0.33361E+07        -0.61770E+08         0.00000E+00
    0.00000E+00         0.00000E+00        -0.24596E+08
 
   -0.27103E+08         0.47061E+07         0.00000E+00
    0.47061E+07        -0.62128E+08         0.00000E+00
    0.00000E+00         0.00000E+00        -0.24581E+08
 
   -0.26023E+08         0.62528E+07         0.00000E+00
    0.62528E+07        -0.62531E+08         0.00000E+00
    0.00000E+00         0.00000E+00        -0.24571E+08
 
   -0.25033E+08         0.79792E+07         0.00000E+00
    0.79792E+07        -0.62960E+08         0.00000E+00
    0.00000E+00         0.00000E+00        -0.24566E+08
 
   -0.44304E+08        -0.53188E+06         0.00000E+00
   -0.53188E+06        -0.60027E+08         0.00000E+00
    0.00000E+00         0.00000E+00        -0.22927E+08
 
   -0.42583E+08        -0.13371E+07         0.00000E+00
   -0.13371E+07        -0.60107E+08         0.00000E+00
    0.00000E+00         0.00000E+00        -0.22918E+08
 
   -0.40778E+08        -0.18130E+07         0.00000E+00
   -0.18130E+07        -0.60220E+08         0.00000E+00
    0.00000E+00         0.00000E+00        -0.22902E+08
 
   -0.38979E+08        -0.19973E+07         0.00000E+00
   -0.19973E+07        -0.60328E+08         0.00000E+00
    0.00000E+00         0.00000E+00        -0.22880E+08
 
   -0.37242E+08        -0.19369E+07         0.00000E+00
   -0.19369E+07        -0.60418E+08         0.00000E+00
    0.00000E+00         0.00000E+00        -0.22856E+08
 
   -0.35590E+08        -0.16759E+07         0.00000E+00
   -0.16759E+07        -0.60493E+08         0.00000E+00
    0.00000E+00         0.00000E+00        -0.22829E+08
 
   -0.34024E+08        -0.12482E+07         0.00000E+00
   -0.12482E+07        -0.60566E+08         0.00000E+00
    0.00000E+00         0.00000E+00        -0.22803E+08
 
   -0.32532E+08        -0.67585E+06         0.00000E+00
   -0.67585E+06        -0.60658E+08         0.00000E+00
    0.00000E+00         0.00000E+00        -0.22776E+08
 
   -0.31098E+08         0.30463E+05         0.00000E+00
    0.30463E+05        -0.60787E+08         0.00000E+00
    0.00000E+00         0.00000E+00        -0.22751E+08
 
   -0.29705E+08         0.86971E+06         0.00000E+00
    0.86971E+06        -0.60971E+08         0.00000E+00
    0.00000E+00         0.00000E+00        -0.22728E+08
 
   -0.28338E+08         0.18494E+07         0.00000E+00
    0.18494E+07        -0.61225E+08         0.00000E+00
    0.00000E+00         0.00000E+00        -0.22707E+08
 
   -0.26992E+08         0.29839E+07         0.00000E+00
    0.29839E+07        -0.61557E+08         0.00000E+00
    0.00000E+00         0.00000E+00        -0.22689E+08
 
   -0.25673E+08         0.42922E+07         0.00000E+00
    0.42922E+07        -0.61965E+08         0.00000E+00
    0.00000E+00         0.00000E+00        -0.22675E+08
 
   -0.24403E+08         0.57931E+07         0.00000E+00
    0.57931E+07        -0.62438E+08         0.00000E+00
    0.00000E+00         0.00000E+00        -0.22664E+08
 
   -0.23221E+08         0.74990E+07         0.00000E+00
    0.74990E+07        -0.62953E+08         0.00000E+00
    0.00000E+00         0.00000E+00        -0.22659E+08
 
   -0.45324E+08        -0.58466E+06         0.00000E+00
   -0.58466E+06        -0.60027E+08         0.00000E+00
    0.00000E+00         0.00000E+00        -0.21007E+08
 
   -0.43231E+08        -0.14408E+07         0.00000E+00
   -0.14408E+07        -0.60102E+08         0.00000E+00
    0.00000E+00         0.00000E+00        -0.20997E+08
 
   -0.41093E+08        -0.19143E+07         0.00000E+00
   -0.19143E+07        -0.60189E+08         0.00000E+00
    0.00000E+00         0.00000E+00        -0.20980E+08
 
   -0.39021E+08        -0.20714E+07         0.00000E+00
   -0.20714E+07        -0.60249E+08         0.00000E+00
    0.00000E+00         0.00000E+00        -0.20958E+08
 
   -0.37066E+08        -0.19841E+07         0.00000E+00
   -0.19841E+07        -0.60272E+08         0.00000E+00
    0.00000E+00         0.00000E+00        -0.20933E+08
 
   -0.35241E+08        -0.17119E+07         0.00000E+00
   -0.17119E+07        -0.60273E+08         0.00000E+00
    0.00000E+00         0.00000E+00        -0.20907E+08
 
   -0.33533E+08        -0.12950E+07         0.00000E+00
   -0.12950E+07        -0.60276E+08         0.00000E+00
    0.00000E+00         0.00000E+00        -0.20881E+08
 
   -0.31915E+08        -0.75657E+06         0.00000E+00
   -0.75657E+06        -0.60307E+08         0.00000E+00
    0.00000E+00         0.00000E+00        -0.20856E+08
 
   -0.30359E+08        -0.10573E+06         0.00000E+00
   -0.10573E+06        -0.60391E+08         0.00000E+00
    0.00000E+00         0.00000E+00        -0.20831E+08
 
   -0.28837E+08         0.65973E+06         0.00000E+00
    0.65973E+06        -0.60549E+08         0.00000E+00
    0.00000E+00         0.00000E+00        -0.20809E+08
 
   -0.27328E+08         0.15522E+07         0.00000E+00
    0.15522E+07        -0.60800E+08         0.00000E+00
    0.00000E+00         0.00000E+00        -0.20788E+08
 
   -0.25819E+08         0.25936E+07         0.00000E+00
    0.25936E+07        -0.61155E+08         0.00000E+00
    0.00000E+00         0.00000E+00        -0.20771E+08
 
   -0.24310E+08         0.38140E+07         0.00000E+00
    0.38140E+07        -0.61616E+08         0.00000E+00
    0.00000E+00         0.00000E+00        -0.20757E+08
 
   -0.22827E+08         0.52469E+07         0.00000E+00
    0.52469E+07        -0.62170E+08         0.00000E+00
    0.00000E+00         0.00000E+00        -0.20746E+08
 
   -0.21418E+08         0.69195E+07         0.00000E+00
    0.69195E+07        -0.62786E+08         0.00000E+00
    0.00000E+00         0.00000E+00        -0.20741E+08
 
   -0.46427E+08        -0.63749E+06         0.00000E+00
   -0.63749E+06        -0.60027E+08         0.00000E+00
    0.00000E+00         0.00000E+00        -0.19066E+08
 
   -0.43885E+08        -0.15241E+07         0.00000E+00
   -0.15241E+07        -0.60085E+08         0.00000E+00
    0.00000E+00         0.00000E+00        -0.19056E+08
 
   -0.41375E+08        -0.19629E+07         0.00000E+00
   -0.19629E+07        -0.60122E+08         0.00000E+00
    0.00000E+00         0.00000E+00        -0.19038E+08
 
   -0.39023E+08        -0.20670E+07         0.00000E+00
   -0.20670E+07        -0.60096E+08         0.00000E+00
    0.00000E+00         0.00000E+00        -0.19017E+08
 
   -0.36868E+08        -0.19416E+07         0.00000E+00
   -0.19416E+07        -0.60015E+08         0.00000E+00
    0.00000E+00         0.00000E+00        -0.18993E+08
 
   -0.34896E+08        -0.16599E+07         0.00000E+00
   -0.16599E+07        -0.59911E+08         0.00000E+00
    0.00000E+00         0.00000E+00        -0.18968E+08
 
   -0.33071E+08        -0.12642E+07         0.00000E+00
   -0.12642E+07        -0.59820E+08         0.00000E+00
    0.00000E+00         0.00000E+00        -0.18943E+08
 
   -0.31351E+08        -0.77521E+06         0.00000E+00
   -0.77521E+06        -0.59773E+08         0.00000E+00
    0.00000E+00         0.00000E+00        -0.18919E+08
 
   -0.29694E+08        -0.19872E+06         0.00000E+00
   -0.19872E+06        -0.59798E+08         0.00000E+00
    0.00000E+00         0.00000E+00        -0.18896E+08
 
   -0.28063E+08         0.47079E+06         0.00000E+00
    0.47079E+06        -0.59918E+08         0.00000E+00
    0.00000E+00         0.00000E+00        -0.18876E+08
 
   -0.26425E+08         0.12496E+07         0.00000E+00
    0.12496E+07        -0.60157E+08         0.00000E+00
    0.00000E+00         0.00000E+00        -0.18857E+08
 
   -0.24755E+08         0.21666E+07         0.00000E+00
    0.21666E+07        -0.60530E+08         0.00000E+00
    0.00000E+00         0.00000E+00        -0.18840E+08
 
   -0.23044E+08         0.32646E+07         0.00000E+00
    0.32646E+07        -0.61046E+08         0.00000E+00
    0.00000E+00         0.00000E+00        -0.18827E+08
 
   -0.21316E+08         0.45977E+07         0.00000E+00
    0.45977E+07        -0.61694E+08         0.00000E+00
    0.00000E+00         0.00000E+00        -0.18817E+08
 
   -0.19631E+08         0.62171E+07         0.00000E+00
    0.62171E+07        -0.62436E+08         0.00000E+00
    0.00000E+00         0.00000E+00        -0.18812E+08
 
   -0.47599E+08        -0.68690E+06         0.00000E+00
   -0.68690E+06        -0.60024E+08         0.00000E+00
    0.00000E+00         0.00000E+00        -0.17101E+08
 
   -0.44506E+08        -0.15625E+07         0.00000E+00
   -0.15625E+07        -0.60046E+08         0.00000E+00
    0.00000E+00         0.00000E+00        -0.17091E+08
 
   -0.41587E+08        -0.19158E+07         0.00000E+00
   -0.19158E+07        -0.59987E+08         0.00000E+00
    0.00000E+00         0.00000E+00        -0.17074E+08
 
   -0.38969E+08        -0.19387E+07         0.00000E+00
   -0.19387E+07        -0.59821E+08         0.00000E+00
    0.00000E+00         0.00000E+00        -0.17054E+08
 
   -0.36648E+08        -0.17727E+07         0.00000E+00
   -0.17727E+07        -0.59593E+08         0.00000E+00
    0.00000E+00         0.00000E+00        -0.17032E+08
 
   -0.34565E+08        -0.14941E+07         0.00000E+00
   -0.14941E+07        -0.59355E+08         0.00000E+00
    0.00000E+00         0.00000E+00        -0.17009E+08
 
   -0.32655E+08        -0.11382E+07         0.00000E+00
   -0.11382E+07        -0.59152E+08         0.00000E+00
    0.00000E+00         0.00000E+00        -0.16987E+08
 
   -0.30860E+08        -0.71918E+06         0.00000E+00
   -0.71918E+06        -0.59015E+08         0.00000E+00
    0.00000E+00         0.00000E+00        -0.16966E+08
 
   -0.29126E+08        -0.23842E+06         0.00000E+00
   -0.23842E+06        -0.58973E+08         0.00000E+00
    0.00000E+00         0.00000E+00        -0.16947E+08
 
   -0.27407E+08         0.31195E+06         0.00000E+00
    0.31195E+06        -0.59049E+08         0.00000E+00
    0.00000E+00         0.00000E+00        -0.16928E+08
 
   -0.25657E+08         0.94981E+06         0.00000E+00
    0.94981E+06        -0.59268E+08         0.00000E+00
    0.00000E+00         0.00000E+00        -0.16912E+08
 
   -0.23836E+08         0.17070E+07         0.00000E+00
    0.17070E+07        -0.59652E+08         0.00000E+00
    0.00000E+00         0.00000E+00        -0.16897E+08
 
   -0.21917E+08         0.26376E+07         0.00000E+00
    0.26376E+07        -0.60222E+08         0.00000E+00
    0.00000E+00         0.00000E+00        -0.16885E+08
 
   -0.19906E+08         0.38232E+07         0.00000E+00
    0.38232E+07        -0.60978E+08         0.00000E+00
    0.00000E+00         0.00000E+00        -0.16876E+08
 
   -0.17876E+08         0.53572E+07         0.00000E+00
    0.53572E+07        -0.61880E+08         0.00000E+00
    0.00000E+00         0.00000E+00        -0.16871E+08
 
   -0.48804E+08        -0.72472E+06         0.00000E+00
   -0.72472E+06        -0.60013E+08         0.00000E+00
    0.00000E+00         0.00000E+00        -0.15110E+08
 
   -0.45023E+08        -0.15037E+07         0.00000E+00
   -0.15037E+07        -0.59954E+08         0.00000E+00
    0.00000E+00         0.00000E+00        -0.15100E+08
 
   -0.41687E+08        -0.17007E+07         0.00000E+00
   -0.17007E+07        -0.59710E+08         0.00000E+00
    0.00000E+00         0.00000E+00        -0.15085E+08
 
   -0.38857E+08        -0.16315E+07         0.00000E+00
   -0.16315E+07        -0.59334E+08         0.00000E+00
    0.00000E+00         0.00000E+00        -0.15067E+08
 
   -0.36423E+08        -0.14460E+07         0.00000E+00
   -0.14460E+07        -0.58921E+08         0.00000E+00
    0.00000E+00         0.00000E+00        -0.15049E+08
 
   -0.34270E+08        -0.11987E+07         0.00000E+00
   -0.11987E+07        -0.58535E+08         0.00000E+00
    0.00000E+00         0.00000E+00        -0.15031E+08
 
   -0.32307E+08        -0.90975E+06         0.00000E+00
   -0.90975E+06        -0.58216E+08         0.00000E+00
    0.00000E+00         0.00000E+00        -0.15013E+08
 
   -0.30463E+08        -0.58479E+06         0.00000E+00
   -0.58479E+06        -0.57992E+08         0.00000E+00
    0.00000E+00         0.00000E+00        -0.14997E+08
 
   -0.28677E+08        -0.22156E+06         0.00000E+00
   -0.22156E+06        -0.57885E+08         0.00000E+00
    0.00000E+00         0.00000E+00        -0.14981E+08
 
   -0.26892E+08         0.18834E+06         0.00000E+00
    0.18834E+06        -0.57916E+08         0.00000E+00
    0.00000E+00         0.00000E+00        -0.14967E+08
 
   -0.25054E+08         0.66084E+06         0.00000E+00
    0.66084E+06        -0.58110E+08         0.00000E+00
    0.00000E+00         0.00000E+00        -0.14953E+08
 
   -0.23106E+08         0.12245E+07         0.00000E+00
    0.12245E+07        -0.58494E+08         0.00000E+00
    0.00000E+00         0.00000E+00        -0.14942E+08
 
   -0.20984E+08         0.19330E+07         0.00000E+00
    0.19330E+07        -0.59107E+08         0.00000E+00
    0.00000E+00         0.00000E+00        -0.14932E+08
 
   -0.18654E+08         0.28971E+07         0.00000E+00
    0.28971E+07        -0.59982E+08         0.00000E+00
    0.00000E+00         0.00000E+00        -0.14924E+08
 
   -0.16176E+08         0.42864E+07         0.00000E+00
    0.42864E+07        -0.61090E+08         0.00000E+00
    0.00000E+00         0.00000E+00        -0.14920E+08
 
   -0.49950E+08        -0.72036E+06         0.00000E+00
   -0.72036E+06        -0.59975E+08         0.00000E+00
    0.00000E+00         0.00000E+00        -0.13089E+08
 
   -0.45327E+08        -0.12159E+07         0.00000E+00
   -0.12159E+07        -0.59682E+08         0.00000E+00
    0.00000E+00         0.00000E+00        -0.13081E+08
 
   -0.41666E+08        -0.12196E+07         0.00000E+00
   -0.12196E+07        -0.59117E+08         0.00000E+00
    0.00000E+00         0.00000E+00        -0.13070E+08
 
   -0.38720E+08        -0.11074E+07         0.00000E+00
   -0.11074E+07        -0.58485E+08         0.00000E+00
    0.00000E+00         0.00000E+00        -0.13057E+08
 
   -0.36230E+08        -0.95384E+06         0.00000E+00
   -0.95384E+06        -0.57889E+08         0.00000E+00
    0.00000E+00         0.00000E+00        -0.13045E+08
 
   -0.34043E+08        -0.77895E+06         0.00000E+00
   -0.77895E+06        -0.57372E+08         0.00000E+00
    0.00000E+00         0.00000E+00        -0.13033E+08
 
   -0.32054E+08        -0.58817E+06         0.00000E+00
   -0.58817E+06        -0.56957E+08         0.00000E+00
    0.00000E+00         0.00000E+00        -0.13021E+08
 
   -0.30183E+08        -0.38120E+06         0.00000E+00
   -0.38120E+06        -0.56663E+08         0.00000E+00
    0.00000E+00         0.00000E+00        -0.13010E+08
 
   -0.28365E+08        -0.15458E+06         0.00000E+00
   -0.15458E+06        -0.56505E+08         0.00000E+00
    0.00000E+00         0.00000E+00        -0.13000E+08
 
   -0.26538E+08         0.98127E+05         0.00000E+00
    0.98127E+05        -0.56500E+08         0.00000E+00
    0.00000E+00         0.00000E+00        -0.12990E+08
 
   -0.24641E+08         0.38775E+06         0.00000E+00
    0.38775E+06        -0.56671E+08         0.00000E+00
    0.00000E+00         0.00000E+00        -0.12982E+08
 
   -0.22599E+08         0.73353E+06         0.00000E+00
    0.73353E+06        -0.57049E+08         0.00000E+00
    0.00000E+00         0.00000E+00        -0.12974E+08
 
   -0.20321E+08         0.11735E+07         0.00000E+00
    0.11735E+07        -0.57681E+08         0.00000E+00
    0.00000E+00         0.00000E+00        -0.12967E+08
 
   -0.17664E+08         0.18007E+07         0.00000E+00
    0.18007E+07        -0.58647E+08         0.00000E+00
    0.00000E+00         0.00000E+00        -0.12962E+08
 
   -0.14589E+08         0.29139E+07         0.00000E+00
    0.29139E+07        -0.60028E+08         0.00000E+00
    0.00000E+00         0.00000E+00        -0.12958E+08
 
   -0.50763E+08        -0.43751E+06         0.00000E+00
   -0.43751E+06        -0.59575E+08         0.00000E+00
    0.00000E+00         0.00000E+00        -0.11035E+08
 
   -0.45372E+08        -0.49501E+06         0.00000E+00
   -0.49501E+06        -0.58797E+08         0.00000E+00
    0.00000E+00         0.00000E+00        -0.11032E+08
 
   -0.41605E+08        -0.44933E+06         0.00000E+00
   -0.44933E+06        -0.57913E+08         0.00000E+00
    0.00000E+00         0.00000E+00        -0.11028E+08
 
   -0.38622E+08        -0.39402E+06         0.00000E+00
   -0.39402E+06        -0.57098E+08         0.00000E+00
    0.00000E+00         0.00000E+00        -0.11023E+08
 
   -0.36116E+08        -0.33344E+06         0.00000E+00
   -0.33344E+06        -0.56386E+08         0.00000E+00
    0.00000E+00         0.00000E+00        -0.11019E+08
 
   -0.33919E+08        -0.26980E+06         0.00000E+00
   -0.26980E+06        -0.55793E+08         0.00000E+00
    0.00000E+00         0.00000E+00        -0.11014E+08
 
   -0.31920E+08        -0.20290E+06         0.00000E+00
   -0.20290E+06        -0.55327E+08         0.00000E+00
    0.00000E+00         0.00000E+00        -0.11010E+08
 
   -0.30038E+08        -0.13174E+06         0.00000E+00
   -0.13174E+06        -0.54997E+08         0.00000E+00
    0.00000E+00         0.00000E+00        -0.11006E+08
 
   -0.28205E+08        -0.54713E+05         0.00000E+00
   -0.54713E+05        -0.54813E+08         0.00000E+00
    0.00000E+00         0.00000E+00        -0.11003E+08
 
   -0.26358E+08         0.30599E+05         0.00000E+00
    0.30599E+05        -0.54791E+08         0.00000E+00
    0.00000E+00         0.00000E+00        -0.10999E+08
 
   -0.24431E+08         0.12801E+06         0.00000E+00
    0.12801E+06        -0.54951E+08         0.00000E+00
    0.00000E+00         0.00000E+00        -0.10996E+08
 
   -0.22341E+08         0.24413E+06         0.00000E+00
    0.24413E+06        -0.55324E+08         0.00000E+00
    0.00000E+00         0.00000E+00        -0.10993E+08
 
   -0.19976E+08         0.39273E+06         0.00000E+00
    0.39273E+06        -0.55961E+08         0.00000E+00
    0.00000E+00         0.00000E+00        -0.10991E+08
 
   -0.17135E+08         0.60453E+06         0.00000E+00
    0.60453E+06        -0.56958E+08         0.00000E+00
    0.00000E+00         0.00000E+00        -0.10989E+08
 
   -0.13276E+08         0.10688E+07         0.00000E+00
    0.10688E+07        -0.58586E+08         0.00000E+00
    0.00000E+00         0.00000E+00        -0.10988E+08
 
SCALARS stresss double 
LOOKUP_TABLE default
  -50825986.9757687     
  -52790768.1530259     
  -54301375.1373434     
  -55552575.0315437     
  -56624394.8120345     
  -57563069.8111861     
  -58398831.3078021     
  -59153512.5580536     
  -59844285.0098235     
  -60485926.6673252     
  -61092600.1422071     
  -61679844.3564086     
  -62268022.4755051     
  -62889754.3404955     
  -63634190.8807662     
  -50343198.7445603     
  -51926616.9136818     
  -53298057.7613558     
  -54471066.8011717     
  -55492487.3435408     
  -56395050.8556310     
  -57202901.7645466     
  -57934553.4068253     
  -58605056.5142445     
  -59227498.1862855     
  -59814212.5439734     
  -60378007.5534897     
  -60933336.4411790     
  -61499205.5044324     
  -62061131.3875797     
  -50070491.7474977     
  -51324926.9916114     
  -52493384.7143633     
  -53545020.0682068     
  -54484749.6924784     
  -55328076.8165261     
  -56090030.7865456     
  -56783886.1920721     
  -57421217.9561239     
  -58012322.9858231     
  -58566626.2049087     
  -59092817.9214400     
  -59598422.6742255     
  -60083359.8274739     
  -60536039.8767897     
  -49827618.7373466     
  -50842918.6047292     
  -51822996.3604595     
  -52738852.2968988     
  -53580324.4418390     
  -54349205.1137444     
  -55052062.1819718     
  -55696620.6016546     
  -56290526.8642328     
  -56840872.2422973     
  -57353897.1573856     
  -57834486.6822273     
  -58284558.0874849     
  -58701068.5357122     
  -59073821.6316102     
  -49579984.9306083     
  -50410519.7731533     
  -51230897.9704409     
  -52017198.5554468     
  -52756247.0537118     
  -53443363.7719106     
  -54079110.4725875     
  -54666601.7517553     
  -55209892.9959540     
  -55713070.8084346     
  -56179586.0489955     
  -56611473.9717519     
  -57008391.1312596     
  -57366537.6396012     
  -57678189.0207797     
  -49314599.6779982     
  -49997065.0133324     
  -50682462.3841585     
  -51351632.2755383     
  -51991747.2365075     
  -52595755.9689377     
  -53160884.5440331     
  -53687027.2058786     
  -54175440.4997459     
  -54627790.2498700     
  -55045400.4767231     
  -55428569.2472453     
  -55775908.2390054     
  -56083848.7283256     
  -56346516.2462302     
  -49026308.3142655     
  -49586894.0639808     
  -50157376.6026083     
  -50722283.7483665     
  -51270137.8395001     
  -51793375.5196176     
  -52287667.3258273     
  -52750983.3173884     
  -53182676.4953406     
  -53582694.5486906     
  -53950922.2736077     
  -54286625.3152012     
  -54588005.8244419     
  -54851930.9532736     
  -55073929.4918091     
  -48713255.0380176     
  -49171706.6076351     
  -49643420.1071827     
  -50115801.6153189     
  -50578917.4257922     
  -51025544.3046094     
  -51450845.3420117     
  -51851826.6916786     
  -52226724.4232066     
  -52574418.8891404     
  -52893920.1410046     
  -53183943.6790336     
  -53442598.3062921     
  -53667222.2512051     
  -53854403.8269327     
  -48375500.5195921     
  -48747205.3001645     
  -49133223.7504218     
  -49523287.0916827     
  -49908982.9772206     
  -50283819.3700746     
  -50643060.1396329     
  -50983400.2169876     
  -51302562.2228500     
  -51598882.5977046     
  -51870933.4679450     
  -52117210.5976819     
  -52335911.9853610     
  -52524829.7136638     
  -52681371.7632699     
  -48014369.4501287     
  -48311531.8974018     
  -48622462.5264390     
  -48938863.0205052     
  -49253774.4590517     
  -49561624.0990758     
  -49858133.0137348     
  -50140114.8689077     
  -50405210.4894958     
  -50651602.7117333     
  -50877748.1884710     
  -51082154.2067247     
  -51263222.0151256     
  -51419172.7459188     
  -51548065.0271141     
  -47632104.6692170     
  -47864424.8120886     
  -48108813.0273046     
  -48358720.7293487     
  -48608582.5428190     
  -48853841.5819893     
  -49090890.4660019     
  -49316941.6440300     
  -49529851.6790124     
  -49727927.5074510     
  -49909740.7359403     
  -50073971.6815367     
  -50219299.9841921     
  -50344353.5253988     
  -50447721.6547679     
  -47231643.7004471     
  -47406719.2821956     
  -47591309.4891936     
  -47780482.9881863     
  -47970027.4646003     
  -48156456.6064042     
  -48336967.1421077     
  -48509352.1167801     
  -48671884.0657246     
  -48823185.2189883     
  -48962101.9694927     
  -49087598.7964626     
  -49198683.6877930     
  -49294373.3828497     
  -49373702.6502311     
  -46816451.8794812     
  -46940018.9657275     
  -47069919.1483442     
  -47202763.6477591     
  -47335671.2663762     
  -47466261.2127898     
  -47592618.3007262     
  -47713233.3944262     
  -47826926.4981778     
  -47932762.3891412     
  -48029969.2502276     
  -48117869.8550360     
  -48195833.0282963     
  -48263250.7544235     
  -48319543.7052424     
  -46390382.9273220     
  -46466458.8242240     
  -46545241.4049603     
  -46624848.4617398     
  -46703722.9591611     
  -46780614.7586293     
  -46854550.3645579     
  -46924792.0242467     
  -46990789.7052911     
  -47052130.7704174     
  -47108492.5361712     
  -47159602.5138328     
  -47205210.2310431     
  -47245073.3393329     
  -47278959.3980510     
  -45957553.9747717     
  -45988518.1734011     
  -46018277.9736851     
  -46046449.4006881     
  -46072804.5681368     
  -46097243.8117655     
  -46119768.3496708     
  -46140453.9624532     
  -46159426.4111602     
  -46176839.3872418     
  -46192855.7265712     
  -46207632.4640284     
  -46221310.1072562     
  -46234006.3081548     
  -46245813.9358538     
  -45522228.5756835     
  -45508861.2145147     
  -45490242.8383452     
  -45467501.6817621     
  -45441754.2732299     
  -45414067.8996469     
  -45385435.6193056     
  -45356763.6130283     
  -45328868.9858034     
  -45302484.9758855     
  -45278269.9836765     
  -45256816.8503872     
  -45238659.2753173     
  -45224273.0219104     
  -45214070.4987933     
  -45088703.9304065     
  -45030191.0957967     
  -44962391.9208286     
  -44887982.3413855     
  -44809448.7460760     
  -44729039.1036616     
  -44648740.6483011     
  -44570282.8891323     
  -44495160.8798721     
  -44424671.2409048     
  -44359952.4822571     
  -44302021.5092398     
  -44251799.4498682     
  -44210121.7834928     
  -44177729.8942289     
  -44661199.5346419     
  -44555107.4273170     
  -44435857.5473925     
  -44307733.9723448     
  -44174630.0696590     
  -44039984.9663605     
  -43906765.4923964     
  -43777490.3507737     
  -43654286.7144656     
  -43538965.6969630     
  -43433102.1167216     
  -43338105.0340223     
  -43255267.9378470     
  -43185790.6304216     
  -43130768.4163944     
  -44243744.7145220     
  -44085958.1397964     
  -43911474.1055989     
  -43726278.4904598     
  -43535723.5198882     
  -43344444.6238355     
  -43156350.7087912     
  -42974680.2495165     
  -42802105.4990405     
  -42640862.3443743     
  -42492883.0834813     
  -42359912.0219635     
  -42243587.8714193     
  -42145481.7191914     
  -42067084.5643517     
  -43840062.2389141     
  -43624675.1254558     
  -43389579.2453361     
  -43142603.8357143     
  -42890631.0840530     
  -42639487.3938625     
  -42393951.4136739     
  -42157861.6483546     
  -41934291.9816602     
  -41725759.0357567     
  -41534427.8986460     
  -41362288.5042763     
  -41211281.3105997     
  -41083357.3395540     
  -40980464.6090072     
  -43453444.1021512     
  -43172578.5327154     
  -42869768.8464622     
  -42554900.8578727     
  -42236481.7811814     
  -41921501.4267694     
  -41615479.2768669     
  -41322658.9026154     
  -41046292.6878713     
  -40788960.1282930     
  -40552873.2987686     
  -40340134.5518558     
  -40152920.2413526     
  -39993571.0816427     
  -39864577.8633631     
  -43086612.5830635     
  -42730124.6376823     
  -42350571.3682955     
  -41960216.8552504     
  -41569313.4547453     
  -41185938.1829921     
  -40816126.4647269     
  -40464217.2998160     
  -40133305.9358081     
  -39825717.7901479     
  -39543445.5583401     
  -39288512.5829946     
  -39063234.0649871     
  -38870350.4753707     
  -38713013.8249060     
  -42741552.4297446     
  -42296551.4106533     
  -41828982.8960982     
  -41353973.5877320     
  -40883652.1470601     
  -40426998.5584239     
  -39990172.0205344     
  -39577122.6319276     
  -39190298.9788919     
  -38831328.5311204     
  -38501615.7370659     
  -38202835.3770835     
  -37937298.4955588     
  -37708152.4982165     
  -37519375.2328867     
  -42419282.1068791     
  -41869331.9720342     
  -41299756.4476418     
  -40729267.2891935     
  -40171947.2178321     
  -39637254.3690846     
  -39130783.3079842     
  -38655352.4053448     
  -38212079.2470332     
  -37801303.2116231     
  -37423348.8565740     
  -37079166.1261710     
  -36770842.2930526     
  -36501923.6151647     
  -36277444.2525109     
  -42119491.4454456     
  -41443243.5593160     
  -40754245.5490825     
  -40075820.9470283     
  -39423826.3645434     
  -38807228.3901303     
  -38229853.0760114     
  -37692289.7113045     
  -37193436.9735613     
  -36731622.8918479     
  -36305471.0526052     
  -35914673.9646848     
  -35560732.2613535     
  -35247518.2491413     
  -34981447.0284610     
  -41839841.0417798     
  -41008625.5275306     
  -40178393.3989354     
  -39378416.6606666     
  -38625191.4636468     
  -37925039.7382939     
  -37277963.9350824     
  -36680845.3092859     
  -36129363.4731380     
  -35619071.1559260     
  -35146158.5572131     
  -34708308.2751940     
  -34305741.2394893     
  -33942391.2118267     
  -33626461.2466533     
  -41574452.4244444     
  -40547615.7430301     
  -39549124.1350219     
  -38614652.7870155     
  -37757436.6699420     
  -36976393.3846060     
  -36264626.8730959     
  -35613738.8939491     
  -35015325.0844181     
  -34461555.0021011     
  -33945510.5126539     
  -33461723.5682275     
  -33007851.5269644     
  -32586803.2683291     
  -32209101.1877128     
  -41308854.5565334     
  -40025547.3017950     
  -38827420.1819172     
  -37752827.7797690     
  -36797741.1290440     
  -35945313.7557888     
  -35178958.8252631     
  -34483971.5912998     
  -33847535.0715604     
  -33258274.0157031     
  -32705809.6334806     
  -32180589.4313945     
  -31674318.9218082     
  -31186504.4787932     
  -30728715.0501589     
  -41004520.3331398     
  -39363359.2421185     
  -37950683.6123709     
  -36754138.4264564     
  -35721434.1528753     
  -34815987.0770152     
  -34010859.6005315     
  -33285468.3277213     
  -32623159.3222242     
  -32009540.8935272     
  -31431153.2176478     
  -30874146.8076777     
  -30323022.5860682     
  -29757673.5479200     
  -29191604.5965788     
  -40457808.0095639     
  -38400420.3435520     
  -36848422.1227306     
  -35580716.0917212     
  -34507038.9400676     
  -33575548.3807648     
  -32752533.8505495     
  -32013790.6901312     
  -31340409.4720621     
  -30716248.6402808     
  -30125993.7650976     
  -29553041.6219722     
  -28975928.8170192     
  -28360697.3148375     
  -27616369.6682956     
SCALARS 2waySource double 
LOOKUP_TABLE default
  3.181614441121483E-002
  3.285276281921781E-002
  3.382078234790555E-002
  3.469071757414596E-002
  3.546460141643073E-002
  3.615138272300848E-002
  3.676244444536197E-002
  3.730971703931798E-002
  3.780489421255849E-002
  3.825906074725273E-002
  3.868248120144265E-002
  3.908440221525725E-002
  3.947268346123471E-002
  3.985303700634382E-002
  4.022351429567164E-002
  3.178926728822752E-002
  3.290907346698667E-002
  3.389596762910580E-002
  3.477050333753504E-002
  3.554291522579456E-002
  3.622568109485392E-002
  3.683167223079231E-002
  3.737355148894314E-002
  3.786340612474801E-002
  3.831257577798084E-002
  3.873156422987084E-002
  3.912996634238992E-002
  3.951638137599611E-002
  3.989803030704499E-002
  4.028252160153110E-002
  3.164368664714761E-002
  3.281799774291057E-002
  3.382803025967687E-002
  3.470788255461901E-002
  3.547850676909909E-002
  3.615626194737626E-002
  3.675591802093195E-002
  3.729107223463216E-002
  3.777431144807127E-002
  3.821729086501009E-002
  3.863080681246081E-002
  3.902488600066330E-002
  3.940890449250956E-002
  3.979207369299274E-002
  4.018446088124172E-002
  3.141622488319312E-002
  3.260971129056564E-002
  3.362978344837501E-002
  3.451005307502245E-002
  3.527556432852509E-002
  3.594572707862244E-002
  3.653685332092801E-002
  3.706335036393529E-002
  3.753822782269170E-002
  3.797339095369687E-002
  3.837985407861016E-002
  3.876794465903119E-002
  3.914758529332045E-002
  3.952873188863709E-002
  3.992212329723355E-002
  3.111452999978053E-002
  3.230120821408378E-002
  3.331448189437111E-002
  3.418578860041364E-002
  3.494044149232534E-002
  3.559893017675533E-002
  3.617837773464590E-002
  3.669362261094228E-002
  3.715787308141563E-002
  3.758311513588916E-002
  3.798041220565142E-002
  3.836017552911336E-002
  3.873246158992417E-002
  3.910735075175460E-002
  3.949537743816059E-002
  3.074380617383612E-002
  3.190241535062796E-002
  3.289304810225263E-002
  3.374453269461841E-002
  3.448099211120640E-002
  3.512257817766010E-002
  3.568636260482343E-002
  3.618713011406088E-002
  3.663797607314787E-002
  3.705073463162305E-002
  3.743630529640756E-002
  3.780493552834380E-002
  3.816650041559262E-002
  3.853079562221938E-002
  3.890782425952852E-002
  3.030930179136173E-002
  3.142153879663172E-002
  3.237508822891028E-002
  3.319590007207140E-002
  3.390617959051141E-002
  3.452490201544719E-002
  3.506839895507172E-002
  3.555092287125278E-002
  3.598512440576099E-002
  3.638243241460289E-002
  3.675335951048950E-002
  3.710776392007658E-002
  3.745509082535993E-002
  3.780460147036972E-002
  3.816557849458820E-002
  2.981689303047134E-002
  3.086666884632261E-002
  3.177005700143168E-002
  3.254984293294759E-002
  3.322586789020912E-002
  3.381540343661606E-002
  3.433355106319996E-002
  3.479363543306992E-002
  3.520755917527989E-002
  3.558610556212477E-002
  3.593919352242805E-002
  3.627609752847076E-002
  3.660564362593076E-002
  3.693638561117673E-002
  3.727675691743705E-002
  2.927315497446894E-002
  3.024632647184199E-002
  3.108777230971380E-002
  3.181685278174236E-002
  3.245073630045338E-002
  3.300464561452393E-002
  3.349211345483652E-002
  3.392523883796882E-002
  3.431492898625826E-002
  3.467111670910497E-002
  3.500295103175127E-002
  3.531896412193580E-002
  3.562721835001058E-002
  3.593543487173344E-002
  3.625110197912233E-002
  2.868531026722923E-002
  2.956958772108665E-002
  3.033857166563200E-002
  3.100800567052205E-002
  3.159218169717634E-002
  3.210405318806418E-002
  3.255536145717702E-002
  3.295677222430642E-002
  3.331801405154948E-002
  3.364801087916375E-002
  3.395500399139591E-002
  3.424666164130247E-002
  3.453017581166555E-002
  3.481234534309782E-002
  3.509964407768955E-002
  2.806112324738387E-002
  2.884603180418344E-002
  2.953327119450854E-002
  3.013487640462884E-002
  3.066216039388204E-002
  3.112568950558668E-002
  3.153528633180375E-002
  3.190005590867620E-002
  3.222842823605897E-002
  3.252820969122244E-002
  3.280663712908126E-002
  3.307043009521368E-002
  3.332583779971016E-002
  3.357867819732665E-002
  3.383436709936610E-002
  2.740876944810869E-002
  2.808560436163661E-002
  2.868301883814933E-002
  2.920936376119284E-002
  2.967297311357550E-002
  3.008200200134831E-002
  3.044431084781823E-002
  3.076738847248808E-002
  3.105830574676789E-002
  3.132369133161685E-002
  3.156972165491431E-002
  3.180211838537750E-002
  3.202614783529512E-002
  3.224661784536245E-002
  3.246786886480059E-002
  2.673669313120731E-002
  2.729843912506644E-002
  2.779909095445555E-002
  2.824346187178443E-002
  2.863700926123740E-002
  2.898554106357054E-002
  2.929498823042531E-002
  2.957123253093860E-002
  2.981997918199514E-002
  3.004666395276812E-002
  3.025638493927996E-002
  3.045385013376624E-002
  3.064333312020364E-002
  3.082863062079520E-002
  3.101301716317669E-002
  2.605345977628116E-002
  2.649466052546895E-002
  2.689266098978003E-002
  2.724900271666404E-002
  2.756646751900996E-002
  2.784866274632681E-002
  2.809969173378549E-002
  2.832389600225995E-002
  2.852565635121884E-002
  2.870924025503212E-002
  2.887868344147897E-002
  2.903769441458672E-002
  2.918957200226100E-002
  2.933712768591501E-002
  2.948260639737416E-002
  2.536760742985884E-002
  2.568418006284135E-002
  2.597455751033139E-002
  2.623738679119988E-002
  2.647306678566048E-002
  2.668322603464088E-002
  2.687030345565771E-002
  2.703721680075788E-002
  2.718710387712257E-002
  2.732312144401938E-002
  2.744828691820372E-002
  2.756534886987455E-002
  2.767667381080070E-002
  2.778413883957272E-002
  2.788902212562452E-002
  2.468749905734359E-002
  2.487649364639039E-002
  2.505502179056501E-002
  2.521931286685543E-002
  2.536775758858028E-002
  2.550029357990403E-002
  2.561791050308940E-002
  2.572225889558144E-002
  2.581534579064042E-002
  2.589929912242277E-002
  2.597618263599968E-002
  2.604784385328448E-002
  2.611577952234781E-002
  2.618100562388088E-002
  2.624392210079717E-002
  2.402117685514206E-002
  2.408048328988353E-002
  2.414346995794833E-002
  2.420451261789083E-002
  2.426043997942729E-002
  2.430984206872953E-002
  2.435251505298007E-002
  2.438902695326218E-002
  2.442038515914845E-002
  2.444778390793234E-002
  2.447240889491166E-002
  2.449527714316502E-002
  2.451709281594890E-002
  2.453810321145323E-002
  2.455794320765495E-002
  2.337621866731059E-002
  2.330422343712590E-002
  2.324826017703710E-002
  2.320149102055301E-002
  2.315968960692437E-002
  2.312048512671117E-002
  2.308276275729901E-002
  2.304620570384194E-002
  2.301095647879483E-002
  2.297736979976392E-002
  2.294582776693407E-002
  2.291658958530728E-002
  2.288965196964876E-002
  2.286460134346468E-002
  2.284044420899781E-002
  2.275959609770711E-002
  2.255478913700936E-002
  2.237646065092661E-002
  2.221726818366028E-002
  2.207248889067776E-002
  2.193920803099633E-002
  2.181569167624725E-002
  2.170092913222733E-002
  2.159431644680756E-002
  2.149544380283116E-002
  2.140394777982987E-002
  2.131939299191249E-002
  2.124115397966842E-002
  2.116827531159134E-002
  2.109929457712777E-002
  2.217753344847603E-002
  2.183805953581181E-002
  2.153360831246623E-002
  2.125711177321887E-002
  2.100395456448192E-002
  2.077110955420481E-002
  2.055650184623158E-002
  2.035858406569432E-002
  2.017608122698321E-002
  2.000785138354009E-002
  1.985280859163794E-002
  1.970986297705885E-002
  1.957784349176946E-002
  1.945537883789476E-002
  1.934072001073522E-002
  2.163536587517175E-002
  2.115850442264017E-002
  2.072343931936910E-002
  2.032424009764971E-002
  1.995704572418570E-002
  1.961914216068636E-002
  1.930834432342412E-002
  1.902265337992894E-002
  1.876011993728983E-002
  1.851883029036244E-002
  1.829694173624197E-002
  1.809271139948372E-002
  1.790448091567487E-002
  1.773059197067703E-002
  1.756921562313570E-002
  2.113739327444274E-002
  2.051893130575594E-002
  1.994755770448789E-002
  1.941946197246614E-002
  1.893222729083439E-002
  1.848383834071427E-002
  1.807212941676236E-002
  1.769460694676134E-002
  1.734851732410659E-002
  1.703102825506955E-002
  1.673942434504715E-002
  1.647125598292162E-002
  1.622440692737594E-002
  1.599705930567284E-002
  1.578753845616223E-002
  2.068672170970703E-002
  1.992015000002375E-002
  1.920498142211437E-002
  1.854069676642759E-002
  1.792705266303410E-002
  1.736301079828587E-002
  1.684635979777339E-002
  1.637385513177293E-002
  1.594162355884858E-002
  1.554562350206208E-002
  1.518204605135630E-002
  1.484760878360189E-002
  1.453972550709797E-002
  1.425653817520985E-002
  1.399679263411183E-002
  2.028507171310135E-002
  1.936046829975034E-002
  1.849145081864225E-002
  1.768228092349865E-002
  1.693561960992863E-002
  1.625142564822085E-002
  1.562701111438967E-002
  1.505779179106981E-002
  1.453821405213733E-002
  1.406256861761709E-002
  1.362561153161623E-002
  1.322301132367201E-002
  1.285163677150501E-002
  1.250968631042695E-002
  1.219662510533831E-002
  1.993250641894213E-002
  1.883482599541054E-002
  1.779827385289270E-002
  1.683390651081354E-002
  1.594786389222170E-002
  1.514049037402827E-002
  1.440752108121971E-002
  1.374196990055930E-002
  1.313578136741596E-002
  1.258097079377374E-002
  1.207040044114875E-002
  1.159835175451680E-002
  1.116097144820978E-002
  1.075654029253984E-002
  1.038556451573228E-002
  1.962692807416678E-002
  1.833312463393177E-002
  1.711021322006503E-002
  1.597898160439193E-002
  1.494874029942517E-002
  1.401811972465722E-002
  1.317901377068709E-002
  1.242046273677470E-002
  1.173095781831896E-002
  1.109959606341112E-002
  1.051678517382804E-002
  9.974921419859686E-003
  9.469010909533794E-003
  8.997301496261049E-003
  8.561572626060939E-003
  1.936306091426421E-002
  1.783635258126837E-002
  1.640145993888754E-002
  1.509222763750324E-002
  1.391774208783296E-002
  1.286918021152471E-002
  1.193093456402978E-002
  1.108644649354743E-002
  1.032001549607918E-002
  9.617382245964029E-003
  8.965987584209554E-003
  8.355427974089715E-003
  7.778834646965025E-003
  7.233633487162872E-003
  6.723038247753437E-003
  1.912827915811847E-002
  1.730704694301509E-002
  1.562722031422403E-002
  1.413788100821947E-002
  1.283018802437287E-002
  1.167699158322438E-002
  1.065223143456176E-002
  9.732976153674142E-003
  8.899317648977579E-003
  8.133735765585275E-003
  7.420527959891714E-003
  6.745608888633693E-003
  6.097192863283398E-003
  5.471517383961401E-003
  4.870632785644958E-003
  1.888988020162225E-002
  1.665325188422721E-002
  1.471569515771137E-002
  1.307496613458098E-002
  1.166133382954882E-002
  1.042609837608343E-002
  9.332985364144356E-003
  8.353830039882316E-003
  7.465576844215930E-003
  6.648312107758680E-003
  5.883785748730556E-003
  5.154121679963066E-003
  4.440795673891931E-003
  3.724365649456166E-003
  3.014291489952681E-003
  1.841081140376035E-002
  1.568504464234486E-002
  1.359758928984704E-002
  1.186969312872170E-002
  1.039304985868367E-002
  9.105585904607069E-003
  7.966084555161297E-003
  6.944221632236857E-003
  6.015848993640823E-003
  5.160248279300127E-003
  4.358111332654486E-003
  3.589480870610180E-003
  2.830726097854348E-003
  2.047985580562327E-003
  1.182304731022781E-003
SCALARS elementIsPlast double 
LOOKUP_TABLE default
  0.000000000000000E+000
  0.000000000000000E+000
  0.000000000000000E+000
  0.000000000000000E+000
  0.000000000000000E+000
  0.000000000000000E+000
  0.000000000000000E+000
  0.000000000000000E+000
  0.000000000000000E+000
  0.000000000000000E+000
  0.000000000000000E+000
  0.000000000000000E+000
  0.000000000000000E+000
  0.000000000000000E+000
  0.000000000000000E+000
  0.000000000000000E+000
  0.000000000000000E+000
  0.000000000000000E+000
  0.000000000000000E+000
  0.000000000000000E+000
  0.000000000000000E+000
  0.000000000000000E+000
  0.000000000000000E+000
  0.000000000000000E+000
  0.000000000000000E+000
  0.000000000000000E+000
  0.000000000000000E+000
  0.000000000000000E+000
  0.000000000000000E+000
  0.000000000000000E+000
  0.000000000000000E+000
  0.000000000000000E+000
  0.000000000000000E+000
  0.000000000000000E+000
  0.000000000000000E+000
  0.000000000000000E+000
  0.000000000000000E+000
  0.000000000000000E+000
  0.000000000000000E+000
  0.000000000000000E+000
  0.000000000000000E+000
  0.000000000000000E+000
  0.000000000000000E+000
  0.000000000000000E+000
  0.000000000000000E+000
  0.000000000000000E+000
  0.000000000000000E+000
  0.000000000000000E+000
  0.000000000000000E+000
  0.000000000000000E+000
  0.000000000000000E+000
  0.000000000000000E+000
  0.000000000000000E+000
  0.000000000000000E+000
  0.000000000000000E+000
  0.000000000000000E+000
  0.000000000000000E+000
  0.000000000000000E+000
  0.000000000000000E+000
  0.000000000000000E+000
  0.000000000000000E+000
  0.000000000000000E+000
  0.000000000000000E+000
  0.000000000000000E+000
  0.000000000000000E+000
  0.000000000000000E+000
  0.000000000000000E+000
  0.000000000000000E+000
  0.000000000000000E+000
  0.000000000000000E+000
  0.000000000000000E+000
  0.000000000000000E+000
  0.000000000000000E+000
  0.000000000000000E+000
  0.000000000000000E+000
  0.000000000000000E+000
  0.000000000000000E+000
  0.000000000000000E+000
  0.000000000000000E+000
  0.000000000000000E+000
  0.000000000000000E+000
  0.000000000000000E+000
  0.000000000000000E+000
  0.000000000000000E+000
  0.000000000000000E+000
  0.000000000000000E+000
  0.000000000000000E+000
  0.000000000000000E+000
  0.000000000000000E+000
  0.000000000000000E+000
  0.000000000000000E+000
  0.000000000000000E+000
  0.000000000000000E+000
  0.000000000000000E+000
  0.000000000000000E+000
  0.000000000000000E+000
  0.000000000000000E+000
  0.000000000000000E+000
  0.000000000000000E+000
  0.000000000000000E+000
  0.000000000000000E+000
  0.000000000000000E+000
  0.000000000000000E+000
  0.000000000000000E+000
  0.000000000000000E+000
  0.000000000000000E+000
  0.000000000000000E+000
  0.000000000000000E+000
  0.000000000000000E+000
  0.000000000000000E+000
  0.000000000000000E+000
  0.000000000000000E+000
  0.000000000000000E+000
  0.000000000000000E+000
  0.000000000000000E+000
  0.000000000000000E+000
  0.000000000000000E+000
  0.000000000000000E+000
  0.000000000000000E+000
  0.000000000000000E+000
  0.000000000000000E+000
  0.000000000000000E+000
  0.000000000000000E+000
  0.000000000000000E+000
  0.000000000000000E+000
  0.000000000000000E+000
  0.000000000000000E+000
  0.000000000000000E+000
  0.000000000000000E+000
  0.000000000000000E+000
  0.000000000000000E+000
  0.000000000000000E+000
  0.000000000000000E+000
  0.000000000000000E+000
  0.000000000000000E+000
  0.000000000000000E+000
  0.000000000000000E+000
  0.000000000000000E+000
  0.000000000000000E+000
  0.000000000000000E+000
  0.000000000000000E+000
  0.000000000000000E+000
  0.000000000000000E+000
  0.000000000000000E+000
  0.000000000000000E+000
  0.000000000000000E+000
  0.000000000000000E+000
  0.000000000000000E+000
  0.000000000000000E+000
  0.000000000000000E+000
  0.000000000000000E+000
  0.000000000000000E+000
  0.000000000000000E+000
  0.000000000000000E+000
  0.000000000000000E+000
  0.000000000000000E+000
  0.000000000000000E+000
  0.000000000000000E+000
  0.000000000000000E+000
  0.000000000000000E+000
  0.000000000000000E+000
  0.000000000000000E+000
  0.000000000000000E+000
  0.000000000000000E+000
  0.000000000000000E+000
  0.000000000000000E+000
  0.000000000000000E+000
  0.000000000000000E+000
  0.000000000000000E+000
  0.000000000000000E+000
  0.000000000000000E+000
  0.000000000000000E+000
  0.000000000000000E+000
  0.000000000000000E+000
  0.000000000000000E+000
  0.000000000000000E+000
  0.000000000000000E+000
  0.000000000000000E+000
  0.000000000000000E+000
  0.000000000000000E+000
  0.000000000000000E+000
  0.000000000000000E+000
  0.000000000000000E+000
  0.000000000000000E+000
  0.000000000000000E+000
  0.000000000000000E+000
  0.000000000000000E+000
  0.000000000000000E+000
  0.000000000000000E+000
  0.000000000000000E+000
  0.000000000000000E+000
  0.000000000000000E+000
  0.000000000000000E+000
  0.000000000000000E+000
  0.000000000000000E+000
  0.000000000000000E+000
  0.000000000000000E+000
  0.000000000000000E+000
  0.000000000000000E+000
  0.000000000000000E+000
  0.000000000000000E+000
  0.000000000000000E+000
  0.000000000000000E+000
  0.000000000000000E+000
  0.000000000000000E+000
  0.000000000000000E+000
  0.000000000000000E+000
  0.000000000000000E+000
  0.000000000000000E+000
  0.000000000000000E+000
  0.000000000000000E+000
  0.000000000000000E+000
  0.000000000000000E+000
  0.000000000000000E+000
  0.000000000000000E+000
  0.000000000000000E+000
  0.000000000000000E+000
  0.000000000000000E+000
  0.000000000000000E+000
  0.000000000000000E+000
  0.000000000000000E+000
  0.000000000000000E+000
  0.000000000000000E+000
  0.000000000000000E+000
  0.000000000000000E+000
  0.000000000000000E+000
  0.000000000000000E+000
  0.000000000000000E+000
  0.000000000000000E+000
  0.000000000000000E+000
  0.000000000000000E+000
  0.000000000000000E+000
  0.000000000000000E+000
  0.000000000000000E+000
  0.000000000000000E+000
  0.000000000000000E+000
  0.000000000000000E+000
  0.000000000000000E+000
  0.000000000000000E+000
  0.000000000000000E+000
  0.000000000000000E+000
  0.000000000000000E+000
  0.000000000000000E+000
  0.000000000000000E+000
  0.000000000000000E+000
  0.000000000000000E+000
  0.000000000000000E+000
  0.000000000000000E+000
  0.000000000000000E+000
  0.000000000000000E+000
  0.000000000000000E+000
  0.000000000000000E+000
  0.000000000000000E+000
  0.000000000000000E+000
  0.000000000000000E+000
  0.000000000000000E+000
  0.000000000000000E+000
  0.000000000000000E+000
  0.000000000000000E+000
  0.000000000000000E+000
  0.000000000000000E+000
  0.000000000000000E+000
  0.000000000000000E+000
  0.000000000000000E+000
  0.000000000000000E+000
  0.000000000000000E+000
  0.000000000000000E+000
  0.000000000000000E+000
  0.000000000000000E+000
  0.000000000000000E+000
  0.000000000000000E+000
  0.000000000000000E+000
  0.000000000000000E+000
  0.000000000000000E+000
  0.000000000000000E+000
  0.000000000000000E+000
  0.000000000000000E+000
  0.000000000000000E+000
  0.000000000000000E+000
  0.000000000000000E+000
  0.000000000000000E+000
  0.000000000000000E+000
  0.000000000000000E+000
  0.000000000000000E+000
  0.000000000000000E+000
  0.000000000000000E+000
  0.000000000000000E+000
  0.000000000000000E+000
  0.000000000000000E+000
  0.000000000000000E+000
  0.000000000000000E+000
  0.000000000000000E+000
  0.000000000000000E+000
  0.000000000000000E+000
  0.000000000000000E+000
  0.000000000000000E+000
  0.000000000000000E+000
  0.000000000000000E+000
  0.000000000000000E+000
  0.000000000000000E+000
  0.000000000000000E+000
  0.000000000000000E+000
  0.000000000000000E+000
  0.000000000000000E+000
  0.000000000000000E+000
  0.000000000000000E+000
  0.000000000000000E+000
  0.000000000000000E+000
  0.000000000000000E+000
  0.000000000000000E+000
  0.000000000000000E+000
  0.000000000000000E+000
  0.000000000000000E+000
  0.000000000000000E+000
  0.000000000000000E+000
  0.000000000000000E+000
  0.000000000000000E+000
  0.000000000000000E+000
  0.000000000000000E+000
  0.000000000000000E+000
  0.000000000000000E+000
  0.000000000000000E+000
  0.000000000000000E+000
  0.000000000000000E+000
  0.000000000000000E+000
  0.000000000000000E+000
  0.000000000000000E+000
  0.000000000000000E+000
  0.000000000000000E+000
  0.000000000000000E+000
  0.000000000000000E+000
  0.000000000000000E+000
  0.000000000000000E+000
  0.000000000000000E+000
  0.000000000000000E+000
  0.000000000000000E+000
  0.000000000000000E+000
  0.000000000000000E+000
  0.000000000000000E+000
  0.000000000000000E+000
  0.000000000000000E+000
  0.000000000000000E+000
  0.000000000000000E+000
  0.000000000000000E+000
  0.000000000000000E+000
  0.000000000000000E+000
  0.000000000000000E+000
  0.000000000000000E+000
  0.000000000000000E+000
  0.000000000000000E+000
  0.000000000000000E+000
  0.000000000000000E+000
  0.000000000000000E+000
  0.000000000000000E+000
  0.000000000000000E+000
  0.000000000000000E+000
  0.000000000000000E+000
  0.000000000000000E+000
  0.000000000000000E+000
  0.000000000000000E+000
  0.000000000000000E+000
  0.000000000000000E+000
  0.000000000000000E+000
  0.000000000000000E+000
  0.000000000000000E+000
  0.000000000000000E+000
  0.000000000000000E+000
  0.000000000000000E+000
  0.000000000000000E+000
  0.000000000000000E+000
  0.000000000000000E+000
  0.000000000000000E+000
  0.000000000000000E+000
  0.000000000000000E+000
  0.000000000000000E+000
  0.000000000000000E+000
  0.000000000000000E+000
  0.000000000000000E+000
  0.000000000000000E+000
  0.000000000000000E+000
  0.000000000000000E+000
  0.000000000000000E+000
  0.000000000000000E+000
  0.000000000000000E+000
  0.000000000000000E+000
  0.000000000000000E+000
  0.000000000000000E+000
  0.000000000000000E+000
  0.000000000000000E+000
  0.000000000000000E+000
  0.000000000000000E+000
  0.000000000000000E+000
  0.000000000000000E+000
  0.000000000000000E+000
  0.000000000000000E+000
  0.000000000000000E+000
  0.000000000000000E+000
  0.000000000000000E+000
  0.000000000000000E+000
  0.000000000000000E+000
  0.000000000000000E+000
  0.000000000000000E+000
  0.000000000000000E+000
  0.000000000000000E+000
  0.000000000000000E+000
  0.000000000000000E+000
  0.000000000000000E+000
  0.000000000000000E+000
  0.000000000000000E+000
  0.000000000000000E+000
  0.000000000000000E+000
  0.000000000000000E+000
  0.000000000000000E+000
  0.000000000000000E+000
  0.000000000000000E+000
  0.000000000000000E+000
  0.000000000000000E+000
  0.000000000000000E+000
  0.000000000000000E+000
  0.000000000000000E+000
  0.000000000000000E+000
  0.000000000000000E+000
  0.000000000000000E+000
  0.000000000000000E+000
  0.000000000000000E+000
  0.000000000000000E+000
  0.000000000000000E+000
  0.000000000000000E+000
  0.000000000000000E+000
  0.000000000000000E+000
  0.000000000000000E+000
  0.000000000000000E+000
  0.000000000000000E+000
  0.000000000000000E+000
  0.000000000000000E+000
  0.000000000000000E+000
  0.000000000000000E+000
  0.000000000000000E+000
  0.000000000000000E+000
  0.000000000000000E+000
  0.000000000000000E+000
  0.000000000000000E+000
  0.000000000000000E+000
  0.000000000000000E+000
  0.000000000000000E+000
  0.000000000000000E+000
  0.000000000000000E+000
  0.000000000000000E+000
  0.000000000000000E+000
  0.000000000000000E+000
SCALARS poroL double 
LOOKUP_TABLE default
  0.260914944738311     
  0.259458011534810     
  0.258352370058826     
  0.257446835570919     
  0.256678827766636     
  0.256012016304962     
  0.255422536631916     
  0.254893090022927     
  0.254410036299788     
  0.253961624167583     
  0.253536602374772     
  0.253122666930696     
  0.252703788035104     
  0.252254456091107     
  0.251705815180770     
  0.259893892935045     
  0.258715507738227     
  0.257704282835400     
  0.256847894531201     
  0.256108961784135     
  0.255461274259895     
  0.254885450811634     
  0.254366588951851     
  0.253892547945168     
  0.253452758718528     
  0.253037260385357     
  0.252635723493936     
  0.252236502009551     
  0.251824354473405     
  0.251409246708158     
  0.258710949609107     
  0.257775764477200     
  0.256910730820399     
  0.256138304613937     
  0.255453491274369     
  0.254843334009200     
  0.254295407378982     
  0.253798770590951     
  0.253343887779609     
  0.252922270441273     
  0.252526134449007     
  0.252148263530740     
  0.251782313600314     
  0.251427713227696     
  0.251092800118614     
  0.257504294957945     
  0.256746478422976     
  0.256018961869226     
  0.255343377502748     
  0.254726685465355     
  0.254166645615994     
  0.253657414868522     
  0.253192344698707     
  0.252764922358687     
  0.252369119690941     
  0.251999601284684     
  0.251652096700076     
  0.251324631634755     
  0.251019089993996     
  0.250742955735154     
  0.256301731825533     
  0.255681238131747     
  0.255070994957061     
  0.254489021637403     
  0.253944891229753     
  0.253441558937239     
  0.252977941932572     
  0.252551026820093     
  0.252157122119128     
  0.251792557118492     
  0.251454189895347     
  0.251140004662673     
  0.250849861240494     
  0.250586345757086     
  0.250355162165722     
  0.255114151562438     
  0.254603853031886     
  0.254093083919399     
  0.253596350434101     
  0.253123152859601     
  0.252678458712535     
  0.252263905903338     
  0.251879078501265     
  0.251522533012934     
  0.251192541859306     
  0.250887676528130     
  0.250607339990955     
  0.250352284993445     
  0.250125008362625     
  0.249929858858496     
  0.253946116452810     
  0.253526597547452     
  0.253100703172584     
  0.252680181224004     
  0.252273621854824     
  0.251886533488059     
  0.251521893132582     
  0.251180892117106     
  0.250863662086542     
  0.250569895738522     
  0.250299362982660     
  0.250052347842441     
  0.249829999276340     
  0.249634547628844     
  0.249469309422951     
  0.252799386125702     
  0.252455971938816     
  0.252103121389492     
  0.251750416446995     
  0.251405350036640     
  0.251073284477354     
  0.250757711085869     
  0.250460683738374     
  0.250183306151984     
  0.249926195638456     
  0.249689889693982     
  0.249475181148448     
  0.249283365086212     
  0.249116368460619     
  0.248976732190733     
  0.251674023185419     
  0.251395250829381     
  0.251105808294098     
  0.250813527777715     
  0.250524803693980     
  0.250244531082801     
  0.249976231395253     
  0.249722308755379     
  0.249484369609147     
  0.249263550782136     
  0.249060819044704     
  0.248877218152958     
  0.248714043766805     
  0.248572927780791     
  0.248455817939084     
  0.250568924808458     
  0.250345681894234     
  0.250111789152955     
  0.249873603382988     
  0.249636465680130     
  0.249404647699974     
  0.249181414973284     
  0.248969181116724     
  0.248769715671109     
  0.248584368963881     
  0.248414284097618     
  0.248260573276918     
  0.248124440944576     
  0.248007240435093     
  0.247910456400966     
  0.249482111207163     
  0.249307138784814     
  0.249122434009738     
  0.248933055367915     
  0.248743336648552     
  0.248556846775879     
  0.248376422926613     
  0.248204264711005     
  0.248042068382415     
  0.247891177557965     
  0.247752728747520     
  0.247627773664157     
  0.247517364311718     
  0.247422591011686     
  0.247344568261335     
  0.248410915220474     
  0.248278513841382     
  0.248137950964792     
  0.247993099070153     
  0.247847319973899     
  0.247703437051802     
  0.247563753138995     
  0.247430108213900     
  0.247303964859623     
  0.247186506732293     
  0.247078735290513     
  0.246981551814791     
  0.246895814421197     
  0.246822362933872     
  0.246762008001906     
  0.247352125405774     
  0.247257980009619     
  0.247157715925155     
  0.247054089183760     
  0.246949513295271     
  0.246846041381272     
  0.246745375975126     
  0.246648903530091     
  0.246557746818535     
  0.246472826294523     
  0.246394921050441     
  0.246324720816100     
  0.246262862075637     
  0.246209943483517     
  0.246166518125592     
  0.246302105963461     
  0.246243182647016     
  0.246180509562042     
  0.246115767040357     
  0.246050434026093     
  0.245985778122463     
  0.245922860794824     
  0.245862556188024     
  0.245805579938552     
  0.245752523124714     
  0.245703886138311     
  0.245660107630464     
  0.245621584570634     
  0.245588680666443     
  0.245561721764012     
  0.245256903920202     
  0.245231392319619     
  0.245204700624123     
  0.245177453590462     
  0.245150201161188     
  0.245123415400382     
  0.245097492871829     
  0.245072761689025     
  0.245049491862976     
  0.245027907228420     
  0.245008197158190     
  0.244990526440363     
  0.244975042031917     
  0.244961875853761     
  0.244951143298964     
  0.244212348672092     
  0.244219635654706     
  0.244228398680988     
  0.244238210454138     
  0.244248690227117     
  0.244259507670750     
  0.244270383266243     
  0.244281085027448     
  0.244291422140633     
  0.244301236657154     
  0.244310394648221     
  0.244318778261948     
  0.244326279975946     
  0.244332800081730     
  0.244338248126232     
  0.243164146740824     
  0.243204814633698     
  0.243249591108681     
  0.243296984464114     
  0.243345674195630     
  0.243394522952001     
  0.243442575081219     
  0.243489042290753     
  0.243533279255885     
  0.243574753482237     
  0.243613014300694     
  0.243647665691947     
  0.243678346929825     
  0.243704724009000     
  0.243726493649681     
  0.242107973718395     
  0.242183821726527     
  0.242266275272635     
  0.242352747670211     
  0.242440960948838     
  0.242528968247480     
  0.242615149757561     
  0.242698184067121     
  0.242777000970086     
  0.242850724217406     
  0.242918613350459     
  0.242980013097718     
  0.243034317325427     
  0.243080952584849     
  0.243119384136828     
  0.241039565115740     
  0.241153657499477     
  0.241276595900953     
  0.241404643942091     
  0.241534537386466     
  0.241663520552730     
  0.241789337214931     
  0.241910180698028     
  0.242024614567635     
  0.242131478479434     
  0.242229793934178     
  0.242318682979536     
  0.242397310259795     
  0.242464855747345     
  0.242520522172121     
  0.239954807985463     
  0.240111558396669     
  0.240278999205891     
  0.240452154887841     
  0.240626731497149     
  0.240799171567367     
  0.240966633896572     
  0.241126909312443     
  0.241278293282525     
  0.241419439230515     
  0.241549214699425     
  0.241666578674642     
  0.241770494174725     
  0.241859886012530     
  0.241933649097516     
  0.238849835973944     
  0.239055145816710     
  0.239272419981432     
  0.239495302217657     
  0.239718406827596     
  0.239937395735919     
  0.240148932944469     
  0.240350541915300     
  0.240540404089717     
  0.240717136624343     
  0.240879580445259     
  0.241026621967477     
  0.241157065966561     
  0.241269572579933     
  0.241362666060750     
  0.237721132652261     
  0.237982615084456     
  0.238256527508342     
  0.238534912077340     
  0.238811209007276     
  0.239080353071243     
  0.239338670182556     
  0.239583632120640     
  0.239813540029362     
  0.240027195294759     
  0.240223597082646     
  0.240401691319669     
  0.240560190171454     
  0.240697479312524     
  0.240811626146019     
  0.236565653342614     
  0.236892998575464     
  0.237232074632302     
  0.237572981457591     
  0.237907891171694     
  0.238231138900472     
  0.238538986740461     
  0.238829194601003     
  0.239100527263056     
  0.239352282254593     
  0.239583875859463     
  0.239794501973537     
  0.239982878839075     
  0.240147109911446     
  0.240284686458032     
  0.235380988958919     
  0.235786570340147     
  0.236201430864472     
  0.236613210692081     
  0.237012752472117     
  0.237394087926418     
  0.237753900735000     
  0.238090764778503     
  0.238404393911924     
  0.238695000746931     
  0.238962767517638     
  0.239207402335417     
  0.239427783627343     
  0.239621735606408     
  0.239786006433057     
  0.234165625583119     
  0.234665536927107     
  0.235169452052965     
  0.235661803928458     
  0.236132221833349     
  0.236575119607869     
  0.236988460206549     
  0.237372416202972     
  0.237728286843847     
  0.238057718815957     
  0.238362105880855     
  0.238642051695752     
  0.238896852943624     
  0.239124103628960     
  0.239319572426344     
  0.232919452162528     
  0.233535335955890     
  0.234144999504187     
  0.234728676399242     
  0.235275580675893     
  0.235782051128692     
  0.236248811257589     
  0.236678701496698     
  0.237075331280268     
  0.237442336213503     
  0.237782853719487     
  0.238098927672634     
  0.238390772506428     
  0.238655937973907     
  0.238888913979955     
  0.231644867766616     
  0.232407456876637     
  0.233143682736220     
  0.233829205285994     
  0.234455628458838     
  0.235024675367186     
  0.235542072414271     
  0.236014477074307     
  0.236448445206028     
  0.236850050766450     
  0.237224672634821     
  0.237576632155293     
  0.237907994232582     
  0.238217050255626     
  0.238496609826108     
  0.230350542320780     
  0.231305921289607     
  0.232193159483499     
  0.232985962339539     
  0.233688591313991     
  0.234314303544652     
  0.234875887226680     
  0.235384583487358     
  0.235850148585221     
  0.236281225637311     
  0.236685705200041     
  0.237070881026794     
  0.237443172345623     
  0.237803330559604     
  0.238143407274904     
  0.229062998202474     
  0.230288154202644     
  0.231339169802275     
  0.232227323836985     
  0.232992512966921     
  0.233662482316685     
  0.234257597472104     
  0.234793390637741     
  0.235282413586768     
  0.235735506366858     
  0.236162807752082     
  0.236574759710408     
  0.236983074482338     
  0.237403019569440     
  0.237825067753144     
  0.227932951379116     
  0.229473645614705     
  0.230634365425235     
  0.231581731973348     
  0.232383612927930     
  0.233078972161023     
  0.233693133763032     
  0.234244274569513     
  0.234746591142522     
  0.235212200173640     
  0.235652597335191     
  0.236080247242478     
  0.236511268412241     
  0.236971160175934     
  0.237528392948602     
