# vtk DataFile Version 3.0
vtk output
ASCII
DATASET UNSTRUCTURED_GRID
POINTS       496 double 
  0.00000000E+00  3.00000000E+02  0.00000000E+00
  0.00000000E+00  2.80000000E+02  0.00000000E+00
  0.00000000E+00  2.60000000E+02  0.00000000E+00
  0.00000000E+00  2.40000000E+02  0.00000000E+00
  0.00000000E+00  2.20000000E+02  0.00000000E+00
  0.00000000E+00  2.00000000E+02  0.00000000E+00
  0.00000000E+00  1.80000000E+02  0.00000000E+00
  0.00000000E+00  1.60000000E+02  0.00000000E+00
  0.00000000E+00  1.40000000E+02  0.00000000E+00
  0.00000000E+00  1.20000000E+02  0.00000000E+00
  0.00000000E+00  1.00000000E+02  0.00000000E+00
  0.00000000E+00  8.00000000E+01  0.00000000E+00
  0.00000000E+00  6.00000000E+01  0.00000000E+00
  0.00000000E+00  4.00000000E+01  0.00000000E+00
  0.00000000E+00  2.00000000E+01  0.00000000E+00
  0.00000000E+00  4.99600361E-14  0.00000000E+00
  2.00000000E+01  3.00000000E+02  0.00000000E+00
  2.00000000E+01  2.80000000E+02  0.00000000E+00
  2.00000000E+01  2.60000000E+02  0.00000000E+00
  2.00000000E+01  2.40000000E+02  0.00000000E+00
  2.00000000E+01  2.20000000E+02  0.00000000E+00
  2.00000000E+01  2.00000000E+02  0.00000000E+00
  2.00000000E+01  1.80000000E+02  0.00000000E+00
  2.00000000E+01  1.60000000E+02  0.00000000E+00
  2.00000000E+01  1.40000000E+02  0.00000000E+00
  2.00000000E+01  1.20000000E+02  0.00000000E+00
  2.00000000E+01  1.00000000E+02  0.00000000E+00
  2.00000000E+01  8.00000000E+01  0.00000000E+00
  2.00000000E+01  6.00000000E+01  0.00000000E+00
  2.00000000E+01  4.00000000E+01  0.00000000E+00
  2.00000000E+01  2.00000000E+01  0.00000000E+00
  2.00000000E+01  4.99600361E-14  0.00000000E+00
  4.00000000E+01  3.00000000E+02  0.00000000E+00
  4.00000000E+01  2.80000000E+02  0.00000000E+00
  4.00000000E+01  2.60000000E+02  0.00000000E+00
  4.00000000E+01  2.40000000E+02  0.00000000E+00
  4.00000000E+01  2.20000000E+02  0.00000000E+00
  4.00000000E+01  2.00000000E+02  0.00000000E+00
  4.00000000E+01  1.80000000E+02  0.00000000E+00
  4.00000000E+01  1.60000000E+02  0.00000000E+00
  4.00000000E+01  1.40000000E+02  0.00000000E+00
  4.00000000E+01  1.20000000E+02  0.00000000E+00
  4.00000000E+01  1.00000000E+02  0.00000000E+00
  4.00000000E+01  8.00000000E+01  0.00000000E+00
  4.00000000E+01  6.00000000E+01  0.00000000E+00
  4.00000000E+01  4.00000000E+01  0.00000000E+00
  4.00000000E+01  2.00000000E+01  0.00000000E+00
  4.00000000E+01  4.99600361E-14  0.00000000E+00
  6.00000000E+01  3.00000000E+02  0.00000000E+00
  6.00000000E+01  2.80000000E+02  0.00000000E+00
  6.00000000E+01  2.60000000E+02  0.00000000E+00
  6.00000000E+01  2.40000000E+02  0.00000000E+00
  6.00000000E+01  2.20000000E+02  0.00000000E+00
  6.00000000E+01  2.00000000E+02  0.00000000E+00
  6.00000000E+01  1.80000000E+02  0.00000000E+00
  6.00000000E+01  1.60000000E+02  0.00000000E+00
  6.00000000E+01  1.40000000E+02  0.00000000E+00
  6.00000000E+01  1.20000000E+02  0.00000000E+00
  6.00000000E+01  1.00000000E+02  0.00000000E+00
  6.00000000E+01  8.00000000E+01  0.00000000E+00
  6.00000000E+01  6.00000000E+01  0.00000000E+00
  6.00000000E+01  4.00000000E+01  0.00000000E+00
  6.00000000E+01  2.00000000E+01  0.00000000E+00
  6.00000000E+01  4.99600361E-14  0.00000000E+00
  8.00000000E+01  3.00000000E+02  0.00000000E+00
  8.00000000E+01  2.80000000E+02  0.00000000E+00
  8.00000000E+01  2.60000000E+02  0.00000000E+00
  8.00000000E+01  2.40000000E+02  0.00000000E+00
  8.00000000E+01  2.20000000E+02  0.00000000E+00
  8.00000000E+01  2.00000000E+02  0.00000000E+00
  8.00000000E+01  1.80000000E+02  0.00000000E+00
  8.00000000E+01  1.60000000E+02  0.00000000E+00
  8.00000000E+01  1.40000000E+02  0.00000000E+00
  8.00000000E+01  1.20000000E+02  0.00000000E+00
  8.00000000E+01  1.00000000E+02  0.00000000E+00
  8.00000000E+01  8.00000000E+01  0.00000000E+00
  8.00000000E+01  6.00000000E+01  0.00000000E+00
  8.00000000E+01  4.00000000E+01  0.00000000E+00
  8.00000000E+01  2.00000000E+01  0.00000000E+00
  8.00000000E+01  4.99600361E-14  0.00000000E+00
  1.00000000E+02  3.00000000E+02  0.00000000E+00
  1.00000000E+02  2.80000000E+02  0.00000000E+00
  1.00000000E+02  2.60000000E+02  0.00000000E+00
  1.00000000E+02  2.40000000E+02  0.00000000E+00
  1.00000000E+02  2.20000000E+02  0.00000000E+00
  1.00000000E+02  2.00000000E+02  0.00000000E+00
  1.00000000E+02  1.80000000E+02  0.00000000E+00
  1.00000000E+02  1.60000000E+02  0.00000000E+00
  1.00000000E+02  1.40000000E+02  0.00000000E+00
  1.00000000E+02  1.20000000E+02  0.00000000E+00
  1.00000000E+02  1.00000000E+02  0.00000000E+00
  1.00000000E+02  8.00000000E+01  0.00000000E+00
  1.00000000E+02  6.00000000E+01  0.00000000E+00
  1.00000000E+02  4.00000000E+01  0.00000000E+00
  1.00000000E+02  2.00000000E+01  0.00000000E+00
  1.00000000E+02  4.99600361E-14  0.00000000E+00
  1.20000000E+02  3.00000000E+02  0.00000000E+00
  1.20000000E+02  2.80000000E+02  0.00000000E+00
  1.20000000E+02  2.60000000E+02  0.00000000E+00
  1.20000000E+02  2.40000000E+02  0.00000000E+00
  1.20000000E+02  2.20000000E+02  0.00000000E+00
  1.20000000E+02  2.00000000E+02  0.00000000E+00
  1.20000000E+02  1.80000000E+02  0.00000000E+00
  1.20000000E+02  1.60000000E+02  0.00000000E+00
  1.20000000E+02  1.40000000E+02  0.00000000E+00
  1.20000000E+02  1.20000000E+02  0.00000000E+00
  1.20000000E+02  1.00000000E+02  0.00000000E+00
  1.20000000E+02  8.00000000E+01  0.00000000E+00
  1.20000000E+02  6.00000000E+01  0.00000000E+00
  1.20000000E+02  4.00000000E+01  0.00000000E+00
  1.20000000E+02  2.00000000E+01  0.00000000E+00
  1.20000000E+02  4.99600361E-14  0.00000000E+00
  1.40000000E+02  3.00000000E+02  0.00000000E+00
  1.40000000E+02  2.80000000E+02  0.00000000E+00
  1.40000000E+02  2.60000000E+02  0.00000000E+00
  1.40000000E+02  2.40000000E+02  0.00000000E+00
  1.40000000E+02  2.20000000E+02  0.00000000E+00
  1.40000000E+02  2.00000000E+02  0.00000000E+00
  1.40000000E+02  1.80000000E+02  0.00000000E+00
  1.40000000E+02  1.60000000E+02  0.00000000E+00
  1.40000000E+02  1.40000000E+02  0.00000000E+00
  1.40000000E+02  1.20000000E+02  0.00000000E+00
  1.40000000E+02  1.00000000E+02  0.00000000E+00
  1.40000000E+02  8.00000000E+01  0.00000000E+00
  1.40000000E+02  6.00000000E+01  0.00000000E+00
  1.40000000E+02  4.00000000E+01  0.00000000E+00
  1.40000000E+02  2.00000000E+01  0.00000000E+00
  1.40000000E+02  4.99600361E-14  0.00000000E+00
  1.60000000E+02  3.00000000E+02  0.00000000E+00
  1.60000000E+02  2.80000000E+02  0.00000000E+00
  1.60000000E+02  2.60000000E+02  0.00000000E+00
  1.60000000E+02  2.40000000E+02  0.00000000E+00
  1.60000000E+02  2.20000000E+02  0.00000000E+00
  1.60000000E+02  2.00000000E+02  0.00000000E+00
  1.60000000E+02  1.80000000E+02  0.00000000E+00
  1.60000000E+02  1.60000000E+02  0.00000000E+00
  1.60000000E+02  1.40000000E+02  0.00000000E+00
  1.60000000E+02  1.20000000E+02  0.00000000E+00
  1.60000000E+02  1.00000000E+02  0.00000000E+00
  1.60000000E+02  8.00000000E+01  0.00000000E+00
  1.60000000E+02  6.00000000E+01  0.00000000E+00
  1.60000000E+02  4.00000000E+01  0.00000000E+00
  1.60000000E+02  2.00000000E+01  0.00000000E+00
  1.60000000E+02  4.99600361E-14  0.00000000E+00
  1.80000000E+02  3.00000000E+02  0.00000000E+00
  1.80000000E+02  2.80000000E+02  0.00000000E+00
  1.80000000E+02  2.60000000E+02  0.00000000E+00
  1.80000000E+02  2.40000000E+02  0.00000000E+00
  1.80000000E+02  2.20000000E+02  0.00000000E+00
  1.80000000E+02  2.00000000E+02  0.00000000E+00
  1.80000000E+02  1.80000000E+02  0.00000000E+00
  1.80000000E+02  1.60000000E+02  0.00000000E+00
  1.80000000E+02  1.40000000E+02  0.00000000E+00
  1.80000000E+02  1.20000000E+02  0.00000000E+00
  1.80000000E+02  1.00000000E+02  0.00000000E+00
  1.80000000E+02  8.00000000E+01  0.00000000E+00
  1.80000000E+02  6.00000000E+01  0.00000000E+00
  1.80000000E+02  4.00000000E+01  0.00000000E+00
  1.80000000E+02  2.00000000E+01  0.00000000E+00
  1.80000000E+02  4.99600361E-14  0.00000000E+00
  2.00000000E+02  3.00000000E+02  0.00000000E+00
  2.00000000E+02  2.80000000E+02  0.00000000E+00
  2.00000000E+02  2.60000000E+02  0.00000000E+00
  2.00000000E+02  2.40000000E+02  0.00000000E+00
  2.00000000E+02  2.20000000E+02  0.00000000E+00
  2.00000000E+02  2.00000000E+02  0.00000000E+00
  2.00000000E+02  1.80000000E+02  0.00000000E+00
  2.00000000E+02  1.60000000E+02  0.00000000E+00
  2.00000000E+02  1.40000000E+02  0.00000000E+00
  2.00000000E+02  1.20000000E+02  0.00000000E+00
  2.00000000E+02  1.00000000E+02  0.00000000E+00
  2.00000000E+02  8.00000000E+01  0.00000000E+00
  2.00000000E+02  6.00000000E+01  0.00000000E+00
  2.00000000E+02  4.00000000E+01  0.00000000E+00
  2.00000000E+02  2.00000000E+01  0.00000000E+00
  2.00000000E+02  4.99600361E-14  0.00000000E+00
  2.20000000E+02  3.00000000E+02  0.00000000E+00
  2.20000000E+02  2.80000000E+02  0.00000000E+00
  2.20000000E+02  2.60000000E+02  0.00000000E+00
  2.20000000E+02  2.40000000E+02  0.00000000E+00
  2.20000000E+02  2.20000000E+02  0.00000000E+00
  2.20000000E+02  2.00000000E+02  0.00000000E+00
  2.20000000E+02  1.80000000E+02  0.00000000E+00
  2.20000000E+02  1.60000000E+02  0.00000000E+00
  2.20000000E+02  1.40000000E+02  0.00000000E+00
  2.20000000E+02  1.20000000E+02  0.00000000E+00
  2.20000000E+02  1.00000000E+02  0.00000000E+00
  2.20000000E+02  8.00000000E+01  0.00000000E+00
  2.20000000E+02  6.00000000E+01  0.00000000E+00
  2.20000000E+02  4.00000000E+01  0.00000000E+00
  2.20000000E+02  2.00000000E+01  0.00000000E+00
  2.20000000E+02  4.99600361E-14  0.00000000E+00
  2.40000000E+02  3.00000000E+02  0.00000000E+00
  2.40000000E+02  2.80000000E+02  0.00000000E+00
  2.40000000E+02  2.60000000E+02  0.00000000E+00
  2.40000000E+02  2.40000000E+02  0.00000000E+00
  2.40000000E+02  2.20000000E+02  0.00000000E+00
  2.40000000E+02  2.00000000E+02  0.00000000E+00
  2.40000000E+02  1.80000000E+02  0.00000000E+00
  2.40000000E+02  1.60000000E+02  0.00000000E+00
  2.40000000E+02  1.40000000E+02  0.00000000E+00
  2.40000000E+02  1.20000000E+02  0.00000000E+00
  2.40000000E+02  1.00000000E+02  0.00000000E+00
  2.40000000E+02  8.00000000E+01  0.00000000E+00
  2.40000000E+02  6.00000000E+01  0.00000000E+00
  2.40000000E+02  4.00000000E+01  0.00000000E+00
  2.40000000E+02  2.00000000E+01  0.00000000E+00
  2.40000000E+02  4.99600361E-14  0.00000000E+00
  2.60000000E+02  3.00000000E+02  0.00000000E+00
  2.60000000E+02  2.80000000E+02  0.00000000E+00
  2.60000000E+02  2.60000000E+02  0.00000000E+00
  2.60000000E+02  2.40000000E+02  0.00000000E+00
  2.60000000E+02  2.20000000E+02  0.00000000E+00
  2.60000000E+02  2.00000000E+02  0.00000000E+00
  2.60000000E+02  1.80000000E+02  0.00000000E+00
  2.60000000E+02  1.60000000E+02  0.00000000E+00
  2.60000000E+02  1.40000000E+02  0.00000000E+00
  2.60000000E+02  1.20000000E+02  0.00000000E+00
  2.60000000E+02  1.00000000E+02  0.00000000E+00
  2.60000000E+02  8.00000000E+01  0.00000000E+00
  2.60000000E+02  6.00000000E+01  0.00000000E+00
  2.60000000E+02  4.00000000E+01  0.00000000E+00
  2.60000000E+02  2.00000000E+01  0.00000000E+00
  2.60000000E+02  4.99600361E-14  0.00000000E+00
  2.80000000E+02  3.00000000E+02  0.00000000E+00
  2.80000000E+02  2.80000000E+02  0.00000000E+00
  2.80000000E+02  2.60000000E+02  0.00000000E+00
  2.80000000E+02  2.40000000E+02  0.00000000E+00
  2.80000000E+02  2.20000000E+02  0.00000000E+00
  2.80000000E+02  2.00000000E+02  0.00000000E+00
  2.80000000E+02  1.80000000E+02  0.00000000E+00
  2.80000000E+02  1.60000000E+02  0.00000000E+00
  2.80000000E+02  1.40000000E+02  0.00000000E+00
  2.80000000E+02  1.20000000E+02  0.00000000E+00
  2.80000000E+02  1.00000000E+02  0.00000000E+00
  2.80000000E+02  8.00000000E+01  0.00000000E+00
  2.80000000E+02  6.00000000E+01  0.00000000E+00
  2.80000000E+02  4.00000000E+01  0.00000000E+00
  2.80000000E+02  2.00000000E+01  0.00000000E+00
  2.80000000E+02  4.99600361E-14  0.00000000E+00
  3.00000000E+02  3.00000000E+02  0.00000000E+00
  3.00000000E+02  2.80000000E+02  0.00000000E+00
  3.00000000E+02  2.60000000E+02  0.00000000E+00
  3.00000000E+02  2.40000000E+02  0.00000000E+00
  3.00000000E+02  2.20000000E+02  0.00000000E+00
  3.00000000E+02  2.00000000E+02  0.00000000E+00
  3.00000000E+02  1.80000000E+02  0.00000000E+00
  3.00000000E+02  1.60000000E+02  0.00000000E+00
  3.00000000E+02  1.40000000E+02  0.00000000E+00
  3.00000000E+02  1.20000000E+02  0.00000000E+00
  3.00000000E+02  1.00000000E+02  0.00000000E+00
  3.00000000E+02  8.00000000E+01  0.00000000E+00
  3.00000000E+02  6.00000000E+01  0.00000000E+00
  3.00000000E+02  4.00000000E+01  0.00000000E+00
  3.00000000E+02  2.00000000E+01  0.00000000E+00
  3.00000000E+02  4.99600361E-14  0.00000000E+00
  3.20000000E+02  3.00000000E+02  0.00000000E+00
  3.20000000E+02  2.80000000E+02  0.00000000E+00
  3.20000000E+02  2.60000000E+02  0.00000000E+00
  3.20000000E+02  2.40000000E+02  0.00000000E+00
  3.20000000E+02  2.20000000E+02  0.00000000E+00
  3.20000000E+02  2.00000000E+02  0.00000000E+00
  3.20000000E+02  1.80000000E+02  0.00000000E+00
  3.20000000E+02  1.60000000E+02  0.00000000E+00
  3.20000000E+02  1.40000000E+02  0.00000000E+00
  3.20000000E+02  1.20000000E+02  0.00000000E+00
  3.20000000E+02  1.00000000E+02  0.00000000E+00
  3.20000000E+02  8.00000000E+01  0.00000000E+00
  3.20000000E+02  6.00000000E+01  0.00000000E+00
  3.20000000E+02  4.00000000E+01  0.00000000E+00
  3.20000000E+02  2.00000000E+01  0.00000000E+00
  3.20000000E+02  4.99600361E-14  0.00000000E+00
  3.40000000E+02  3.00000000E+02  0.00000000E+00
  3.40000000E+02  2.80000000E+02  0.00000000E+00
  3.40000000E+02  2.60000000E+02  0.00000000E+00
  3.40000000E+02  2.40000000E+02  0.00000000E+00
  3.40000000E+02  2.20000000E+02  0.00000000E+00
  3.40000000E+02  2.00000000E+02  0.00000000E+00
  3.40000000E+02  1.80000000E+02  0.00000000E+00
  3.40000000E+02  1.60000000E+02  0.00000000E+00
  3.40000000E+02  1.40000000E+02  0.00000000E+00
  3.40000000E+02  1.20000000E+02  0.00000000E+00
  3.40000000E+02  1.00000000E+02  0.00000000E+00
  3.40000000E+02  8.00000000E+01  0.00000000E+00
  3.40000000E+02  6.00000000E+01  0.00000000E+00
  3.40000000E+02  4.00000000E+01  0.00000000E+00
  3.40000000E+02  2.00000000E+01  0.00000000E+00
  3.40000000E+02  4.99600361E-14  0.00000000E+00
  3.60000000E+02  3.00000000E+02  0.00000000E+00
  3.60000000E+02  2.80000000E+02  0.00000000E+00
  3.60000000E+02  2.60000000E+02  0.00000000E+00
  3.60000000E+02  2.40000000E+02  0.00000000E+00
  3.60000000E+02  2.20000000E+02  0.00000000E+00
  3.60000000E+02  2.00000000E+02  0.00000000E+00
  3.60000000E+02  1.80000000E+02  0.00000000E+00
  3.60000000E+02  1.60000000E+02  0.00000000E+00
  3.60000000E+02  1.40000000E+02  0.00000000E+00
  3.60000000E+02  1.20000000E+02  0.00000000E+00
  3.60000000E+02  1.00000000E+02  0.00000000E+00
  3.60000000E+02  8.00000000E+01  0.00000000E+00
  3.60000000E+02  6.00000000E+01  0.00000000E+00
  3.60000000E+02  4.00000000E+01  0.00000000E+00
  3.60000000E+02  2.00000000E+01  0.00000000E+00
  3.60000000E+02  4.99600361E-14  0.00000000E+00
  3.80000000E+02  3.00000000E+02  0.00000000E+00
  3.80000000E+02  2.80000000E+02  0.00000000E+00
  3.80000000E+02  2.60000000E+02  0.00000000E+00
  3.80000000E+02  2.40000000E+02  0.00000000E+00
  3.80000000E+02  2.20000000E+02  0.00000000E+00
  3.80000000E+02  2.00000000E+02  0.00000000E+00
  3.80000000E+02  1.80000000E+02  0.00000000E+00
  3.80000000E+02  1.60000000E+02  0.00000000E+00
  3.80000000E+02  1.40000000E+02  0.00000000E+00
  3.80000000E+02  1.20000000E+02  0.00000000E+00
  3.80000000E+02  1.00000000E+02  0.00000000E+00
  3.80000000E+02  8.00000000E+01  0.00000000E+00
  3.80000000E+02  6.00000000E+01  0.00000000E+00
  3.80000000E+02  4.00000000E+01  0.00000000E+00
  3.80000000E+02  2.00000000E+01  0.00000000E+00
  3.80000000E+02  4.99600361E-14  0.00000000E+00
  4.00000000E+02  3.00000000E+02  0.00000000E+00
  4.00000000E+02  2.80000000E+02  0.00000000E+00
  4.00000000E+02  2.60000000E+02  0.00000000E+00
  4.00000000E+02  2.40000000E+02  0.00000000E+00
  4.00000000E+02  2.20000000E+02  0.00000000E+00
  4.00000000E+02  2.00000000E+02  0.00000000E+00
  4.00000000E+02  1.80000000E+02  0.00000000E+00
  4.00000000E+02  1.60000000E+02  0.00000000E+00
  4.00000000E+02  1.40000000E+02  0.00000000E+00
  4.00000000E+02  1.20000000E+02  0.00000000E+00
  4.00000000E+02  1.00000000E+02  0.00000000E+00
  4.00000000E+02  8.00000000E+01  0.00000000E+00
  4.00000000E+02  6.00000000E+01  0.00000000E+00
  4.00000000E+02  4.00000000E+01  0.00000000E+00
  4.00000000E+02  2.00000000E+01  0.00000000E+00
  4.00000000E+02  4.99600361E-14  0.00000000E+00
  4.20000000E+02  3.00000000E+02  0.00000000E+00
  4.20000000E+02  2.80000000E+02  0.00000000E+00
  4.20000000E+02  2.60000000E+02  0.00000000E+00
  4.20000000E+02  2.40000000E+02  0.00000000E+00
  4.20000000E+02  2.20000000E+02  0.00000000E+00
  4.20000000E+02  2.00000000E+02  0.00000000E+00
  4.20000000E+02  1.80000000E+02  0.00000000E+00
  4.20000000E+02  1.60000000E+02  0.00000000E+00
  4.20000000E+02  1.40000000E+02  0.00000000E+00
  4.20000000E+02  1.20000000E+02  0.00000000E+00
  4.20000000E+02  1.00000000E+02  0.00000000E+00
  4.20000000E+02  8.00000000E+01  0.00000000E+00
  4.20000000E+02  6.00000000E+01  0.00000000E+00
  4.20000000E+02  4.00000000E+01  0.00000000E+00
  4.20000000E+02  2.00000000E+01  0.00000000E+00
  4.20000000E+02  4.99600361E-14  0.00000000E+00
  4.40000000E+02  3.00000000E+02  0.00000000E+00
  4.40000000E+02  2.80000000E+02  0.00000000E+00
  4.40000000E+02  2.60000000E+02  0.00000000E+00
  4.40000000E+02  2.40000000E+02  0.00000000E+00
  4.40000000E+02  2.20000000E+02  0.00000000E+00
  4.40000000E+02  2.00000000E+02  0.00000000E+00
  4.40000000E+02  1.80000000E+02  0.00000000E+00
  4.40000000E+02  1.60000000E+02  0.00000000E+00
  4.40000000E+02  1.40000000E+02  0.00000000E+00
  4.40000000E+02  1.20000000E+02  0.00000000E+00
  4.40000000E+02  1.00000000E+02  0.00000000E+00
  4.40000000E+02  8.00000000E+01  0.00000000E+00
  4.40000000E+02  6.00000000E+01  0.00000000E+00
  4.40000000E+02  4.00000000E+01  0.00000000E+00
  4.40000000E+02  2.00000000E+01  0.00000000E+00
  4.40000000E+02  4.99600361E-14  0.00000000E+00
  4.60000000E+02  3.00000000E+02  0.00000000E+00
  4.60000000E+02  2.80000000E+02  0.00000000E+00
  4.60000000E+02  2.60000000E+02  0.00000000E+00
  4.60000000E+02  2.40000000E+02  0.00000000E+00
  4.60000000E+02  2.20000000E+02  0.00000000E+00
  4.60000000E+02  2.00000000E+02  0.00000000E+00
  4.60000000E+02  1.80000000E+02  0.00000000E+00
  4.60000000E+02  1.60000000E+02  0.00000000E+00
  4.60000000E+02  1.40000000E+02  0.00000000E+00
  4.60000000E+02  1.20000000E+02  0.00000000E+00
  4.60000000E+02  1.00000000E+02  0.00000000E+00
  4.60000000E+02  8.00000000E+01  0.00000000E+00
  4.60000000E+02  6.00000000E+01  0.00000000E+00
  4.60000000E+02  4.00000000E+01  0.00000000E+00
  4.60000000E+02  2.00000000E+01  0.00000000E+00
  4.60000000E+02  4.99600361E-14  0.00000000E+00
  4.80000000E+02  3.00000000E+02  0.00000000E+00
  4.80000000E+02  2.80000000E+02  0.00000000E+00
  4.80000000E+02  2.60000000E+02  0.00000000E+00
  4.80000000E+02  2.40000000E+02  0.00000000E+00
  4.80000000E+02  2.20000000E+02  0.00000000E+00
  4.80000000E+02  2.00000000E+02  0.00000000E+00
  4.80000000E+02  1.80000000E+02  0.00000000E+00
  4.80000000E+02  1.60000000E+02  0.00000000E+00
  4.80000000E+02  1.40000000E+02  0.00000000E+00
  4.80000000E+02  1.20000000E+02  0.00000000E+00
  4.80000000E+02  1.00000000E+02  0.00000000E+00
  4.80000000E+02  8.00000000E+01  0.00000000E+00
  4.80000000E+02  6.00000000E+01  0.00000000E+00
  4.80000000E+02  4.00000000E+01  0.00000000E+00
  4.80000000E+02  2.00000000E+01  0.00000000E+00
  4.80000000E+02  4.99600361E-14  0.00000000E+00
  5.00000000E+02  3.00000000E+02  0.00000000E+00
  5.00000000E+02  2.80000000E+02  0.00000000E+00
  5.00000000E+02  2.60000000E+02  0.00000000E+00
  5.00000000E+02  2.40000000E+02  0.00000000E+00
  5.00000000E+02  2.20000000E+02  0.00000000E+00
  5.00000000E+02  2.00000000E+02  0.00000000E+00
  5.00000000E+02  1.80000000E+02  0.00000000E+00
  5.00000000E+02  1.60000000E+02  0.00000000E+00
  5.00000000E+02  1.40000000E+02  0.00000000E+00
  5.00000000E+02  1.20000000E+02  0.00000000E+00
  5.00000000E+02  1.00000000E+02  0.00000000E+00
  5.00000000E+02  8.00000000E+01  0.00000000E+00
  5.00000000E+02  6.00000000E+01  0.00000000E+00
  5.00000000E+02  4.00000000E+01  0.00000000E+00
  5.00000000E+02  2.00000000E+01  0.00000000E+00
  5.00000000E+02  4.99600361E-14  0.00000000E+00
  5.20000000E+02  3.00000000E+02  0.00000000E+00
  5.20000000E+02  2.80000000E+02  0.00000000E+00
  5.20000000E+02  2.60000000E+02  0.00000000E+00
  5.20000000E+02  2.40000000E+02  0.00000000E+00
  5.20000000E+02  2.20000000E+02  0.00000000E+00
  5.20000000E+02  2.00000000E+02  0.00000000E+00
  5.20000000E+02  1.80000000E+02  0.00000000E+00
  5.20000000E+02  1.60000000E+02  0.00000000E+00
  5.20000000E+02  1.40000000E+02  0.00000000E+00
  5.20000000E+02  1.20000000E+02  0.00000000E+00
  5.20000000E+02  1.00000000E+02  0.00000000E+00
  5.20000000E+02  8.00000000E+01  0.00000000E+00
  5.20000000E+02  6.00000000E+01  0.00000000E+00
  5.20000000E+02  4.00000000E+01  0.00000000E+00
  5.20000000E+02  2.00000000E+01  0.00000000E+00
  5.20000000E+02  4.99600361E-14  0.00000000E+00
  5.40000000E+02  3.00000000E+02  0.00000000E+00
  5.40000000E+02  2.80000000E+02  0.00000000E+00
  5.40000000E+02  2.60000000E+02  0.00000000E+00
  5.40000000E+02  2.40000000E+02  0.00000000E+00
  5.40000000E+02  2.20000000E+02  0.00000000E+00
  5.40000000E+02  2.00000000E+02  0.00000000E+00
  5.40000000E+02  1.80000000E+02  0.00000000E+00
  5.40000000E+02  1.60000000E+02  0.00000000E+00
  5.40000000E+02  1.40000000E+02  0.00000000E+00
  5.40000000E+02  1.20000000E+02  0.00000000E+00
  5.40000000E+02  1.00000000E+02  0.00000000E+00
  5.40000000E+02  8.00000000E+01  0.00000000E+00
  5.40000000E+02  6.00000000E+01  0.00000000E+00
  5.40000000E+02  4.00000000E+01  0.00000000E+00
  5.40000000E+02  2.00000000E+01  0.00000000E+00
  5.40000000E+02  4.99600361E-14  0.00000000E+00
  5.60000000E+02  3.00000000E+02  0.00000000E+00
  5.60000000E+02  2.80000000E+02  0.00000000E+00
  5.60000000E+02  2.60000000E+02  0.00000000E+00
  5.60000000E+02  2.40000000E+02  0.00000000E+00
  5.60000000E+02  2.20000000E+02  0.00000000E+00
  5.60000000E+02  2.00000000E+02  0.00000000E+00
  5.60000000E+02  1.80000000E+02  0.00000000E+00
  5.60000000E+02  1.60000000E+02  0.00000000E+00
  5.60000000E+02  1.40000000E+02  0.00000000E+00
  5.60000000E+02  1.20000000E+02  0.00000000E+00
  5.60000000E+02  1.00000000E+02  0.00000000E+00
  5.60000000E+02  8.00000000E+01  0.00000000E+00
  5.60000000E+02  6.00000000E+01  0.00000000E+00
  5.60000000E+02  4.00000000E+01  0.00000000E+00
  5.60000000E+02  2.00000000E+01  0.00000000E+00
  5.60000000E+02  4.99600361E-14  0.00000000E+00
  5.80000000E+02  3.00000000E+02  0.00000000E+00
  5.80000000E+02  2.80000000E+02  0.00000000E+00
  5.80000000E+02  2.60000000E+02  0.00000000E+00
  5.80000000E+02  2.40000000E+02  0.00000000E+00
  5.80000000E+02  2.20000000E+02  0.00000000E+00
  5.80000000E+02  2.00000000E+02  0.00000000E+00
  5.80000000E+02  1.80000000E+02  0.00000000E+00
  5.80000000E+02  1.60000000E+02  0.00000000E+00
  5.80000000E+02  1.40000000E+02  0.00000000E+00
  5.80000000E+02  1.20000000E+02  0.00000000E+00
  5.80000000E+02  1.00000000E+02  0.00000000E+00
  5.80000000E+02  8.00000000E+01  0.00000000E+00
  5.80000000E+02  6.00000000E+01  0.00000000E+00
  5.80000000E+02  4.00000000E+01  0.00000000E+00
  5.80000000E+02  2.00000000E+01  0.00000000E+00
  5.80000000E+02  4.99600361E-14  0.00000000E+00
  6.00000000E+02  3.00000000E+02  0.00000000E+00
  6.00000000E+02  2.80000000E+02  0.00000000E+00
  6.00000000E+02  2.60000000E+02  0.00000000E+00
  6.00000000E+02  2.40000000E+02  0.00000000E+00
  6.00000000E+02  2.20000000E+02  0.00000000E+00
  6.00000000E+02  2.00000000E+02  0.00000000E+00
  6.00000000E+02  1.80000000E+02  0.00000000E+00
  6.00000000E+02  1.60000000E+02  0.00000000E+00
  6.00000000E+02  1.40000000E+02  0.00000000E+00
  6.00000000E+02  1.20000000E+02  0.00000000E+00
  6.00000000E+02  1.00000000E+02  0.00000000E+00
  6.00000000E+02  8.00000000E+01  0.00000000E+00
  6.00000000E+02  6.00000000E+01  0.00000000E+00
  6.00000000E+02  4.00000000E+01  0.00000000E+00
  6.00000000E+02  2.00000000E+01  0.00000000E+00
  6.00000000E+02  4.99600361E-14  0.00000000E+00
CELLS       450      2250
         4           0           1          17          16
         4           1           2          18          17
         4           2           3          19          18
         4           3           4          20          19
         4           4           5          21          20
         4           5           6          22          21
         4           6           7          23          22
         4           7           8          24          23
         4           8           9          25          24
         4           9          10          26          25
         4          10          11          27          26
         4          11          12          28          27
         4          12          13          29          28
         4          13          14          30          29
         4          14          15          31          30
         4          16          17          33          32
         4          17          18          34          33
         4          18          19          35          34
         4          19          20          36          35
         4          20          21          37          36
         4          21          22          38          37
         4          22          23          39          38
         4          23          24          40          39
         4          24          25          41          40
         4          25          26          42          41
         4          26          27          43          42
         4          27          28          44          43
         4          28          29          45          44
         4          29          30          46          45
         4          30          31          47          46
         4          32          33          49          48
         4          33          34          50          49
         4          34          35          51          50
         4          35          36          52          51
         4          36          37          53          52
         4          37          38          54          53
         4          38          39          55          54
         4          39          40          56          55
         4          40          41          57          56
         4          41          42          58          57
         4          42          43          59          58
         4          43          44          60          59
         4          44          45          61          60
         4          45          46          62          61
         4          46          47          63          62
         4          48          49          65          64
         4          49          50          66          65
         4          50          51          67          66
         4          51          52          68          67
         4          52          53          69          68
         4          53          54          70          69
         4          54          55          71          70
         4          55          56          72          71
         4          56          57          73          72
         4          57          58          74          73
         4          58          59          75          74
         4          59          60          76          75
         4          60          61          77          76
         4          61          62          78          77
         4          62          63          79          78
         4          64          65          81          80
         4          65          66          82          81
         4          66          67          83          82
         4          67          68          84          83
         4          68          69          85          84
         4          69          70          86          85
         4          70          71          87          86
         4          71          72          88          87
         4          72          73          89          88
         4          73          74          90          89
         4          74          75          91          90
         4          75          76          92          91
         4          76          77          93          92
         4          77          78          94          93
         4          78          79          95          94
         4          80          81          97          96
         4          81          82          98          97
         4          82          83          99          98
         4          83          84         100          99
         4          84          85         101         100
         4          85          86         102         101
         4          86          87         103         102
         4          87          88         104         103
         4          88          89         105         104
         4          89          90         106         105
         4          90          91         107         106
         4          91          92         108         107
         4          92          93         109         108
         4          93          94         110         109
         4          94          95         111         110
         4          96          97         113         112
         4          97          98         114         113
         4          98          99         115         114
         4          99         100         116         115
         4         100         101         117         116
         4         101         102         118         117
         4         102         103         119         118
         4         103         104         120         119
         4         104         105         121         120
         4         105         106         122         121
         4         106         107         123         122
         4         107         108         124         123
         4         108         109         125         124
         4         109         110         126         125
         4         110         111         127         126
         4         112         113         129         128
         4         113         114         130         129
         4         114         115         131         130
         4         115         116         132         131
         4         116         117         133         132
         4         117         118         134         133
         4         118         119         135         134
         4         119         120         136         135
         4         120         121         137         136
         4         121         122         138         137
         4         122         123         139         138
         4         123         124         140         139
         4         124         125         141         140
         4         125         126         142         141
         4         126         127         143         142
         4         128         129         145         144
         4         129         130         146         145
         4         130         131         147         146
         4         131         132         148         147
         4         132         133         149         148
         4         133         134         150         149
         4         134         135         151         150
         4         135         136         152         151
         4         136         137         153         152
         4         137         138         154         153
         4         138         139         155         154
         4         139         140         156         155
         4         140         141         157         156
         4         141         142         158         157
         4         142         143         159         158
         4         144         145         161         160
         4         145         146         162         161
         4         146         147         163         162
         4         147         148         164         163
         4         148         149         165         164
         4         149         150         166         165
         4         150         151         167         166
         4         151         152         168         167
         4         152         153         169         168
         4         153         154         170         169
         4         154         155         171         170
         4         155         156         172         171
         4         156         157         173         172
         4         157         158         174         173
         4         158         159         175         174
         4         160         161         177         176
         4         161         162         178         177
         4         162         163         179         178
         4         163         164         180         179
         4         164         165         181         180
         4         165         166         182         181
         4         166         167         183         182
         4         167         168         184         183
         4         168         169         185         184
         4         169         170         186         185
         4         170         171         187         186
         4         171         172         188         187
         4         172         173         189         188
         4         173         174         190         189
         4         174         175         191         190
         4         176         177         193         192
         4         177         178         194         193
         4         178         179         195         194
         4         179         180         196         195
         4         180         181         197         196
         4         181         182         198         197
         4         182         183         199         198
         4         183         184         200         199
         4         184         185         201         200
         4         185         186         202         201
         4         186         187         203         202
         4         187         188         204         203
         4         188         189         205         204
         4         189         190         206         205
         4         190         191         207         206
         4         192         193         209         208
         4         193         194         210         209
         4         194         195         211         210
         4         195         196         212         211
         4         196         197         213         212
         4         197         198         214         213
         4         198         199         215         214
         4         199         200         216         215
         4         200         201         217         216
         4         201         202         218         217
         4         202         203         219         218
         4         203         204         220         219
         4         204         205         221         220
         4         205         206         222         221
         4         206         207         223         222
         4         208         209         225         224
         4         209         210         226         225
         4         210         211         227         226
         4         211         212         228         227
         4         212         213         229         228
         4         213         214         230         229
         4         214         215         231         230
         4         215         216         232         231
         4         216         217         233         232
         4         217         218         234         233
         4         218         219         235         234
         4         219         220         236         235
         4         220         221         237         236
         4         221         222         238         237
         4         222         223         239         238
         4         224         225         241         240
         4         225         226         242         241
         4         226         227         243         242
         4         227         228         244         243
         4         228         229         245         244
         4         229         230         246         245
         4         230         231         247         246
         4         231         232         248         247
         4         232         233         249         248
         4         233         234         250         249
         4         234         235         251         250
         4         235         236         252         251
         4         236         237         253         252
         4         237         238         254         253
         4         238         239         255         254
         4         240         241         257         256
         4         241         242         258         257
         4         242         243         259         258
         4         243         244         260         259
         4         244         245         261         260
         4         245         246         262         261
         4         246         247         263         262
         4         247         248         264         263
         4         248         249         265         264
         4         249         250         266         265
         4         250         251         267         266
         4         251         252         268         267
         4         252         253         269         268
         4         253         254         270         269
         4         254         255         271         270
         4         256         257         273         272
         4         257         258         274         273
         4         258         259         275         274
         4         259         260         276         275
         4         260         261         277         276
         4         261         262         278         277
         4         262         263         279         278
         4         263         264         280         279
         4         264         265         281         280
         4         265         266         282         281
         4         266         267         283         282
         4         267         268         284         283
         4         268         269         285         284
         4         269         270         286         285
         4         270         271         287         286
         4         272         273         289         288
         4         273         274         290         289
         4         274         275         291         290
         4         275         276         292         291
         4         276         277         293         292
         4         277         278         294         293
         4         278         279         295         294
         4         279         280         296         295
         4         280         281         297         296
         4         281         282         298         297
         4         282         283         299         298
         4         283         284         300         299
         4         284         285         301         300
         4         285         286         302         301
         4         286         287         303         302
         4         288         289         305         304
         4         289         290         306         305
         4         290         291         307         306
         4         291         292         308         307
         4         292         293         309         308
         4         293         294         310         309
         4         294         295         311         310
         4         295         296         312         311
         4         296         297         313         312
         4         297         298         314         313
         4         298         299         315         314
         4         299         300         316         315
         4         300         301         317         316
         4         301         302         318         317
         4         302         303         319         318
         4         304         305         321         320
         4         305         306         322         321
         4         306         307         323         322
         4         307         308         324         323
         4         308         309         325         324
         4         309         310         326         325
         4         310         311         327         326
         4         311         312         328         327
         4         312         313         329         328
         4         313         314         330         329
         4         314         315         331         330
         4         315         316         332         331
         4         316         317         333         332
         4         317         318         334         333
         4         318         319         335         334
         4         320         321         337         336
         4         321         322         338         337
         4         322         323         339         338
         4         323         324         340         339
         4         324         325         341         340
         4         325         326         342         341
         4         326         327         343         342
         4         327         328         344         343
         4         328         329         345         344
         4         329         330         346         345
         4         330         331         347         346
         4         331         332         348         347
         4         332         333         349         348
         4         333         334         350         349
         4         334         335         351         350
         4         336         337         353         352
         4         337         338         354         353
         4         338         339         355         354
         4         339         340         356         355
         4         340         341         357         356
         4         341         342         358         357
         4         342         343         359         358
         4         343         344         360         359
         4         344         345         361         360
         4         345         346         362         361
         4         346         347         363         362
         4         347         348         364         363
         4         348         349         365         364
         4         349         350         366         365
         4         350         351         367         366
         4         352         353         369         368
         4         353         354         370         369
         4         354         355         371         370
         4         355         356         372         371
         4         356         357         373         372
         4         357         358         374         373
         4         358         359         375         374
         4         359         360         376         375
         4         360         361         377         376
         4         361         362         378         377
         4         362         363         379         378
         4         363         364         380         379
         4         364         365         381         380
         4         365         366         382         381
         4         366         367         383         382
         4         368         369         385         384
         4         369         370         386         385
         4         370         371         387         386
         4         371         372         388         387
         4         372         373         389         388
         4         373         374         390         389
         4         374         375         391         390
         4         375         376         392         391
         4         376         377         393         392
         4         377         378         394         393
         4         378         379         395         394
         4         379         380         396         395
         4         380         381         397         396
         4         381         382         398         397
         4         382         383         399         398
         4         384         385         401         400
         4         385         386         402         401
         4         386         387         403         402
         4         387         388         404         403
         4         388         389         405         404
         4         389         390         406         405
         4         390         391         407         406
         4         391         392         408         407
         4         392         393         409         408
         4         393         394         410         409
         4         394         395         411         410
         4         395         396         412         411
         4         396         397         413         412
         4         397         398         414         413
         4         398         399         415         414
         4         400         401         417         416
         4         401         402         418         417
         4         402         403         419         418
         4         403         404         420         419
         4         404         405         421         420
         4         405         406         422         421
         4         406         407         423         422
         4         407         408         424         423
         4         408         409         425         424
         4         409         410         426         425
         4         410         411         427         426
         4         411         412         428         427
         4         412         413         429         428
         4         413         414         430         429
         4         414         415         431         430
         4         416         417         433         432
         4         417         418         434         433
         4         418         419         435         434
         4         419         420         436         435
         4         420         421         437         436
         4         421         422         438         437
         4         422         423         439         438
         4         423         424         440         439
         4         424         425         441         440
         4         425         426         442         441
         4         426         427         443         442
         4         427         428         444         443
         4         428         429         445         444
         4         429         430         446         445
         4         430         431         447         446
         4         432         433         449         448
         4         433         434         450         449
         4         434         435         451         450
         4         435         436         452         451
         4         436         437         453         452
         4         437         438         454         453
         4         438         439         455         454
         4         439         440         456         455
         4         440         441         457         456
         4         441         442         458         457
         4         442         443         459         458
         4         443         444         460         459
         4         444         445         461         460
         4         445         446         462         461
         4         446         447         463         462
         4         448         449         465         464
         4         449         450         466         465
         4         450         451         467         466
         4         451         452         468         467
         4         452         453         469         468
         4         453         454         470         469
         4         454         455         471         470
         4         455         456         472         471
         4         456         457         473         472
         4         457         458         474         473
         4         458         459         475         474
         4         459         460         476         475
         4         460         461         477         476
         4         461         462         478         477
         4         462         463         479         478
         4         464         465         481         480
         4         465         466         482         481
         4         466         467         483         482
         4         467         468         484         483
         4         468         469         485         484
         4         469         470         486         485
         4         470         471         487         486
         4         471         472         488         487
         4         472         473         489         488
         4         473         474         490         489
         4         474         475         491         490
         4         475         476         492         491
         4         476         477         493         492
         4         477         478         494         493
         4         478         479         495         494
CELL_TYPES        450
9
9
9
9
9
9
9
9
9
9
9
9
9
9
9
9
9
9
9
9
9
9
9
9
9
9
9
9
9
9
9
9
9
9
9
9
9
9
9
9
9
9
9
9
9
9
9
9
9
9
9
9
9
9
9
9
9
9
9
9
9
9
9
9
9
9
9
9
9
9
9
9
9
9
9
9
9
9
9
9
9
9
9
9
9
9
9
9
9
9
9
9
9
9
9
9
9
9
9
9
9
9
9
9
9
9
9
9
9
9
9
9
9
9
9
9
9
9
9
9
9
9
9
9
9
9
9
9
9
9
9
9
9
9
9
9
9
9
9
9
9
9
9
9
9
9
9
9
9
9
9
9
9
9
9
9
9
9
9
9
9
9
9
9
9
9
9
9
9
9
9
9
9
9
9
9
9
9
9
9
9
9
9
9
9
9
9
9
9
9
9
9
9
9
9
9
9
9
9
9
9
9
9
9
9
9
9
9
9
9
9
9
9
9
9
9
9
9
9
9
9
9
9
9
9
9
9
9
9
9
9
9
9
9
9
9
9
9
9
9
9
9
9
9
9
9
9
9
9
9
9
9
9
9
9
9
9
9
9
9
9
9
9
9
9
9
9
9
9
9
9
9
9
9
9
9
9
9
9
9
9
9
9
9
9
9
9
9
9
9
9
9
9
9
9
9
9
9
9
9
9
9
9
9
9
9
9
9
9
9
9
9
9
9
9
9
9
9
9
9
9
9
9
9
9
9
9
9
9
9
9
9
9
9
9
9
9
9
9
9
9
9
9
9
9
9
9
9
9
9
9
9
9
9
9
9
9
9
9
9
9
9
9
9
9
9
9
9
9
9
9
9
9
9
9
9
9
9
9
9
9
9
9
9
9
9
9
9
9
9
9
9
9
9
9
9
9
9
9
9
9
9
9
9
9
9
9
9
9
9
9
9
9
9
9
9
9
9
9
9
9
9
9
9
9
9
9
9
9
9
9
9
9
9
9
9
9
9
9
9
9
9
9
9
9
9
9
9
9
9
POINT_DATA       496
SCALARS p double 
LOOKUP_TABLE default
   59751992.5800909     
   59754218.8761152     
   59758846.4195396     
   59764817.6972092     
   59771919.2539394     
   59779876.5017322     
   59788383.3025051     
   59797159.7126499     
   59805954.3883872     
   59814550.6948386     
   59822775.9637526     
   59830515.5919080     
   59837685.4192802     
   59844313.9932793     
   59850768.8889013     
   59855697.6920861     
   59749221.0990802     
   59751394.7538676     
   59756046.5174485     
   59762145.1824436     
   59769398.0068868     
   59777504.5714485     
   59786151.7048819     
   59795054.2134507     
   59803956.7562141     
   59812639.2393814     
   59820925.3150175     
   59828695.2118358     
   59835860.8122405     
   59842434.9683781     
   59848733.1131755     
   59853452.5727792     
   59746211.1759776     
   59748509.3927938     
   59753494.9266931     
   59760034.7686585     
   59767755.6378808     
   59776318.9522598     
   59785392.1525562     
   59794676.7501909     
   59803906.4758532     
   59812851.1652216     
   59821323.9337606     
   59829191.6885118     
   59836354.2626734     
   59842794.0167385     
   59848738.6786114     
   59853026.9466495     
   59741075.4183193     
   59743947.2578555     
   59749808.3676868     
   59757187.7286749     
   59765727.3942113     
   59775074.3366070     
   59784872.4725554     
   59794805.9503062     
   59804592.3630143     
   59813985.8323530     
   59822783.2032171     
   59830832.9728320     
   59838017.3783407     
   59844293.8779132     
   59849842.2047419     
   59853673.2098643     
   59733532.1743394     
   59737277.5179740     
   59744462.7707874     
   59753094.0080442     
   59762829.6414603     
   59773308.0381175     
   59784147.8901308     
   59795013.2180280     
   59805601.5312829     
   59815646.6551760     
   59824924.4130158     
   59833260.2387621     
   59840515.8398352     
   59846626.0866587     
   59851730.0854449     
   59855043.9992177     
   59723762.5334459     
   59728624.2851911     
   59737549.7123303     
   59747848.3310568     
   59759174.9937398     
   59771153.9419684     
   59783373.1614491     
   59795473.5021035     
   59807129.1900832     
   59818049.9613806     
   59827986.3194894     
   59836735.1653092     
   59844132.8622863     
   59850083.2322693     
   59854655.7000543     
   59857311.1644347     
   59711698.3884252     
   59717992.6994426     
   59729140.7285445     
   59741556.8324974     
   59754897.0261073     
   59768770.7693504     
   59782730.8151845     
   59796392.7556089     
   59809405.2999730     
   59821451.1991429     
   59832251.7074299     
   59841569.4096402     
   59849208.4001588     
   59855030.0016412     
   59859008.2962980     
   59860883.5753944     
   59697281.0196155     
   59705365.2971016     
   59719269.5888481     
   59734294.3742322     
   59750103.9208216     
   59766295.3647036     
   59782383.8791856     
   59797959.6891826     
   59812645.4458912     
   59826095.3855998     
   59837998.4819112     
   59848077.5820581     
   59856097.0980885     
   59861864.3086116     
   59865237.6203316     
   59866261.1292730     
   59680499.6601220     
   59690770.4617593     
   59708020.0096212     
   59726186.9903598     
   59744955.8522498     
   59763917.1857249     
   59782548.3426125     
   59800416.5666910     
   59817120.2605696     
   59832285.6464394     
   59845567.9404094     
   59856645.7274700     
   59865235.9814947     
   59871079.6267451     
   59873899.0882949     
   59874047.1348027     
   59661369.6370546     
   59674270.3647709     
   59695513.9367609     
   59717400.6241832     
   59739652.4994275     
   59761863.4705304     
   59783475.8615700     
   59804039.5682303     
   59823133.7354210     
   59840359.9781999     
   59855340.6602604     
   59867707.1927607     
   59877121.4009386     
   59883244.8597258     
   59885644.6329715     
   59884959.9034345     
   59639965.3073936     
   59655982.5814493     
   59681924.4585541     
   59708148.6796097     
   59734436.8131649     
   59760399.7970651     
   59785451.1191494     
   59809132.9872100     
   59831014.4976515     
   59850680.1330052     
   59867723.8643979     
   59881729.6840860     
   59892297.2412416     
   59898995.3296651     
   59901217.7803639     
   59899832.7328699     
   59616437.2352564     
   59636097.8704737     
   59667492.6186296     
   59698706.1005540     
   59729605.7693655     
   59759837.1234850     
   59788794.8321087     
   59816028.0287315     
   59841110.5193427     
   59863622.7828973     
   59883140.0429484     
   59899202.8192602     
   59911343.1300765     
   59919023.7002749     
   59921450.0262913     
   59919615.1374571     
   59591030.9715217     
   59614896.4395116     
   59652540.1193734     
   59689419.5938726     
   59725517.6258031     
   59760535.1011785     
   59793862.1921606     
   59825075.7203773     
   59853776.3485279     
   59879561.5368719     
   59902004.9218961     
   59920613.8854359     
   59934850.4987598     
   59944059.3691072     
   59947247.7273012     
   59945368.2509581     
   59564108.0328448     
   59592765.9297787     
   59637484.9522756     
   59680720.7440495     
   59722601.7514855     
   59762907.2149696     
   59801041.7855935     
   59836638.4491151     
   59869356.7616422     
   59898843.1028396     
   59924697.4816860     
   59946414.0943244     
   59963388.1714315     
   59974837.3519764     
   59979568.7238722     
   59978250.7388881     
   59536155.7058164     
   59570212.9727819     
   59622853.8988763     
   59673140.2048263     
   59721371.7488252     
   59767429.5063553     
   59810756.8044216     
   59851081.3534259     
   59888167.1961542     
   59921756.8736910     
   59951520.1941319     
   59976972.2776194     
   59997453.6957322     
   60012052.3285696     
   60019386.1169347     
   60019494.1912714     
   59507801.9766209     
   59547880.4122871     
   59609309.1656932     
   59667337.0585128     
   59722453.5962844     
   59774662.5241517     
   59823476.5107573     
   59868770.1127921     
   59910476.1235514     
   59948501.8372788     
   59982652.1022665     
   60012517.6220958     
   60037410.4934017     
   60056296.2589102     
   60067633.5414282     
   60070357.5751679     
   59479796.2646146     
   59526534.3653208     
   59597638.5182492     
   59664100.3204199     
   59726590.5089352     
   59785251.3288257     
   59839703.4614314     
   59890039.9318129     
   59936452.8963015     
   59979112.7012715     
   60018055.1498985     
   60053030.7910669     
   60083371.4971756     
   60107945.5543469     
   60125108.2877959     
   60132057.6123138     
   59452984.4354276     
   59507087.6051684     
   59588848.6031952     
   59664468.2858548     
   59734768.3948026     
   59800040.0109946     
   59860067.0707385     
   59915261.9771121     
   59966203.9232621     
   60013465.0189500     
   60057449.5354831     
   60098193.2651436     
   60135128.5864130     
   60167076.6371354     
   60192386.3960873     
   60205670.0752342     
   59428327.6624857     
   59490567.3534710     
   59584097.9937875     
   59669666.9913905     
   59748152.4437703     
   59819994.9558966     
   59885219.6247304     
   59944704.0775875     
   59999594.0050725     
   60051055.9340319     
   60100055.9425714     
   60147098.9749470     
   60191848.9002850     
   60233175.7610648     
   60269563.3959830     
   60291952.5064948     
   59406485.7362217     
   59478025.3308935     
   59584883.5897852     
   59681439.3390135     
   59768454.3727997     
   59846548.4889743     
   59916133.6738772     
   59978774.3388301     
   60036434.7562289     
   60091135.2283778     
   60144665.9566481     
   60198261.8079745     
   60252026.4838800     
   60305043.3662073     
   60356166.5206424     
   60391211.9222256     
   59388676.4581363     
   59471017.6056931     
   59593457.3048801     
   59702308.4385053     
   59798091.0367295     
   59881673.1441736     
   59954096.0620468     
   60017944.1033197     
   60076341.0204164     
   60132494.3711159     
   60189358.8462626     
   60249263.6661059     
   60313073.9077556     
   60380369.0727636     
   60450691.4831090     
   60502858.9264526     
   59374442.1720142     
   59470190.3456373     
   59611597.3973142     
   59734859.1578067     
   59839620.1940168     
   59927280.3711244     
   60000021.8904983     
   60061980.6466809     
   60117895.7320962     
   60172556.5166518     
   60230492.9194710     
   60295620.9182905     
   60370102.0691402     
   60454570.5297443     
   60549830.0976055     
   60625300.6623014     
   59363603.8639110     
   59478653.8131835     
   59646174.3053679     
   59786920.0320994     
   59900345.2353841     
   59989387.5958892     
   60058350.7526839     
   60113700.2316345     
   60162318.1185472     
   60210957.8129116     
   60266136.5530319     
   60333963.7398429     
   60418675.2137052     
   60522894.2009581     
   60649716.1552306     
   60755457.4626333     
   59361986.8337524     
   59500057.5309382     
   59701201.6603162     
   59862754.7770967     
   59983321.2343903     
   60068987.1151891     
   60127814.3583820     
   60169731.1803226     
   60204279.9171299     
   60240396.7233827     
   60286874.6859469     
   60352720.6989824     
   60445563.3006038     
   60572032.1800671     
   60739362.8109056     
   60886662.5272261     
   59339909.4708745     
   59527717.9289085     
   59785345.0738847     
   59975620.0727902     
   60099580.5059623     
   60173179.1215569     
   60212127.6079607     
   60231159.3851982     
   60242681.1726746     
   60257522.1640219     
   60286539.4882428     
   60342086.2195675     
   60436932.9111070     
   60585927.7837591     
   60806562.0401177     
   61013780.0150733     
   59360719.1144720     
   59623154.8380729     
   59967247.1965103     
   60182241.6603016     
   60293428.6740722     
   60338224.1661502     
   60342399.6794554     
   60325955.1677572     
   60303332.7643375     
   60285838.1007723     
   60285167.8509466     
   60316570.2769215     
   60398962.3718348     
   60560949.5154675     
   60840508.8601145     
   61117671.3271469     
   59407260.3769343     
   59735214.5885103     
   60176353.3552427     
   60403463.7120647     
   60475626.1867045     
   60466690.2912938     
   60416613.7219378     
   60350715.0581211     
   60282827.4789025     
   60221628.6305637     
   60176693.0257564     
   60164536.3386441     
   60210511.1285130     
   60368882.3946945     
   60736602.7710581     
   61168000.3487186     
   58928284.8067699     
   59821662.8703896     
   60577977.1528284     
   60785899.3143131     
   60757099.4577853     
   60649570.7866191     
   60520515.4881757     
   60392264.1389372     
   60270918.1667274     
   60157143.8745981     
   60052568.5892899     
   59967872.6425810     
   59927345.3695605     
   60006026.6221916     
   60468821.0200745     
   61243442.4141409     
   60378774.2456848     
   61872420.9773270     
   62540944.1002789     
   62337952.4195339     
   62012068.1246834     
   61726286.3672553     
   61485768.2834792     
   61280888.7622238     
   61097959.7676476     
   60922758.7753158     
   60741730.9541431     
   60544430.0340141     
   60320236.1345083     
   60099521.5448515     
   60125725.8140720     
   60824867.9561039     
   65064238.3897696     
   63648787.7508947     
   62324770.4469716     
   61321070.7144666     
   60646569.8816484     
   60201772.3253686     
   59879447.6835018     
   59624990.4590811     
   59405041.7693961     
   59192594.1158093     
   58961330.6409837     
   58677243.3415603     
   58281148.8034646     
   57689787.5525513     
   56750073.9685174     
   55401034.5528259     
   35800000.0000000     
   35800000.0000000     
   35800000.0000000     
   35800000.0000000     
   35800000.0000000     
   35800000.0000000     
   35800000.0000000     
   35800000.0000000     
   35800000.0000000     
   35800000.0000000     
   35800000.0000000     
   35800000.0000000     
   35800000.0000000     
   35800000.0000000     
   35800000.0000000     
   35800000.0000000     
VECTORS u double 
    0.00000E+00        -0.95600E-02         0.00000E+00
    0.00000E+00        -0.83269E-02         0.00000E+00
    0.00000E+00        -0.71273E-02         0.00000E+00
    0.00000E+00        -0.59891E-02         0.00000E+00
    0.00000E+00        -0.49327E-02         0.00000E+00
    0.00000E+00        -0.39730E-02         0.00000E+00
    0.00000E+00        -0.31200E-02         0.00000E+00
    0.00000E+00        -0.23788E-02         0.00000E+00
    0.00000E+00        -0.17505E-02         0.00000E+00
    0.00000E+00        -0.12323E-02         0.00000E+00
    0.00000E+00        -0.81817E-03         0.00000E+00
    0.00000E+00        -0.50014E-03         0.00000E+00
    0.00000E+00        -0.26858E-03         0.00000E+00
    0.00000E+00        -0.11352E-03         0.00000E+00
    0.00000E+00        -0.26574E-04         0.00000E+00
    0.00000E+00         0.00000E+00         0.00000E+00
    0.12557E-02        -0.95695E-02         0.00000E+00
    0.12309E-02        -0.83273E-02         0.00000E+00
    0.11808E-02        -0.71224E-02         0.00000E+00
    0.11079E-02        -0.59806E-02         0.00000E+00
    0.10174E-02        -0.49217E-02         0.00000E+00
    0.91456E-03        -0.39605E-02         0.00000E+00
    0.80423E-03        -0.31070E-02         0.00000E+00
    0.69096E-03        -0.23662E-02         0.00000E+00
    0.57876E-03        -0.17388E-02         0.00000E+00
    0.47103E-03        -0.12221E-02         0.00000E+00
    0.37048E-03        -0.80998E-03         0.00000E+00
    0.27900E-03        -0.49417E-03         0.00000E+00
    0.19752E-03        -0.26491E-03         0.00000E+00
    0.12581E-03        -0.11199E-03         0.00000E+00
    0.62116E-04        -0.26775E-04         0.00000E+00
    0.00000E+00         0.00000E+00         0.00000E+00
    0.25151E-02        -0.95844E-02         0.00000E+00
    0.24669E-02        -0.83264E-02         0.00000E+00
    0.23638E-02        -0.71075E-02         0.00000E+00
    0.22156E-02        -0.59552E-02         0.00000E+00
    0.20325E-02        -0.48891E-02         0.00000E+00
    0.18249E-02        -0.39238E-02         0.00000E+00
    0.16025E-02        -0.30687E-02         0.00000E+00
    0.13745E-02        -0.23287E-02         0.00000E+00
    0.11488E-02        -0.17042E-02         0.00000E+00
    0.93239E-03        -0.11920E-02         0.00000E+00
    0.73060E-03        -0.78562E-03         0.00000E+00
    0.54730E-03        -0.47634E-03         0.00000E+00
    0.38444E-03        -0.25378E-03         0.00000E+00
    0.24168E-03        -0.10702E-03         0.00000E+00
    0.11574E-03        -0.26231E-04         0.00000E+00
    0.00000E+00         0.00000E+00         0.00000E+00
    0.37965E-02        -0.96061E-02         0.00000E+00
    0.37214E-02        -0.83236E-02         0.00000E+00
    0.35618E-02        -0.70835E-02         0.00000E+00
    0.33341E-02        -0.59146E-02         0.00000E+00
    0.30544E-02        -0.48368E-02         0.00000E+00
    0.27382E-02        -0.38645E-02         0.00000E+00
    0.24005E-02        -0.30067E-02         0.00000E+00
    0.20549E-02        -0.22679E-02         0.00000E+00
    0.17133E-02        -0.16479E-02         0.00000E+00
    0.13862E-02        -0.11429E-02         0.00000E+00
    0.10818E-02        -0.74577E-03         0.00000E+00
    0.80610E-03        -0.44698E-03         0.00000E+00
    0.56212E-03        -0.23513E-03         0.00000E+00
    0.34974E-03        -0.97998E-04         0.00000E+00
    0.16499E-03        -0.23895E-04         0.00000E+00
    0.00000E+00         0.00000E+00         0.00000E+00
    0.51119E-02        -0.96413E-02         0.00000E+00
    0.50041E-02        -0.83234E-02         0.00000E+00
    0.47825E-02        -0.70538E-02         0.00000E+00
    0.44696E-02        -0.58621E-02         0.00000E+00
    0.40875E-02        -0.47681E-02         0.00000E+00
    0.36576E-02        -0.37859E-02         0.00000E+00
    0.31997E-02        -0.29242E-02         0.00000E+00
    0.27322E-02        -0.21865E-02         0.00000E+00
    0.22711E-02        -0.15722E-02         0.00000E+00
    0.18305E-02        -0.10766E-02         0.00000E+00
    0.14216E-02        -0.69176E-03         0.00000E+00
    0.10525E-02        -0.40687E-03         0.00000E+00
    0.72787E-03        -0.20926E-03         0.00000E+00
    0.44805E-03        -0.84947E-04         0.00000E+00
    0.20869E-03        -0.20074E-04         0.00000E+00
    0.00000E+00         0.00000E+00         0.00000E+00
    0.64726E-02        -0.96961E-02         0.00000E+00
    0.63245E-02        -0.83323E-02         0.00000E+00
    0.60331E-02        -0.70243E-02         0.00000E+00
    0.56273E-02        -0.58032E-02         0.00000E+00
    0.51356E-02        -0.46884E-02         0.00000E+00
    0.45850E-02        -0.36933E-02         0.00000E+00
    0.40007E-02        -0.28258E-02         0.00000E+00
    0.34058E-02        -0.20889E-02         0.00000E+00
    0.28207E-02        -0.14809E-02         0.00000E+00
    0.22629E-02        -0.99620E-03         0.00000E+00
    0.17468E-02        -0.62572E-03         0.00000E+00
    0.12831E-02        -0.35745E-03         0.00000E+00
    0.87825E-03        -0.17702E-03         0.00000E+00
    0.53356E-03        -0.68410E-04         0.00000E+00
    0.24461E-03        -0.15127E-04         0.00000E+00
    0.00000E+00         0.00000E+00         0.00000E+00
    0.78907E-02        -0.97787E-02         0.00000E+00
    0.76926E-02        -0.83583E-02         0.00000E+00
    0.73213E-02        -0.70030E-02         0.00000E+00
    0.68129E-02        -0.57458E-02         0.00000E+00
    0.62024E-02        -0.46052E-02         0.00000E+00
    0.55228E-02        -0.35938E-02         0.00000E+00
    0.48048E-02        -0.27184E-02         0.00000E+00
    0.40761E-02        -0.19811E-02         0.00000E+00
    0.33613E-02        -0.13791E-02         0.00000E+00
    0.26819E-02        -0.90573E-03         0.00000E+00
    0.20554E-02        -0.55080E-03         0.00000E+00
    0.14954E-02        -0.30086E-03         0.00000E+00
    0.10106E-02        -0.13974E-03         0.00000E+00
    0.60377E-03        -0.49076E-04         0.00000E+00
    0.27100E-03        -0.92886E-05         0.00000E+00
    0.00000E+00         0.00000E+00         0.00000E+00
    0.93787E-02        -0.98998E-02         0.00000E+00
    0.91183E-02        -0.84118E-02         0.00000E+00
    0.86549E-02        -0.70005E-02         0.00000E+00
    0.80323E-02        -0.57004E-02         0.00000E+00
    0.72923E-02        -0.45288E-02         0.00000E+00
    0.64743E-02        -0.34972E-02         0.00000E+00
    0.56140E-02        -0.26111E-02         0.00000E+00
    0.47442E-02        -0.18713E-02         0.00000E+00
    0.38936E-02        -0.12739E-02         0.00000E+00
    0.30874E-02        -0.81104E-03         0.00000E+00
    0.23467E-02        -0.47142E-03         0.00000E+00
    0.16882E-02        -0.24016E-03         0.00000E+00
    0.11232E-02        -0.99228E-04         0.00000E+00
    0.65688E-03        -0.27806E-04         0.00000E+00
    0.28656E-03        -0.27844E-05         0.00000E+00
    0.00000E+00         0.00000E+00         0.00000E+00
    0.10949E-01        -0.10073E-01         0.00000E+00
    0.10612E-01        -0.85064E-02         0.00000E+00
    0.10042E-01        -0.70301E-02         0.00000E+00
    0.92913E-02        -0.56803E-02         0.00000E+00
    0.84099E-02        -0.44726E-02         0.00000E+00
    0.74428E-02        -0.34165E-02         0.00000E+00
    0.64313E-02        -0.25161E-02         0.00000E+00
    0.54124E-02        -0.17706E-02         0.00000E+00
    0.44193E-02        -0.11748E-02         0.00000E+00
    0.34807E-02        -0.71998E-03         0.00000E+00
    0.26214E-02        -0.39357E-03         0.00000E+00
    0.18615E-02        -0.17948E-03         0.00000E+00
    0.12157E-02        -0.57984E-04         0.00000E+00
    0.69207E-03        -0.57562E-05         0.00000E+00
    0.29048E-03         0.40769E-05         0.00000E+00
    0.00000E+00         0.00000E+00         0.00000E+00
    0.12615E-01        -0.10314E-01         0.00000E+00
    0.12183E-01        -0.86586E-02         0.00000E+00
    0.11489E-01        -0.71088E-02         0.00000E+00
    0.10596E-01        -0.57028E-02         0.00000E+00
    0.95600E-02        -0.44535E-02         0.00000E+00
    0.84327E-02        -0.33683E-02         0.00000E+00
    0.72604E-02        -0.24491E-02         0.00000E+00
    0.60846E-02        -0.16933E-02         0.00000E+00
    0.49421E-02        -0.10945E-02         0.00000E+00
    0.38654E-02        -0.64292E-03         0.00000E+00
    0.28826E-02        -0.32520E-03         0.00000E+00
    0.20177E-02        -0.12437E-03         0.00000E+00
    0.12893E-02        -0.19340E-04         0.00000E+00
    0.70979E-03         0.15513E-04         0.00000E+00
    0.28262E-03         0.10877E-04         0.00000E+00
    0.00000E+00         0.00000E+00         0.00000E+00
    0.14390E-01        -0.10644E-01         0.00000E+00
    0.13840E-01        -0.88891E-02         0.00000E+00
    0.13004E-01        -0.72577E-02         0.00000E+00
    0.11952E-01        -0.57893E-02         0.00000E+00
    0.10748E-01        -0.44932E-02         0.00000E+00
    0.94488E-02        -0.33737E-02         0.00000E+00
    0.81066E-02        -0.24302E-02         0.00000E+00
    0.67664E-02        -0.16580E-02         0.00000E+00
    0.54682E-02        -0.10492E-02         0.00000E+00
    0.42475E-02        -0.59335E-03         0.00000E+00
    0.31361E-02        -0.27676E-03         0.00000E+00
    0.21617E-02        -0.82162E-04         0.00000E+00
    0.13479E-02         0.12265E-04         0.00000E+00
    0.71220E-03         0.33911E-04         0.00000E+00
    0.26377E-03         0.17053E-04         0.00000E+00
    0.00000E+00         0.00000E+00         0.00000E+00
    0.16285E-01        -0.11087E-01         0.00000E+00
    0.15594E-01        -0.92228E-02         0.00000E+00
    0.14594E-01        -0.75025E-02         0.00000E+00
    0.13365E-01        -0.59661E-02         0.00000E+00
    0.11978E-01        -0.46183E-02         0.00000E+00
    0.10497E-01        -0.34592E-02         0.00000E+00
    0.89765E-02        -0.24848E-02         0.00000E+00
    0.74655E-02        -0.16880E-02         0.00000E+00
    0.60062E-02        -0.10596E-02         0.00000E+00
    0.46365E-02        -0.58860E-03         0.00000E+00
    0.33911E-02        -0.26175E-03         0.00000E+00
    0.23020E-02        -0.62400E-04         0.00000E+00
    0.13981E-02         0.30996E-04         0.00000E+00
    0.70378E-03         0.46666E-04         0.00000E+00
    0.23592E-03         0.21847E-04         0.00000E+00
    0.00000E+00         0.00000E+00         0.00000E+00
    0.18312E-01        -0.11671E-01         0.00000E+00
    0.17452E-01        -0.96893E-02         0.00000E+00
    0.16264E-01        -0.78742E-02         0.00000E+00
    0.14839E-01        -0.62654E-02         0.00000E+00
    0.13255E-01        -0.48614E-02         0.00000E+00
    0.11582E-01        -0.36570E-02         0.00000E+00
    0.98780E-02        -0.26441E-02         0.00000E+00
    0.81921E-02        -0.18126E-02         0.00000E+00
    0.65683E-02        -0.11517E-02         0.00000E+00
    0.50457E-02        -0.65071E-03         0.00000E+00
    0.36615E-02        -0.29749E-03         0.00000E+00
    0.24514E-02        -0.77414E-04         0.00000E+00
    0.14507E-02         0.29260E-04         0.00000E+00
    0.69195E-03         0.50138E-04         0.00000E+00
    0.20271E-03         0.24257E-04         0.00000E+00
    0.00000E+00         0.00000E+00         0.00000E+00
    0.20482E-01        -0.12429E-01         0.00000E+00
    0.19419E-01        -0.10324E-01         0.00000E+00
    0.18018E-01        -0.84096E-02         0.00000E+00
    0.16378E-01        -0.67255E-02         0.00000E+00
    0.14585E-01        -0.52618E-02         0.00000E+00
    0.12713E-01        -0.40068E-02         0.00000E+00
    0.10821E-01        -0.29468E-02         0.00000E+00
    0.89592E-02        -0.20680E-02         0.00000E+00
    0.71704E-02        -0.13583E-02         0.00000E+00
    0.54935E-02        -0.80739E-03         0.00000E+00
    0.39663E-02        -0.40591E-03         0.00000E+00
    0.26283E-02        -0.14295E-03         0.00000E+00
    0.15212E-02        -0.27265E-05         0.00000E+00
    0.68801E-03         0.39597E-04         0.00000E+00
    0.16990E-03         0.22969E-04         0.00000E+00
    0.00000E+00         0.00000E+00         0.00000E+00
    0.22802E-01        -0.13400E-01         0.00000E+00
    0.21501E-01        -0.11166E-01         0.00000E+00
    0.19858E-01        -0.91516E-02         0.00000E+00
    0.17984E-01        -0.73915E-02         0.00000E+00
    0.15971E-01        -0.58664E-02         0.00000E+00
    0.13895E-01        -0.45560E-02         0.00000E+00
    0.11816E-01        -0.34395E-02         0.00000E+00
    0.97828E-02        -0.24986E-02         0.00000E+00
    0.78335E-02        -0.17194E-02         0.00000E+00
    0.60041E-02        -0.10931E-02         0.00000E+00
    0.43317E-02        -0.61452E-03         0.00000E+00
    0.28579E-02        -0.27894E-03         0.00000E+00
    0.16317E-02        -0.77437E-04         0.00000E+00
    0.70819E-03         0.89598E-05         0.00000E+00
    0.14600E-03         0.16275E-04         0.00000E+00
    0.00000E+00         0.00000E+00         0.00000E+00
    0.25278E-01        -0.14625E-01         0.00000E+00
    0.23698E-01        -0.12264E-01         0.00000E+00
    0.21784E-01        -0.10150E-01         0.00000E+00
    0.19656E-01        -0.83160E-02         0.00000E+00
    0.17414E-01        -0.67303E-02         0.00000E+00
    0.15135E-01        -0.53609E-02         0.00000E+00
    0.12877E-01        -0.41782E-02         0.00000E+00
    0.10683E-01        -0.31579E-02         0.00000E+00
    0.85834E-02        -0.22841E-02         0.00000E+00
    0.66087E-02        -0.15503E-02         0.00000E+00
    0.47915E-02        -0.95746E-03         0.00000E+00
    0.31741E-02        -0.51030E-03         0.00000E+00
    0.18121E-02        -0.21062E-03         0.00000E+00
    0.77494E-03        -0.49523E-04         0.00000E+00
    0.14309E-03         0.19788E-05         0.00000E+00
    0.00000E+00         0.00000E+00         0.00000E+00
    0.27912E-01        -0.16155E-01         0.00000E+00
    0.26008E-01        -0.13668E-01         0.00000E+00
    0.23791E-01        -0.11460E-01         0.00000E+00
    0.21391E-01        -0.95595E-02         0.00000E+00
    0.18915E-01        -0.79174E-02         0.00000E+00
    0.16439E-01        -0.64879E-02         0.00000E+00
    0.14017E-01        -0.52295E-02         0.00000E+00
    0.11682E-01        -0.41101E-02         0.00000E+00
    0.94521E-02        -0.31116E-02         0.00000E+00
    0.73467E-02        -0.22304E-02         0.00000E+00
    0.53897E-02        -0.14766E-02         0.00000E+00
    0.36209E-02        -0.86789E-03         0.00000E+00
    0.21021E-02        -0.42195E-03         0.00000E+00
    0.91859E-03        -0.14562E-03         0.00000E+00
    0.17775E-03        -0.22706E-04         0.00000E+00
    0.00000E+00         0.00000E+00         0.00000E+00
    0.30702E-01        -0.18042E-01         0.00000E+00
    0.28425E-01        -0.15437E-01         0.00000E+00
    0.25870E-01        -0.13146E-01         0.00000E+00
    0.23180E-01        -0.11190E-01         0.00000E+00
    0.20469E-01        -0.95011E-02         0.00000E+00
    0.17811E-01        -0.80136E-02         0.00000E+00
    0.15251E-01        -0.66710E-02         0.00000E+00
    0.12807E-01        -0.54310E-02         0.00000E+00
    0.10479E-01        -0.42721E-02         0.00000E+00
    0.82668E-02        -0.31955E-02         0.00000E+00
    0.61813E-02        -0.22226E-02         0.00000E+00
    0.42550E-02        -0.13894E-02         0.00000E+00
    0.25533E-02        -0.73573E-03         0.00000E+00
    0.11792E-02        -0.29151E-03         0.00000E+00
    0.27226E-03        -0.61307E-04         0.00000E+00
    0.00000E+00         0.00000E+00         0.00000E+00
    0.33640E-01        -0.20345E-01         0.00000E+00
    0.30936E-01        -0.17635E-01         0.00000E+00
    0.28005E-01        -0.15278E-01         0.00000E+00
    0.25009E-01        -0.13286E-01         0.00000E+00
    0.22067E-01        -0.11565E-01         0.00000E+00
    0.19252E-01        -0.10026E-01         0.00000E+00
    0.16594E-01        -0.85925E-02         0.00000E+00
    0.14088E-01        -0.72081E-02         0.00000E+00
    0.11708E-01        -0.58478E-02         0.00000E+00
    0.94280E-02        -0.45181E-02         0.00000E+00
    0.72345E-02        -0.32559E-02         0.00000E+00
    0.51472E-02        -0.21204E-02         0.00000E+00
    0.32316E-02        -0.11817E-02         0.00000E+00
    0.16087E-02        -0.50228E-03         0.00000E+00
    0.45597E-03        -0.11821E-03         0.00000E+00
    0.00000E+00         0.00000E+00         0.00000E+00
    0.36717E-01        -0.23129E-01         0.00000E+00
    0.33524E-01        -0.20331E-01         0.00000E+00
    0.30175E-01        -0.17933E-01         0.00000E+00
    0.26854E-01        -0.15932E-01         0.00000E+00
    0.23693E-01        -0.14204E-01         0.00000E+00
    0.20759E-01        -0.12626E-01         0.00000E+00
    0.18061E-01        -0.11096E-01         0.00000E+00
    0.15560E-01        -0.95410E-02         0.00000E+00
    0.13195E-01        -0.79318E-02         0.00000E+00
    0.10901E-01        -0.62819E-02         0.00000E+00
    0.86319E-02        -0.46466E-02         0.00000E+00
    0.63852E-02        -0.31149E-02         0.00000E+00
    0.42201E-02        -0.17957E-02         0.00000E+00
    0.22735E-02        -0.79651E-03         0.00000E+00
    0.76704E-03        -0.19889E-03         0.00000E+00
    0.00000E+00         0.00000E+00         0.00000E+00
    0.39918E-01        -0.26465E-01         0.00000E+00
    0.36164E-01        -0.23604E-01         0.00000E+00
    0.32346E-01        -0.21197E-01         0.00000E+00
    0.28684E-01        -0.19227E-01         0.00000E+00
    0.25325E-01        -0.17525E-01         0.00000E+00
    0.22328E-01        -0.15925E-01         0.00000E+00
    0.19668E-01        -0.14293E-01         0.00000E+00
    0.17263E-01        -0.12538E-01         0.00000E+00
    0.15002E-01        -0.10626E-01         0.00000E+00
    0.12767E-01        -0.85792E-02         0.00000E+00
    0.10471E-01        -0.64746E-02         0.00000E+00
    0.80750E-02        -0.44361E-02         0.00000E+00
    0.56213E-02        -0.26212E-02         0.00000E+00
    0.32580E-02        -0.11971E-02         0.00000E+00
    0.12548E-02        -0.31030E-03         0.00000E+00
    0.00000E+00         0.00000E+00         0.00000E+00
    0.43227E-01        -0.30439E-01         0.00000E+00
    0.38825E-01        -0.27540E-01         0.00000E+00
    0.34473E-01        -0.25169E-01         0.00000E+00
    0.30452E-01        -0.23283E-01         0.00000E+00
    0.26931E-01        -0.21649E-01         0.00000E+00
    0.23949E-01        -0.20048E-01         0.00000E+00
    0.21434E-01        -0.18304E-01         0.00000E+00
    0.19242E-01        -0.16312E-01         0.00000E+00
    0.17195E-01        -0.14034E-01         0.00000E+00
    0.15118E-01        -0.11506E-01         0.00000E+00
    0.12862E-01        -0.88264E-02         0.00000E+00
    0.10339E-01        -0.61565E-02         0.00000E+00
    0.75584E-02        -0.37107E-02         0.00000E+00
    0.46665E-02        -0.17329E-02         0.00000E+00
    0.19813E-02        -0.46107E-03         0.00000E+00
    0.00000E+00         0.00000E+00         0.00000E+00
    0.46630E-01        -0.35146E-01         0.00000E+00
    0.41466E-01        -0.32245E-01         0.00000E+00
    0.36498E-01        -0.29969E-01         0.00000E+00
    0.32105E-01        -0.28234E-01         0.00000E+00
    0.28481E-01        -0.26718E-01         0.00000E+00
    0.25627E-01        -0.25126E-01         0.00000E+00
    0.23394E-01        -0.23246E-01         0.00000E+00
    0.21555E-01        -0.20963E-01         0.00000E+00
    0.19856E-01        -0.18249E-01         0.00000E+00
    0.18052E-01        -0.15152E-01         0.00000E+00
    0.15925E-01        -0.11791E-01         0.00000E+00
    0.13319E-01        -0.83586E-02         0.00000E+00
    0.10181E-01        -0.51294E-02         0.00000E+00
    0.66321E-02        -0.24426E-02         0.00000E+00
    0.30296E-02        -0.66421E-03         0.00000E+00
    0.00000E+00         0.00000E+00         0.00000E+00
    0.50133E-01        -0.40725E-01         0.00000E+00
    0.44038E-01        -0.37862E-01         0.00000E+00
    0.38343E-01        -0.35756E-01         0.00000E+00
    0.33574E-01        -0.34256E-01         0.00000E+00
    0.29950E-01        -0.32897E-01         0.00000E+00
    0.27382E-01        -0.31295E-01         0.00000E+00
    0.25601E-01        -0.29215E-01         0.00000E+00
    0.24273E-01        -0.26559E-01         0.00000E+00
    0.23062E-01        -0.23326E-01         0.00000E+00
    0.21657E-01        -0.19581E-01         0.00000E+00
    0.19770E-01        -0.15448E-01         0.00000E+00
    0.17155E-01        -0.11135E-01         0.00000E+00
    0.13657E-01        -0.69621E-02         0.00000E+00
    0.93176E-02        -0.33804E-02         0.00000E+00
    0.45045E-02        -0.93701E-03         0.00000E+00
    0.00000E+00         0.00000E+00         0.00000E+00
    0.53706E-01        -0.47381E-01         0.00000E+00
    0.46451E-01        -0.44573E-01         0.00000E+00
    0.39877E-01        -0.42759E-01         0.00000E+00
    0.34783E-01        -0.41591E-01         0.00000E+00
    0.31345E-01        -0.40385E-01         0.00000E+00
    0.29287E-01        -0.38674E-01         0.00000E+00
    0.28153E-01        -0.36251E-01         0.00000E+00
    0.27484E-01        -0.33090E-01         0.00000E+00
    0.26879E-01        -0.29246E-01         0.00000E+00
    0.25987E-01        -0.24798E-01         0.00000E+00
    0.24465E-01        -0.19853E-01         0.00000E+00
    0.21960E-01        -0.14588E-01         0.00000E+00
    0.18158E-01        -0.93284E-02         0.00000E+00
    0.12923E-01        -0.46361E-02         0.00000E+00
    0.65499E-02        -0.13117E-02         0.00000E+00
    0.00000E+00         0.00000E+00         0.00000E+00
    0.57479E-01        -0.55308E-01         0.00000E+00
    0.48639E-01        -0.52751E-01         0.00000E+00
    0.41041E-01        -0.51382E-01         0.00000E+00
    0.35785E-01        -0.50597E-01         0.00000E+00
    0.32858E-01        -0.49408E-01         0.00000E+00
    0.31609E-01        -0.47315E-01         0.00000E+00
    0.31304E-01        -0.44272E-01         0.00000E+00
    0.31379E-01        -0.40407E-01         0.00000E+00
    0.31427E-01        -0.35853E-01         0.00000E+00
    0.31107E-01        -0.30698E-01         0.00000E+00
    0.30064E-01        -0.24995E-01         0.00000E+00
    0.27849E-01        -0.18820E-01         0.00000E+00
    0.23914E-01        -0.12407E-01         0.00000E+00
    0.17763E-01        -0.63679E-02         0.00000E+00
    0.94223E-02        -0.18624E-02         0.00000E+00
    0.00000E+00         0.00000E+00         0.00000E+00
    0.61651E-01        -0.65429E-01         0.00000E+00
    0.50412E-01        -0.63060E-01         0.00000E+00
    0.41575E-01        -0.62247E-01         0.00000E+00
    0.36580E-01        -0.61806E-01         0.00000E+00
    0.34753E-01        -0.60143E-01         0.00000E+00
    0.34634E-01        -0.57073E-01         0.00000E+00
    0.35229E-01        -0.52961E-01         0.00000E+00
    0.35994E-01        -0.48134E-01         0.00000E+00
    0.36606E-01        -0.42788E-01         0.00000E+00
    0.36809E-01        -0.36995E-01         0.00000E+00
    0.36296E-01        -0.30724E-01         0.00000E+00
    0.34591E-01        -0.23890E-01         0.00000E+00
    0.30897E-01        -0.16463E-01         0.00000E+00
    0.24094E-01        -0.88692E-02         0.00000E+00
    0.13404E-01        -0.26817E-02         0.00000E+00
    0.00000E+00         0.00000E+00         0.00000E+00
    0.65254E-01        -0.78430E-01         0.00000E+00
    0.50876E-01        -0.76120E-01         0.00000E+00
    0.40957E-01        -0.76823E-01         0.00000E+00
    0.37737E-01        -0.75916E-01         0.00000E+00
    0.37783E-01        -0.72389E-01         0.00000E+00
    0.38857E-01        -0.67368E-01         0.00000E+00
    0.40146E-01        -0.61641E-01         0.00000E+00
    0.41324E-01        -0.55613E-01         0.00000E+00
    0.42238E-01        -0.49448E-01         0.00000E+00
    0.42760E-01        -0.43158E-01         0.00000E+00
    0.42689E-01        -0.36631E-01         0.00000E+00
    0.41622E-01        -0.29640E-01         0.00000E+00
    0.38727E-01        -0.21828E-01         0.00000E+00
    0.32172E-01        -0.12870E-01         0.00000E+00
    0.19253E-01        -0.42047E-02         0.00000E+00
    0.00000E+00         0.00000E+00         0.00000E+00
    0.73387E-01        -0.93390E-01         0.00000E+00
    0.50896E-01        -0.98035E-01         0.00000E+00
    0.43635E-01        -0.98108E-01         0.00000E+00
    0.44075E-01        -0.92426E-01         0.00000E+00
    0.45623E-01        -0.84808E-01         0.00000E+00
    0.47200E-01        -0.76878E-01         0.00000E+00
    0.48537E-01        -0.69199E-01         0.00000E+00
    0.49600E-01        -0.61913E-01         0.00000E+00
    0.50385E-01        -0.55009E-01         0.00000E+00
    0.50863E-01        -0.48398E-01         0.00000E+00
    0.50932E-01        -0.41927E-01         0.00000E+00
    0.50333E-01        -0.35341E-01         0.00000E+00
    0.48407E-01        -0.28170E-01         0.00000E+00
    0.43502E-01        -0.19523E-01         0.00000E+00
    0.29928E-01        -0.82323E-02         0.00000E+00
    0.00000E+00         0.00000E+00         0.00000E+00
    0.87869E-01        -0.14211E+00         0.00000E+00
    0.53097E-01        -0.13901E+00         0.00000E+00
    0.53193E-01        -0.12171E+00         0.00000E+00
    0.54049E-01        -0.10668E+00         0.00000E+00
    0.54938E-01        -0.94172E-01         0.00000E+00
    0.55627E-01        -0.83492E-01         0.00000E+00
    0.56139E-01        -0.74205E-01         0.00000E+00
    0.56502E-01        -0.65973E-01         0.00000E+00
    0.56722E-01        -0.58559E-01         0.00000E+00
    0.56781E-01        -0.51780E-01         0.00000E+00
    0.56614E-01        -0.45475E-01         0.00000E+00
    0.56062E-01        -0.39455E-01         0.00000E+00
    0.54736E-01        -0.33405E-01         0.00000E+00
    0.51489E-01        -0.26684E-01         0.00000E+00
    0.42888E-01        -0.17186E-01         0.00000E+00
    0.00000E+00         0.00000E+00         0.00000E+00
    0.00000E+00        -0.23275E+00         0.00000E+00
    0.00000E+00        -0.16229E+00         0.00000E+00
    0.00000E+00        -0.13069E+00         0.00000E+00
    0.00000E+00        -0.11138E+00         0.00000E+00
    0.00000E+00        -0.97014E-01         0.00000E+00
    0.00000E+00        -0.85425E-01         0.00000E+00
    0.00000E+00        -0.75630E-01         0.00000E+00
    0.00000E+00        -0.67107E-01         0.00000E+00
    0.00000E+00        -0.59535E-01         0.00000E+00
    0.00000E+00        -0.52697E-01         0.00000E+00
    0.00000E+00        -0.46427E-01         0.00000E+00
    0.00000E+00        -0.40559E-01         0.00000E+00
    0.00000E+00        -0.34856E-01         0.00000E+00
    0.00000E+00        -0.28796E-01         0.00000E+00
    0.00000E+00        -0.21260E-01         0.00000E+00
    0.00000E+00         0.00000E+00         0.00000E+00
CELL_DATA        450
VECTORS vDarcy double 
    0.11191E-10         0.87999E-11         0.00000E+00
    0.11248E-10         0.18559E-10         0.00000E+00
    0.10945E-10         0.24140E-10         0.00000E+00
    0.10388E-10         0.28709E-10         0.00000E+00
    0.97864E-11         0.32128E-10         0.00000E+00
    0.92071E-11         0.34308E-10         0.00000E+00
    0.86742E-11         0.35358E-10         0.00000E+00
    0.82063E-11         0.35394E-10         0.00000E+00
    0.78182E-11         0.34558E-10         0.00000E+00
    0.75242E-11         0.33023E-10         0.00000E+00
    0.73421E-11         0.31019E-10         0.00000E+00
    0.72900E-11         0.28671E-10         0.00000E+00
    0.74073E-11         0.26405E-10         0.00000E+00
    0.78296E-11         0.25506E-10         0.00000E+00
    0.85618E-11         0.19297E-10         0.00000E+00
    0.11791E-10         0.89437E-11         0.00000E+00
    0.10874E-10         0.19275E-10         0.00000E+00
    0.93240E-11         0.25277E-10         0.00000E+00
    0.75056E-11         0.29947E-10         0.00000E+00
    0.56560E-11         0.33340E-10         0.00000E+00
    0.38903E-11         0.35441E-10         0.00000E+00
    0.22740E-11         0.36374E-10         0.00000E+00
    0.85549E-12         0.36265E-10         0.00000E+00
   -0.32329E-12         0.35254E-10         0.00000E+00
   -0.12211E-11         0.33518E-10         0.00000E+00
   -0.17902E-11         0.31275E-10         0.00000E+00
   -0.19799E-11         0.28656E-10         0.00000E+00
   -0.17050E-11         0.26028E-10         0.00000E+00
   -0.72923E-12         0.24486E-10         0.00000E+00
    0.84012E-12         0.18015E-10         0.00000E+00
    0.19396E-10         0.10340E-10         0.00000E+00
    0.16497E-10         0.21693E-10         0.00000E+00
    0.13067E-10         0.27838E-10         0.00000E+00
    0.97506E-11         0.32521E-10         0.00000E+00
    0.65457E-11         0.35821E-10         0.00000E+00
    0.35286E-11         0.37743E-10         0.00000E+00
    0.78096E-12         0.38436E-10         0.00000E+00
   -0.16302E-11         0.38032E-10         0.00000E+00
   -0.36411E-11         0.36676E-10         0.00000E+00
   -0.51879E-11         0.34540E-10         0.00000E+00
   -0.62011E-11         0.31835E-10         0.00000E+00
   -0.66088E-11         0.28694E-10         0.00000E+00
   -0.63260E-11         0.25433E-10         0.00000E+00
   -0.52068E-11         0.22986E-10         0.00000E+00
   -0.34996E-11         0.16239E-10         0.00000E+00
    0.28426E-10         0.13234E-10         0.00000E+00
    0.24031E-10         0.26093E-10         0.00000E+00
    0.18879E-10         0.32021E-10         0.00000E+00
    0.13983E-10         0.36551E-10         0.00000E+00
    0.93281E-11         0.39651E-10         0.00000E+00
    0.49818E-11         0.41276E-10         0.00000E+00
    0.10346E-11         0.41598E-10         0.00000E+00
   -0.24329E-11         0.40749E-10         0.00000E+00
   -0.53400E-11         0.38877E-10         0.00000E+00
   -0.76041E-11         0.36150E-10         0.00000E+00
   -0.91370E-11         0.32771E-10         0.00000E+00
   -0.98515E-11         0.28880E-10         0.00000E+00
   -0.96613E-11         0.24773E-10         0.00000E+00
   -0.84402E-11         0.21305E-10         0.00000E+00
   -0.65173E-11         0.14290E-10         0.00000E+00
    0.36846E-10         0.17214E-10         0.00000E+00
    0.31133E-10         0.32221E-10         0.00000E+00
    0.24317E-10         0.37860E-10         0.00000E+00
    0.17801E-10         0.42125E-10         0.00000E+00
    0.11617E-10         0.44915E-10         0.00000E+00
    0.58576E-11         0.46118E-10         0.00000E+00
    0.62889E-12         0.45931E-10         0.00000E+00
   -0.39759E-11         0.44488E-10         0.00000E+00
   -0.78619E-11         0.41932E-10         0.00000E+00
   -0.10930E-10         0.38428E-10         0.00000E+00
   -0.13074E-10         0.34169E-10         0.00000E+00
   -0.14184E-10         0.29307E-10         0.00000E+00
   -0.14148E-10         0.24121E-10         0.00000E+00
   -0.12766E-10         0.19353E-10         0.00000E+00
   -0.10386E-10         0.11939E-10         0.00000E+00
    0.45391E-10         0.22312E-10         0.00000E+00
    0.38081E-10         0.40147E-10         0.00000E+00
    0.29401E-10         0.45429E-10         0.00000E+00
    0.21139E-10         0.49334E-10         0.00000E+00
    0.13322E-10         0.51705E-10         0.00000E+00
    0.60510E-11         0.52359E-10         0.00000E+00
   -0.55381E-12         0.51525E-10         0.00000E+00
   -0.63907E-11         0.49336E-10         0.00000E+00
   -0.11355E-10         0.45933E-10         0.00000E+00
   -0.15333E-10         0.41474E-10         0.00000E+00
   -0.18199E-10         0.36133E-10         0.00000E+00
   -0.19820E-10         0.30073E-10         0.00000E+00
   -0.20045E-10         0.23544E-10         0.00000E+00
   -0.18599E-10         0.17102E-10         0.00000E+00
   -0.15850E-10         0.90615E-11         0.00000E+00
    0.54090E-10         0.28757E-10         0.00000E+00
    0.44997E-10         0.50105E-10         0.00000E+00
    0.34267E-10         0.54882E-10         0.00000E+00
    0.24111E-10         0.58299E-10         0.00000E+00
    0.14537E-10         0.60130E-10         0.00000E+00
    0.56447E-11         0.60097E-10         0.00000E+00
   -0.24400E-11         0.58476E-10         0.00000E+00
   -0.96142E-11         0.55397E-10         0.00000E+00
   -0.15769E-10         0.50992E-10         0.00000E+00
   -0.20782E-10         0.45407E-10         0.00000E+00
   -0.24510E-10         0.38794E-10         0.00000E+00
   -0.26794E-10         0.31317E-10         0.00000E+00
   -0.27446E-10         0.23178E-10         0.00000E+00
   -0.26127E-10         0.14703E-10         0.00000E+00
   -0.23214E-10         0.57976E-11         0.00000E+00
    0.62752E-10         0.36710E-10         0.00000E+00
    0.51689E-10         0.62308E-10         0.00000E+00
    0.38714E-10         0.66384E-10         0.00000E+00
    0.26511E-10         0.69157E-10         0.00000E+00
    0.15052E-10         0.70306E-10         0.00000E+00
    0.44274E-11         0.69439E-10         0.00000E+00
   -0.52427E-11         0.66888E-10         0.00000E+00
   -0.13863E-10         0.62779E-10         0.00000E+00
   -0.21330E-10         0.57231E-10         0.00000E+00
   -0.27519E-10         0.50371E-10         0.00000E+00
   -0.32275E-10         0.42314E-10         0.00000E+00
   -0.35414E-10         0.33220E-10         0.00000E+00
   -0.36708E-10         0.23222E-10         0.00000E+00
   -0.35754E-10         0.12386E-10         0.00000E+00
   -0.32895E-10         0.23431E-11         0.00000E+00
    0.71260E-10         0.46343E-10         0.00000E+00
    0.58012E-10         0.76986E-10         0.00000E+00
    0.42585E-10         0.80107E-10         0.00000E+00
    0.28179E-10         0.82041E-10         0.00000E+00
    0.14714E-10         0.82345E-10         0.00000E+00
    0.22524E-11         0.80487E-10         0.00000E+00
   -0.91010E-11         0.76864E-10         0.00000E+00
   -0.19273E-10         0.71596E-10         0.00000E+00
   -0.28176E-10         0.64783E-10         0.00000E+00
   -0.35694E-10         0.56526E-10         0.00000E+00
   -0.41668E-10         0.46889E-10         0.00000E+00
   -0.45894E-10         0.36009E-10         0.00000E+00
   -0.48101E-10         0.23934E-10         0.00000E+00
   -0.47822E-10         0.10438E-10         0.00000E+00
   -0.45317E-10        -0.10734E-11         0.00000E+00
    0.79384E-10         0.57836E-10         0.00000E+00
    0.63755E-10         0.94371E-10         0.00000E+00
    0.45683E-10         0.96222E-10         0.00000E+00
    0.28935E-10         0.97080E-10         0.00000E+00
    0.13359E-10         0.96348E-10         0.00000E+00
   -0.10232E-11         0.93327E-10         0.00000E+00
   -0.14137E-10         0.88491E-10         0.00000E+00
   -0.25948E-10         0.81951E-10         0.00000E+00
   -0.36402E-10         0.73784E-10         0.00000E+00
   -0.45407E-10         0.64049E-10         0.00000E+00
   -0.52811E-10         0.52745E-10         0.00000E+00
   -0.58397E-10         0.39964E-10         0.00000E+00
   -0.61853E-10         0.25643E-10         0.00000E+00
   -0.62647E-10         0.92444E-11         0.00000E+00
   -0.60892E-10        -0.41396E-11         0.00000E+00
    0.86826E-10         0.71356E-10         0.00000E+00
    0.68633E-10         0.11467E-09         0.00000E+00
    0.47749E-10         0.11488E-09         0.00000E+00
    0.28547E-10         0.11438E-09         0.00000E+00
    0.10787E-10         0.11239E-09         0.00000E+00
   -0.55621E-11         0.10802E-09         0.00000E+00
   -0.20478E-10         0.10183E-09         0.00000E+00
   -0.33982E-10         0.93928E-10         0.00000E+00
   -0.46077E-10         0.84356E-10         0.00000E+00
   -0.56718E-10         0.73122E-10         0.00000E+00
   -0.65779E-10         0.60137E-10         0.00000E+00
   -0.73038E-10         0.45416E-10         0.00000E+00
   -0.78149E-10         0.28757E-10         0.00000E+00
   -0.80521E-10         0.92976E-11         0.00000E+00
   -0.80029E-10        -0.64399E-11         0.00000E+00
    0.93215E-10         0.87052E-10         0.00000E+00
    0.72308E-10         0.13808E-09         0.00000E+00
    0.48478E-10         0.13619E-09         0.00000E+00
    0.26749E-10         0.13400E-09         0.00000E+00
    0.67803E-11         0.13050E-09         0.00000E+00
   -0.11531E-10         0.12457E-09         0.00000E+00
   -0.28230E-10         0.11689E-09         0.00000E+00
   -0.43427E-10         0.10757E-09         0.00000E+00
   -0.57209E-10         0.96595E-10         0.00000E+00
   -0.69607E-10         0.83921E-10         0.00000E+00
   -0.80552E-10         0.69343E-10         0.00000E+00
   -0.89837E-10         0.52754E-10         0.00000E+00
   -0.97086E-10         0.33779E-10         0.00000E+00
   -0.10167E-09         0.11229E-10         0.00000E+00
   -0.10310E-09        -0.74287E-11         0.00000E+00
    0.98107E-10         0.10505E-09         0.00000E+00
    0.74371E-10         0.16473E-09         0.00000E+00
    0.47508E-10         0.16023E-09         0.00000E+00
    0.23229E-10         0.15596E-09         0.00000E+00
    0.10875E-11         0.15065E-09         0.00000E+00
   -0.19103E-10         0.14292E-09         0.00000E+00
   -0.37485E-10         0.13362E-09         0.00000E+00
   -0.54286E-10         0.12284E-09         0.00000E+00
   -0.69724E-10         0.11054E-09         0.00000E+00
   -0.83948E-10         0.96596E-10         0.00000E+00
   -0.96986E-10         0.80651E-10         0.00000E+00
   -0.10868E-09         0.62421E-10         0.00000E+00
   -0.11863E-09         0.41316E-10         0.00000E+00
   -0.12620E-09         0.15839E-10         0.00000E+00
   -0.13041E-09        -0.63949E-11         0.00000E+00
    0.10101E-09         0.12543E-09         0.00000E+00
    0.74368E-10         0.19472E-09         0.00000E+00
    0.44423E-10         0.18704E-09         0.00000E+00
    0.17621E-10         0.18023E-09         0.00000E+00
   -0.65846E-11         0.17273E-09         0.00000E+00
   -0.28475E-10         0.16292E-09         0.00000E+00
   -0.48316E-10         0.15184E-09         0.00000E+00
   -0.66507E-10         0.13961E-09         0.00000E+00
   -0.83448E-10         0.12615E-09         0.00000E+00
   -0.99473E-10         0.11124E-09         0.00000E+00
   -0.11476E-09         0.94337E-10         0.00000E+00
   -0.12925E-09         0.74911E-10         0.00000E+00
   -0.14256E-09         0.52096E-10         0.00000E+00
   -0.15406E-09         0.24130E-10         0.00000E+00
   -0.16212E-09        -0.24198E-11         0.00000E+00
    0.10137E-09         0.14827E-09         0.00000E+00
    0.71755E-10         0.22814E-09         0.00000E+00
    0.38696E-10         0.21663E-09         0.00000E+00
    0.94426E-11         0.20670E-09         0.00000E+00
   -0.16630E-10         0.19653E-09         0.00000E+00
   -0.39905E-10         0.18428E-09         0.00000E+00
   -0.60817E-10         0.17124E-09         0.00000E+00
   -0.79995E-10         0.15758E-09         0.00000E+00
   -0.98108E-10         0.14323E-09         0.00000E+00
   -0.11575E-09         0.12783E-09         0.00000E+00
   -0.13335E-09         0.11064E-09         0.00000E+00
   -0.15100E-09         0.90749E-10         0.00000E+00
   -0.16840E-09         0.66969E-10         0.00000E+00
   -0.18498E-09         0.37342E-10         0.00000E+00
   -0.19822E-09         0.56642E-11         0.00000E+00
    0.98704E-10         0.17363E-09         0.00000E+00
    0.66033E-10         0.26507E-09         0.00000E+00
    0.29815E-10         0.24898E-09         0.00000E+00
   -0.18003E-11         0.23521E-09         0.00000E+00
   -0.29451E-10         0.22174E-09         0.00000E+00
   -0.53632E-10         0.20653E-09         0.00000E+00
   -0.74994E-10         0.19126E-09         0.00000E+00
   -0.94493E-10         0.17624E-09         0.00000E+00
   -0.11318E-09         0.16137E-09         0.00000E+00
   -0.13203E-09         0.14619E-09         0.00000E+00
   -0.15183E-09         0.12968E-09         0.00000E+00
   -0.17295E-09         0.11047E-09         0.00000E+00
   -0.19522E-09         0.86920E-10         0.00000E+00
   -0.21825E-09         0.57000E-10         0.00000E+00
   -0.23835E-09         0.19347E-10         0.00000E+00
    0.92517E-10         0.20168E-09         0.00000E+00
    0.56473E-10         0.30573E-09         0.00000E+00
    0.16844E-10         0.28416E-09         0.00000E+00
   -0.17092E-10         0.26558E-09         0.00000E+00
   -0.45933E-10         0.24786E-09         0.00000E+00
   -0.70305E-10         0.22896E-09         0.00000E+00
   -0.91171E-10         0.21106E-09         0.00000E+00
   -0.10995E-09         0.19471E-09         0.00000E+00
   -0.12821E-09         0.17984E-09         0.00000E+00
   -0.14749E-09         0.16585E-09         0.00000E+00
   -0.16911E-09         0.15144E-09         0.00000E+00
   -0.19384E-09         0.13455E-09         0.00000E+00
   -0.22178E-09         0.11304E-09         0.00000E+00
   -0.25282E-09         0.84945E-10         0.00000E+00
   -0.28178E-09         0.40466E-10         0.00000E+00
    0.82354E-10         0.23269E-09         0.00000E+00
    0.42542E-10         0.35058E-09         0.00000E+00
   -0.89619E-12         0.32238E-09         0.00000E+00
   -0.37166E-10         0.29757E-09         0.00000E+00
   -0.66678E-10         0.27423E-09         0.00000E+00
   -0.90215E-10         0.25050E-09         0.00000E+00
   -0.10919E-09         0.22936E-09         0.00000E+00
   -0.12566E-09         0.21166E-09         0.00000E+00
   -0.14196E-09         0.19745E-09         0.00000E+00
   -0.16039E-09         0.18597E-09         0.00000E+00
   -0.18302E-09         0.17557E-09         0.00000E+00
   -0.21125E-09         0.16337E-09         0.00000E+00
   -0.24564E-09         0.14655E-09         0.00000E+00
   -0.28655E-09         0.12339E-09         0.00000E+00
   -0.32692E-09         0.71346E-10         0.00000E+00
    0.68768E-10         0.26756E-09         0.00000E+00
    0.23513E-10         0.40078E-09         0.00000E+00
   -0.25116E-10         0.36425E-09         0.00000E+00
   -0.64149E-10         0.33100E-09         0.00000E+00
   -0.93711E-10         0.29987E-09         0.00000E+00
   -0.11494E-09         0.26962E-09         0.00000E+00
   -0.12997E-09         0.24425E-09         0.00000E+00
   -0.14182E-09         0.22510E-09         0.00000E+00
   -0.15384E-09         0.21232E-09         0.00000E+00
   -0.16938E-09         0.20506E-09         0.00000E+00
   -0.19155E-09         0.20128E-09         0.00000E+00
   -0.22268E-09         0.19703E-09         0.00000E+00
   -0.26409E-09         0.18869E-09         0.00000E+00
   -0.31694E-09         0.17502E-09         0.00000E+00
   -0.37173E-09         0.11487E-09         0.00000E+00
    0.49634E-10         0.30776E-09         0.00000E+00
   -0.31320E-11         0.45860E-09         0.00000E+00
   -0.58886E-10         0.41081E-09         0.00000E+00
   -0.10101E-09         0.36560E-09         0.00000E+00
   -0.12952E-09         0.32335E-09         0.00000E+00
   -0.14617E-09         0.28402E-09         0.00000E+00
   -0.15426E-09         0.25298E-09         0.00000E+00
   -0.15815E-09         0.23211E-09         0.00000E+00
   -0.16253E-09         0.22171E-09         0.00000E+00
   -0.17210E-09         0.22079E-09         0.00000E+00
   -0.19139E-09         0.22700E-09         0.00000E+00
   -0.22410E-09         0.23515E-09         0.00000E+00
   -0.27275E-09         0.24062E-09         0.00000E+00
   -0.33970E-09         0.24289E-09         0.00000E+00
   -0.41234E-09         0.17443E-09         0.00000E+00
    0.30123E-10         0.35618E-09         0.00000E+00
   -0.34626E-10         0.52769E-09         0.00000E+00
   -0.10138E-09         0.46423E-09         0.00000E+00
   -0.14816E-09         0.40109E-09         0.00000E+00
   -0.17427E-09         0.34248E-09         0.00000E+00
   -0.18307E-09         0.29033E-09         0.00000E+00
   -0.17992E-09         0.25161E-09         0.00000E+00
   -0.17118E-09         0.22862E-09         0.00000E+00
   -0.16323E-09         0.22163E-09         0.00000E+00
   -0.16239E-09         0.22960E-09         0.00000E+00
   -0.17498E-09         0.25007E-09         0.00000E+00
   -0.20677E-09         0.27658E-09         0.00000E+00
   -0.26246E-09         0.30353E-09         0.00000E+00
   -0.34668E-09         0.33116E-09         0.00000E+00
   -0.44316E-09         0.25528E-09         0.00000E+00
    0.47497E-11         0.42160E-09         0.00000E+00
   -0.86081E-10         0.61786E-09         0.00000E+00
   -0.17328E-09         0.52801E-09         0.00000E+00
   -0.22557E-09         0.43637E-09         0.00000E+00
   -0.24566E-09         0.35341E-09         0.00000E+00
   -0.24087E-09         0.28341E-09         0.00000E+00
   -0.22010E-09         0.23462E-09         0.00000E+00
   -0.19228E-09         0.20907E-09         0.00000E+00
   -0.16565E-09         0.20660E-09         0.00000E+00
   -0.14809E-09         0.22623E-09         0.00000E+00
   -0.14797E-09         0.26591E-09         0.00000E+00
   -0.17383E-09         0.31839E-09         0.00000E+00
   -0.23379E-09         0.37737E-09         0.00000E+00
   -0.33642E-09         0.44416E-09         0.00000E+00
   -0.46009E-09         0.36242E-09         0.00000E+00
   -0.39573E-10         0.50624E-09         0.00000E+00
   -0.15286E-09         0.73733E-09         0.00000E+00
   -0.26172E-09         0.60460E-09         0.00000E+00
   -0.31762E-09         0.46798E-09         0.00000E+00
   -0.32515E-09         0.34942E-09         0.00000E+00
   -0.29813E-09         0.25558E-09         0.00000E+00
   -0.25099E-09         0.19453E-09         0.00000E+00
   -0.19599E-09         0.16633E-09         0.00000E+00
   -0.14280E-09         0.16951E-09         0.00000E+00
   -0.10035E-09         0.20331E-09         0.00000E+00
   -0.78990E-10         0.26735E-09         0.00000E+00
   -0.91290E-10         0.35511E-09         0.00000E+00
   -0.15205E-09         0.46138E-09         0.00000E+00
   -0.27757E-09         0.58831E-09         0.00000E+00
   -0.44170E-09         0.50608E-09         0.00000E+00
   -0.11166E-10         0.65176E-09         0.00000E+00
   -0.22361E-09         0.91754E-09         0.00000E+00
   -0.39402E-09         0.70366E-09         0.00000E+00
   -0.45825E-09         0.48905E-09         0.00000E+00
   -0.44090E-09         0.31853E-09         0.00000E+00
   -0.37701E-09         0.19555E-09         0.00000E+00
   -0.29148E-09         0.12190E-09         0.00000E+00
   -0.19966E-09         0.92141E-10         0.00000E+00
   -0.11105E-09         0.10192E-09         0.00000E+00
   -0.33580E-10         0.15099E-09         0.00000E+00
    0.21939E-10         0.24279E-09         0.00000E+00
    0.38530E-10         0.37538E-09         0.00000E+00
   -0.10530E-10         0.55093E-09         0.00000E+00
   -0.16219E-09         0.77593E-09         0.00000E+00
   -0.38863E-09         0.70904E-09         0.00000E+00
   -0.23249E-09         0.90049E-09         0.00000E+00
   -0.55468E-09         0.12034E-08         0.00000E+00
   -0.77705E-09         0.81054E-09         0.00000E+00
   -0.80094E-09         0.47029E-09         0.00000E+00
   -0.71779E-09         0.23679E-09         0.00000E+00
   -0.59063E-09         0.86248E-10         0.00000E+00
   -0.45014E-09         0.51745E-11         0.00000E+00
   -0.31089E-09        -0.22201E-10         0.00000E+00
   -0.17794E-09        -0.53073E-11         0.00000E+00
   -0.53889E-10         0.56694E-10         0.00000E+00
    0.53775E-10         0.17390E-09         0.00000E+00
    0.12697E-09         0.35448E-09         0.00000E+00
    0.12590E-09         0.62196E-09         0.00000E+00
   -0.17937E-10         0.10004E-08         0.00000E+00
   -0.27568E-09         0.96876E-09         0.00000E+00
   -0.31720E-09         0.11808E-08         0.00000E+00
   -0.64233E-09         0.15705E-08         0.00000E+00
   -0.86066E-09         0.88421E-09         0.00000E+00
   -0.80684E-09         0.36670E-09         0.00000E+00
   -0.62133E-09         0.71719E-10         0.00000E+00
   -0.40536E-09        -0.91802E-10         0.00000E+00
   -0.19795E-09        -0.16469E-09         0.00000E+00
   -0.85092E-11        -0.18102E-09         0.00000E+00
    0.16943E-09        -0.15739E-09         0.00000E+00
    0.34537E-09        -0.91212E-10         0.00000E+00
    0.52102E-09         0.38491E-10         0.00000E+00
    0.68097E-09         0.25673E-09         0.00000E+00
    0.76104E-09         0.64072E-09         0.00000E+00
    0.59195E-09         0.12946E-08         0.00000E+00
    0.10715E-09         0.14171E-08         0.00000E+00
    0.78505E-09         0.24427E-08         0.00000E+00
   -0.97614E-09         0.23949E-08         0.00000E+00
   -0.15681E-08         0.87007E-09         0.00000E+00
   -0.13278E-08         0.86725E-10         0.00000E+00
   -0.92871E-09        -0.23293E-09         0.00000E+00
   -0.57356E-09        -0.35826E-09         0.00000E+00
   -0.29090E-09        -0.38830E-09         0.00000E+00
   -0.59280E-10        -0.37847E-09         0.00000E+00
    0.15279E-09        -0.34995E-09         0.00000E+00
    0.37722E-09        -0.29902E-09         0.00000E+00
    0.64158E-09        -0.19371E-09         0.00000E+00
    0.95966E-09         0.10895E-10         0.00000E+00
    0.12920E-08         0.47411E-09         0.00000E+00
    0.12613E-08         0.16610E-08         0.00000E+00
    0.38468E-09         0.24120E-08         0.00000E+00
   -0.70025E-08         0.47740E-08         0.00000E+00
   -0.80275E-08         0.28497E-08         0.00000E+00
   -0.70300E-08         0.98610E-11         0.00000E+00
   -0.56140E-08        -0.70937E-09         0.00000E+00
   -0.46634E-08        -0.78662E-09         0.00000E+00
   -0.40839E-08        -0.73915E-09         0.00000E+00
   -0.37078E-08        -0.66626E-09         0.00000E+00
   -0.34313E-08        -0.60855E-09         0.00000E+00
   -0.31853E-08        -0.57795E-09         0.00000E+00
   -0.29096E-08        -0.57121E-09         0.00000E+00
   -0.25314E-08        -0.56399E-09         0.00000E+00
   -0.19389E-08        -0.52944E-09         0.00000E+00
   -0.97277E-09        -0.28407E-09         0.00000E+00
    0.49920E-09         0.97800E-09         0.00000E+00
    0.15233E-08         0.29475E-08         0.00000E+00
   -0.12924E-07         0.15639E-09         0.00000E+00
   -0.31204E-08        -0.13110E-08         0.00000E+00
    0.24661E-08        -0.24134E-08         0.00000E+00
    0.47648E-08        -0.20008E-08         0.00000E+00
    0.57800E-08        -0.14612E-08         0.00000E+00
    0.62617E-08        -0.11257E-08         0.00000E+00
    0.65244E-08        -0.91867E-09         0.00000E+00
    0.66976E-08        -0.80576E-09         0.00000E+00
    0.68462E-08        -0.77530E-09         0.00000E+00
    0.70211E-08        -0.82458E-09         0.00000E+00
    0.72952E-08        -0.96278E-09         0.00000E+00
    0.78125E-08        -0.12406E-08         0.00000E+00
    0.88976E-08        -0.16242E-08         0.00000E+00
    0.11571E-07        -0.18270E-08         0.00000E+00
    0.17599E-07        -0.12998E-08         0.00000E+00
    0.11423E-06        -0.28309E-08         0.00000E+00
    0.10875E-06        -0.26480E-08         0.00000E+00
    0.10409E-06        -0.20074E-08         0.00000E+00
    0.10074E-06        -0.13490E-08         0.00000E+00
    0.98497E-07        -0.88960E-09         0.00000E+00
    0.96962E-07        -0.64465E-09         0.00000E+00
    0.95809E-07        -0.50891E-09         0.00000E+00
    0.94860E-07        -0.43990E-09         0.00000E+00
    0.93995E-07        -0.42490E-09         0.00000E+00
    0.93108E-07        -0.46253E-09         0.00000E+00
    0.92077E-07        -0.56817E-09         0.00000E+00
    0.90717E-07        -0.79219E-09         0.00000E+00
    0.88742E-07        -0.11827E-08         0.00000E+00
    0.85680E-07        -0.18794E-08         0.00000E+00
    0.81102E-07        -0.26981E-08         0.00000E+00
POINT_DATA        496
VECTORS vDarcyNodal double 
    0.11086E-10         0.89052E-11         0.00000E+00
    0.11296E-10         0.13708E-10         0.00000E+00
    0.11200E-10         0.21198E-10         0.00000E+00
    0.10690E-10         0.26146E-10         0.00000E+00
    0.10085E-10         0.30118E-10         0.00000E+00
    0.94877E-11         0.32928E-10         0.00000E+00
    0.89264E-11         0.34566E-10         0.00000E+00
    0.84220E-11         0.35142E-10         0.00000E+00
    0.79905E-11         0.34782E-10         0.00000E+00
    0.76458E-11         0.33643E-10         0.00000E+00
    0.74026E-11         0.31930E-10         0.00000E+00
    0.72815E-11         0.29819E-10         0.00000E+00
    0.72984E-11         0.27597E-10         0.00000E+00
    0.75161E-11         0.26167E-10         0.00000E+00
    0.81431E-11         0.22767E-10         0.00000E+00
    0.89805E-11         0.19715E-10         0.00000E+00
    0.11563E-10         0.86946E-11         0.00000E+00
    0.11419E-10         0.13651E-10         0.00000E+00
    0.10703E-10         0.21501E-10         0.00000E+00
    0.95659E-11         0.26703E-10         0.00000E+00
    0.83272E-11         0.30719E-10         0.00000E+00
    0.71151E-11         0.33507E-10         0.00000E+00
    0.59823E-11         0.35099E-10         0.00000E+00
    0.49659E-11         0.35610E-10         0.00000E+00
    0.40958E-11         0.35170E-10         0.00000E+00
    0.33991E-11         0.33937E-10         0.00000E+00
    0.29041E-11         0.32112E-10         0.00000E+00
    0.26478E-11         0.29871E-10         0.00000E+00
    0.26623E-11         0.27480E-10         0.00000E+00
    0.30400E-11         0.25745E-10         0.00000E+00
    0.40604E-11         0.22035E-10         0.00000E+00
    0.53415E-11         0.18878E-10         0.00000E+00
    0.16291E-10         0.91929E-11         0.00000E+00
    0.14895E-10         0.14568E-10         0.00000E+00
    0.12476E-10         0.23051E-10         0.00000E+00
    0.99149E-11         0.28521E-10         0.00000E+00
    0.73412E-11         0.32568E-10         0.00000E+00
    0.48605E-11         0.35273E-10         0.00000E+00
    0.25585E-11         0.36716E-10         0.00000E+00
    0.49653E-12         0.37029E-10         0.00000E+00
   -0.12712E-11         0.36349E-10         0.00000E+00
   -0.26932E-11         0.34835E-10         0.00000E+00
   -0.37158E-11         0.32681E-10         0.00000E+00
   -0.42755E-11         0.30061E-10         0.00000E+00
   -0.43131E-11         0.27205E-10         0.00000E+00
   -0.37178E-11         0.24769E-10         0.00000E+00
   -0.22182E-11         0.20466E-10         0.00000E+00
   -0.44127E-12         0.17153E-10         0.00000E+00
    0.25358E-10         0.11487E-10         0.00000E+00
    0.22464E-10         0.17466E-10         0.00000E+00
    0.18064E-10         0.26481E-10         0.00000E+00
    0.13882E-10         0.31838E-10         0.00000E+00
    0.98520E-11         0.35773E-10         0.00000E+00
    0.60218E-11         0.38290E-10         0.00000E+00
    0.24885E-11         0.39463E-10         0.00000E+00
   -0.67294E-12         0.39440E-10         0.00000E+00
   -0.33901E-11         0.38360E-10         0.00000E+00
   -0.55910E-11         0.36382E-10         0.00000E+00
   -0.72010E-11         0.33694E-10         0.00000E+00
   -0.81371E-11         0.30468E-10         0.00000E+00
   -0.83232E-11         0.26922E-10         0.00000E+00
   -0.76641E-11         0.23650E-10         0.00000E+00
   -0.59828E-11         0.18759E-10         0.00000E+00
   -0.40341E-11         0.15324E-10         0.00000E+00
    0.34626E-10         0.14981E-10         0.00000E+00
    0.30646E-10         0.21861E-10         0.00000E+00
    0.24517E-10         0.31633E-10         0.00000E+00
    0.18679E-10         0.36734E-10         0.00000E+00
    0.13105E-10         0.40428E-10         0.00000E+00
    0.78408E-11         0.42636E-10         0.00000E+00
    0.29986E-11         0.43410E-10         0.00000E+00
   -0.13351E-11         0.42907E-10         0.00000E+00
   -0.50737E-11         0.41267E-10         0.00000E+00
   -0.81283E-11         0.38646E-10         0.00000E+00
   -0.10406E-10         0.35227E-10         0.00000E+00
   -0.11804E-10         0.31183E-10         0.00000E+00
   -0.12231E-10         0.26732E-10         0.00000E+00
   -0.11579E-10         0.22428E-10         0.00000E+00
   -0.96270E-11         0.16836E-10         0.00000E+00
   -0.72759E-11         0.13256E-10         0.00000E+00
    0.43668E-10         0.19447E-10         0.00000E+00
    0.38570E-10         0.27574E-10         0.00000E+00
    0.30644E-10         0.38448E-10         0.00000E+00
    0.23074E-10         0.43251E-10         0.00000E+00
    0.15865E-10         0.46611E-10         0.00000E+00
    0.90745E-11         0.48396E-10         0.00000E+00
    0.28341E-11         0.48639E-10         0.00000E+00
   -0.27591E-11         0.47512E-10         0.00000E+00
   -0.76075E-11         0.45153E-10         0.00000E+00
   -0.11609E-10         0.41714E-10         0.00000E+00
   -0.14655E-10         0.37370E-10         0.00000E+00
   -0.16618E-10         0.32293E-10         0.00000E+00
   -0.17385E-10         0.26696E-10         0.00000E+00
   -0.16808E-10         0.21046E-10         0.00000E+00
   -0.14556E-10         0.14456E-10         0.00000E+00
   -0.11679E-10         0.10622E-10         0.00000E+00
    0.52963E-10         0.25177E-10         0.00000E+00
    0.46518E-10         0.34885E-10         0.00000E+00
    0.36560E-10         0.47128E-10         0.00000E+00
    0.27108E-10         0.51513E-10         0.00000E+00
    0.18142E-10         0.54428E-10         0.00000E+00
    0.97172E-11         0.55668E-10         0.00000E+00
    0.19786E-11         0.55244E-10         0.00000E+00
   -0.49724E-11         0.53349E-10         0.00000E+00
   -0.11033E-10         0.50117E-10         0.00000E+00
   -0.16091E-10         0.45693E-10         0.00000E+00
   -0.20024E-10         0.40236E-10         0.00000E+00
   -0.22685E-10         0.33913E-10         0.00000E+00
   -0.23928E-10         0.26921E-10         0.00000E+00
   -0.23562E-10         0.19600E-10         0.00000E+00
   -0.21164E-10         0.11707E-10         0.00000E+00
   -0.17900E-10         0.75011E-11         0.00000E+00
    0.62397E-10         0.32337E-10         0.00000E+00
    0.54444E-10         0.43977E-10         0.00000E+00
    0.42241E-10         0.57858E-10         0.00000E+00
    0.30740E-10         0.61669E-10         0.00000E+00
    0.19882E-10         0.64002E-10         0.00000E+00
    0.97072E-11         0.64560E-10         0.00000E+00
    0.36495E-12         0.63329E-10         0.00000E+00
   -0.80476E-11         0.60523E-10         0.00000E+00
   -0.15430E-10         0.56271E-10         0.00000E+00
   -0.21669E-10         0.50706E-10         0.00000E+00
   -0.26632E-10         0.43964E-10         0.00000E+00
   -0.30153E-10         0.36197E-10         0.00000E+00
   -0.32055E-10         0.27573E-10         0.00000E+00
   -0.32099E-10         0.18281E-10         0.00000E+00
   -0.29782E-10         0.87936E-11         0.00000E+00
   -0.26327E-10         0.40940E-11         0.00000E+00
    0.71823E-10         0.41083E-10         0.00000E+00
    0.62190E-10         0.55041E-10         0.00000E+00
    0.47511E-10         0.70833E-10         0.00000E+00
    0.33788E-10         0.73872E-10         0.00000E+00
    0.20903E-10         0.75460E-10         0.00000E+00
    0.88638E-11         0.75185E-10         0.00000E+00
   -0.21840E-11         0.72999E-10         0.00000E+00
   -0.12160E-10         0.69144E-10         0.00000E+00
   -0.20977E-10         0.63738E-10         0.00000E+00
   -0.28529E-10         0.56895E-10         0.00000E+00
   -0.34684E-10         0.48720E-10         0.00000E+00
   -0.39259E-10         0.39336E-10         0.00000E+00
   -0.42049E-10         0.28868E-10         0.00000E+00
   -0.42761E-10         0.17326E-10         0.00000E+00
   -0.40814E-10         0.59350E-11         0.00000E+00
   -0.37398E-10         0.59219E-12         0.00000E+00
    0.81069E-10         0.51603E-10         0.00000E+00
    0.69576E-10         0.68289E-10         0.00000E+00
    0.52191E-10         0.86261E-10         0.00000E+00
    0.36077E-10         0.88277E-10         0.00000E+00
    0.21038E-10         0.88926E-10         0.00000E+00
    0.70348E-11         0.87647E-10         0.00000E+00
   -0.58056E-11         0.84352E-10         0.00000E+00
   -0.17433E-10         0.79316E-10         0.00000E+00
   -0.27788E-10         0.72641E-10         0.00000E+00
   -0.36789E-10         0.64414E-10         0.00000E+00
   -0.44312E-10         0.54694E-10         0.00000E+00
   -0.50168E-10         0.43561E-10         0.00000E+00
   -0.54123E-10         0.31075E-10         0.00000E+00
   -0.55831E-10         0.17046E-10         0.00000E+00
   -0.54637E-10         0.34301E-11         0.00000E+00
   -0.51571E-10        -0.27389E-11         0.00000E+00
    0.89865E-10         0.64069E-10         0.00000E+00
    0.76345E-10         0.83918E-10         0.00000E+00
    0.56043E-10         0.10433E-09         0.00000E+00
    0.37389E-10         0.10502E-09         0.00000E+00
    0.20093E-10         0.10450E-09         0.00000E+00
    0.40527E-11         0.10203E-09         0.00000E+00
   -0.10638E-10         0.97466E-10         0.00000E+00
   -0.23977E-10         0.91127E-10         0.00000E+00
   -0.35954E-10         0.83094E-10         0.00000E+00
   -0.46526E-10         0.73419E-10         0.00000E+00
   -0.55599E-10         0.62099E-10         0.00000E+00
   -0.62991E-10         0.49147E-10         0.00000E+00
   -0.68443E-10         0.34531E-10         0.00000E+00
   -0.71558E-10         0.17841E-10         0.00000E+00
   -0.71611E-10         0.16748E-11         0.00000E+00
   -0.69310E-10        -0.55402E-11         0.00000E+00
    0.97869E-10         0.78643E-10         0.00000E+00
    0.82172E-10         0.10211E-09         0.00000E+00
    0.58769E-10         0.12522E-09         0.00000E+00
    0.37458E-10         0.12423E-09         0.00000E+00
    0.17838E-10         0.12226E-09         0.00000E+00
   -0.27061E-12         0.11838E-09         0.00000E+00
   -0.16822E-10         0.11238E-09         0.00000E+00
   -0.31885E-10         0.10463E-09         0.00000E+00
   -0.45524E-10         0.95190E-10         0.00000E+00
   -0.57763E-10         0.84059E-10         0.00000E+00
   -0.68562E-10         0.71160E-10         0.00000E+00
   -0.77768E-10         0.56406E-10         0.00000E+00
   -0.85107E-10         0.39642E-10         0.00000E+00
   -0.90128E-10         0.20214E-10         0.00000E+00
   -0.92060E-10         0.11829E-11         0.00000E+00
   -0.91071E-10        -0.73396E-11         0.00000E+00
    0.10466E-09         0.95462E-10         0.00000E+00
    0.86664E-10         0.12302E-09         0.00000E+00
    0.60015E-10         0.14905E-09         0.00000E+00
    0.35971E-10         0.14596E-09         0.00000E+00
    0.14008E-10         0.14223E-09         0.00000E+00
   -0.61402E-11         0.13669E-09         0.00000E+00
   -0.24494E-10         0.12908E-09         0.00000E+00
   -0.41221E-10         0.11983E-09         0.00000E+00
   -0.56492E-10         0.10897E-09         0.00000E+00
   -0.70441E-10         0.96457E-10         0.00000E+00
   -0.83115E-10         0.82105E-10         0.00000E+00
   -0.94423E-10         0.65691E-10         0.00000E+00
   -0.10409E-09         0.46891E-10         0.00000E+00
   -0.11163E-09         0.24794E-10         0.00000E+00
   -0.11624E-09         0.26178E-11         0.00000E+00
   -0.11727E-09        -0.75179E-11         0.00000E+00
    0.10975E-09         0.11463E-09         0.00000E+00
    0.89367E-10         0.14675E-09         0.00000E+00
    0.59372E-10         0.17591E-09         0.00000E+00
    0.32559E-10         0.17023E-09         0.00000E+00
    0.82918E-11         0.16437E-09         0.00000E+00
   -0.13789E-10         0.15688E-09         0.00000E+00
   -0.33789E-10         0.14746E-09         0.00000E+00
   -0.52011E-10         0.13663E-09         0.00000E+00
   -0.68782E-10         0.12441E-09         0.00000E+00
   -0.84391E-10         0.11068E-09         0.00000E+00
   -0.99031E-10         0.95142E-10         0.00000E+00
   -0.11272E-09         0.77381E-10         0.00000E+00
   -0.12521E-09         0.56847E-10         0.00000E+00
   -0.13599E-09         0.32361E-10         0.00000E+00
   -0.14428E-09         0.68268E-11         0.00000E+00
   -0.14825E-09        -0.52719E-11         0.00000E+00
    0.11261E-09         0.13623E-09         0.00000E+00
    0.89771E-10         0.17340E-09         0.00000E+00
    0.56352E-10         0.20585E-09         0.00000E+00
    0.26767E-10         0.19704E-09         0.00000E+00
    0.29631E-12         0.18858E-09         0.00000E+00
   -0.23511E-10         0.17877E-09         0.00000E+00
   -0.44869E-10         0.16730E-09         0.00000E+00
   -0.64263E-10         0.15482E-09         0.00000E+00
   -0.82239E-10         0.14135E-09         0.00000E+00
   -0.99317E-10         0.12671E-09         0.00000E+00
   -0.11591E-09         0.11043E-09         0.00000E+00
   -0.13221E-09         0.91867E-10         0.00000E+00
   -0.14804E-09         0.70160E-10         0.00000E+00
   -0.16292E-09         0.43865E-10         0.00000E+00
   -0.17613E-09         0.14884E-10         0.00000E+00
   -0.18421E-09         0.43230E-12         0.00000E+00
    0.11272E-09         0.16031E-09         0.00000E+00
    0.87357E-10         0.20301E-09         0.00000E+00
    0.50431E-10         0.23891E-09         0.00000E+00
    0.18080E-10         0.22629E-09         0.00000E+00
   -0.10438E-10         0.21465E-09         0.00000E+00
   -0.35644E-10         0.20205E-09         0.00000E+00
   -0.57893E-10         0.18822E-09         0.00000E+00
   -0.77917E-10         0.17400E-09         0.00000E+00
   -0.96571E-10         0.15946E-09         0.00000E+00
   -0.11471E-09         0.14435E-09         0.00000E+00
   -0.13307E-09         0.12803E-09         0.00000E+00
   -0.15212E-09         0.10952E-09         0.00000E+00
   -0.17184E-09         0.87557E-10         0.00000E+00
   -0.19179E-09         0.60446E-10         0.00000E+00
   -0.21144E-09         0.28123E-10         0.00000E+00
   -0.22513E-09         0.10896E-10         0.00000E+00
    0.10964E-09         0.18695E-09         0.00000E+00
    0.81586E-10         0.23568E-09         0.00000E+00
    0.40921E-10         0.27513E-09         0.00000E+00
    0.57375E-11         0.25790E-09         0.00000E+00
   -0.24630E-10         0.24230E-09         0.00000E+00
   -0.50755E-10         0.22623E-09         0.00000E+00
   -0.73181E-10         0.20958E-09         0.00000E+00
   -0.92984E-10         0.19350E-09         0.00000E+00
   -0.11146E-09         0.17815E-09         0.00000E+00
   -0.12993E-09         0.16320E-09         0.00000E+00
   -0.14959E-09         0.14784E-09         0.00000E+00
   -0.17135E-09         0.13063E-09         0.00000E+00
   -0.19544E-09         0.10983E-09         0.00000E+00
   -0.22156E-09         0.83474E-10         0.00000E+00
   -0.24951E-09         0.48224E-10         0.00000E+00
   -0.27063E-09         0.27797E-10         0.00000E+00
    0.10294E-09         0.21641E-09         0.00000E+00
    0.71934E-10         0.27173E-09         0.00000E+00
    0.27081E-10         0.31476E-09         0.00000E+00
   -0.11133E-10         0.29184E-09         0.00000E+00
   -0.43124E-10         0.27114E-09         0.00000E+00
   -0.69487E-10         0.25060E-09         0.00000E+00
   -0.91032E-10         0.23044E-09         0.00000E+00
   -0.10933E-09         0.21227E-09         0.00000E+00
   -0.12628E-09         0.19641E-09         0.00000E+00
   -0.14389E-09         0.18249E-09         0.00000E+00
   -0.16400E-09         0.16946E-09         0.00000E+00
   -0.18814E-09         0.15536E-09         0.00000E+00
   -0.21695E-09         0.13777E-09         0.00000E+00
   -0.25046E-09         0.11452E-09         0.00000E+00
   -0.28891E-09         0.77187E-10         0.00000E+00
   -0.31979E-09         0.53135E-10         0.00000E+00
    0.92997E-10         0.24896E-09         0.00000E+00
    0.58125E-10         0.31154E-09         0.00000E+00
    0.79300E-11         0.35820E-09         0.00000E+00
   -0.33942E-10         0.32811E-09         0.00000E+00
   -0.67372E-10         0.30066E-09         0.00000E+00
   -0.93017E-10         0.27413E-09         0.00000E+00
   -0.11213E-09         0.24942E-09         0.00000E+00
   -0.12702E-09         0.22875E-09         0.00000E+00
   -0.14046E-09         0.21270E-09         0.00000E+00
   -0.15534E-09         0.20092E-09         0.00000E+00
   -0.17443E-09         0.19209E-09         0.00000E+00
   -0.20014E-09         0.18359E-09         0.00000E+00
   -0.23380E-09         0.17215E-09         0.00000E+00
   -0.27593E-09         0.15543E-09         0.00000E+00
   -0.32756E-09         0.11755E-09         0.00000E+00
   -0.37108E-09         0.89556E-10         0.00000E+00
    0.79302E-10         0.28616E-09         0.00000E+00
    0.39099E-10         0.35680E-09         0.00000E+00
   -0.18719E-10         0.40683E-09         0.00000E+00
   -0.65283E-10         0.36714E-09         0.00000E+00
   -0.99877E-10         0.33022E-09         0.00000E+00
   -0.12336E-09         0.29536E-09         0.00000E+00
   -0.13775E-09         0.26445E-09         0.00000E+00
   -0.14648E-09         0.24060E-09         0.00000E+00
   -0.15349E-09         0.22472E-09         0.00000E+00
   -0.16288E-09         0.21646E-09         0.00000E+00
   -0.17861E-09         0.21425E-09         0.00000E+00
   -0.20433E-09         0.21472E-09         0.00000E+00
   -0.24245E-09         0.21356E-09         0.00000E+00
   -0.29439E-09         0.20828E-09         0.00000E+00
   -0.36226E-09         0.17234E-09         0.00000E+00
   -0.42181E-09         0.14018E-09         0.00000E+00
    0.64087E-10         0.32936E-09         0.00000E+00
    0.15670E-10         0.40956E-09         0.00000E+00
   -0.53428E-10         0.46258E-09         0.00000E+00
   -0.10684E-09         0.40927E-09         0.00000E+00
   -0.14233E-09         0.35873E-09         0.00000E+00
   -0.16146E-09         0.31201E-09         0.00000E+00
   -0.16778E-09         0.27254E-09         0.00000E+00
   -0.16641E-09         0.24449E-09         0.00000E+00
   -0.16292E-09         0.22910E-09         0.00000E+00
   -0.16284E-09         0.22604E-09         0.00000E+00
   -0.17165E-09         0.23354E-09         0.00000E+00
   -0.19472E-09         0.24743E-09         0.00000E+00
   -0.23615E-09         0.26221E-09         0.00000E+00
   -0.29905E-09         0.27524E-09         0.00000E+00
   -0.38733E-09         0.24498E-09         0.00000E+00
   -0.46818E-09         0.20867E-09         0.00000E+00
    0.50145E-10         0.38299E-09         0.00000E+00
   -0.15272E-10         0.47431E-09         0.00000E+00
   -0.10543E-09         0.52934E-09         0.00000E+00
   -0.16922E-09         0.45605E-09         0.00000E+00
   -0.20451E-09         0.38484E-09         0.00000E+00
   -0.21543E-09         0.32080E-09         0.00000E+00
   -0.20851E-09         0.26940E-09         0.00000E+00
   -0.19151E-09         0.23575E-09         0.00000E+00
   -0.17195E-09         0.22115E-09         0.00000E+00
   -0.15693E-09         0.22519E-09         0.00000E+00
   -0.15356E-09         0.24613E-09         0.00000E+00
   -0.16940E-09         0.27922E-09         0.00000E+00
   -0.21120E-09         0.31790E-09         0.00000E+00
   -0.28505E-09         0.35946E-09         0.00000E+00
   -0.39805E-09         0.34146E-09         0.00000E+00
   -0.50520E-09         0.30188E-09         0.00000E+00
    0.24911E-10         0.46020E-09         0.00000E+00
   -0.59734E-10         0.56514E-09         0.00000E+00
   -0.17921E-09         0.61653E-09         0.00000E+00
   -0.25579E-09         0.50834E-09         0.00000E+00
   -0.28740E-09         0.40494E-09         0.00000E+00
   -0.28341E-09         0.31601E-09         0.00000E+00
   -0.25558E-09         0.24863E-09         0.00000E+00
   -0.21550E-09         0.20793E-09         0.00000E+00
   -0.17277E-09         0.19452E-09         0.00000E+00
   -0.13568E-09         0.20764E-09         0.00000E+00
   -0.11276E-09         0.24601E-09         0.00000E+00
   -0.11420E-09         0.30508E-09         0.00000E+00
   -0.15092E-09         0.37786E-09         0.00000E+00
   -0.23492E-09         0.46208E-09         0.00000E+00
   -0.37907E-09         0.46513E-09         0.00000E+00
   -0.52272E-09         0.42297E-09         0.00000E+00
    0.47389E-10         0.55228E-09         0.00000E+00
   -0.98128E-10         0.67843E-09         0.00000E+00
   -0.27834E-09         0.72539E-09         0.00000E+00
   -0.37740E-09         0.56424E-09         0.00000E+00
   -0.39847E-09         0.41246E-09         0.00000E+00
   -0.36758E-09         0.28899E-09         0.00000E+00
   -0.30755E-09         0.20149E-09         0.00000E+00
   -0.23492E-09         0.15293E-09         0.00000E+00
   -0.16073E-09         0.14133E-09         0.00000E+00
   -0.93129E-10         0.16519E-09         0.00000E+00
   -0.40806E-10         0.22465E-09         0.00000E+00
   -0.16245E-10         0.31738E-09         0.00000E+00
   -0.36515E-10         0.43862E-09         0.00000E+00
   -0.12607E-09         0.58760E-09         0.00000E+00
   -0.31369E-09         0.62926E-09         0.00000E+00
   -0.51665E-09         0.58920E-09         0.00000E+00
    0.25354E-11         0.75123E-09         0.00000E+00
   -0.24619E-09         0.89087E-09         0.00000E+00
   -0.53209E-09         0.89580E-09         0.00000E+00
   -0.63897E-09         0.62847E-09         0.00000E+00
   -0.62021E-09         0.39512E-09         0.00000E+00
   -0.53847E-09         0.22509E-09         0.00000E+00
   -0.42917E-09         0.11596E-09         0.00000E+00
   -0.31245E-09         0.61107E-10         0.00000E+00
   -0.19811E-09         0.52726E-10         0.00000E+00
   -0.90883E-10         0.87717E-10         0.00000E+00
    0.34137E-11         0.16913E-09         0.00000E+00
    0.72301E-10         0.30079E-09         0.00000E+00
    0.93202E-10         0.48768E-09         0.00000E+00
    0.22165E-10         0.73926E-09         0.00000E+00
   -0.20229E-09         0.85570E-09         0.00000E+00
   -0.46202E-09         0.82887E-09         0.00000E+00
   -0.13470E-09         0.10497E-08         0.00000E+00
   -0.41499E-09         0.12131E-08         0.00000E+00
   -0.78202E-09         0.11182E-08         0.00000E+00
   -0.85569E-09         0.65236E-09         0.00000E+00
   -0.75209E-09         0.31197E-09         0.00000E+00
   -0.58702E-09         0.97942E-10         0.00000E+00
   -0.40897E-09        -0.24538E-10         0.00000E+00
   -0.23911E-09        -0.78134E-10         0.00000E+00
   -0.80293E-10        -0.80234E-10         0.00000E+00
    0.71787E-10        -0.36330E-10         0.00000E+00
    0.21969E-09         0.61464E-10         0.00000E+00
    0.35510E-09         0.22759E-09         0.00000E+00
    0.45284E-09         0.48876E-09         0.00000E+00
    0.43409E-09         0.88309E-09         0.00000E+00
    0.13992E-09         0.11134E-08         0.00000E+00
   -0.30844E-09         0.11086E-08         0.00000E+00
    0.86487E-09         0.13118E-08         0.00000E+00
   -0.39702E-09         0.15382E-08         0.00000E+00
   -0.12215E-08         0.13365E-08         0.00000E+00
   -0.12073E-08         0.59855E-09         0.00000E+00
   -0.92734E-09         0.12645E-09         0.00000E+00
   -0.62269E-09        -0.11802E-09         0.00000E+00
   -0.35623E-09        -0.23195E-09         0.00000E+00
   -0.13262E-09        -0.26757E-09         0.00000E+00
    0.64829E-10        -0.25817E-09         0.00000E+00
    0.25739E-09        -0.21227E-09         0.00000E+00
    0.46520E-09        -0.11418E-09         0.00000E+00
    0.69740E-09         0.67636E-10         0.00000E+00
    0.94323E-09         0.40869E-09         0.00000E+00
    0.11098E-08         0.10522E-08         0.00000E+00
    0.74338E-09         0.15982E-08         0.00000E+00
   -0.25154E-09         0.17256E-08         0.00000E+00
   -0.19430E-08         0.35735E-08         0.00000E+00
   -0.42744E-08         0.32994E-08         0.00000E+00
   -0.47292E-08         0.19285E-08         0.00000E+00
   -0.38690E-08         0.35824E-09         0.00000E+00
   -0.30729E-08        -0.27266E-09         0.00000E+00
   -0.25192E-08        -0.47317E-09         0.00000E+00
   -0.21383E-08        -0.51461E-09         0.00000E+00
   -0.18603E-08        -0.49919E-09         0.00000E+00
   -0.16303E-08        -0.47024E-09         0.00000E+00
   -0.14023E-08        -0.43670E-09         0.00000E+00
   -0.11301E-08        -0.37854E-09         0.00000E+00
   -0.75979E-09        -0.25045E-09         0.00000E+00
   -0.21945E-09         0.76308E-10         0.00000E+00
    0.53872E-09         0.10830E-08         0.00000E+00
    0.12218E-08         0.24748E-08         0.00000E+00
    0.68626E-09         0.30985E-08         0.00000E+00
   -0.12272E-07         0.59746E-08         0.00000E+00
   -0.76542E-08         0.43243E-08         0.00000E+00
   -0.34936E-08         0.93106E-09         0.00000E+00
   -0.10703E-08        -0.10578E-08         0.00000E+00
    0.22106E-09        -0.12233E-08         0.00000E+00
    0.89560E-09        -0.10526E-08         0.00000E+00
    0.12821E-08        -0.89080E-09         0.00000E+00
    0.15345E-08        -0.77562E-09         0.00000E+00
    0.17318E-08        -0.71626E-09         0.00000E+00
    0.19291E-08        -0.71246E-09         0.00000E+00
    0.21825E-08        -0.75666E-09         0.00000E+00
    0.25813E-08        -0.84299E-09         0.00000E+00
    0.32924E-08        -0.88982E-09         0.00000E+00
    0.46325E-08        -0.38902E-09         0.00000E+00
    0.74375E-08         0.14507E-08         0.00000E+00
    0.11685E-07         0.27966E-08         0.00000E+00
    0.49158E-07        -0.56618E-08         0.00000E+00
    0.52145E-07        -0.54789E-08         0.00000E+00
    0.53482E-07        -0.46554E-08         0.00000E+00
    0.53076E-07        -0.33564E-08         0.00000E+00
    0.52424E-07        -0.22386E-08         0.00000E+00
    0.51853E-07        -0.15342E-08         0.00000E+00
    0.51372E-07        -0.11536E-08         0.00000E+00
    0.50962E-07        -0.94881E-09         0.00000E+00
    0.50596E-07        -0.86479E-09         0.00000E+00
    0.50246E-07        -0.88742E-09         0.00000E+00
    0.49883E-07        -0.10307E-08         0.00000E+00
    0.49489E-07        -0.13604E-08         0.00000E+00
    0.49040E-07        -0.19749E-08         0.00000E+00
    0.48599E-07        -0.30621E-08         0.00000E+00
    0.48651E-07        -0.45775E-08         0.00000E+00
    0.50050E-07        -0.53962E-08         0.00000E+00
    0.11706E-06         0.00000E+00         0.00000E+00
    0.11140E-06         0.00000E+00         0.00000E+00
    0.10610E-06        -0.29802E-21         0.00000E+00
    0.10208E-06        -0.93132E-23         0.00000E+00
    0.99386E-07         0.27940E-21         0.00000E+00
    0.97607E-07         0.00000E+00         0.00000E+00
    0.96318E-07         0.00000E+00         0.00000E+00
    0.95300E-07        -0.27008E-21         0.00000E+00
    0.94420E-07        -0.27940E-21         0.00000E+00
    0.93570E-07         0.26077E-21         0.00000E+00
    0.92645E-07         0.26077E-21         0.00000E+00
    0.91509E-07        -0.27008E-21         0.00000E+00
    0.89925E-07        -0.18626E-22         0.00000E+00
    0.87559E-07         0.23283E-21         0.00000E+00
    0.83800E-07         0.93132E-23         0.00000E+00
    0.78404E-07         0.00000E+00         0.00000E+00
CELL_DATA        450
TENSORS stressef double 
    0.24866E+06         0.74416E+03         0.00000E+00
    0.74416E+03        -0.24754E+06         0.00000E+00
    0.00000E+00         0.00000E+00         0.00000E+00
 
    0.24117E+06         0.27288E+04         0.00000E+00
    0.27288E+04        -0.24045E+06         0.00000E+00
    0.00000E+00         0.00000E+00         0.00000E+00
 
    0.22888E+06         0.43179E+04         0.00000E+00
    0.43179E+04        -0.22800E+06         0.00000E+00
    0.00000E+00         0.00000E+00         0.00000E+00
 
    0.21254E+06         0.55037E+04         0.00000E+00
    0.55037E+04        -0.21153E+06         0.00000E+00
    0.00000E+00         0.00000E+00         0.00000E+00
 
    0.19320E+06         0.63171E+04         0.00000E+00
    0.63171E+04        -0.19208E+06         0.00000E+00
    0.00000E+00         0.00000E+00         0.00000E+00
 
    0.17188E+06         0.67867E+04         0.00000E+00
    0.67867E+04        -0.17065E+06         0.00000E+00
    0.00000E+00         0.00000E+00         0.00000E+00
 
    0.14952E+06         0.69448E+04         0.00000E+00
    0.69448E+04        -0.14820E+06         0.00000E+00
    0.00000E+00         0.00000E+00         0.00000E+00
 
    0.12697E+06         0.68281E+04         0.00000E+00
    0.68281E+04        -0.12556E+06         0.00000E+00
    0.00000E+00         0.00000E+00         0.00000E+00
 
    0.10498E+06         0.64787E+04         0.00000E+00
    0.64787E+04        -0.10350E+06         0.00000E+00
    0.00000E+00         0.00000E+00         0.00000E+00
 
    0.84152E+05         0.59448E+04         0.00000E+00
    0.59448E+04        -0.82621E+05         0.00000E+00
    0.00000E+00         0.00000E+00         0.00000E+00
 
    0.64948E+05         0.52823E+04         0.00000E+00
    0.52823E+04        -0.63384E+05         0.00000E+00
    0.00000E+00         0.00000E+00         0.00000E+00
 
    0.47651E+05         0.45564E+04         0.00000E+00
    0.45564E+04        -0.46082E+05         0.00000E+00
    0.00000E+00         0.00000E+00         0.00000E+00
 
    0.32333E+05         0.38453E+04         0.00000E+00
    0.38453E+04        -0.30798E+05         0.00000E+00
    0.00000E+00         0.00000E+00         0.00000E+00
 
    0.18793E+05         0.32512E+04         0.00000E+00
    0.32512E+04        -0.17216E+05         0.00000E+00
    0.00000E+00         0.00000E+00         0.00000E+00
 
    0.62116E+04         0.30958E+04         0.00000E+00
    0.30958E+04        -0.53348E+04         0.00000E+00
    0.00000E+00         0.00000E+00         0.00000E+00
 
    0.24954E+06         0.29517E+04         0.00000E+00
    0.29517E+04        -0.25002E+06         0.00000E+00
    0.00000E+00         0.00000E+00         0.00000E+00
 
    0.24190E+06         0.84473E+04         0.00000E+00
    0.84473E+04        -0.24237E+06         0.00000E+00
    0.00000E+00         0.00000E+00         0.00000E+00
 
    0.22907E+06         0.13066E+05         0.00000E+00
    0.13066E+05        -0.22941E+06         0.00000E+00
    0.00000E+00         0.00000E+00         0.00000E+00
 
    0.21228E+06         0.16574E+05         0.00000E+00
    0.16574E+05        -0.21250E+06         0.00000E+00
    0.00000E+00         0.00000E+00         0.00000E+00
 
    0.19254E+06         0.18992E+05         0.00000E+00
    0.18992E+05        -0.19265E+06         0.00000E+00
    0.00000E+00         0.00000E+00         0.00000E+00
 
    0.17086E+06         0.20389E+05         0.00000E+00
    0.20389E+05        -0.17086E+06         0.00000E+00
    0.00000E+00         0.00000E+00         0.00000E+00
 
    0.14818E+06         0.20856E+05         0.00000E+00
    0.20856E+05        -0.14809E+06         0.00000E+00
    0.00000E+00         0.00000E+00         0.00000E+00
 
    0.12536E+06         0.20501E+05         0.00000E+00
    0.20501E+05        -0.12518E+06         0.00000E+00
    0.00000E+00         0.00000E+00         0.00000E+00
 
    0.10314E+06         0.19448E+05         0.00000E+00
    0.19448E+05        -0.10290E+06         0.00000E+00
    0.00000E+00         0.00000E+00         0.00000E+00
 
    0.82147E+05         0.17842E+05         0.00000E+00
    0.17842E+05        -0.81848E+05         0.00000E+00
    0.00000E+00         0.00000E+00         0.00000E+00
 
    0.62842E+05         0.15849E+05         0.00000E+00
    0.15849E+05        -0.62508E+05         0.00000E+00
    0.00000E+00         0.00000E+00         0.00000E+00
 
    0.45523E+05         0.13665E+05         0.00000E+00
    0.13665E+05        -0.45182E+05         0.00000E+00
    0.00000E+00         0.00000E+00         0.00000E+00
 
    0.30279E+05         0.11528E+05         0.00000E+00
    0.11528E+05        -0.29968E+05         0.00000E+00
    0.00000E+00         0.00000E+00         0.00000E+00
 
    0.16949E+05         0.97580E+04         0.00000E+00
    0.97580E+04        -0.16600E+05         0.00000E+00
    0.00000E+00         0.00000E+00         0.00000E+00
 
    0.53622E+04         0.89199E+04         0.00000E+00
    0.89199E+04        -0.53005E+04         0.00000E+00
    0.00000E+00         0.00000E+00         0.00000E+00
 
    0.25358E+06         0.52202E+04         0.00000E+00
    0.52202E+04        -0.25406E+06         0.00000E+00
    0.00000E+00         0.00000E+00         0.00000E+00
 
    0.24524E+06         0.14475E+05         0.00000E+00
    0.14475E+05        -0.24589E+06         0.00000E+00
    0.00000E+00         0.00000E+00         0.00000E+00
 
    0.23164E+06         0.22027E+05         0.00000E+00
    0.22027E+05        -0.23212E+06         0.00000E+00
    0.00000E+00         0.00000E+00         0.00000E+00
 
    0.21403E+06         0.27788E+05         0.00000E+00
    0.27788E+05        -0.21439E+06         0.00000E+00
    0.00000E+00         0.00000E+00         0.00000E+00
 
    0.19352E+06         0.31769E+05         0.00000E+00
    0.31769E+05        -0.19377E+06         0.00000E+00
    0.00000E+00         0.00000E+00         0.00000E+00
 
    0.17114E+06         0.34066E+05         0.00000E+00
    0.34066E+05        -0.17128E+06         0.00000E+00
    0.00000E+00         0.00000E+00         0.00000E+00
 
    0.14784E+06         0.34823E+05         0.00000E+00
    0.34823E+05        -0.14789E+06         0.00000E+00
    0.00000E+00         0.00000E+00         0.00000E+00
 
    0.12448E+06         0.34216E+05         0.00000E+00
    0.34216E+05        -0.12445E+06         0.00000E+00
    0.00000E+00         0.00000E+00         0.00000E+00
 
    0.10183E+06         0.32448E+05         0.00000E+00
    0.32448E+05        -0.10172E+06         0.00000E+00
    0.00000E+00         0.00000E+00         0.00000E+00
 
    0.80505E+05         0.29755E+05         0.00000E+00
    0.29755E+05        -0.80345E+05         0.00000E+00
    0.00000E+00         0.00000E+00         0.00000E+00
 
    0.61003E+05         0.26412E+05         0.00000E+00
    0.26412E+05        -0.60807E+05         0.00000E+00
    0.00000E+00         0.00000E+00         0.00000E+00
 
    0.43648E+05         0.22743E+05         0.00000E+00
    0.22743E+05        -0.43441E+05         0.00000E+00
    0.00000E+00         0.00000E+00         0.00000E+00
 
    0.28574E+05         0.19140E+05         0.00000E+00
    0.19140E+05        -0.28389E+05         0.00000E+00
    0.00000E+00         0.00000E+00         0.00000E+00
 
    0.15731E+05         0.16102E+05         0.00000E+00
    0.16102E+05        -0.15489E+05         0.00000E+00
    0.00000E+00         0.00000E+00         0.00000E+00
 
    0.49253E+04         0.14153E+05         0.00000E+00
    0.14153E+05        -0.50126E+04         0.00000E+00
    0.00000E+00         0.00000E+00         0.00000E+00
 
    0.25981E+06         0.73952E+04         0.00000E+00
    0.73952E+04        -0.26004E+06         0.00000E+00
    0.00000E+00         0.00000E+00         0.00000E+00
 
    0.25034E+06         0.20554E+05         0.00000E+00
    0.20554E+05        -0.25097E+06         0.00000E+00
    0.00000E+00         0.00000E+00         0.00000E+00
 
    0.23562E+06         0.31142E+05         0.00000E+00
    0.31142E+05        -0.23606E+06         0.00000E+00
    0.00000E+00         0.00000E+00         0.00000E+00
 
    0.21687E+06         0.39147E+05         0.00000E+00
    0.39147E+05        -0.21718E+06         0.00000E+00
    0.00000E+00         0.00000E+00         0.00000E+00
 
    0.19526E+06         0.44662E+05         0.00000E+00
    0.44662E+05        -0.19545E+06         0.00000E+00
    0.00000E+00         0.00000E+00         0.00000E+00
 
    0.17186E+06         0.47831E+05         0.00000E+00
    0.47831E+05        -0.17195E+06         0.00000E+00
    0.00000E+00         0.00000E+00         0.00000E+00
 
    0.14765E+06         0.48855E+05         0.00000E+00
    0.48855E+05        -0.14765E+06         0.00000E+00
    0.00000E+00         0.00000E+00         0.00000E+00
 
    0.12352E+06         0.47977E+05         0.00000E+00
    0.47977E+05        -0.12343E+06         0.00000E+00
    0.00000E+00         0.00000E+00         0.00000E+00
 
    0.10022E+06         0.45477E+05         0.00000E+00
    0.45477E+05        -0.10006E+06         0.00000E+00
    0.00000E+00         0.00000E+00         0.00000E+00
 
    0.78412E+05         0.41676E+05         0.00000E+00
    0.41676E+05        -0.78199E+05         0.00000E+00
    0.00000E+00         0.00000E+00         0.00000E+00
 
    0.58621E+05         0.36947E+05         0.00000E+00
    0.36947E+05        -0.58367E+05         0.00000E+00
    0.00000E+00         0.00000E+00         0.00000E+00
 
    0.41218E+05         0.31730E+05         0.00000E+00
    0.31730E+05        -0.40946E+05         0.00000E+00
    0.00000E+00         0.00000E+00         0.00000E+00
 
    0.26407E+05         0.26556E+05         0.00000E+00
    0.26556E+05        -0.26144E+05         0.00000E+00
    0.00000E+00         0.00000E+00         0.00000E+00
 
    0.14201E+05         0.22049E+05         0.00000E+00
    0.22049E+05        -0.13898E+05         0.00000E+00
    0.00000E+00         0.00000E+00         0.00000E+00
 
    0.43695E+04         0.18875E+05         0.00000E+00
    0.18875E+05        -0.43969E+04         0.00000E+00
    0.00000E+00         0.00000E+00         0.00000E+00
 
    0.26811E+06         0.96094E+04         0.00000E+00
    0.96094E+04        -0.26817E+06         0.00000E+00
    0.00000E+00         0.00000E+00         0.00000E+00
 
    0.25711E+06         0.26682E+05         0.00000E+00
    0.26682E+05        -0.25776E+06         0.00000E+00
    0.00000E+00         0.00000E+00         0.00000E+00
 
    0.24083E+06         0.40353E+05         0.00000E+00
    0.40353E+05        -0.24127E+06         0.00000E+00
    0.00000E+00         0.00000E+00         0.00000E+00
 
    0.22057E+06         0.50616E+05         0.00000E+00
    0.50616E+05        -0.22088E+06         0.00000E+00
    0.00000E+00         0.00000E+00         0.00000E+00
 
    0.19754E+06         0.57644E+05         0.00000E+00
    0.57644E+05        -0.19773E+06         0.00000E+00
    0.00000E+00         0.00000E+00         0.00000E+00
 
    0.17284E+06         0.61655E+05         0.00000E+00
    0.61655E+05        -0.17292E+06         0.00000E+00
    0.00000E+00         0.00000E+00         0.00000E+00
 
    0.14747E+06         0.62921E+05         0.00000E+00
    0.62921E+05        -0.14746E+06         0.00000E+00
    0.00000E+00         0.00000E+00         0.00000E+00
 
    0.12232E+06         0.61756E+05         0.00000E+00
    0.61756E+05        -0.12223E+06         0.00000E+00
    0.00000E+00         0.00000E+00         0.00000E+00
 
    0.98192E+05         0.58508E+05         0.00000E+00
    0.58508E+05        -0.98031E+05         0.00000E+00
    0.00000E+00         0.00000E+00         0.00000E+00
 
    0.75757E+05         0.53575E+05         0.00000E+00
    0.53575E+05        -0.75537E+05         0.00000E+00
    0.00000E+00         0.00000E+00         0.00000E+00
 
    0.55581E+05         0.47412E+05         0.00000E+00
    0.47412E+05        -0.55315E+05         0.00000E+00
    0.00000E+00         0.00000E+00         0.00000E+00
 
    0.38097E+05         0.40560E+05         0.00000E+00
    0.40560E+05        -0.37804E+05         0.00000E+00
    0.00000E+00         0.00000E+00         0.00000E+00
 
    0.23588E+05         0.33664E+05         0.00000E+00
    0.33664E+05        -0.23293E+05         0.00000E+00
    0.00000E+00         0.00000E+00         0.00000E+00
 
    0.12143E+05         0.27490E+05         0.00000E+00
    0.27490E+05        -0.11816E+05         0.00000E+00
    0.00000E+00         0.00000E+00         0.00000E+00
 
    0.35921E+04         0.22912E+05         0.00000E+00
    0.22912E+05        -0.35201E+04         0.00000E+00
    0.00000E+00         0.00000E+00         0.00000E+00
 
    0.27862E+06         0.11879E+05         0.00000E+00
    0.11879E+05        -0.27842E+06         0.00000E+00
    0.00000E+00         0.00000E+00         0.00000E+00
 
    0.26563E+06         0.32901E+05         0.00000E+00
    0.32901E+05        -0.26632E+06         0.00000E+00
    0.00000E+00         0.00000E+00         0.00000E+00
 
    0.24738E+06         0.49643E+05         0.00000E+00
    0.49643E+05        -0.24782E+06         0.00000E+00
    0.00000E+00         0.00000E+00         0.00000E+00
 
    0.22524E+06         0.62138E+05         0.00000E+00
    0.62138E+05        -0.22554E+06         0.00000E+00
    0.00000E+00         0.00000E+00         0.00000E+00
 
    0.20047E+06         0.70641E+05         0.00000E+00
    0.70641E+05        -0.20066E+06         0.00000E+00
    0.00000E+00         0.00000E+00         0.00000E+00
 
    0.17419E+06         0.75460E+05         0.00000E+00
    0.75460E+05        -0.17428E+06         0.00000E+00
    0.00000E+00         0.00000E+00         0.00000E+00
 
    0.14743E+06         0.76945E+05         0.00000E+00
    0.76945E+05        -0.14743E+06         0.00000E+00
    0.00000E+00         0.00000E+00         0.00000E+00
 
    0.12109E+06         0.75479E+05         0.00000E+00
    0.75479E+05        -0.12100E+06         0.00000E+00
    0.00000E+00         0.00000E+00         0.00000E+00
 
    0.95962E+05         0.71478E+05         0.00000E+00
    0.71478E+05        -0.95805E+05         0.00000E+00
    0.00000E+00         0.00000E+00         0.00000E+00
 
    0.72759E+05         0.65397E+05         0.00000E+00
    0.65397E+05        -0.72541E+05         0.00000E+00
    0.00000E+00         0.00000E+00         0.00000E+00
 
    0.52091E+05         0.57759E+05         0.00000E+00
    0.57759E+05        -0.51821E+05         0.00000E+00
    0.00000E+00         0.00000E+00         0.00000E+00
 
    0.34464E+05         0.49181E+05         0.00000E+00
    0.49181E+05        -0.34155E+05         0.00000E+00
    0.00000E+00         0.00000E+00         0.00000E+00
 
    0.20254E+05         0.40406E+05         0.00000E+00
    0.40406E+05        -0.19927E+05         0.00000E+00
    0.00000E+00         0.00000E+00         0.00000E+00
 
    0.96592E+04         0.32345E+05         0.00000E+00
    0.32345E+05        -0.93071E+04         0.00000E+00
    0.00000E+00         0.00000E+00         0.00000E+00
 
    0.26391E+04         0.26072E+05         0.00000E+00
    0.26072E+05        -0.24416E+04         0.00000E+00
    0.00000E+00         0.00000E+00         0.00000E+00
 
    0.29137E+06         0.14188E+05         0.00000E+00
    0.14188E+05        -0.29084E+06         0.00000E+00
    0.00000E+00         0.00000E+00         0.00000E+00
 
    0.27594E+06         0.39185E+05         0.00000E+00
    0.39185E+05        -0.27666E+06         0.00000E+00
    0.00000E+00         0.00000E+00         0.00000E+00
 
    0.25530E+06         0.58956E+05         0.00000E+00
    0.58956E+05        -0.25573E+06         0.00000E+00
    0.00000E+00         0.00000E+00         0.00000E+00
 
    0.23093E+06         0.73615E+05         0.00000E+00
    0.73615E+05        -0.23122E+06         0.00000E+00
    0.00000E+00         0.00000E+00         0.00000E+00
 
    0.20414E+06         0.83529E+05         0.00000E+00
    0.83529E+05        -0.20431E+06         0.00000E+00
    0.00000E+00         0.00000E+00         0.00000E+00
 
    0.17606E+06         0.89106E+05         0.00000E+00
    0.89106E+05        -0.17614E+06         0.00000E+00
    0.00000E+00         0.00000E+00         0.00000E+00
 
    0.14773E+06         0.90785E+05         0.00000E+00
    0.90785E+05        -0.14772E+06         0.00000E+00
    0.00000E+00         0.00000E+00         0.00000E+00
 
    0.12003E+06         0.89019E+05         0.00000E+00
    0.89019E+05        -0.11994E+06         0.00000E+00
    0.00000E+00         0.00000E+00         0.00000E+00
 
    0.93768E+05         0.84278E+05         0.00000E+00
    0.84278E+05        -0.93615E+05         0.00000E+00
    0.00000E+00         0.00000E+00         0.00000E+00
 
    0.69671E+05         0.77060E+05         0.00000E+00
    0.77060E+05        -0.69454E+05         0.00000E+00
    0.00000E+00         0.00000E+00         0.00000E+00
 
    0.48396E+05         0.67929E+05         0.00000E+00
    0.67929E+05        -0.48121E+05         0.00000E+00
    0.00000E+00         0.00000E+00         0.00000E+00
 
    0.30533E+05         0.57552E+05         0.00000E+00
    0.57552E+05        -0.30205E+05         0.00000E+00
    0.00000E+00         0.00000E+00         0.00000E+00
 
    0.16573E+05         0.46745E+05         0.00000E+00
    0.46745E+05        -0.16208E+05         0.00000E+00
    0.00000E+00         0.00000E+00         0.00000E+00
 
    0.68683E+04         0.36543E+05         0.00000E+00
    0.36543E+05        -0.64809E+04         0.00000E+00
    0.00000E+00         0.00000E+00         0.00000E+00
 
    0.15563E+04         0.28203E+05         0.00000E+00
    0.28203E+05        -0.12073E+04         0.00000E+00
    0.00000E+00         0.00000E+00         0.00000E+00
 
    0.30639E+06         0.16519E+05         0.00000E+00
    0.16519E+05        -0.30545E+06         0.00000E+00
    0.00000E+00         0.00000E+00         0.00000E+00
 
    0.28801E+06         0.45464E+05         0.00000E+00
    0.45464E+05        -0.28877E+06         0.00000E+00
    0.00000E+00         0.00000E+00         0.00000E+00
 
    0.26458E+06         0.68173E+05         0.00000E+00
    0.68173E+05        -0.26498E+06         0.00000E+00
    0.00000E+00         0.00000E+00         0.00000E+00
 
    0.23767E+06         0.84884E+05         0.00000E+00
    0.84884E+05        -0.23793E+06         0.00000E+00
    0.00000E+00         0.00000E+00         0.00000E+00
 
    0.20862E+06         0.96108E+05         0.00000E+00
    0.96108E+05        -0.20877E+06         0.00000E+00
    0.00000E+00         0.00000E+00         0.00000E+00
 
    0.17858E+06         0.10238E+06         0.00000E+00
    0.10238E+06        -0.17864E+06         0.00000E+00
    0.00000E+00         0.00000E+00         0.00000E+00
 
    0.14855E+06         0.10422E+06         0.00000E+00
    0.10422E+06        -0.14854E+06         0.00000E+00
    0.00000E+00         0.00000E+00         0.00000E+00
 
    0.11939E+06         0.10218E+06         0.00000E+00
    0.10218E+06        -0.11932E+06         0.00000E+00
    0.00000E+00         0.00000E+00         0.00000E+00
 
    0.91904E+05         0.96743E+05         0.00000E+00
    0.96743E+05        -0.91764E+05         0.00000E+00
    0.00000E+00         0.00000E+00         0.00000E+00
 
    0.66807E+05         0.88444E+05         0.00000E+00
    0.88444E+05        -0.66603E+05         0.00000E+00
    0.00000E+00         0.00000E+00         0.00000E+00
 
    0.44806E+05         0.77848E+05         0.00000E+00
    0.77848E+05        -0.44536E+05         0.00000E+00
    0.00000E+00         0.00000E+00         0.00000E+00
 
    0.26580E+05         0.65635E+05         0.00000E+00
    0.65635E+05        -0.26242E+05         0.00000E+00
    0.00000E+00         0.00000E+00         0.00000E+00
 
    0.12766E+05         0.52660E+05         0.00000E+00
    0.52660E+05        -0.12365E+05         0.00000E+00
    0.00000E+00         0.00000E+00         0.00000E+00
 
    0.39109E+04         0.40041E+05         0.00000E+00
    0.40041E+05        -0.34855E+04         0.00000E+00
    0.00000E+00         0.00000E+00         0.00000E+00
 
    0.39192E+03         0.29195E+05         0.00000E+00
    0.29195E+05         0.12926E+03         0.00000E+00
    0.00000E+00         0.00000E+00         0.00000E+00
 
    0.32369E+06         0.18833E+05         0.00000E+00
    0.18833E+05        -0.32222E+06         0.00000E+00
    0.00000E+00         0.00000E+00         0.00000E+00
 
    0.30183E+06         0.51624E+05         0.00000E+00
    0.51624E+05        -0.30261E+06         0.00000E+00
    0.00000E+00         0.00000E+00         0.00000E+00
 
    0.27521E+06         0.77110E+05         0.00000E+00
    0.77110E+05        -0.27558E+06         0.00000E+00
    0.00000E+00         0.00000E+00         0.00000E+00
 
    0.24548E+06         0.95698E+05         0.00000E+00
    0.95698E+05        -0.24570E+06         0.00000E+00
    0.00000E+00         0.00000E+00         0.00000E+00
 
    0.21400E+06         0.10808E+06         0.00000E+00
    0.10808E+06        -0.21413E+06         0.00000E+00
    0.00000E+00         0.00000E+00         0.00000E+00
 
    0.18190E+06         0.11495E+06         0.00000E+00
    0.11495E+06        -0.18196E+06         0.00000E+00
    0.00000E+00         0.00000E+00         0.00000E+00
 
    0.15014E+06         0.11694E+06         0.00000E+00
    0.11694E+06        -0.15013E+06         0.00000E+00
    0.00000E+00         0.00000E+00         0.00000E+00
 
    0.11951E+06         0.11466E+06         0.00000E+00
    0.11466E+06        -0.11945E+06         0.00000E+00
    0.00000E+00         0.00000E+00         0.00000E+00
 
    0.90758E+05         0.10863E+06         0.00000E+00
    0.10863E+06        -0.90644E+05         0.00000E+00
    0.00000E+00         0.00000E+00         0.00000E+00
 
    0.64590E+05         0.99374E+05         0.00000E+00
    0.99374E+05        -0.64414E+05         0.00000E+00
    0.00000E+00         0.00000E+00         0.00000E+00
 
    0.41742E+05         0.87415E+05         0.00000E+00
    0.87415E+05        -0.41492E+05         0.00000E+00
    0.00000E+00         0.00000E+00         0.00000E+00
 
    0.22989E+05         0.73396E+05         0.00000E+00
    0.73396E+05        -0.22652E+05         0.00000E+00
    0.00000E+00         0.00000E+00         0.00000E+00
 
    0.91393E+04         0.58153E+05         0.00000E+00
    0.58153E+05        -0.87080E+04         0.00000E+00
    0.00000E+00         0.00000E+00         0.00000E+00
 
    0.98528E+03         0.42841E+05         0.00000E+00
    0.42841E+05        -0.51978E+03         0.00000E+00
    0.00000E+00         0.00000E+00         0.00000E+00
 
   -0.78595E+03         0.28995E+05         0.00000E+00
    0.28995E+05         0.14954E+04         0.00000E+00
    0.00000E+00         0.00000E+00         0.00000E+00
 
    0.34323E+06         0.21074E+05         0.00000E+00
    0.21074E+05        -0.34110E+06         0.00000E+00
    0.00000E+00         0.00000E+00         0.00000E+00
 
    0.31732E+06         0.57503E+05         0.00000E+00
    0.57503E+05        -0.31812E+06         0.00000E+00
    0.00000E+00         0.00000E+00         0.00000E+00
 
    0.28713E+06         0.85505E+05         0.00000E+00
    0.85505E+05        -0.28744E+06         0.00000E+00
    0.00000E+00         0.00000E+00         0.00000E+00
 
    0.25436E+06         0.10571E+06         0.00000E+00
    0.10571E+06        -0.25453E+06         0.00000E+00
    0.00000E+00         0.00000E+00         0.00000E+00
 
    0.22037E+06         0.11905E+06         0.00000E+00
    0.11905E+06        -0.22047E+06         0.00000E+00
    0.00000E+00         0.00000E+00         0.00000E+00
 
    0.18623E+06         0.12639E+06         0.00000E+00
    0.12639E+06        -0.18627E+06         0.00000E+00
    0.00000E+00         0.00000E+00         0.00000E+00
 
    0.15280E+06         0.12851E+06         0.00000E+00
    0.12851E+06        -0.15280E+06         0.00000E+00
    0.00000E+00         0.00000E+00         0.00000E+00
 
    0.12079E+06         0.12607E+06         0.00000E+00
    0.12607E+06        -0.12075E+06         0.00000E+00
    0.00000E+00         0.00000E+00         0.00000E+00
 
    0.90820E+05         0.11962E+06         0.00000E+00
    0.11962E+06        -0.90747E+05         0.00000E+00
    0.00000E+00         0.00000E+00         0.00000E+00
 
    0.63561E+05         0.10961E+06         0.00000E+00
    0.10961E+06        -0.63431E+05         0.00000E+00
    0.00000E+00         0.00000E+00         0.00000E+00
 
    0.39751E+05         0.96496E+05         0.00000E+00
    0.96496E+05        -0.39542E+05         0.00000E+00
    0.00000E+00         0.00000E+00         0.00000E+00
 
    0.20263E+05         0.80799E+05         0.00000E+00
    0.80799E+05        -0.19946E+05         0.00000E+00
    0.00000E+00         0.00000E+00         0.00000E+00
 
    0.60996E+04         0.63265E+05         0.00000E+00
    0.63265E+05        -0.56499E+04         0.00000E+00
    0.00000E+00         0.00000E+00         0.00000E+00
 
   -0.16442E+04         0.45009E+05         0.00000E+00
    0.45009E+05         0.21494E+04         0.00000E+00
    0.00000E+00         0.00000E+00         0.00000E+00
 
   -0.18856E+04         0.27628E+05         0.00000E+00
    0.27628E+05         0.27930E+04         0.00000E+00
    0.00000E+00         0.00000E+00         0.00000E+00
 
    0.36489E+06         0.23167E+05         0.00000E+00
    0.23167E+05        -0.36196E+06         0.00000E+00
    0.00000E+00         0.00000E+00         0.00000E+00
 
    0.33436E+06         0.62883E+05         0.00000E+00
    0.62883E+05        -0.33517E+06         0.00000E+00
    0.00000E+00         0.00000E+00         0.00000E+00
 
    0.30025E+06         0.93010E+05         0.00000E+00
    0.93010E+05        -0.30048E+06         0.00000E+00
    0.00000E+00         0.00000E+00         0.00000E+00
 
    0.26428E+06         0.11447E+06         0.00000E+00
    0.11447E+06        -0.26439E+06         0.00000E+00
    0.00000E+00         0.00000E+00         0.00000E+00
 
    0.22780E+06         0.12847E+06         0.00000E+00
    0.12847E+06        -0.22786E+06         0.00000E+00
    0.00000E+00         0.00000E+00         0.00000E+00
 
    0.19177E+06         0.13612E+06         0.00000E+00
    0.13612E+06        -0.19179E+06         0.00000E+00
    0.00000E+00         0.00000E+00         0.00000E+00
 
    0.15689E+06         0.13833E+06         0.00000E+00
    0.13833E+06        -0.15691E+06         0.00000E+00
    0.00000E+00         0.00000E+00         0.00000E+00
 
    0.12371E+06         0.13586E+06         0.00000E+00
    0.13586E+06        -0.12372E+06         0.00000E+00
    0.00000E+00         0.00000E+00         0.00000E+00
 
    0.92696E+05         0.12924E+06         0.00000E+00
    0.12924E+06        -0.92685E+05         0.00000E+00
    0.00000E+00         0.00000E+00         0.00000E+00
 
    0.64400E+05         0.11883E+06         0.00000E+00
    0.11883E+06        -0.64344E+05         0.00000E+00
    0.00000E+00         0.00000E+00         0.00000E+00
 
    0.39534E+05         0.10491E+06         0.00000E+00
    0.10491E+06        -0.39395E+05         0.00000E+00
    0.00000E+00         0.00000E+00         0.00000E+00
 
    0.19052E+05         0.87810E+05         0.00000E+00
    0.87810E+05        -0.18782E+05         0.00000E+00
    0.00000E+00         0.00000E+00         0.00000E+00
 
    0.41794E+04         0.68079E+05         0.00000E+00
    0.68079E+05        -0.37316E+04         0.00000E+00
    0.00000E+00         0.00000E+00         0.00000E+00
 
   -0.36272E+04         0.46692E+05         0.00000E+00
    0.46692E+05         0.41677E+04         0.00000E+00
    0.00000E+00         0.00000E+00         0.00000E+00
 
   -0.27847E+04         0.25224E+05         0.00000E+00
    0.25224E+05         0.38900E+04         0.00000E+00
    0.00000E+00         0.00000E+00         0.00000E+00
 
    0.38849E+06         0.25017E+05         0.00000E+00
    0.25017E+05        -0.38460E+06         0.00000E+00
    0.00000E+00         0.00000E+00         0.00000E+00
 
    0.35274E+06         0.67486E+05         0.00000E+00
    0.67486E+05        -0.35354E+06         0.00000E+00
    0.00000E+00         0.00000E+00         0.00000E+00
 
    0.31439E+06         0.99187E+05         0.00000E+00
    0.99187E+05        -0.31452E+06         0.00000E+00
    0.00000E+00         0.00000E+00         0.00000E+00
 
    0.27518E+06         0.12139E+06         0.00000E+00
    0.12139E+06        -0.27519E+06         0.00000E+00
    0.00000E+00         0.00000E+00         0.00000E+00
 
    0.23635E+06         0.13566E+06         0.00000E+00
    0.13566E+06        -0.23635E+06         0.00000E+00
    0.00000E+00         0.00000E+00         0.00000E+00
 
    0.19874E+06         0.14337E+06         0.00000E+00
    0.14337E+06        -0.19873E+06         0.00000E+00
    0.00000E+00         0.00000E+00         0.00000E+00
 
    0.16281E+06         0.14565E+06         0.00000E+00
    0.14565E+06        -0.16284E+06         0.00000E+00
    0.00000E+00         0.00000E+00         0.00000E+00
 
    0.12886E+06         0.14332E+06         0.00000E+00
    0.14332E+06        -0.12892E+06         0.00000E+00
    0.00000E+00         0.00000E+00         0.00000E+00
 
    0.97126E+05         0.13690E+06         0.00000E+00
    0.13690E+06        -0.97202E+05         0.00000E+00
    0.00000E+00         0.00000E+00         0.00000E+00
 
    0.67955E+05         0.12659E+06         0.00000E+00
    0.12659E+06        -0.68006E+05         0.00000E+00
    0.00000E+00         0.00000E+00         0.00000E+00
 
    0.41973E+05         0.11242E+06         0.00000E+00
    0.11242E+06        -0.41943E+05         0.00000E+00
    0.00000E+00         0.00000E+00         0.00000E+00
 
    0.20192E+05         0.94396E+05         0.00000E+00
    0.94396E+05        -0.20007E+05         0.00000E+00
    0.00000E+00         0.00000E+00         0.00000E+00
 
    0.40696E+04         0.72741E+05         0.00000E+00
    0.72741E+05        -0.36548E+04         0.00000E+00
    0.00000E+00         0.00000E+00         0.00000E+00
 
   -0.45035E+04         0.48149E+05         0.00000E+00
    0.48149E+05         0.50700E+04         0.00000E+00
    0.00000E+00         0.00000E+00         0.00000E+00
 
   -0.33209E+04         0.22052E+05         0.00000E+00
    0.22052E+05         0.46104E+04         0.00000E+00
    0.00000E+00         0.00000E+00         0.00000E+00
 
    0.41373E+06         0.26509E+05         0.00000E+00
    0.26509E+05        -0.40871E+06         0.00000E+00
    0.00000E+00         0.00000E+00         0.00000E+00
 
    0.37216E+06         0.70982E+05         0.00000E+00
    0.70982E+05        -0.37292E+06         0.00000E+00
    0.00000E+00         0.00000E+00         0.00000E+00
 
    0.32930E+06         0.10350E+06         0.00000E+00
    0.10350E+06        -0.32929E+06         0.00000E+00
    0.00000E+00         0.00000E+00         0.00000E+00
 
    0.28688E+06         0.12576E+06         0.00000E+00
    0.12576E+06        -0.28677E+06         0.00000E+00
    0.00000E+00         0.00000E+00         0.00000E+00
 
    0.24603E+06         0.13976E+06         0.00000E+00
    0.13976E+06        -0.24594E+06         0.00000E+00
    0.00000E+00         0.00000E+00         0.00000E+00
 
    0.20734E+06         0.14720E+06         0.00000E+00
    0.14720E+06        -0.20729E+06         0.00000E+00
    0.00000E+00         0.00000E+00         0.00000E+00
 
    0.17100E+06         0.14948E+06         0.00000E+00
    0.14948E+06        -0.17103E+06         0.00000E+00
    0.00000E+00         0.00000E+00         0.00000E+00
 
    0.13692E+06         0.14753E+06         0.00000E+00
    0.14753E+06        -0.13705E+06         0.00000E+00
    0.00000E+00         0.00000E+00         0.00000E+00
 
    0.10500E+06         0.14181E+06         0.00000E+00
    0.14181E+06        -0.10519E+06         0.00000E+00
    0.00000E+00         0.00000E+00         0.00000E+00
 
    0.75266E+05         0.13232E+06         0.00000E+00
    0.13232E+06        -0.75469E+05         0.00000E+00
    0.00000E+00         0.00000E+00         0.00000E+00
 
    0.48173E+05         0.11870E+06         0.00000E+00
    0.11870E+06        -0.48304E+05         0.00000E+00
    0.00000E+00         0.00000E+00         0.00000E+00
 
    0.24737E+05         0.10052E+06         0.00000E+00
    0.10052E+06        -0.24690E+05         0.00000E+00
    0.00000E+00         0.00000E+00         0.00000E+00
 
    0.66567E+04         0.77468E+05         0.00000E+00
    0.77468E+05        -0.63202E+04         0.00000E+00
    0.00000E+00         0.00000E+00         0.00000E+00
 
   -0.36749E+04         0.49776E+05         0.00000E+00
    0.49776E+05         0.42509E+04         0.00000E+00
    0.00000E+00         0.00000E+00         0.00000E+00
 
   -0.32813E+04         0.18566E+05         0.00000E+00
    0.18566E+05         0.47226E+04         0.00000E+00
    0.00000E+00         0.00000E+00         0.00000E+00
 
    0.44020E+06         0.27512E+05         0.00000E+00
    0.27512E+05        -0.43385E+06         0.00000E+00
    0.00000E+00         0.00000E+00         0.00000E+00
 
    0.39219E+06         0.72990E+05         0.00000E+00
    0.72990E+05        -0.39290E+06         0.00000E+00
    0.00000E+00         0.00000E+00         0.00000E+00
 
    0.34461E+06         0.10534E+06         0.00000E+00
    0.10534E+06        -0.34442E+06         0.00000E+00
    0.00000E+00         0.00000E+00         0.00000E+00
 
    0.29914E+06         0.12674E+06         0.00000E+00
    0.12674E+06        -0.29886E+06         0.00000E+00
    0.00000E+00         0.00000E+00         0.00000E+00
 
    0.25675E+06         0.13972E+06         0.00000E+00
    0.13972E+06        -0.25655E+06         0.00000E+00
    0.00000E+00         0.00000E+00         0.00000E+00
 
    0.21776E+06         0.14643E+06         0.00000E+00
    0.14643E+06        -0.21765E+06         0.00000E+00
    0.00000E+00         0.00000E+00         0.00000E+00
 
    0.18192E+06         0.14861E+06         0.00000E+00
    0.14861E+06        -0.18197E+06         0.00000E+00
    0.00000E+00         0.00000E+00         0.00000E+00
 
    0.14867E+06         0.14732E+06         0.00000E+00
    0.14732E+06        -0.14889E+06         0.00000E+00
    0.00000E+00         0.00000E+00         0.00000E+00
 
    0.11736E+06         0.14297E+06         0.00000E+00
    0.14297E+06        -0.11772E+06         0.00000E+00
    0.00000E+00         0.00000E+00         0.00000E+00
 
    0.87593E+05         0.13526E+06         0.00000E+00
    0.13526E+06        -0.88005E+05         0.00000E+00
    0.00000E+00         0.00000E+00         0.00000E+00
 
    0.59496E+05         0.12336E+06         0.00000E+00
    0.12336E+06        -0.59854E+05         0.00000E+00
    0.00000E+00         0.00000E+00         0.00000E+00
 
    0.34012E+05         0.10614E+06         0.00000E+00
    0.10614E+06        -0.34173E+05         0.00000E+00
    0.00000E+00         0.00000E+00         0.00000E+00
 
    0.13066E+05         0.82565E+05         0.00000E+00
    0.82565E+05        -0.12872E+05         0.00000E+00
    0.00000E+00         0.00000E+00         0.00000E+00
 
   -0.37243E+03         0.52149E+05         0.00000E+00
    0.52149E+05         0.93135E+03         0.00000E+00
    0.00000E+00         0.00000E+00         0.00000E+00
 
   -0.23897E+04         0.15460E+05         0.00000E+00
    0.15460E+05         0.39243E+04         0.00000E+00
    0.00000E+00         0.00000E+00         0.00000E+00
 
    0.46732E+06         0.27887E+05         0.00000E+00
    0.27887E+05        -0.45947E+06         0.00000E+00
    0.00000E+00         0.00000E+00         0.00000E+00
 
    0.41228E+06         0.73093E+05         0.00000E+00
    0.73093E+05        -0.41289E+06         0.00000E+00
    0.00000E+00         0.00000E+00         0.00000E+00
 
    0.35981E+06         0.10399E+06         0.00000E+00
    0.10399E+06        -0.35938E+06         0.00000E+00
    0.00000E+00         0.00000E+00         0.00000E+00
 
    0.31157E+06         0.12333E+06         0.00000E+00
    0.12333E+06        -0.31107E+06         0.00000E+00
    0.00000E+00         0.00000E+00         0.00000E+00
 
    0.26835E+06         0.13429E+06         0.00000E+00
    0.13429E+06        -0.26799E+06         0.00000E+00
    0.00000E+00         0.00000E+00         0.00000E+00
 
    0.23011E+06         0.13963E+06         0.00000E+00
    0.13963E+06        -0.22992E+06         0.00000E+00
    0.00000E+00         0.00000E+00         0.00000E+00
 
    0.19607E+06         0.14151E+06         0.00000E+00
    0.14151E+06        -0.19613E+06         0.00000E+00
    0.00000E+00         0.00000E+00         0.00000E+00
 
    0.16497E+06         0.14123E+06         0.00000E+00
    0.14123E+06        -0.16530E+06         0.00000E+00
    0.00000E+00         0.00000E+00         0.00000E+00
 
    0.13545E+06         0.13911E+06         0.00000E+00
    0.13911E+06        -0.13601E+06         0.00000E+00
    0.00000E+00         0.00000E+00         0.00000E+00
 
    0.10645E+06         0.13448E+06         0.00000E+00
    0.13448E+06        -0.10714E+06         0.00000E+00
    0.00000E+00         0.00000E+00         0.00000E+00
 
    0.77605E+05         0.12584E+06         0.00000E+00
    0.12584E+06        -0.78275E+05         0.00000E+00
    0.00000E+00         0.00000E+00         0.00000E+00
 
    0.49658E+05         0.11119E+06         0.00000E+00
    0.11119E+06        -0.50118E+05         0.00000E+00
    0.00000E+00         0.00000E+00         0.00000E+00
 
    0.24716E+05         0.88447E+05         0.00000E+00
    0.88447E+05        -0.24750E+05         0.00000E+00
    0.00000E+00         0.00000E+00         0.00000E+00
 
    0.63850E+04         0.56063E+05         0.00000E+00
    0.56063E+05        -0.58816E+04         0.00000E+00
    0.00000E+00         0.00000E+00         0.00000E+00
 
   -0.29079E+03         0.13740E+05         0.00000E+00
    0.13740E+05         0.18253E+04         0.00000E+00
    0.00000E+00         0.00000E+00         0.00000E+00
 
    0.49440E+06         0.27498E+05         0.00000E+00
    0.27498E+05        -0.48486E+06         0.00000E+00
    0.00000E+00         0.00000E+00         0.00000E+00
 
    0.43170E+06         0.70863E+05         0.00000E+00
    0.70863E+05        -0.43217E+06         0.00000E+00
    0.00000E+00         0.00000E+00         0.00000E+00
 
    0.37418E+06         0.98680E+05         0.00000E+00
    0.98680E+05        -0.37345E+06         0.00000E+00
    0.00000E+00         0.00000E+00         0.00000E+00
 
    0.32356E+06         0.11439E+06         0.00000E+00
    0.11439E+06        -0.32278E+06         0.00000E+00
    0.00000E+00         0.00000E+00         0.00000E+00
 
    0.28047E+06         0.12201E+06         0.00000E+00
    0.12201E+06        -0.27989E+06         0.00000E+00
    0.00000E+00         0.00000E+00         0.00000E+00
 
    0.24442E+06         0.12508E+06         0.00000E+00
    0.12508E+06        -0.24411E+06         0.00000E+00
    0.00000E+00         0.00000E+00         0.00000E+00
 
    0.21391E+06         0.12635E+06         0.00000E+00
    0.12635E+06        -0.21397E+06         0.00000E+00
    0.00000E+00         0.00000E+00         0.00000E+00
 
    0.18678E+06         0.12745E+06         0.00000E+00
    0.12745E+06        -0.18724E+06         0.00000E+00
    0.00000E+00         0.00000E+00         0.00000E+00
 
    0.16068E+06         0.12862E+06         0.00000E+00
    0.12862E+06        -0.16149E+06         0.00000E+00
    0.00000E+00         0.00000E+00         0.00000E+00
 
    0.13361E+06         0.12874E+06         0.00000E+00
    0.12874E+06        -0.13466E+06         0.00000E+00
    0.00000E+00         0.00000E+00         0.00000E+00
 
    0.10450E+06         0.12547E+06         0.00000E+00
    0.12547E+06        -0.10559E+06         0.00000E+00
    0.00000E+00         0.00000E+00         0.00000E+00
 
    0.73682E+05         0.11560E+06         0.00000E+00
    0.11560E+06        -0.74562E+05         0.00000E+00
    0.00000E+00         0.00000E+00         0.00000E+00
 
    0.43363E+05         0.95658E+05         0.00000E+00
    0.95658E+05        -0.43743E+05         0.00000E+00
    0.00000E+00         0.00000E+00         0.00000E+00
 
    0.17830E+05         0.62596E+05         0.00000E+00
    0.62596E+05        -0.17441E+05         0.00000E+00
    0.00000E+00         0.00000E+00         0.00000E+00
 
    0.34656E+04         0.14808E+05         0.00000E+00
    0.14808E+05        -0.20727E+04         0.00000E+00
    0.00000E+00         0.00000E+00         0.00000E+00
 
    0.52060E+06         0.26233E+05         0.00000E+00
    0.26233E+05        -0.50918E+06         0.00000E+00
    0.00000E+00         0.00000E+00         0.00000E+00
 
    0.44953E+06         0.65894E+05         0.00000E+00
    0.65894E+05        -0.44982E+06         0.00000E+00
    0.00000E+00         0.00000E+00         0.00000E+00
 
    0.38679E+06         0.88609E+05         0.00000E+00
    0.88609E+05        -0.38567E+06         0.00000E+00
    0.00000E+00         0.00000E+00         0.00000E+00
 
    0.33430E+06         0.98664E+05         0.00000E+00
    0.98664E+05        -0.33314E+06         0.00000E+00
    0.00000E+00         0.00000E+00         0.00000E+00
 
    0.29258E+06         0.10116E+06         0.00000E+00
    0.10116E+06        -0.29170E+06         0.00000E+00
    0.00000E+00         0.00000E+00         0.00000E+00
 
    0.26059E+06         0.10072E+06         0.00000E+00
    0.10072E+06        -0.26010E+06         0.00000E+00
    0.00000E+00         0.00000E+00         0.00000E+00
 
    0.23589E+06         0.10092E+06         0.00000E+00
    0.10092E+06        -0.23593E+06         0.00000E+00
    0.00000E+00         0.00000E+00         0.00000E+00
 
    0.21513E+06         0.10380E+06         0.00000E+00
    0.10380E+06        -0.21574E+06         0.00000E+00
    0.00000E+00         0.00000E+00         0.00000E+00
 
    0.19464E+06         0.10958E+06         0.00000E+00
    0.10958E+06        -0.19577E+06         0.00000E+00
    0.00000E+00         0.00000E+00         0.00000E+00
 
    0.17117E+06         0.11657E+06         0.00000E+00
    0.11657E+06        -0.17267E+06         0.00000E+00
    0.00000E+00         0.00000E+00         0.00000E+00
 
    0.14256E+06         0.12137E+06         0.00000E+00
    0.12137E+06        -0.14419E+06         0.00000E+00
    0.00000E+00         0.00000E+00         0.00000E+00
 
    0.10852E+06         0.11926E+06         0.00000E+00
    0.11926E+06        -0.10996E+06         0.00000E+00
    0.00000E+00         0.00000E+00         0.00000E+00
 
    0.71180E+05         0.10489E+06         0.00000E+00
    0.10489E+06        -0.72055E+05         0.00000E+00
    0.00000E+00         0.00000E+00         0.00000E+00
 
    0.35510E+05         0.73162E+05         0.00000E+00
    0.73162E+05        -0.35311E+05         0.00000E+00
    0.00000E+00         0.00000E+00         0.00000E+00
 
    0.94513E+04         0.20570E+05         0.00000E+00
    0.20570E+05        -0.84013E+04         0.00000E+00
    0.00000E+00         0.00000E+00         0.00000E+00
 
    0.54497E+06         0.24020E+05         0.00000E+00
    0.24020E+05        -0.53148E+06         0.00000E+00
    0.00000E+00         0.00000E+00         0.00000E+00
 
    0.46466E+06         0.57834E+05         0.00000E+00
    0.57834E+05        -0.46472E+06         0.00000E+00
    0.00000E+00         0.00000E+00         0.00000E+00
 
    0.39641E+06         0.72940E+05         0.00000E+00
    0.72940E+05        -0.39480E+06         0.00000E+00
    0.00000E+00         0.00000E+00         0.00000E+00
 
    0.34265E+06         0.74707E+05         0.00000E+00
    0.74707E+05        -0.34101E+06         0.00000E+00
    0.00000E+00         0.00000E+00         0.00000E+00
 
    0.30388E+06         0.69758E+05         0.00000E+00
    0.69758E+05        -0.30263E+06         0.00000E+00
    0.00000E+00         0.00000E+00         0.00000E+00
 
    0.27835E+06         0.64169E+05         0.00000E+00
    0.64169E+05        -0.27765E+06         0.00000E+00
    0.00000E+00         0.00000E+00         0.00000E+00
 
    0.26241E+06         0.62624E+05         0.00000E+00
    0.62624E+05        -0.26243E+06         0.00000E+00
    0.00000E+00         0.00000E+00         0.00000E+00
 
    0.25112E+06         0.67736E+05         0.00000E+00
    0.67736E+05        -0.25192E+06         0.00000E+00
    0.00000E+00         0.00000E+00         0.00000E+00
 
    0.23911E+06         0.79686E+05         0.00000E+00
    0.79686E+05        -0.24063E+06         0.00000E+00
    0.00000E+00         0.00000E+00         0.00000E+00
 
    0.22145E+06         0.96155E+05         0.00000E+00
    0.96155E+05        -0.22351E+06         0.00000E+00
    0.00000E+00         0.00000E+00         0.00000E+00
 
    0.19454E+06         0.11247E+06         0.00000E+00
    0.11247E+06        -0.19686E+06         0.00000E+00
    0.00000E+00         0.00000E+00         0.00000E+00
 
    0.15706E+06         0.12202E+06         0.00000E+00
    0.12202E+06        -0.15925E+06         0.00000E+00
    0.00000E+00         0.00000E+00         0.00000E+00
 
    0.11079E+06         0.11702E+06         0.00000E+00
    0.11702E+06        -0.11236E+06         0.00000E+00
    0.00000E+00         0.00000E+00         0.00000E+00
 
    0.61319E+05         0.89596E+05         0.00000E+00
    0.89596E+05        -0.61429E+05         0.00000E+00
    0.00000E+00         0.00000E+00         0.00000E+00
 
    0.18371E+05         0.33567E+05         0.00000E+00
    0.33567E+05        -0.17951E+05         0.00000E+00
    0.00000E+00         0.00000E+00         0.00000E+00
 
    0.56645E+06         0.20867E+05         0.00000E+00
    0.20867E+05        -0.55076E+06         0.00000E+00
    0.00000E+00         0.00000E+00         0.00000E+00
 
    0.47571E+06         0.46445E+05         0.00000E+00
    0.46445E+05        -0.47550E+06         0.00000E+00
    0.00000E+00         0.00000E+00         0.00000E+00
 
    0.40145E+06         0.50802E+05         0.00000E+00
    0.50802E+05        -0.39924E+06         0.00000E+00
    0.00000E+00         0.00000E+00         0.00000E+00
 
    0.34716E+06         0.40883E+05         0.00000E+00
    0.40883E+05        -0.34491E+06         0.00000E+00
    0.00000E+00         0.00000E+00         0.00000E+00
 
    0.31337E+06         0.25473E+05         0.00000E+00
    0.25473E+05        -0.31165E+06         0.00000E+00
    0.00000E+00         0.00000E+00         0.00000E+00
 
    0.29739E+06         0.12657E+05         0.00000E+00
    0.12657E+05        -0.29643E+06         0.00000E+00
    0.00000E+00         0.00000E+00         0.00000E+00
 
    0.29390E+06         0.85297E+04         0.00000E+00
    0.85297E+04        -0.29391E+06         0.00000E+00
    0.00000E+00         0.00000E+00         0.00000E+00
 
    0.29593E+06         0.16377E+05         0.00000E+00
    0.16377E+05        -0.29696E+06         0.00000E+00
    0.00000E+00         0.00000E+00         0.00000E+00
 
    0.29598E+06         0.36344E+05         0.00000E+00
    0.36344E+05        -0.29795E+06         0.00000E+00
    0.00000E+00         0.00000E+00         0.00000E+00
 
    0.28703E+06         0.65399E+05         0.00000E+00
    0.65399E+05        -0.28976E+06         0.00000E+00
    0.00000E+00         0.00000E+00         0.00000E+00
 
    0.26354E+06         0.97438E+05         0.00000E+00
    0.97438E+05        -0.26671E+06         0.00000E+00
    0.00000E+00         0.00000E+00         0.00000E+00
 
    0.22264E+06         0.12361E+06         0.00000E+00
    0.12361E+06        -0.22580E+06         0.00000E+00
    0.00000E+00         0.00000E+00         0.00000E+00
 
    0.16533E+06         0.13306E+06         0.00000E+00
    0.13306E+06        -0.16786E+06         0.00000E+00
    0.00000E+00         0.00000E+00         0.00000E+00
 
    0.97593E+05         0.11421E+06         0.00000E+00
    0.11421E+06        -0.98169E+05         0.00000E+00
    0.00000E+00         0.00000E+00         0.00000E+00
 
    0.31108E+05         0.57116E+05         0.00000E+00
    0.57116E+05        -0.31710E+05         0.00000E+00
    0.00000E+00         0.00000E+00         0.00000E+00
 
    0.58416E+06         0.16907E+05         0.00000E+00
    0.16907E+05        -0.56591E+06         0.00000E+00
    0.00000E+00         0.00000E+00         0.00000E+00
 
    0.48117E+06         0.31545E+05         0.00000E+00
    0.31545E+05        -0.48053E+06         0.00000E+00
    0.00000E+00         0.00000E+00         0.00000E+00
 
    0.40009E+06         0.21199E+05         0.00000E+00
    0.21199E+05        -0.39699E+06         0.00000E+00
    0.00000E+00         0.00000E+00         0.00000E+00
 
    0.34617E+06        -0.48081E+04         0.00000E+00
   -0.48081E+04        -0.34307E+06         0.00000E+00
    0.00000E+00         0.00000E+00         0.00000E+00
 
    0.32004E+06        -0.34446E+05         0.00000E+00
   -0.34446E+05        -0.31771E+06         0.00000E+00
    0.00000E+00         0.00000E+00         0.00000E+00
 
    0.31754E+06        -0.56923E+05         0.00000E+00
   -0.56923E+05        -0.31626E+06         0.00000E+00
    0.00000E+00         0.00000E+00         0.00000E+00
 
    0.33101E+06        -0.64491E+05         0.00000E+00
   -0.64491E+05        -0.33098E+06         0.00000E+00
    0.00000E+00         0.00000E+00         0.00000E+00
 
    0.35093E+06        -0.53239E+05         0.00000E+00
   -0.53239E+05        -0.35215E+06         0.00000E+00
    0.00000E+00         0.00000E+00         0.00000E+00
 
    0.36728E+06        -0.23155E+05         0.00000E+00
   -0.23155E+05        -0.36967E+06         0.00000E+00
    0.00000E+00         0.00000E+00         0.00000E+00
 
    0.37060E+06         0.22002E+05         0.00000E+00
    0.22002E+05        -0.37400E+06         0.00000E+00
    0.00000E+00         0.00000E+00         0.00000E+00
 
    0.35292E+06         0.74695E+05         0.00000E+00
    0.74695E+05        -0.35702E+06         0.00000E+00
    0.00000E+00         0.00000E+00         0.00000E+00
 
    0.30910E+06         0.12361E+06         0.00000E+00
    0.12361E+06        -0.31341E+06         0.00000E+00
    0.00000E+00         0.00000E+00         0.00000E+00
 
    0.23857E+06         0.15419E+06         0.00000E+00
    0.15419E+06        -0.24233E+06         0.00000E+00
    0.00000E+00         0.00000E+00         0.00000E+00
 
    0.14722E+06         0.14988E+06         0.00000E+00
    0.14988E+06        -0.14844E+06         0.00000E+00
    0.00000E+00         0.00000E+00         0.00000E+00
 
    0.48772E+05         0.95520E+05         0.00000E+00
    0.95520E+05        -0.50919E+05         0.00000E+00
    0.00000E+00         0.00000E+00         0.00000E+00
 
    0.59700E+06         0.12307E+05         0.00000E+00
    0.12307E+05        -0.57604E+06         0.00000E+00
    0.00000E+00         0.00000E+00         0.00000E+00
 
    0.47881E+06         0.13093E+05         0.00000E+00
    0.13093E+05        -0.47781E+06         0.00000E+00
    0.00000E+00         0.00000E+00         0.00000E+00
 
    0.38956E+06        -0.17210E+05         0.00000E+00
   -0.17210E+05        -0.38558E+06         0.00000E+00
    0.00000E+00         0.00000E+00         0.00000E+00
 
    0.33745E+06        -0.65024E+05         0.00000E+00
   -0.65024E+05        -0.33360E+06         0.00000E+00
    0.00000E+00         0.00000E+00         0.00000E+00
 
    0.32277E+06        -0.11336E+06         0.00000E+00
   -0.11336E+06        -0.32008E+06         0.00000E+00
    0.00000E+00         0.00000E+00         0.00000E+00
 
    0.33879E+06        -0.14792E+06         0.00000E+00
   -0.14792E+06        -0.33754E+06         0.00000E+00
    0.00000E+00         0.00000E+00         0.00000E+00
 
    0.37448E+06        -0.15938E+06         0.00000E+00
   -0.15938E+06        -0.37477E+06         0.00000E+00
    0.00000E+00         0.00000E+00         0.00000E+00
 
    0.41725E+06        -0.14367E+06         0.00000E+00
   -0.14367E+06        -0.41896E+06         0.00000E+00
    0.00000E+00         0.00000E+00         0.00000E+00
 
    0.45447E+06        -0.10119E+06         0.00000E+00
   -0.10119E+06        -0.45750E+06         0.00000E+00
    0.00000E+00         0.00000E+00         0.00000E+00
 
    0.47416E+06        -0.36322E+05         0.00000E+00
   -0.36322E+05        -0.47845E+06         0.00000E+00
    0.00000E+00         0.00000E+00         0.00000E+00
 
    0.46551E+06         0.42347E+05         0.00000E+00
    0.42347E+05        -0.47084E+06         0.00000E+00
    0.00000E+00         0.00000E+00         0.00000E+00
 
    0.42013E+06         0.12123E+06         0.00000E+00
    0.12123E+06        -0.42607E+06         0.00000E+00
    0.00000E+00         0.00000E+00         0.00000E+00
 
    0.33456E+06         0.18149E+06         0.00000E+00
    0.18149E+06        -0.34019E+06         0.00000E+00
    0.00000E+00         0.00000E+00         0.00000E+00
 
    0.21351E+06         0.20009E+06         0.00000E+00
    0.20009E+06        -0.21587E+06         0.00000E+00
    0.00000E+00         0.00000E+00         0.00000E+00
 
    0.72658E+05         0.15427E+06         0.00000E+00
    0.15427E+06        -0.77137E+05         0.00000E+00
    0.00000E+00         0.00000E+00         0.00000E+00
 
    0.60428E+06         0.77200E+04         0.00000E+00
    0.77200E+04        -0.58006E+06         0.00000E+00
    0.00000E+00         0.00000E+00         0.00000E+00
 
    0.46660E+06        -0.92742E+04         0.00000E+00
   -0.92742E+04        -0.46467E+06         0.00000E+00
    0.00000E+00         0.00000E+00         0.00000E+00
 
    0.36783E+06        -0.66846E+05         0.00000E+00
   -0.66846E+05        -0.36210E+06         0.00000E+00
    0.00000E+00         0.00000E+00         0.00000E+00
 
    0.32029E+06        -0.14379E+06         0.00000E+00
   -0.14379E+06        -0.31501E+06         0.00000E+00
    0.00000E+00         0.00000E+00         0.00000E+00
 
    0.32274E+06        -0.21551E+06         0.00000E+00
   -0.21551E+06        -0.31936E+06         0.00000E+00
    0.00000E+00         0.00000E+00         0.00000E+00
 
    0.36369E+06        -0.26358E+06         0.00000E+00
   -0.26358E+06        -0.36230E+06         0.00000E+00
    0.00000E+00         0.00000E+00         0.00000E+00
 
    0.42723E+06        -0.27808E+06         0.00000E+00
   -0.27808E+06        -0.42758E+06         0.00000E+00
    0.00000E+00         0.00000E+00         0.00000E+00
 
    0.49737E+06        -0.25605E+06         0.00000E+00
   -0.25605E+06        -0.49912E+06         0.00000E+00
    0.00000E+00         0.00000E+00         0.00000E+00
 
    0.55946E+06        -0.19895E+06         0.00000E+00
   -0.19895E+06        -0.56249E+06         0.00000E+00
    0.00000E+00         0.00000E+00         0.00000E+00
 
    0.59968E+06        -0.11138E+06         0.00000E+00
   -0.11138E+06        -0.60412E+06         0.00000E+00
    0.00000E+00         0.00000E+00         0.00000E+00
 
    0.60426E+06        -0.18565E+04         0.00000E+00
   -0.18565E+04        -0.61021E+06         0.00000E+00
    0.00000E+00         0.00000E+00         0.00000E+00
 
    0.56022E+06         0.11487E+06         0.00000E+00
    0.11487E+06        -0.56750E+06         0.00000E+00
    0.00000E+00         0.00000E+00         0.00000E+00
 
    0.45883E+06         0.21563E+06         0.00000E+00
    0.21563E+06        -0.46645E+06         0.00000E+00
    0.00000E+00         0.00000E+00         0.00000E+00
 
    0.30139E+06         0.26874E+06         0.00000E+00
    0.26874E+06        -0.30503E+06         0.00000E+00
    0.00000E+00         0.00000E+00         0.00000E+00
 
    0.10483E+06         0.24039E+06         0.00000E+00
    0.24039E+06        -0.11253E+06         0.00000E+00
    0.00000E+00         0.00000E+00         0.00000E+00
 
    0.60754E+06         0.31752E+04         0.00000E+00
    0.31752E+04        -0.57646E+06         0.00000E+00
    0.00000E+00         0.00000E+00         0.00000E+00
 
    0.44171E+06        -0.37094E+05         0.00000E+00
   -0.37094E+05        -0.43814E+06         0.00000E+00
    0.00000E+00         0.00000E+00         0.00000E+00
 
    0.33142E+06        -0.13230E+06         0.00000E+00
   -0.13230E+06        -0.32342E+06         0.00000E+00
    0.00000E+00         0.00000E+00         0.00000E+00
 
    0.29382E+06        -0.24767E+06         0.00000E+00
   -0.24767E+06        -0.28758E+06         0.00000E+00
    0.00000E+00         0.00000E+00         0.00000E+00
 
    0.32243E+06        -0.34629E+06         0.00000E+00
   -0.34629E+06        -0.31945E+06         0.00000E+00
    0.00000E+00         0.00000E+00         0.00000E+00
 
    0.39629E+06        -0.40620E+06         0.00000E+00
   -0.40620E+06        -0.39596E+06         0.00000E+00
    0.00000E+00         0.00000E+00         0.00000E+00
 
    0.49255E+06        -0.41988E+06         0.00000E+00
   -0.41988E+06        -0.49390E+06         0.00000E+00
    0.00000E+00         0.00000E+00         0.00000E+00
 
    0.59239E+06        -0.38823E+06         0.00000E+00
   -0.38823E+06        -0.59465E+06         0.00000E+00
    0.00000E+00         0.00000E+00         0.00000E+00
 
    0.68111E+06        -0.31484E+06         0.00000E+00
   -0.31484E+06        -0.68417E+06         0.00000E+00
    0.00000E+00         0.00000E+00         0.00000E+00
 
    0.74503E+06        -0.20364E+06         0.00000E+00
   -0.20364E+06        -0.74943E+06         0.00000E+00
    0.00000E+00         0.00000E+00         0.00000E+00
 
    0.76810E+06        -0.60588E+05         0.00000E+00
   -0.60588E+05        -0.77457E+06         0.00000E+00
    0.00000E+00         0.00000E+00         0.00000E+00
 
    0.73116E+06         0.10132E+06         0.00000E+00
    0.10132E+06        -0.74020E+06         0.00000E+00
    0.00000E+00         0.00000E+00         0.00000E+00
 
    0.61612E+06         0.25589E+06         0.00000E+00
    0.25589E+06        -0.62684E+06         0.00000E+00
    0.00000E+00         0.00000E+00         0.00000E+00
 
    0.41603E+06         0.36025E+06         0.00000E+00
    0.36025E+06        -0.42218E+06         0.00000E+00
    0.00000E+00         0.00000E+00         0.00000E+00
 
    0.14748E+06         0.36307E+06         0.00000E+00
    0.36307E+06        -0.16012E+06         0.00000E+00
    0.00000E+00         0.00000E+00         0.00000E+00
 
    0.59865E+06        -0.88288E+03         0.00000E+00
   -0.88288E+03        -0.56713E+06         0.00000E+00
    0.00000E+00         0.00000E+00         0.00000E+00
 
    0.39473E+06        -0.72310E+05         0.00000E+00
   -0.72310E+05        -0.39190E+06         0.00000E+00
    0.00000E+00         0.00000E+00         0.00000E+00
 
    0.27428E+06        -0.22373E+06         0.00000E+00
   -0.22373E+06        -0.26678E+06         0.00000E+00
    0.00000E+00         0.00000E+00         0.00000E+00
 
    0.26034E+06        -0.38800E+06         0.00000E+00
   -0.38800E+06        -0.25654E+06         0.00000E+00
    0.00000E+00         0.00000E+00         0.00000E+00
 
    0.33000E+06        -0.51208E+06         0.00000E+00
   -0.51208E+06        -0.33137E+06         0.00000E+00
    0.00000E+00         0.00000E+00         0.00000E+00
 
    0.44577E+06        -0.57502E+06         0.00000E+00
   -0.57502E+06        -0.45024E+06         0.00000E+00
    0.00000E+00         0.00000E+00         0.00000E+00
 
    0.57632E+06        -0.57847E+06         0.00000E+00
   -0.57847E+06        -0.58165E+06         0.00000E+00
    0.00000E+00         0.00000E+00         0.00000E+00
 
    0.70276E+06        -0.53181E+06         0.00000E+00
   -0.53181E+06        -0.70773E+06         0.00000E+00
    0.00000E+00         0.00000E+00         0.00000E+00
 
    0.81466E+06        -0.44198E+06         0.00000E+00
   -0.44198E+06        -0.81927E+06         0.00000E+00
    0.00000E+00         0.00000E+00         0.00000E+00
 
    0.90242E+06        -0.31061E+06         0.00000E+00
   -0.31061E+06        -0.90778E+06         0.00000E+00
    0.00000E+00         0.00000E+00         0.00000E+00
 
    0.95001E+06        -0.13689E+06         0.00000E+00
   -0.13689E+06        -0.95792E+06         0.00000E+00
    0.00000E+00         0.00000E+00         0.00000E+00
 
    0.93072E+06         0.74043E+05         0.00000E+00
    0.74043E+05        -0.94319E+06         0.00000E+00
    0.00000E+00         0.00000E+00         0.00000E+00
 
    0.81066E+06         0.29764E+06         0.00000E+00
    0.29764E+06        -0.82739E+06         0.00000E+00
    0.00000E+00         0.00000E+00         0.00000E+00
 
    0.56505E+06         0.47778E+06         0.00000E+00
    0.47778E+06        -0.57679E+06         0.00000E+00
    0.00000E+00         0.00000E+00         0.00000E+00
 
    0.20454E+06         0.53399E+06         0.00000E+00
    0.53399E+06        -0.22487E+06         0.00000E+00
    0.00000E+00         0.00000E+00         0.00000E+00
 
    0.59609E+06        -0.47785E+03         0.00000E+00
   -0.47785E+03        -0.53658E+06         0.00000E+00
    0.00000E+00         0.00000E+00         0.00000E+00
 
    0.33513E+06        -0.13146E+06         0.00000E+00
   -0.13146E+06        -0.31820E+06         0.00000E+00
    0.00000E+00         0.00000E+00         0.00000E+00
 
    0.21659E+06        -0.36387E+06         0.00000E+00
   -0.36387E+06        -0.19536E+06         0.00000E+00
    0.00000E+00         0.00000E+00         0.00000E+00
 
    0.25152E+06        -0.58319E+06         0.00000E+00
   -0.58319E+06        -0.23944E+06         0.00000E+00
    0.00000E+00         0.00000E+00         0.00000E+00
 
    0.38350E+06        -0.71795E+06         0.00000E+00
   -0.71795E+06        -0.38049E+06         0.00000E+00
    0.00000E+00         0.00000E+00         0.00000E+00
 
    0.54726E+06        -0.76114E+06         0.00000E+00
   -0.76114E+06        -0.54656E+06         0.00000E+00
    0.00000E+00         0.00000E+00         0.00000E+00
 
    0.70463E+06        -0.73708E+06         0.00000E+00
   -0.73708E+06        -0.70257E+06         0.00000E+00
    0.00000E+00         0.00000E+00         0.00000E+00
 
    0.84432E+06        -0.66828E+06         0.00000E+00
   -0.66828E+06        -0.83986E+06         0.00000E+00
    0.00000E+00         0.00000E+00         0.00000E+00
 
    0.96677E+06        -0.56476E+06         0.00000E+00
   -0.56476E+06        -0.96024E+06         0.00000E+00
    0.00000E+00         0.00000E+00         0.00000E+00
 
    0.10719E+07        -0.42379E+06         0.00000E+00
   -0.42379E+06        -0.10648E+07         0.00000E+00
    0.00000E+00         0.00000E+00         0.00000E+00
 
    0.11488E+07        -0.23279E+06         0.00000E+00
   -0.23279E+06        -0.11441E+07         0.00000E+00
    0.00000E+00         0.00000E+00         0.00000E+00
 
    0.11645E+07         0.21343E+05         0.00000E+00
    0.21343E+05        -0.11672E+07         0.00000E+00
    0.00000E+00         0.00000E+00         0.00000E+00
 
    0.10596E+07         0.32884E+06         0.00000E+00
    0.32884E+06        -0.10731E+07         0.00000E+00
    0.00000E+00         0.00000E+00         0.00000E+00
 
    0.77124E+06         0.62153E+06         0.00000E+00
    0.62153E+06        -0.78299E+06         0.00000E+00
    0.00000E+00         0.00000E+00         0.00000E+00
 
    0.28724E+06         0.77107E+06         0.00000E+00
    0.77107E+06        -0.31740E+06         0.00000E+00
    0.00000E+00         0.00000E+00         0.00000E+00
 
    0.59453E+06        -0.17533E+05         0.00000E+00
   -0.17533E+05        -0.49266E+06         0.00000E+00
    0.00000E+00         0.00000E+00         0.00000E+00
 
    0.23076E+06        -0.23698E+06         0.00000E+00
   -0.23698E+06        -0.21813E+06         0.00000E+00
    0.00000E+00         0.00000E+00         0.00000E+00
 
    0.13286E+06        -0.59119E+06         0.00000E+00
   -0.59119E+06        -0.12261E+06         0.00000E+00
    0.00000E+00         0.00000E+00         0.00000E+00
 
    0.26899E+06        -0.85952E+06         0.00000E+00
   -0.85952E+06        -0.28513E+06         0.00000E+00
    0.00000E+00         0.00000E+00         0.00000E+00
 
    0.49200E+06        -0.95630E+06         0.00000E+00
   -0.95630E+06        -0.51642E+06         0.00000E+00
    0.00000E+00         0.00000E+00         0.00000E+00
 
    0.69496E+06        -0.93683E+06         0.00000E+00
   -0.93683E+06        -0.71551E+06         0.00000E+00
    0.00000E+00         0.00000E+00         0.00000E+00
 
    0.85392E+06        -0.86280E+06         0.00000E+00
   -0.86280E+06        -0.86922E+06         0.00000E+00
    0.00000E+00         0.00000E+00         0.00000E+00
 
    0.97938E+06        -0.76611E+06         0.00000E+00
   -0.76611E+06        -0.98994E+06         0.00000E+00
    0.00000E+00         0.00000E+00         0.00000E+00
 
    0.10881E+07        -0.65581E+06         0.00000E+00
   -0.65581E+06        -0.10948E+07         0.00000E+00
    0.00000E+00         0.00000E+00         0.00000E+00
 
    0.11934E+07        -0.52348E+06         0.00000E+00
   -0.52348E+06        -0.11974E+07         0.00000E+00
    0.00000E+00         0.00000E+00         0.00000E+00
 
    0.12974E+07        -0.34397E+06         0.00000E+00
   -0.34397E+06        -0.13009E+07         0.00000E+00
    0.00000E+00         0.00000E+00         0.00000E+00
 
    0.13725E+07        -0.74875E+05         0.00000E+00
   -0.74875E+05        -0.13841E+07         0.00000E+00
    0.00000E+00         0.00000E+00         0.00000E+00
 
    0.13315E+07         0.31986E+06         0.00000E+00
    0.31986E+06        -0.13632E+07         0.00000E+00
    0.00000E+00         0.00000E+00         0.00000E+00
 
    0.10313E+07         0.78551E+06         0.00000E+00
    0.78551E+06        -0.10693E+07         0.00000E+00
    0.00000E+00         0.00000E+00         0.00000E+00
 
    0.39813E+06         0.11003E+07         0.00000E+00
    0.11003E+07        -0.45440E+06         0.00000E+00
    0.00000E+00         0.00000E+00         0.00000E+00
 
    0.40662E+06        -0.22240E+05         0.00000E+00
   -0.22240E+05        -0.46789E+06         0.00000E+00
    0.00000E+00         0.00000E+00         0.00000E+00
 
   -0.15445E+05        -0.44397E+06         0.00000E+00
   -0.44397E+06        -0.10914E+05         0.00000E+00
    0.00000E+00         0.00000E+00         0.00000E+00
 
    0.53962E+05        -0.10235E+07         0.00000E+00
   -0.10235E+07        -0.13486E+06         0.00000E+00
    0.00000E+00         0.00000E+00         0.00000E+00
 
    0.41882E+06        -0.12287E+07         0.00000E+00
   -0.12287E+07        -0.51900E+06         0.00000E+00
    0.00000E+00         0.00000E+00         0.00000E+00
 
    0.72536E+06        -0.11748E+07         0.00000E+00
   -0.11748E+07        -0.80912E+06         0.00000E+00
    0.00000E+00         0.00000E+00         0.00000E+00
 
    0.91404E+06        -0.10430E+07         0.00000E+00
   -0.10430E+07        -0.98386E+06         0.00000E+00
    0.00000E+00         0.00000E+00         0.00000E+00
 
    0.10248E+07        -0.90513E+06         0.00000E+00
   -0.90513E+06        -0.10855E+07         0.00000E+00
    0.00000E+00         0.00000E+00         0.00000E+00
 
    0.10963E+07        -0.78326E+06         0.00000E+00
   -0.78326E+06        -0.11510E+07         0.00000E+00
    0.00000E+00         0.00000E+00         0.00000E+00
 
    0.11583E+07        -0.67738E+06         0.00000E+00
   -0.67738E+06        -0.12084E+07         0.00000E+00
    0.00000E+00         0.00000E+00         0.00000E+00
 
    0.12343E+07        -0.57431E+06         0.00000E+00
   -0.57431E+06        -0.12797E+07         0.00000E+00
    0.00000E+00         0.00000E+00         0.00000E+00
 
    0.13424E+07        -0.44428E+06         0.00000E+00
   -0.44428E+06        -0.13825E+07         0.00000E+00
    0.00000E+00         0.00000E+00         0.00000E+00
 
    0.14861E+07        -0.22631E+06         0.00000E+00
   -0.22631E+06        -0.15240E+07         0.00000E+00
    0.00000E+00         0.00000E+00         0.00000E+00
 
    0.15908E+07         0.19961E+06         0.00000E+00
    0.19961E+06        -0.16552E+07         0.00000E+00
    0.00000E+00         0.00000E+00         0.00000E+00
 
    0.13928E+07         0.90431E+06         0.00000E+00
    0.90431E+06        -0.14852E+07         0.00000E+00
    0.00000E+00         0.00000E+00         0.00000E+00
 
    0.58496E+06         0.15567E+07         0.00000E+00
    0.15567E+07        -0.68864E+06         0.00000E+00
    0.00000E+00         0.00000E+00         0.00000E+00
 
    0.81540E+06        -0.32271E+03         0.00000E+00
   -0.32271E+03         0.23350E+06         0.00000E+00
    0.00000E+00         0.00000E+00         0.00000E+00
 
    0.26986E+06        -0.13010E+07         0.00000E+00
   -0.13010E+07         0.77710E+05         0.00000E+00
    0.00000E+00         0.00000E+00         0.00000E+00
 
    0.90156E+06        -0.17508E+07         0.00000E+00
   -0.17508E+07        -0.65899E+06         0.00000E+00
    0.00000E+00         0.00000E+00         0.00000E+00
 
    0.14177E+07        -0.15262E+07         0.00000E+00
   -0.15262E+07        -0.11145E+07         0.00000E+00
    0.00000E+00         0.00000E+00         0.00000E+00
 
    0.16183E+07        -0.12290E+07         0.00000E+00
   -0.12290E+07        -0.12951E+07         0.00000E+00
    0.00000E+00         0.00000E+00         0.00000E+00
 
    0.16734E+07        -0.98468E+06         0.00000E+00
   -0.98468E+06        -0.13405E+07         0.00000E+00
    0.00000E+00         0.00000E+00         0.00000E+00
 
    0.16667E+07        -0.80492E+06         0.00000E+00
   -0.80492E+06        -0.13314E+07         0.00000E+00
    0.00000E+00         0.00000E+00         0.00000E+00
 
    0.16422E+07        -0.67799E+06         0.00000E+00
   -0.67799E+06        -0.13070E+07         0.00000E+00
    0.00000E+00         0.00000E+00         0.00000E+00
 
    0.16249E+07        -0.59004E+06         0.00000E+00
   -0.59004E+06        -0.12901E+07         0.00000E+00
    0.00000E+00         0.00000E+00         0.00000E+00
 
    0.16347E+07        -0.52671E+06         0.00000E+00
   -0.52671E+06        -0.12997E+07         0.00000E+00
    0.00000E+00         0.00000E+00         0.00000E+00
 
    0.16955E+07        -0.46655E+06         0.00000E+00
   -0.46655E+06        -0.13578E+07         0.00000E+00
    0.00000E+00         0.00000E+00         0.00000E+00
 
    0.18392E+07        -0.36111E+06         0.00000E+00
   -0.36111E+06        -0.14983E+07         0.00000E+00
    0.00000E+00         0.00000E+00         0.00000E+00
 
    0.21009E+07        -0.76827E+05         0.00000E+00
   -0.76827E+05        -0.17605E+07         0.00000E+00
    0.00000E+00         0.00000E+00         0.00000E+00
 
    0.22004E+07         0.79057E+06         0.00000E+00
    0.79057E+06        -0.19956E+07         0.00000E+00
    0.00000E+00         0.00000E+00         0.00000E+00
 
    0.10675E+07         0.22577E+07         0.00000E+00
    0.22577E+07        -0.12437E+07         0.00000E+00
    0.00000E+00         0.00000E+00         0.00000E+00
 
    0.16682E+07        -0.16216E+07         0.00000E+00
   -0.16216E+07         0.15520E+06         0.00000E+00
    0.00000E+00         0.00000E+00         0.00000E+00
 
    0.11759E+07        -0.28707E+07         0.00000E+00
   -0.28707E+07        -0.17230E+07         0.00000E+00
    0.00000E+00         0.00000E+00         0.00000E+00
 
    0.19533E+07        -0.19576E+07         0.00000E+00
   -0.19576E+07        -0.20709E+07         0.00000E+00
    0.00000E+00         0.00000E+00         0.00000E+00
 
    0.19290E+07        -0.13029E+07         0.00000E+00
   -0.13029E+07        -0.20129E+07         0.00000E+00
    0.00000E+00         0.00000E+00         0.00000E+00
 
    0.17742E+07        -0.91220E+06         0.00000E+00
   -0.91220E+06        -0.18610E+07         0.00000E+00
    0.00000E+00         0.00000E+00         0.00000E+00
 
    0.16028E+07        -0.67353E+06         0.00000E+00
   -0.67353E+06        -0.16966E+07         0.00000E+00
    0.00000E+00         0.00000E+00         0.00000E+00
 
    0.14504E+07        -0.52456E+06         0.00000E+00
   -0.52456E+06        -0.15518E+07         0.00000E+00
    0.00000E+00         0.00000E+00         0.00000E+00
 
    0.13240E+07        -0.43078E+06         0.00000E+00
   -0.43078E+06        -0.14319E+07         0.00000E+00
    0.00000E+00         0.00000E+00         0.00000E+00
 
    0.12256E+07        -0.37349E+06         0.00000E+00
   -0.37349E+06        -0.13389E+07         0.00000E+00
    0.00000E+00         0.00000E+00         0.00000E+00
 
    0.11599E+07        -0.34162E+06         0.00000E+00
   -0.34162E+06        -0.12777E+07         0.00000E+00
    0.00000E+00         0.00000E+00         0.00000E+00
 
    0.11410E+07        -0.32554E+06         0.00000E+00
   -0.32554E+06        -0.12606E+07         0.00000E+00
    0.00000E+00         0.00000E+00         0.00000E+00
 
    0.12057E+07        -0.30475E+06         0.00000E+00
   -0.30475E+06        -0.13221E+07         0.00000E+00
    0.00000E+00         0.00000E+00         0.00000E+00
 
    0.14316E+07        -0.21214E+06         0.00000E+00
   -0.21214E+06        -0.15368E+07         0.00000E+00
    0.00000E+00         0.00000E+00         0.00000E+00
 
    0.20947E+07         0.30306E+06         0.00000E+00
    0.30306E+06        -0.20789E+07         0.00000E+00
    0.00000E+00         0.00000E+00         0.00000E+00
 
    0.12959E+07         0.31931E+07         0.00000E+00
    0.31931E+07        -0.25418E+07         0.00000E+00
    0.00000E+00         0.00000E+00         0.00000E+00
 
   -0.14097E+08        -0.39575E+07         0.00000E+00
   -0.39575E+07        -0.73553E+07         0.00000E+00
    0.00000E+00         0.00000E+00         0.00000E+00
 
   -0.10629E+08        -0.16178E+07         0.00000E+00
   -0.16178E+07        -0.48903E+07         0.00000E+00
    0.00000E+00         0.00000E+00         0.00000E+00
 
   -0.10724E+08        -0.72669E+06         0.00000E+00
   -0.72669E+06        -0.34341E+07         0.00000E+00
    0.00000E+00         0.00000E+00         0.00000E+00
 
   -0.10899E+08        -0.42130E+06         0.00000E+00
   -0.42130E+06        -0.26875E+07         0.00000E+00
    0.00000E+00         0.00000E+00         0.00000E+00
 
   -0.11056E+08        -0.27311E+06         0.00000E+00
   -0.27311E+06        -0.22268E+07         0.00000E+00
    0.00000E+00         0.00000E+00         0.00000E+00
 
   -0.11177E+08        -0.19351E+06         0.00000E+00
   -0.19351E+06        -0.19082E+07         0.00000E+00
    0.00000E+00         0.00000E+00         0.00000E+00
 
   -0.11264E+08        -0.14606E+06         0.00000E+00
   -0.14606E+06        -0.16755E+07         0.00000E+00
    0.00000E+00         0.00000E+00         0.00000E+00
 
   -0.11322E+08        -0.11651E+06         0.00000E+00
   -0.11651E+06        -0.14987E+07         0.00000E+00
    0.00000E+00         0.00000E+00         0.00000E+00
 
   -0.11350E+08        -0.97589E+05         0.00000E+00
   -0.97589E+05        -0.13616E+07         0.00000E+00
    0.00000E+00         0.00000E+00         0.00000E+00
 
   -0.11339E+08        -0.85137E+05         0.00000E+00
   -0.85137E+05        -0.12576E+07         0.00000E+00
    0.00000E+00         0.00000E+00         0.00000E+00
 
   -0.11268E+08        -0.75269E+05         0.00000E+00
   -0.75269E+05        -0.11888E+07         0.00000E+00
    0.00000E+00         0.00000E+00         0.00000E+00
 
   -0.11080E+08        -0.61449E+05         0.00000E+00
   -0.61449E+05        -0.11753E+07         0.00000E+00
    0.00000E+00         0.00000E+00         0.00000E+00
 
   -0.10623E+08        -0.15872E+05         0.00000E+00
   -0.15872E+05        -0.12782E+07         0.00000E+00
    0.00000E+00         0.00000E+00         0.00000E+00
 
   -0.94377E+07         0.12082E+06         0.00000E+00
    0.12082E+06        -0.17034E+07         0.00000E+00
    0.00000E+00         0.00000E+00         0.00000E+00
 
   -0.42888E+07         0.19407E+07         0.00000E+00
    0.19407E+07        -0.38446E+07         0.00000E+00
    0.00000E+00         0.00000E+00         0.00000E+00
 
TENSORS stresstot double 
   -0.59503E+08         0.74416E+03         0.00000E+00
    0.74416E+03        -0.59999E+08         0.00000E+00
    0.00000E+00         0.00000E+00        -0.59752E+08
 
   -0.59514E+08         0.27288E+04         0.00000E+00
    0.27288E+04        -0.59996E+08         0.00000E+00
    0.00000E+00         0.00000E+00        -0.59755E+08
 
   -0.59532E+08         0.43179E+04         0.00000E+00
    0.43179E+04        -0.59988E+08         0.00000E+00
    0.00000E+00         0.00000E+00        -0.59760E+08
 
   -0.59555E+08         0.55037E+04         0.00000E+00
    0.55037E+04        -0.59979E+08         0.00000E+00
    0.00000E+00         0.00000E+00        -0.59767E+08
 
   -0.59581E+08         0.63171E+04         0.00000E+00
    0.63171E+04        -0.59967E+08         0.00000E+00
    0.00000E+00         0.00000E+00        -0.59775E+08
 
   -0.59611E+08         0.67867E+04         0.00000E+00
    0.67867E+04        -0.59954E+08         0.00000E+00
    0.00000E+00         0.00000E+00        -0.59783E+08
 
   -0.59642E+08         0.69448E+04         0.00000E+00
    0.69448E+04        -0.59940E+08         0.00000E+00
    0.00000E+00         0.00000E+00        -0.59792E+08
 
   -0.59674E+08         0.68281E+04         0.00000E+00
    0.68281E+04        -0.59926E+08         0.00000E+00
    0.00000E+00         0.00000E+00        -0.59801E+08
 
   -0.59704E+08         0.64787E+04         0.00000E+00
    0.64787E+04        -0.59913E+08         0.00000E+00
    0.00000E+00         0.00000E+00        -0.59809E+08
 
   -0.59734E+08         0.59448E+04         0.00000E+00
    0.59448E+04        -0.59900E+08         0.00000E+00
    0.00000E+00         0.00000E+00        -0.59818E+08
 
   -0.59761E+08         0.52823E+04         0.00000E+00
    0.52823E+04        -0.59889E+08         0.00000E+00
    0.00000E+00         0.00000E+00        -0.59826E+08
 
   -0.59786E+08         0.45564E+04         0.00000E+00
    0.45564E+04        -0.59879E+08         0.00000E+00
    0.00000E+00         0.00000E+00        -0.59833E+08
 
   -0.59808E+08         0.38453E+04         0.00000E+00
    0.38453E+04        -0.59871E+08         0.00000E+00
    0.00000E+00         0.00000E+00        -0.59840E+08
 
   -0.59828E+08         0.32512E+04         0.00000E+00
    0.32512E+04        -0.59864E+08         0.00000E+00
    0.00000E+00         0.00000E+00        -0.59847E+08
 
   -0.59846E+08         0.30958E+04         0.00000E+00
    0.30958E+04        -0.59857E+08         0.00000E+00
    0.00000E+00         0.00000E+00        -0.59852E+08
 
   -0.59499E+08         0.29517E+04         0.00000E+00
    0.29517E+04        -0.59999E+08         0.00000E+00
    0.00000E+00         0.00000E+00        -0.59749E+08
 
   -0.59510E+08         0.84473E+04         0.00000E+00
    0.84473E+04        -0.59995E+08         0.00000E+00
    0.00000E+00         0.00000E+00        -0.59752E+08
 
   -0.59529E+08         0.13066E+05         0.00000E+00
    0.13066E+05        -0.59987E+08         0.00000E+00
    0.00000E+00         0.00000E+00        -0.59758E+08
 
   -0.59553E+08         0.16574E+05         0.00000E+00
    0.16574E+05        -0.59977E+08         0.00000E+00
    0.00000E+00         0.00000E+00        -0.59765E+08
 
   -0.59580E+08         0.18992E+05         0.00000E+00
    0.18992E+05        -0.59965E+08         0.00000E+00
    0.00000E+00         0.00000E+00        -0.59773E+08
 
   -0.59610E+08         0.20389E+05         0.00000E+00
    0.20389E+05        -0.59952E+08         0.00000E+00
    0.00000E+00         0.00000E+00        -0.59781E+08
 
   -0.59642E+08         0.20856E+05         0.00000E+00
    0.20856E+05        -0.59938E+08         0.00000E+00
    0.00000E+00         0.00000E+00        -0.59790E+08
 
   -0.59674E+08         0.20501E+05         0.00000E+00
    0.20501E+05        -0.59925E+08         0.00000E+00
    0.00000E+00         0.00000E+00        -0.59799E+08
 
   -0.59705E+08         0.19448E+05         0.00000E+00
    0.19448E+05        -0.59911E+08         0.00000E+00
    0.00000E+00         0.00000E+00        -0.59808E+08
 
   -0.59735E+08         0.17842E+05         0.00000E+00
    0.17842E+05        -0.59899E+08         0.00000E+00
    0.00000E+00         0.00000E+00        -0.59817E+08
 
   -0.59762E+08         0.15849E+05         0.00000E+00
    0.15849E+05        -0.59888E+08         0.00000E+00
    0.00000E+00         0.00000E+00        -0.59825E+08
 
   -0.59787E+08         0.13665E+05         0.00000E+00
    0.13665E+05        -0.59878E+08         0.00000E+00
    0.00000E+00         0.00000E+00        -0.59833E+08
 
   -0.59809E+08         0.11528E+05         0.00000E+00
    0.11528E+05        -0.59869E+08         0.00000E+00
    0.00000E+00         0.00000E+00        -0.59839E+08
 
   -0.59829E+08         0.97580E+04         0.00000E+00
    0.97580E+04        -0.59862E+08         0.00000E+00
    0.00000E+00         0.00000E+00        -0.59846E+08
 
   -0.59846E+08         0.89199E+04         0.00000E+00
    0.89199E+04        -0.59856E+08         0.00000E+00
    0.00000E+00         0.00000E+00        -0.59851E+08
 
   -0.59491E+08         0.52202E+04         0.00000E+00
    0.52202E+04        -0.59999E+08         0.00000E+00
    0.00000E+00         0.00000E+00        -0.59745E+08
 
   -0.59504E+08         0.14475E+05         0.00000E+00
    0.14475E+05        -0.59995E+08         0.00000E+00
    0.00000E+00         0.00000E+00        -0.59749E+08
 
   -0.59523E+08         0.22027E+05         0.00000E+00
    0.22027E+05        -0.59987E+08         0.00000E+00
    0.00000E+00         0.00000E+00        -0.59755E+08
 
   -0.59549E+08         0.27788E+05         0.00000E+00
    0.27788E+05        -0.59977E+08         0.00000E+00
    0.00000E+00         0.00000E+00        -0.59763E+08
 
   -0.59578E+08         0.31769E+05         0.00000E+00
    0.31769E+05        -0.59965E+08         0.00000E+00
    0.00000E+00         0.00000E+00        -0.59771E+08
 
   -0.59609E+08         0.34066E+05         0.00000E+00
    0.34066E+05        -0.59952E+08         0.00000E+00
    0.00000E+00         0.00000E+00        -0.59780E+08
 
   -0.59642E+08         0.34823E+05         0.00000E+00
    0.34823E+05        -0.59938E+08         0.00000E+00
    0.00000E+00         0.00000E+00        -0.59790E+08
 
   -0.59675E+08         0.34216E+05         0.00000E+00
    0.34216E+05        -0.59924E+08         0.00000E+00
    0.00000E+00         0.00000E+00        -0.59799E+08
 
   -0.59707E+08         0.32448E+05         0.00000E+00
    0.32448E+05        -0.59911E+08         0.00000E+00
    0.00000E+00         0.00000E+00        -0.59809E+08
 
   -0.59737E+08         0.29755E+05         0.00000E+00
    0.29755E+05        -0.59898E+08         0.00000E+00
    0.00000E+00         0.00000E+00        -0.59818E+08
 
   -0.59765E+08         0.26412E+05         0.00000E+00
    0.26412E+05        -0.59887E+08         0.00000E+00
    0.00000E+00         0.00000E+00        -0.59826E+08
 
   -0.59790E+08         0.22743E+05         0.00000E+00
    0.22743E+05        -0.59877E+08         0.00000E+00
    0.00000E+00         0.00000E+00        -0.59834E+08
 
   -0.59812E+08         0.19140E+05         0.00000E+00
    0.19140E+05        -0.59869E+08         0.00000E+00
    0.00000E+00         0.00000E+00        -0.59840E+08
 
   -0.59831E+08         0.16102E+05         0.00000E+00
    0.16102E+05        -0.59862E+08         0.00000E+00
    0.00000E+00         0.00000E+00        -0.59846E+08
 
   -0.59846E+08         0.14153E+05         0.00000E+00
    0.14153E+05        -0.59856E+08         0.00000E+00
    0.00000E+00         0.00000E+00        -0.59851E+08
 
   -0.59479E+08         0.73952E+04         0.00000E+00
    0.73952E+04        -0.59999E+08         0.00000E+00
    0.00000E+00         0.00000E+00        -0.59739E+08
 
   -0.59494E+08         0.20554E+05         0.00000E+00
    0.20554E+05        -0.59995E+08         0.00000E+00
    0.00000E+00         0.00000E+00        -0.59744E+08
 
   -0.59516E+08         0.31142E+05         0.00000E+00
    0.31142E+05        -0.59987E+08         0.00000E+00
    0.00000E+00         0.00000E+00        -0.59751E+08
 
   -0.59543E+08         0.39147E+05         0.00000E+00
    0.39147E+05        -0.59977E+08         0.00000E+00
    0.00000E+00         0.00000E+00        -0.59760E+08
 
   -0.59574E+08         0.44662E+05         0.00000E+00
    0.44662E+05        -0.59965E+08         0.00000E+00
    0.00000E+00         0.00000E+00        -0.59769E+08
 
   -0.59607E+08         0.47831E+05         0.00000E+00
    0.47831E+05        -0.59951E+08         0.00000E+00
    0.00000E+00         0.00000E+00        -0.59779E+08
 
   -0.59642E+08         0.48855E+05         0.00000E+00
    0.48855E+05        -0.59937E+08         0.00000E+00
    0.00000E+00         0.00000E+00        -0.59790E+08
 
   -0.59676E+08         0.47977E+05         0.00000E+00
    0.47977E+05        -0.59923E+08         0.00000E+00
    0.00000E+00         0.00000E+00        -0.59800E+08
 
   -0.59710E+08         0.45477E+05         0.00000E+00
    0.45477E+05        -0.59910E+08         0.00000E+00
    0.00000E+00         0.00000E+00        -0.59810E+08
 
   -0.59741E+08         0.41676E+05         0.00000E+00
    0.41676E+05        -0.59898E+08         0.00000E+00
    0.00000E+00         0.00000E+00        -0.59819E+08
 
   -0.59769E+08         0.36947E+05         0.00000E+00
    0.36947E+05        -0.59886E+08         0.00000E+00
    0.00000E+00         0.00000E+00        -0.59828E+08
 
   -0.59794E+08         0.31730E+05         0.00000E+00
    0.31730E+05        -0.59877E+08         0.00000E+00
    0.00000E+00         0.00000E+00        -0.59836E+08
 
   -0.59816E+08         0.26556E+05         0.00000E+00
    0.26556E+05        -0.59869E+08         0.00000E+00
    0.00000E+00         0.00000E+00        -0.59842E+08
 
   -0.59834E+08         0.22049E+05         0.00000E+00
    0.22049E+05        -0.59862E+08         0.00000E+00
    0.00000E+00         0.00000E+00        -0.59848E+08
 
   -0.59848E+08         0.18875E+05         0.00000E+00
    0.18875E+05        -0.59857E+08         0.00000E+00
    0.00000E+00         0.00000E+00        -0.59853E+08
 
   -0.59463E+08         0.96094E+04         0.00000E+00
    0.96094E+04        -0.59999E+08         0.00000E+00
    0.00000E+00         0.00000E+00        -0.59731E+08
 
   -0.59480E+08         0.26682E+05         0.00000E+00
    0.26682E+05        -0.59995E+08         0.00000E+00
    0.00000E+00         0.00000E+00        -0.59737E+08
 
   -0.59505E+08         0.40353E+05         0.00000E+00
    0.40353E+05        -0.59987E+08         0.00000E+00
    0.00000E+00         0.00000E+00        -0.59746E+08
 
   -0.59535E+08         0.50616E+05         0.00000E+00
    0.50616E+05        -0.59977E+08         0.00000E+00
    0.00000E+00         0.00000E+00        -0.59756E+08
 
   -0.59569E+08         0.57644E+05         0.00000E+00
    0.57644E+05        -0.59964E+08         0.00000E+00
    0.00000E+00         0.00000E+00        -0.59767E+08
 
   -0.59605E+08         0.61655E+05         0.00000E+00
    0.61655E+05        -0.59951E+08         0.00000E+00
    0.00000E+00         0.00000E+00        -0.59778E+08
 
   -0.59642E+08         0.62921E+05         0.00000E+00
    0.62921E+05        -0.59937E+08         0.00000E+00
    0.00000E+00         0.00000E+00        -0.59790E+08
 
   -0.59678E+08         0.61756E+05         0.00000E+00
    0.61756E+05        -0.59923E+08         0.00000E+00
    0.00000E+00         0.00000E+00        -0.59801E+08
 
   -0.59713E+08         0.58508E+05         0.00000E+00
    0.58508E+05        -0.59910E+08         0.00000E+00
    0.00000E+00         0.00000E+00        -0.59812E+08
 
   -0.59746E+08         0.53575E+05         0.00000E+00
    0.53575E+05        -0.59897E+08         0.00000E+00
    0.00000E+00         0.00000E+00        -0.59822E+08
 
   -0.59775E+08         0.47412E+05         0.00000E+00
    0.47412E+05        -0.59886E+08         0.00000E+00
    0.00000E+00         0.00000E+00        -0.59831E+08
 
   -0.59801E+08         0.40560E+05         0.00000E+00
    0.40560E+05        -0.59876E+08         0.00000E+00
    0.00000E+00         0.00000E+00        -0.59839E+08
 
   -0.59822E+08         0.33664E+05         0.00000E+00
    0.33664E+05        -0.59869E+08         0.00000E+00
    0.00000E+00         0.00000E+00        -0.59845E+08
 
   -0.59839E+08         0.27490E+05         0.00000E+00
    0.27490E+05        -0.59863E+08         0.00000E+00
    0.00000E+00         0.00000E+00        -0.59851E+08
 
   -0.59851E+08         0.22912E+05         0.00000E+00
    0.22912E+05        -0.59858E+08         0.00000E+00
    0.00000E+00         0.00000E+00        -0.59855E+08
 
   -0.59442E+08         0.11879E+05         0.00000E+00
    0.11879E+05        -0.59999E+08         0.00000E+00
    0.00000E+00         0.00000E+00        -0.59721E+08
 
   -0.59463E+08         0.32901E+05         0.00000E+00
    0.32901E+05        -0.59995E+08         0.00000E+00
    0.00000E+00         0.00000E+00        -0.59728E+08
 
   -0.59492E+08         0.49643E+05         0.00000E+00
    0.49643E+05        -0.59987E+08         0.00000E+00
    0.00000E+00         0.00000E+00        -0.59739E+08
 
   -0.59526E+08         0.62138E+05         0.00000E+00
    0.62138E+05        -0.59976E+08         0.00000E+00
    0.00000E+00         0.00000E+00        -0.59751E+08
 
   -0.59563E+08         0.70641E+05         0.00000E+00
    0.70641E+05        -0.59964E+08         0.00000E+00
    0.00000E+00         0.00000E+00        -0.59763E+08
 
   -0.59602E+08         0.75460E+05         0.00000E+00
    0.75460E+05        -0.59951E+08         0.00000E+00
    0.00000E+00         0.00000E+00        -0.59777E+08
 
   -0.59642E+08         0.76945E+05         0.00000E+00
    0.76945E+05        -0.59937E+08         0.00000E+00
    0.00000E+00         0.00000E+00        -0.59789E+08
 
   -0.59681E+08         0.75479E+05         0.00000E+00
    0.75479E+05        -0.59923E+08         0.00000E+00
    0.00000E+00         0.00000E+00        -0.59802E+08
 
   -0.59718E+08         0.71478E+05         0.00000E+00
    0.71478E+05        -0.59910E+08         0.00000E+00
    0.00000E+00         0.00000E+00        -0.59814E+08
 
   -0.59752E+08         0.65397E+05         0.00000E+00
    0.65397E+05        -0.59897E+08         0.00000E+00
    0.00000E+00         0.00000E+00        -0.59825E+08
 
   -0.59783E+08         0.57759E+05         0.00000E+00
    0.57759E+05        -0.59886E+08         0.00000E+00
    0.00000E+00         0.00000E+00        -0.59835E+08
 
   -0.59808E+08         0.49181E+05         0.00000E+00
    0.49181E+05        -0.59877E+08         0.00000E+00
    0.00000E+00         0.00000E+00        -0.59843E+08
 
   -0.59829E+08         0.40406E+05         0.00000E+00
    0.40406E+05        -0.59870E+08         0.00000E+00
    0.00000E+00         0.00000E+00        -0.59850E+08
 
   -0.59845E+08         0.32345E+05         0.00000E+00
    0.32345E+05        -0.59864E+08         0.00000E+00
    0.00000E+00         0.00000E+00        -0.59855E+08
 
   -0.59855E+08         0.26072E+05         0.00000E+00
    0.26072E+05        -0.59860E+08         0.00000E+00
    0.00000E+00         0.00000E+00        -0.59858E+08
 
   -0.59417E+08         0.14188E+05         0.00000E+00
    0.14188E+05        -0.59999E+08         0.00000E+00
    0.00000E+00         0.00000E+00        -0.59708E+08
 
   -0.59442E+08         0.39185E+05         0.00000E+00
    0.39185E+05        -0.59995E+08         0.00000E+00
    0.00000E+00         0.00000E+00        -0.59718E+08
 
   -0.59476E+08         0.58956E+05         0.00000E+00
    0.58956E+05        -0.59987E+08         0.00000E+00
    0.00000E+00         0.00000E+00        -0.59731E+08
 
   -0.59514E+08         0.73615E+05         0.00000E+00
    0.73615E+05        -0.59976E+08         0.00000E+00
    0.00000E+00         0.00000E+00        -0.59745E+08
 
   -0.59556E+08         0.83529E+05         0.00000E+00
    0.83529E+05        -0.59964E+08         0.00000E+00
    0.00000E+00         0.00000E+00        -0.59760E+08
 
   -0.59599E+08         0.89106E+05         0.00000E+00
    0.89106E+05        -0.59951E+08         0.00000E+00
    0.00000E+00         0.00000E+00        -0.59775E+08
 
   -0.59642E+08         0.90785E+05         0.00000E+00
    0.90785E+05        -0.59938E+08         0.00000E+00
    0.00000E+00         0.00000E+00        -0.59790E+08
 
   -0.59684E+08         0.89019E+05         0.00000E+00
    0.89019E+05        -0.59924E+08         0.00000E+00
    0.00000E+00         0.00000E+00        -0.59804E+08
 
   -0.59724E+08         0.84278E+05         0.00000E+00
    0.84278E+05        -0.59911E+08         0.00000E+00
    0.00000E+00         0.00000E+00        -0.59817E+08
 
   -0.59760E+08         0.77060E+05         0.00000E+00
    0.77060E+05        -0.59899E+08         0.00000E+00
    0.00000E+00         0.00000E+00        -0.59829E+08
 
   -0.59792E+08         0.67929E+05         0.00000E+00
    0.67929E+05        -0.59888E+08         0.00000E+00
    0.00000E+00         0.00000E+00        -0.59840E+08
 
   -0.59818E+08         0.57552E+05         0.00000E+00
    0.57552E+05        -0.59879E+08         0.00000E+00
    0.00000E+00         0.00000E+00        -0.59849E+08
 
   -0.59839E+08         0.46745E+05         0.00000E+00
    0.46745E+05        -0.59872E+08         0.00000E+00
    0.00000E+00         0.00000E+00        -0.59856E+08
 
   -0.59853E+08         0.36543E+05         0.00000E+00
    0.36543E+05        -0.59867E+08         0.00000E+00
    0.00000E+00         0.00000E+00        -0.59860E+08
 
   -0.59861E+08         0.28203E+05         0.00000E+00
    0.28203E+05        -0.59864E+08         0.00000E+00
    0.00000E+00         0.00000E+00        -0.59863E+08
 
   -0.59387E+08         0.16519E+05         0.00000E+00
    0.16519E+05        -0.59999E+08         0.00000E+00
    0.00000E+00         0.00000E+00        -0.59693E+08
 
   -0.59418E+08         0.45464E+05         0.00000E+00
    0.45464E+05        -0.59995E+08         0.00000E+00
    0.00000E+00         0.00000E+00        -0.59706E+08
 
   -0.59457E+08         0.68173E+05         0.00000E+00
    0.68173E+05        -0.59987E+08         0.00000E+00
    0.00000E+00         0.00000E+00        -0.59722E+08
 
   -0.59501E+08         0.84884E+05         0.00000E+00
    0.84884E+05        -0.59977E+08         0.00000E+00
    0.00000E+00         0.00000E+00        -0.59739E+08
 
   -0.59548E+08         0.96108E+05         0.00000E+00
    0.96108E+05        -0.59965E+08         0.00000E+00
    0.00000E+00         0.00000E+00        -0.59756E+08
 
   -0.59595E+08         0.10238E+06         0.00000E+00
    0.10238E+06        -0.59952E+08         0.00000E+00
    0.00000E+00         0.00000E+00        -0.59774E+08
 
   -0.59642E+08         0.10422E+06         0.00000E+00
    0.10422E+06        -0.59939E+08         0.00000E+00
    0.00000E+00         0.00000E+00        -0.59791E+08
 
   -0.59688E+08         0.10218E+06         0.00000E+00
    0.10218E+06        -0.59926E+08         0.00000E+00
    0.00000E+00         0.00000E+00        -0.59807E+08
 
   -0.59730E+08         0.96743E+05         0.00000E+00
    0.96743E+05        -0.59914E+08         0.00000E+00
    0.00000E+00         0.00000E+00        -0.59822E+08
 
   -0.59769E+08         0.88444E+05         0.00000E+00
    0.88444E+05        -0.59902E+08         0.00000E+00
    0.00000E+00         0.00000E+00        -0.59835E+08
 
   -0.59802E+08         0.77848E+05         0.00000E+00
    0.77848E+05        -0.59892E+08         0.00000E+00
    0.00000E+00         0.00000E+00        -0.59847E+08
 
   -0.59830E+08         0.65635E+05         0.00000E+00
    0.65635E+05        -0.59883E+08         0.00000E+00
    0.00000E+00         0.00000E+00        -0.59857E+08
 
   -0.59851E+08         0.52660E+05         0.00000E+00
    0.52660E+05        -0.59876E+08         0.00000E+00
    0.00000E+00         0.00000E+00        -0.59864E+08
 
   -0.59864E+08         0.40041E+05         0.00000E+00
    0.40041E+05        -0.59872E+08         0.00000E+00
    0.00000E+00         0.00000E+00        -0.59868E+08
 
   -0.59869E+08         0.29195E+05         0.00000E+00
    0.29195E+05        -0.59870E+08         0.00000E+00
    0.00000E+00         0.00000E+00        -0.59870E+08
 
   -0.59353E+08         0.18833E+05         0.00000E+00
    0.18833E+05        -0.59999E+08         0.00000E+00
    0.00000E+00         0.00000E+00        -0.59677E+08
 
   -0.59390E+08         0.51624E+05         0.00000E+00
    0.51624E+05        -0.59995E+08         0.00000E+00
    0.00000E+00         0.00000E+00        -0.59692E+08
 
   -0.59437E+08         0.77110E+05         0.00000E+00
    0.77110E+05        -0.59987E+08         0.00000E+00
    0.00000E+00         0.00000E+00        -0.59712E+08
 
   -0.59487E+08         0.95698E+05         0.00000E+00
    0.95698E+05        -0.59978E+08         0.00000E+00
    0.00000E+00         0.00000E+00        -0.59732E+08
 
   -0.59539E+08         0.10808E+06         0.00000E+00
    0.10808E+06        -0.59967E+08         0.00000E+00
    0.00000E+00         0.00000E+00        -0.59753E+08
 
   -0.59591E+08         0.11495E+06         0.00000E+00
    0.11495E+06        -0.59955E+08         0.00000E+00
    0.00000E+00         0.00000E+00        -0.59773E+08
 
   -0.59642E+08         0.11694E+06         0.00000E+00
    0.11694E+06        -0.59943E+08         0.00000E+00
    0.00000E+00         0.00000E+00        -0.59793E+08
 
   -0.59692E+08         0.11466E+06         0.00000E+00
    0.11466E+06        -0.59931E+08         0.00000E+00
    0.00000E+00         0.00000E+00        -0.59811E+08
 
   -0.59737E+08         0.10863E+06         0.00000E+00
    0.10863E+06        -0.59919E+08         0.00000E+00
    0.00000E+00         0.00000E+00        -0.59828E+08
 
   -0.59779E+08         0.99374E+05         0.00000E+00
    0.99374E+05        -0.59908E+08         0.00000E+00
    0.00000E+00         0.00000E+00        -0.59843E+08
 
   -0.59815E+08         0.87415E+05         0.00000E+00
    0.87415E+05        -0.59898E+08         0.00000E+00
    0.00000E+00         0.00000E+00        -0.59856E+08
 
   -0.59844E+08         0.73396E+05         0.00000E+00
    0.73396E+05        -0.59889E+08         0.00000E+00
    0.00000E+00         0.00000E+00        -0.59867E+08
 
   -0.59865E+08         0.58153E+05         0.00000E+00
    0.58153E+05        -0.59883E+08         0.00000E+00
    0.00000E+00         0.00000E+00        -0.59874E+08
 
   -0.59877E+08         0.42841E+05         0.00000E+00
    0.42841E+05        -0.59879E+08         0.00000E+00
    0.00000E+00         0.00000E+00        -0.59878E+08
 
   -0.59880E+08         0.28995E+05         0.00000E+00
    0.28995E+05        -0.59878E+08         0.00000E+00
    0.00000E+00         0.00000E+00        -0.59880E+08
 
   -0.59315E+08         0.21074E+05         0.00000E+00
    0.21074E+05        -0.59999E+08         0.00000E+00
    0.00000E+00         0.00000E+00        -0.59658E+08
 
   -0.59360E+08         0.57503E+05         0.00000E+00
    0.57503E+05        -0.59995E+08         0.00000E+00
    0.00000E+00         0.00000E+00        -0.59677E+08
 
   -0.59414E+08         0.85505E+05         0.00000E+00
    0.85505E+05        -0.59988E+08         0.00000E+00
    0.00000E+00         0.00000E+00        -0.59701E+08
 
   -0.59471E+08         0.10571E+06         0.00000E+00
    0.10571E+06        -0.59979E+08         0.00000E+00
    0.00000E+00         0.00000E+00        -0.59725E+08
 
   -0.59529E+08         0.11905E+06         0.00000E+00
    0.11905E+06        -0.59970E+08         0.00000E+00
    0.00000E+00         0.00000E+00        -0.59749E+08
 
   -0.59587E+08         0.12639E+06         0.00000E+00
    0.12639E+06        -0.59959E+08         0.00000E+00
    0.00000E+00         0.00000E+00        -0.59773E+08
 
   -0.59643E+08         0.12851E+06         0.00000E+00
    0.12851E+06        -0.59948E+08         0.00000E+00
    0.00000E+00         0.00000E+00        -0.59796E+08
 
   -0.59696E+08         0.12607E+06         0.00000E+00
    0.12607E+06        -0.59938E+08         0.00000E+00
    0.00000E+00         0.00000E+00        -0.59817E+08
 
   -0.59745E+08         0.11962E+06         0.00000E+00
    0.11962E+06        -0.59927E+08         0.00000E+00
    0.00000E+00         0.00000E+00        -0.59836E+08
 
   -0.59790E+08         0.10961E+06         0.00000E+00
    0.10961E+06        -0.59917E+08         0.00000E+00
    0.00000E+00         0.00000E+00        -0.59854E+08
 
   -0.59828E+08         0.96496E+05         0.00000E+00
    0.96496E+05        -0.59908E+08         0.00000E+00
    0.00000E+00         0.00000E+00        -0.59868E+08
 
   -0.59859E+08         0.80799E+05         0.00000E+00
    0.80799E+05        -0.59900E+08         0.00000E+00
    0.00000E+00         0.00000E+00        -0.59880E+08
 
   -0.59882E+08         0.63265E+05         0.00000E+00
    0.63265E+05        -0.59894E+08         0.00000E+00
    0.00000E+00         0.00000E+00        -0.59888E+08
 
   -0.59894E+08         0.45009E+05         0.00000E+00
    0.45009E+05        -0.59890E+08         0.00000E+00
    0.00000E+00         0.00000E+00        -0.59892E+08
 
   -0.59895E+08         0.27628E+05         0.00000E+00
    0.27628E+05        -0.59890E+08         0.00000E+00
    0.00000E+00         0.00000E+00        -0.59893E+08
 
   -0.59272E+08         0.23167E+05         0.00000E+00
    0.23167E+05        -0.59999E+08         0.00000E+00
    0.00000E+00         0.00000E+00        -0.59637E+08
 
   -0.59326E+08         0.62883E+05         0.00000E+00
    0.62883E+05        -0.59996E+08         0.00000E+00
    0.00000E+00         0.00000E+00        -0.59660E+08
 
   -0.59389E+08         0.93010E+05         0.00000E+00
    0.93010E+05        -0.59990E+08         0.00000E+00
    0.00000E+00         0.00000E+00        -0.59689E+08
 
   -0.59453E+08         0.11447E+06         0.00000E+00
    0.11447E+06        -0.59982E+08         0.00000E+00
    0.00000E+00         0.00000E+00        -0.59718E+08
 
   -0.59518E+08         0.12847E+06         0.00000E+00
    0.12847E+06        -0.59974E+08         0.00000E+00
    0.00000E+00         0.00000E+00        -0.59746E+08
 
   -0.59582E+08         0.13612E+06         0.00000E+00
    0.13612E+06        -0.59965E+08         0.00000E+00
    0.00000E+00         0.00000E+00        -0.59774E+08
 
   -0.59643E+08         0.13833E+06         0.00000E+00
    0.13833E+06        -0.59957E+08         0.00000E+00
    0.00000E+00         0.00000E+00        -0.59800E+08
 
   -0.59701E+08         0.13586E+06         0.00000E+00
    0.13586E+06        -0.59948E+08         0.00000E+00
    0.00000E+00         0.00000E+00        -0.59824E+08
 
   -0.59754E+08         0.12924E+06         0.00000E+00
    0.12924E+06        -0.59939E+08         0.00000E+00
    0.00000E+00         0.00000E+00        -0.59847E+08
 
   -0.59802E+08         0.11883E+06         0.00000E+00
    0.11883E+06        -0.59931E+08         0.00000E+00
    0.00000E+00         0.00000E+00        -0.59866E+08
 
   -0.59843E+08         0.10491E+06         0.00000E+00
    0.10491E+06        -0.59922E+08         0.00000E+00
    0.00000E+00         0.00000E+00        -0.59883E+08
 
   -0.59877E+08         0.87810E+05         0.00000E+00
    0.87810E+05        -0.59915E+08         0.00000E+00
    0.00000E+00         0.00000E+00        -0.59896E+08
 
   -0.59901E+08         0.68079E+05         0.00000E+00
    0.68079E+05        -0.59909E+08         0.00000E+00
    0.00000E+00         0.00000E+00        -0.59905E+08
 
   -0.59914E+08         0.46692E+05         0.00000E+00
    0.46692E+05        -0.59906E+08         0.00000E+00
    0.00000E+00         0.00000E+00        -0.59910E+08
 
   -0.59913E+08         0.25224E+05         0.00000E+00
    0.25224E+05        -0.59907E+08         0.00000E+00
    0.00000E+00         0.00000E+00        -0.59911E+08
 
   -0.59226E+08         0.25017E+05         0.00000E+00
    0.25017E+05        -0.59999E+08         0.00000E+00
    0.00000E+00         0.00000E+00        -0.59615E+08
 
   -0.59290E+08         0.67486E+05         0.00000E+00
    0.67486E+05        -0.59996E+08         0.00000E+00
    0.00000E+00         0.00000E+00        -0.59643E+08
 
   -0.59363E+08         0.99187E+05         0.00000E+00
    0.99187E+05        -0.59992E+08         0.00000E+00
    0.00000E+00         0.00000E+00        -0.59677E+08
 
   -0.59436E+08         0.12139E+06         0.00000E+00
    0.12139E+06        -0.59986E+08         0.00000E+00
    0.00000E+00         0.00000E+00        -0.59711E+08
 
   -0.59508E+08         0.13566E+06         0.00000E+00
    0.13566E+06        -0.59980E+08         0.00000E+00
    0.00000E+00         0.00000E+00        -0.59744E+08
 
   -0.59577E+08         0.14337E+06         0.00000E+00
    0.14337E+06        -0.59974E+08         0.00000E+00
    0.00000E+00         0.00000E+00        -0.59776E+08
 
   -0.59643E+08         0.14565E+06         0.00000E+00
    0.14565E+06        -0.59969E+08         0.00000E+00
    0.00000E+00         0.00000E+00        -0.59806E+08
 
   -0.59705E+08         0.14332E+06         0.00000E+00
    0.14332E+06        -0.59963E+08         0.00000E+00
    0.00000E+00         0.00000E+00        -0.59834E+08
 
   -0.59762E+08         0.13690E+06         0.00000E+00
    0.13690E+06        -0.59957E+08         0.00000E+00
    0.00000E+00         0.00000E+00        -0.59860E+08
 
   -0.59814E+08         0.12659E+06         0.00000E+00
    0.12659E+06        -0.59950E+08         0.00000E+00
    0.00000E+00         0.00000E+00        -0.59882E+08
 
   -0.59859E+08         0.11242E+06         0.00000E+00
    0.11242E+06        -0.59943E+08         0.00000E+00
    0.00000E+00         0.00000E+00        -0.59901E+08
 
   -0.59896E+08         0.94396E+05         0.00000E+00
    0.94396E+05        -0.59937E+08         0.00000E+00
    0.00000E+00         0.00000E+00        -0.59917E+08
 
   -0.59923E+08         0.72741E+05         0.00000E+00
    0.72741E+05        -0.59931E+08         0.00000E+00
    0.00000E+00         0.00000E+00        -0.59927E+08
 
   -0.59937E+08         0.48149E+05         0.00000E+00
    0.48149E+05        -0.59928E+08         0.00000E+00
    0.00000E+00         0.00000E+00        -0.59933E+08
 
   -0.59937E+08         0.22052E+05         0.00000E+00
    0.22052E+05        -0.59929E+08         0.00000E+00
    0.00000E+00         0.00000E+00        -0.59933E+08
 
   -0.59177E+08         0.26509E+05         0.00000E+00
    0.26509E+05        -0.59999E+08         0.00000E+00
    0.00000E+00         0.00000E+00        -0.59591E+08
 
   -0.59252E+08         0.70982E+05         0.00000E+00
    0.70982E+05        -0.59997E+08         0.00000E+00
    0.00000E+00         0.00000E+00        -0.59624E+08
 
   -0.59336E+08         0.10350E+06         0.00000E+00
    0.10350E+06        -0.59994E+08         0.00000E+00
    0.00000E+00         0.00000E+00        -0.59665E+08
 
   -0.59418E+08         0.12576E+06         0.00000E+00
    0.12576E+06        -0.59991E+08         0.00000E+00
    0.00000E+00         0.00000E+00        -0.59705E+08
 
   -0.59497E+08         0.13976E+06         0.00000E+00
    0.13976E+06        -0.59989E+08         0.00000E+00
    0.00000E+00         0.00000E+00        -0.59743E+08
 
   -0.59572E+08         0.14720E+06         0.00000E+00
    0.14720E+06        -0.59987E+08         0.00000E+00
    0.00000E+00         0.00000E+00        -0.59780E+08
 
   -0.59643E+08         0.14948E+06         0.00000E+00
    0.14948E+06        -0.59985E+08         0.00000E+00
    0.00000E+00         0.00000E+00        -0.59814E+08
 
   -0.59709E+08         0.14753E+06         0.00000E+00
    0.14753E+06        -0.59983E+08         0.00000E+00
    0.00000E+00         0.00000E+00        -0.59846E+08
 
   -0.59770E+08         0.14181E+06         0.00000E+00
    0.14181E+06        -0.59981E+08         0.00000E+00
    0.00000E+00         0.00000E+00        -0.59875E+08
 
   -0.59826E+08         0.13232E+06         0.00000E+00
    0.13232E+06        -0.59977E+08         0.00000E+00
    0.00000E+00         0.00000E+00        -0.59901E+08
 
   -0.59875E+08         0.11870E+06         0.00000E+00
    0.11870E+06        -0.59972E+08         0.00000E+00
    0.00000E+00         0.00000E+00        -0.59923E+08
 
   -0.59917E+08         0.10052E+06         0.00000E+00
    0.10052E+06        -0.59966E+08         0.00000E+00
    0.00000E+00         0.00000E+00        -0.59941E+08
 
   -0.59948E+08         0.77468E+05         0.00000E+00
    0.77468E+05        -0.59961E+08         0.00000E+00
    0.00000E+00         0.00000E+00        -0.59954E+08
 
   -0.59965E+08         0.49776E+05         0.00000E+00
    0.49776E+05        -0.59957E+08         0.00000E+00
    0.00000E+00         0.00000E+00        -0.59961E+08
 
   -0.59966E+08         0.18566E+05         0.00000E+00
    0.18566E+05        -0.59958E+08         0.00000E+00
    0.00000E+00         0.00000E+00        -0.59963E+08
 
   -0.59126E+08         0.27512E+05         0.00000E+00
    0.27512E+05        -0.60000E+08         0.00000E+00
    0.00000E+00         0.00000E+00        -0.59566E+08
 
   -0.59214E+08         0.72990E+05         0.00000E+00
    0.72990E+05        -0.59999E+08         0.00000E+00
    0.00000E+00         0.00000E+00        -0.59606E+08
 
   -0.59309E+08         0.10534E+06         0.00000E+00
    0.10534E+06        -0.59998E+08         0.00000E+00
    0.00000E+00         0.00000E+00        -0.59654E+08
 
   -0.59400E+08         0.12674E+06         0.00000E+00
    0.12674E+06        -0.59998E+08         0.00000E+00
    0.00000E+00         0.00000E+00        -0.59699E+08
 
   -0.59487E+08         0.13972E+06         0.00000E+00
    0.13972E+06        -0.60000E+08         0.00000E+00
    0.00000E+00         0.00000E+00        -0.59744E+08
 
   -0.59568E+08         0.14643E+06         0.00000E+00
    0.14643E+06        -0.60003E+08         0.00000E+00
    0.00000E+00         0.00000E+00        -0.59786E+08
 
   -0.59643E+08         0.14861E+06         0.00000E+00
    0.14861E+06        -0.60007E+08         0.00000E+00
    0.00000E+00         0.00000E+00        -0.59825E+08
 
   -0.59713E+08         0.14732E+06         0.00000E+00
    0.14732E+06        -0.60010E+08         0.00000E+00
    0.00000E+00         0.00000E+00        -0.59861E+08
 
   -0.59777E+08         0.14297E+06         0.00000E+00
    0.14297E+06        -0.60012E+08         0.00000E+00
    0.00000E+00         0.00000E+00        -0.59895E+08
 
   -0.59837E+08         0.13526E+06         0.00000E+00
    0.13526E+06        -0.60012E+08         0.00000E+00
    0.00000E+00         0.00000E+00        -0.59924E+08
 
   -0.59890E+08         0.12336E+06         0.00000E+00
    0.12336E+06        -0.60010E+08         0.00000E+00
    0.00000E+00         0.00000E+00        -0.59950E+08
 
   -0.59937E+08         0.10614E+06         0.00000E+00
    0.10614E+06        -0.60005E+08         0.00000E+00
    0.00000E+00         0.00000E+00        -0.59971E+08
 
   -0.59974E+08         0.82565E+05         0.00000E+00
    0.82565E+05        -0.60000E+08         0.00000E+00
    0.00000E+00         0.00000E+00        -0.59987E+08
 
   -0.59997E+08         0.52149E+05         0.00000E+00
    0.52149E+05        -0.59996E+08         0.00000E+00
    0.00000E+00         0.00000E+00        -0.59996E+08
 
   -0.60002E+08         0.15460E+05         0.00000E+00
    0.15460E+05        -0.59995E+08         0.00000E+00
    0.00000E+00         0.00000E+00        -0.59999E+08
 
   -0.59073E+08         0.27887E+05         0.00000E+00
    0.27887E+05        -0.60000E+08         0.00000E+00
    0.00000E+00         0.00000E+00        -0.59541E+08
 
   -0.59175E+08         0.73093E+05         0.00000E+00
    0.73093E+05        -0.60000E+08         0.00000E+00
    0.00000E+00         0.00000E+00        -0.59588E+08
 
   -0.59283E+08         0.10399E+06         0.00000E+00
    0.10399E+06        -0.60003E+08         0.00000E+00
    0.00000E+00         0.00000E+00        -0.59643E+08
 
   -0.59385E+08         0.12333E+06         0.00000E+00
    0.12333E+06        -0.60007E+08         0.00000E+00
    0.00000E+00         0.00000E+00        -0.59696E+08
 
   -0.59478E+08         0.13429E+06         0.00000E+00
    0.13429E+06        -0.60014E+08         0.00000E+00
    0.00000E+00         0.00000E+00        -0.59746E+08
 
   -0.59564E+08         0.13963E+06         0.00000E+00
    0.13963E+06        -0.60024E+08         0.00000E+00
    0.00000E+00         0.00000E+00        -0.59794E+08
 
   -0.59642E+08         0.14151E+06         0.00000E+00
    0.14151E+06        -0.60035E+08         0.00000E+00
    0.00000E+00         0.00000E+00        -0.59839E+08
 
   -0.59715E+08         0.14123E+06         0.00000E+00
    0.14123E+06        -0.60045E+08         0.00000E+00
    0.00000E+00         0.00000E+00        -0.59880E+08
 
   -0.59782E+08         0.13911E+06         0.00000E+00
    0.13911E+06        -0.60053E+08         0.00000E+00
    0.00000E+00         0.00000E+00        -0.59917E+08
 
   -0.59845E+08         0.13448E+06         0.00000E+00
    0.13448E+06        -0.60058E+08         0.00000E+00
    0.00000E+00         0.00000E+00        -0.59951E+08
 
   -0.59903E+08         0.12584E+06         0.00000E+00
    0.12584E+06        -0.60059E+08         0.00000E+00
    0.00000E+00         0.00000E+00        -0.59981E+08
 
   -0.59956E+08         0.11119E+06         0.00000E+00
    0.11119E+06        -0.60056E+08         0.00000E+00
    0.00000E+00         0.00000E+00        -0.60006E+08
 
   -0.60001E+08         0.88447E+05         0.00000E+00
    0.88447E+05        -0.60051E+08         0.00000E+00
    0.00000E+00         0.00000E+00        -0.60026E+08
 
   -0.60032E+08         0.56063E+05         0.00000E+00
    0.56063E+05        -0.60045E+08         0.00000E+00
    0.00000E+00         0.00000E+00        -0.60039E+08
 
   -0.60045E+08         0.13740E+05         0.00000E+00
    0.13740E+05        -0.60042E+08         0.00000E+00
    0.00000E+00         0.00000E+00        -0.60044E+08
 
   -0.59021E+08         0.27498E+05         0.00000E+00
    0.27498E+05        -0.60000E+08         0.00000E+00
    0.00000E+00         0.00000E+00        -0.59516E+08
 
   -0.59139E+08         0.70863E+05         0.00000E+00
    0.70863E+05        -0.60003E+08         0.00000E+00
    0.00000E+00         0.00000E+00        -0.59570E+08
 
   -0.59260E+08         0.98680E+05         0.00000E+00
    0.98680E+05        -0.60008E+08         0.00000E+00
    0.00000E+00         0.00000E+00        -0.59635E+08
 
   -0.59372E+08         0.11439E+06         0.00000E+00
    0.11439E+06        -0.60018E+08         0.00000E+00
    0.00000E+00         0.00000E+00        -0.59695E+08
 
   -0.59472E+08         0.12201E+06         0.00000E+00
    0.12201E+06        -0.60032E+08         0.00000E+00
    0.00000E+00         0.00000E+00        -0.59752E+08
 
   -0.59561E+08         0.12508E+06         0.00000E+00
    0.12508E+06        -0.60050E+08         0.00000E+00
    0.00000E+00         0.00000E+00        -0.59806E+08
 
   -0.59642E+08         0.12635E+06         0.00000E+00
    0.12635E+06        -0.60069E+08         0.00000E+00
    0.00000E+00         0.00000E+00        -0.59855E+08
 
   -0.59715E+08         0.12745E+06         0.00000E+00
    0.12745E+06        -0.60089E+08         0.00000E+00
    0.00000E+00         0.00000E+00        -0.59901E+08
 
   -0.59783E+08         0.12862E+06         0.00000E+00
    0.12862E+06        -0.60105E+08         0.00000E+00
    0.00000E+00         0.00000E+00        -0.59944E+08
 
   -0.59848E+08         0.12874E+06         0.00000E+00
    0.12874E+06        -0.60117E+08         0.00000E+00
    0.00000E+00         0.00000E+00        -0.59982E+08
 
   -0.59912E+08         0.12547E+06         0.00000E+00
    0.12547E+06        -0.60122E+08         0.00000E+00
    0.00000E+00         0.00000E+00        -0.60017E+08
 
   -0.59973E+08         0.11560E+06         0.00000E+00
    0.11560E+06        -0.60121E+08         0.00000E+00
    0.00000E+00         0.00000E+00        -0.60047E+08
 
   -0.60028E+08         0.95658E+05         0.00000E+00
    0.95658E+05        -0.60115E+08         0.00000E+00
    0.00000E+00         0.00000E+00        -0.60071E+08
 
   -0.60071E+08         0.62596E+05         0.00000E+00
    0.62596E+05        -0.60107E+08         0.00000E+00
    0.00000E+00         0.00000E+00        -0.60089E+08
 
   -0.60095E+08         0.14808E+05         0.00000E+00
    0.14808E+05        -0.60101E+08         0.00000E+00
    0.00000E+00         0.00000E+00        -0.60099E+08
 
   -0.58971E+08         0.26233E+05         0.00000E+00
    0.26233E+05        -0.60001E+08         0.00000E+00
    0.00000E+00         0.00000E+00        -0.59492E+08
 
   -0.59105E+08         0.65894E+05         0.00000E+00
    0.65894E+05        -0.60005E+08         0.00000E+00
    0.00000E+00         0.00000E+00        -0.59555E+08
 
   -0.59242E+08         0.88609E+05         0.00000E+00
    0.88609E+05        -0.60014E+08         0.00000E+00
    0.00000E+00         0.00000E+00        -0.59629E+08
 
   -0.59363E+08         0.98664E+05         0.00000E+00
    0.98664E+05        -0.60031E+08         0.00000E+00
    0.00000E+00         0.00000E+00        -0.59697E+08
 
   -0.59469E+08         0.10116E+06         0.00000E+00
    0.10116E+06        -0.60053E+08         0.00000E+00
    0.00000E+00         0.00000E+00        -0.59762E+08
 
   -0.59561E+08         0.10072E+06         0.00000E+00
    0.10072E+06        -0.60081E+08         0.00000E+00
    0.00000E+00         0.00000E+00        -0.59821E+08
 
   -0.59640E+08         0.10092E+06         0.00000E+00
    0.10092E+06        -0.60112E+08         0.00000E+00
    0.00000E+00         0.00000E+00        -0.59876E+08
 
   -0.59712E+08         0.10380E+06         0.00000E+00
    0.10380E+06        -0.60143E+08         0.00000E+00
    0.00000E+00         0.00000E+00        -0.59927E+08
 
   -0.59779E+08         0.10958E+06         0.00000E+00
    0.10958E+06        -0.60170E+08         0.00000E+00
    0.00000E+00         0.00000E+00        -0.59974E+08
 
   -0.59846E+08         0.11657E+06         0.00000E+00
    0.11657E+06        -0.60190E+08         0.00000E+00
    0.00000E+00         0.00000E+00        -0.60017E+08
 
   -0.59914E+08         0.12137E+06         0.00000E+00
    0.12137E+06        -0.60201E+08         0.00000E+00
    0.00000E+00         0.00000E+00        -0.60057E+08
 
   -0.59984E+08         0.11926E+06         0.00000E+00
    0.11926E+06        -0.60202E+08         0.00000E+00
    0.00000E+00         0.00000E+00        -0.60092E+08
 
   -0.60052E+08         0.10489E+06         0.00000E+00
    0.10489E+06        -0.60195E+08         0.00000E+00
    0.00000E+00         0.00000E+00        -0.60123E+08
 
   -0.60113E+08         0.73162E+05         0.00000E+00
    0.73162E+05        -0.60183E+08         0.00000E+00
    0.00000E+00         0.00000E+00        -0.60148E+08
 
   -0.60154E+08         0.20570E+05         0.00000E+00
    0.20570E+05        -0.60172E+08         0.00000E+00
    0.00000E+00         0.00000E+00        -0.60164E+08
 
   -0.58925E+08         0.24020E+05         0.00000E+00
    0.24020E+05        -0.60001E+08         0.00000E+00
    0.00000E+00         0.00000E+00        -0.59470E+08
 
   -0.59078E+08         0.57834E+05         0.00000E+00
    0.57834E+05        -0.60007E+08         0.00000E+00
    0.00000E+00         0.00000E+00        -0.59543E+08
 
   -0.59230E+08         0.72940E+05         0.00000E+00
    0.72940E+05        -0.60022E+08         0.00000E+00
    0.00000E+00         0.00000E+00        -0.59627E+08
 
   -0.59362E+08         0.74707E+05         0.00000E+00
    0.74707E+05        -0.60045E+08         0.00000E+00
    0.00000E+00         0.00000E+00        -0.59704E+08
 
   -0.59472E+08         0.69758E+05         0.00000E+00
    0.69758E+05        -0.60078E+08         0.00000E+00
    0.00000E+00         0.00000E+00        -0.59776E+08
 
   -0.59563E+08         0.64169E+05         0.00000E+00
    0.64169E+05        -0.60119E+08         0.00000E+00
    0.00000E+00         0.00000E+00        -0.59841E+08
 
   -0.59639E+08         0.62624E+05         0.00000E+00
    0.62624E+05        -0.60164E+08         0.00000E+00
    0.00000E+00         0.00000E+00        -0.59901E+08
 
   -0.59705E+08         0.67736E+05         0.00000E+00
    0.67736E+05        -0.60208E+08         0.00000E+00
    0.00000E+00         0.00000E+00        -0.59956E+08
 
   -0.59768E+08         0.79686E+05         0.00000E+00
    0.79686E+05        -0.60248E+08         0.00000E+00
    0.00000E+00         0.00000E+00        -0.60008E+08
 
   -0.59834E+08         0.96155E+05         0.00000E+00
    0.96155E+05        -0.60279E+08         0.00000E+00
    0.00000E+00         0.00000E+00        -0.60056E+08
 
   -0.59906E+08         0.11247E+06         0.00000E+00
    0.11247E+06        -0.60298E+08         0.00000E+00
    0.00000E+00         0.00000E+00        -0.60101E+08
 
   -0.59986E+08         0.12202E+06         0.00000E+00
    0.12202E+06        -0.60302E+08         0.00000E+00
    0.00000E+00         0.00000E+00        -0.60143E+08
 
   -0.60071E+08         0.11702E+06         0.00000E+00
    0.11702E+06        -0.60294E+08         0.00000E+00
    0.00000E+00         0.00000E+00        -0.60182E+08
 
   -0.60154E+08         0.89596E+05         0.00000E+00
    0.89596E+05        -0.60277E+08         0.00000E+00
    0.00000E+00         0.00000E+00        -0.60216E+08
 
   -0.60222E+08         0.33567E+05         0.00000E+00
    0.33567E+05        -0.60258E+08         0.00000E+00
    0.00000E+00         0.00000E+00        -0.60240E+08
 
   -0.58884E+08         0.20867E+05         0.00000E+00
    0.20867E+05        -0.60002E+08         0.00000E+00
    0.00000E+00         0.00000E+00        -0.59451E+08
 
   -0.59059E+08         0.46445E+05         0.00000E+00
    0.46445E+05        -0.60010E+08         0.00000E+00
    0.00000E+00         0.00000E+00        -0.59534E+08
 
   -0.59229E+08         0.50802E+05         0.00000E+00
    0.50802E+05        -0.60029E+08         0.00000E+00
    0.00000E+00         0.00000E+00        -0.59630E+08
 
   -0.59370E+08         0.40883E+05         0.00000E+00
    0.40883E+05        -0.60062E+08         0.00000E+00
    0.00000E+00         0.00000E+00        -0.59717E+08
 
   -0.59482E+08         0.25473E+05         0.00000E+00
    0.25473E+05        -0.60107E+08         0.00000E+00
    0.00000E+00         0.00000E+00        -0.59796E+08
 
   -0.59570E+08         0.12657E+05         0.00000E+00
    0.12657E+05        -0.60163E+08         0.00000E+00
    0.00000E+00         0.00000E+00        -0.59867E+08
 
   -0.59637E+08         0.85297E+04         0.00000E+00
    0.85297E+04        -0.60225E+08         0.00000E+00
    0.00000E+00         0.00000E+00        -0.59931E+08
 
   -0.59694E+08         0.16377E+05         0.00000E+00
    0.16377E+05        -0.60287E+08         0.00000E+00
    0.00000E+00         0.00000E+00        -0.59990E+08
 
   -0.59749E+08         0.36344E+05         0.00000E+00
    0.36344E+05        -0.60343E+08         0.00000E+00
    0.00000E+00         0.00000E+00        -0.60045E+08
 
   -0.59810E+08         0.65399E+05         0.00000E+00
    0.65399E+05        -0.60386E+08         0.00000E+00
    0.00000E+00         0.00000E+00        -0.60097E+08
 
   -0.59884E+08         0.97438E+05         0.00000E+00
    0.97438E+05        -0.60414E+08         0.00000E+00
    0.00000E+00         0.00000E+00        -0.60148E+08
 
   -0.59975E+08         0.12361E+06         0.00000E+00
    0.12361E+06        -0.60423E+08         0.00000E+00
    0.00000E+00         0.00000E+00        -0.60197E+08
 
   -0.60080E+08         0.13306E+06         0.00000E+00
    0.13306E+06        -0.60413E+08         0.00000E+00
    0.00000E+00         0.00000E+00        -0.60246E+08
 
   -0.60193E+08         0.11421E+06         0.00000E+00
    0.11421E+06        -0.60389E+08         0.00000E+00
    0.00000E+00         0.00000E+00        -0.60291E+08
 
   -0.60296E+08         0.57116E+05         0.00000E+00
    0.57116E+05        -0.60359E+08         0.00000E+00
    0.00000E+00         0.00000E+00        -0.60327E+08
 
   -0.58852E+08         0.16907E+05         0.00000E+00
    0.16907E+05        -0.60002E+08         0.00000E+00
    0.00000E+00         0.00000E+00        -0.59436E+08
 
   -0.59051E+08         0.31545E+05         0.00000E+00
    0.31545E+05        -0.60012E+08         0.00000E+00
    0.00000E+00         0.00000E+00        -0.59532E+08
 
   -0.59240E+08         0.21199E+05         0.00000E+00
    0.21199E+05        -0.60038E+08         0.00000E+00
    0.00000E+00         0.00000E+00        -0.59641E+08
 
   -0.59391E+08        -0.48081E+04         0.00000E+00
   -0.48081E+04        -0.60081E+08         0.00000E+00
    0.00000E+00         0.00000E+00        -0.59738E+08
 
   -0.59504E+08        -0.34446E+05         0.00000E+00
   -0.34446E+05        -0.60141E+08         0.00000E+00
    0.00000E+00         0.00000E+00        -0.59824E+08
 
   -0.59582E+08        -0.56923E+05         0.00000E+00
   -0.56923E+05        -0.60216E+08         0.00000E+00
    0.00000E+00         0.00000E+00        -0.59900E+08
 
   -0.59636E+08        -0.64491E+05         0.00000E+00
   -0.64491E+05        -0.60298E+08         0.00000E+00
    0.00000E+00         0.00000E+00        -0.59967E+08
 
   -0.59676E+08        -0.53239E+05         0.00000E+00
   -0.53239E+05        -0.60380E+08         0.00000E+00
    0.00000E+00         0.00000E+00        -0.60027E+08
 
   -0.59717E+08        -0.23155E+05         0.00000E+00
   -0.23155E+05        -0.60454E+08         0.00000E+00
    0.00000E+00         0.00000E+00        -0.60084E+08
 
   -0.59769E+08         0.22002E+05         0.00000E+00
    0.22002E+05        -0.60513E+08         0.00000E+00
    0.00000E+00         0.00000E+00        -0.60139E+08
 
   -0.59842E+08         0.74695E+05         0.00000E+00
    0.74695E+05        -0.60552E+08         0.00000E+00
    0.00000E+00         0.00000E+00        -0.60195E+08
 
   -0.59944E+08         0.12361E+06         0.00000E+00
    0.12361E+06        -0.60567E+08         0.00000E+00
    0.00000E+00         0.00000E+00        -0.60253E+08
 
   -0.60074E+08         0.15419E+06         0.00000E+00
    0.15419E+06        -0.60555E+08         0.00000E+00
    0.00000E+00         0.00000E+00        -0.60313E+08
 
   -0.60226E+08         0.14988E+06         0.00000E+00
    0.14988E+06        -0.60522E+08         0.00000E+00
    0.00000E+00         0.00000E+00        -0.60373E+08
 
   -0.60376E+08         0.95520E+05         0.00000E+00
    0.95520E+05        -0.60476E+08         0.00000E+00
    0.00000E+00         0.00000E+00        -0.60425E+08
 
   -0.58829E+08         0.12307E+05         0.00000E+00
    0.12307E+05        -0.60002E+08         0.00000E+00
    0.00000E+00         0.00000E+00        -0.59426E+08
 
   -0.59058E+08         0.13093E+05         0.00000E+00
    0.13093E+05        -0.60014E+08         0.00000E+00
    0.00000E+00         0.00000E+00        -0.59537E+08
 
   -0.59271E+08        -0.17210E+05         0.00000E+00
   -0.17210E+05        -0.60046E+08         0.00000E+00
    0.00000E+00         0.00000E+00        -0.59661E+08
 
   -0.59431E+08        -0.65024E+05         0.00000E+00
   -0.65024E+05        -0.60102E+08         0.00000E+00
    0.00000E+00         0.00000E+00        -0.59769E+08
 
   -0.59539E+08        -0.11336E+06         0.00000E+00
   -0.11336E+06        -0.60182E+08         0.00000E+00
    0.00000E+00         0.00000E+00        -0.59862E+08
 
   -0.59602E+08        -0.14792E+06         0.00000E+00
   -0.14792E+06        -0.60278E+08         0.00000E+00
    0.00000E+00         0.00000E+00        -0.59941E+08
 
   -0.59634E+08        -0.15938E+06         0.00000E+00
   -0.15938E+06        -0.60383E+08         0.00000E+00
    0.00000E+00         0.00000E+00        -0.60009E+08
 
   -0.59651E+08        -0.14367E+06         0.00000E+00
   -0.14367E+06        -0.60487E+08         0.00000E+00
    0.00000E+00         0.00000E+00        -0.60069E+08
 
   -0.59670E+08        -0.10119E+06         0.00000E+00
   -0.10119E+06        -0.60582E+08         0.00000E+00
    0.00000E+00         0.00000E+00        -0.60125E+08
 
   -0.59707E+08        -0.36322E+05         0.00000E+00
   -0.36322E+05        -0.60660E+08         0.00000E+00
    0.00000E+00         0.00000E+00        -0.60181E+08
 
   -0.59776E+08         0.42347E+05         0.00000E+00
    0.42347E+05        -0.60712E+08         0.00000E+00
    0.00000E+00         0.00000E+00        -0.60241E+08
 
   -0.59887E+08         0.12123E+06         0.00000E+00
    0.12123E+06        -0.60733E+08         0.00000E+00
    0.00000E+00         0.00000E+00        -0.60307E+08
 
   -0.60045E+08         0.18149E+06         0.00000E+00
    0.18149E+06        -0.60720E+08         0.00000E+00
    0.00000E+00         0.00000E+00        -0.60380E+08
 
   -0.60245E+08         0.20009E+06         0.00000E+00
    0.20009E+06        -0.60675E+08         0.00000E+00
    0.00000E+00         0.00000E+00        -0.60459E+08
 
   -0.60460E+08         0.15427E+06         0.00000E+00
    0.15427E+06        -0.60609E+08         0.00000E+00
    0.00000E+00         0.00000E+00        -0.60532E+08
 
   -0.58817E+08         0.77200E+04         0.00000E+00
    0.77200E+04        -0.60002E+08         0.00000E+00
    0.00000E+00         0.00000E+00        -0.59422E+08
 
   -0.59085E+08        -0.92742E+04         0.00000E+00
   -0.92742E+04        -0.60016E+08         0.00000E+00
    0.00000E+00         0.00000E+00        -0.59552E+08
 
   -0.59327E+08        -0.66846E+05         0.00000E+00
   -0.66846E+05        -0.60057E+08         0.00000E+00
    0.00000E+00         0.00000E+00        -0.59695E+08
 
   -0.59495E+08        -0.14379E+06         0.00000E+00
   -0.14379E+06        -0.60130E+08         0.00000E+00
    0.00000E+00         0.00000E+00        -0.59815E+08
 
   -0.59591E+08        -0.21551E+06         0.00000E+00
   -0.21551E+06        -0.60234E+08         0.00000E+00
    0.00000E+00         0.00000E+00        -0.59914E+08
 
   -0.59630E+08        -0.26358E+06         0.00000E+00
   -0.26358E+06        -0.60356E+08         0.00000E+00
    0.00000E+00         0.00000E+00        -0.59994E+08
 
   -0.59631E+08        -0.27808E+06         0.00000E+00
   -0.27808E+06        -0.60486E+08         0.00000E+00
    0.00000E+00         0.00000E+00        -0.60059E+08
 
   -0.59617E+08        -0.25605E+06         0.00000E+00
   -0.25605E+06        -0.60613E+08         0.00000E+00
    0.00000E+00         0.00000E+00        -0.60114E+08
 
   -0.59606E+08        -0.19895E+06         0.00000E+00
   -0.19895E+06        -0.60728E+08         0.00000E+00
    0.00000E+00         0.00000E+00        -0.60166E+08
 
   -0.59620E+08        -0.11138E+06         0.00000E+00
   -0.11138E+06        -0.60824E+08         0.00000E+00
    0.00000E+00         0.00000E+00        -0.60220E+08
 
   -0.59677E+08        -0.18565E+04         0.00000E+00
   -0.18565E+04        -0.60892E+08         0.00000E+00
    0.00000E+00         0.00000E+00        -0.60282E+08
 
   -0.59794E+08         0.11487E+06         0.00000E+00
    0.11487E+06        -0.60922E+08         0.00000E+00
    0.00000E+00         0.00000E+00        -0.60355E+08
 
   -0.59983E+08         0.21563E+06         0.00000E+00
    0.21563E+06        -0.60908E+08         0.00000E+00
    0.00000E+00         0.00000E+00        -0.60442E+08
 
   -0.60243E+08         0.26874E+06         0.00000E+00
    0.26874E+06        -0.60849E+08         0.00000E+00
    0.00000E+00         0.00000E+00        -0.60544E+08
 
   -0.60540E+08         0.24039E+06         0.00000E+00
    0.24039E+06        -0.60758E+08         0.00000E+00
    0.00000E+00         0.00000E+00        -0.60645E+08
 
   -0.58819E+08         0.31752E+04         0.00000E+00
    0.31752E+04        -0.60003E+08         0.00000E+00
    0.00000E+00         0.00000E+00        -0.59426E+08
 
   -0.59140E+08        -0.37094E+05         0.00000E+00
   -0.37094E+05        -0.60020E+08         0.00000E+00
    0.00000E+00         0.00000E+00        -0.59582E+08
 
   -0.59418E+08        -0.13230E+06         0.00000E+00
   -0.13230E+06        -0.60073E+08         0.00000E+00
    0.00000E+00         0.00000E+00        -0.59749E+08
 
   -0.59590E+08        -0.24767E+06         0.00000E+00
   -0.24767E+06        -0.60171E+08         0.00000E+00
    0.00000E+00         0.00000E+00        -0.59883E+08
 
   -0.59663E+08        -0.34629E+06         0.00000E+00
   -0.34629E+06        -0.60305E+08         0.00000E+00
    0.00000E+00         0.00000E+00        -0.59986E+08
 
   -0.59665E+08        -0.40620E+06         0.00000E+00
   -0.40620E+06        -0.60457E+08         0.00000E+00
    0.00000E+00         0.00000E+00        -0.60061E+08
 
   -0.59625E+08        -0.41988E+06         0.00000E+00
   -0.41988E+06        -0.60611E+08         0.00000E+00
    0.00000E+00         0.00000E+00        -0.60117E+08
 
   -0.59570E+08        -0.38823E+06         0.00000E+00
   -0.38823E+06        -0.60757E+08         0.00000E+00
    0.00000E+00         0.00000E+00        -0.60163E+08
 
   -0.59523E+08        -0.31484E+06         0.00000E+00
   -0.31484E+06        -0.60889E+08         0.00000E+00
    0.00000E+00         0.00000E+00        -0.60204E+08
 
   -0.59506E+08        -0.20364E+06         0.00000E+00
   -0.20364E+06        -0.61001E+08         0.00000E+00
    0.00000E+00         0.00000E+00        -0.60251E+08
 
   -0.59542E+08        -0.60588E+05         0.00000E+00
   -0.60588E+05        -0.61084E+08         0.00000E+00
    0.00000E+00         0.00000E+00        -0.60310E+08
 
   -0.59657E+08         0.10132E+06         0.00000E+00
    0.10132E+06        -0.61128E+08         0.00000E+00
    0.00000E+00         0.00000E+00        -0.60388E+08
 
   -0.59874E+08         0.25589E+06         0.00000E+00
    0.25589E+06        -0.61117E+08         0.00000E+00
    0.00000E+00         0.00000E+00        -0.60490E+08
 
   -0.60205E+08         0.36025E+06         0.00000E+00
    0.36025E+06        -0.61043E+08         0.00000E+00
    0.00000E+00         0.00000E+00        -0.60621E+08
 
   -0.60610E+08         0.36307E+06         0.00000E+00
    0.36307E+06        -0.60918E+08         0.00000E+00
    0.00000E+00         0.00000E+00        -0.60758E+08
 
   -0.58834E+08        -0.88288E+03         0.00000E+00
   -0.88288E+03        -0.60000E+08         0.00000E+00
    0.00000E+00         0.00000E+00        -0.59432E+08
 
   -0.59234E+08        -0.72310E+05         0.00000E+00
   -0.72310E+05        -0.60020E+08         0.00000E+00
    0.00000E+00         0.00000E+00        -0.59629E+08
 
   -0.59557E+08        -0.22373E+06         0.00000E+00
   -0.22373E+06        -0.60098E+08         0.00000E+00
    0.00000E+00         0.00000E+00        -0.59831E+08
 
   -0.59720E+08        -0.38800E+06         0.00000E+00
   -0.38800E+06        -0.60237E+08         0.00000E+00
    0.00000E+00         0.00000E+00        -0.59980E+08
 
   -0.59751E+08        -0.51208E+06         0.00000E+00
   -0.51208E+06        -0.60413E+08         0.00000E+00
    0.00000E+00         0.00000E+00        -0.60081E+08
 
   -0.59700E+08        -0.57502E+06         0.00000E+00
   -0.57502E+06        -0.60596E+08         0.00000E+00
    0.00000E+00         0.00000E+00        -0.60146E+08
 
   -0.59609E+08        -0.57847E+06         0.00000E+00
   -0.57847E+06        -0.60767E+08         0.00000E+00
    0.00000E+00         0.00000E+00        -0.60185E+08
 
   -0.59509E+08        -0.53181E+06         0.00000E+00
   -0.53181E+06        -0.60920E+08         0.00000E+00
    0.00000E+00         0.00000E+00        -0.60212E+08
 
   -0.59422E+08        -0.44198E+06         0.00000E+00
   -0.44198E+06        -0.61055E+08         0.00000E+00
    0.00000E+00         0.00000E+00        -0.60236E+08
 
   -0.59365E+08        -0.31061E+06         0.00000E+00
   -0.31061E+06        -0.61176E+08         0.00000E+00
    0.00000E+00         0.00000E+00        -0.60268E+08
 
   -0.59367E+08        -0.13689E+06         0.00000E+00
   -0.13689E+06        -0.61275E+08         0.00000E+00
    0.00000E+00         0.00000E+00        -0.60317E+08
 
   -0.59464E+08         0.74043E+05         0.00000E+00
    0.74043E+05        -0.61338E+08         0.00000E+00
    0.00000E+00         0.00000E+00        -0.60394E+08
 
   -0.59699E+08         0.29764E+06         0.00000E+00
    0.29764E+06        -0.61338E+08         0.00000E+00
    0.00000E+00         0.00000E+00        -0.60510E+08
 
   -0.60111E+08         0.47778E+06         0.00000E+00
    0.47778E+06        -0.61253E+08         0.00000E+00
    0.00000E+00         0.00000E+00        -0.60676E+08
 
   -0.60657E+08         0.53399E+06         0.00000E+00
    0.53399E+06        -0.61086E+08         0.00000E+00
    0.00000E+00         0.00000E+00        -0.60862E+08
 
   -0.58867E+08        -0.47785E+03         0.00000E+00
   -0.47785E+03        -0.59999E+08         0.00000E+00
    0.00000E+00         0.00000E+00        -0.59463E+08
 
   -0.59391E+08        -0.13146E+06         0.00000E+00
   -0.13146E+06        -0.60044E+08         0.00000E+00
    0.00000E+00         0.00000E+00        -0.59726E+08
 
   -0.59761E+08        -0.36387E+06         0.00000E+00
   -0.36387E+06        -0.60173E+08         0.00000E+00
    0.00000E+00         0.00000E+00        -0.59978E+08
 
   -0.59886E+08        -0.58319E+06         0.00000E+00
   -0.58319E+06        -0.60377E+08         0.00000E+00
    0.00000E+00         0.00000E+00        -0.60138E+08
 
   -0.59843E+08        -0.71795E+06         0.00000E+00
   -0.71795E+06        -0.60607E+08         0.00000E+00
    0.00000E+00         0.00000E+00        -0.60226E+08
 
   -0.59719E+08        -0.76114E+06         0.00000E+00
   -0.76114E+06        -0.60813E+08         0.00000E+00
    0.00000E+00         0.00000E+00        -0.60266E+08
 
   -0.59573E+08        -0.73708E+06         0.00000E+00
   -0.73708E+06        -0.60980E+08         0.00000E+00
    0.00000E+00         0.00000E+00        -0.60278E+08
 
   -0.59431E+08        -0.66828E+06         0.00000E+00
   -0.66828E+06        -0.61116E+08         0.00000E+00
    0.00000E+00         0.00000E+00        -0.60276E+08
 
   -0.59306E+08        -0.56476E+06         0.00000E+00
   -0.56476E+06        -0.61233E+08         0.00000E+00
    0.00000E+00         0.00000E+00        -0.60272E+08
 
   -0.59207E+08        -0.42379E+06         0.00000E+00
   -0.42379E+06        -0.61344E+08         0.00000E+00
    0.00000E+00         0.00000E+00        -0.60279E+08
 
   -0.59159E+08        -0.23279E+06         0.00000E+00
   -0.23279E+06        -0.61452E+08         0.00000E+00
    0.00000E+00         0.00000E+00        -0.60308E+08
 
   -0.59209E+08         0.21343E+05         0.00000E+00
    0.21343E+05        -0.61541E+08         0.00000E+00
    0.00000E+00         0.00000E+00        -0.60374E+08
 
   -0.59436E+08         0.32884E+06         0.00000E+00
    0.32884E+06        -0.61569E+08         0.00000E+00
    0.00000E+00         0.00000E+00        -0.60496E+08
 
   -0.59927E+08         0.62153E+06         0.00000E+00
    0.62153E+06        -0.61481E+08         0.00000E+00
    0.00000E+00         0.00000E+00        -0.60698E+08
 
   -0.60657E+08         0.77107E+06         0.00000E+00
    0.77107E+06        -0.61262E+08         0.00000E+00
    0.00000E+00         0.00000E+00        -0.60945E+08
 
   -0.58937E+08        -0.17533E+05         0.00000E+00
   -0.17533E+05        -0.60024E+08         0.00000E+00
    0.00000E+00         0.00000E+00        -0.59532E+08
 
   -0.59645E+08        -0.23698E+06         0.00000E+00
   -0.23698E+06        -0.60094E+08         0.00000E+00
    0.00000E+00         0.00000E+00        -0.59875E+08
 
   -0.60049E+08        -0.59119E+06         0.00000E+00
   -0.59119E+06        -0.60305E+08         0.00000E+00
    0.00000E+00         0.00000E+00        -0.60182E+08
 
   -0.60070E+08        -0.85952E+06         0.00000E+00
   -0.85952E+06        -0.60624E+08         0.00000E+00
    0.00000E+00         0.00000E+00        -0.60339E+08
 
   -0.59901E+08        -0.95630E+06         0.00000E+00
   -0.95630E+06        -0.60910E+08         0.00000E+00
    0.00000E+00         0.00000E+00        -0.60393E+08
 
   -0.59696E+08        -0.93683E+06         0.00000E+00
   -0.93683E+06        -0.61106E+08         0.00000E+00
    0.00000E+00         0.00000E+00        -0.60391E+08
 
   -0.59505E+08        -0.86280E+06         0.00000E+00
   -0.86280E+06        -0.61228E+08         0.00000E+00
    0.00000E+00         0.00000E+00        -0.60359E+08
 
   -0.59336E+08        -0.76611E+06         0.00000E+00
   -0.76611E+06        -0.61306E+08         0.00000E+00
    0.00000E+00         0.00000E+00        -0.60316E+08
 
   -0.59185E+08        -0.65581E+06         0.00000E+00
   -0.65581E+06        -0.61368E+08         0.00000E+00
    0.00000E+00         0.00000E+00        -0.60273E+08
 
   -0.59049E+08        -0.52348E+06         0.00000E+00
   -0.52348E+06        -0.61440E+08         0.00000E+00
    0.00000E+00         0.00000E+00        -0.60242E+08
 
   -0.58938E+08        -0.34397E+06         0.00000E+00
   -0.34397E+06        -0.61537E+08         0.00000E+00
    0.00000E+00         0.00000E+00        -0.60236E+08
 
   -0.58900E+08        -0.74875E+05         0.00000E+00
   -0.74875E+05        -0.61657E+08         0.00000E+00
    0.00000E+00         0.00000E+00        -0.60273E+08
 
   -0.59053E+08         0.31986E+06         0.00000E+00
    0.31986E+06        -0.61748E+08         0.00000E+00
    0.00000E+00         0.00000E+00        -0.60385E+08
 
   -0.59595E+08         0.78551E+06         0.00000E+00
    0.78551E+06        -0.61696E+08         0.00000E+00
    0.00000E+00         0.00000E+00        -0.60627E+08
 
   -0.60568E+08         0.11003E+07         0.00000E+00
    0.11003E+07        -0.61420E+08         0.00000E+00
    0.00000E+00         0.00000E+00        -0.60966E+08
 
   -0.59066E+08        -0.22240E+05         0.00000E+00
   -0.22240E+05        -0.59941E+08         0.00000E+00
    0.00000E+00         0.00000E+00        -0.59473E+08
 
   -0.60093E+08        -0.44397E+06         0.00000E+00
   -0.44397E+06        -0.60089E+08         0.00000E+00
    0.00000E+00         0.00000E+00        -0.60078E+08
 
   -0.60432E+08        -0.10235E+07         0.00000E+00
   -0.10235E+07        -0.60621E+08         0.00000E+00
    0.00000E+00         0.00000E+00        -0.60486E+08
 
   -0.60187E+08        -0.12287E+07         0.00000E+00
   -0.12287E+07        -0.61125E+08         0.00000E+00
    0.00000E+00         0.00000E+00        -0.60606E+08
 
   -0.59862E+08        -0.11748E+07         0.00000E+00
   -0.11748E+07        -0.61396E+08         0.00000E+00
    0.00000E+00         0.00000E+00        -0.60587E+08
 
   -0.59599E+08        -0.10430E+07         0.00000E+00
   -0.10430E+07        -0.61497E+08         0.00000E+00
    0.00000E+00         0.00000E+00        -0.60513E+08
 
   -0.59395E+08        -0.90513E+06         0.00000E+00
   -0.90513E+06        -0.61506E+08         0.00000E+00
    0.00000E+00         0.00000E+00        -0.60420E+08
 
   -0.59228E+08        -0.78326E+06         0.00000E+00
   -0.78326E+06        -0.61475E+08         0.00000E+00
    0.00000E+00         0.00000E+00        -0.60324E+08
 
   -0.59075E+08        -0.67738E+06         0.00000E+00
   -0.67738E+06        -0.61441E+08         0.00000E+00
    0.00000E+00         0.00000E+00        -0.60233E+08
 
   -0.58918E+08        -0.57431E+06         0.00000E+00
   -0.57431E+06        -0.61432E+08         0.00000E+00
    0.00000E+00         0.00000E+00        -0.60152E+08
 
   -0.58748E+08        -0.44428E+06         0.00000E+00
   -0.44428E+06        -0.61473E+08         0.00000E+00
    0.00000E+00         0.00000E+00        -0.60090E+08
 
   -0.58581E+08        -0.22631E+06         0.00000E+00
   -0.22631E+06        -0.61592E+08         0.00000E+00
    0.00000E+00         0.00000E+00        -0.60068E+08
 
   -0.58537E+08         0.19961E+06         0.00000E+00
    0.19961E+06        -0.61783E+08         0.00000E+00
    0.00000E+00         0.00000E+00        -0.60128E+08
 
   -0.59002E+08         0.90431E+06         0.00000E+00
    0.90431E+06        -0.61880E+08         0.00000E+00
    0.00000E+00         0.00000E+00        -0.60395E+08
 
   -0.60319E+08         0.15567E+07         0.00000E+00
    0.15567E+07        -0.61593E+08         0.00000E+00
    0.00000E+00         0.00000E+00        -0.60904E+08
 
   -0.59435E+08        -0.32271E+03         0.00000E+00
   -0.32271E+03        -0.60017E+08         0.00000E+00
    0.00000E+00         0.00000E+00        -0.60250E+08
 
   -0.60933E+08        -0.13010E+07         0.00000E+00
   -0.13010E+07        -0.61126E+08         0.00000E+00
    0.00000E+00         0.00000E+00        -0.61203E+08
 
   -0.60659E+08        -0.17508E+07         0.00000E+00
   -0.17508E+07        -0.62220E+08         0.00000E+00
    0.00000E+00         0.00000E+00        -0.61561E+08
 
   -0.60056E+08        -0.15262E+07         0.00000E+00
   -0.15262E+07        -0.62588E+08         0.00000E+00
    0.00000E+00         0.00000E+00        -0.61473E+08
 
   -0.59668E+08        -0.12290E+07         0.00000E+00
   -0.12290E+07        -0.62581E+08         0.00000E+00
    0.00000E+00         0.00000E+00        -0.61286E+08
 
   -0.59422E+08        -0.98468E+06         0.00000E+00
   -0.98468E+06        -0.62436E+08         0.00000E+00
    0.00000E+00         0.00000E+00        -0.61096E+08
 
   -0.59253E+08        -0.80492E+06         0.00000E+00
   -0.80492E+06        -0.62251E+08         0.00000E+00
    0.00000E+00         0.00000E+00        -0.60920E+08
 
   -0.59118E+08        -0.67799E+06         0.00000E+00
   -0.67799E+06        -0.62067E+08         0.00000E+00
    0.00000E+00         0.00000E+00        -0.60761E+08
 
   -0.58987E+08        -0.59004E+06         0.00000E+00
   -0.59004E+06        -0.61902E+08         0.00000E+00
    0.00000E+00         0.00000E+00        -0.60612E+08
 
   -0.58834E+08        -0.52671E+06         0.00000E+00
   -0.52671E+06        -0.61768E+08         0.00000E+00
    0.00000E+00         0.00000E+00        -0.60469E+08
 
   -0.58631E+08        -0.46655E+06         0.00000E+00
   -0.46655E+06        -0.61684E+08         0.00000E+00
    0.00000E+00         0.00000E+00        -0.60327E+08
 
   -0.58351E+08        -0.36111E+06         0.00000E+00
   -0.36111E+06        -0.61688E+08         0.00000E+00
    0.00000E+00         0.00000E+00        -0.60190E+08
 
   -0.57987E+08        -0.76827E+05         0.00000E+00
   -0.76827E+05        -0.61849E+08         0.00000E+00
    0.00000E+00         0.00000E+00        -0.60088E+08
 
   -0.57975E+08         0.79057E+06         0.00000E+00
    0.79057E+06        -0.62171E+08         0.00000E+00
    0.00000E+00         0.00000E+00        -0.60175E+08
 
   -0.59598E+08         0.22577E+07         0.00000E+00
    0.22577E+07        -0.61909E+08         0.00000E+00
    0.00000E+00         0.00000E+00        -0.60666E+08
 
   -0.61073E+08        -0.16216E+07         0.00000E+00
   -0.16216E+07        -0.62586E+08         0.00000E+00
    0.00000E+00         0.00000E+00        -0.62741E+08
 
   -0.61421E+08        -0.28707E+07         0.00000E+00
   -0.28707E+07        -0.64320E+08         0.00000E+00
    0.00000E+00         0.00000E+00        -0.62597E+08
 
   -0.60178E+08        -0.19576E+07         0.00000E+00
   -0.19576E+07        -0.64202E+08         0.00000E+00
    0.00000E+00         0.00000E+00        -0.62131E+08
 
   -0.59650E+08        -0.13029E+07         0.00000E+00
   -0.13029E+07        -0.63592E+08         0.00000E+00
    0.00000E+00         0.00000E+00        -0.61579E+08
 
   -0.59373E+08        -0.91220E+06         0.00000E+00
   -0.91220E+06        -0.63008E+08         0.00000E+00
    0.00000E+00         0.00000E+00        -0.61147E+08
 
   -0.59220E+08        -0.67353E+06         0.00000E+00
   -0.67353E+06        -0.62520E+08         0.00000E+00
    0.00000E+00         0.00000E+00        -0.60823E+08
 
   -0.59117E+08        -0.52456E+06         0.00000E+00
   -0.52456E+06        -0.62120E+08         0.00000E+00
    0.00000E+00         0.00000E+00        -0.60568E+08
 
   -0.59028E+08        -0.43078E+06         0.00000E+00
   -0.43078E+06        -0.61784E+08         0.00000E+00
    0.00000E+00         0.00000E+00        -0.60352E+08
 
   -0.58929E+08        -0.37349E+06         0.00000E+00
   -0.37349E+06        -0.61494E+08         0.00000E+00
    0.00000E+00         0.00000E+00        -0.60155E+08
 
   -0.58795E+08        -0.34162E+06         0.00000E+00
   -0.34162E+06        -0.61232E+08         0.00000E+00
    0.00000E+00         0.00000E+00        -0.59955E+08
 
   -0.58590E+08        -0.32554E+06         0.00000E+00
   -0.32554E+06        -0.60992E+08         0.00000E+00
    0.00000E+00         0.00000E+00        -0.59731E+08
 
   -0.58250E+08        -0.30475E+06         0.00000E+00
   -0.30475E+06        -0.60778E+08         0.00000E+00
    0.00000E+00         0.00000E+00        -0.59456E+08
 
   -0.57666E+08        -0.21214E+06         0.00000E+00
   -0.21214E+06        -0.60634E+08         0.00000E+00
    0.00000E+00         0.00000E+00        -0.59098E+08
 
   -0.56572E+08         0.30306E+06         0.00000E+00
    0.30306E+06        -0.60745E+08         0.00000E+00
    0.00000E+00         0.00000E+00        -0.58666E+08
 
   -0.56979E+08         0.31931E+07         0.00000E+00
    0.31931E+07        -0.60817E+08         0.00000E+00
    0.00000E+00         0.00000E+00        -0.58275E+08
 
   -0.64175E+08        -0.39575E+07         0.00000E+00
   -0.39575E+07        -0.57434E+08         0.00000E+00
    0.00000E+00         0.00000E+00        -0.50078E+08
 
   -0.60022E+08        -0.16178E+07         0.00000E+00
   -0.16178E+07        -0.54284E+08         0.00000E+00
    0.00000E+00         0.00000E+00        -0.49393E+08
 
   -0.59536E+08        -0.72669E+06         0.00000E+00
   -0.72669E+06        -0.52246E+08         0.00000E+00
    0.00000E+00         0.00000E+00        -0.48811E+08
 
   -0.59291E+08        -0.42130E+06         0.00000E+00
   -0.42130E+06        -0.51079E+08         0.00000E+00
    0.00000E+00         0.00000E+00        -0.48392E+08
 
   -0.59169E+08        -0.27311E+06         0.00000E+00
   -0.27311E+06        -0.50339E+08         0.00000E+00
    0.00000E+00         0.00000E+00        -0.48112E+08
 
   -0.59097E+08        -0.19351E+06         0.00000E+00
   -0.19351E+06        -0.49828E+08         0.00000E+00
    0.00000E+00         0.00000E+00        -0.47920E+08
 
   -0.59040E+08        -0.14606E+06         0.00000E+00
   -0.14606E+06        -0.49452E+08         0.00000E+00
    0.00000E+00         0.00000E+00        -0.47776E+08
 
   -0.58980E+08        -0.11651E+06         0.00000E+00
   -0.11651E+06        -0.49156E+08         0.00000E+00
    0.00000E+00         0.00000E+00        -0.47658E+08
 
   -0.58900E+08        -0.97589E+05         0.00000E+00
   -0.97589E+05        -0.48911E+08         0.00000E+00
    0.00000E+00         0.00000E+00        -0.47549E+08
 
   -0.58778E+08        -0.85137E+05         0.00000E+00
   -0.85137E+05        -0.48696E+08         0.00000E+00
    0.00000E+00         0.00000E+00        -0.47438E+08
 
   -0.58577E+08        -0.75269E+05         0.00000E+00
   -0.75269E+05        -0.48498E+08         0.00000E+00
    0.00000E+00         0.00000E+00        -0.47310E+08
 
   -0.58219E+08        -0.61449E+05         0.00000E+00
   -0.61449E+05        -0.48315E+08         0.00000E+00
    0.00000E+00         0.00000E+00        -0.47140E+08
 
   -0.57515E+08        -0.15872E+05         0.00000E+00
   -0.15872E+05        -0.48171E+08         0.00000E+00
    0.00000E+00         0.00000E+00        -0.46893E+08
 
   -0.55948E+08         0.12082E+06         0.00000E+00
    0.12082E+06        -0.48213E+08         0.00000E+00
    0.00000E+00         0.00000E+00        -0.46510E+08
 
   -0.50227E+08         0.19407E+07         0.00000E+00
    0.19407E+07        -0.49782E+08         0.00000E+00
    0.00000E+00         0.00000E+00        -0.45938E+08
 
SCALARS stresss double 
LOOKUP_TABLE default
  -59751333.0140886     
  -59754885.8104749     
  -59760171.7645570     
  -59766736.0179900     
  -59774302.0030807     
  -59782570.0607329     
  -59791245.7926038     
  -59800061.6437235     
  -59808782.4353262     
  -59817212.7053761     
  -59825206.5691916     
  -59832666.1990728     
  -59839562.2723002     
  -59846037.1265469     
  -59851870.8002122     
  -59748995.2617924     
  -59752519.9867511     
  -59758045.2471419     
  -59764908.0962707     
  -59772781.2593271     
  -59781342.9260285     
  -59790287.5674118     
  -59799339.3569314     
  -59808256.0059517     
  -59816835.0893310     
  -59824922.7107554     
  -59832412.0379781     
  -59839257.3612799     
  -59845558.8713959     
  -59850967.2703868     
  -59745093.0742653     
  -59749156.5985541     
  -59755291.6490387     
  -59762796.6446838     
  -59771302.0217961     
  -59780461.9221490     
  -59789952.3995849     
  -59799483.0856881     
  -59808798.3861847     
  -59817682.6391931     
  -59825967.4109037     
  -59833529.9269610     
  -59840303.2013507     
  -59846336.4964761     
  -59851349.3442282     
  -59739034.8123719     
  -59744084.5905052     
  -59751284.7830003     
  -59759812.8897016     
  -59769300.3625218     
  -59779380.6838249     
  -59789708.3386710     
  -59799974.0734354     
  -59809903.9843780     
  -59819263.8853840     
  -59827865.5755233     
  -59835565.9788824     
  -59842275.8580634     
  -59848021.9551107     
  -59852581.5057146     
  -59730816.8522520     
  -59737198.0982262     
  -59745885.5711681     
  -59755838.4064993     
  -59766680.2410673     
  -59778023.8524843     
  -59789498.9862842     
  -59800774.1352035     
  -59811553.0663130     
  -59821578.5943423     
  -59830637.9543886     
  -59838563.2140970     
  -59845240.9527966     
  -59850664.6421135     
  -59854661.2328346     
  -59720454.0667608     
  -59728557.6829560     
  -59739170.0268123     
  -59750969.2927212     
  -59763561.7700790     
  -59776534.8348492     
  -59789490.1838842     
  -59802071.3498668     
  -59813956.6525675     
  -59824862.0924164     
  -59834545.4817917     
  -59842808.3899945     
  -59849504.7260113     
  -59854576.9173089     
  -59857898.8449997     
  -59707908.4877426     
  -59718183.2823641     
  -59731206.6102888     
  -59745307.1783305     
  -59760075.0908642     
  -59775070.0534880     
  -59789863.4888704     
  -59804072.6117903     
  -59817348.3875536     
  -59829377.0498366     
  -59839882.4087298     
  -59848628.9314095     
  -59855428.2485275     
  -59860155.9172254     
  -59862731.3121857     
  -59693163.1704541     
  -59706108.1811095     
  -59722076.4773547     
  -59738971.3475162     
  -59756370.9486810     
  -59773808.1526698     
  -59790824.0783018     
  -59807010.2886587     
  -59821990.2890999     
  -59835418.9956826     
  -59846982.4439551     
  -59856401.4890985     
  -59863435.5739795     
  -59867878.3392300     
  -59869687.5167281     
  -59676234.9584199     
  -59692404.7262562     
  -59711902.2048837     
  -59732123.3311518     
  -59752642.4389180     
  -59772969.5270363     
  -59792618.2154238     
  -59811157.8614720     
  -59828186.9564263     
  -59843329.6900895     
  -59856232.0828352     
  -59866565.4393909     
  -59874026.7194130     
  -59878311.8844110     
  -59879401.1978670     
  -59657185.7502425     
  -59677190.3249033     
  -59700850.9142458     
  -59724967.3755333     
  -59749122.5385591     
  -59772811.0154902     
  -59795525.1894941     
  -59816819.2859906     
  -59836272.7511364     
  -59853482.7851748     
  -59868055.6093649     
  -59879608.2729831     
  -59887764.8006409     
  -59892107.2543299     
  -59892611.2952933     
  -59636143.0571235     
  -59660644.1711995     
  -59689146.6403581     
  -59717759.2030711     
  -59746089.3876532     
  -59773627.6305289     
  -59799855.4172537     
  -59824323.5405821     
  -59846603.1567490     
  -59866272.7265991     
  -59882902.6536996     
  -59896053.2560220     
  -59905265.5782000     
  -59909991.5380946     
  -59910160.5004031     
  -59613318.2011776     
  -59643023.0093873     
  -59677083.4515053     
  -59710816.0899162     
  -59743872.8324784     
  -59775754.9563342     
  -59805948.2013508     
  -59834017.5483108     
  -59859543.1176873     
  -59882099.3057583     
  -59901230.3259960     
  -59916441.0463241     
  -59927180.9051915     
  -59932756.3750587     
  -59932990.4354893     
  -59589025.1772093     
  -59624676.9069748     
  -59665038.4848525     
  -59704527.0864683     
  -59742860.9238021     
  -59779570.7438972     
  -59814167.3619165     
  -59846255.2305236     
  -59875449.5697031     
  -59901344.5154297     
  -59923476.0833317     
  -59941301.0314684     
  -59954171.6698367     
  -59961236.2963836     
  -59962128.4067148     
  -59563696.5999583     
  -59606064.0008649     
  -59653486.0226738     
  -59699365.6430725     
  -59743509.1462764     
  -59785498.4479920     
  -59824897.0697123     
  -59861384.3532301     
  -59894649.0164640     
  -59924341.7117098     
  -59950020.5070668     
  -59971110.8525209     
  -59986868.1237071     
  -59996274.8215801     
  -59998663.4016311     
  -59537896.5033298     
  -59587766.6045077     
  -59643016.7628333     
  -59695909.4464876     
  -59746357.1539443     
  -59794016.9551135     
  -59838541.2737893     
  -59879733.4926793     
  -59917411.3061717     
  -59951337.0379844     
  -59981138.8036300     
  -60006241.8666986     
  -60025814.4203968     
  -60038674.2569985     
  -60043706.3400990     
  -59512322.2206684     
  -59570498.7604253     
  -59634352.7414592     
  -59694859.4710696     
  -59752045.7270480     
  -59805669.0410186     
  -59855518.3320213     
  -59901589.3984506     
  -59943908.3798761     
  -59982430.3707810     
  -60016926.9693532     
  -60046875.7330476     
  -60071382.7869970     
  -60089116.3735081     
  -60098324.9655977     
  -59487794.6083521     
  -59555125.5683554     
  -59628391.2973332     
  -59697095.1501994     
  -59761370.7815468     
  -59821103.3997691     
  -59876283.3085709     
  -59927194.8058303     
  -59974185.6635072     
  -60017520.9728683     
  -60057225.0260953     
  -60092911.2155303     
  -60123672.1883896     
  -60148063.1470206     
  -60163455.5941675     
  -59465245.9244135     
  -59542671.5159048     
  -59626234.9175159     
  -59703716.8507347     
  -59775322.3654572     
  -59841096.0846020     
  -59901321.3805975     
  -59956707.8345592     
  -60008085.0569260     
  -60056194.7799848     
  -60101472.8955172     
  -60143797.2172109     
  -60182331.8754234     
  -60215587.1787857     
  -60239753.2932899     
  -59445622.8471855     
  -59534324.5521020     
  -59629284.7668021     
  -59716178.5593142     
  -59795217.1708831     
  -59866655.6202042     
  -59931211.4167574     
  -59990217.8087743     
  -60045210.6875265     
  -60097639.9320036     
  -60148578.5338564     
  -60198362.1840124     
  -60246367.7229868     
  -60291179.3687913     
  -60327424.3065906     
  -59429967.7259738     
  -59531631.0989442     
  -59639488.7630227     
  -59736540.1989883     
  -59822917.2858857     
  -59899186.3899739     
  -59966725.3537465     
  -60027779.4250275     
  -60084897.7683351     
  -60140548.9766502     
  -60196754.1743003     
  -60254592.1391144     
  -60313882.3910714     
  -60373473.9628855     
  -60425947.9763120     
  -59419095.6399353     
  -59536230.2272318     
  -59659229.8701920     
  -59767435.7114489     
  -59860771.2164376     
  -59940352.6067415     
  -60008604.9456633     
  -60069109.6148397     
  -60125833.1106417     
  -60182656.1309011     
  -60242961.1413269     
  -60308992.5479682     
  -60381402.9539489     
  -60459651.8370519     
  -60533663.2966447     
  -59413648.2995054     
  -59551011.0792854     
  -59692979.2011511     
  -59813675.0472512     
  -59913033.2769809     
  -59993297.8001250     
  -60058632.1957839     
  -60114557.3864930     
  -60166940.6143367     
  -60221517.0744188     
  -60283537.5160671     
  -60357018.7449237     
  -60444100.6784016     
  -60545465.3773516     
  -60647642.8250286     
  -59415716.0923943     
  -59580330.7338376     
  -59746597.3849778     
  -59881256.3336435     
  -59984517.9864000     
  -60061023.1807132     
  -60117849.1343451     
  -60163261.7595890     
  -60205508.9599541     
  -60252558.5945053     
  -60312082.0369962     
  -60390743.1823029     
  -60493364.2635350     
  -60623051.3517406     
  -60762012.2301632     
  -59421910.0950666     
  -59627637.8142149     
  -59828733.4480448     
  -59979054.6184016     
  -60081722.2590354     
  -60147016.0970211     
  -60186983.2287440     
  -60213618.6772429     
  -60237758.1870382     
  -60269620.2797961     
  -60319693.2399433     
  -60398482.4372499     
  -60515692.6509614     
  -60679882.8584180     
  -60868367.5326582     
  -59443039.0307076     
  -59720222.5598906     
  -59970536.3040248     
  -60133692.7796133     
  -60225101.3001731     
  -60266248.2119146     
  -60277221.9512827     
  -60274295.0854490     
  -60270166.4626692     
  -60276387.6336315     
  -60306011.2356561     
  -60374566.0147555     
  -60500205.5028261     
  -60702406.6678165     
  -60954686.4748422     
  -59497630.0000800     
  -59871281.7222625     
  -60178910.3360975     
  -60344073.0960238     
  -60401631.5185921     
  -60397834.3287750     
  -60364021.1458241     
  -60319228.2751519     
  -60275635.8743548     
  -60243657.4072816     
  -60236900.3715691     
  -60276507.4322049     
  -60395407.2405707     
  -60639416.6541819     
  -60984454.6835982     
  -59493530.8148114     
  -60086588.3193116     
  -60512890.8191947     
  -60638917.1900417     
  -60615168.3065760     
  -60536620.5917477     
  -60440278.0419101     
  -60342436.2285971     
  -60249804.9550189     
  -60167140.6787443     
  -60103797.4700764     
  -60080200.3525477     
  -60149647.9293045     
  -60425894.4543269     
  -60938775.9181182     
  -59900653.7068864     
  -61087396.3476549     
  -61479834.1372214     
  -61372184.3387311     
  -61178534.0364383     
  -60984574.2472318     
  -60808107.8358265     
  -60648754.4747589     
  -60500579.3755864     
  -60356892.4634539     
  -60214061.4070870     
  -60076342.4003062     
  -59974809.6539399     
  -60106753.4623488     
  -60724446.7400694     
  -62133249.3929934     
  -62779120.5989174     
  -62170398.5307875     
  -61607379.1328573     
  -61175619.1294658     
  -60854570.4954023     
  -60601557.2484835     
  -60388206.6920924     
  -60192374.1183676     
  -59993838.7693665     
  -59771033.2854497     
  -59494544.5140397     
  -59132721.4127985     
  -58661002.7689313     
  -58690718.0496501     
  -57228883.6259890     
  -54566485.8799635     
  -53530903.2002415     
  -52920651.2930025     
  -52539852.9781851     
  -52281887.7263284     
  -52089320.4875095     
  -51931197.7978895     
  -51786711.6484085     
  -51637495.5603262     
  -51461786.3375384     
  -51224623.5311790     
  -50859620.8984551     
  -50223662.6550798     
  -48648880.9815742     
SCALARS 2waySource double 
LOOKUP_TABLE default
 -1.085296360015215E-003
 -1.074125172094598E-003
 -1.053671893437711E-003
 -1.026829035244605E-003
 -9.951661990490726E-004
 -9.599527448415960E-004
 -9.225176396384066E-004
 -8.840854723794055E-004
 -8.457353626231015E-004
 -8.083895409391152E-004
 -7.727613599041366E-004
 -7.393938109526027E-004
 -7.085101781344730E-004
 -6.797703913601141E-004
 -6.546095289641224E-004
 -1.095611643501987E-003
 -1.083759631111949E-003
 -1.061906648975828E-003
 -1.033564188908985E-003
 -1.000388587798857E-003
 -9.637295155058651E-004
 -9.249641144167096E-004
 -8.853527618059479E-004
 -8.460070419830342E-004
 -8.078795054200690E-004
 -7.717163104039243E-004
 -7.380876596145712E-004
 -7.072663277914342E-004
 -6.789885855839209E-004
 -6.545516329252371E-004
 -1.114116637966089E-003
 -1.100274743324887E-003
 -1.075547704017180E-003
 -1.044173948745767E-003
 -1.008039847952684E-003
 -9.685716716890007E-004
 -9.272270480691421E-004
 -8.853317765557497E-004
 -8.440542720466457E-004
 -8.044033338392059E-004
 -7.671842758317728E-004
 -7.330238144762080E-004
 -7.022713329244480E-004
 -6.747975422066138E-004
 -6.518075241085813E-004
 -1.141855002863877E-003
 -1.124339697049081E-003
 -1.094876839095655E-003
 -1.058787751989190E-003
 -1.018149605960761E-003
 -9.744315302864477E-004
 -9.291935410882379E-004
 -8.838493819871871E-004
 -8.396450554098847E-004
 -7.976685972356241E-004
 -7.588076631526388E-004
 -7.237696757035862E-004
 -6.929979519335231E-004
 -6.665022145780867E-004
 -6.453414708787277E-004
 -1.179155285970504E-003
 -1.156599682171582E-003
 -1.120538319067589E-003
 -1.077954256242872E-003
 -1.031157487044592E-003
 -9.816538172567604E-004
 -9.311221487763085E-004
 -8.810822979361351E-004
 -8.328749255574834E-004
 -7.876868606929066E-004
 -7.465095970773435E-004
 -7.101518433542996E-004
 -6.791719071094552E-004
 -6.537360485401802E-004
 -6.346835990054682E-004
 -1.225929288521044E-003
 -1.196908713266797E-003
 -1.152333115056583E-003
 -1.101362169971269E-003
 -1.046638154017755E-003
 -9.897042003197975E-004
 -9.323760822651324E-004
 -8.762943546571662E-004
 -8.229072276921838E-004
 -7.735165112142612E-004
 -7.292375937793423E-004
 -6.910031442644478E-004
 -6.595176887957266E-004
 -6.351573600369056E-004
 -6.185318697024982E-004
 -1.282369804552304E-003
 -1.245180148838366E-003
 -1.189941664286716E-003
 -1.128523980657350E-003
 -1.063964688744749E-003
 -9.978316986950116E-004
 -9.320892675022067E-004
 -8.685067704260830E-004
 -8.086468432087581E-004
 -7.539378189757520E-004
 -7.056362891383456E-004
 -6.648224853390999E-004
 -6.323827782662257E-004
 -6.089609033351397E-004
 -5.949477564062046E-004
 -1.348572878354375E-003
 -1.301320011877596E-003
 -1.233044996082962E-003
 -1.158937694716360E-003
 -1.082485133302663E-003
 -1.005253157568959E-003
 -9.293573340600895E-004
 -8.566951214733039E-004
 -7.889418642528481E-004
 -7.276569401120691E-004
 -6.742502494823377E-004
 -6.299713218937947E-004
 -5.959242721351803E-004
 -5.730761874873599E-004
 -5.616273798593219E-004
 -1.424465754480939E-003
 -1.365041465420867E-003
 -1.281123208740724E-003
 -1.191894936273160E-003
 -1.101341775050690E-003
 -1.010983097729644E-003
 -9.230773595755001E-004
 -8.396378165584948E-004
 -7.624392989152527E-004
 -6.931666245073767E-004
 -6.333869910323836E-004
 -5.845371025387906E-004
 -5.479744745655398E-004
 -5.250467556724920E-004
 -5.158293683953357E-004
 -1.509782646489659E-003
 -1.435855550520639E-003
 -1.333452426257712E-003
 -1.226489478681125E-003
 -1.119489553931885E-003
 -1.013863305815793E-003
 -9.119893017632554E-004
 -8.159692809386473E-004
 -7.276487955779967E-004
 -6.488181092897787E-004
 -5.811934071464554E-004
 -5.264092470132684E-004
 -4.861094020369344E-004
 -4.620786582819129E-004
 -4.543797973750490E-004
 -1.603963418692628E-003
 -1.513000160294942E-003
 -1.389060289429397E-003
 -1.261591491695554E-003
 -1.135687362475969E-003
 -1.012569703208934E-003
 -8.946987418023774E-004
 -7.842185776786811E-004
 -6.829960841947952E-004
 -5.928866175047406E-004
 -5.157286234210503E-004
 -4.533528976057720E-004
 -4.077156784835948E-004
 -3.810914669539986E-004
 -3.737034556254884E-004
 -1.706076604548198E-003
 -1.595356985758213E-003
 -1.446643184478811E-003
 -1.295772035970660E-003
 -1.148433779769597E-003
 -1.005564364352108E-003
 -8.696484565863853E-004
 -7.428025501043432E-004
 -6.268375793807620E-004
 -5.236049818512001E-004
 -4.350117191535182E-004
 -3.630637548517111E-004
 -3.100435397485753E-004
 -2.787590105295743E-004
 -2.698427561871506E-004
 -1.814737027361613E-003
 -1.681401174135988E-003
 -1.504545123708569E-003
 -1.327301616847899E-003
 -1.155984943177592E-003
 -9.911347221299863E-004
 -8.351834663233909E-004
 -6.901198491073217E-004
 -5.575840975806121E-004
 -4.393140335771980E-004
 -3.371917263251186E-004
 -2.533465227848224E-004
 -1.903789930558975E-004
 -1.516561947139935E-004
 -1.385655966287389E-004
 -1.928057938651808E-003
 -1.769124496144069E-003
 -1.560650506417251E-003
 -1.354028032849864E-003
 -1.156232950571980E-003
 -9.672903286310449E-004
 -7.894788705329160E-004
 -6.245187018611088E-004
 -4.737119667062786E-004
 -3.385155074135889E-004
 -2.206357280808471E-004
 -1.222274312396264E-004
 -4.616566766494337E-005
  3.627928250671525E-006
  2.455006745133659E-005
 -2.043535352620663E-003
 -1.855955583684377E-003
 -1.612332451384320E-003
 -1.373349521541507E-003
 -1.146707176222624E-003
 -9.317993699574073E-004
 -7.306237238155121E-004
 -5.444371085565268E-004
 -3.739636486132308E-004
 -2.201297142997729E-004
 -8.423285429456871E-005
  3.171327269856672E-005
  1.246568826861034E-004
  1.901735790281528E-004
  2.238367502987259E-004
 -2.158237094058173E-003
 -1.938879797033298E-003
 -1.656485164978607E-003
 -1.382157817029110E-003
 -1.124478959383772E-003
 -8.821067168148882E-004
 -6.565905254960324E-004
 -4.484484851628441E-004
 -2.574799414269314E-004
 -8.371422520969538E-005
  7.231110531063178E-005
  2.089913692645453E-004
  3.232819544846868E-004
  4.103867402677523E-004
  4.632781034024233E-004
 -2.268456178848417E-003
 -2.013908665181201E-003
 -1.688830418030186E-003
 -1.376159338042192E-003
 -1.085534626766072E-003
 -8.147909818319078E-004
 -5.647987633857854E-004
 -3.349461612266091E-004
 -1.236114331383797E-004
  7.060282959527644E-005
  2.484311892572510E-004
  4.090838839780300E-004
  5.498201845552907E-004
  6.656986594123149E-004
  7.461039916991769E-004
 -2.370456064990473E-003
 -2.077258160245926E-003
 -1.705356011343965E-003
 -1.351157472661860E-003
 -1.025977521048494E-003
 -7.267707899764300E-004
 -4.534152736010483E-004
 -2.035879900591360E-004
  2.647528622299275E-005
  2.403587750193635E-004
  4.408103953618854E-004
  6.284708192147671E-004
  8.013995325709432E-004
  9.549287799810655E-004
  1.073606513439341E-003
 -2.460463603127117E-003
 -2.123098380157146E-003
 -1.698208416855225E-003
 -1.298574346917238E-003
 -9.375472748264838E-004
 -6.110532900023002E-004
 -3.173726252546546E-004
 -5.158955652959996E-005
  1.932379593946269E-004
  4.239362687946360E-004
  6.462840278996045E-004
  8.632178401325223E-004
  1.074314893995614E-003
  1.275805059486793E-003
  1.445904452071082E-003
 -2.532388262794865E-003
 -2.145586634126478E-003
 -1.661178135006376E-003
 -1.211709783417628E-003
 -8.142518860665504E-004
 -4.635346143077374E-004
 -1.554151564950738E-004
  1.189601489256617E-004
  3.711810089324432E-004
  6.127543386807537E-004
  8.538837386879548E-004
  1.101056672746222E-003
  1.356532065049471E-003
  1.618442782436783E-003
  1.856711317826836E-003
 -2.590210266482543E-003
 -2.141438312925167E-003
 -1.583313633747563E-003
 -1.075948998549833E-003
 -6.415760936074134E-004
 -2.725494968057651E-004
  3.980798400710337E-005
  3.105006332319997E-004
  5.578249463225291E-004
  7.997823132166971E-004
  1.052743148013168E-003
  1.328457896381725E-003
  1.633675417440851E-003
  1.970435726626153E-003
  2.298355229920281E-003
 -2.614899819618895E-003
 -2.083871781603094E-003
 -1.432560552323804E-003
 -8.594586509702238E-004
 -3.911625952084848E-004
 -1.547419136166851E-005
  2.840422003622324E-004
  5.316942237480972E-004
  7.550003328014820E-004
  9.804818051594474E-004
  1.232662204282716E-003
  1.530719580120927E-003
  1.888400193410637E-003
  2.313910397536369E-003
  2.753909340481334E-003
 -2.622780948487224E-003
 -1.995607235023973E-003
 -1.227537178068153E-003
 -5.726730034068589E-004
 -7.563084653305044E-005
  2.873404926422221E-004
  5.474946655048340E-004
  7.435514943069049E-004
  9.152105409720975E-004
  1.099206846146565E-003
  1.330244583364749E-003
  1.638139285138681E-003
  2.049180289667181E-003
  2.585308141564520E-003
  3.178774946056291E-003
 -2.644947585901168E-003
 -1.804923851908890E-003
 -8.222291568400696E-004
 -6.587499646104428E-005
  4.403560060305587E-004
  7.524829002474334E-004
  9.306865636123534E-004
  1.034210992374252E-003
  1.116081040340501E-003
  1.222731822719880E-003
  1.399598515636162E-003
  1.689966053223023E-003
  2.138594752702516E-003
  2.792952598394353E-003
  3.573188131666988E-003
 -2.414550510564883E-003
 -1.342139809138602E-003
 -1.525367530700799E-004
  6.863468693840961E-004
  1.143497528482721E-003
  1.335824541614500E-003
  1.369635983090801E-003
  1.327665724558280E-003
  1.272459819848162E-003
  1.254935483968735E-003
  1.329200919584152E-003
  1.555647303726157E-003
  2.009682448676438E-003
  2.777925631991419E-003
  3.777985947448975E-003
 -2.574709735459018E-003
 -1.138646570859153E-003
  4.866825627956739E-004
  1.442821110518867E-003
  1.746615706409130E-003
  1.712272941247566E-003
  1.524337659708047E-003
  1.281200780423105E-003
  1.042037412921622E-003
  8.490420469212435E-004
  7.552005759168973E-004
  8.390578743914571E-004
  1.236352719940513E-003
  2.161648623001033E-003
  3.601960421630364E-003
 -2.644884498280040E-003
  5.664865592606284E-004
  3.253786517373493E-003
  3.967062856070721E-003
  3.775538490220165E-003
  3.326789808939651E-003
  2.817463995097966E-003
  2.317025824328790E-003
  1.850165393009832E-003
  1.426018015688069E-003
  1.070310145147330E-003
  8.415603738136087E-004
  9.167051128083569E-004
  1.714439177018005E-003
  3.412942939797139E-003
  2.125211848547994E-003
  7.123754264585299E-003
  8.413966359960145E-003
  7.542543758013790E-003
  6.331617517000810E-003
  5.267176654875352E-003
  4.363083371618362E-003
  3.575492736953176E-003
  2.861329573591804E-003
  2.173573715577140E-003
  1.477945836759236E-003
  7.467159997059938E-004
  4.019993137738850E-005
 -2.095585024575569E-004
  3.659634618064640E-004
  5.191299503238565E-003
  5.165528049327122E-003
  1.140501153747877E-003
 -1.592464149003729E-003
 -3.627768575097967E-003
 -5.091221676253678E-003
 -6.198011161468378E-003
 -7.109716362285732E-003
 -7.924960546710651E-003
 -8.730727185069885E-003
 -9.613514175218840E-003
 -1.068902212193214E-002
 -1.208151182450466E-002
 -1.386735533153867E-002
 -1.521146711502373E-002
 -1.844410631089587E-002
 -3.077399211361956E-002
 -3.478502018349879E-002
 -3.678912481905336E-002
 -3.802741609377711E-002
 -3.885954258974737E-002
 -3.946786838401900E-002
 -3.996049800136665E-002
 -4.040117867425824E-002
 -4.084396922535970E-002
 -4.134781135055522E-002
 -4.200234830727510E-002
 -4.295996381231899E-002
 -4.456095727586037E-002
 -4.766552293498746E-002
SCALARS elementIsPlast double 
LOOKUP_TABLE default
  0.000000000000000E+000
  0.000000000000000E+000
  0.000000000000000E+000
  0.000000000000000E+000
  0.000000000000000E+000
  0.000000000000000E+000
  0.000000000000000E+000
  0.000000000000000E+000
  0.000000000000000E+000
  0.000000000000000E+000
  0.000000000000000E+000
  0.000000000000000E+000
  0.000000000000000E+000
  0.000000000000000E+000
  0.000000000000000E+000
  0.000000000000000E+000
  0.000000000000000E+000
  0.000000000000000E+000
  0.000000000000000E+000
  0.000000000000000E+000
  0.000000000000000E+000
  0.000000000000000E+000
  0.000000000000000E+000
  0.000000000000000E+000
  0.000000000000000E+000
  0.000000000000000E+000
  0.000000000000000E+000
  0.000000000000000E+000
  0.000000000000000E+000
  0.000000000000000E+000
  0.000000000000000E+000
  0.000000000000000E+000
  0.000000000000000E+000
  0.000000000000000E+000
  0.000000000000000E+000
  0.000000000000000E+000
  0.000000000000000E+000
  0.000000000000000E+000
  0.000000000000000E+000
  0.000000000000000E+000
  0.000000000000000E+000
  0.000000000000000E+000
  0.000000000000000E+000
  0.000000000000000E+000
  0.000000000000000E+000
  0.000000000000000E+000
  0.000000000000000E+000
  0.000000000000000E+000
  0.000000000000000E+000
  0.000000000000000E+000
  0.000000000000000E+000
  0.000000000000000E+000
  0.000000000000000E+000
  0.000000000000000E+000
  0.000000000000000E+000
  0.000000000000000E+000
  0.000000000000000E+000
  0.000000000000000E+000
  0.000000000000000E+000
  0.000000000000000E+000
  0.000000000000000E+000
  0.000000000000000E+000
  0.000000000000000E+000
  0.000000000000000E+000
  0.000000000000000E+000
  0.000000000000000E+000
  0.000000000000000E+000
  0.000000000000000E+000
  0.000000000000000E+000
  0.000000000000000E+000
  0.000000000000000E+000
  0.000000000000000E+000
  0.000000000000000E+000
  0.000000000000000E+000
  0.000000000000000E+000
  0.000000000000000E+000
  0.000000000000000E+000
  0.000000000000000E+000
  0.000000000000000E+000
  0.000000000000000E+000
  0.000000000000000E+000
  0.000000000000000E+000
  0.000000000000000E+000
  0.000000000000000E+000
  0.000000000000000E+000
  0.000000000000000E+000
  0.000000000000000E+000
  0.000000000000000E+000
  0.000000000000000E+000
  0.000000000000000E+000
  0.000000000000000E+000
  0.000000000000000E+000
  0.000000000000000E+000
  0.000000000000000E+000
  0.000000000000000E+000
  0.000000000000000E+000
  0.000000000000000E+000
  0.000000000000000E+000
  0.000000000000000E+000
  0.000000000000000E+000
  0.000000000000000E+000
  0.000000000000000E+000
  0.000000000000000E+000
  0.000000000000000E+000
  0.000000000000000E+000
  0.000000000000000E+000
  0.000000000000000E+000
  0.000000000000000E+000
  0.000000000000000E+000
  0.000000000000000E+000
  0.000000000000000E+000
  0.000000000000000E+000
  0.000000000000000E+000
  0.000000000000000E+000
  0.000000000000000E+000
  0.000000000000000E+000
  0.000000000000000E+000
  0.000000000000000E+000
  0.000000000000000E+000
  0.000000000000000E+000
  0.000000000000000E+000
  0.000000000000000E+000
  0.000000000000000E+000
  0.000000000000000E+000
  0.000000000000000E+000
  0.000000000000000E+000
  0.000000000000000E+000
  0.000000000000000E+000
  0.000000000000000E+000
  0.000000000000000E+000
  0.000000000000000E+000
  0.000000000000000E+000
  0.000000000000000E+000
  0.000000000000000E+000
  0.000000000000000E+000
  0.000000000000000E+000
  0.000000000000000E+000
  0.000000000000000E+000
  0.000000000000000E+000
  0.000000000000000E+000
  0.000000000000000E+000
  0.000000000000000E+000
  0.000000000000000E+000
  0.000000000000000E+000
  0.000000000000000E+000
  0.000000000000000E+000
  0.000000000000000E+000
  0.000000000000000E+000
  0.000000000000000E+000
  0.000000000000000E+000
  0.000000000000000E+000
  0.000000000000000E+000
  0.000000000000000E+000
  0.000000000000000E+000
  0.000000000000000E+000
  0.000000000000000E+000
  0.000000000000000E+000
  0.000000000000000E+000
  0.000000000000000E+000
  0.000000000000000E+000
  0.000000000000000E+000
  0.000000000000000E+000
  0.000000000000000E+000
  0.000000000000000E+000
  0.000000000000000E+000
  0.000000000000000E+000
  0.000000000000000E+000
  0.000000000000000E+000
  0.000000000000000E+000
  0.000000000000000E+000
  0.000000000000000E+000
  0.000000000000000E+000
  0.000000000000000E+000
  0.000000000000000E+000
  0.000000000000000E+000
  0.000000000000000E+000
  0.000000000000000E+000
  0.000000000000000E+000
  0.000000000000000E+000
  0.000000000000000E+000
  0.000000000000000E+000
  0.000000000000000E+000
  0.000000000000000E+000
  0.000000000000000E+000
  0.000000000000000E+000
  0.000000000000000E+000
  0.000000000000000E+000
  0.000000000000000E+000
  0.000000000000000E+000
  0.000000000000000E+000
  0.000000000000000E+000
  0.000000000000000E+000
  0.000000000000000E+000
  0.000000000000000E+000
  0.000000000000000E+000
  0.000000000000000E+000
  0.000000000000000E+000
  0.000000000000000E+000
  0.000000000000000E+000
  0.000000000000000E+000
  0.000000000000000E+000
  0.000000000000000E+000
  0.000000000000000E+000
  0.000000000000000E+000
  0.000000000000000E+000
  0.000000000000000E+000
  0.000000000000000E+000
  0.000000000000000E+000
  0.000000000000000E+000
  0.000000000000000E+000
  0.000000000000000E+000
  0.000000000000000E+000
  0.000000000000000E+000
  0.000000000000000E+000
  0.000000000000000E+000
  0.000000000000000E+000
  0.000000000000000E+000
  0.000000000000000E+000
  0.000000000000000E+000
  0.000000000000000E+000
  0.000000000000000E+000
  0.000000000000000E+000
  0.000000000000000E+000
  0.000000000000000E+000
  0.000000000000000E+000
  0.000000000000000E+000
  0.000000000000000E+000
  0.000000000000000E+000
  0.000000000000000E+000
  0.000000000000000E+000
  0.000000000000000E+000
  0.000000000000000E+000
  0.000000000000000E+000
  0.000000000000000E+000
  0.000000000000000E+000
  0.000000000000000E+000
  0.000000000000000E+000
  0.000000000000000E+000
  0.000000000000000E+000
  0.000000000000000E+000
  0.000000000000000E+000
  0.000000000000000E+000
  0.000000000000000E+000
  0.000000000000000E+000
  0.000000000000000E+000
  0.000000000000000E+000
  0.000000000000000E+000
  0.000000000000000E+000
  0.000000000000000E+000
  0.000000000000000E+000
  0.000000000000000E+000
  0.000000000000000E+000
  0.000000000000000E+000
  0.000000000000000E+000
  0.000000000000000E+000
  0.000000000000000E+000
  0.000000000000000E+000
  0.000000000000000E+000
  0.000000000000000E+000
  0.000000000000000E+000
  0.000000000000000E+000
  0.000000000000000E+000
  0.000000000000000E+000
  0.000000000000000E+000
  0.000000000000000E+000
  0.000000000000000E+000
  0.000000000000000E+000
  0.000000000000000E+000
  0.000000000000000E+000
  0.000000000000000E+000
  0.000000000000000E+000
  0.000000000000000E+000
  0.000000000000000E+000
  0.000000000000000E+000
  0.000000000000000E+000
  0.000000000000000E+000
  0.000000000000000E+000
  0.000000000000000E+000
  0.000000000000000E+000
  0.000000000000000E+000
  0.000000000000000E+000
  0.000000000000000E+000
  0.000000000000000E+000
  0.000000000000000E+000
  0.000000000000000E+000
  0.000000000000000E+000
  0.000000000000000E+000
  0.000000000000000E+000
  0.000000000000000E+000
  0.000000000000000E+000
  0.000000000000000E+000
  0.000000000000000E+000
  0.000000000000000E+000
  0.000000000000000E+000
  0.000000000000000E+000
  0.000000000000000E+000
  0.000000000000000E+000
  0.000000000000000E+000
  0.000000000000000E+000
  0.000000000000000E+000
  0.000000000000000E+000
  0.000000000000000E+000
  0.000000000000000E+000
  0.000000000000000E+000
  0.000000000000000E+000
  0.000000000000000E+000
  0.000000000000000E+000
  0.000000000000000E+000
  0.000000000000000E+000
  0.000000000000000E+000
  0.000000000000000E+000
  0.000000000000000E+000
  0.000000000000000E+000
  0.000000000000000E+000
  0.000000000000000E+000
  0.000000000000000E+000
  0.000000000000000E+000
  0.000000000000000E+000
  0.000000000000000E+000
  0.000000000000000E+000
  0.000000000000000E+000
  0.000000000000000E+000
  0.000000000000000E+000
  0.000000000000000E+000
  0.000000000000000E+000
  0.000000000000000E+000
  0.000000000000000E+000
  0.000000000000000E+000
  0.000000000000000E+000
  0.000000000000000E+000
  0.000000000000000E+000
  0.000000000000000E+000
  0.000000000000000E+000
  0.000000000000000E+000
  0.000000000000000E+000
  0.000000000000000E+000
  0.000000000000000E+000
  0.000000000000000E+000
  0.000000000000000E+000
  0.000000000000000E+000
  0.000000000000000E+000
  0.000000000000000E+000
  0.000000000000000E+000
  0.000000000000000E+000
  0.000000000000000E+000
  0.000000000000000E+000
  0.000000000000000E+000
  0.000000000000000E+000
  0.000000000000000E+000
  0.000000000000000E+000
  0.000000000000000E+000
  0.000000000000000E+000
  0.000000000000000E+000
  0.000000000000000E+000
  0.000000000000000E+000
  0.000000000000000E+000
  0.000000000000000E+000
  0.000000000000000E+000
  0.000000000000000E+000
  0.000000000000000E+000
  0.000000000000000E+000
  0.000000000000000E+000
  0.000000000000000E+000
  0.000000000000000E+000
  0.000000000000000E+000
  0.000000000000000E+000
  0.000000000000000E+000
  0.000000000000000E+000
  0.000000000000000E+000
  0.000000000000000E+000
  0.000000000000000E+000
  0.000000000000000E+000
  0.000000000000000E+000
  0.000000000000000E+000
  0.000000000000000E+000
  0.000000000000000E+000
  0.000000000000000E+000
  0.000000000000000E+000
  0.000000000000000E+000
  0.000000000000000E+000
  0.000000000000000E+000
  0.000000000000000E+000
  0.000000000000000E+000
  0.000000000000000E+000
  0.000000000000000E+000
  0.000000000000000E+000
  0.000000000000000E+000
  0.000000000000000E+000
  0.000000000000000E+000
  0.000000000000000E+000
  0.000000000000000E+000
  0.000000000000000E+000
  0.000000000000000E+000
  0.000000000000000E+000
  0.000000000000000E+000
  0.000000000000000E+000
  0.000000000000000E+000
  0.000000000000000E+000
  0.000000000000000E+000
  0.000000000000000E+000
  0.000000000000000E+000
  0.000000000000000E+000
  0.000000000000000E+000
  0.000000000000000E+000
  0.000000000000000E+000
  0.000000000000000E+000
  0.000000000000000E+000
  0.000000000000000E+000
  0.000000000000000E+000
  0.000000000000000E+000
  0.000000000000000E+000
  0.000000000000000E+000
  0.000000000000000E+000
  0.000000000000000E+000
  0.000000000000000E+000
  0.000000000000000E+000
  0.000000000000000E+000
  0.000000000000000E+000
  0.000000000000000E+000
  0.000000000000000E+000
  0.000000000000000E+000
  0.000000000000000E+000
  0.000000000000000E+000
  0.000000000000000E+000
  0.000000000000000E+000
  0.000000000000000E+000
  0.000000000000000E+000
  0.000000000000000E+000
  0.000000000000000E+000
  0.000000000000000E+000
  0.000000000000000E+000
  0.000000000000000E+000
  0.000000000000000E+000
  0.000000000000000E+000
  0.000000000000000E+000
  0.000000000000000E+000
  0.000000000000000E+000
  0.000000000000000E+000
  0.000000000000000E+000
  0.000000000000000E+000
  0.000000000000000E+000
  0.000000000000000E+000
  0.000000000000000E+000
  0.000000000000000E+000
  0.000000000000000E+000
  0.000000000000000E+000
  0.000000000000000E+000
  0.000000000000000E+000
  0.000000000000000E+000
  0.000000000000000E+000
