# vtk DataFile Version 3.0
vtk output
ASCII
DATASET UNSTRUCTURED_GRID
POINTS       496 double 
  0.00000000E+00  3.00000000E+02  0.00000000E+00
  0.00000000E+00  2.80000000E+02  0.00000000E+00
  0.00000000E+00  2.60000000E+02  0.00000000E+00
  0.00000000E+00  2.40000000E+02  0.00000000E+00
  0.00000000E+00  2.20000000E+02  0.00000000E+00
  0.00000000E+00  2.00000000E+02  0.00000000E+00
  0.00000000E+00  1.80000000E+02  0.00000000E+00
  0.00000000E+00  1.60000000E+02  0.00000000E+00
  0.00000000E+00  1.40000000E+02  0.00000000E+00
  0.00000000E+00  1.20000000E+02  0.00000000E+00
  0.00000000E+00  1.00000000E+02  0.00000000E+00
  0.00000000E+00  8.00000000E+01  0.00000000E+00
  0.00000000E+00  6.00000000E+01  0.00000000E+00
  0.00000000E+00  4.00000000E+01  0.00000000E+00
  0.00000000E+00  2.00000000E+01  0.00000000E+00
  0.00000000E+00  4.99600361E-14  0.00000000E+00
  2.00000000E+01  3.00000000E+02  0.00000000E+00
  2.00000000E+01  2.80000000E+02  0.00000000E+00
  2.00000000E+01  2.60000000E+02  0.00000000E+00
  2.00000000E+01  2.40000000E+02  0.00000000E+00
  2.00000000E+01  2.20000000E+02  0.00000000E+00
  2.00000000E+01  2.00000000E+02  0.00000000E+00
  2.00000000E+01  1.80000000E+02  0.00000000E+00
  2.00000000E+01  1.60000000E+02  0.00000000E+00
  2.00000000E+01  1.40000000E+02  0.00000000E+00
  2.00000000E+01  1.20000000E+02  0.00000000E+00
  2.00000000E+01  1.00000000E+02  0.00000000E+00
  2.00000000E+01  8.00000000E+01  0.00000000E+00
  2.00000000E+01  6.00000000E+01  0.00000000E+00
  2.00000000E+01  4.00000000E+01  0.00000000E+00
  2.00000000E+01  2.00000000E+01  0.00000000E+00
  2.00000000E+01  4.99600361E-14  0.00000000E+00
  4.00000000E+01  3.00000000E+02  0.00000000E+00
  4.00000000E+01  2.80000000E+02  0.00000000E+00
  4.00000000E+01  2.60000000E+02  0.00000000E+00
  4.00000000E+01  2.40000000E+02  0.00000000E+00
  4.00000000E+01  2.20000000E+02  0.00000000E+00
  4.00000000E+01  2.00000000E+02  0.00000000E+00
  4.00000000E+01  1.80000000E+02  0.00000000E+00
  4.00000000E+01  1.60000000E+02  0.00000000E+00
  4.00000000E+01  1.40000000E+02  0.00000000E+00
  4.00000000E+01  1.20000000E+02  0.00000000E+00
  4.00000000E+01  1.00000000E+02  0.00000000E+00
  4.00000000E+01  8.00000000E+01  0.00000000E+00
  4.00000000E+01  6.00000000E+01  0.00000000E+00
  4.00000000E+01  4.00000000E+01  0.00000000E+00
  4.00000000E+01  2.00000000E+01  0.00000000E+00
  4.00000000E+01  4.99600361E-14  0.00000000E+00
  6.00000000E+01  3.00000000E+02  0.00000000E+00
  6.00000000E+01  2.80000000E+02  0.00000000E+00
  6.00000000E+01  2.60000000E+02  0.00000000E+00
  6.00000000E+01  2.40000000E+02  0.00000000E+00
  6.00000000E+01  2.20000000E+02  0.00000000E+00
  6.00000000E+01  2.00000000E+02  0.00000000E+00
  6.00000000E+01  1.80000000E+02  0.00000000E+00
  6.00000000E+01  1.60000000E+02  0.00000000E+00
  6.00000000E+01  1.40000000E+02  0.00000000E+00
  6.00000000E+01  1.20000000E+02  0.00000000E+00
  6.00000000E+01  1.00000000E+02  0.00000000E+00
  6.00000000E+01  8.00000000E+01  0.00000000E+00
  6.00000000E+01  6.00000000E+01  0.00000000E+00
  6.00000000E+01  4.00000000E+01  0.00000000E+00
  6.00000000E+01  2.00000000E+01  0.00000000E+00
  6.00000000E+01  4.99600361E-14  0.00000000E+00
  8.00000000E+01  3.00000000E+02  0.00000000E+00
  8.00000000E+01  2.80000000E+02  0.00000000E+00
  8.00000000E+01  2.60000000E+02  0.00000000E+00
  8.00000000E+01  2.40000000E+02  0.00000000E+00
  8.00000000E+01  2.20000000E+02  0.00000000E+00
  8.00000000E+01  2.00000000E+02  0.00000000E+00
  8.00000000E+01  1.80000000E+02  0.00000000E+00
  8.00000000E+01  1.60000000E+02  0.00000000E+00
  8.00000000E+01  1.40000000E+02  0.00000000E+00
  8.00000000E+01  1.20000000E+02  0.00000000E+00
  8.00000000E+01  1.00000000E+02  0.00000000E+00
  8.00000000E+01  8.00000000E+01  0.00000000E+00
  8.00000000E+01  6.00000000E+01  0.00000000E+00
  8.00000000E+01  4.00000000E+01  0.00000000E+00
  8.00000000E+01  2.00000000E+01  0.00000000E+00
  8.00000000E+01  4.99600361E-14  0.00000000E+00
  1.00000000E+02  3.00000000E+02  0.00000000E+00
  1.00000000E+02  2.80000000E+02  0.00000000E+00
  1.00000000E+02  2.60000000E+02  0.00000000E+00
  1.00000000E+02  2.40000000E+02  0.00000000E+00
  1.00000000E+02  2.20000000E+02  0.00000000E+00
  1.00000000E+02  2.00000000E+02  0.00000000E+00
  1.00000000E+02  1.80000000E+02  0.00000000E+00
  1.00000000E+02  1.60000000E+02  0.00000000E+00
  1.00000000E+02  1.40000000E+02  0.00000000E+00
  1.00000000E+02  1.20000000E+02  0.00000000E+00
  1.00000000E+02  1.00000000E+02  0.00000000E+00
  1.00000000E+02  8.00000000E+01  0.00000000E+00
  1.00000000E+02  6.00000000E+01  0.00000000E+00
  1.00000000E+02  4.00000000E+01  0.00000000E+00
  1.00000000E+02  2.00000000E+01  0.00000000E+00
  1.00000000E+02  4.99600361E-14  0.00000000E+00
  1.20000000E+02  3.00000000E+02  0.00000000E+00
  1.20000000E+02  2.80000000E+02  0.00000000E+00
  1.20000000E+02  2.60000000E+02  0.00000000E+00
  1.20000000E+02  2.40000000E+02  0.00000000E+00
  1.20000000E+02  2.20000000E+02  0.00000000E+00
  1.20000000E+02  2.00000000E+02  0.00000000E+00
  1.20000000E+02  1.80000000E+02  0.00000000E+00
  1.20000000E+02  1.60000000E+02  0.00000000E+00
  1.20000000E+02  1.40000000E+02  0.00000000E+00
  1.20000000E+02  1.20000000E+02  0.00000000E+00
  1.20000000E+02  1.00000000E+02  0.00000000E+00
  1.20000000E+02  8.00000000E+01  0.00000000E+00
  1.20000000E+02  6.00000000E+01  0.00000000E+00
  1.20000000E+02  4.00000000E+01  0.00000000E+00
  1.20000000E+02  2.00000000E+01  0.00000000E+00
  1.20000000E+02  4.99600361E-14  0.00000000E+00
  1.40000000E+02  3.00000000E+02  0.00000000E+00
  1.40000000E+02  2.80000000E+02  0.00000000E+00
  1.40000000E+02  2.60000000E+02  0.00000000E+00
  1.40000000E+02  2.40000000E+02  0.00000000E+00
  1.40000000E+02  2.20000000E+02  0.00000000E+00
  1.40000000E+02  2.00000000E+02  0.00000000E+00
  1.40000000E+02  1.80000000E+02  0.00000000E+00
  1.40000000E+02  1.60000000E+02  0.00000000E+00
  1.40000000E+02  1.40000000E+02  0.00000000E+00
  1.40000000E+02  1.20000000E+02  0.00000000E+00
  1.40000000E+02  1.00000000E+02  0.00000000E+00
  1.40000000E+02  8.00000000E+01  0.00000000E+00
  1.40000000E+02  6.00000000E+01  0.00000000E+00
  1.40000000E+02  4.00000000E+01  0.00000000E+00
  1.40000000E+02  2.00000000E+01  0.00000000E+00
  1.40000000E+02  4.99600361E-14  0.00000000E+00
  1.60000000E+02  3.00000000E+02  0.00000000E+00
  1.60000000E+02  2.80000000E+02  0.00000000E+00
  1.60000000E+02  2.60000000E+02  0.00000000E+00
  1.60000000E+02  2.40000000E+02  0.00000000E+00
  1.60000000E+02  2.20000000E+02  0.00000000E+00
  1.60000000E+02  2.00000000E+02  0.00000000E+00
  1.60000000E+02  1.80000000E+02  0.00000000E+00
  1.60000000E+02  1.60000000E+02  0.00000000E+00
  1.60000000E+02  1.40000000E+02  0.00000000E+00
  1.60000000E+02  1.20000000E+02  0.00000000E+00
  1.60000000E+02  1.00000000E+02  0.00000000E+00
  1.60000000E+02  8.00000000E+01  0.00000000E+00
  1.60000000E+02  6.00000000E+01  0.00000000E+00
  1.60000000E+02  4.00000000E+01  0.00000000E+00
  1.60000000E+02  2.00000000E+01  0.00000000E+00
  1.60000000E+02  4.99600361E-14  0.00000000E+00
  1.80000000E+02  3.00000000E+02  0.00000000E+00
  1.80000000E+02  2.80000000E+02  0.00000000E+00
  1.80000000E+02  2.60000000E+02  0.00000000E+00
  1.80000000E+02  2.40000000E+02  0.00000000E+00
  1.80000000E+02  2.20000000E+02  0.00000000E+00
  1.80000000E+02  2.00000000E+02  0.00000000E+00
  1.80000000E+02  1.80000000E+02  0.00000000E+00
  1.80000000E+02  1.60000000E+02  0.00000000E+00
  1.80000000E+02  1.40000000E+02  0.00000000E+00
  1.80000000E+02  1.20000000E+02  0.00000000E+00
  1.80000000E+02  1.00000000E+02  0.00000000E+00
  1.80000000E+02  8.00000000E+01  0.00000000E+00
  1.80000000E+02  6.00000000E+01  0.00000000E+00
  1.80000000E+02  4.00000000E+01  0.00000000E+00
  1.80000000E+02  2.00000000E+01  0.00000000E+00
  1.80000000E+02  4.99600361E-14  0.00000000E+00
  2.00000000E+02  3.00000000E+02  0.00000000E+00
  2.00000000E+02  2.80000000E+02  0.00000000E+00
  2.00000000E+02  2.60000000E+02  0.00000000E+00
  2.00000000E+02  2.40000000E+02  0.00000000E+00
  2.00000000E+02  2.20000000E+02  0.00000000E+00
  2.00000000E+02  2.00000000E+02  0.00000000E+00
  2.00000000E+02  1.80000000E+02  0.00000000E+00
  2.00000000E+02  1.60000000E+02  0.00000000E+00
  2.00000000E+02  1.40000000E+02  0.00000000E+00
  2.00000000E+02  1.20000000E+02  0.00000000E+00
  2.00000000E+02  1.00000000E+02  0.00000000E+00
  2.00000000E+02  8.00000000E+01  0.00000000E+00
  2.00000000E+02  6.00000000E+01  0.00000000E+00
  2.00000000E+02  4.00000000E+01  0.00000000E+00
  2.00000000E+02  2.00000000E+01  0.00000000E+00
  2.00000000E+02  4.99600361E-14  0.00000000E+00
  2.20000000E+02  3.00000000E+02  0.00000000E+00
  2.20000000E+02  2.80000000E+02  0.00000000E+00
  2.20000000E+02  2.60000000E+02  0.00000000E+00
  2.20000000E+02  2.40000000E+02  0.00000000E+00
  2.20000000E+02  2.20000000E+02  0.00000000E+00
  2.20000000E+02  2.00000000E+02  0.00000000E+00
  2.20000000E+02  1.80000000E+02  0.00000000E+00
  2.20000000E+02  1.60000000E+02  0.00000000E+00
  2.20000000E+02  1.40000000E+02  0.00000000E+00
  2.20000000E+02  1.20000000E+02  0.00000000E+00
  2.20000000E+02  1.00000000E+02  0.00000000E+00
  2.20000000E+02  8.00000000E+01  0.00000000E+00
  2.20000000E+02  6.00000000E+01  0.00000000E+00
  2.20000000E+02  4.00000000E+01  0.00000000E+00
  2.20000000E+02  2.00000000E+01  0.00000000E+00
  2.20000000E+02  4.99600361E-14  0.00000000E+00
  2.40000000E+02  3.00000000E+02  0.00000000E+00
  2.40000000E+02  2.80000000E+02  0.00000000E+00
  2.40000000E+02  2.60000000E+02  0.00000000E+00
  2.40000000E+02  2.40000000E+02  0.00000000E+00
  2.40000000E+02  2.20000000E+02  0.00000000E+00
  2.40000000E+02  2.00000000E+02  0.00000000E+00
  2.40000000E+02  1.80000000E+02  0.00000000E+00
  2.40000000E+02  1.60000000E+02  0.00000000E+00
  2.40000000E+02  1.40000000E+02  0.00000000E+00
  2.40000000E+02  1.20000000E+02  0.00000000E+00
  2.40000000E+02  1.00000000E+02  0.00000000E+00
  2.40000000E+02  8.00000000E+01  0.00000000E+00
  2.40000000E+02  6.00000000E+01  0.00000000E+00
  2.40000000E+02  4.00000000E+01  0.00000000E+00
  2.40000000E+02  2.00000000E+01  0.00000000E+00
  2.40000000E+02  4.99600361E-14  0.00000000E+00
  2.60000000E+02  3.00000000E+02  0.00000000E+00
  2.60000000E+02  2.80000000E+02  0.00000000E+00
  2.60000000E+02  2.60000000E+02  0.00000000E+00
  2.60000000E+02  2.40000000E+02  0.00000000E+00
  2.60000000E+02  2.20000000E+02  0.00000000E+00
  2.60000000E+02  2.00000000E+02  0.00000000E+00
  2.60000000E+02  1.80000000E+02  0.00000000E+00
  2.60000000E+02  1.60000000E+02  0.00000000E+00
  2.60000000E+02  1.40000000E+02  0.00000000E+00
  2.60000000E+02  1.20000000E+02  0.00000000E+00
  2.60000000E+02  1.00000000E+02  0.00000000E+00
  2.60000000E+02  8.00000000E+01  0.00000000E+00
  2.60000000E+02  6.00000000E+01  0.00000000E+00
  2.60000000E+02  4.00000000E+01  0.00000000E+00
  2.60000000E+02  2.00000000E+01  0.00000000E+00
  2.60000000E+02  4.99600361E-14  0.00000000E+00
  2.80000000E+02  3.00000000E+02  0.00000000E+00
  2.80000000E+02  2.80000000E+02  0.00000000E+00
  2.80000000E+02  2.60000000E+02  0.00000000E+00
  2.80000000E+02  2.40000000E+02  0.00000000E+00
  2.80000000E+02  2.20000000E+02  0.00000000E+00
  2.80000000E+02  2.00000000E+02  0.00000000E+00
  2.80000000E+02  1.80000000E+02  0.00000000E+00
  2.80000000E+02  1.60000000E+02  0.00000000E+00
  2.80000000E+02  1.40000000E+02  0.00000000E+00
  2.80000000E+02  1.20000000E+02  0.00000000E+00
  2.80000000E+02  1.00000000E+02  0.00000000E+00
  2.80000000E+02  8.00000000E+01  0.00000000E+00
  2.80000000E+02  6.00000000E+01  0.00000000E+00
  2.80000000E+02  4.00000000E+01  0.00000000E+00
  2.80000000E+02  2.00000000E+01  0.00000000E+00
  2.80000000E+02  4.99600361E-14  0.00000000E+00
  3.00000000E+02  3.00000000E+02  0.00000000E+00
  3.00000000E+02  2.80000000E+02  0.00000000E+00
  3.00000000E+02  2.60000000E+02  0.00000000E+00
  3.00000000E+02  2.40000000E+02  0.00000000E+00
  3.00000000E+02  2.20000000E+02  0.00000000E+00
  3.00000000E+02  2.00000000E+02  0.00000000E+00
  3.00000000E+02  1.80000000E+02  0.00000000E+00
  3.00000000E+02  1.60000000E+02  0.00000000E+00
  3.00000000E+02  1.40000000E+02  0.00000000E+00
  3.00000000E+02  1.20000000E+02  0.00000000E+00
  3.00000000E+02  1.00000000E+02  0.00000000E+00
  3.00000000E+02  8.00000000E+01  0.00000000E+00
  3.00000000E+02  6.00000000E+01  0.00000000E+00
  3.00000000E+02  4.00000000E+01  0.00000000E+00
  3.00000000E+02  2.00000000E+01  0.00000000E+00
  3.00000000E+02  4.99600361E-14  0.00000000E+00
  3.20000000E+02  3.00000000E+02  0.00000000E+00
  3.20000000E+02  2.80000000E+02  0.00000000E+00
  3.20000000E+02  2.60000000E+02  0.00000000E+00
  3.20000000E+02  2.40000000E+02  0.00000000E+00
  3.20000000E+02  2.20000000E+02  0.00000000E+00
  3.20000000E+02  2.00000000E+02  0.00000000E+00
  3.20000000E+02  1.80000000E+02  0.00000000E+00
  3.20000000E+02  1.60000000E+02  0.00000000E+00
  3.20000000E+02  1.40000000E+02  0.00000000E+00
  3.20000000E+02  1.20000000E+02  0.00000000E+00
  3.20000000E+02  1.00000000E+02  0.00000000E+00
  3.20000000E+02  8.00000000E+01  0.00000000E+00
  3.20000000E+02  6.00000000E+01  0.00000000E+00
  3.20000000E+02  4.00000000E+01  0.00000000E+00
  3.20000000E+02  2.00000000E+01  0.00000000E+00
  3.20000000E+02  4.99600361E-14  0.00000000E+00
  3.40000000E+02  3.00000000E+02  0.00000000E+00
  3.40000000E+02  2.80000000E+02  0.00000000E+00
  3.40000000E+02  2.60000000E+02  0.00000000E+00
  3.40000000E+02  2.40000000E+02  0.00000000E+00
  3.40000000E+02  2.20000000E+02  0.00000000E+00
  3.40000000E+02  2.00000000E+02  0.00000000E+00
  3.40000000E+02  1.80000000E+02  0.00000000E+00
  3.40000000E+02  1.60000000E+02  0.00000000E+00
  3.40000000E+02  1.40000000E+02  0.00000000E+00
  3.40000000E+02  1.20000000E+02  0.00000000E+00
  3.40000000E+02  1.00000000E+02  0.00000000E+00
  3.40000000E+02  8.00000000E+01  0.00000000E+00
  3.40000000E+02  6.00000000E+01  0.00000000E+00
  3.40000000E+02  4.00000000E+01  0.00000000E+00
  3.40000000E+02  2.00000000E+01  0.00000000E+00
  3.40000000E+02  4.99600361E-14  0.00000000E+00
  3.60000000E+02  3.00000000E+02  0.00000000E+00
  3.60000000E+02  2.80000000E+02  0.00000000E+00
  3.60000000E+02  2.60000000E+02  0.00000000E+00
  3.60000000E+02  2.40000000E+02  0.00000000E+00
  3.60000000E+02  2.20000000E+02  0.00000000E+00
  3.60000000E+02  2.00000000E+02  0.00000000E+00
  3.60000000E+02  1.80000000E+02  0.00000000E+00
  3.60000000E+02  1.60000000E+02  0.00000000E+00
  3.60000000E+02  1.40000000E+02  0.00000000E+00
  3.60000000E+02  1.20000000E+02  0.00000000E+00
  3.60000000E+02  1.00000000E+02  0.00000000E+00
  3.60000000E+02  8.00000000E+01  0.00000000E+00
  3.60000000E+02  6.00000000E+01  0.00000000E+00
  3.60000000E+02  4.00000000E+01  0.00000000E+00
  3.60000000E+02  2.00000000E+01  0.00000000E+00
  3.60000000E+02  4.99600361E-14  0.00000000E+00
  3.80000000E+02  3.00000000E+02  0.00000000E+00
  3.80000000E+02  2.80000000E+02  0.00000000E+00
  3.80000000E+02  2.60000000E+02  0.00000000E+00
  3.80000000E+02  2.40000000E+02  0.00000000E+00
  3.80000000E+02  2.20000000E+02  0.00000000E+00
  3.80000000E+02  2.00000000E+02  0.00000000E+00
  3.80000000E+02  1.80000000E+02  0.00000000E+00
  3.80000000E+02  1.60000000E+02  0.00000000E+00
  3.80000000E+02  1.40000000E+02  0.00000000E+00
  3.80000000E+02  1.20000000E+02  0.00000000E+00
  3.80000000E+02  1.00000000E+02  0.00000000E+00
  3.80000000E+02  8.00000000E+01  0.00000000E+00
  3.80000000E+02  6.00000000E+01  0.00000000E+00
  3.80000000E+02  4.00000000E+01  0.00000000E+00
  3.80000000E+02  2.00000000E+01  0.00000000E+00
  3.80000000E+02  4.99600361E-14  0.00000000E+00
  4.00000000E+02  3.00000000E+02  0.00000000E+00
  4.00000000E+02  2.80000000E+02  0.00000000E+00
  4.00000000E+02  2.60000000E+02  0.00000000E+00
  4.00000000E+02  2.40000000E+02  0.00000000E+00
  4.00000000E+02  2.20000000E+02  0.00000000E+00
  4.00000000E+02  2.00000000E+02  0.00000000E+00
  4.00000000E+02  1.80000000E+02  0.00000000E+00
  4.00000000E+02  1.60000000E+02  0.00000000E+00
  4.00000000E+02  1.40000000E+02  0.00000000E+00
  4.00000000E+02  1.20000000E+02  0.00000000E+00
  4.00000000E+02  1.00000000E+02  0.00000000E+00
  4.00000000E+02  8.00000000E+01  0.00000000E+00
  4.00000000E+02  6.00000000E+01  0.00000000E+00
  4.00000000E+02  4.00000000E+01  0.00000000E+00
  4.00000000E+02  2.00000000E+01  0.00000000E+00
  4.00000000E+02  4.99600361E-14  0.00000000E+00
  4.20000000E+02  3.00000000E+02  0.00000000E+00
  4.20000000E+02  2.80000000E+02  0.00000000E+00
  4.20000000E+02  2.60000000E+02  0.00000000E+00
  4.20000000E+02  2.40000000E+02  0.00000000E+00
  4.20000000E+02  2.20000000E+02  0.00000000E+00
  4.20000000E+02  2.00000000E+02  0.00000000E+00
  4.20000000E+02  1.80000000E+02  0.00000000E+00
  4.20000000E+02  1.60000000E+02  0.00000000E+00
  4.20000000E+02  1.40000000E+02  0.00000000E+00
  4.20000000E+02  1.20000000E+02  0.00000000E+00
  4.20000000E+02  1.00000000E+02  0.00000000E+00
  4.20000000E+02  8.00000000E+01  0.00000000E+00
  4.20000000E+02  6.00000000E+01  0.00000000E+00
  4.20000000E+02  4.00000000E+01  0.00000000E+00
  4.20000000E+02  2.00000000E+01  0.00000000E+00
  4.20000000E+02  4.99600361E-14  0.00000000E+00
  4.40000000E+02  3.00000000E+02  0.00000000E+00
  4.40000000E+02  2.80000000E+02  0.00000000E+00
  4.40000000E+02  2.60000000E+02  0.00000000E+00
  4.40000000E+02  2.40000000E+02  0.00000000E+00
  4.40000000E+02  2.20000000E+02  0.00000000E+00
  4.40000000E+02  2.00000000E+02  0.00000000E+00
  4.40000000E+02  1.80000000E+02  0.00000000E+00
  4.40000000E+02  1.60000000E+02  0.00000000E+00
  4.40000000E+02  1.40000000E+02  0.00000000E+00
  4.40000000E+02  1.20000000E+02  0.00000000E+00
  4.40000000E+02  1.00000000E+02  0.00000000E+00
  4.40000000E+02  8.00000000E+01  0.00000000E+00
  4.40000000E+02  6.00000000E+01  0.00000000E+00
  4.40000000E+02  4.00000000E+01  0.00000000E+00
  4.40000000E+02  2.00000000E+01  0.00000000E+00
  4.40000000E+02  4.99600361E-14  0.00000000E+00
  4.60000000E+02  3.00000000E+02  0.00000000E+00
  4.60000000E+02  2.80000000E+02  0.00000000E+00
  4.60000000E+02  2.60000000E+02  0.00000000E+00
  4.60000000E+02  2.40000000E+02  0.00000000E+00
  4.60000000E+02  2.20000000E+02  0.00000000E+00
  4.60000000E+02  2.00000000E+02  0.00000000E+00
  4.60000000E+02  1.80000000E+02  0.00000000E+00
  4.60000000E+02  1.60000000E+02  0.00000000E+00
  4.60000000E+02  1.40000000E+02  0.00000000E+00
  4.60000000E+02  1.20000000E+02  0.00000000E+00
  4.60000000E+02  1.00000000E+02  0.00000000E+00
  4.60000000E+02  8.00000000E+01  0.00000000E+00
  4.60000000E+02  6.00000000E+01  0.00000000E+00
  4.60000000E+02  4.00000000E+01  0.00000000E+00
  4.60000000E+02  2.00000000E+01  0.00000000E+00
  4.60000000E+02  4.99600361E-14  0.00000000E+00
  4.80000000E+02  3.00000000E+02  0.00000000E+00
  4.80000000E+02  2.80000000E+02  0.00000000E+00
  4.80000000E+02  2.60000000E+02  0.00000000E+00
  4.80000000E+02  2.40000000E+02  0.00000000E+00
  4.80000000E+02  2.20000000E+02  0.00000000E+00
  4.80000000E+02  2.00000000E+02  0.00000000E+00
  4.80000000E+02  1.80000000E+02  0.00000000E+00
  4.80000000E+02  1.60000000E+02  0.00000000E+00
  4.80000000E+02  1.40000000E+02  0.00000000E+00
  4.80000000E+02  1.20000000E+02  0.00000000E+00
  4.80000000E+02  1.00000000E+02  0.00000000E+00
  4.80000000E+02  8.00000000E+01  0.00000000E+00
  4.80000000E+02  6.00000000E+01  0.00000000E+00
  4.80000000E+02  4.00000000E+01  0.00000000E+00
  4.80000000E+02  2.00000000E+01  0.00000000E+00
  4.80000000E+02  4.99600361E-14  0.00000000E+00
  5.00000000E+02  3.00000000E+02  0.00000000E+00
  5.00000000E+02  2.80000000E+02  0.00000000E+00
  5.00000000E+02  2.60000000E+02  0.00000000E+00
  5.00000000E+02  2.40000000E+02  0.00000000E+00
  5.00000000E+02  2.20000000E+02  0.00000000E+00
  5.00000000E+02  2.00000000E+02  0.00000000E+00
  5.00000000E+02  1.80000000E+02  0.00000000E+00
  5.00000000E+02  1.60000000E+02  0.00000000E+00
  5.00000000E+02  1.40000000E+02  0.00000000E+00
  5.00000000E+02  1.20000000E+02  0.00000000E+00
  5.00000000E+02  1.00000000E+02  0.00000000E+00
  5.00000000E+02  8.00000000E+01  0.00000000E+00
  5.00000000E+02  6.00000000E+01  0.00000000E+00
  5.00000000E+02  4.00000000E+01  0.00000000E+00
  5.00000000E+02  2.00000000E+01  0.00000000E+00
  5.00000000E+02  4.99600361E-14  0.00000000E+00
  5.20000000E+02  3.00000000E+02  0.00000000E+00
  5.20000000E+02  2.80000000E+02  0.00000000E+00
  5.20000000E+02  2.60000000E+02  0.00000000E+00
  5.20000000E+02  2.40000000E+02  0.00000000E+00
  5.20000000E+02  2.20000000E+02  0.00000000E+00
  5.20000000E+02  2.00000000E+02  0.00000000E+00
  5.20000000E+02  1.80000000E+02  0.00000000E+00
  5.20000000E+02  1.60000000E+02  0.00000000E+00
  5.20000000E+02  1.40000000E+02  0.00000000E+00
  5.20000000E+02  1.20000000E+02  0.00000000E+00
  5.20000000E+02  1.00000000E+02  0.00000000E+00
  5.20000000E+02  8.00000000E+01  0.00000000E+00
  5.20000000E+02  6.00000000E+01  0.00000000E+00
  5.20000000E+02  4.00000000E+01  0.00000000E+00
  5.20000000E+02  2.00000000E+01  0.00000000E+00
  5.20000000E+02  4.99600361E-14  0.00000000E+00
  5.40000000E+02  3.00000000E+02  0.00000000E+00
  5.40000000E+02  2.80000000E+02  0.00000000E+00
  5.40000000E+02  2.60000000E+02  0.00000000E+00
  5.40000000E+02  2.40000000E+02  0.00000000E+00
  5.40000000E+02  2.20000000E+02  0.00000000E+00
  5.40000000E+02  2.00000000E+02  0.00000000E+00
  5.40000000E+02  1.80000000E+02  0.00000000E+00
  5.40000000E+02  1.60000000E+02  0.00000000E+00
  5.40000000E+02  1.40000000E+02  0.00000000E+00
  5.40000000E+02  1.20000000E+02  0.00000000E+00
  5.40000000E+02  1.00000000E+02  0.00000000E+00
  5.40000000E+02  8.00000000E+01  0.00000000E+00
  5.40000000E+02  6.00000000E+01  0.00000000E+00
  5.40000000E+02  4.00000000E+01  0.00000000E+00
  5.40000000E+02  2.00000000E+01  0.00000000E+00
  5.40000000E+02  4.99600361E-14  0.00000000E+00
  5.60000000E+02  3.00000000E+02  0.00000000E+00
  5.60000000E+02  2.80000000E+02  0.00000000E+00
  5.60000000E+02  2.60000000E+02  0.00000000E+00
  5.60000000E+02  2.40000000E+02  0.00000000E+00
  5.60000000E+02  2.20000000E+02  0.00000000E+00
  5.60000000E+02  2.00000000E+02  0.00000000E+00
  5.60000000E+02  1.80000000E+02  0.00000000E+00
  5.60000000E+02  1.60000000E+02  0.00000000E+00
  5.60000000E+02  1.40000000E+02  0.00000000E+00
  5.60000000E+02  1.20000000E+02  0.00000000E+00
  5.60000000E+02  1.00000000E+02  0.00000000E+00
  5.60000000E+02  8.00000000E+01  0.00000000E+00
  5.60000000E+02  6.00000000E+01  0.00000000E+00
  5.60000000E+02  4.00000000E+01  0.00000000E+00
  5.60000000E+02  2.00000000E+01  0.00000000E+00
  5.60000000E+02  4.99600361E-14  0.00000000E+00
  5.80000000E+02  3.00000000E+02  0.00000000E+00
  5.80000000E+02  2.80000000E+02  0.00000000E+00
  5.80000000E+02  2.60000000E+02  0.00000000E+00
  5.80000000E+02  2.40000000E+02  0.00000000E+00
  5.80000000E+02  2.20000000E+02  0.00000000E+00
  5.80000000E+02  2.00000000E+02  0.00000000E+00
  5.80000000E+02  1.80000000E+02  0.00000000E+00
  5.80000000E+02  1.60000000E+02  0.00000000E+00
  5.80000000E+02  1.40000000E+02  0.00000000E+00
  5.80000000E+02  1.20000000E+02  0.00000000E+00
  5.80000000E+02  1.00000000E+02  0.00000000E+00
  5.80000000E+02  8.00000000E+01  0.00000000E+00
  5.80000000E+02  6.00000000E+01  0.00000000E+00
  5.80000000E+02  4.00000000E+01  0.00000000E+00
  5.80000000E+02  2.00000000E+01  0.00000000E+00
  5.80000000E+02  4.99600361E-14  0.00000000E+00
  6.00000000E+02  3.00000000E+02  0.00000000E+00
  6.00000000E+02  2.80000000E+02  0.00000000E+00
  6.00000000E+02  2.60000000E+02  0.00000000E+00
  6.00000000E+02  2.40000000E+02  0.00000000E+00
  6.00000000E+02  2.20000000E+02  0.00000000E+00
  6.00000000E+02  2.00000000E+02  0.00000000E+00
  6.00000000E+02  1.80000000E+02  0.00000000E+00
  6.00000000E+02  1.60000000E+02  0.00000000E+00
  6.00000000E+02  1.40000000E+02  0.00000000E+00
  6.00000000E+02  1.20000000E+02  0.00000000E+00
  6.00000000E+02  1.00000000E+02  0.00000000E+00
  6.00000000E+02  8.00000000E+01  0.00000000E+00
  6.00000000E+02  6.00000000E+01  0.00000000E+00
  6.00000000E+02  4.00000000E+01  0.00000000E+00
  6.00000000E+02  2.00000000E+01  0.00000000E+00
  6.00000000E+02  4.99600361E-14  0.00000000E+00
CELLS       450      2250
         4           0           1          17          16
         4           1           2          18          17
         4           2           3          19          18
         4           3           4          20          19
         4           4           5          21          20
         4           5           6          22          21
         4           6           7          23          22
         4           7           8          24          23
         4           8           9          25          24
         4           9          10          26          25
         4          10          11          27          26
         4          11          12          28          27
         4          12          13          29          28
         4          13          14          30          29
         4          14          15          31          30
         4          16          17          33          32
         4          17          18          34          33
         4          18          19          35          34
         4          19          20          36          35
         4          20          21          37          36
         4          21          22          38          37
         4          22          23          39          38
         4          23          24          40          39
         4          24          25          41          40
         4          25          26          42          41
         4          26          27          43          42
         4          27          28          44          43
         4          28          29          45          44
         4          29          30          46          45
         4          30          31          47          46
         4          32          33          49          48
         4          33          34          50          49
         4          34          35          51          50
         4          35          36          52          51
         4          36          37          53          52
         4          37          38          54          53
         4          38          39          55          54
         4          39          40          56          55
         4          40          41          57          56
         4          41          42          58          57
         4          42          43          59          58
         4          43          44          60          59
         4          44          45          61          60
         4          45          46          62          61
         4          46          47          63          62
         4          48          49          65          64
         4          49          50          66          65
         4          50          51          67          66
         4          51          52          68          67
         4          52          53          69          68
         4          53          54          70          69
         4          54          55          71          70
         4          55          56          72          71
         4          56          57          73          72
         4          57          58          74          73
         4          58          59          75          74
         4          59          60          76          75
         4          60          61          77          76
         4          61          62          78          77
         4          62          63          79          78
         4          64          65          81          80
         4          65          66          82          81
         4          66          67          83          82
         4          67          68          84          83
         4          68          69          85          84
         4          69          70          86          85
         4          70          71          87          86
         4          71          72          88          87
         4          72          73          89          88
         4          73          74          90          89
         4          74          75          91          90
         4          75          76          92          91
         4          76          77          93          92
         4          77          78          94          93
         4          78          79          95          94
         4          80          81          97          96
         4          81          82          98          97
         4          82          83          99          98
         4          83          84         100          99
         4          84          85         101         100
         4          85          86         102         101
         4          86          87         103         102
         4          87          88         104         103
         4          88          89         105         104
         4          89          90         106         105
         4          90          91         107         106
         4          91          92         108         107
         4          92          93         109         108
         4          93          94         110         109
         4          94          95         111         110
         4          96          97         113         112
         4          97          98         114         113
         4          98          99         115         114
         4          99         100         116         115
         4         100         101         117         116
         4         101         102         118         117
         4         102         103         119         118
         4         103         104         120         119
         4         104         105         121         120
         4         105         106         122         121
         4         106         107         123         122
         4         107         108         124         123
         4         108         109         125         124
         4         109         110         126         125
         4         110         111         127         126
         4         112         113         129         128
         4         113         114         130         129
         4         114         115         131         130
         4         115         116         132         131
         4         116         117         133         132
         4         117         118         134         133
         4         118         119         135         134
         4         119         120         136         135
         4         120         121         137         136
         4         121         122         138         137
         4         122         123         139         138
         4         123         124         140         139
         4         124         125         141         140
         4         125         126         142         141
         4         126         127         143         142
         4         128         129         145         144
         4         129         130         146         145
         4         130         131         147         146
         4         131         132         148         147
         4         132         133         149         148
         4         133         134         150         149
         4         134         135         151         150
         4         135         136         152         151
         4         136         137         153         152
         4         137         138         154         153
         4         138         139         155         154
         4         139         140         156         155
         4         140         141         157         156
         4         141         142         158         157
         4         142         143         159         158
         4         144         145         161         160
         4         145         146         162         161
         4         146         147         163         162
         4         147         148         164         163
         4         148         149         165         164
         4         149         150         166         165
         4         150         151         167         166
         4         151         152         168         167
         4         152         153         169         168
         4         153         154         170         169
         4         154         155         171         170
         4         155         156         172         171
         4         156         157         173         172
         4         157         158         174         173
         4         158         159         175         174
         4         160         161         177         176
         4         161         162         178         177
         4         162         163         179         178
         4         163         164         180         179
         4         164         165         181         180
         4         165         166         182         181
         4         166         167         183         182
         4         167         168         184         183
         4         168         169         185         184
         4         169         170         186         185
         4         170         171         187         186
         4         171         172         188         187
         4         172         173         189         188
         4         173         174         190         189
         4         174         175         191         190
         4         176         177         193         192
         4         177         178         194         193
         4         178         179         195         194
         4         179         180         196         195
         4         180         181         197         196
         4         181         182         198         197
         4         182         183         199         198
         4         183         184         200         199
         4         184         185         201         200
         4         185         186         202         201
         4         186         187         203         202
         4         187         188         204         203
         4         188         189         205         204
         4         189         190         206         205
         4         190         191         207         206
         4         192         193         209         208
         4         193         194         210         209
         4         194         195         211         210
         4         195         196         212         211
         4         196         197         213         212
         4         197         198         214         213
         4         198         199         215         214
         4         199         200         216         215
         4         200         201         217         216
         4         201         202         218         217
         4         202         203         219         218
         4         203         204         220         219
         4         204         205         221         220
         4         205         206         222         221
         4         206         207         223         222
         4         208         209         225         224
         4         209         210         226         225
         4         210         211         227         226
         4         211         212         228         227
         4         212         213         229         228
         4         213         214         230         229
         4         214         215         231         230
         4         215         216         232         231
         4         216         217         233         232
         4         217         218         234         233
         4         218         219         235         234
         4         219         220         236         235
         4         220         221         237         236
         4         221         222         238         237
         4         222         223         239         238
         4         224         225         241         240
         4         225         226         242         241
         4         226         227         243         242
         4         227         228         244         243
         4         228         229         245         244
         4         229         230         246         245
         4         230         231         247         246
         4         231         232         248         247
         4         232         233         249         248
         4         233         234         250         249
         4         234         235         251         250
         4         235         236         252         251
         4         236         237         253         252
         4         237         238         254         253
         4         238         239         255         254
         4         240         241         257         256
         4         241         242         258         257
         4         242         243         259         258
         4         243         244         260         259
         4         244         245         261         260
         4         245         246         262         261
         4         246         247         263         262
         4         247         248         264         263
         4         248         249         265         264
         4         249         250         266         265
         4         250         251         267         266
         4         251         252         268         267
         4         252         253         269         268
         4         253         254         270         269
         4         254         255         271         270
         4         256         257         273         272
         4         257         258         274         273
         4         258         259         275         274
         4         259         260         276         275
         4         260         261         277         276
         4         261         262         278         277
         4         262         263         279         278
         4         263         264         280         279
         4         264         265         281         280
         4         265         266         282         281
         4         266         267         283         282
         4         267         268         284         283
         4         268         269         285         284
         4         269         270         286         285
         4         270         271         287         286
         4         272         273         289         288
         4         273         274         290         289
         4         274         275         291         290
         4         275         276         292         291
         4         276         277         293         292
         4         277         278         294         293
         4         278         279         295         294
         4         279         280         296         295
         4         280         281         297         296
         4         281         282         298         297
         4         282         283         299         298
         4         283         284         300         299
         4         284         285         301         300
         4         285         286         302         301
         4         286         287         303         302
         4         288         289         305         304
         4         289         290         306         305
         4         290         291         307         306
         4         291         292         308         307
         4         292         293         309         308
         4         293         294         310         309
         4         294         295         311         310
         4         295         296         312         311
         4         296         297         313         312
         4         297         298         314         313
         4         298         299         315         314
         4         299         300         316         315
         4         300         301         317         316
         4         301         302         318         317
         4         302         303         319         318
         4         304         305         321         320
         4         305         306         322         321
         4         306         307         323         322
         4         307         308         324         323
         4         308         309         325         324
         4         309         310         326         325
         4         310         311         327         326
         4         311         312         328         327
         4         312         313         329         328
         4         313         314         330         329
         4         314         315         331         330
         4         315         316         332         331
         4         316         317         333         332
         4         317         318         334         333
         4         318         319         335         334
         4         320         321         337         336
         4         321         322         338         337
         4         322         323         339         338
         4         323         324         340         339
         4         324         325         341         340
         4         325         326         342         341
         4         326         327         343         342
         4         327         328         344         343
         4         328         329         345         344
         4         329         330         346         345
         4         330         331         347         346
         4         331         332         348         347
         4         332         333         349         348
         4         333         334         350         349
         4         334         335         351         350
         4         336         337         353         352
         4         337         338         354         353
         4         338         339         355         354
         4         339         340         356         355
         4         340         341         357         356
         4         341         342         358         357
         4         342         343         359         358
         4         343         344         360         359
         4         344         345         361         360
         4         345         346         362         361
         4         346         347         363         362
         4         347         348         364         363
         4         348         349         365         364
         4         349         350         366         365
         4         350         351         367         366
         4         352         353         369         368
         4         353         354         370         369
         4         354         355         371         370
         4         355         356         372         371
         4         356         357         373         372
         4         357         358         374         373
         4         358         359         375         374
         4         359         360         376         375
         4         360         361         377         376
         4         361         362         378         377
         4         362         363         379         378
         4         363         364         380         379
         4         364         365         381         380
         4         365         366         382         381
         4         366         367         383         382
         4         368         369         385         384
         4         369         370         386         385
         4         370         371         387         386
         4         371         372         388         387
         4         372         373         389         388
         4         373         374         390         389
         4         374         375         391         390
         4         375         376         392         391
         4         376         377         393         392
         4         377         378         394         393
         4         378         379         395         394
         4         379         380         396         395
         4         380         381         397         396
         4         381         382         398         397
         4         382         383         399         398
         4         384         385         401         400
         4         385         386         402         401
         4         386         387         403         402
         4         387         388         404         403
         4         388         389         405         404
         4         389         390         406         405
         4         390         391         407         406
         4         391         392         408         407
         4         392         393         409         408
         4         393         394         410         409
         4         394         395         411         410
         4         395         396         412         411
         4         396         397         413         412
         4         397         398         414         413
         4         398         399         415         414
         4         400         401         417         416
         4         401         402         418         417
         4         402         403         419         418
         4         403         404         420         419
         4         404         405         421         420
         4         405         406         422         421
         4         406         407         423         422
         4         407         408         424         423
         4         408         409         425         424
         4         409         410         426         425
         4         410         411         427         426
         4         411         412         428         427
         4         412         413         429         428
         4         413         414         430         429
         4         414         415         431         430
         4         416         417         433         432
         4         417         418         434         433
         4         418         419         435         434
         4         419         420         436         435
         4         420         421         437         436
         4         421         422         438         437
         4         422         423         439         438
         4         423         424         440         439
         4         424         425         441         440
         4         425         426         442         441
         4         426         427         443         442
         4         427         428         444         443
         4         428         429         445         444
         4         429         430         446         445
         4         430         431         447         446
         4         432         433         449         448
         4         433         434         450         449
         4         434         435         451         450
         4         435         436         452         451
         4         436         437         453         452
         4         437         438         454         453
         4         438         439         455         454
         4         439         440         456         455
         4         440         441         457         456
         4         441         442         458         457
         4         442         443         459         458
         4         443         444         460         459
         4         444         445         461         460
         4         445         446         462         461
         4         446         447         463         462
         4         448         449         465         464
         4         449         450         466         465
         4         450         451         467         466
         4         451         452         468         467
         4         452         453         469         468
         4         453         454         470         469
         4         454         455         471         470
         4         455         456         472         471
         4         456         457         473         472
         4         457         458         474         473
         4         458         459         475         474
         4         459         460         476         475
         4         460         461         477         476
         4         461         462         478         477
         4         462         463         479         478
         4         464         465         481         480
         4         465         466         482         481
         4         466         467         483         482
         4         467         468         484         483
         4         468         469         485         484
         4         469         470         486         485
         4         470         471         487         486
         4         471         472         488         487
         4         472         473         489         488
         4         473         474         490         489
         4         474         475         491         490
         4         475         476         492         491
         4         476         477         493         492
         4         477         478         494         493
         4         478         479         495         494
CELL_TYPES        450
9
9
9
9
9
9
9
9
9
9
9
9
9
9
9
9
9
9
9
9
9
9
9
9
9
9
9
9
9
9
9
9
9
9
9
9
9
9
9
9
9
9
9
9
9
9
9
9
9
9
9
9
9
9
9
9
9
9
9
9
9
9
9
9
9
9
9
9
9
9
9
9
9
9
9
9
9
9
9
9
9
9
9
9
9
9
9
9
9
9
9
9
9
9
9
9
9
9
9
9
9
9
9
9
9
9
9
9
9
9
9
9
9
9
9
9
9
9
9
9
9
9
9
9
9
9
9
9
9
9
9
9
9
9
9
9
9
9
9
9
9
9
9
9
9
9
9
9
9
9
9
9
9
9
9
9
9
9
9
9
9
9
9
9
9
9
9
9
9
9
9
9
9
9
9
9
9
9
9
9
9
9
9
9
9
9
9
9
9
9
9
9
9
9
9
9
9
9
9
9
9
9
9
9
9
9
9
9
9
9
9
9
9
9
9
9
9
9
9
9
9
9
9
9
9
9
9
9
9
9
9
9
9
9
9
9
9
9
9
9
9
9
9
9
9
9
9
9
9
9
9
9
9
9
9
9
9
9
9
9
9
9
9
9
9
9
9
9
9
9
9
9
9
9
9
9
9
9
9
9
9
9
9
9
9
9
9
9
9
9
9
9
9
9
9
9
9
9
9
9
9
9
9
9
9
9
9
9
9
9
9
9
9
9
9
9
9
9
9
9
9
9
9
9
9
9
9
9
9
9
9
9
9
9
9
9
9
9
9
9
9
9
9
9
9
9
9
9
9
9
9
9
9
9
9
9
9
9
9
9
9
9
9
9
9
9
9
9
9
9
9
9
9
9
9
9
9
9
9
9
9
9
9
9
9
9
9
9
9
9
9
9
9
9
9
9
9
9
9
9
9
9
9
9
9
9
9
9
9
9
9
9
9
9
9
9
9
9
9
9
9
9
9
9
9
9
9
9
9
9
9
9
9
9
9
9
9
9
9
9
9
9
9
9
9
9
9
9
9
9
POINT_DATA       496
SCALARS p double 
LOOKUP_TABLE default
   55809805.4354559     
   55833113.6051801     
   55898852.9079780     
   56000188.7711185     
   56129866.0794204     
   56280550.7635041     
   56445071.2039992     
   56616564.9054889     
   56788544.5755810     
   56954901.9651582     
   57109869.3371529     
   57247959.4983861     
   57363907.4337996     
   57452639.3421698     
   57509295.4893732     
   57529327.5057346     
   55801048.5924265     
   55824716.1150524     
   55891422.5794952     
   55994174.8902861     
   56125573.1131437     
   56278156.8595325     
   56444648.8075660     
   56618101.0056979     
   56791958.7061434     
   56960060.8681436     
   57116597.8693233     
   57256047.7961448     
   57373114.5250088     
   57462693.3410195     
   57519890.3709275     
   57540116.2310454     
   55775071.8948004     
   55799818.8003470     
   55869432.3458991     
   55976441.9673377     
   56113011.5848482     
   56271300.6602418     
   56443714.3195158     
   56623048.4754919     
   56802546.7209113     
   56975890.5418949     
   57137145.4419350     
   57280685.6872954     
   57401121.4312913     
   57493253.8467456     
   57552084.1270483     
   57572896.8298215     
   55732385.5601654     
   55758938.4244838     
   55833416.3115989     
   55947547.6846469     
   56092763.8811621     
   56260586.9921280     
   56442891.5699289     
   56632047.5705571     
   56820965.0093408     
   57003066.0975543     
   57172211.0024811     
   57322602.2788779     
   57448692.7372458     
   57545122.2889351     
   57606709.0925140     
   57628515.5335522     
   55673851.4623203     
   55702948.8210564     
   55784277.9690325     
   55908432.9126362     
   56065807.4790254     
   56247023.8577565     
   56443211.4926670     
   56646146.4838548     
   56848277.6996763     
   57042671.6489890     
   57222907.5109039     
   57382950.8631209     
   57517032.4857806     
   57619557.8670054     
   57685072.1919888     
   57708301.6518140     
   55600711.3521447     
   55633109.0444580     
   55723316.3746390     
   55860443.2056897     
   56033528.5182879     
   56232024.9433163     
   56446100.8653578     
   56666774.2653118     
   56885912.4818126     
   57096138.6101115     
   57290683.1668206     
   57463214.4277904     
   57607676.2151539     
   57718159.1926361     
   57788830.0767153     
   57813940.2691395     
   55514635.0977465     
   55551110.0559189     
   55652268.3173018     
   55805362.8030780     
   55997743.3932790     
   56217414.5139341     
   56453366.7265487     
   56695701.8514197     
   56935596.4201906     
   57165155.6420202     
   57377206.0634795     
   57565066.8286674     
   57722331.7086581     
   57842688.9271911     
   57919803.1639505     
   57947282.4419886     
   55417785.0151850     
   55459137.1624557     
   55573364.5894269     
   55745459.4395961     
   55960726.1648794     
   56205431.5949128     
   56467172.2703301     
   56734985.8386282     
   56999265.2164092     
   57251542.5408927     
   57484203.3840607     
   57690179.5503138     
   57862657.2151184     
   57994829.1106875     
   58079715.6375059     
   58110079.4949782     
   55312891.2610076     
   55359943.6896274     
   55489396.4000119     
   55683535.8596975     
   55925236.8422951     
   56198727.1909813     
   56489996.5012028     
   56786885.8322222     
   57078935.4038092     
   57357076.2990612     
   57613242.1741429     
   57839959.8939246     
   58029961.7850469     
   58175850.7222757     
   58269844.0670060     
   58303623.7092051     
   55203333.9934266     
   55256931.4335058     
   55403786.8201291     
   55622981.6171706     
   55894542.2698136     
   56200344.2073690     
   56524565.3338774     
   56853741.3719057     
   57176524.1414629     
   57483252.9526764     
   57765434.3899923     
   58015202.3727014     
   58224808.4882001     
   58386177.1439951     
   58490553.3272384     
   58528273.5835229     
   55093227.2142738     
   55154232.1138868     
   55320659.5013542     
   55567814.4718914     
   55872415.6082469     
   56213662.9254137     
   56573734.4678774     
   56937787.0517370     
   57293594.2891332     
   57630962.5296019     
   57941043.4370704     
   58215630.3938449     
   58446497.1930766     
   58624817.4799276     
   58740694.8889858     
   58782838.2100962     
   54987494.7988648     
   55056779.0374600     
   55244890.2322828     
   55522691.9281464     
   55863089.7839588     
   56242283.0983307     
   56640292.2541900     
   57040872.8142023     
   57430991.9113052     
   57800045.3840884     
   58138962.0554736     
   58439299.5577742     
   58692399.2004504     
   58888642.2677259     
   59016839.6620759     
   59063792.5382450     
   54891919.1624550     
   54970347.0676578     
   55182113.2778351     
   55492857.0273065     
   55871121.6960448     
   56289794.1896401     
   56726631.5700449     
   57164038.6717618     
   57588327.9307068     
   57988685.5570655     
   58356021.7004387     
   58681827.0113516     
   58957111.5741559     
   59171471.5388573     
   59312316.1301540     
   59364294.2148636     
   54813123.5857972     
   54901517.7966320     
   55138629.5233815     
   55483954.0150613     
   55901093.4002986     
   56359354.6193789     
   56834210.8553330     
   57306867.4852389     
   57763234.1879398     
   58192579.9450376     
   58586081.3821156     
   58935403.5324312     
   59231395.1505062     
   59462944.4136503     
   59616025.7538670     
   59672974.6228583     
   54758413.8773027     
   54857488.8116783     
   55121120.5385006     
   55501602.8664686     
   55957028.9546386     
   56452955.4917872     
   56962683.6333808     
   57466504.6918607     
   57950296.2598767     
   58403801.1576658     
   58818829.8343425     
   59187537.2968215     
   59500858.1621115     
   59747142.0294700     
   59911013.4135554     
   59972483.7211454     
   54735343.6196679     
   54845581.0194393     
   55136002.4800838     
   55550549.4001012     
   56041336.0648019     
   56570181.5279195     
   57108522.4093143     
   57636190.7720785     
   58139532.5744480     
   58609248.8695408     
   59038220.8624603     
   59419472.6306977     
   59744349.3663908     
   60000944.0410002     
   60172783.7798010     
   60237783.2757529     
   54750765.6533209     
   54872192.6434555     
   55188145.2602118     
   55633102.8898641     
   56152987.6263268     
   56706203.1590959     
   57262900.7719473     
   57803106.0767835     
   58314257.2492147     
   58788564.5012737     
   59220452.4373369     
   59604227.5670334     
   59932034.2782831     
   60192116.9493414     
   60367378.9265763     
   60434210.2545334     
   54808974.0347344     
   54940787.9714235     
   55278526.5594722     
   55746434.3546505     
   56284545.6287619     
   56848650.0279505     
   57408540.5236428     
   57945292.5470183     
   58448145.7627079     
   58911378.4565274     
   59331404.8010009     
   59704208.1816757     
   60023151.8096426     
   60277165.7613486     
   60449273.8636682     
   60515377.3416473     
   54908312.0736532     
   55048284.3226520     
   55400189.5486694     
   55878151.4497769     
   56417524.0452865     
   56972958.1165817     
   57515210.1686252     
   58027422.0126862     
   58501343.2765397     
   58933788.6542972     
   59323487.9854659     
   59668398.2574759     
   59963496.3195601     
   60199037.2767189     
   60359212.6689187     
   60421048.4610881     
   55035328.9485177     
   55178927.1216892     
   55531662.4437088     
   55999443.2351979     
   56515551.5697429     
   57035814.9954642     
   57533636.7682167     
   57995277.7411536     
   58415557.8910303     
   58794068.0689941     
   59131941.6125372     
   59429210.3532275     
   59682757.2242807     
   59884855.5164514     
   60022208.5712203     
   60075233.5715208     
   55155270.7503657     
   55294498.2227916     
   55626884.2297990     
   56055125.7341474     
   56514956.5030260     
   56966565.6248090     
   57387862.6765757     
   57769084.3644374     
   58108329.3645943     
   58407818.6212656     
   58670820.0922254     
   58899249.8819724     
   59091997.6528417     
   59244013.4773182     
   59346078.4371057     
   59384899.3172432     
   55197579.3032080     
   55319700.3790099     
   55600908.6401771     
   55950362.2141665     
   56312971.2117152     
   56657059.7190738     
   56966677.1515274     
   57236365.3292507     
   57467140.2171667     
   57663196.2090804     
   57829239.3595858     
   57968530.6225759     
   58081796.3359025     
   58167160.0366333     
   58221086.2857814     
   58239897.6793640     
   55035582.8444188     
   55122269.1476711     
   55311695.0975496     
   55535081.9299549     
   55755044.6826341     
   55951629.5682193     
   56115821.0723651     
   56245927.1991412     
   56344821.1174183     
   56417497.4456085     
   56469019.8553320     
   56503140.3122096     
   56521949.6849667     
   56526924.5421919     
   56521532.8701613     
   56514966.9644275     
   54461569.9401998     
   54489650.5700237     
   54540876.1582709     
   54589682.7585711     
   54625040.2384652     
   54640810.2565809     
   54634246.6341271     
   54605885.8069183     
   54558817.2346858     
   54497355.1199326     
   54425675.3733833     
   54347028.0813832     
   54264159.1116146     
   54181614.3596792     
   54110420.5943043     
   54074914.0882808     
   53163389.1592948     
   53109217.2575657     
   52981298.2841223     
   52819738.9519135     
   52645289.9924430     
   52464805.8440701     
   52279546.9146568     
   52090136.5453851     
   51898160.2078586     
   51705923.1960235     
   51515697.5620871     
   51329425.4864084     
   51149768.4500752     
   50983537.7232560     
   50848545.0449700     
   50784218.8240328     
   50718118.0270156     
   50567840.7275765     
   50246161.4812021     
   49872197.1326288     
   49496384.7266262     
   49134458.2935780     
   48788845.6399110     
   48458606.2144082     
   48142844.4265286     
   47841261.7015284     
   47553881.4007863     
   47281110.7466183     
   47025115.2663753     
   46793815.0840692     
   46609274.8821549     
   46522048.2602394     
   46630887.9056461     
   46396779.8436874     
   45920140.2714807     
   45387200.9070723     
   44866071.8151675     
   44376244.4743923     
   43920181.1946926     
   43495560.7704094     
   43099469.4467553     
   42729512.0561399     
   42384018.5989528     
   42062437.6218294     
   41766749.5465574     
   41505013.3782766     
   41299442.4618279     
   41202623.5804235     
   40452421.2961173     
   40188762.8851354     
   39667478.3882403     
   39091063.1587828     
   38528131.3633336     
   38000708.0728790     
   37513576.9273230     
   37065290.5586321     
   36652667.7775354     
   36272612.1470498     
   35922968.2405404     
   35603353.2883872     
   35316547.3825253     
   35070906.0621838     
   34884615.7879043     
   34798688.6041510     
   31984910.6968977     
   31787449.0249202     
   31382403.4125053     
   30910560.6438385     
   30433699.2329497     
   29980120.4564199     
   29559962.7805847     
   29174808.3409411     
   28822948.8251052     
   28502040.0037639     
   28210588.1810779     
   27949201.5626203     
   27722093.0714323     
   27538681.6584457     
   27413690.3303551     
   27362219.6279067     
   21521671.8809709     
   21481052.7106066     
   21307862.7010242     
   21054239.6359276     
   20777525.3825560     
   20506784.3050063     
   20253723.2562019     
   20021686.2680882     
   19810603.9067653     
   19619498.2554064     
   19447893.1356675     
   19296956.5001116     
   19170825.0660379     
   19078044.0060907     
   19031515.4293057     
   19035678.4527973     
   10000000.0000000     
   10000000.0000000     
   10000000.0000000     
   10000000.0000000     
   10000000.0000000     
   10000000.0000000     
   10000000.0000000     
   10000000.0000000     
   10000000.0000000     
   10000000.0000000     
   10000000.0000000     
   10000000.0000000     
   10000000.0000000     
  10000000.00000000     
   10000000.0000000     
   10000000.0000000     
VECTORS u double 
    0.00000E+00        -0.16907E+00         0.00000E+00
    0.00000E+00        -0.14825E+00         0.00000E+00
    0.00000E+00        -0.12790E+00         0.00000E+00
    0.00000E+00        -0.10845E+00         0.00000E+00
    0.00000E+00        -0.90259E-01         0.00000E+00
    0.00000E+00        -0.73584E-01         0.00000E+00
    0.00000E+00        -0.58621E-01         0.00000E+00
    0.00000E+00        -0.45489E-01         0.00000E+00
    0.00000E+00        -0.34237E-01         0.00000E+00
    0.00000E+00        -0.24850E-01         0.00000E+00
    0.00000E+00        -0.17252E-01         0.00000E+00
    0.00000E+00        -0.11316E-01         0.00000E+00
    0.00000E+00        -0.68619E-02         0.00000E+00
    0.00000E+00        -0.36685E-02         0.00000E+00
    0.00000E+00        -0.14770E-02         0.00000E+00
    0.00000E+00         0.00000E+00         0.00000E+00
    0.22317E-01        -0.16924E+00         0.00000E+00
    0.21764E-01        -0.14837E+00         0.00000E+00
    0.20802E-01        -0.12798E+00         0.00000E+00
    0.19501E-01        -0.10850E+00         0.00000E+00
    0.17933E-01        -0.90274E-01         0.00000E+00
    0.16167E-01        -0.73576E-01         0.00000E+00
    0.14272E-01        -0.58595E-01         0.00000E+00
    0.12312E-01        -0.45450E-01         0.00000E+00
    0.10344E-01        -0.34191E-01         0.00000E+00
    0.84233E-02        -0.24801E-01         0.00000E+00
    0.65958E-02        -0.17205E-01         0.00000E+00
    0.49024E-02        -0.11274E-01         0.00000E+00
    0.33767E-02        -0.68282E-02         0.00000E+00
    0.20434E-02        -0.36457E-02         0.00000E+00
    0.91725E-03        -0.14660E-02         0.00000E+00
    0.00000E+00         0.00000E+00         0.00000E+00
    0.44828E-01        -0.16974E+00         0.00000E+00
    0.43690E-01        -0.14874E+00         0.00000E+00
    0.41737E-01        -0.12823E+00         0.00000E+00
    0.39109E-01        -0.10865E+00         0.00000E+00
    0.35948E-01        -0.90337E-01         0.00000E+00
    0.32396E-01        -0.73567E-01         0.00000E+00
    0.28589E-01        -0.58532E-01         0.00000E+00
    0.24653E-01        -0.45350E-01         0.00000E+00
    0.20705E-01        -0.34067E-01         0.00000E+00
    0.16853E-01        -0.24667E-01         0.00000E+00
    0.13189E-01        -0.17074E-01         0.00000E+00
    0.97956E-02        -0.11156E-01         0.00000E+00
    0.67398E-02        -0.67335E-02         0.00000E+00
    0.40723E-02        -0.35811E-02         0.00000E+00
    0.18238E-02        -0.14350E-02         0.00000E+00
    0.00000E+00         0.00000E+00         0.00000E+00
    0.67725E-01        -0.17063E+00         0.00000E+00
    0.65942E-01        -0.14942E+00         0.00000E+00
    0.62939E-01        -0.12872E+00         0.00000E+00
    0.58930E-01        -0.10896E+00         0.00000E+00
    0.54129E-01        -0.90501E-01         0.00000E+00
    0.48749E-01        -0.73612E-01         0.00000E+00
    0.42994E-01        -0.58486E-01         0.00000E+00
    0.37054E-01        -0.45237E-01         0.00000E+00
    0.31102E-01        -0.33911E-01         0.00000E+00
    0.25298E-01        -0.24489E-01         0.00000E+00
    0.19781E-01        -0.16893E-01         0.00000E+00
    0.14674E-01        -0.10990E-01         0.00000E+00
    0.10080E-01        -0.65971E-02         0.00000E+00
    0.60751E-02        -0.34870E-02         0.00000E+00
    0.27107E-02        -0.13895E-02         0.00000E+00
    0.00000E+00         0.00000E+00         0.00000E+00
    0.91206E-01        -0.17198E+00         0.00000E+00
    0.88683E-01        -0.15049E+00         0.00000E+00
    0.84542E-01        -0.12952E+00         0.00000E+00
    0.79070E-01        -0.10952E+00         0.00000E+00
    0.72559E-01        -0.90856E-01         0.00000E+00
    0.65291E-01        -0.73801E-01         0.00000E+00
    0.57538E-01        -0.58544E-01         0.00000E+00
    0.49551E-01        -0.45196E-01         0.00000E+00
    0.41560E-01        -0.33801E-01         0.00000E+00
    0.33775E-01        -0.24335E-01         0.00000E+00
    0.26381E-01        -0.16720E-01         0.00000E+00
    0.19541E-01        -0.10820E-01         0.00000E+00
    0.13393E-01        -0.64524E-02         0.00000E+00
    0.80458E-02        -0.33844E-02         0.00000E+00
    0.35723E-02        -0.13392E-02         0.00000E+00
    0.00000E+00         0.00000E+00         0.00000E+00
    0.11547E+00        -0.17391E+00         0.00000E+00
    0.11208E+00        -0.15206E+00         0.00000E+00
    0.10668E+00        -0.13075E+00         0.00000E+00
    0.99637E-01        -0.11045E+00         0.00000E+00
    0.91321E-01        -0.91534E-01         0.00000E+00
    0.82087E-01        -0.74265E-01         0.00000E+00
    0.72271E-01        -0.58834E-01         0.00000E+00
    0.62185E-01        -0.45349E-01         0.00000E+00
    0.52112E-01        -0.33847E-01         0.00000E+00
    0.42310E-01        -0.24304E-01         0.00000E+00
    0.33009E-01        -0.16638E-01         0.00000E+00
    0.24410E-01        -0.10715E-01         0.00000E+00
    0.16688E-01        -0.63482E-02         0.00000E+00
    0.99868E-02        -0.33041E-02         0.00000E+00
    0.44075E-02        -0.12983E-02         0.00000E+00
    0.00000E+00         0.00000E+00         0.00000E+00
    0.14071E+00        -0.17657E+00         0.00000E+00
    0.13629E+00        -0.15430E+00         0.00000E+00
    0.12948E+00        -0.13259E+00         0.00000E+00
    0.12073E+00        -0.11194E+00         0.00000E+00
    0.11050E+00        -0.92710E-01         0.00000E+00
    0.99204E-01        -0.75179E-01         0.00000E+00
    0.87250E-01        -0.59528E-01         0.00000E+00
    0.75005E-01        -0.45858E-01         0.00000E+00
    0.62803E-01        -0.34202E-01         0.00000E+00
    0.50944E-01        -0.24530E-01         0.00000E+00
    0.39699E-01        -0.16762E-01         0.00000E+00
    0.29310E-01        -0.10764E-01         0.00000E+00
    0.19987E-01        -0.63507E-02         0.00000E+00
    0.11912E-01        -0.32880E-02         0.00000E+00
    0.52223E-02        -0.12862E-02         0.00000E+00
    0.00000E+00         0.00000E+00         0.00000E+00
    0.16714E+00        -0.18015E+00         0.00000E+00
    0.16148E+00        -0.15740E+00         0.00000E+00
    0.15307E+00        -0.13525E+00         0.00000E+00
    0.14246E+00        -0.11419E+00         0.00000E+00
    0.13017E+00        -0.94607E-01         0.00000E+00
    0.11671E+00        -0.76767E-01         0.00000E+00
    0.10254E+00        -0.60845E-01         0.00000E+00
    0.88070E-01        -0.46933E-01         0.00000E+00
    0.73689E-01        -0.35057E-01         0.00000E+00
    0.59734E-01        -0.25186E-01         0.00000E+00
    0.46508E-01        -0.17239E-01         0.00000E+00
    0.34291E-01        -0.11084E-01         0.00000E+00
    0.23332E-01        -0.65458E-02         0.00000E+00
    0.13851E-01        -0.33910E-02         0.00000E+00
    0.60315E-02        -0.13283E-02         0.00000E+00
    0.00000E+00         0.00000E+00         0.00000E+00
    0.19495E+00        -0.18488E+00         0.00000E+00
    0.18780E+00        -0.16161E+00         0.00000E+00
    0.17758E+00        -0.13898E+00         0.00000E+00
    0.16491E+00        -0.11748E+00         0.00000E+00
    0.15042E+00        -0.97503E-01         0.00000E+00
    0.13468E+00        -0.79309E-01         0.00000E+00
    0.11820E+00        -0.63059E-01         0.00000E+00
    0.10145E+00        -0.48836E-01         0.00000E+00
    0.84846E-01        -0.36658E-01         0.00000E+00
    0.68756E-01        -0.26489E-01         0.00000E+00
    0.53515E-01        -0.18251E-01         0.00000E+00
    0.39430E-01        -0.11825E-01         0.00000E+00
    0.26787E-01        -0.70426E-02         0.00000E+00
    0.15853E-01        -0.36824E-02         0.00000E+00
    0.68610E-02        -0.14569E-02         0.00000E+00
    0.00000E+00         0.00000E+00         0.00000E+00
    0.22434E+00        -0.19105E+00         0.00000E+00
    0.21541E+00        -0.16725E+00         0.00000E+00
    0.20311E+00        -0.14410E+00         0.00000E+00
    0.18818E+00        -0.12214E+00         0.00000E+00
    0.17132E+00        -0.10174E+00         0.00000E+00
    0.15318E+00        -0.83143E-01         0.00000E+00
    0.13431E+00        -0.66505E-01         0.00000E+00
    0.11523E+00        -0.51887E-01         0.00000E+00
    0.96365E-01        -0.39299E-01         0.00000E+00
    0.78114E-01        -0.28702E-01         0.00000E+00
    0.60825E-01        -0.20028E-01         0.00000E+00
    0.44830E-01        -0.13168E-01         0.00000E+00
    0.30447E-01        -0.79757E-02         0.00000E+00
    0.17989E-01        -0.42485E-02         0.00000E+00
    0.77512E-02        -0.17122E-02         0.00000E+00
    0.00000E+00         0.00000E+00         0.00000E+00
    0.25551E+00        -0.19900E+00         0.00000E+00
    0.24445E+00        -0.17466E+00         0.00000E+00
    0.22978E+00        -0.15100E+00         0.00000E+00
    0.21234E+00        -0.12856E+00         0.00000E+00
    0.19294E+00        -0.10771E+00         0.00000E+00
    0.17227E+00        -0.88680E-01         0.00000E+00
    0.15094E+00        -0.71583E-01         0.00000E+00
    0.12949E+00        -0.56470E-01         0.00000E+00
    0.10836E+00        -0.43337E-01         0.00000E+00
    0.87937E-01        -0.32147E-01         0.00000E+00
    0.68581E-01        -0.22840E-01         0.00000E+00
    0.50633E-01        -0.15334E-01         0.00000E+00
    0.34440E-01        -0.95087E-02         0.00000E+00
    0.20359E-01        -0.51947E-02         0.00000E+00
    0.87590E-02        -0.21436E-02         0.00000E+00
    0.00000E+00         0.00000E+00         0.00000E+00
    0.28865E+00        -0.20914E+00         0.00000E+00
    0.27504E+00        -0.18428E+00         0.00000E+00
    0.25765E+00        -0.16013E+00         0.00000E+00
    0.23746E+00        -0.13722E+00         0.00000E+00
    0.21532E+00        -0.11592E+00         0.00000E+00
    0.19202E+00        -0.96400E-01         0.00000E+00
    0.16819E+00        -0.78767E-01         0.00000E+00
    0.14435E+00        -0.63037E-01         0.00000E+00
    0.12096E+00        -0.49193E-01         0.00000E+00
    0.98384E-01        -0.37199E-01         0.00000E+00
    0.76956E-01        -0.27013E-01         0.00000E+00
    0.57018E-01        -0.18584E-01         0.00000E+00
    0.38931E-01        -0.11837E-01         0.00000E+00
    0.23096E-01        -0.66472E-02         0.00000E+00
    0.99610E-02        -0.28107E-02         0.00000E+00
    0.00000E+00         0.00000E+00         0.00000E+00
    0.32392E+00        -0.22194E+00         0.00000E+00
    0.30729E+00        -0.19661E+00         0.00000E+00
    0.28681E+00        -0.17201E+00         0.00000E+00
    0.26355E+00        -0.14867E+00         0.00000E+00
    0.23851E+00        -0.12690E+00         0.00000E+00
    0.21247E+00        -0.10687E+00         0.00000E+00
    0.18611E+00        -0.88609E-01         0.00000E+00
    0.15993E+00        -0.72115E-01         0.00000E+00
    0.13433E+00        -0.57353E-01         0.00000E+00
    0.10965E+00        -0.44294E-01         0.00000E+00
    0.86167E-01        -0.32920E-01         0.00000E+00
    0.64207E-01        -0.23223E-01         0.00000E+00
    0.44128E-01        -0.15187E-01         0.00000E+00
    0.26369E-01        -0.87541E-02         0.00000E+00
    0.11456E-01        -0.37839E-02         0.00000E+00
    0.00000E+00         0.00000E+00         0.00000E+00
    0.36147E+00        -0.23795E+00         0.00000E+00
    0.34128E+00        -0.21224E+00         0.00000E+00
    0.31725E+00        -0.18727E+00         0.00000E+00
    0.29064E+00        -0.16354E+00         0.00000E+00
    0.26250E+00        -0.14133E+00         0.00000E+00
    0.23367E+00        -0.12073E+00         0.00000E+00
    0.20480E+00        -0.10174E+00         0.00000E+00
    0.17635E+00        -0.84301E-01         0.00000E+00
    0.14865E+00        -0.68371E-01         0.00000E+00
    0.12195E+00        -0.53927E-01         0.00000E+00
    0.96465E-01        -0.40986E-01         0.00000E+00
    0.72465E-01        -0.29598E-01         0.00000E+00
    0.50283E-01        -0.19821E-01         0.00000E+00
    0.30382E-01        -0.11686E-01         0.00000E+00
    0.13368E-01        -0.51448E-02         0.00000E+00
    0.00000E+00         0.00000E+00         0.00000E+00
    0.40144E+00        -0.25784E+00         0.00000E+00
    0.37704E+00        -0.23185E+00         0.00000E+00
    0.34898E+00        -0.20661E+00         0.00000E+00
    0.31867E+00        -0.18257E+00         0.00000E+00
    0.28726E+00        -0.15994E+00         0.00000E+00
    0.25561E+00        -0.13873E+00         0.00000E+00
    0.22431E+00        -0.11886E+00         0.00000E+00
    0.19373E+00        -0.10026E+00         0.00000E+00
    0.16410E+00        -0.82858E-01         0.00000E+00
    0.13553E+00        -0.66642E-01         0.00000E+00
    0.10814E+00        -0.51679E-01         0.00000E+00
    0.82096E-01        -0.38089E-01         0.00000E+00
    0.57689E-01        -0.26027E-01         0.00000E+00
    0.35380E-01        -0.15635E-01         0.00000E+00
    0.15845E-01        -0.69863E-02         0.00000E+00
    0.00000E+00         0.00000E+00         0.00000E+00
    0.44391E+00        -0.28235E+00         0.00000E+00
    0.41454E+00        -0.25625E+00         0.00000E+00
    0.38189E+00        -0.23088E+00         0.00000E+00
    0.34755E+00        -0.20662E+00         0.00000E+00
    0.31273E+00        -0.18357E+00         0.00000E+00
    0.27827E+00        -0.16167E+00         0.00000E+00
    0.24469E+00        -0.14077E+00         0.00000E+00
    0.21220E+00        -0.12072E+00         0.00000E+00
    0.18087E+00        -0.10147E+00         0.00000E+00
    0.15065E+00        -0.83020E-01         0.00000E+00
    0.12149E+00        -0.65497E-01         0.00000E+00
    0.93433E-01        -0.49106E-01         0.00000E+00
    0.66672E-01        -0.34117E-01         0.00000E+00
    0.41638E-01        -0.20809E-01         0.00000E+00
    0.19058E-01        -0.94109E-02         0.00000E+00
    0.00000E+00         0.00000E+00         0.00000E+00
    0.48892E+00        -0.31242E+00         0.00000E+00
    0.45369E+00        -0.28639E+00         0.00000E+00
    0.41582E+00        -0.26104E+00         0.00000E+00
    0.37707E+00        -0.23664E+00         0.00000E+00
    0.33873E+00        -0.21318E+00         0.00000E+00
    0.30157E+00        -0.19046E+00         0.00000E+00
    0.26594E+00        -0.16828E+00         0.00000E+00
    0.23185E+00        -0.14644E+00         0.00000E+00
    0.19915E+00        -0.12488E+00         0.00000E+00
    0.16757E+00        -0.10365E+00         0.00000E+00
    0.13684E+00        -0.82943E-01         0.00000E+00
    0.10682E+00        -0.63064E-01         0.00000E+00
    0.77575E-01        -0.44412E-01         0.00000E+00
    0.49454E-01        -0.27428E-01         0.00000E+00
    0.23196E-01        -0.12528E-01         0.00000E+00
    0.00000E+00         0.00000E+00         0.00000E+00
    0.53641E+00        -0.34913E+00         0.00000E+00
    0.49427E+00        -0.32338E+00         0.00000E+00
    0.45045E+00        -0.29820E+00         0.00000E+00
    0.40695E+00        -0.27373E+00         0.00000E+00
    0.36504E+00        -0.24978E+00         0.00000E+00
    0.32535E+00        -0.22605E+00         0.00000E+00
    0.28800E+00        -0.20224E+00         0.00000E+00
    0.25273E+00        -0.17815E+00         0.00000E+00
    0.21908E+00        -0.15373E+00         0.00000E+00
    0.18649E+00        -0.12909E+00         0.00000E+00
    0.15445E+00        -0.10449E+00         0.00000E+00
    0.12258E+00        -0.80358E-01         0.00000E+00
    0.90728E-01        -0.57224E-01         0.00000E+00
    0.59123E-01        -0.35710E-01         0.00000E+00
    0.28453E-01        -0.16452E-01         0.00000E+00
    0.00000E+00         0.00000E+00         0.00000E+00
    0.58619E+00        -0.39385E+00         0.00000E+00
    0.53585E+00        -0.36856E+00         0.00000E+00
    0.48530E+00        -0.34366E+00         0.00000E+00
    0.43671E+00        -0.31909E+00         0.00000E+00
    0.39127E+00        -0.29447E+00         0.00000E+00
    0.34935E+00        -0.26938E+00         0.00000E+00
    0.31074E+00        -0.24347E+00         0.00000E+00
    0.27479E+00        -0.21654E+00         0.00000E+00
    0.24070E+00        -0.18860E+00         0.00000E+00
    0.20755E+00        -0.15982E+00         0.00000E+00
    0.17453E+00        -0.13055E+00         0.00000E+00
    0.14094E+00        -0.10133E+00         0.00000E+00
    0.10640E+00        -0.72825E-01         0.00000E+00
    0.70904E-01        -0.45854E-01         0.00000E+00
    0.35010E-01        -0.21291E-01         0.00000E+00
    0.00000E+00         0.00000E+00         0.00000E+00
    0.63784E+00        -0.44824E+00         0.00000E+00
    0.57778E+00        -0.42351E+00         0.00000E+00
    0.51962E+00        -0.39889E+00         0.00000E+00
    0.46567E+00        -0.37403E+00         0.00000E+00
    0.41686E+00        -0.34835E+00         0.00000E+00
    0.37315E+00        -0.32134E+00         0.00000E+00
    0.33384E+00        -0.29265E+00         0.00000E+00
    0.29784E+00        -0.26214E+00         0.00000E+00
    0.26389E+00        -0.22988E+00         0.00000E+00
    0.23070E+00        -0.19614E+00         0.00000E+00
    0.19708E+00        -0.16137E+00         0.00000E+00
    0.16200E+00        -0.12619E+00         0.00000E+00
    0.12473E+00        -0.91419E-01         0.00000E+00
    0.84964E-01        -0.58026E-01         0.00000E+00
    0.43007E-01        -0.27144E-01         0.00000E+00
    0.00000E+00         0.00000E+00         0.00000E+00
    0.69056E+00        -0.51438E+00         0.00000E+00
    0.61896E+00        -0.49012E+00         0.00000E+00
    0.55232E+00        -0.46552E+00         0.00000E+00
    0.49284E+00        -0.43989E+00         0.00000E+00
    0.44100E+00        -0.41245E+00         0.00000E+00
    0.39610E+00        -0.38267E+00         0.00000E+00
    0.35680E+00        -0.35026E+00         0.00000E+00
    0.32145E+00        -0.31520E+00         0.00000E+00
    0.28829E+00        -0.27770E+00         0.00000E+00
    0.25562E+00        -0.23812E+00         0.00000E+00
    0.22185E+00        -0.19699E+00         0.00000E+00
    0.18556E+00        -0.15502E+00         0.00000E+00
    0.14562E+00        -0.11309E+00         0.00000E+00
    0.10130E+00        -0.72324E-01         0.00000E+00
    0.52493E-01        -0.34088E-01         0.00000E+00
    0.00000E+00         0.00000E+00         0.00000E+00
    0.74290E+00        -0.59481E+00         0.00000E+00
    0.65768E+00        -0.57055E+00         0.00000E+00
    0.58176E+00        -0.54530E+00         0.00000E+00
    0.51685E+00        -0.51793E+00         0.00000E+00
    0.46254E+00        -0.48757E+00         0.00000E+00
    0.41723E+00        -0.45374E+00         0.00000E+00
    0.37876E+00        -0.41634E+00         0.00000E+00
    0.34481E+00        -0.37557E+00         0.00000E+00
    0.31312E+00        -0.33178E+00         0.00000E+00
    0.28155E+00        -0.28545E+00         0.00000E+00
    0.24813E+00        -0.23716E+00         0.00000E+00
    0.21103E+00        -0.18763E+00         0.00000E+00
    0.16863E+00        -0.13776E+00         0.00000E+00
    0.11965E+00        -0.88756E-01         0.00000E+00
    0.63375E-01        -0.42166E-01         0.00000E+00
    0.00000E+00         0.00000E+00         0.00000E+00
    0.79240E+00        -0.69261E+00         0.00000E+00
    0.69135E+00        -0.66721E+00         0.00000E+00
    0.60561E+00        -0.63991E+00         0.00000E+00
    0.53572E+00        -0.60914E+00         0.00000E+00
    0.47985E+00        -0.57404E+00         0.00000E+00
    0.43511E+00        -0.53438E+00         0.00000E+00
    0.39835E+00        -0.49039E+00         0.00000E+00
    0.36657E+00        -0.44252E+00         0.00000E+00
    0.33700E+00        -0.39133E+00         0.00000E+00
    0.30713E+00        -0.33737E+00         0.00000E+00
    0.27461E+00        -0.28122E+00         0.00000E+00
    0.23720E+00        -0.22354E+00         0.00000E+00
    0.19277E+00        -0.16515E+00         0.00000E+00
    0.13934E+00        -0.10721E+00         0.00000E+00
    0.75333E-01        -0.51372E-01         0.00000E+00
    0.00000E+00         0.00000E+00         0.00000E+00
    0.83497E+00        -0.81117E+00         0.00000E+00
    0.71609E+00        -0.78244E+00         0.00000E+00
    0.62062E+00        -0.75063E+00         0.00000E+00
    0.54681E+00        -0.71383E+00         0.00000E+00
    0.49066E+00        -0.67139E+00         0.00000E+00
    0.44766E+00        -0.62357E+00         0.00000E+00
    0.41354E+00        -0.57104E+00         0.00000E+00
    0.38464E+00        -0.51457E+00         0.00000E+00
    0.35777E+00        -0.45488E+00         0.00000E+00
    0.33013E+00        -0.39255E+00         0.00000E+00
    0.29911E+00        -0.32807E+00         0.00000E+00
    0.26208E+00        -0.26191E+00         0.00000E+00
    0.21635E+00        -0.19470E+00         0.00000E+00
    0.15913E+00        -0.12741E+00         0.00000E+00
    0.87732E-01        -0.61642E-01         0.00000E+00
    0.00000E+00         0.00000E+00         0.00000E+00
    0.86417E+00        -0.95382E+00         0.00000E+00
    0.72636E+00        -0.91801E+00         0.00000E+00
    0.62236E+00        -0.87780E+00         0.00000E+00
    0.54655E+00        -0.83112E+00         0.00000E+00
    0.49191E+00        -0.77793E+00         0.00000E+00
    0.45195E+00        -0.71913E+00         0.00000E+00
    0.42137E+00        -0.65593E+00         0.00000E+00
    0.39592E+00        -0.58938E+00         0.00000E+00
    0.37220E+00        -0.52026E+00         0.00000E+00
    0.34729E+00        -0.44907E+00         0.00000E+00
    0.31839E+00        -0.37609E+00         0.00000E+00
    0.28263E+00        -0.30152E+00         0.00000E+00
    0.23675E+00        -0.22559E+00         0.00000E+00
    0.17708E+00        -0.14892E+00         0.00000E+00
    0.99511E-01        -0.72839E-01         0.00000E+00
    0.00000E+00         0.00000E+00         0.00000E+00
    0.87037E+00        -0.11228E+01         0.00000E+00
    0.71460E+00        -0.10741E+01         0.00000E+00
    0.60517E+00        -0.10198E+01         0.00000E+00
    0.53043E+00        -0.95823E+00         0.00000E+00
    0.47954E+00        -0.89017E+00         0.00000E+00
    0.44402E+00        -0.81738E+00         0.00000E+00
    0.41770E+00        -0.74149E+00         0.00000E+00
    0.39610E+00        -0.66365E+00         0.00000E+00
    0.37584E+00        -0.58454E+00         0.00000E+00
    0.35404E+00        -0.50440E+00         0.00000E+00
    0.32796E+00        -0.42321E+00         0.00000E+00
    0.29457E+00        -0.34073E+00         0.00000E+00
    0.25022E+00        -0.25669E+00         0.00000E+00
    0.19029E+00        -0.17109E+00         0.00000E+00
    0.10906E+00        -0.84746E-01         0.00000E+00
    0.00000E+00         0.00000E+00         0.00000E+00
    0.84004E+00        -0.13174E+01         0.00000E+00
    0.67127E+00        -0.12478E+01         0.00000E+00
    0.56223E+00        -0.11721E+01         0.00000E+00
    0.49299E+00        -0.10895E+01         0.00000E+00
    0.44847E+00        -0.10024E+01         0.00000E+00
    0.41865E+00        -0.91299E+00         0.00000E+00
    0.39710E+00        -0.82299E+00         0.00000E+00
    0.37954E+00        -0.73330E+00         0.00000E+00
    0.36288E+00        -0.64421E+00         0.00000E+00
    0.34454E+00        -0.55558E+00         0.00000E+00
    0.32201E+00        -0.46694E+00         0.00000E+00
    0.29236E+00        -0.37756E+00         0.00000E+00
    0.25176E+00        -0.28655E+00         0.00000E+00
    0.19483E+00        -0.19310E+00         0.00000E+00
    0.11412E+00        -0.97052E-01         0.00000E+00
    0.00000E+00         0.00000E+00         0.00000E+00
    0.75582E+00        -0.15311E+01         0.00000E+00
    0.58549E+00        -0.14305E+01         0.00000E+00
    0.48629E+00        -0.13250E+01         0.00000E+00
    0.42809E+00        -0.12158E+01         0.00000E+00
    0.39252E+00        -0.11064E+01         0.00000E+00
    0.36937E+00        -0.99909E+00         0.00000E+00
    0.35285E+00        -0.89482E+00         0.00000E+00
    0.33935E+00        -0.79374E+00         0.00000E+00
    0.32636E+00        -0.69550E+00         0.00000E+00
    0.31181E+00        -0.59942E+00         0.00000E+00
    0.29361E+00        -0.50456E+00         0.00000E+00
    0.26922E+00        -0.40973E+00         0.00000E+00
    0.23506E+00        -0.31342E+00         0.00000E+00
    0.18551E+00        -0.21382E+00         0.00000E+00
    0.11159E+00        -0.10934E+00         0.00000E+00
    0.00000E+00         0.00000E+00         0.00000E+00
    0.59780E+00        -0.17474E+01         0.00000E+00
    0.44714E+00        -0.16054E+01         0.00000E+00
    0.37082E+00        -0.14625E+01         0.00000E+00
    0.32921E+00        -0.13236E+01         0.00000E+00
    0.30449E+00        -0.11919E+01         0.00000E+00
    0.28857E+00        -0.10680E+01         0.00000E+00
    0.27718E+00        -0.95112E+00         0.00000E+00
    0.26776E+00        -0.84044E+00         0.00000E+00
    0.25859E+00        -0.73479E+00         0.00000E+00
    0.24823E+00        -0.63292E+00         0.00000E+00
    0.23520E+00        -0.53347E+00         0.00000E+00
    0.21762E+00        -0.43487E+00         0.00000E+00
    0.19268E+00        -0.33519E+00         0.00000E+00
    0.15565E+00        -0.23179E+00         0.00000E+00
    0.97201E-01        -0.12100E+00         0.00000E+00
    0.00000E+00         0.00000E+00         0.00000E+00
    0.34710E+00        -0.19339E+01         0.00000E+00
    0.25121E+00        -0.17423E+01         0.00000E+00
    0.21076E+00        -0.15614E+01         0.00000E+00
    0.18915E+00        -0.13973E+01         0.00000E+00
    0.17638E+00        -0.12484E+01         0.00000E+00
    0.16806E+00        -0.11124E+01         0.00000E+00
    0.16201E+00        -0.98684E+00         0.00000E+00
    0.15694E+00        -0.86973E+00         0.00000E+00
    0.15197E+00        -0.75926E+00         0.00000E+00
    0.14638E+00        -0.65373E+00         0.00000E+00
    0.13940E+00        -0.55152E+00         0.00000E+00
    0.13004E+00        -0.45082E+00         0.00000E+00
    0.11675E+00        -0.34950E+00         0.00000E+00
    0.96790E-01        -0.24457E+00         0.00000E+00
    0.64448E-01        -0.13107E+00         0.00000E+00
    0.00000E+00         0.00000E+00         0.00000E+00
    0.00000E+00        -0.20242E+01         0.00000E+00
    0.00000E+00        -0.17965E+01         0.00000E+00
    0.00000E+00        -0.15978E+01         0.00000E+00
    0.00000E+00        -0.14234E+01         0.00000E+00
    0.00000E+00        -0.12680E+01         0.00000E+00
    0.00000E+00        -0.11276E+01         0.00000E+00
    0.00000E+00        -0.99890E+00         0.00000E+00
    0.00000E+00        -0.87954E+00         0.00000E+00
    0.00000E+00        -0.76740E+00         0.00000E+00
    0.00000E+00        -0.66065E+00         0.00000E+00
    0.00000E+00        -0.55753E+00         0.00000E+00
    0.00000E+00        -0.45620E+00         0.00000E+00
    0.00000E+00        -0.35446E+00         0.00000E+00
    0.00000E+00        -0.24925E+00         0.00000E+00
    0.00000E+00        -0.13557E+00         0.00000E+00
    0.00000E+00         0.00000E+00         0.00000E+00
CELL_DATA        450
VECTORS vDarcy double 
    0.34309E-10         0.93951E-10         0.00000E+00
    0.31656E-10         0.26489E-09         0.00000E+00
    0.26888E-10         0.40818E-09         0.00000E+00
    0.20614E-10         0.52215E-09         0.00000E+00
    0.13374E-10         0.60654E-09         0.00000E+00
    0.56326E-11         0.66202E-09         0.00000E+00
   -0.22274E-11         0.68989E-09         0.00000E+00
   -0.99005E-11         0.69167E-09         0.00000E+00
   -0.17146E-10         0.66892E-09         0.00000E+00
   -0.23775E-10         0.62301E-09         0.00000E+00
   -0.29634E-10         0.55508E-09         0.00000E+00
   -0.34591E-10         0.46603E-09         0.00000E+00
   -0.38522E-10         0.35662E-09         0.00000E+00
   -0.41298E-10         0.22771E-09         0.00000E+00
   -0.42767E-10         0.80516E-10         0.00000E+00
    0.10175E-09         0.96829E-10         0.00000E+00
    0.93775E-10         0.27264E-09         0.00000E+00
    0.79446E-10         0.41952E-09         0.00000E+00
    0.60589E-10         0.53594E-09         0.00000E+00
    0.38835E-10         0.62175E-09         0.00000E+00
    0.15581E-10         0.67781E-09         0.00000E+00
   -0.80260E-11         0.70557E-09         0.00000E+00
   -0.31071E-10         0.70671E-09         0.00000E+00
   -0.52835E-10         0.68289E-09         0.00000E+00
   -0.72754E-10         0.63558E-09         0.00000E+00
   -0.90371E-10         0.56598E-09         0.00000E+00
   -0.10529E-09         0.47500E-09         0.00000E+00
   -0.11713E-09         0.36342E-09         0.00000E+00
   -0.12551E-09         0.23205E-09         0.00000E+00
   -0.12995E-09         0.82077E-10         0.00000E+00
    0.16713E-09         0.10260E-09         0.00000E+00
    0.15379E-09         0.28818E-09         0.00000E+00
    0.12982E-09         0.44228E-09         0.00000E+00
    0.98284E-10         0.56357E-09         0.00000E+00
    0.61923E-10         0.65222E-09         0.00000E+00
    0.23073E-10         0.70944E-09         0.00000E+00
   -0.16353E-10         0.73698E-09         0.00000E+00
   -0.54835E-10         0.73683E-09         0.00000E+00
   -0.91188E-10         0.71089E-09         0.00000E+00
   -0.12448E-09         0.66080E-09         0.00000E+00
   -0.15396E-09         0.58786E-09         0.00000E+00
   -0.17898E-09         0.49305E-09         0.00000E+00
   -0.19888E-09         0.37712E-09         0.00000E+00
   -0.21299E-09         0.24083E-09         0.00000E+00
   -0.22049E-09         0.85238E-10         0.00000E+00
    0.22905E-09         0.11130E-09         0.00000E+00
    0.21026E-09         0.31161E-09         0.00000E+00
    0.17651E-09         0.47657E-09         0.00000E+00
    0.13214E-09         0.60518E-09         0.00000E+00
    0.81039E-10         0.69808E-09         0.00000E+00
    0.26486E-10         0.75698E-09         0.00000E+00
   -0.28838E-10         0.78418E-09         0.00000E+00
   -0.82823E-10         0.78210E-09         0.00000E+00
   -0.13384E-09         0.75299E-09         0.00000E+00
   -0.18060E-09         0.69876E-09         0.00000E+00
   -0.22209E-09         0.62087E-09         0.00000E+00
   -0.25738E-09         0.52034E-09         0.00000E+00
   -0.28555E-09         0.39791E-09         0.00000E+00
   -0.30560E-09         0.25420E-09         0.00000E+00
   -0.31630E-09         0.90072E-10         0.00000E+00
    0.28596E-09         0.12299E-09         0.00000E+00
    0.26160E-09         0.34307E-09         0.00000E+00
    0.21790E-09         0.52256E-09         0.00000E+00
    0.16054E-09         0.66092E-09         0.00000E+00
    0.94556E-10         0.75943E-09         0.00000E+00
    0.24219E-10         0.82053E-09         0.00000E+00
   -0.47034E-10         0.84722E-09         0.00000E+00
   -0.11653E-09         0.84254E-09         0.00000E+00
   -0.18220E-09         0.80924E-09         0.00000E+00
   -0.24249E-09         0.74956E-09         0.00000E+00
   -0.29608E-09         0.66515E-09         0.00000E+00
   -0.34181E-09         0.55709E-09         0.00000E+00
   -0.37849E-09         0.42602E-09         0.00000E+00
   -0.40472E-09         0.27237E-09         0.00000E+00
   -0.41879E-09         0.96679E-10         0.00000E+00
    0.33615E-09         0.13775E-09         0.00000E+00
    0.30609E-09         0.38273E-09         0.00000E+00
    0.25226E-09         0.58044E-09         0.00000E+00
    0.18173E-09         0.73093E-09         0.00000E+00
    0.10079E-09         0.83634E-09         0.00000E+00
    0.14689E-10         0.90006E-09         0.00000E+00
   -0.72387E-10         0.92602E-09         0.00000E+00
   -0.15722E-09         0.91807E-09         0.00000E+00
   -0.23740E-09         0.87957E-09         0.00000E+00
   -0.31108E-09         0.81319E-09         0.00000E+00
   -0.37675E-09         0.72078E-09         0.00000E+00
   -0.43302E-09         0.60345E-09         0.00000E+00
   -0.47837E-09         0.46168E-09         0.00000E+00
   -0.51101E-09         0.29557E-09         0.00000E+00
   -0.52863E-09         0.10518E-09         0.00000E+00
    0.37765E-09         0.15565E-09         0.00000E+00
    0.34175E-09         0.43077E-09         0.00000E+00
    0.27761E-09         0.65038E-09         0.00000E+00
    0.19384E-09         0.81529E-09         0.00000E+00
    0.98000E-10         0.92875E-09         0.00000E+00
   -0.36452E-11         0.99539E-09         0.00000E+00
   -0.10618E-09         0.10203E-08         0.00000E+00
   -0.20591E-09         0.10083E-08         0.00000E+00
   -0.30011E-09         0.96367E-09         0.00000E+00
   -0.38677E-09         0.88942E-09         0.00000E+00
   -0.46422E-09         0.78767E-09         0.00000E+00
   -0.53088E-09         0.65949E-09         0.00000E+00
   -0.58493E-09         0.50506E-09         0.00000E+00
   -0.62411E-09         0.32400E-09         0.00000E+00
   -0.64542E-09         0.11569E-09         0.00000E+00
    0.40817E-09         0.17681E-09         0.00000E+00
    0.36632E-09         0.48736E-09         0.00000E+00
    0.29178E-09         0.73247E-09         0.00000E+00
    0.19483E-09         0.91394E-09         0.00000E+00
    0.84387E-10         0.10364E-08         0.00000E+00
   -0.32240E-10         0.11060E-08         0.00000E+00
   -0.14945E-09         0.11294E-08         0.00000E+00
   -0.26314E-09         0.11127E-08         0.00000E+00
   -0.37041E-09         0.10608E-08         0.00000E+00
   -0.46915E-09         0.97765E-09         0.00000E+00
   -0.55764E-09         0.86539E-09         0.00000E+00
   -0.63417E-09         0.72496E-09         0.00000E+00
   -0.69665E-09         0.55612E-09         0.00000E+00
   -0.74230E-09         0.35776E-09         0.00000E+00
   -0.76735E-09         0.12829E-09         0.00000E+00
    0.42514E-09         0.20130E-09         0.00000E+00
    0.37724E-09         0.55262E-09         0.00000E+00
    0.29233E-09         0.82667E-09         0.00000E+00
    0.18250E-09         0.10265E-08         0.00000E+00
    0.58155E-10         0.11586E-08         0.00000E+00
   -0.72372E-10         0.12310E-08         0.00000E+00
   -0.20285E-09         0.12521E-08         0.00000E+00
   -0.32889E-09         0.12297E-08         0.00000E+00
   -0.44753E-09         0.11697E-08         0.00000E+00
   -0.55674E-09         0.10767E-08         0.00000E+00
   -0.65487E-09         0.95297E-09         0.00000E+00
   -0.74018E-09         0.79922E-09         0.00000E+00
   -0.81035E-09         0.61452E-09         0.00000E+00
   -0.86207E-09         0.39674E-09         0.00000E+00
   -0.89072E-09         0.14300E-09         0.00000E+00
    0.42561E-09         0.22920E-09         0.00000E+00
    0.37165E-09         0.62657E-09         0.00000E+00
    0.27659E-09         0.93270E-09         0.00000E+00
    0.15459E-09         0.11523E-08         0.00000E+00
    0.17616E-10         0.12941E-08         0.00000E+00
   -0.12498E-09         0.13686E-08         0.00000E+00
   -0.26643E-09         0.13865E-08         0.00000E+00
   -0.40223E-09         0.13572E-08         0.00000E+00
   -0.52956E-09         0.12882E-08         0.00000E+00
   -0.64664E-09         0.11845E-08         0.00000E+00
   -0.75207E-09         0.10487E-08         0.00000E+00
   -0.84423E-09         0.88095E-09         0.00000E+00
   -0.92066E-09         0.67938E-09         0.00000E+00
   -0.97756E-09         0.44051E-09         0.00000E+00
   -0.10094E-08         0.15973E-09         0.00000E+00
    0.40637E-09         0.26058E-09         0.00000E+00
    0.34644E-09         0.70908E-09         0.00000E+00
    0.24178E-09         0.10499E-08         0.00000E+00
    0.10890E-09         0.12900E-08         0.00000E+00
   -0.38589E-10         0.14409E-08         0.00000E+00
   -0.19036E-09         0.15162E-08         0.00000E+00
   -0.33929E-09         0.15293E-08         0.00000E+00
   -0.48097E-09         0.14919E-08         0.00000E+00
   -0.61296E-09         0.14128E-08         0.00000E+00
   -0.73400E-09         0.12980E-08         0.00000E+00
   -0.84318E-09         0.11498E-08         0.00000E+00
   -0.93914E-09         0.96793E-09         0.00000E+00
   -0.10195E-08         0.74913E-09         0.00000E+00
   -0.10799E-08         0.48815E-09         0.00000E+00
   -0.11142E-08         0.17819E-09         0.00000E+00
    0.36402E-09         0.29542E-09         0.00000E+00
    0.29842E-09         0.79975E-09         0.00000E+00
    0.18522E-09         0.11771E-08         0.00000E+00
    0.43606E-10         0.14373E-08         0.00000E+00
   -0.11109E-09         0.15957E-08         0.00000E+00
   -0.26770E-09         0.16697E-08         0.00000E+00
   -0.41901E-09         0.16760E-08         0.00000E+00
   -0.56100E-09         0.16288E-08         0.00000E+00
   -0.69195E-09         0.15388E-08         0.00000E+00
   -0.81140E-09         0.14125E-08         0.00000E+00
   -0.91917E-09         0.12523E-08         0.00000E+00
   -0.10145E-08         0.10568E-08         0.00000E+00
   -0.10951E-08         0.82121E-09         0.00000E+00
   -0.11566E-08         0.53808E-09         0.00000E+00
   -0.11920E-08         0.19786E-09         0.00000E+00
    0.29525E-09         0.33364E-09         0.00000E+00
    0.22463E-09         0.89776E-09         0.00000E+00
    0.10477E-09         0.13121E-08         0.00000E+00
   -0.42137E-10         0.15908E-08         0.00000E+00
   -0.19906E-09         0.17539E-08         0.00000E+00
   -0.35428E-09         0.18234E-08         0.00000E+00
   -0.50082E-09         0.18201E-08         0.00000E+00
   -0.63547E-09         0.17613E-08         0.00000E+00
   -0.75760E-09         0.16594E-08         0.00000E+00
   -0.86791E-09         0.15217E-08         0.00000E+00
   -0.96727E-09         0.13503E-08         0.00000E+00
   -0.10557E-08         0.11426E-08         0.00000E+00
   -0.11315E-08         0.89182E-09         0.00000E+00
   -0.11904E-08         0.58785E-09         0.00000E+00
   -0.12248E-08         0.21785E-09         0.00000E+00
    0.19748E-09         0.37494E-09         0.00000E+00
    0.12308E-09         0.10015E-08         0.00000E+00
   -0.27973E-12         0.14516E-08         0.00000E+00
   -0.14717E-09         0.17451E-08         0.00000E+00
   -0.29907E-09         0.19084E-08         0.00000E+00
   -0.44415E-09         0.19692E-08         0.00000E+00
   -0.57622E-09         0.19530E-08         0.00000E+00
   -0.69340E-09         0.18803E-08         0.00000E+00
   -0.79657E-09         0.17657E-08         0.00000E+00
   -0.88794E-09         0.16171E-08         0.00000E+00
   -0.96976E-09         0.14361E-08         0.00000E+00
   -0.10432E-08         0.12186E-08         0.00000E+00
   -0.11073E-08         0.95567E-09         0.00000E+00
   -0.11584E-08         0.63391E-09         0.00000E+00
   -0.11890E-08         0.23684E-09         0.00000E+00
    0.69956E-10         0.41862E-09         0.00000E+00
   -0.59483E-11         0.11081E-08         0.00000E+00
   -0.12766E-09         0.15901E-08         0.00000E+00
   -0.26651E-09         0.18924E-08         0.00000E+00
   -0.40307E-09         0.20495E-08         0.00000E+00
   -0.52613E-09         0.20961E-08         0.00000E+00
   -0.63105E-09         0.20630E-08         0.00000E+00
   -0.71784E-09         0.19743E-08         0.00000E+00
   -0.78937E-09         0.18464E-08         0.00000E+00
   -0.84968E-09         0.16880E-08         0.00000E+00
   -0.90265E-09         0.14999E-08         0.00000E+00
   -0.95085E-09         0.12764E-08         0.00000E+00
   -0.99459E-09         0.10058E-08         0.00000E+00
   -0.10311E-08         0.67142E-09         0.00000E+00
   -0.10541E-08         0.25294E-09         0.00000E+00
   -0.84067E-10         0.46333E-09         0.00000E+00
   -0.15751E-09         0.12127E-08         0.00000E+00
   -0.26939E-09         0.17190E-08         0.00000E+00
   -0.38841E-09         0.20213E-08         0.00000E+00
   -0.49535E-09         0.21641E-08         0.00000E+00
   -0.58080E-09         0.21901E-08         0.00000E+00
   -0.64259E-09         0.21357E-08         0.00000E+00
   -0.68328E-09         0.20290E-08         0.00000E+00
   -0.70808E-09         0.18880E-08         0.00000E+00
   -0.72309E-09         0.17217E-08         0.00000E+00
   -0.73397E-09         0.15301E-08         0.00000E+00
   -0.74488E-09         0.13054E-08         0.00000E+00
   -0.75772E-09         0.10334E-08         0.00000E+00
   -0.77154E-09         0.69420E-09         0.00000E+00
   -0.78204E-09         0.26366E-09         0.00000E+00
   -0.25361E-09         0.50648E-09         0.00000E+00
   -0.31795E-09         0.13074E-08         0.00000E+00
   -0.40743E-09         0.18257E-08         0.00000E+00
   -0.48978E-09         0.21160E-08         0.00000E+00
   -0.54801E-09         0.22346E-08         0.00000E+00
   -0.57617E-09         0.22332E-08         0.00000E+00
   -0.57565E-09         0.21539E-08         0.00000E+00
   -0.55215E-09         0.20280E-08         0.00000E+00
   -0.51340E-09         0.18751E-08         0.00000E+00
   -0.46753E-09         0.17038E-08         0.00000E+00
   -0.42187E-09         0.15132E-08         0.00000E+00
   -0.38220E-09         0.12935E-08         0.00000E+00
   -0.35233E-09         0.10282E-08         0.00000E+00
   -0.33389E-09         0.69474E-09         0.00000E+00
   -0.32612E-09         0.26587E-09         0.00000E+00
   -0.41367E-09         0.54357E-09         0.00000E+00
   -0.45832E-09         0.13793E-08         0.00000E+00
   -0.50676E-09         0.18917E-08         0.00000E+00
   -0.52939E-09         0.21550E-08         0.00000E+00
   -0.51457E-09         0.22391E-08         0.00000E+00
   -0.46196E-09         0.22043E-08         0.00000E+00
   -0.37760E-09         0.20979E-08         0.00000E+00
   -0.27065E-09         0.19535E-08         0.00000E+00
   -0.15122E-09         0.17914E-08         0.00000E+00
   -0.28987E-10         0.16195E-08         0.00000E+00
    0.87453E-10         0.14354E-08         0.00000E+00
    0.19093E-09         0.12281E-08         0.00000E+00
    0.27557E-09         0.97911E-09         0.00000E+00
    0.33638E-09         0.66457E-09         0.00000E+00
    0.36878E-09         0.25588E-09         0.00000E+00
   -0.51532E-09         0.56714E-09         0.00000E+00
   -0.52423E-09         0.14093E-08         0.00000E+00
   -0.50553E-09         0.18915E-08         0.00000E+00
   -0.43864E-09         0.21110E-08         0.00000E+00
   -0.32177E-09         0.21514E-08         0.00000E+00
   -0.16257E-09         0.20801E-08         0.00000E+00
    0.27435E-10         0.19477E-08         0.00000E+00
    0.23586E-09         0.17884E-08         0.00000E+00
    0.45101E-09         0.16219E-08         0.00000E+00
    0.66253E-09         0.14551E-08         0.00000E+00
    0.86147E-09         0.12844E-08         0.00000E+00
    0.10399E-08         0.10973E-08         0.00000E+00
    0.11898E-08         0.87528E-09         0.00000E+00
    0.13024E-08         0.59506E-09         0.00000E+00
    0.13656E-08         0.22972E-09         0.00000E+00
   -0.47103E-09         0.56565E-09         0.00000E+00
   -0.42159E-09         0.13702E-08         0.00000E+00
   -0.30181E-09         0.17920E-08         0.00000E+00
   -0.11017E-09         0.19519E-08         0.00000E+00
    0.13969E-09         0.19437E-08         0.00000E+00
    0.43005E-09         0.18382E-08         0.00000E+00
    0.74393E-09         0.16857E-08         0.00000E+00
    0.10668E-08         0.15191E-08         0.00000E+00
    0.13870E-08         0.13560E-08         0.00000E+00
    0.16947E-08         0.12018E-08         0.00000E+00
    0.19822E-08         0.10514E-08         0.00000E+00
    0.22414E-08         0.89259E-09         0.00000E+00
    0.24632E-08         0.70823E-09         0.00000E+00
    0.26339E-08         0.47884E-09         0.00000E+00
    0.27329E-08         0.18369E-09         0.00000E+00
   -0.13502E-09         0.52270E-09         0.00000E+00
    0.15469E-11         0.12272E-08         0.00000E+00
    0.26148E-09         0.15554E-08         0.00000E+00
    0.61350E-09         0.16449E-08         0.00000E+00
    0.10230E-08         0.15914E-08         0.00000E+00
    0.14614E-08         0.14618E-08         0.00000E+00
    0.19078E-08         0.13018E-08         0.00000E+00
    0.23478E-08         0.11400E-08         0.00000E+00
    0.27716E-08         0.99109E-09         0.00000E+00
    0.31724E-08         0.85809E-09         0.00000E+00
    0.35446E-08         0.73544E-09         0.00000E+00
    0.38818E-08         0.61203E-09         0.00000E+00
    0.41741E-08         0.47476E-09         0.00000E+00
    0.44037E-08         0.31198E-09         0.00000E+00
    0.45400E-08         0.11526E-09         0.00000E+00
    0.71886E-09         0.41761E-09         0.00000E+00
    0.97329E-09         0.94127E-09         0.00000E+00
    0.14090E-08         0.11457E-08         0.00000E+00
    0.19464E-08         0.11651E-08         0.00000E+00
    0.25267E-08         0.10813E-08         0.00000E+00
    0.31126E-08         0.94762E-09         0.00000E+00
    0.36826E-08         0.79959E-09         0.00000E+00
    0.42255E-08         0.65934E-09         0.00000E+00
    0.47360E-08         0.53746E-09         0.00000E+00
    0.52118E-08         0.43513E-09         0.00000E+00
    0.56512E-08         0.34682E-09         0.00000E+00
    0.60505E-08         0.26415E-09         0.00000E+00
    0.64002E-08         0.18068E-09         0.00000E+00
    0.66796E-08         0.97069E-10         0.00000E+00
    0.68490E-08         0.24491E-10         0.00000E+00
    0.24133E-08         0.22953E-09         0.00000E+00
    0.28069E-08         0.48130E-09         0.00000E+00
    0.34324E-08         0.54439E-09         0.00000E+00
    0.41508E-08         0.51064E-09         0.00000E+00
    0.48816E-08         0.42471E-09         0.00000E+00
    0.55848E-08         0.31526E-09         0.00000E+00
    0.62432E-08         0.20349E-09         0.00000E+00
    0.68521E-08         0.10365E-09         0.00000E+00
    0.74123E-08         0.22428E-10         0.00000E+00
    0.79270E-08        -0.40315E-10         0.00000E+00
    0.83989E-08        -0.89054E-10         0.00000E+00
    0.88278E-08        -0.12812E-09         0.00000E+00
    0.92062E-08        -0.15514E-09         0.00000E+00
    0.95128E-08        -0.15317E-09         0.00000E+00
    0.97023E-08        -0.84145E-10         0.00000E+00
    0.53572E-08        -0.52183E-10         0.00000E+00
    0.58800E-08        -0.15339E-09         0.00000E+00
    0.66590E-08        -0.22551E-09         0.00000E+00
    0.74994E-08        -0.27818E-09         0.00000E+00
    0.83115E-08        -0.32943E-09         0.00000E+00
    0.90614E-08        -0.38365E-09         0.00000E+00
    0.97409E-08        -0.43554E-09         0.00000E+00
    0.10353E-07        -0.47809E-09         0.00000E+00
    0.10904E-07        -0.50740E-09         0.00000E+00
    0.11403E-07        -0.52381E-09         0.00000E+00
    0.11855E-07        -0.52984E-09         0.00000E+00
    0.12264E-07        -0.52505E-09         0.00000E+00
    0.12625E-07        -0.49755E-09         0.00000E+00
    0.12920E-07        -0.41237E-09         0.00000E+00
    0.13105E-07        -0.19967E-09         0.00000E+00
    0.99733E-08        -0.40890E-09         0.00000E+00
    0.10553E-07        -0.89920E-09         0.00000E+00
    0.11365E-07        -0.10710E-08         0.00000E+00
    0.12193E-07        -0.11005E-08         0.00000E+00
    0.12959E-07        -0.10848E-08         0.00000E+00
    0.13642E-07        -0.10617E-08         0.00000E+00
    0.14244E-07        -0.10393E-08         0.00000E+00
    0.14774E-07        -0.10155E-08         0.00000E+00
    0.15240E-07        -0.98764E-09         0.00000E+00
    0.15653E-07        -0.95521E-09         0.00000E+00
    0.16020E-07        -0.91809E-09         0.00000E+00
    0.16346E-07        -0.87131E-09         0.00000E+00
    0.16629E-07        -0.79506E-09         0.00000E+00
    0.16858E-07        -0.63907E-09         0.00000E+00
    0.17003E-07        -0.30311E-09         0.00000E+00
    0.16517E-07        -0.76877E-09         0.00000E+00
    0.16994E-07        -0.15966E-08         0.00000E+00
    0.17622E-07        -0.18138E-08         0.00000E+00
    0.18231E-07        -0.17939E-08         0.00000E+00
    0.18777E-07        -0.17035E-08         0.00000E+00
    0.19254E-07        -0.16034E-08         0.00000E+00
    0.19663E-07        -0.15097E-08         0.00000E+00
    0.20013E-07        -0.14237E-08         0.00000E+00
    0.20310E-07        -0.13431E-08         0.00000E+00
    0.20563E-07        -0.12657E-08         0.00000E+00
    0.20777E-07        -0.11887E-08         0.00000E+00
    0.20954E-07        -0.11034E-08         0.00000E+00
    0.21094E-07        -0.98607E-09         0.00000E+00
    0.21197E-07        -0.78022E-09         0.00000E+00
    0.21259E-07        -0.36809E-09         0.00000E+00
    0.24773E-07        -0.99553E-09         0.00000E+00
    0.24921E-07        -0.19958E-08         0.00000E+00
    0.25098E-07        -0.22187E-08         0.00000E+00
    0.25268E-07        -0.21681E-08         0.00000E+00
    0.25427E-07        -0.20345E-08         0.00000E+00
    0.25564E-07        -0.18864E-08         0.00000E+00
    0.25674E-07        -0.17458E-08         0.00000E+00
    0.25754E-07        -0.16174E-08         0.00000E+00
    0.25807E-07        -0.15000E-08         0.00000E+00
    0.25836E-07        -0.13903E-08         0.00000E+00
    0.25840E-07        -0.12824E-08         0.00000E+00
    0.25819E-07        -0.11650E-08         0.00000E+00
    0.25769E-07        -0.10148E-08         0.00000E+00
    0.25698E-07        -0.78372E-09         0.00000E+00
    0.25638E-07        -0.36549E-09         0.00000E+00
    0.33738E-07        -0.92224E-09         0.00000E+00
    0.33373E-07        -0.18527E-08         0.00000E+00
    0.32931E-07        -0.20965E-08         0.00000E+00
    0.32550E-07        -0.20796E-08         0.00000E+00
    0.32230E-07        -0.19620E-08         0.00000E+00
    0.31948E-07        -0.18146E-08         0.00000E+00
    0.31688E-07        -0.16669E-08         0.00000E+00
    0.31440E-07        -0.15290E-08         0.00000E+00
    0.31201E-07        -0.14019E-08         0.00000E+00
    0.30966E-07        -0.12822E-08         0.00000E+00
    0.30733E-07        -0.11620E-08         0.00000E+00
    0.30497E-07        -0.10278E-08         0.00000E+00
    0.30253E-07        -0.85811E-09         0.00000E+00
    0.30006E-07        -0.62256E-09         0.00000E+00
    0.29815E-07        -0.27480E-09         0.00000E+00
    0.41539E-07        -0.47616E-09         0.00000E+00
    0.40762E-07        -0.11565E-08         0.00000E+00
    0.39862E-07        -0.14509E-08         0.00000E+00
    0.39025E-07        -0.15072E-08         0.00000E+00
    0.38259E-07        -0.14486E-08         0.00000E+00
    0.37559E-07        -0.13464E-08         0.00000E+00
    0.36919E-07        -0.12344E-08         0.00000E+00
    0.36331E-07        -0.11259E-08         0.00000E+00
    0.35790E-07        -0.10240E-08         0.00000E+00
    0.35290E-07        -0.92611E-09         0.00000E+00
    0.34830E-07        -0.82465E-09         0.00000E+00
    0.34407E-07        -0.70648E-09         0.00000E+00
    0.34024E-07        -0.55238E-09         0.00000E+00
    0.33686E-07        -0.34304E-09         0.00000E+00
    0.33417E-07        -0.94615E-10         0.00000E+00
    0.46005E-07        -0.81238E-10         0.00000E+00
    0.45578E-07        -0.34638E-09         0.00000E+00
    0.44724E-07        -0.50725E-09         0.00000E+00
    0.43664E-07        -0.55343E-09         0.00000E+00
    0.42569E-07        -0.54148E-09         0.00000E+00
    0.41521E-07        -0.50612E-09         0.00000E+00
    0.40551E-07        -0.46407E-09         0.00000E+00
    0.39665E-07        -0.42216E-09         0.00000E+00
    0.38860E-07        -0.38221E-09         0.00000E+00
    0.38135E-07        -0.34321E-09         0.00000E+00
    0.37490E-07        -0.30187E-09         0.00000E+00
    0.36936E-07        -0.25226E-09         0.00000E+00
    0.36498E-07        -0.18556E-09         0.00000E+00
    0.36219E-07        -0.93057E-10         0.00000E+00
    0.36134E-07         0.83260E-11         0.00000E+00
POINT_DATA        496
VECTORS vDarcyNodal double 
    0.35027E-10         0.93233E-10         0.00000E+00
    0.33590E-10         0.17809E-09         0.00000E+00
    0.29721E-10         0.33415E-09         0.00000E+00
    0.24056E-10         0.46203E-09         0.00000E+00
    0.17172E-10         0.56072E-09         0.00000E+00
    0.95756E-11         0.63041E-09         0.00000E+00
    0.16896E-11         0.67203E-09         0.00000E+00
   -0.61444E-11         0.68695E-09         0.00000E+00
   -0.13657E-10         0.67667E-09         0.00000E+00
   -0.20636E-10         0.64265E-09         0.00000E+00
   -0.26914E-10         0.58612E-09         0.00000E+00
   -0.32353E-10         0.50808E-09         0.00000E+00
   -0.36828E-10         0.40936E-09         0.00000E+00
   -0.40216E-10         0.29078E-09         0.00000E+00
   -0.42380E-10         0.15338E-09         0.00000E+00
   -0.43155E-10         0.80128E-10         0.00000E+00
    0.69467E-10         0.94670E-10         0.00000E+00
    0.66590E-10         0.18075E-09         0.00000E+00
    0.58841E-10         0.33892E-09         0.00000E+00
    0.47494E-10         0.46830E-09         0.00000E+00
    0.33709E-10         0.56796E-09         0.00000E+00
    0.18500E-10         0.63815E-09         0.00000E+00
    0.27138E-11         0.67989E-09         0.00000E+00
   -0.12967E-10         0.69462E-09         0.00000E+00
   -0.28004E-10         0.68392E-09         0.00000E+00
   -0.41977E-10         0.64928E-09         0.00000E+00
   -0.54552E-10         0.59197E-09         0.00000E+00
   -0.65452E-10         0.51303E-09         0.00000E+00
   -0.74428E-10         0.41329E-09         0.00000E+00
   -0.81229E-10         0.29355E-09         0.00000E+00
   -0.85577E-10         0.15485E-09         0.00000E+00
   -0.87139E-10         0.80903E-10         0.00000E+00
    0.13733E-09         0.98988E-10         0.00000E+00
    0.13156E-09         0.18872E-09         0.00000E+00
    0.11601E-09         0.35325E-09         0.00000E+00
    0.93254E-10         0.48716E-09         0.00000E+00
    0.65618E-10         0.58972E-09         0.00000E+00
    0.35140E-10         0.66141E-09         0.00000E+00
    0.35145E-11         0.70350E-09         0.00000E+00
   -0.27893E-10         0.71766E-09         0.00000E+00
   -0.58013E-10         0.70568E-09         0.00000E+00
   -0.86010E-10         0.66920E-09         0.00000E+00
   -0.11123E-09         0.60959E-09         0.00000E+00
   -0.13311E-09         0.52795E-09         0.00000E+00
   -0.15116E-09         0.42514E-09         0.00000E+00
   -0.16486E-09         0.30193E-09         0.00000E+00
   -0.17364E-09         0.15929E-09         0.00000E+00
   -0.17680E-09         0.83251E-10         0.00000E+00
    0.20244E-09         0.10621E-09         0.00000E+00
    0.19374E-09         0.20206E-09         0.00000E+00
    0.17031E-09         0.37722E-09         0.00000E+00
    0.13602E-09         0.51870E-09         0.00000E+00
    0.94408E-10         0.62608E-09         0.00000E+00
    0.48554E-10         0.70026E-09         0.00000E+00
    0.10057E-11         0.74292E-09         0.00000E+00
   -0.46196E-10         0.75615E-09         0.00000E+00
   -0.91462E-10         0.74204E-09         0.00000E+00
   -0.13356E-09         0.70249E-09         0.00000E+00
   -0.17152E-09         0.63907E-09         0.00000E+00
   -0.20453E-09         0.55296E-09         0.00000E+00
   -0.23182E-09         0.44504E-09         0.00000E+00
   -0.25261E-09         0.31603E-09         0.00000E+00
   -0.26598E-09         0.16679E-09         0.00000E+00
   -0.27081E-09         0.87226E-10         0.00000E+00
    0.26335E-09         0.11639E-09         0.00000E+00
    0.25166E-09         0.22085E-09         0.00000E+00
    0.22020E-09         0.41097E-09         0.00000E+00
    0.17421E-09         0.56306E-09         0.00000E+00
    0.11847E-09         0.67718E-09         0.00000E+00
    0.57124E-10         0.75481E-09         0.00000E+00
   -0.64186E-11         0.79825E-09         0.00000E+00
   -0.69453E-10         0.81013E-09         0.00000E+00
   -0.12989E-09         0.79305E-09         0.00000E+00
   -0.18615E-09         0.74926E-09         0.00000E+00
   -0.23694E-09         0.68056E-09         0.00000E+00
   -0.28122E-09         0.58825E-09         0.00000E+00
   -0.31797E-09         0.47321E-09         0.00000E+00
   -0.34607E-09         0.33608E-09         0.00000E+00
   -0.36424E-09         0.17749E-09         0.00000E+00
   -0.37085E-09         0.92918E-10         0.00000E+00
    0.31843E-09         0.12959E-09         0.00000E+00
    0.30368E-09         0.24521E-09         0.00000E+00
    0.26402E-09         0.45467E-09         0.00000E+00
    0.20614E-09         0.62042E-09         0.00000E+00
    0.13613E-09         0.74316E-09         0.00000E+00
    0.59219E-10         0.82514E-09         0.00000E+00
   -0.20310E-10         0.86950E-09         0.00000E+00
   -0.99111E-10         0.87962E-09         0.00000E+00
   -0.17464E-09         0.85873E-09         0.00000E+00
   -0.24497E-09         0.80954E-09         0.00000E+00
   -0.30860E-09         0.73415E-09         0.00000E+00
   -0.36423E-09         0.63399E-09         0.00000E+00
   -0.41060E-09         0.50989E-09         0.00000E+00
   -0.44626E-09         0.36231E-09         0.00000E+00
   -0.46946E-09         0.19156E-09         0.00000E+00
   -0.47796E-09         0.10044E-09         0.00000E+00
    0.36585E-09         0.14590E-09         0.00000E+00
    0.34794E-09         0.27527E-09         0.00000E+00
    0.29990E-09         0.50851E-09         0.00000E+00
    0.22997E-09         0.69095E-09         0.00000E+00
    0.14560E-09         0.82410E-09         0.00000E+00
    0.53187E-10         0.91125E-09         0.00000E+00
   -0.42143E-10         0.95657E-09         0.00000E+00
   -0.13642E-09         0.96446E-09         0.00000E+00
   -0.22671E-09         0.93891E-09         0.00000E+00
   -0.31081E-09         0.88322E-09         0.00000E+00
   -0.38704E-09         0.79982E-09         0.00000E+00
   -0.45393E-09         0.69025E-09         0.00000E+00
   -0.50996E-09         0.55524E-09         0.00000E+00
   -0.55334E-09         0.39494E-09         0.00000E+00
   -0.58177E-09         0.20919E-09         0.00000E+00
   -0.59228E-09         0.10992E-09         0.00000E+00
    0.40349E-09         0.16541E-09         0.00000E+00
    0.38233E-09         0.31116E-09         0.00000E+00
    0.32574E-09         0.57264E-09         0.00000E+00
    0.24365E-09         0.77472E-09         0.00000E+00
    0.14501E-09         0.91994E-09         0.00000E+00
    0.37375E-10         0.10129E-08         0.00000E+00
   -0.73260E-10         0.10591E-08         0.00000E+00
   -0.18237E-09         0.10642E-08         0.00000E+00
   -0.28668E-09         0.10331E-08         0.00000E+00
   -0.38384E-09         0.96988E-09         0.00000E+00
   -0.47207E-09         0.87727E-09         0.00000E+00
   -0.54979E-09         0.75691E-09         0.00000E+00
   -0.61526E-09         0.60930E-09         0.00000E+00
   -0.66632E-09         0.43412E-09         0.00000E+00
   -0.70008E-09         0.23050E-09         0.00000E+00
   -0.71268E-09         0.12146E-09         0.00000E+00
    0.42890E-09         0.18821E-09         0.00000E+00
    0.40441E-09         0.35301E-09         0.00000E+00
    0.33916E-09         0.64718E-09         0.00000E+00
    0.24496E-09         0.87168E-09         0.00000E+00
    0.13237E-09         0.10304E-08         0.00000E+00
    0.10175E-10         0.11295E-08         0.00000E+00
   -0.11479E-09         0.11763E-08         0.00000E+00
   -0.23751E-09         0.11779E-08         0.00000E+00
   -0.35452E-09         0.11404E-08         0.00000E+00
   -0.46342E-09         0.10686E-08         0.00000E+00
   -0.56246E-09         0.96577E-09         0.00000E+00
   -0.65005E-09         0.83344E-09         0.00000E+00
   -0.72430E-09         0.67178E-09         0.00000E+00
   -0.78270E-09         0.47976E-09         0.00000E+00
   -0.82168E-09         0.25555E-09         0.00000E+00
   -0.83639E-09         0.13512E-09         0.00000E+00
    0.43933E-09         0.21439E-09         0.00000E+00
    0.41142E-09         0.40091E-09         0.00000E+00
    0.33747E-09         0.73210E-09         0.00000E+00
    0.23144E-09         0.98151E-09         0.00000E+00
    0.10564E-09         0.11547E-08         0.00000E+00
   -0.29871E-10         0.12600E-08         0.00000E+00
   -0.16748E-09         0.13068E-08         0.00000E+00
   -0.30180E-09         0.13039E-08         0.00000E+00
   -0.42932E-09         0.12590E-08         0.00000E+00
   -0.54777E-09         0.11778E-08         0.00000E+00
   -0.65560E-09         0.10639E-08         0.00000E+00
   -0.75134E-09         0.91875E-09         0.00000E+00
   -0.83307E-09         0.74195E-09         0.00000E+00
   -0.89793E-09         0.53149E-09         0.00000E+00
   -0.94170E-09         0.28419E-09         0.00000E+00
   -0.95843E-09         0.15088E-09         0.00000E+00
    0.43168E-09         0.24402E-09         0.00000E+00
    0.40030E-09         0.45486E-09         0.00000E+00
    0.31779E-09         0.82716E-09         0.00000E+00
    0.20058E-09         0.11035E-08         0.00000E+00
    0.62905E-10         0.12917E-08         0.00000E+00
   -0.83878E-10         0.14026E-08         0.00000E+00
   -0.23145E-09         0.14482E-08         0.00000E+00
   -0.37426E-09         0.14397E-08         0.00000E+00
   -0.50894E-09         0.13864E-08         0.00000E+00
   -0.63358E-09         0.12949E-08         0.00000E+00
   -0.74706E-09         0.11693E-08         0.00000E+00
   -0.84819E-09         0.10109E-08         0.00000E+00
   -0.93518E-09         0.81837E-09         0.00000E+00
   -0.10049E-08         0.58840E-09         0.00000E+00
   -0.10526E-08         0.31604E-09         0.00000E+00
   -0.10710E-08         0.16857E-09         0.00000E+00
    0.40262E-09         0.27714E-09         0.00000E+00
    0.36777E-09         0.51479E-09         0.00000E+00
    0.27709E-09         0.93183E-09         0.00000E+00
    0.14991E-09         0.12364E-08         0.00000E+00
    0.25878E-11         0.14392E-08         0.00000E+00
   -0.15226E-09         0.15544E-08         0.00000E+00
   -0.30579E-09         0.15972E-08         0.00000E+00
   -0.45250E-09         0.15814E-08         0.00000E+00
   -0.58947E-09         0.15183E-08         0.00000E+00
   -0.71545E-09         0.14159E-08         0.00000E+00
   -0.82996E-09         0.12785E-08         0.00000E+00
   -0.93239E-09         0.11069E-08         0.00000E+00
   -0.10212E-08         0.89869E-09         0.00000E+00
   -0.10933E-08         0.64888E-09         0.00000E+00
   -0.11432E-08         0.35030E-09         0.00000E+00
   -0.11629E-08         0.18781E-09         0.00000E+00
    0.34874E-09         0.31371E-09         0.00000E+00
    0.31052E-09         0.58039E-09         0.00000E+00
    0.21252E-09         0.10450E-08         0.00000E+00
    0.77476E-10         0.13780E-08         0.00000E+00
   -0.76007E-10         0.15939E-08         0.00000E+00
   -0.23414E-09         0.17110E-08         0.00000E+00
   -0.38784E-09         0.17485E-08         0.00000E+00
   -0.53199E-09         0.17234E-08         0.00000E+00
   -0.66448E-09         0.16493E-08         0.00000E+00
   -0.78507E-09         0.15354E-08         0.00000E+00
   -0.89424E-09         0.13863E-08         0.00000E+00
   -0.99221E-09         0.12022E-08         0.00000E+00
   -0.10780E-08         0.97929E-09         0.00000E+00
   -0.11486E-08         0.71041E-09         0.00000E+00
   -0.11984E-08         0.38565E-09         0.00000E+00
   -0.12184E-08         0.20791E-09         0.00000E+00
    0.26701E-09         0.35358E-09         0.00000E+00
    0.22572E-09         0.65101E-09         0.00000E+00
    0.12199E-09         0.11649E-08         0.00000E+00
   -0.17492E-10         0.15249E-08         0.00000E+00
   -0.17181E-09         0.17508E-08         0.00000E+00
   -0.32632E-09         0.18662E-08         0.00000E+00
   -0.47210E-09         0.18950E-08         0.00000E+00
   -0.60493E-09         0.18580E-08         0.00000E+00
   -0.72394E-09         0.17714E-08         0.00000E+00
   -0.83023E-09         0.16457E-08         0.00000E+00
   -0.92562E-09         0.14856E-08         0.00000E+00
   -0.10114E-08         0.12906E-08         0.00000E+00
   -0.10875E-08         0.10551E-08         0.00000E+00
   -0.11513E-08         0.76926E-09         0.00000E+00
   -0.11974E-08         0.42006E-09         0.00000E+00
   -0.12164E-08         0.22780E-09         0.00000E+00
    0.15556E-09         0.39630E-09         0.00000E+00
    0.11187E-09         0.72541E-09         0.00000E+00
    0.52541E-11         0.12882E-08         0.00000E+00
   -0.13319E-09         0.16718E-08         0.00000E+00
   -0.28049E-09         0.19027E-08         0.00000E+00
   -0.42165E-09         0.20113E-08         0.00000E+00
   -0.54862E-09         0.20271E-08         0.00000E+00
   -0.65865E-09         0.19752E-08         0.00000E+00
   -0.75260E-09         0.18746E-08         0.00000E+00
   -0.83334E-09         0.17371E-08         0.00000E+00
   -0.90428E-09         0.15675E-08         0.00000E+00
   -0.96814E-09         0.13641E-08         0.00000E+00
   -0.10259E-08         0.11192E-08         0.00000E+00
   -0.10760E-08         0.82031E-09         0.00000E+00
   -0.11135E-08         0.45068E-09         0.00000E+00
   -0.11296E-08         0.24588E-09         0.00000E+00
    0.15296E-10         0.44095E-09         0.00000E+00
   -0.29408E-10         0.80132E-09         0.00000E+00
   -0.13405E-09         0.14099E-08         0.00000E+00
   -0.26300E-09         0.18107E-08         0.00000E+00
   -0.39192E-09         0.20393E-08         0.00000E+00
   -0.50650E-09         0.21344E-08         0.00000E+00
   -0.60043E-09         0.21320E-08         0.00000E+00
   -0.67320E-09         0.20620E-08         0.00000E+00
   -0.72792E-09         0.19461E-08         0.00000E+00
   -0.76953E-09         0.17974E-08         0.00000E+00
   -0.80325E-09         0.16204E-08         0.00000E+00
   -0.83338E-09         0.14123E-08         0.00000E+00
   -0.86235E-09         0.11629E-08         0.00000E+00
   -0.88995E-09         0.85687E-09         0.00000E+00
   -0.91273E-09         0.47368E-09         0.00000E+00
   -0.92345E-09         0.26000E-09         0.00000E+00
   -0.14726E-09         0.48571E-09         0.00000E+00
   -0.19041E-09         0.87476E-09         0.00000E+00
   -0.28505E-09         0.15218E-08         0.00000E+00
   -0.39177E-09         0.19297E-08         0.00000E+00
   -0.48642E-09         0.21462E-08         0.00000E+00
   -0.55694E-09         0.22198E-08         0.00000E+00
   -0.60004E-09         0.21938E-08         0.00000E+00
   -0.61820E-09         0.21027E-08         0.00000E+00
   -0.61723E-09         0.19709E-08         0.00000E+00
   -0.60426E-09         0.18124E-08         0.00000E+00
   -0.58637E-09         0.16313E-08         0.00000E+00
   -0.56947E-09         0.14232E-08         0.00000E+00
   -0.55760E-09         0.11758E-08         0.00000E+00
   -0.55244E-09         0.87069E-09         0.00000E+00
   -0.55298E-09         0.48419E-09         0.00000E+00
   -0.55519E-09         0.26733E-09         0.00000E+00
   -0.31509E-09         0.52726E-09         0.00000E+00
   -0.35218E-09         0.93911E-09         0.00000E+00
   -0.42409E-09         0.16113E-08         0.00000E+00
   -0.49010E-09         0.20120E-08         0.00000E+00
   -0.52907E-09         0.22044E-08         0.00000E+00
   -0.53351E-09         0.22480E-08         0.00000E+00
   -0.50462E-09         0.21933E-08         0.00000E+00
   -0.44863E-09         0.20792E-08         0.00000E+00
   -0.37417E-09         0.19322E-08         0.00000E+00
   -0.29045E-09         0.17665E-08         0.00000E+00
   -0.20607E-09         0.15857E-08         0.00000E+00
   -0.12834E-09         0.13835E-08         0.00000E+00
   -0.62924E-10         0.11459E-08         0.00000E+00
   -0.13841E-10         0.85224E-09         0.00000E+00
    0.16333E-10         0.47642E-09         0.00000E+00
    0.26324E-10         0.26441E-09         0.00000E+00
   -0.45271E-09         0.55989E-09         0.00000E+00
   -0.47628E-09         0.98375E-09         0.00000E+00
   -0.50627E-09         0.16597E-08         0.00000E+00
   -0.50602E-09         0.20347E-08         0.00000E+00
   -0.46201E-09         0.21896E-08         0.00000E+00
   -0.37433E-09         0.21954E-08         0.00000E+00
   -0.25019E-09         0.21089E-08         0.00000E+00
   -0.99970E-10         0.19723E-08         0.00000E+00
    0.65176E-10         0.18127E-08         0.00000E+00
    0.23462E-09         0.16443E-08         0.00000E+00
    0.39893E-09         0.14692E-08         0.00000E+00
    0.55000E-09         0.12800E-08         0.00000E+00
    0.68079E-09         0.10613E-08         0.00000E+00
    0.78462E-09         0.79143E-09         0.00000E+00
    0.85413E-09         0.44402E-09         0.00000E+00
    0.88029E-09         0.24734E-09         0.00000E+00
   -0.49392E-09         0.57439E-09         0.00000E+00
   -0.49243E-09         0.99267E-09         0.00000E+00
   -0.45339E-09         0.16410E-08         0.00000E+00
   -0.35395E-09         0.19678E-08         0.00000E+00
   -0.19486E-09         0.20727E-08         0.00000E+00
    0.12785E-10         0.20362E-08         0.00000E+00
    0.25469E-09         0.19189E-08         0.00000E+00
    0.51668E-09         0.17638E-08         0.00000E+00
    0.78603E-09         0.15976E-08         0.00000E+00
    0.10519E-08         0.14328E-08         0.00000E+00
    0.13053E-08         0.12703E-08         0.00000E+00
    0.15383E-08         0.11016E-08         0.00000E+00
    0.17430E-08         0.91129E-09         0.00000E+00
    0.19100E-08         0.67890E-09         0.00000E+00
    0.20263E-08         0.38076E-09         0.00000E+00
    0.20723E-08         0.21210E-09         0.00000E+00
   -0.32450E-09         0.55691E-09         0.00000E+00
   -0.28155E-09         0.94323E-09         0.00000E+00
   -0.13849E-09         0.15213E-08         0.00000E+00
    0.98162E-10         0.17761E-08         0.00000E+00
    0.40516E-09         0.18229E-08         0.00000E+00
    0.75751E-09         0.17458E-08         0.00000E+00
    0.11339E-08         0.16050E-08         0.00000E+00
    0.15178E-08         0.14409E-08         0.00000E+00
    0.18968E-08         0.12775E-08         0.00000E+00
    0.22617E-08         0.11250E-08         0.00000E+00
    0.26054E-08         0.98286E-09         0.00000E+00
    0.29214E-08         0.84236E-09         0.00000E+00
    0.32019E-08         0.68953E-09         0.00000E+00
    0.34354E-08         0.50816E-09         0.00000E+00
    0.36022E-08         0.28177E-09         0.00000E+00
    0.36707E-08         0.15528E-09         0.00000E+00
    0.23938E-09         0.48848E-09         0.00000E+00
    0.34446E-09         0.80666E-09         0.00000E+00
    0.63038E-09         0.12613E-08         0.00000E+00
    0.10401E-08         0.14241E-08         0.00000E+00
    0.15198E-08         0.14134E-08         0.00000E+00
    0.20299E-08         0.13074E-08         0.00000E+00
    0.25441E-08         0.11586E-08         0.00000E+00
    0.30463E-08         0.10009E-08         0.00000E+00
    0.35270E-08         0.85366E-09         0.00000E+00
    0.39806E-08         0.72420E-09         0.00000E+00
    0.44036E-08         0.61067E-09         0.00000E+00
    0.47922E-08         0.50511E-09         0.00000E+00
    0.51401E-08         0.39726E-09         0.00000E+00
    0.54342E-08         0.27858E-09         0.00000E+00
    0.56491E-08         0.14548E-09         0.00000E+00
    0.57399E-08         0.75246E-10         0.00000E+00
    0.14720E-08         0.34675E-09         0.00000E+00
    0.16601E-08         0.55222E-09         0.00000E+00
    0.21201E-08         0.82563E-09         0.00000E+00
    0.27214E-08         0.88670E-09         0.00000E+00
    0.33759E-08         0.83310E-09         0.00000E+00
    0.40325E-08         0.72155E-09         0.00000E+00
    0.46649E-08         0.58860E-09         0.00000E+00
    0.52610E-08         0.45800E-09         0.00000E+00
    0.58166E-08         0.34314E-09         0.00000E+00
    0.63317E-08         0.24840E-09         0.00000E+00
    0.68071E-08         0.17129E-09         0.00000E+00
    0.72430E-08         0.10586E-09         0.00000E+00
    0.76353E-08         0.47568E-10         0.00000E+00
    0.79711E-08        -0.83363E-12         0.00000E+00
    0.82213E-08        -0.23915E-10         0.00000E+00
    0.83300E-08        -0.26264E-10         0.00000E+00
    0.37444E-08         0.11232E-09         0.00000E+00
    0.40261E-08         0.15861E-09         0.00000E+00
    0.46608E-08         0.20006E-09         0.00000E+00
    0.54307E-08         0.16833E-09         0.00000E+00
    0.62195E-08         0.10225E-09         0.00000E+00
    0.69736E-08         0.18413E-10         0.00000E+00
    0.76725E-08        -0.69849E-10         0.00000E+00
    0.83116E-08        -0.15086E-09         0.00000E+00
    0.88933E-08        -0.21706E-09         0.00000E+00
    0.94231E-08        -0.26628E-09         0.00000E+00
    0.99066E-08        -0.30065E-09         0.00000E+00
    0.10347E-07        -0.32303E-09         0.00000E+00
    0.10744E-07        -0.33083E-09         0.00000E+00
    0.11087E-07        -0.30748E-09         0.00000E+00
    0.11346E-07        -0.21340E-09         0.00000E+00
    0.11461E-07        -0.14203E-09         0.00000E+00
    0.74869E-08        -0.21669E-09         0.00000E+00
    0.78436E-08        -0.36418E-09         0.00000E+00
    0.85894E-08        -0.57896E-09         0.00000E+00
    0.94350E-08        -0.67202E-09         0.00000E+00
    0.10257E-07        -0.70987E-09         0.00000E+00
    0.11013E-07        -0.73149E-09         0.00000E+00
    0.11691E-07        -0.74934E-09         0.00000E+00
    0.12295E-07        -0.76277E-09         0.00000E+00
    0.12832E-07        -0.76843E-09         0.00000E+00
    0.13312E-07        -0.76493E-09         0.00000E+00
    0.13744E-07        -0.75300E-09         0.00000E+00
    0.14132E-07        -0.73186E-09         0.00000E+00
    0.14478E-07        -0.69178E-09         0.00000E+00
    0.14776E-07        -0.60245E-09         0.00000E+00
    0.15002E-07        -0.39864E-09         0.00000E+00
    0.15106E-07        -0.25730E-09         0.00000E+00
    0.13065E-07        -0.60111E-09         0.00000E+00
    0.13425E-07        -0.94391E-09         0.00000E+00
    0.14122E-07        -0.13913E-08         0.00000E+00
    0.14865E-07        -0.14996E-08         0.00000E+00
    0.15558E-07        -0.14755E-08         0.00000E+00
    0.16177E-07        -0.14151E-08         0.00000E+00
    0.16719E-07        -0.13517E-08         0.00000E+00
    0.17189E-07        -0.12920E-08         0.00000E+00
    0.17597E-07        -0.12347E-08         0.00000E+00
    0.17953E-07        -0.11779E-08         0.00000E+00
    0.18263E-07        -0.11203E-08         0.00000E+00
    0.18534E-07        -0.10575E-08         0.00000E+00
    0.18766E-07        -0.97459E-09         0.00000E+00
    0.18957E-07        -0.83168E-09         0.00000E+00
    0.19098E-07        -0.54353E-09         0.00000E+00
    0.19163E-07        -0.34891E-09         0.00000E+00
    0.20531E-07        -0.93643E-09         0.00000E+00
    0.20758E-07        -0.14215E-08         0.00000E+00
    0.21157E-07        -0.20192E-08         0.00000E+00
    0.21562E-07        -0.21081E-08         0.00000E+00
    0.21937E-07        -0.20219E-08         0.00000E+00
    0.22268E-07        -0.18918E-08         0.00000E+00
    0.22551E-07        -0.17614E-08         0.00000E+00
    0.22787E-07        -0.16414E-08         0.00000E+00
    0.22980E-07        -0.15321E-08         0.00000E+00
    0.23137E-07        -0.14309E-08         0.00000E+00
    0.23262E-07        -0.13341E-08         0.00000E+00
    0.23356E-07        -0.12345E-08         0.00000E+00
    0.23417E-07        -0.11148E-08         0.00000E+00
    0.23446E-07        -0.93461E-09         0.00000E+00
    0.23449E-07        -0.60478E-09         0.00000E+00
    0.23447E-07        -0.38728E-09         0.00000E+00
    0.29292E-07        -0.10546E-08         0.00000E+00
    0.29219E-07        -0.15699E-08         0.00000E+00
    0.29075E-07        -0.21954E-08         0.00000E+00
    0.28953E-07        -0.22787E-08         0.00000E+00
    0.28865E-07        -0.21807E-08         0.00000E+00
    0.28792E-07        -0.20291E-08         0.00000E+00
    0.28720E-07        -0.18708E-08         0.00000E+00
    0.28642E-07        -0.17218E-08         0.00000E+00
    0.28553E-07        -0.15854E-08         0.00000E+00
    0.28455E-07        -0.14594E-08         0.00000E+00
    0.28347E-07        -0.13385E-08         0.00000E+00
    0.28226E-07        -0.12128E-08         0.00000E+00
    0.28089E-07        -0.10649E-08         0.00000E+00
    0.27933E-07        -0.86386E-09         0.00000E+00
    0.27772E-07        -0.54443E-09         0.00000E+00
    0.27681E-07        -0.34371E-09         0.00000E+00
    0.37861E-07        -0.78985E-09         0.00000E+00
    0.37415E-07        -0.12050E-08         0.00000E+00
    0.36719E-07        -0.17538E-08         0.00000E+00
    0.36074E-07        -0.18974E-08         0.00000E+00
    0.35501E-07        -0.18609E-08         0.00000E+00
    0.34988E-07        -0.17475E-08         0.00000E+00
    0.34520E-07        -0.16106E-08         0.00000E+00
    0.34087E-07        -0.14740E-08         0.00000E+00
    0.33684E-07        -0.13455E-08         0.00000E+00
    0.33306E-07        -0.12247E-08         0.00000E+00
    0.32950E-07        -0.11057E-08         0.00000E+00
    0.32613E-07        -0.97699E-09         0.00000E+00
    0.32291E-07        -0.82104E-09         0.00000E+00
    0.31986E-07        -0.61681E-09         0.00000E+00
    0.31706E-07        -0.35292E-09         0.00000E+00
    0.31526E-07        -0.20588E-09         0.00000E+00
    0.43970E-07        -0.16248E-09         0.00000E+00
    0.43575E-07        -0.42762E-09         0.00000E+00
    0.42765E-07        -0.85363E-09         0.00000E+00
    0.41821E-07        -0.10607E-08         0.00000E+00
    0.40867E-07        -0.10949E-08         0.00000E+00
    0.39960E-07        -0.10476E-08         0.00000E+00
    0.39120E-07        -0.97020E-09         0.00000E+00
    0.38350E-07        -0.88624E-09         0.00000E+00
    0.37646E-07        -0.80438E-09         0.00000E+00
    0.37004E-07        -0.72542E-09         0.00000E+00
    0.36421E-07        -0.64508E-09         0.00000E+00
    0.35898E-07        -0.55414E-09         0.00000E+00
    0.35444E-07        -0.43782E-09         0.00000E+00
    0.35077E-07        -0.27862E-09         0.00000E+00
    0.34827E-07        -0.84731E-10         0.00000E+00
    0.34724E-07         0.16652E-10         0.00000E+00
    0.46087E-07         0.00000E+00         0.00000E+00
    0.45924E-07         0.00000E+00         0.00000E+00
    0.45231E-07        -0.12806E-21         0.00000E+00
    0.44217E-07         0.00000E+00         0.00000E+00
    0.43110E-07         0.12340E-21         0.00000E+00
    0.42027E-07         0.00000E+00         0.00000E+00
    0.41015E-07         0.00000E+00         0.00000E+00
    0.40087E-07        -0.11409E-21         0.00000E+00
    0.39242E-07        -0.11176E-21         0.00000E+00
    0.38478E-07         0.10943E-21         0.00000E+00
    0.37792E-07         0.10943E-21         0.00000E+00
    0.37188E-07        -0.10710E-21         0.00000E+00
    0.36683E-07        -0.23283E-23         0.00000E+00
    0.36312E-07         0.10477E-21         0.00000E+00
    0.36126E-07         0.46566E-23         0.00000E+00
    0.36143E-07         0.00000E+00         0.00000E+00
CELL_DATA        450
TENSORS stressef double 
    0.44081E+07         0.13554E+05         0.00000E+00
    0.13554E+05        -0.41700E+07         0.00000E+00
    0.00000E+00         0.00000E+00         0.00000E+00
 
    0.42565E+07         0.38093E+05         0.00000E+00
    0.38093E+05        -0.40735E+07         0.00000E+00
    0.00000E+00         0.00000E+00         0.00000E+00
 
    0.40303E+07         0.58798E+05         0.00000E+00
    0.58798E+05        -0.38924E+07         0.00000E+00
    0.00000E+00         0.00000E+00         0.00000E+00
 
    0.37434E+07         0.75427E+05         0.00000E+00
    0.75427E+05        -0.36419E+07         0.00000E+00
    0.00000E+00         0.00000E+00         0.00000E+00
 
    0.34100E+07         0.87953E+05         0.00000E+00
    0.87953E+05        -0.33374E+07         0.00000E+00
    0.00000E+00         0.00000E+00         0.00000E+00
 
    0.30439E+07         0.96498E+05         0.00000E+00
    0.96498E+05        -0.29944E+07         0.00000E+00
    0.00000E+00         0.00000E+00         0.00000E+00
 
    0.26584E+07         0.10129E+06         0.00000E+00
    0.10129E+06        -0.26277E+07         0.00000E+00
    0.00000E+00         0.00000E+00         0.00000E+00
 
    0.22656E+07         0.10262E+06         0.00000E+00
    0.10262E+06        -0.22511E+07         0.00000E+00
    0.00000E+00         0.00000E+00         0.00000E+00
 
    0.18768E+07         0.10080E+06         0.00000E+00
    0.10080E+06        -0.18777E+07         0.00000E+00
    0.00000E+00         0.00000E+00         0.00000E+00
 
    0.15019E+07         0.96190E+05         0.00000E+00
    0.96190E+05        -0.15193E+07         0.00000E+00
    0.00000E+00         0.00000E+00         0.00000E+00
 
    0.11498E+07         0.89144E+05         0.00000E+00
    0.89144E+05        -0.11868E+07         0.00000E+00
    0.00000E+00         0.00000E+00         0.00000E+00
 
    0.82791E+06         0.80080E+05         0.00000E+00
    0.80080E+05        -0.88995E+06         0.00000E+00
    0.00000E+00         0.00000E+00         0.00000E+00
 
    0.54201E+06         0.69491E+05         0.00000E+00
    0.69491E+05        -0.63759E+06         0.00000E+00
    0.00000E+00         0.00000E+00         0.00000E+00
 
    0.29607E+06         0.57998E+05         0.00000E+00
    0.57998E+05        -0.43712E+06         0.00000E+00
    0.00000E+00         0.00000E+00         0.00000E+00
 
    0.91725E+05         0.46410E+05         0.00000E+00
    0.46410E+05        -0.29430E+06         0.00000E+00
    0.00000E+00         0.00000E+00         0.00000E+00
 
    0.44437E+07         0.40636E+05         0.00000E+00
    0.40636E+05        -0.41870E+07         0.00000E+00
    0.00000E+00         0.00000E+00         0.00000E+00
 
    0.42861E+07         0.11411E+06         0.00000E+00
    0.11411E+06        -0.40894E+07         0.00000E+00
    0.00000E+00         0.00000E+00         0.00000E+00
 
    0.40543E+07         0.17604E+06         0.00000E+00
    0.17604E+06        -0.39065E+07         0.00000E+00
    0.00000E+00         0.00000E+00         0.00000E+00
 
    0.37623E+07         0.22574E+06         0.00000E+00
    0.22574E+06        -0.36537E+07         0.00000E+00
    0.00000E+00         0.00000E+00         0.00000E+00
 
    0.34244E+07         0.26315E+06         0.00000E+00
    0.26315E+06        -0.33469E+07         0.00000E+00
    0.00000E+00         0.00000E+00         0.00000E+00
 
    0.30545E+07         0.28865E+06         0.00000E+00
    0.28865E+06        -0.30016E+07         0.00000E+00
    0.00000E+00         0.00000E+00         0.00000E+00
 
    0.26657E+07         0.30295E+06         0.00000E+00
    0.30295E+06        -0.26327E+07         0.00000E+00
    0.00000E+00         0.00000E+00         0.00000E+00
 
    0.22702E+07         0.30692E+06         0.00000E+00
    0.30692E+06        -0.22542E+07         0.00000E+00
    0.00000E+00         0.00000E+00         0.00000E+00
 
    0.18790E+07         0.30153E+06         0.00000E+00
    0.30153E+06        -0.18790E+07         0.00000E+00
    0.00000E+00         0.00000E+00         0.00000E+00
 
    0.15023E+07         0.28779E+06         0.00000E+00
    0.28779E+06        -0.15189E+07         0.00000E+00
    0.00000E+00         0.00000E+00         0.00000E+00
 
    0.11486E+07         0.26677E+06         0.00000E+00
    0.26677E+06        -0.11849E+07         0.00000E+00
    0.00000E+00         0.00000E+00         0.00000E+00
 
    0.82563E+06         0.23970E+06         0.00000E+00
    0.23970E+06        -0.88681E+06         0.00000E+00
    0.00000E+00         0.00000E+00         0.00000E+00
 
    0.53920E+06         0.20800E+06         0.00000E+00
    0.20800E+06        -0.63349E+06         0.00000E+00
    0.00000E+00         0.00000E+00         0.00000E+00
 
    0.29354E+06         0.17351E+06         0.00000E+00
    0.17351E+06        -0.43257E+06         0.00000E+00
    0.00000E+00         0.00000E+00         0.00000E+00
 
    0.90654E+05         0.13860E+06         0.00000E+00
    0.13860E+06        -0.29010E+06         0.00000E+00
    0.00000E+00         0.00000E+00         0.00000E+00
 
    0.45150E+07         0.67585E+05         0.00000E+00
    0.67585E+05        -0.42207E+07         0.00000E+00
    0.00000E+00         0.00000E+00         0.00000E+00
 
    0.43455E+07         0.18956E+06         0.00000E+00
    0.18956E+06        -0.41209E+07         0.00000E+00
    0.00000E+00         0.00000E+00         0.00000E+00
 
    0.41023E+07         0.29217E+06         0.00000E+00
    0.29217E+06        -0.39344E+07         0.00000E+00
    0.00000E+00         0.00000E+00         0.00000E+00
 
    0.38002E+07         0.37436E+06         0.00000E+00
    0.37436E+06        -0.36772E+07         0.00000E+00
    0.00000E+00         0.00000E+00         0.00000E+00
 
    0.34534E+07         0.43612E+06         0.00000E+00
    0.43612E+06        -0.33659E+07         0.00000E+00
    0.00000E+00         0.00000E+00         0.00000E+00
 
    0.30759E+07         0.47819E+06         0.00000E+00
    0.47819E+06        -0.30161E+07         0.00000E+00
    0.00000E+00         0.00000E+00         0.00000E+00
 
    0.26807E+07         0.50177E+06         0.00000E+00
    0.50177E+06        -0.26431E+07         0.00000E+00
    0.00000E+00         0.00000E+00         0.00000E+00
 
    0.22798E+07         0.50835E+06         0.00000E+00
    0.50835E+06        -0.22608E+07         0.00000E+00
    0.00000E+00         0.00000E+00         0.00000E+00
 
    0.18842E+07         0.49954E+06         0.00000E+00
    0.49954E+06        -0.18822E+07         0.00000E+00
    0.00000E+00         0.00000E+00         0.00000E+00
 
    0.15037E+07         0.47697E+06         0.00000E+00
    0.47697E+06        -0.15190E+07         0.00000E+00
    0.00000E+00         0.00000E+00         0.00000E+00
 
    0.11471E+07         0.44238E+06         0.00000E+00
    0.44238E+06        -0.11821E+07         0.00000E+00
    0.00000E+00         0.00000E+00         0.00000E+00
 
    0.82185E+06         0.39767E+06         0.00000E+00
    0.39767E+06        -0.88151E+06         0.00000E+00
    0.00000E+00         0.00000E+00         0.00000E+00
 
    0.53426E+06         0.34512E+06         0.00000E+00
    0.34512E+06        -0.62625E+06         0.00000E+00
    0.00000E+00         0.00000E+00         0.00000E+00
 
    0.28898E+06         0.28762E+06         0.00000E+00
    0.28762E+06        -0.42435E+06         0.00000E+00
    0.00000E+00         0.00000E+00         0.00000E+00
 
    0.88694E+05         0.22900E+06         0.00000E+00
    0.22900E+06        -0.28245E+06         0.00000E+00
    0.00000E+00         0.00000E+00         0.00000E+00
 
    0.46222E+07         0.94259E+05         0.00000E+00
    0.94259E+05        -0.42704E+07         0.00000E+00
    0.00000E+00         0.00000E+00         0.00000E+00
 
    0.44345E+07         0.26395E+06         0.00000E+00
    0.26395E+06        -0.41674E+07         0.00000E+00
    0.00000E+00         0.00000E+00         0.00000E+00
 
    0.41744E+07         0.40625E+06         0.00000E+00
    0.40625E+06        -0.39756E+07         0.00000E+00
    0.00000E+00         0.00000E+00         0.00000E+00
 
    0.38571E+07         0.51992E+06         0.00000E+00
    0.51992E+06        -0.37122E+07         0.00000E+00
    0.00000E+00         0.00000E+00         0.00000E+00
 
    0.34972E+07         0.60512E+06         0.00000E+00
    0.60512E+06        -0.33944E+07         0.00000E+00
    0.00000E+00         0.00000E+00         0.00000E+00
 
    0.31085E+07         0.66305E+06         0.00000E+00
    0.66305E+06        -0.30384E+07         0.00000E+00
    0.00000E+00         0.00000E+00         0.00000E+00
 
    0.27041E+07         0.69553E+06         0.00000E+00
    0.69553E+06        -0.26596E+07         0.00000E+00
    0.00000E+00         0.00000E+00         0.00000E+00
 
    0.22955E+07         0.70468E+06         0.00000E+00
    0.70468E+06        -0.22721E+07         0.00000E+00
    0.00000E+00         0.00000E+00         0.00000E+00
 
    0.18935E+07         0.69273E+06         0.00000E+00
    0.69273E+06        -0.18888E+07         0.00000E+00
    0.00000E+00         0.00000E+00         0.00000E+00
 
    0.15077E+07         0.66191E+06         0.00000E+00
    0.66191E+06        -0.15212E+07         0.00000E+00
    0.00000E+00         0.00000E+00         0.00000E+00
 
    0.11466E+07         0.61446E+06         0.00000E+00
    0.61446E+06        -0.11803E+07         0.00000E+00
    0.00000E+00         0.00000E+00         0.00000E+00
 
    0.81802E+06         0.55284E+06         0.00000E+00
    0.55284E+06        -0.87602E+06         0.00000E+00
    0.00000E+00         0.00000E+00         0.00000E+00
 
    0.52842E+06         0.47995E+06         0.00000E+00
    0.47995E+06        -0.61782E+06         0.00000E+00
    0.00000E+00         0.00000E+00         0.00000E+00
 
    0.28323E+06         0.39954E+06         0.00000E+00
    0.39954E+06        -0.41426E+06         0.00000E+00
    0.00000E+00         0.00000E+00         0.00000E+00
 
    0.86156E+05         0.31667E+06         0.00000E+00
    0.31667E+06        -0.27287E+06         0.00000E+00
    0.00000E+00         0.00000E+00         0.00000E+00
 
    0.47657E+07         0.12047E+06         0.00000E+00
    0.12047E+06        -0.43350E+07         0.00000E+00
    0.00000E+00         0.00000E+00         0.00000E+00
 
    0.45531E+07         0.33662E+06         0.00000E+00
    0.33662E+06        -0.42280E+07         0.00000E+00
    0.00000E+00         0.00000E+00         0.00000E+00
 
    0.42703E+07         0.51711E+06         0.00000E+00
    0.51711E+06        -0.40296E+07         0.00000E+00
    0.00000E+00         0.00000E+00         0.00000E+00
 
    0.39329E+07         0.66071E+06         0.00000E+00
    0.66071E+06        -0.37583E+07         0.00000E+00
    0.00000E+00         0.00000E+00         0.00000E+00
 
    0.35558E+07         0.76799E+06         0.00000E+00
    0.76799E+06        -0.34324E+07         0.00000E+00
    0.00000E+00         0.00000E+00         0.00000E+00
 
    0.31529E+07         0.84074E+06         0.00000E+00
    0.84074E+06        -0.30689E+07         0.00000E+00
    0.00000E+00         0.00000E+00         0.00000E+00
 
    0.27367E+07         0.88153E+06         0.00000E+00
    0.88153E+06        -0.26833E+07         0.00000E+00
    0.00000E+00         0.00000E+00         0.00000E+00
 
    0.23186E+07         0.89320E+06         0.00000E+00
    0.89320E+06        -0.22897E+07         0.00000E+00
    0.00000E+00         0.00000E+00         0.00000E+00
 
    0.19088E+07         0.87859E+06         0.00000E+00
    0.87859E+06        -0.19009E+07         0.00000E+00
    0.00000E+00         0.00000E+00         0.00000E+00
 
    0.15163E+07         0.84041E+06         0.00000E+00
    0.84041E+06        -0.15282E+07         0.00000E+00
    0.00000E+00         0.00000E+00         0.00000E+00
 
    0.11496E+07         0.78129E+06         0.00000E+00
    0.78129E+06        -0.11823E+07         0.00000E+00
    0.00000E+00         0.00000E+00         0.00000E+00
 
    0.81636E+06         0.70395E+06         0.00000E+00
    0.70395E+06        -0.87341E+06         0.00000E+00
    0.00000E+00         0.00000E+00         0.00000E+00
 
    0.52361E+06         0.61165E+06         0.00000E+00
    0.61165E+06        -0.61122E+06         0.00000E+00
    0.00000E+00         0.00000E+00         0.00000E+00
 
    0.27762E+06         0.50870E+06         0.00000E+00
    0.50870E+06        -0.40509E+06         0.00000E+00
    0.00000E+00         0.00000E+00         0.00000E+00
 
    0.83525E+05         0.40104E+06         0.00000E+00
    0.40104E+06        -0.26375E+06         0.00000E+00
    0.00000E+00         0.00000E+00         0.00000E+00
 
    0.49454E+07         0.14594E+06         0.00000E+00
    0.14594E+06        -0.44131E+07         0.00000E+00
    0.00000E+00         0.00000E+00         0.00000E+00
 
    0.47011E+07         0.40669E+06         0.00000E+00
    0.40669E+06        -0.43013E+07         0.00000E+00
    0.00000E+00         0.00000E+00         0.00000E+00
 
    0.43897E+07         0.62321E+06         0.00000E+00
    0.62321E+06        -0.40951E+07         0.00000E+00
    0.00000E+00         0.00000E+00         0.00000E+00
 
    0.40274E+07         0.79456E+06         0.00000E+00
    0.79456E+06        -0.38149E+07         0.00000E+00
    0.00000E+00         0.00000E+00         0.00000E+00
 
    0.36295E+07         0.92197E+06         0.00000E+00
    0.92197E+06        -0.34800E+07         0.00000E+00
    0.00000E+00         0.00000E+00         0.00000E+00
 
    0.32096E+07         0.10081E+07         0.00000E+00
    0.10081E+07        -0.31082E+07         0.00000E+00
    0.00000E+00         0.00000E+00         0.00000E+00
 
    0.27800E+07         0.10564E+07         0.00000E+00
    0.10564E+07        -0.27155E+07         0.00000E+00
    0.00000E+00         0.00000E+00         0.00000E+00
 
    0.23511E+07         0.10706E+07         0.00000E+00
    0.10706E+07        -0.23158E+07         0.00000E+00
    0.00000E+00         0.00000E+00         0.00000E+00
 
    0.19324E+07         0.10540E+07         0.00000E+00
    0.10540E+07        -0.19214E+07         0.00000E+00
    0.00000E+00         0.00000E+00         0.00000E+00
 
    0.15325E+07         0.10098E+07         0.00000E+00
    0.10098E+07        -0.15434E+07         0.00000E+00
    0.00000E+00         0.00000E+00         0.00000E+00
 
    0.11591E+07         0.94079E+06         0.00000E+00
    0.94079E+06        -0.11922E+07         0.00000E+00
    0.00000E+00         0.00000E+00         0.00000E+00
 
    0.81992E+06         0.84961E+06         0.00000E+00
    0.84961E+06        -0.87793E+06         0.00000E+00
    0.00000E+00         0.00000E+00         0.00000E+00
 
    0.52245E+06         0.73951E+06         0.00000E+00
    0.73951E+06        -0.61067E+06         0.00000E+00
    0.00000E+00         0.00000E+00         0.00000E+00
 
    0.27401E+06         0.61486E+06         0.00000E+00
    0.61486E+06        -0.40076E+06         0.00000E+00
    0.00000E+00         0.00000E+00         0.00000E+00
 
    0.81479E+05         0.48210E+06         0.00000E+00
    0.48210E+06        -0.25846E+06         0.00000E+00
    0.00000E+00         0.00000E+00         0.00000E+00
 
    0.51615E+07         0.17033E+06         0.00000E+00
    0.17033E+06        -0.45029E+07         0.00000E+00
    0.00000E+00         0.00000E+00         0.00000E+00
 
    0.48780E+07         0.47301E+06         0.00000E+00
    0.47301E+06        -0.43857E+07         0.00000E+00
    0.00000E+00         0.00000E+00         0.00000E+00
 
    0.45319E+07         0.72256E+06         0.00000E+00
    0.72256E+06        -0.41710E+07         0.00000E+00
    0.00000E+00         0.00000E+00         0.00000E+00
 
    0.41402E+07         0.91868E+06         0.00000E+00
    0.91868E+06        -0.38811E+07         0.00000E+00
    0.00000E+00         0.00000E+00         0.00000E+00
 
    0.37182E+07         0.10636E+07         0.00000E+00
    0.10636E+07        -0.35370E+07         0.00000E+00
    0.00000E+00         0.00000E+00         0.00000E+00
 
    0.32795E+07         0.11612E+07         0.00000E+00
    0.11612E+07        -0.31573E+07         0.00000E+00
    0.00000E+00         0.00000E+00         0.00000E+00
 
    0.28352E+07         0.12160E+07         0.00000E+00
    0.12160E+07        -0.27582E+07         0.00000E+00
    0.00000E+00         0.00000E+00         0.00000E+00
 
    0.23952E+07         0.12326E+07         0.00000E+00
    0.12326E+07        -0.23532E+07         0.00000E+00
    0.00000E+00         0.00000E+00         0.00000E+00
 
    0.19676E+07         0.12151E+07         0.00000E+00
    0.12151E+07        -0.19542E+07         0.00000E+00
    0.00000E+00         0.00000E+00         0.00000E+00
 
    0.15598E+07         0.11669E+07         0.00000E+00
    0.11669E+07        -0.15716E+07         0.00000E+00
    0.00000E+00         0.00000E+00         0.00000E+00
 
    0.11791E+07         0.10905E+07         0.00000E+00
    0.10905E+07        -0.12153E+07         0.00000E+00
    0.00000E+00         0.00000E+00         0.00000E+00
 
    0.83263E+06         0.98828E+06         0.00000E+00
    0.98828E+06        -0.89515E+06         0.00000E+00
    0.00000E+00         0.00000E+00         0.00000E+00
 
    0.52838E+06         0.86289E+06         0.00000E+00
    0.86289E+06        -0.62174E+06         0.00000E+00
    0.00000E+00         0.00000E+00         0.00000E+00
 
    0.27482E+06         0.71823E+06         0.00000E+00
    0.71823E+06        -0.40645E+06         0.00000E+00
    0.00000E+00         0.00000E+00         0.00000E+00
 
    0.80912E+05         0.56059E+06         0.00000E+00
    0.56059E+06        -0.26146E+06         0.00000E+00
    0.00000E+00         0.00000E+00         0.00000E+00
 
    0.54134E+07         0.19315E+06         0.00000E+00
    0.19315E+06        -0.46019E+07         0.00000E+00
    0.00000E+00         0.00000E+00         0.00000E+00
 
    0.50830E+07         0.53412E+06         0.00000E+00
    0.53412E+06        -0.44790E+07         0.00000E+00
    0.00000E+00         0.00000E+00         0.00000E+00
 
    0.46960E+07         0.81264E+06         0.00000E+00
    0.81264E+06        -0.42553E+07         0.00000E+00
    0.00000E+00         0.00000E+00         0.00000E+00
 
    0.42705E+07         0.10295E+07         0.00000E+00
    0.10295E+07        -0.39559E+07         0.00000E+00
    0.00000E+00         0.00000E+00         0.00000E+00
 
    0.38218E+07         0.11885E+07         0.00000E+00
    0.11885E+07        -0.36034E+07         0.00000E+00
    0.00000E+00         0.00000E+00         0.00000E+00
 
    0.33630E+07         0.12949E+07         0.00000E+00
    0.12949E+07        -0.32172E+07         0.00000E+00
    0.00000E+00         0.00000E+00         0.00000E+00
 
    0.29042E+07         0.13549E+07         0.00000E+00
    0.13549E+07        -0.28135E+07         0.00000E+00
    0.00000E+00         0.00000E+00         0.00000E+00
 
    0.24536E+07         0.13741E+07         0.00000E+00
    0.13741E+07        -0.24055E+07         0.00000E+00
    0.00000E+00         0.00000E+00         0.00000E+00
 
    0.20179E+07         0.13572E+07         0.00000E+00
    0.13572E+07        -0.20040E+07         0.00000E+00
    0.00000E+00         0.00000E+00         0.00000E+00
 
    0.16029E+07         0.13076E+07         0.00000E+00
    0.13076E+07        -0.16185E+07         0.00000E+00
    0.00000E+00         0.00000E+00         0.00000E+00
 
    0.12145E+07         0.12274E+07         0.00000E+00
    0.12274E+07        -0.12580E+07         0.00000E+00
    0.00000E+00         0.00000E+00         0.00000E+00
 
    0.85939E+06         0.11182E+07         0.00000E+00
    0.11182E+07        -0.93210E+06         0.00000E+00
    0.00000E+00         0.00000E+00         0.00000E+00
 
    0.54569E+06         0.98136E+06         0.00000E+00
    0.98136E+06        -0.65150E+06         0.00000E+00
    0.00000E+00         0.00000E+00         0.00000E+00
 
    0.28311E+06         0.81958E+06         0.00000E+00
    0.81958E+06        -0.42882E+06         0.00000E+00
    0.00000E+00         0.00000E+00         0.00000E+00
 
    0.82958E+05         0.63820E+06         0.00000E+00
    0.63820E+06        -0.27852E+06         0.00000E+00
    0.00000E+00         0.00000E+00         0.00000E+00
 
    0.57003E+07         0.21383E+06         0.00000E+00
    0.21383E+06        -0.47071E+07         0.00000E+00
    0.00000E+00         0.00000E+00         0.00000E+00
 
    0.53144E+07         0.58815E+06         0.00000E+00
    0.58815E+06        -0.45783E+07         0.00000E+00
    0.00000E+00         0.00000E+00         0.00000E+00
 
    0.48803E+07         0.89030E+06         0.00000E+00
    0.89030E+06        -0.43459E+07         0.00000E+00
    0.00000E+00         0.00000E+00         0.00000E+00
 
    0.44169E+07         0.11228E+07         0.00000E+00
    0.11228E+07        -0.40379E+07         0.00000E+00
    0.00000E+00         0.00000E+00         0.00000E+00
 
    0.39397E+07         0.12913E+07         0.00000E+00
    0.12913E+07        -0.36787E+07         0.00000E+00
    0.00000E+00         0.00000E+00         0.00000E+00
 
    0.34607E+07         0.14033E+07         0.00000E+00
    0.14033E+07        -0.32888E+07         0.00000E+00
    0.00000E+00         0.00000E+00         0.00000E+00
 
    0.29886E+07         0.14668E+07         0.00000E+00
    0.14668E+07        -0.28840E+07         0.00000E+00
    0.00000E+00         0.00000E+00         0.00000E+00
 
    0.25295E+07         0.14887E+07         0.00000E+00
    0.14887E+07        -0.24768E+07         0.00000E+00
    0.00000E+00         0.00000E+00         0.00000E+00
 
    0.20877E+07         0.14743E+07         0.00000E+00
    0.14743E+07        -0.20765E+07         0.00000E+00
    0.00000E+00         0.00000E+00         0.00000E+00
 
    0.16668E+07         0.14270E+07         0.00000E+00
    0.14270E+07        -0.16912E+07         0.00000E+00
    0.00000E+00         0.00000E+00         0.00000E+00
 
    0.12711E+07         0.13481E+07         0.00000E+00
    0.13481E+07        -0.13286E+07         0.00000E+00
    0.00000E+00         0.00000E+00         0.00000E+00
 
    0.90607E+06         0.12375E+07         0.00000E+00
    0.12375E+07        -0.99747E+06         0.00000E+00
    0.00000E+00         0.00000E+00         0.00000E+00
 
    0.57961E+06         0.10947E+07         0.00000E+00
    0.10947E+07        -0.70873E+06         0.00000E+00
    0.00000E+00         0.00000E+00         0.00000E+00
 
    0.30261E+06         0.92038E+06         0.00000E+00
    0.92038E+06        -0.47619E+06         0.00000E+00
    0.00000E+00         0.00000E+00         0.00000E+00
 
    0.89017E+05         0.71785E+06         0.00000E+00
    0.71785E+06        -0.31690E+06         0.00000E+00
    0.00000E+00         0.00000E+00         0.00000E+00
 
    0.60208E+07         0.23165E+06         0.00000E+00
    0.23165E+06        -0.48149E+07         0.00000E+00
    0.00000E+00         0.00000E+00         0.00000E+00
 
    0.55702E+07         0.63286E+06         0.00000E+00
    0.63286E+06        -0.46803E+07         0.00000E+00
    0.00000E+00         0.00000E+00         0.00000E+00
 
    0.50825E+07         0.95169E+06         0.00000E+00
    0.95169E+06        -0.44400E+07         0.00000E+00
    0.00000E+00         0.00000E+00         0.00000E+00
 
    0.45776E+07         0.11930E+07         0.00000E+00
    0.11930E+07        -0.41253E+07         0.00000E+00
    0.00000E+00         0.00000E+00         0.00000E+00
 
    0.40708E+07         0.13653E+07         0.00000E+00
    0.13653E+07        -0.37628E+07         0.00000E+00
    0.00000E+00         0.00000E+00         0.00000E+00
 
    0.35728E+07         0.14788E+07         0.00000E+00
    0.14788E+07        -0.33735E+07         0.00000E+00
    0.00000E+00         0.00000E+00         0.00000E+00
 
    0.30901E+07         0.15438E+07         0.00000E+00
    0.15438E+07        -0.29730E+07         0.00000E+00
    0.00000E+00         0.00000E+00         0.00000E+00
 
    0.26260E+07         0.15687E+07         0.00000E+00
    0.15687E+07        -0.25722E+07         0.00000E+00
    0.00000E+00         0.00000E+00         0.00000E+00
 
    0.21817E+07         0.15595E+07         0.00000E+00
    0.15595E+07        -0.21786E+07         0.00000E+00
    0.00000E+00         0.00000E+00         0.00000E+00
 
    0.17578E+07         0.15194E+07         0.00000E+00
    0.15194E+07        -0.17981E+07         0.00000E+00
    0.00000E+00         0.00000E+00         0.00000E+00
 
    0.13558E+07         0.14482E+07         0.00000E+00
    0.14482E+07        -0.14366E+07         0.00000E+00
    0.00000E+00         0.00000E+00         0.00000E+00
 
    0.97954E+06         0.13439E+07         0.00000E+00
    0.13439E+07        -0.11017E+07         0.00000E+00
    0.00000E+00         0.00000E+00         0.00000E+00
 
    0.63630E+06         0.12030E+07         0.00000E+00
    0.12030E+07        -0.80410E+06         0.00000E+00
    0.00000E+00         0.00000E+00         0.00000E+00
 
    0.33782E+06         0.10230E+07         0.00000E+00
    0.10230E+07        -0.55875E+06         0.00000E+00
    0.00000E+00         0.00000E+00         0.00000E+00
 
    0.10077E+06         0.80393E+06         0.00000E+00
    0.80393E+06        -0.38558E+06         0.00000E+00
    0.00000E+00         0.00000E+00         0.00000E+00
 
    0.63725E+07         0.24577E+06         0.00000E+00
    0.24577E+06        -0.49208E+07         0.00000E+00
    0.00000E+00         0.00000E+00         0.00000E+00
 
    0.58470E+07         0.66554E+06         0.00000E+00
    0.66554E+06        -0.47808E+07         0.00000E+00
    0.00000E+00         0.00000E+00         0.00000E+00
 
    0.52990E+07         0.99215E+06         0.00000E+00
    0.99215E+06        -0.45341E+07         0.00000E+00
    0.00000E+00         0.00000E+00         0.00000E+00
 
    0.47494E+07         0.12338E+07         0.00000E+00
    0.12338E+07        -0.42159E+07         0.00000E+00
    0.00000E+00         0.00000E+00         0.00000E+00
 
    0.42131E+07         0.14027E+07         0.00000E+00
    0.14027E+07        -0.38550E+07         0.00000E+00
    0.00000E+00         0.00000E+00         0.00000E+00
 
    0.36990E+07         0.15126E+07         0.00000E+00
    0.15126E+07        -0.34730E+07         0.00000E+00
    0.00000E+00         0.00000E+00         0.00000E+00
 
    0.32104E+07         0.15766E+07         0.00000E+00
    0.15766E+07        -0.30843E+07         0.00000E+00
    0.00000E+00         0.00000E+00         0.00000E+00
 
    0.27467E+07         0.16051E+07         0.00000E+00
    0.16051E+07        -0.26978E+07         0.00000E+00
    0.00000E+00         0.00000E+00         0.00000E+00
 
    0.23052E+07         0.16047E+07         0.00000E+00
    0.16047E+07        -0.23184E+07         0.00000E+00
    0.00000E+00         0.00000E+00         0.00000E+00
 
    0.18823E+07         0.15780E+07         0.00000E+00
    0.15780E+07        -0.19492E+07         0.00000E+00
    0.00000E+00         0.00000E+00         0.00000E+00
 
    0.14761E+07         0.15231E+07         0.00000E+00
    0.15231E+07        -0.15936E+07         0.00000E+00
    0.00000E+00         0.00000E+00         0.00000E+00
 
    0.10876E+07         0.14351E+07         0.00000E+00
    0.14351E+07        -0.12572E+07         0.00000E+00
    0.00000E+00         0.00000E+00         0.00000E+00
 
    0.72282E+06         0.13067E+07         0.00000E+00
    0.13067E+07        -0.95033E+06         0.00000E+00
    0.00000E+00         0.00000E+00         0.00000E+00
 
    0.39393E+06         0.11308E+07         0.00000E+00
    0.11308E+07        -0.68875E+06         0.00000E+00
    0.00000E+00         0.00000E+00         0.00000E+00
 
    0.12020E+06         0.90264E+06         0.00000E+00
    0.90264E+06        -0.49544E+06         0.00000E+00
    0.00000E+00         0.00000E+00         0.00000E+00
 
    0.67520E+07         0.25519E+06         0.00000E+00
    0.25519E+06        -0.50195E+07         0.00000E+00
    0.00000E+00         0.00000E+00         0.00000E+00
 
    0.61403E+07         0.68297E+06         0.00000E+00
    0.68297E+06        -0.48750E+07         0.00000E+00
    0.00000E+00         0.00000E+00         0.00000E+00
 
    0.55249E+07         0.10061E+07         0.00000E+00
    0.10061E+07        -0.46244E+07         0.00000E+00
    0.00000E+00         0.00000E+00         0.00000E+00
 
    0.49281E+07         0.12374E+07         0.00000E+00
    0.12374E+07        -0.43075E+07         0.00000E+00
    0.00000E+00         0.00000E+00         0.00000E+00
 
    0.43638E+07         0.13940E+07         0.00000E+00
    0.13940E+07        -0.39552E+07         0.00000E+00
    0.00000E+00         0.00000E+00         0.00000E+00
 
    0.38381E+07         0.14943E+07         0.00000E+00
    0.14943E+07        -0.35892E+07         0.00000E+00
    0.00000E+00         0.00000E+00         0.00000E+00
 
    0.33503E+07         0.15546E+07         0.00000E+00
    0.15546E+07        -0.32224E+07         0.00000E+00
    0.00000E+00         0.00000E+00         0.00000E+00
 
    0.28948E+07         0.15875E+07         0.00000E+00
    0.15875E+07        -0.28606E+07         0.00000E+00
    0.00000E+00         0.00000E+00         0.00000E+00
 
    0.24634E+07         0.16006E+07         0.00000E+00
    0.16006E+07        -0.25053E+07         0.00000E+00
    0.00000E+00         0.00000E+00         0.00000E+00
 
    0.20474E+07         0.15953E+07         0.00000E+00
    0.15953E+07        -0.21560E+07         0.00000E+00
    0.00000E+00         0.00000E+00         0.00000E+00
 
    0.16400E+07         0.15676E+07         0.00000E+00
    0.15676E+07        -0.18126E+07         0.00000E+00
    0.00000E+00         0.00000E+00         0.00000E+00
 
    0.12386E+07         0.15088E+07         0.00000E+00
    0.15088E+07        -0.14784E+07         0.00000E+00
    0.00000E+00         0.00000E+00         0.00000E+00
 
    0.84694E+06         0.14068E+07         0.00000E+00
    0.14068E+07        -0.11622E+07         0.00000E+00
    0.00000E+00         0.00000E+00         0.00000E+00
 
    0.47675E+06         0.12484E+07         0.00000E+00
    0.12484E+07        -0.88066E+06         0.00000E+00
    0.00000E+00         0.00000E+00         0.00000E+00
 
    0.14953E+06         0.10222E+07         0.00000E+00
    0.10222E+07        -0.65947E+06         0.00000E+00
    0.00000E+00         0.00000E+00         0.00000E+00
 
    0.71543E+07         0.25877E+06         0.00000E+00
    0.25877E+06        -0.51048E+07         0.00000E+00
    0.00000E+00         0.00000E+00         0.00000E+00
 
    0.64437E+07         0.68132E+06         0.00000E+00
    0.68132E+06        -0.49572E+07         0.00000E+00
    0.00000E+00         0.00000E+00         0.00000E+00
 
    0.57536E+07         0.98701E+06         0.00000E+00
    0.98701E+06        -0.47065E+07         0.00000E+00
    0.00000E+00         0.00000E+00         0.00000E+00
 
    0.51077E+07         0.11949E+07         0.00000E+00
    0.11949E+07        -0.43976E+07         0.00000E+00
    0.00000E+00         0.00000E+00         0.00000E+00
 
    0.45185E+07         0.13286E+07         0.00000E+00
    0.13286E+07        -0.40635E+07         0.00000E+00
    0.00000E+00         0.00000E+00         0.00000E+00
 
    0.39881E+07         0.14119E+07         0.00000E+00
    0.14119E+07        -0.37252E+07         0.00000E+00
    0.00000E+00         0.00000E+00         0.00000E+00
 
    0.35103E+07         0.14656E+07         0.00000E+00
    0.14656E+07        -0.33931E+07         0.00000E+00
    0.00000E+00         0.00000E+00         0.00000E+00
 
    0.30731E+07         0.15047E+07         0.00000E+00
    0.15047E+07        -0.30691E+07         0.00000E+00
    0.00000E+00         0.00000E+00         0.00000E+00
 
    0.26613E+07         0.15370E+07         0.00000E+00
    0.15370E+07        -0.27503E+07         0.00000E+00
    0.00000E+00         0.00000E+00         0.00000E+00
 
    0.22597E+07         0.15631E+07         0.00000E+00
    0.15631E+07        -0.24315E+07         0.00000E+00
    0.00000E+00         0.00000E+00         0.00000E+00
 
    0.18556E+07         0.15760E+07         0.00000E+00
    0.15760E+07        -0.21085E+07         0.00000E+00
    0.00000E+00         0.00000E+00         0.00000E+00
 
    0.14413E+07         0.15626E+07         0.00000E+00
    0.15626E+07        -0.17813E+07         0.00000E+00
    0.00000E+00         0.00000E+00         0.00000E+00
 
    0.10168E+07         0.15048E+07         0.00000E+00
    0.15048E+07        -0.14568E+07         0.00000E+00
    0.00000E+00         0.00000E+00         0.00000E+00
 
    0.59252E+06         0.13816E+07         0.00000E+00
    0.13816E+07        -0.11511E+07         0.00000E+00
    0.00000E+00         0.00000E+00         0.00000E+00
 
    0.19120E+06         0.11732E+07         0.00000E+00
    0.11732E+07        -0.89287E+06         0.00000E+00
    0.00000E+00         0.00000E+00         0.00000E+00
 
    0.75728E+07         0.25518E+06         0.00000E+00
    0.25518E+06        -0.51701E+07         0.00000E+00
    0.00000E+00         0.00000E+00         0.00000E+00
 
    0.67484E+07         0.65608E+06         0.00000E+00
    0.65608E+06        -0.50214E+07         0.00000E+00
    0.00000E+00         0.00000E+00         0.00000E+00
 
    0.59758E+07         0.92702E+06         0.00000E+00
    0.92702E+06        -0.47761E+07         0.00000E+00
    0.00000E+00         0.00000E+00         0.00000E+00
 
    0.52801E+07         0.10956E+07         0.00000E+00
    0.10956E+07        -0.44845E+07         0.00000E+00
    0.00000E+00         0.00000E+00         0.00000E+00
 
    0.46710E+07         0.11939E+07         0.00000E+00
    0.11939E+07        -0.41812E+07         0.00000E+00
    0.00000E+00         0.00000E+00         0.00000E+00
 
    0.41454E+07         0.12525E+07         0.00000E+00
    0.12525E+07        -0.38854E+07         0.00000E+00
    0.00000E+00         0.00000E+00         0.00000E+00
 
    0.36894E+07         0.12968E+07         0.00000E+00
    0.12968E+07        -0.36039E+07         0.00000E+00
    0.00000E+00         0.00000E+00         0.00000E+00
 
    0.32831E+07         0.13444E+07         0.00000E+00
    0.13444E+07        -0.33336E+07         0.00000E+00
    0.00000E+00         0.00000E+00         0.00000E+00
 
    0.29028E+07         0.14035E+07         0.00000E+00
    0.14035E+07        -0.30659E+07         0.00000E+00
    0.00000E+00         0.00000E+00         0.00000E+00
 
    0.25252E+07         0.14731E+07         0.00000E+00
    0.14731E+07        -0.27904E+07         0.00000E+00
    0.00000E+00         0.00000E+00         0.00000E+00
 
    0.21303E+07         0.15429E+07         0.00000E+00
    0.15429E+07        -0.24978E+07         0.00000E+00
    0.00000E+00         0.00000E+00         0.00000E+00
 
    0.17037E+07         0.15945E+07         0.00000E+00
    0.15945E+07        -0.21840E+07         0.00000E+00
    0.00000E+00         0.00000E+00         0.00000E+00
 
    0.12404E+07         0.16028E+07         0.00000E+00
    0.16028E+07        -0.18526E+07         0.00000E+00
    0.00000E+00         0.00000E+00         0.00000E+00
 
    0.74748E+06         0.15379E+07         0.00000E+00
    0.15379E+07        -0.15190E+07         0.00000E+00
    0.00000E+00         0.00000E+00         0.00000E+00
 
    0.24769E+06         0.13686E+07         0.00000E+00
    0.13686E+07        -0.12131E+07         0.00000E+00
    0.00000E+00         0.00000E+00         0.00000E+00
 
    0.79979E+07         0.24283E+06         0.00000E+00
    0.24283E+06        -0.52080E+07         0.00000E+00
    0.00000E+00         0.00000E+00         0.00000E+00
 
    0.70421E+07         0.60176E+06         0.00000E+00
    0.60176E+06        -0.50616E+07         0.00000E+00
    0.00000E+00         0.00000E+00         0.00000E+00
 
    0.61788E+07         0.81685E+06         0.00000E+00
    0.81685E+06        -0.48297E+07         0.00000E+00
    0.00000E+00         0.00000E+00         0.00000E+00
 
    0.54338E+07         0.92748E+06         0.00000E+00
    0.92748E+06        -0.45680E+07         0.00000E+00
    0.00000E+00         0.00000E+00         0.00000E+00
 
    0.48125E+07         0.97626E+06         0.00000E+00
    0.97626E+06        -0.43115E+07         0.00000E+00
    0.00000E+00         0.00000E+00         0.00000E+00
 
    0.43039E+07         0.10019E+07         0.00000E+00
    0.10019E+07        -0.40766E+07         0.00000E+00
    0.00000E+00         0.00000E+00         0.00000E+00
 
    0.38847E+07         0.10349E+07         0.00000E+00
    0.10349E+07        -0.38645E+07         0.00000E+00
    0.00000E+00         0.00000E+00         0.00000E+00
 
    0.35244E+07         0.10949E+07         0.00000E+00
    0.10949E+07        -0.36661E+07         0.00000E+00
    0.00000E+00         0.00000E+00         0.00000E+00
 
    0.31896E+07         0.11901E+07         0.00000E+00
    0.11901E+07        -0.34664E+07         0.00000E+00
    0.00000E+00         0.00000E+00         0.00000E+00
 
    0.28475E+07         0.13176E+07         0.00000E+00
    0.13176E+07        -0.32486E+07         0.00000E+00
    0.00000E+00         0.00000E+00         0.00000E+00
 
    0.24691E+07         0.14632E+07         0.00000E+00
    0.14632E+07        -0.29980E+07         0.00000E+00
    0.00000E+00         0.00000E+00         0.00000E+00
 
    0.20321E+07         0.16030E+07         0.00000E+00
    0.16030E+07        -0.27052E+07         0.00000E+00
    0.00000E+00         0.00000E+00         0.00000E+00
 
    0.15242E+07         0.17039E+07         0.00000E+00
    0.17039E+07        -0.23699E+07         0.00000E+00
    0.00000E+00         0.00000E+00         0.00000E+00
 
    0.94716E+06         0.17258E+07         0.00000E+00
    0.17258E+07        -0.20047E+07         0.00000E+00
    0.00000E+00         0.00000E+00         0.00000E+00
 
    0.32130E+06         0.16239E+07         0.00000E+00
    0.16239E+07        -0.16397E+07         0.00000E+00
    0.00000E+00         0.00000E+00         0.00000E+00
 
    0.84158E+07         0.21970E+06         0.00000E+00
    0.21970E+06        -0.52120E+07         0.00000E+00
    0.00000E+00         0.00000E+00         0.00000E+00
 
    0.73075E+07         0.51158E+06         0.00000E+00
    0.51158E+06        -0.50729E+07         0.00000E+00
    0.00000E+00         0.00000E+00         0.00000E+00
 
    0.63450E+07         0.64543E+06         0.00000E+00
    0.64543E+06        -0.48656E+07         0.00000E+00
    0.00000E+00         0.00000E+00         0.00000E+00
 
    0.55534E+07         0.67667E+06         0.00000E+00
    0.67667E+06        -0.46507E+07         0.00000E+00
    0.00000E+00         0.00000E+00         0.00000E+00
 
    0.49308E+07         0.66101E+06         0.00000E+00
    0.66101E+06        -0.44617E+07         0.00000E+00
    0.00000E+00         0.00000E+00         0.00000E+00
 
    0.44549E+07         0.64613E+06         0.00000E+00
    0.64613E+06        -0.43094E+07         0.00000E+00
    0.00000E+00         0.00000E+00         0.00000E+00
 
    0.40900E+07         0.66723E+06         0.00000E+00
    0.66723E+06        -0.41882E+07         0.00000E+00
    0.00000E+00         0.00000E+00         0.00000E+00
 
    0.37933E+07         0.74557E+06         0.00000E+00
    0.74557E+06        -0.40816E+07         0.00000E+00
    0.00000E+00         0.00000E+00         0.00000E+00
 
    0.35199E+07         0.88856E+06         0.00000E+00
    0.88856E+06        -0.39676E+07         0.00000E+00
    0.00000E+00         0.00000E+00         0.00000E+00
 
    0.32263E+07         0.10905E+07         0.00000E+00
    0.10905E+07        -0.38230E+07         0.00000E+00
    0.00000E+00         0.00000E+00         0.00000E+00
 
    0.28733E+07         0.13335E+07         0.00000E+00
    0.13335E+07        -0.36269E+07         0.00000E+00
    0.00000E+00         0.00000E+00         0.00000E+00
 
    0.24290E+07         0.15877E+07         0.00000E+00
    0.15877E+07        -0.33642E+07         0.00000E+00
    0.00000E+00         0.00000E+00         0.00000E+00
 
    0.18719E+07         0.18120E+07         0.00000E+00
    0.18120E+07        -0.30291E+07         0.00000E+00
    0.00000E+00         0.00000E+00         0.00000E+00
 
    0.11954E+07         0.19551E+07         0.00000E+00
    0.19551E+07        -0.26299E+07         0.00000E+00
    0.00000E+00         0.00000E+00         0.00000E+00
 
    0.41377E+06         0.19568E+07         0.00000E+00
    0.19568E+07        -0.21939E+07         0.00000E+00
    0.00000E+00         0.00000E+00         0.00000E+00
 
    0.88059E+07         0.18314E+06         0.00000E+00
    0.18314E+06        -0.51773E+07         0.00000E+00
    0.00000E+00         0.00000E+00         0.00000E+00
 
    0.75200E+07         0.37695E+06         0.00000E+00
    0.37695E+06        -0.50535E+07         0.00000E+00
    0.00000E+00         0.00000E+00         0.00000E+00
 
    0.64503E+07         0.39956E+06         0.00000E+00
    0.39956E+06        -0.48870E+07         0.00000E+00
    0.00000E+00         0.00000E+00         0.00000E+00
 
    0.56180E+07         0.32786E+06         0.00000E+00
    0.32786E+06        -0.47411E+07         0.00000E+00
    0.00000E+00         0.00000E+00         0.00000E+00
 
    0.50088E+07         0.23319E+06         0.00000E+00
    0.23319E+06        -0.46446E+07         0.00000E+00
    0.00000E+00         0.00000E+00         0.00000E+00
 
    0.45849E+07         0.17223E+06         0.00000E+00
    0.17223E+06        -0.46000E+07         0.00000E+00
    0.00000E+00         0.00000E+00         0.00000E+00
 
    0.42945E+07         0.18383E+06         0.00000E+00
    0.18383E+06        -0.45926E+07         0.00000E+00
    0.00000E+00         0.00000E+00         0.00000E+00
 
    0.40805E+07         0.28926E+06         0.00000E+00
    0.28926E+06        -0.45979E+07         0.00000E+00
    0.00000E+00         0.00000E+00         0.00000E+00
 
    0.38853E+07         0.49385E+06         0.00000E+00
    0.49385E+06        -0.45869E+07         0.00000E+00
    0.00000E+00         0.00000E+00         0.00000E+00
 
    0.36542E+07         0.78884E+06         0.00000E+00
    0.78884E+06        -0.45303E+07         0.00000E+00
    0.00000E+00         0.00000E+00         0.00000E+00
 
    0.33371E+07         0.11523E+07         0.00000E+00
    0.11523E+07        -0.44014E+07         0.00000E+00
    0.00000E+00         0.00000E+00         0.00000E+00
 
    0.28908E+07         0.15494E+07         0.00000E+00
    0.15494E+07        -0.41787E+07         0.00000E+00
    0.00000E+00         0.00000E+00         0.00000E+00
 
    0.22822E+07         0.19316E+07         0.00000E+00
    0.19316E+07        -0.38498E+07         0.00000E+00
    0.00000E+00         0.00000E+00         0.00000E+00
 
    0.14926E+07         0.22362E+07         0.00000E+00
    0.22362E+07        -0.34158E+07         0.00000E+00
    0.00000E+00         0.00000E+00         0.00000E+00
 
    0.52569E+06         0.23863E+07         0.00000E+00
    0.23863E+07        -0.28980E+07         0.00000E+00
    0.00000E+00         0.00000E+00         0.00000E+00
 
    0.91366E+07         0.12941E+06         0.00000E+00
    0.12941E+06        -0.51041E+07         0.00000E+00
    0.00000E+00         0.00000E+00         0.00000E+00
 
    0.76436E+07         0.18674E+06         0.00000E+00
    0.18674E+06        -0.50077E+07         0.00000E+00
    0.00000E+00         0.00000E+00         0.00000E+00
 
    0.64608E+07         0.63551E+05         0.00000E+00
    0.63551E+05        -0.49048E+07         0.00000E+00
    0.00000E+00         0.00000E+00         0.00000E+00
 
    0.55984E+07        -0.13524E+06         0.00000E+00
   -0.13524E+06        -0.48568E+07         0.00000E+00
    0.00000E+00         0.00000E+00         0.00000E+00
 
    0.50226E+07        -0.32096E+06         0.00000E+00
   -0.32096E+06        -0.48824E+07         0.00000E+00
    0.00000E+00         0.00000E+00         0.00000E+00
 
    0.46735E+07        -0.42928E+06         0.00000E+00
   -0.42928E+06        -0.49722E+07         0.00000E+00
    0.00000E+00         0.00000E+00         0.00000E+00
 
    0.44797E+07        -0.42037E+06         0.00000E+00
   -0.42037E+06        -0.51010E+07         0.00000E+00
    0.00000E+00         0.00000E+00         0.00000E+00
 
    0.43680E+07        -0.27555E+06         0.00000E+00
   -0.27555E+06        -0.52361E+07         0.00000E+00
    0.00000E+00         0.00000E+00         0.00000E+00
 
    0.42679E+07         0.68189E+04         0.00000E+00
    0.68189E+04        -0.53426E+07         0.00000E+00
    0.00000E+00         0.00000E+00         0.00000E+00
 
    0.41134E+07         0.41435E+06         0.00000E+00
    0.41435E+06        -0.53864E+07         0.00000E+00
    0.00000E+00         0.00000E+00         0.00000E+00
 
    0.38438E+07         0.92194E+06         0.00000E+00
    0.92194E+06        -0.53359E+07         0.00000E+00
    0.00000E+00         0.00000E+00         0.00000E+00
 
    0.34036E+07         0.14911E+07         0.00000E+00
    0.14911E+07        -0.51634E+07         0.00000E+00
    0.00000E+00         0.00000E+00         0.00000E+00
 
    0.27452E+07         0.20676E+07         0.00000E+00
    0.20676E+07        -0.48485E+07         0.00000E+00
    0.00000E+00         0.00000E+00         0.00000E+00
 
    0.18338E+07         0.25790E+07         0.00000E+00
    0.25790E+07        -0.43821E+07         0.00000E+00
    0.00000E+00         0.00000E+00         0.00000E+00
 
    0.65575E+06         0.29312E+07         0.00000E+00
    0.29312E+07        -0.37743E+07         0.00000E+00
    0.00000E+00         0.00000E+00         0.00000E+00
 
    0.93577E+07         0.53116E+05         0.00000E+00
    0.53116E+05        -0.50020E+07         0.00000E+00
    0.00000E+00         0.00000E+00         0.00000E+00
 
    0.76253E+07        -0.73551E+05         0.00000E+00
   -0.73551E+05        -0.49516E+07         0.00000E+00
    0.00000E+00         0.00000E+00         0.00000E+00
 
    0.63287E+07        -0.38071E+06         0.00000E+00
   -0.38071E+06        -0.49438E+07         0.00000E+00
    0.00000E+00         0.00000E+00         0.00000E+00
 
    0.54549E+07        -0.72861E+06         0.00000E+00
   -0.72861E+06        -0.50294E+07         0.00000E+00
    0.00000E+00         0.00000E+00         0.00000E+00
 
    0.49386E+07        -0.10115E+07         0.00000E+00
   -0.10115E+07        -0.52100E+07         0.00000E+00
    0.00000E+00         0.00000E+00         0.00000E+00
 
    0.46905E+07        -0.11614E+07         0.00000E+00
   -0.11614E+07        -0.54602E+07         0.00000E+00
    0.00000E+00         0.00000E+00         0.00000E+00
 
    0.46158E+07        -0.11421E+07         0.00000E+00
   -0.11421E+07        -0.57435E+07         0.00000E+00
    0.00000E+00         0.00000E+00         0.00000E+00
 
    0.46247E+07        -0.94142E+06         0.00000E+00
   -0.94142E+06        -0.60203E+07         0.00000E+00
    0.00000E+00         0.00000E+00         0.00000E+00
 
    0.46347E+07        -0.56344E+06         0.00000E+00
   -0.56344E+06        -0.62526E+07         0.00000E+00
    0.00000E+00         0.00000E+00         0.00000E+00
 
    0.45703E+07        -0.24342E+05         0.00000E+00
   -0.24342E+05        -0.64040E+07         0.00000E+00
    0.00000E+00         0.00000E+00         0.00000E+00
 
    0.43608E+07         0.64906E+06         0.00000E+00
    0.64906E+06        -0.64398E+07         0.00000E+00
    0.00000E+00         0.00000E+00         0.00000E+00
 
    0.39384E+07         0.14175E+07         0.00000E+00
    0.14175E+07        -0.63273E+07         0.00000E+00
    0.00000E+00         0.00000E+00         0.00000E+00
 
    0.32389E+07         0.22247E+07         0.00000E+00
    0.22247E+07        -0.60364E+07         0.00000E+00
    0.00000E+00         0.00000E+00         0.00000E+00
 
    0.22056E+07         0.29913E+07         0.00000E+00
    0.29913E+07        -0.55445E+07         0.00000E+00
    0.00000E+00         0.00000E+00         0.00000E+00
 
    0.79962E+06         0.36082E+07         0.00000E+00
    0.36082E+07        -0.48436E+07         0.00000E+00
    0.00000E+00         0.00000E+00         0.00000E+00
 
    0.93897E+07        -0.53702E+05         0.00000E+00
   -0.53702E+05        -0.48988E+07         0.00000E+00
    0.00000E+00         0.00000E+00         0.00000E+00
 
    0.73874E+07        -0.42252E+06         0.00000E+00
   -0.42252E+06        -0.49214E+07         0.00000E+00
    0.00000E+00         0.00000E+00         0.00000E+00
 
    0.59874E+07        -0.95295E+06         0.00000E+00
   -0.95295E+06        -0.50500E+07         0.00000E+00
    0.00000E+00         0.00000E+00         0.00000E+00
 
    0.51322E+07        -0.14653E+07         0.00000E+00
   -0.14653E+07        -0.53109E+07         0.00000E+00
    0.00000E+00         0.00000E+00         0.00000E+00
 
    0.47091E+07        -0.18411E+07         0.00000E+00
   -0.18411E+07        -0.56792E+07         0.00000E+00
    0.00000E+00         0.00000E+00         0.00000E+00
 
    0.45908E+07        -0.20162E+07         0.00000E+00
   -0.20162E+07        -0.61101E+07         0.00000E+00
    0.00000E+00         0.00000E+00         0.00000E+00
 
    0.46564E+07        -0.19656E+07         0.00000E+00
   -0.19656E+07        -0.65568E+07         0.00000E+00
    0.00000E+00         0.00000E+00         0.00000E+00
 
    0.48004E+07        -0.16884E+07         0.00000E+00
   -0.16884E+07        -0.69766E+07         0.00000E+00
    0.00000E+00         0.00000E+00         0.00000E+00
 
    0.49316E+07        -0.11967E+07         0.00000E+00
   -0.11967E+07        -0.73323E+07         0.00000E+00
    0.00000E+00         0.00000E+00         0.00000E+00
 
    0.49685E+07        -0.50994E+06         0.00000E+00
   -0.50994E+06        -0.75898E+07         0.00000E+00
    0.00000E+00         0.00000E+00         0.00000E+00
 
    0.48330E+07         0.34597E+06         0.00000E+00
    0.34597E+06        -0.77147E+07         0.00000E+00
    0.00000E+00         0.00000E+00         0.00000E+00
 
    0.44456E+07         0.13354E+07         0.00000E+00
    0.13354E+07        -0.76701E+07         0.00000E+00
    0.00000E+00         0.00000E+00         0.00000E+00
 
    0.37234E+07         0.24055E+07         0.00000E+00
    0.24055E+07        -0.74160E+07         0.00000E+00
    0.00000E+00         0.00000E+00         0.00000E+00
 
    0.25826E+07         0.34763E+07         0.00000E+00
    0.34763E+07        -0.69117E+07         0.00000E+00
    0.00000E+00         0.00000E+00         0.00000E+00
 
    0.94864E+06         0.44278E+07         0.00000E+00
    0.44278E+07        -0.61233E+07         0.00000E+00
    0.00000E+00         0.00000E+00         0.00000E+00
 
    0.91072E+07        -0.20248E+06         0.00000E+00
   -0.20248E+06        -0.48518E+07         0.00000E+00
    0.00000E+00         0.00000E+00         0.00000E+00
 
    0.68167E+07        -0.88294E+06         0.00000E+00
   -0.88294E+06        -0.49846E+07         0.00000E+00
    0.00000E+00         0.00000E+00         0.00000E+00
 
    0.53442E+07        -0.16720E+07         0.00000E+00
   -0.16720E+07        -0.53003E+07         0.00000E+00
    0.00000E+00         0.00000E+00         0.00000E+00
 
    0.45543E+07        -0.23507E+07         0.00000E+00
   -0.23507E+07        -0.57799E+07         0.00000E+00
    0.00000E+00         0.00000E+00         0.00000E+00
 
    0.42670E+07        -0.27989E+07         0.00000E+00
   -0.27989E+07        -0.63617E+07         0.00000E+00
    0.00000E+00         0.00000E+00         0.00000E+00
 
    0.43082E+07        -0.29692E+07         0.00000E+00
   -0.29692E+07        -0.69803E+07         0.00000E+00
    0.00000E+00         0.00000E+00         0.00000E+00
 
    0.45308E+07        -0.28577E+07         0.00000E+00
   -0.28577E+07        -0.75827E+07         0.00000E+00
    0.00000E+00         0.00000E+00         0.00000E+00
 
    0.48180E+07        -0.24803E+07         0.00000E+00
   -0.24803E+07        -0.81297E+07         0.00000E+00
    0.00000E+00         0.00000E+00         0.00000E+00
 
    0.50756E+07        -0.18590E+07         0.00000E+00
   -0.18590E+07        -0.85915E+07         0.00000E+00
    0.00000E+00         0.00000E+00         0.00000E+00
 
    0.52217E+07        -0.10150E+07         0.00000E+00
   -0.10150E+07        -0.89416E+07         0.00000E+00
    0.00000E+00         0.00000E+00         0.00000E+00
 
    0.51754E+07         0.30783E+05         0.00000E+00
    0.30783E+05        -0.91503E+07         0.00000E+00
    0.00000E+00         0.00000E+00         0.00000E+00
 
    0.48476E+07         0.12527E+07         0.00000E+00
    0.12527E+07        -0.91790E+07         0.00000E+00
    0.00000E+00         0.00000E+00         0.00000E+00
 
    0.41357E+07         0.26094E+07         0.00000E+00
    0.26094E+07        -0.89773E+07         0.00000E+00
    0.00000E+00         0.00000E+00         0.00000E+00
 
    0.29231E+07         0.40290E+07         0.00000E+00
    0.40290E+07        -0.84826E+07         0.00000E+00
    0.00000E+00         0.00000E+00         0.00000E+00
 
    0.10882E+07         0.53895E+07         0.00000E+00
    0.53895E+07        -0.76254E+07         0.00000E+00
    0.00000E+00         0.00000E+00         0.00000E+00
 
    0.83167E+07        -0.40895E+06         0.00000E+00
   -0.40895E+06        -0.49653E+07         0.00000E+00
    0.00000E+00         0.00000E+00         0.00000E+00
 
    0.57523E+07        -0.14801E+07         0.00000E+00
   -0.14801E+07        -0.52555E+07         0.00000E+00
    0.00000E+00         0.00000E+00         0.00000E+00
 
    0.42729E+07        -0.25507E+07         0.00000E+00
   -0.25507E+07        -0.58134E+07         0.00000E+00
    0.00000E+00         0.00000E+00         0.00000E+00
 
    0.36185E+07        -0.33749E+07         0.00000E+00
   -0.33749E+07        -0.65470E+07         0.00000E+00
    0.00000E+00         0.00000E+00         0.00000E+00
 
    0.35186E+07        -0.38528E+07         0.00000E+00
   -0.38528E+07        -0.73494E+07         0.00000E+00
    0.00000E+00         0.00000E+00         0.00000E+00
 
    0.37471E+07        -0.39726E+07         0.00000E+00
   -0.39726E+07        -0.81384E+07         0.00000E+00
    0.00000E+00         0.00000E+00         0.00000E+00
 
    0.41356E+07        -0.37629E+07         0.00000E+00
   -0.37629E+07        -0.88636E+07         0.00000E+00
    0.00000E+00         0.00000E+00         0.00000E+00
 
    0.45646E+07        -0.32619E+07         0.00000E+00
   -0.32619E+07        -0.94986E+07         0.00000E+00
    0.00000E+00         0.00000E+00         0.00000E+00
 
    0.49460E+07        -0.25016E+07         0.00000E+00
   -0.25016E+07        -0.10029E+08         0.00000E+00
    0.00000E+00         0.00000E+00         0.00000E+00
 
    0.52055E+07        -0.15020E+07         0.00000E+00
   -0.15020E+07        -0.10444E+08         0.00000E+00
    0.00000E+00         0.00000E+00         0.00000E+00
 
    0.52657E+07        -0.27321E+06         0.00000E+00
   -0.27321E+06        -0.10721E+08         0.00000E+00
    0.00000E+00         0.00000E+00         0.00000E+00
 
    0.50321E+07         0.11768E+07         0.00000E+00
    0.11768E+07        -0.10825E+08         0.00000E+00
    0.00000E+00         0.00000E+00         0.00000E+00
 
    0.43830E+07         0.28286E+07         0.00000E+00
    0.28286E+07        -0.10695E+08         0.00000E+00
    0.00000E+00         0.00000E+00         0.00000E+00
 
    0.31645E+07         0.46314E+07         0.00000E+00
    0.46314E+07        -0.10243E+08         0.00000E+00
    0.00000E+00         0.00000E+00         0.00000E+00
 
    0.11958E+07         0.64751E+07         0.00000E+00
    0.64751E+07        -0.93537E+07         0.00000E+00
    0.00000E+00         0.00000E+00         0.00000E+00
 
    0.67309E+07        -0.69298E+06         0.00000E+00
   -0.69298E+06        -0.54118E+07         0.00000E+00
    0.00000E+00         0.00000E+00         0.00000E+00
 
    0.39744E+07        -0.22370E+07         0.00000E+00
   -0.22370E+07        -0.59110E+07         0.00000E+00
    0.00000E+00         0.00000E+00         0.00000E+00
 
    0.26087E+07        -0.35855E+07         0.00000E+00
   -0.35855E+07        -0.67571E+07         0.00000E+00
    0.00000E+00         0.00000E+00         0.00000E+00
 
    0.21897E+07        -0.45013E+07         0.00000E+00
   -0.45013E+07        -0.77542E+07         0.00000E+00
    0.00000E+00         0.00000E+00         0.00000E+00
 
    0.23363E+07        -0.49399E+07         0.00000E+00
   -0.49399E+07        -0.87483E+07         0.00000E+00
    0.00000E+00         0.00000E+00         0.00000E+00
 
    0.27742E+07        -0.49489E+07         0.00000E+00
   -0.49489E+07        -0.96523E+07         0.00000E+00
    0.00000E+00         0.00000E+00         0.00000E+00
 
    0.33261E+07        -0.46009E+07         0.00000E+00
   -0.46009E+07        -0.10433E+08         0.00000E+00
    0.00000E+00         0.00000E+00         0.00000E+00
 
    0.38837E+07        -0.39586E+07         0.00000E+00
   -0.39586E+07        -0.11088E+08         0.00000E+00
    0.00000E+00         0.00000E+00         0.00000E+00
 
    0.43775E+07        -0.30617E+07         0.00000E+00
   -0.30617E+07        -0.11629E+08         0.00000E+00
    0.00000E+00         0.00000E+00         0.00000E+00
 
    0.47507E+07        -0.19244E+07         0.00000E+00
   -0.19244E+07        -0.12063E+08         0.00000E+00
    0.00000E+00         0.00000E+00         0.00000E+00
 
    0.49380E+07        -0.53958E+06         0.00000E+00
   -0.53958E+06        -0.12384E+08         0.00000E+00
    0.00000E+00         0.00000E+00         0.00000E+00
 
    0.48461E+07         0.11117E+07         0.00000E+00
    0.11117E+07        -0.12560E+08         0.00000E+00
    0.00000E+00         0.00000E+00         0.00000E+00
 
    0.43377E+07         0.30449E+07         0.00000E+00
    0.30449E+07        -0.12523E+08         0.00000E+00
    0.00000E+00         0.00000E+00         0.00000E+00
 
    0.32194E+07         0.52469E+07         0.00000E+00
    0.52469E+07        -0.12160E+08         0.00000E+00
    0.00000E+00         0.00000E+00         0.00000E+00
 
    0.12399E+07         0.76398E+07         0.00000E+00
    0.76398E+07        -0.11301E+08         0.00000E+00
    0.00000E+00         0.00000E+00         0.00000E+00
 
    0.39468E+07        -0.10761E+07         0.00000E+00
   -0.10761E+07        -0.64528E+07         0.00000E+00
    0.00000E+00         0.00000E+00         0.00000E+00
 
    0.12009E+07        -0.31632E+07         0.00000E+00
   -0.31632E+07        -0.72022E+07         0.00000E+00
    0.00000E+00         0.00000E+00         0.00000E+00
 
    0.14885E+06        -0.47418E+07         0.00000E+00
   -0.47418E+07        -0.83476E+07         0.00000E+00
    0.00000E+00         0.00000E+00         0.00000E+00
 
    0.98932E+05        -0.56521E+07         0.00000E+00
   -0.56521E+07        -0.95636E+07         0.00000E+00
    0.00000E+00         0.00000E+00         0.00000E+00
 
    0.55443E+06        -0.59566E+07         0.00000E+00
   -0.59566E+07        -0.10662E+08         0.00000E+00
    0.00000E+00         0.00000E+00         0.00000E+00
 
    0.12122E+07        -0.57873E+07         0.00000E+00
   -0.57873E+07        -0.11573E+08         0.00000E+00
    0.00000E+00         0.00000E+00         0.00000E+00
 
    0.19103E+07        -0.52669E+07         0.00000E+00
   -0.52669E+07        -0.12302E+08         0.00000E+00
    0.00000E+00         0.00000E+00         0.00000E+00
 
    0.25714E+07        -0.44798E+07         0.00000E+00
   -0.44798E+07        -0.12881E+08         0.00000E+00
    0.00000E+00         0.00000E+00         0.00000E+00
 
    0.31584E+07        -0.34671E+07         0.00000E+00
   -0.34671E+07        -0.13352E+08         0.00000E+00
    0.00000E+00         0.00000E+00         0.00000E+00
 
    0.36431E+07        -0.22313E+07         0.00000E+00
   -0.22313E+07        -0.13746E+08         0.00000E+00
    0.00000E+00         0.00000E+00         0.00000E+00
 
    0.39822E+07        -0.74211E+06         0.00000E+00
   -0.74211E+06        -0.14073E+08         0.00000E+00
    0.00000E+00         0.00000E+00         0.00000E+00
 
    0.40940E+07         0.10552E+07         0.00000E+00
    0.10552E+07        -0.14313E+08         0.00000E+00
    0.00000E+00         0.00000E+00         0.00000E+00
 
    0.38340E+07         0.32249E+07         0.00000E+00
    0.32249E+07        -0.14397E+08         0.00000E+00
    0.00000E+00         0.00000E+00         0.00000E+00
 
    0.29720E+07         0.58131E+07         0.00000E+00
    0.58131E+07        -0.14184E+08         0.00000E+00
    0.00000E+00         0.00000E+00         0.00000E+00
 
    0.11778E+07         0.88023E+07         0.00000E+00
    0.88023E+07        -0.13448E+08         0.00000E+00
    0.00000E+00         0.00000E+00         0.00000E+00
 
   -0.55579E+06        -0.15746E+07         0.00000E+00
   -0.15746E+07        -0.84471E+07         0.00000E+00
    0.00000E+00         0.00000E+00         0.00000E+00
 
   -0.28948E+07        -0.42361E+07         0.00000E+00
   -0.42361E+07        -0.94492E+07         0.00000E+00
    0.00000E+00         0.00000E+00         0.00000E+00
 
   -0.33315E+07        -0.59302E+07         0.00000E+00
   -0.59302E+07        -0.10828E+08         0.00000E+00
    0.00000E+00         0.00000E+00         0.00000E+00
 
   -0.28484E+07        -0.66911E+07         0.00000E+00
   -0.66911E+07        -0.12126E+08         0.00000E+00
    0.00000E+00         0.00000E+00         0.00000E+00
 
   -0.20297E+07        -0.67511E+07         0.00000E+00
   -0.67511E+07        -0.13158E+08         0.00000E+00
    0.00000E+00         0.00000E+00         0.00000E+00
 
   -0.11601E+07        -0.63450E+07         0.00000E+00
   -0.63450E+07        -0.13909E+08         0.00000E+00
    0.00000E+00         0.00000E+00         0.00000E+00
 
   -0.34839E+06        -0.56397E+07         0.00000E+00
   -0.56397E+07        -0.14439E+08         0.00000E+00
    0.00000E+00         0.00000E+00         0.00000E+00
 
    0.38176E+06        -0.47286E+07         0.00000E+00
   -0.47286E+07        -0.14824E+08         0.00000E+00
    0.00000E+00         0.00000E+00         0.00000E+00
 
    0.10385E+07        -0.36449E+07         0.00000E+00
   -0.36449E+07        -0.15132E+08         0.00000E+00
    0.00000E+00         0.00000E+00         0.00000E+00
 
    0.16318E+07        -0.23739E+07         0.00000E+00
   -0.23739E+07        -0.15416E+08         0.00000E+00
    0.00000E+00         0.00000E+00         0.00000E+00
 
    0.21513E+07        -0.85894E+06         0.00000E+00
   -0.85894E+06        -0.15706E+08         0.00000E+00
    0.00000E+00         0.00000E+00         0.00000E+00
 
    0.25418E+07         0.99576E+06         0.00000E+00
    0.99576E+06        -0.15997E+08         0.00000E+00
    0.00000E+00         0.00000E+00         0.00000E+00
 
    0.26687E+07         0.33168E+07         0.00000E+00
    0.33168E+07        -0.16227E+08         0.00000E+00
    0.00000E+00         0.00000E+00         0.00000E+00
 
    0.22770E+07         0.62354E+07         0.00000E+00
    0.62354E+07        -0.16242E+08         0.00000E+00
    0.00000E+00         0.00000E+00         0.00000E+00
 
    0.95536E+06         0.98334E+07         0.00000E+00
    0.98334E+07        -0.15759E+08         0.00000E+00
    0.00000E+00         0.00000E+00         0.00000E+00
 
   -0.73657E+07        -0.21862E+07         0.00000E+00
   -0.21862E+07        -0.11827E+08         0.00000E+00
    0.00000E+00         0.00000E+00         0.00000E+00
 
   -0.86262E+07        -0.53703E+07         0.00000E+00
   -0.53703E+07        -0.13000E+08         0.00000E+00
    0.00000E+00         0.00000E+00         0.00000E+00
 
   -0.80374E+07        -0.69773E+07         0.00000E+00
   -0.69773E+07        -0.14412E+08         0.00000E+00
    0.00000E+00         0.00000E+00         0.00000E+00
 
   -0.68517E+07        -0.74071E+07         0.00000E+00
   -0.74071E+07        -0.15521E+08         0.00000E+00
    0.00000E+00         0.00000E+00         0.00000E+00
 
   -0.56443E+07        -0.71251E+07         0.00000E+00
   -0.71251E+07        -0.16219E+08         0.00000E+00
    0.00000E+00         0.00000E+00         0.00000E+00
 
   -0.45962E+07        -0.64618E+07         0.00000E+00
   -0.64618E+07        -0.16589E+08         0.00000E+00
    0.00000E+00         0.00000E+00         0.00000E+00
 
   -0.37149E+07        -0.55998E+07         0.00000E+00
   -0.55998E+07        -0.16753E+08         0.00000E+00
    0.00000E+00         0.00000E+00         0.00000E+00
 
   -0.29514E+07        -0.46196E+07         0.00000E+00
   -0.46196E+07        -0.16821E+08         0.00000E+00
    0.00000E+00         0.00000E+00         0.00000E+00
 
   -0.22455E+07        -0.35358E+07         0.00000E+00
   -0.35358E+07        -0.16877E+08         0.00000E+00
    0.00000E+00         0.00000E+00         0.00000E+00
 
   -0.15448E+07        -0.23144E+07         0.00000E+00
   -0.23144E+07        -0.16983E+08         0.00000E+00
    0.00000E+00         0.00000E+00         0.00000E+00
 
   -0.81605E+06        -0.87601E+06         0.00000E+00
   -0.87601E+06        -0.17186E+08         0.00000E+00
    0.00000E+00         0.00000E+00         0.00000E+00
 
   -0.67450E+05         0.91310E+06         0.00000E+00
    0.91310E+06        -0.17505E+08         0.00000E+00
    0.00000E+00         0.00000E+00         0.00000E+00
 
    0.60784E+06         0.32498E+07         0.00000E+00
    0.32498E+07        -0.17904E+08         0.00000E+00
    0.00000E+00         0.00000E+00         0.00000E+00
 
    0.96001E+06         0.63816E+07         0.00000E+00
    0.63816E+07        -0.18239E+08         0.00000E+00
    0.00000E+00         0.00000E+00         0.00000E+00
 
    0.50584E+06         0.10544E+08         0.00000E+00
    0.10544E+08        -0.18180E+08         0.00000E+00
    0.00000E+00         0.00000E+00         0.00000E+00
 
   -0.17000E+08        -0.28694E+07         0.00000E+00
   -0.28694E+07        -0.17017E+08         0.00000E+00
    0.00000E+00         0.00000E+00         0.00000E+00
 
   -0.16172E+08        -0.63714E+07         0.00000E+00
   -0.63714E+07        -0.18131E+08         0.00000E+00
    0.00000E+00         0.00000E+00         0.00000E+00
 
   -0.14084E+08        -0.75849E+07         0.00000E+00
   -0.75849E+07        -0.19169E+08         0.00000E+00
    0.00000E+00         0.00000E+00         0.00000E+00
 
   -0.12085E+08        -0.75072E+07         0.00000E+00
   -0.75072E+07        -0.19653E+08         0.00000E+00
    0.00000E+00         0.00000E+00         0.00000E+00
 
   -0.10524E+08        -0.68568E+07         0.00000E+00
   -0.68568E+07        -0.19672E+08         0.00000E+00
    0.00000E+00         0.00000E+00         0.00000E+00
 
   -0.93541E+07        -0.59923E+07         0.00000E+00
   -0.59923E+07        -0.19427E+08         0.00000E+00
    0.00000E+00         0.00000E+00         0.00000E+00
 
   -0.84452E+07        -0.50599E+07         0.00000E+00
   -0.50599E+07        -0.19077E+08         0.00000E+00
    0.00000E+00         0.00000E+00         0.00000E+00
 
   -0.76714E+07        -0.41031E+07         0.00000E+00
   -0.41031E+07        -0.18733E+08         0.00000E+00
    0.00000E+00         0.00000E+00         0.00000E+00
 
   -0.69248E+07        -0.31117E+07         0.00000E+00
   -0.31117E+07        -0.18471E+08         0.00000E+00
    0.00000E+00         0.00000E+00         0.00000E+00
 
   -0.61125E+07        -0.20368E+07         0.00000E+00
   -0.20368E+07        -0.18350E+08         0.00000E+00
    0.00000E+00         0.00000E+00         0.00000E+00
 
   -0.51531E+07        -0.78848E+06         0.00000E+00
   -0.78848E+06        -0.18421E+08         0.00000E+00
    0.00000E+00         0.00000E+00         0.00000E+00
 
   -0.39837E+07         0.78583E+06         0.00000E+00
    0.78583E+06        -0.18732E+08         0.00000E+00
    0.00000E+00         0.00000E+00         0.00000E+00
 
   -0.26028E+07         0.29441E+07         0.00000E+00
    0.29441E+07        -0.19305E+08         0.00000E+00
    0.00000E+00         0.00000E+00         0.00000E+00
 
   -0.11862E+07         0.60809E+07         0.00000E+00
    0.60809E+07        -0.20052E+08         0.00000E+00
    0.00000E+00         0.00000E+00         0.00000E+00
 
   -0.25349E+06         0.10671E+08         0.00000E+00
    0.10671E+08        -0.20639E+08         0.00000E+00
    0.00000E+00         0.00000E+00         0.00000E+00
 
   -0.29638E+08        -0.35122E+07         0.00000E+00
   -0.35122E+07        -0.24255E+08         0.00000E+00
    0.00000E+00         0.00000E+00         0.00000E+00
 
   -0.25383E+08        -0.68465E+07         0.00000E+00
   -0.68465E+07        -0.24852E+08         0.00000E+00
    0.00000E+00         0.00000E+00         0.00000E+00
 
   -0.21435E+08        -0.72786E+07         0.00000E+00
   -0.72786E+07        -0.24808E+08         0.00000E+00
    0.00000E+00         0.00000E+00         0.00000E+00
 
   -0.18691E+08        -0.66534E+07         0.00000E+00
   -0.66534E+07        -0.24107E+08         0.00000E+00
    0.00000E+00         0.00000E+00         0.00000E+00
 
   -0.16882E+08        -0.57666E+07         0.00000E+00
   -0.57666E+07        -0.23129E+08         0.00000E+00
    0.00000E+00         0.00000E+00         0.00000E+00
 
   -0.15647E+08        -0.48623E+07         0.00000E+00
   -0.48623E+07        -0.22111E+08         0.00000E+00
    0.00000E+00         0.00000E+00         0.00000E+00
 
   -0.14726E+08        -0.40045E+07         0.00000E+00
   -0.40045E+07        -0.21175E+08         0.00000E+00
    0.00000E+00         0.00000E+00         0.00000E+00
 
   -0.13935E+08        -0.31919E+07         0.00000E+00
   -0.31919E+07        -0.20389E+08         0.00000E+00
    0.00000E+00         0.00000E+00         0.00000E+00
 
   -0.13134E+08        -0.23941E+07         0.00000E+00
   -0.23941E+07        -0.19795E+08         0.00000E+00
    0.00000E+00         0.00000E+00         0.00000E+00
 
   -0.12198E+08        -0.15589E+07         0.00000E+00
   -0.15589E+07        -0.19430E+08         0.00000E+00
    0.00000E+00         0.00000E+00         0.00000E+00
 
   -0.11001E+08        -0.60399E+06         0.00000E+00
   -0.60399E+06        -0.19343E+08         0.00000E+00
    0.00000E+00         0.00000E+00         0.00000E+00
 
   -0.93976E+07         0.60971E+06         0.00000E+00
    0.60971E+06        -0.19600E+08         0.00000E+00
    0.00000E+00         0.00000E+00         0.00000E+00
 
   -0.72230E+07         0.23425E+07         0.00000E+00
    0.23425E+07        -0.20300E+08         0.00000E+00
    0.00000E+00         0.00000E+00         0.00000E+00
 
   -0.44242E+07         0.51370E+07         0.00000E+00
    0.51370E+07        -0.21526E+08         0.00000E+00
    0.00000E+00         0.00000E+00         0.00000E+00
 
   -0.14387E+07         0.98563E+07         0.00000E+00
    0.98563E+07        -0.23034E+08         0.00000E+00
    0.00000E+00         0.00000E+00         0.00000E+00
 
   -0.44662E+08        -0.38386E+07         0.00000E+00
   -0.38386E+07        -0.33357E+08         0.00000E+00
    0.00000E+00         0.00000E+00         0.00000E+00
 
   -0.35598E+08        -0.59510E+07         0.00000E+00
   -0.59510E+07        -0.32382E+08         0.00000E+00
    0.00000E+00         0.00000E+00         0.00000E+00
 
   -0.30011E+08        -0.54683E+07         0.00000E+00
   -0.54683E+07        -0.30304E+08         0.00000E+00
    0.00000E+00         0.00000E+00         0.00000E+00
 
   -0.26816E+08        -0.46344E+07         0.00000E+00
   -0.46344E+07        -0.28054E+08         0.00000E+00
    0.00000E+00         0.00000E+00         0.00000E+00
 
   -0.24862E+08        -0.38356E+07         0.00000E+00
   -0.38356E+07        -0.26002E+08         0.00000E+00
    0.00000E+00         0.00000E+00         0.00000E+00
 
   -0.23568E+08        -0.31358E+07         0.00000E+00
   -0.31358E+07        -0.24239E+08         0.00000E+00
    0.00000E+00         0.00000E+00         0.00000E+00
 
   -0.22599E+08        -0.25267E+07         0.00000E+00
   -0.25267E+07        -0.22778E+08         0.00000E+00
    0.00000E+00         0.00000E+00         0.00000E+00
 
   -0.21744E+08        -0.19813E+07         0.00000E+00
   -0.19813E+07        -0.21613E+08         0.00000E+00
    0.00000E+00         0.00000E+00         0.00000E+00
 
   -0.20847E+08        -0.14668E+07         0.00000E+00
   -0.14668E+07        -0.20739E+08         0.00000E+00
    0.00000E+00         0.00000E+00         0.00000E+00
 
   -0.19765E+08        -0.94269E+06         0.00000E+00
   -0.94269E+06        -0.20167E+08         0.00000E+00
    0.00000E+00         0.00000E+00         0.00000E+00
 
   -0.18339E+08        -0.35259E+06         0.00000E+00
   -0.35259E+06        -0.19929E+08         0.00000E+00
    0.00000E+00         0.00000E+00         0.00000E+00
 
   -0.16352E+08         0.39787E+06         0.00000E+00
    0.39787E+06        -0.20101E+08         0.00000E+00
    0.00000E+00         0.00000E+00         0.00000E+00
 
   -0.13480E+08         0.14948E+07         0.00000E+00
    0.14948E+07        -0.20833E+08         0.00000E+00
    0.00000E+00         0.00000E+00         0.00000E+00
 
   -0.91615E+07         0.33972E+07         0.00000E+00
    0.33972E+07        -0.22428E+08         0.00000E+00
    0.00000E+00         0.00000E+00         0.00000E+00
 
   -0.32753E+07         0.75790E+07         0.00000E+00
    0.75790E+07        -0.25207E+08         0.00000E+00
    0.00000E+00         0.00000E+00         0.00000E+00
 
   -0.59832E+08        -0.24280E+07         0.00000E+00
   -0.24280E+07        -0.41931E+08         0.00000E+00
    0.00000E+00         0.00000E+00         0.00000E+00
 
   -0.46197E+08        -0.25042E+07         0.00000E+00
   -0.25042E+07        -0.37953E+08         0.00000E+00
    0.00000E+00         0.00000E+00         0.00000E+00
 
   -0.39992E+08        -0.20466E+07         0.00000E+00
   -0.20466E+07        -0.33851E+08         0.00000E+00
    0.00000E+00         0.00000E+00         0.00000E+00
 
   -0.36553E+08        -0.16496E+07         0.00000E+00
   -0.16496E+07        -0.30427E+08         0.00000E+00
    0.00000E+00         0.00000E+00         0.00000E+00
 
   -0.34444E+08        -0.13233E+07         0.00000E+00
   -0.13233E+07        -0.27651E+08         0.00000E+00
    0.00000E+00         0.00000E+00         0.00000E+00
 
   -0.33007E+08        -0.10591E+07         0.00000E+00
   -0.10591E+07        -0.25422E+08         0.00000E+00
    0.00000E+00         0.00000E+00         0.00000E+00
 
   -0.31895E+08        -0.83959E+06         0.00000E+00
   -0.83959E+06        -0.23647E+08         0.00000E+00
    0.00000E+00         0.00000E+00         0.00000E+00
 
   -0.30891E+08        -0.64919E+06         0.00000E+00
   -0.64919E+06        -0.22262E+08         0.00000E+00
    0.00000E+00         0.00000E+00         0.00000E+00
 
   -0.29836E+08        -0.47350E+06         0.00000E+00
   -0.47350E+06        -0.21228E+08         0.00000E+00
    0.00000E+00         0.00000E+00         0.00000E+00
 
   -0.28579E+08        -0.29736E+06         0.00000E+00
   -0.29736E+06        -0.20534E+08         0.00000E+00
    0.00000E+00         0.00000E+00         0.00000E+00
 
   -0.26944E+08        -0.10096E+06         0.00000E+00
   -0.10096E+06        -0.20202E+08         0.00000E+00
    0.00000E+00         0.00000E+00         0.00000E+00
 
   -0.24679E+08         0.14796E+06         0.00000E+00
    0.14796E+06        -0.20306E+08         0.00000E+00
    0.00000E+00         0.00000E+00         0.00000E+00
 
   -0.21354E+08         0.51647E+06         0.00000E+00
    0.51647E+06        -0.21014E+08         0.00000E+00
    0.00000E+00         0.00000E+00         0.00000E+00
 
   -0.16124E+08         0.11583E+07         0.00000E+00
    0.11583E+07        -0.22717E+08         0.00000E+00
    0.00000E+00         0.00000E+00         0.00000E+00
 
   -0.64448E+07         0.29975E+07         0.00000E+00
    0.29975E+07        -0.26664E+08         0.00000E+00
    0.00000E+00         0.00000E+00         0.00000E+00
 
TENSORS stresstot double 
   -0.51409E+08         0.13554E+05         0.00000E+00
    0.13554E+05        -0.59987E+08         0.00000E+00
    0.00000E+00         0.00000E+00        -0.55817E+08
 
   -0.51606E+08         0.38093E+05         0.00000E+00
    0.38093E+05        -0.59935E+08         0.00000E+00
    0.00000E+00         0.00000E+00        -0.55862E+08
 
   -0.51916E+08         0.58798E+05         0.00000E+00
    0.58798E+05        -0.59839E+08         0.00000E+00
    0.00000E+00         0.00000E+00        -0.55946E+08
 
   -0.52319E+08         0.75427E+05         0.00000E+00
    0.75427E+05        -0.59704E+08         0.00000E+00
    0.00000E+00         0.00000E+00        -0.56062E+08
 
   -0.52794E+08         0.87953E+05         0.00000E+00
    0.87953E+05        -0.59541E+08         0.00000E+00
    0.00000E+00         0.00000E+00        -0.56204E+08
 
   -0.53318E+08         0.96498E+05         0.00000E+00
    0.96498E+05        -0.59357E+08         0.00000E+00
    0.00000E+00         0.00000E+00        -0.56362E+08
 
   -0.53873E+08         0.10129E+06         0.00000E+00
    0.10129E+06        -0.59159E+08         0.00000E+00
    0.00000E+00         0.00000E+00        -0.56531E+08
 
   -0.54438E+08         0.10262E+06         0.00000E+00
    0.10262E+06        -0.58955E+08         0.00000E+00
    0.00000E+00         0.00000E+00        -0.56704E+08
 
   -0.54997E+08         0.10080E+06         0.00000E+00
    0.10080E+06        -0.58752E+08         0.00000E+00
    0.00000E+00         0.00000E+00        -0.56874E+08
 
   -0.55533E+08         0.96190E+05         0.00000E+00
    0.96190E+05        -0.58555E+08         0.00000E+00
    0.00000E+00         0.00000E+00        -0.57035E+08
 
   -0.56033E+08         0.89144E+05         0.00000E+00
    0.89144E+05        -0.58369E+08         0.00000E+00
    0.00000E+00         0.00000E+00        -0.57183E+08
 
   -0.56482E+08         0.80080E+05         0.00000E+00
    0.80080E+05        -0.58200E+08         0.00000E+00
    0.00000E+00         0.00000E+00        -0.57310E+08
 
   -0.56871E+08         0.69491E+05         0.00000E+00
    0.69491E+05        -0.58051E+08         0.00000E+00
    0.00000E+00         0.00000E+00        -0.57413E+08
 
   -0.57190E+08         0.57998E+05         0.00000E+00
    0.57998E+05        -0.57923E+08         0.00000E+00
    0.00000E+00         0.00000E+00        -0.57486E+08
 
   -0.57433E+08         0.46410E+05         0.00000E+00
    0.46410E+05        -0.57819E+08         0.00000E+00
    0.00000E+00         0.00000E+00        -0.57525E+08
 
   -0.51357E+08         0.40636E+05         0.00000E+00
    0.40636E+05        -0.59987E+08         0.00000E+00
    0.00000E+00         0.00000E+00        -0.55800E+08
 
   -0.51560E+08         0.11411E+06         0.00000E+00
    0.11411E+06        -0.59936E+08         0.00000E+00
    0.00000E+00         0.00000E+00        -0.55846E+08
 
   -0.51879E+08         0.17604E+06         0.00000E+00
    0.17604E+06        -0.59839E+08         0.00000E+00
    0.00000E+00         0.00000E+00        -0.55933E+08
 
   -0.52290E+08         0.22574E+06         0.00000E+00
    0.22574E+06        -0.59706E+08         0.00000E+00
    0.00000E+00         0.00000E+00        -0.56052E+08
 
   -0.52773E+08         0.26315E+06         0.00000E+00
    0.26315E+06        -0.59544E+08         0.00000E+00
    0.00000E+00         0.00000E+00        -0.56197E+08
 
   -0.53305E+08         0.28865E+06         0.00000E+00
    0.28865E+06        -0.59361E+08         0.00000E+00
    0.00000E+00         0.00000E+00        -0.56359E+08
 
   -0.53867E+08         0.30295E+06         0.00000E+00
    0.30295E+06        -0.59165E+08         0.00000E+00
    0.00000E+00         0.00000E+00        -0.56532E+08
 
   -0.54439E+08         0.30692E+06         0.00000E+00
    0.30692E+06        -0.58963E+08         0.00000E+00
    0.00000E+00         0.00000E+00        -0.56709E+08
 
   -0.55004E+08         0.30153E+06         0.00000E+00
    0.30153E+06        -0.58762E+08         0.00000E+00
    0.00000E+00         0.00000E+00        -0.56883E+08
 
   -0.55545E+08         0.28779E+06         0.00000E+00
    0.28779E+06        -0.58566E+08         0.00000E+00
    0.00000E+00         0.00000E+00        -0.57047E+08
 
   -0.56049E+08         0.26677E+06         0.00000E+00
    0.26677E+06        -0.58383E+08         0.00000E+00
    0.00000E+00         0.00000E+00        -0.57198E+08
 
   -0.56502E+08         0.23970E+06         0.00000E+00
    0.23970E+06        -0.58215E+08         0.00000E+00
    0.00000E+00         0.00000E+00        -0.57328E+08
 
   -0.56893E+08         0.20800E+06         0.00000E+00
    0.20800E+06        -0.58066E+08         0.00000E+00
    0.00000E+00         0.00000E+00        -0.57433E+08
 
   -0.57213E+08         0.17351E+06         0.00000E+00
    0.17351E+06        -0.57940E+08         0.00000E+00
    0.00000E+00         0.00000E+00        -0.57507E+08
 
   -0.57456E+08         0.13860E+06         0.00000E+00
    0.13860E+06        -0.57836E+08         0.00000E+00
    0.00000E+00         0.00000E+00        -0.57546E+08
 
   -0.51252E+08         0.67585E+05         0.00000E+00
    0.67585E+05        -0.59987E+08         0.00000E+00
    0.00000E+00         0.00000E+00        -0.55767E+08
 
   -0.51470E+08         0.18956E+06         0.00000E+00
    0.18956E+06        -0.59936E+08         0.00000E+00
    0.00000E+00         0.00000E+00        -0.55815E+08
 
   -0.51804E+08         0.29217E+06         0.00000E+00
    0.29217E+06        -0.59841E+08         0.00000E+00
    0.00000E+00         0.00000E+00        -0.55907E+08
 
   -0.52232E+08         0.37436E+06         0.00000E+00
    0.37436E+06        -0.59710E+08         0.00000E+00
    0.00000E+00         0.00000E+00        -0.56032E+08
 
   -0.52731E+08         0.43612E+06         0.00000E+00
    0.43612E+06        -0.59550E+08         0.00000E+00
    0.00000E+00         0.00000E+00        -0.56184E+08
 
   -0.53279E+08         0.47819E+06         0.00000E+00
    0.47819E+06        -0.59371E+08         0.00000E+00
    0.00000E+00         0.00000E+00        -0.56355E+08
 
   -0.53855E+08         0.50177E+06         0.00000E+00
    0.50177E+06        -0.59179E+08         0.00000E+00
    0.00000E+00         0.00000E+00        -0.56535E+08
 
   -0.54440E+08         0.50835E+06         0.00000E+00
    0.50835E+06        -0.58980E+08         0.00000E+00
    0.00000E+00         0.00000E+00        -0.56720E+08
 
   -0.55016E+08         0.49954E+06         0.00000E+00
    0.49954E+06        -0.58783E+08         0.00000E+00
    0.00000E+00         0.00000E+00        -0.56901E+08
 
   -0.55568E+08         0.47697E+06         0.00000E+00
    0.47697E+06        -0.58591E+08         0.00000E+00
    0.00000E+00         0.00000E+00        -0.57072E+08
 
   -0.56081E+08         0.44238E+06         0.00000E+00
    0.44238E+06        -0.58410E+08         0.00000E+00
    0.00000E+00         0.00000E+00        -0.57228E+08
 
   -0.56541E+08         0.39767E+06         0.00000E+00
    0.39767E+06        -0.58245E+08         0.00000E+00
    0.00000E+00         0.00000E+00        -0.57363E+08
 
   -0.56938E+08         0.34512E+06         0.00000E+00
    0.34512E+06        -0.58098E+08         0.00000E+00
    0.00000E+00         0.00000E+00        -0.57472E+08
 
   -0.57260E+08         0.28762E+06         0.00000E+00
    0.28762E+06        -0.57974E+08         0.00000E+00
    0.00000E+00         0.00000E+00        -0.57549E+08
 
   -0.57501E+08         0.22900E+06         0.00000E+00
    0.22900E+06        -0.57873E+08         0.00000E+00
    0.00000E+00         0.00000E+00        -0.57590E+08
 
   -0.51095E+08         0.94259E+05         0.00000E+00
    0.94259E+05        -0.59987E+08         0.00000E+00
    0.00000E+00         0.00000E+00        -0.55717E+08
 
   -0.51335E+08         0.26395E+06         0.00000E+00
    0.26395E+06        -0.59937E+08         0.00000E+00
    0.00000E+00         0.00000E+00        -0.55770E+08
 
   -0.51694E+08         0.40625E+06         0.00000E+00
    0.40625E+06        -0.59844E+08         0.00000E+00
    0.00000E+00         0.00000E+00        -0.55868E+08
 
   -0.52147E+08         0.51992E+06         0.00000E+00
    0.51992E+06        -0.59716E+08         0.00000E+00
    0.00000E+00         0.00000E+00        -0.56004E+08
 
   -0.52669E+08         0.60512E+06         0.00000E+00
    0.60512E+06        -0.59561E+08         0.00000E+00
    0.00000E+00         0.00000E+00        -0.56167E+08
 
   -0.53240E+08         0.66305E+06         0.00000E+00
    0.66305E+06        -0.59387E+08         0.00000E+00
    0.00000E+00         0.00000E+00        -0.56348E+08
 
   -0.53837E+08         0.69553E+06         0.00000E+00
    0.69553E+06        -0.59201E+08         0.00000E+00
    0.00000E+00         0.00000E+00        -0.56541E+08
 
   -0.54441E+08         0.70468E+06         0.00000E+00
    0.70468E+06        -0.59009E+08         0.00000E+00
    0.00000E+00         0.00000E+00        -0.56737E+08
 
   -0.55035E+08         0.69273E+06         0.00000E+00
    0.69273E+06        -0.58818E+08         0.00000E+00
    0.00000E+00         0.00000E+00        -0.56929E+08
 
   -0.55603E+08         0.66191E+06         0.00000E+00
    0.66191E+06        -0.58631E+08         0.00000E+00
    0.00000E+00         0.00000E+00        -0.57110E+08
 
   -0.56129E+08         0.61446E+06         0.00000E+00
    0.61446E+06        -0.58455E+08         0.00000E+00
    0.00000E+00         0.00000E+00        -0.57275E+08
 
   -0.56600E+08         0.55284E+06         0.00000E+00
    0.55284E+06        -0.58294E+08         0.00000E+00
    0.00000E+00         0.00000E+00        -0.57418E+08
 
   -0.57004E+08         0.47995E+06         0.00000E+00
    0.47995E+06        -0.58150E+08         0.00000E+00
    0.00000E+00         0.00000E+00        -0.57533E+08
 
   -0.57331E+08         0.39954E+06         0.00000E+00
    0.39954E+06        -0.58028E+08         0.00000E+00
    0.00000E+00         0.00000E+00        -0.57614E+08
 
   -0.57571E+08         0.31667E+06         0.00000E+00
    0.31667E+06        -0.57930E+08         0.00000E+00
    0.00000E+00         0.00000E+00        -0.57657E+08
 
   -0.50887E+08         0.12047E+06         0.00000E+00
    0.12047E+06        -0.59988E+08         0.00000E+00
    0.00000E+00         0.00000E+00        -0.55653E+08
 
   -0.51158E+08         0.33662E+06         0.00000E+00
    0.33662E+06        -0.59939E+08         0.00000E+00
    0.00000E+00         0.00000E+00        -0.55711E+08
 
   -0.51549E+08         0.51711E+06         0.00000E+00
    0.51711E+06        -0.59849E+08         0.00000E+00
    0.00000E+00         0.00000E+00        -0.55819E+08
 
   -0.52034E+08         0.66071E+06         0.00000E+00
    0.66071E+06        -0.59725E+08         0.00000E+00
    0.00000E+00         0.00000E+00        -0.55967E+08
 
   -0.52589E+08         0.76799E+06         0.00000E+00
    0.76799E+06        -0.59577E+08         0.00000E+00
    0.00000E+00         0.00000E+00        -0.56145E+08
 
   -0.53189E+08         0.84074E+06         0.00000E+00
    0.84074E+06        -0.59411E+08         0.00000E+00
    0.00000E+00         0.00000E+00        -0.56342E+08
 
   -0.53814E+08         0.88153E+06         0.00000E+00
    0.88153E+06        -0.59234E+08         0.00000E+00
    0.00000E+00         0.00000E+00        -0.56551E+08
 
   -0.54443E+08         0.89320E+06         0.00000E+00
    0.89320E+06        -0.59052E+08         0.00000E+00
    0.00000E+00         0.00000E+00        -0.56762E+08
 
   -0.55059E+08         0.87859E+06         0.00000E+00
    0.87859E+06        -0.58869E+08         0.00000E+00
    0.00000E+00         0.00000E+00        -0.56968E+08
 
   -0.55647E+08         0.84041E+06         0.00000E+00
    0.84041E+06        -0.58691E+08         0.00000E+00
    0.00000E+00         0.00000E+00        -0.57163E+08
 
   -0.56190E+08         0.78129E+06         0.00000E+00
    0.78129E+06        -0.58522E+08         0.00000E+00
    0.00000E+00         0.00000E+00        -0.57340E+08
 
   -0.56676E+08         0.70395E+06         0.00000E+00
    0.70395E+06        -0.58366E+08         0.00000E+00
    0.00000E+00         0.00000E+00        -0.57493E+08
 
   -0.57092E+08         0.61165E+06         0.00000E+00
    0.61165E+06        -0.58227E+08         0.00000E+00
    0.00000E+00         0.00000E+00        -0.57616E+08
 
   -0.57425E+08         0.50870E+06         0.00000E+00
    0.50870E+06        -0.58108E+08         0.00000E+00
    0.00000E+00         0.00000E+00        -0.57703E+08
 
   -0.57666E+08         0.40104E+06         0.00000E+00
    0.40104E+06        -0.58013E+08         0.00000E+00
    0.00000E+00         0.00000E+00        -0.57749E+08
 
   -0.50629E+08         0.14594E+06         0.00000E+00
    0.14594E+06        -0.59988E+08         0.00000E+00
    0.00000E+00         0.00000E+00        -0.55575E+08
 
   -0.50939E+08         0.40669E+06         0.00000E+00
    0.40669E+06        -0.59941E+08         0.00000E+00
    0.00000E+00         0.00000E+00        -0.55640E+08
 
   -0.51371E+08         0.62321E+06         0.00000E+00
    0.62321E+06        -0.59855E+08         0.00000E+00
    0.00000E+00         0.00000E+00        -0.55760E+08
 
   -0.51897E+08         0.79456E+06         0.00000E+00
    0.79456E+06        -0.59739E+08         0.00000E+00
    0.00000E+00         0.00000E+00        -0.55924E+08
 
   -0.52491E+08         0.92197E+06         0.00000E+00
    0.92197E+06        -0.59600E+08         0.00000E+00
    0.00000E+00         0.00000E+00        -0.56120E+08
 
   -0.53128E+08         0.10081E+07         0.00000E+00
    0.10081E+07        -0.59445E+08         0.00000E+00
    0.00000E+00         0.00000E+00        -0.56337E+08
 
   -0.53786E+08         0.10564E+07         0.00000E+00
    0.10564E+07        -0.59281E+08         0.00000E+00
    0.00000E+00         0.00000E+00        -0.56565E+08
 
   -0.54445E+08         0.10706E+07         0.00000E+00
    0.10706E+07        -0.59112E+08         0.00000E+00
    0.00000E+00         0.00000E+00        -0.56796E+08
 
   -0.55088E+08         0.10540E+07         0.00000E+00
    0.10540E+07        -0.58942E+08         0.00000E+00
    0.00000E+00         0.00000E+00        -0.57021E+08
 
   -0.55700E+08         0.10098E+07         0.00000E+00
    0.10098E+07        -0.58776E+08         0.00000E+00
    0.00000E+00         0.00000E+00        -0.57232E+08
 
   -0.56265E+08         0.94079E+06         0.00000E+00
    0.94079E+06        -0.58616E+08         0.00000E+00
    0.00000E+00         0.00000E+00        -0.57424E+08
 
   -0.56770E+08         0.84961E+06         0.00000E+00
    0.84961E+06        -0.58468E+08         0.00000E+00
    0.00000E+00         0.00000E+00        -0.57590E+08
 
   -0.57200E+08         0.73951E+06         0.00000E+00
    0.73951E+06        -0.58333E+08         0.00000E+00
    0.00000E+00         0.00000E+00        -0.57723E+08
 
   -0.57543E+08         0.61486E+06         0.00000E+00
    0.61486E+06        -0.58218E+08         0.00000E+00
    0.00000E+00         0.00000E+00        -0.57817E+08
 
   -0.57786E+08         0.48210E+06         0.00000E+00
    0.48210E+06        -0.58126E+08         0.00000E+00
    0.00000E+00         0.00000E+00        -0.57867E+08
 
   -0.50324E+08         0.17033E+06         0.00000E+00
    0.17033E+06        -0.59989E+08         0.00000E+00
    0.00000E+00         0.00000E+00        -0.55486E+08
 
   -0.50681E+08         0.47301E+06         0.00000E+00
    0.47301E+06        -0.59945E+08         0.00000E+00
    0.00000E+00         0.00000E+00        -0.55559E+08
 
   -0.51162E+08         0.72256E+06         0.00000E+00
    0.72256E+06        -0.59865E+08         0.00000E+00
    0.00000E+00         0.00000E+00        -0.55694E+08
 
   -0.51737E+08         0.91868E+06         0.00000E+00
    0.91868E+06        -0.59758E+08         0.00000E+00
    0.00000E+00         0.00000E+00        -0.55877E+08
 
   -0.52377E+08         0.10636E+07         0.00000E+00
    0.10636E+07        -0.59632E+08         0.00000E+00
    0.00000E+00         0.00000E+00        -0.56095E+08
 
   -0.53056E+08         0.11612E+07         0.00000E+00
    0.11612E+07        -0.59493E+08         0.00000E+00
    0.00000E+00         0.00000E+00        -0.56336E+08
 
   -0.53753E+08         0.12160E+07         0.00000E+00
    0.12160E+07        -0.59346E+08         0.00000E+00
    0.00000E+00         0.00000E+00        -0.56588E+08
 
   -0.54446E+08         0.12326E+07         0.00000E+00
    0.12326E+07        -0.59195E+08         0.00000E+00
    0.00000E+00         0.00000E+00        -0.56841E+08
 
   -0.55120E+08         0.12151E+07         0.00000E+00
    0.12151E+07        -0.59042E+08         0.00000E+00
    0.00000E+00         0.00000E+00        -0.57088E+08
 
   -0.55760E+08         0.11669E+07         0.00000E+00
    0.11669E+07        -0.58891E+08         0.00000E+00
    0.00000E+00         0.00000E+00        -0.57320E+08
 
   -0.56350E+08         0.10905E+07         0.00000E+00
    0.10905E+07        -0.58744E+08         0.00000E+00
    0.00000E+00         0.00000E+00        -0.57529E+08
 
   -0.56877E+08         0.98828E+06         0.00000E+00
    0.98828E+06        -0.58605E+08         0.00000E+00
    0.00000E+00         0.00000E+00        -0.57710E+08
 
   -0.57327E+08         0.86289E+06         0.00000E+00
    0.86289E+06        -0.58477E+08         0.00000E+00
    0.00000E+00         0.00000E+00        -0.57856E+08
 
   -0.57684E+08         0.71823E+06         0.00000E+00
    0.71823E+06        -0.58366E+08         0.00000E+00
    0.00000E+00         0.00000E+00        -0.57959E+08
 
   -0.57933E+08         0.56059E+06         0.00000E+00
    0.56059E+06        -0.58276E+08         0.00000E+00
    0.00000E+00         0.00000E+00        -0.58014E+08
 
   -0.49974E+08         0.19315E+06         0.00000E+00
    0.19315E+06        -0.59989E+08         0.00000E+00
    0.00000E+00         0.00000E+00        -0.55387E+08
 
   -0.50388E+08         0.53412E+06         0.00000E+00
    0.53412E+06        -0.59949E+08         0.00000E+00
    0.00000E+00         0.00000E+00        -0.55470E+08
 
   -0.50927E+08         0.81264E+06         0.00000E+00
    0.81264E+06        -0.59878E+08         0.00000E+00
    0.00000E+00         0.00000E+00        -0.55623E+08
 
   -0.51558E+08         0.10295E+07         0.00000E+00
    0.10295E+07        -0.59785E+08         0.00000E+00
    0.00000E+00         0.00000E+00        -0.55829E+08
 
   -0.52251E+08         0.11885E+07         0.00000E+00
    0.11885E+07        -0.59676E+08         0.00000E+00
    0.00000E+00         0.00000E+00        -0.56073E+08
 
   -0.52977E+08         0.12949E+07         0.00000E+00
    0.12949E+07        -0.59557E+08         0.00000E+00
    0.00000E+00         0.00000E+00        -0.56340E+08
 
   -0.53716E+08         0.13549E+07         0.00000E+00
    0.13549E+07        -0.59433E+08         0.00000E+00
    0.00000E+00         0.00000E+00        -0.56620E+08
 
   -0.54446E+08         0.13741E+07         0.00000E+00
    0.13741E+07        -0.59305E+08         0.00000E+00
    0.00000E+00         0.00000E+00        -0.56900E+08
 
   -0.55154E+08         0.13572E+07         0.00000E+00
    0.13572E+07        -0.59176E+08         0.00000E+00
    0.00000E+00         0.00000E+00        -0.57172E+08
 
   -0.55824E+08         0.13076E+07         0.00000E+00
    0.13076E+07        -0.59045E+08         0.00000E+00
    0.00000E+00         0.00000E+00        -0.57427E+08
 
   -0.56442E+08         0.12274E+07         0.00000E+00
    0.12274E+07        -0.58915E+08         0.00000E+00
    0.00000E+00         0.00000E+00        -0.57657E+08
 
   -0.56996E+08         0.11182E+07         0.00000E+00
    0.11182E+07        -0.58788E+08         0.00000E+00
    0.00000E+00         0.00000E+00        -0.57856E+08
 
   -0.57470E+08         0.98136E+06         0.00000E+00
    0.98136E+06        -0.58667E+08         0.00000E+00
    0.00000E+00         0.00000E+00        -0.58016E+08
 
   -0.57847E+08         0.81958E+06         0.00000E+00
    0.81958E+06        -0.58559E+08         0.00000E+00
    0.00000E+00         0.00000E+00        -0.58130E+08
 
   -0.58108E+08         0.63820E+06         0.00000E+00
    0.63820E+06        -0.58469E+08         0.00000E+00
    0.00000E+00         0.00000E+00        -0.58191E+08
 
   -0.49583E+08         0.21383E+06         0.00000E+00
    0.21383E+06        -0.59990E+08         0.00000E+00
    0.00000E+00         0.00000E+00        -0.55283E+08
 
   -0.50063E+08         0.58815E+06         0.00000E+00
    0.58815E+06        -0.59956E+08         0.00000E+00
    0.00000E+00         0.00000E+00        -0.55378E+08
 
   -0.50670E+08         0.89030E+06         0.00000E+00
    0.89030E+06        -0.59896E+08         0.00000E+00
    0.00000E+00         0.00000E+00        -0.55550E+08
 
   -0.51365E+08         0.11228E+07         0.00000E+00
    0.11228E+07        -0.59819E+08         0.00000E+00
    0.00000E+00         0.00000E+00        -0.55782E+08
 
   -0.52115E+08         0.12913E+07         0.00000E+00
    0.12913E+07        -0.59733E+08         0.00000E+00
    0.00000E+00         0.00000E+00        -0.56055E+08
 
   -0.52893E+08         0.14033E+07         0.00000E+00
    0.14033E+07        -0.59642E+08         0.00000E+00
    0.00000E+00         0.00000E+00        -0.56353E+08
 
   -0.53675E+08         0.14668E+07         0.00000E+00
    0.14668E+07        -0.59548E+08         0.00000E+00
    0.00000E+00         0.00000E+00        -0.56664E+08
 
   -0.54445E+08         0.14887E+07         0.00000E+00
    0.14887E+07        -0.59451E+08         0.00000E+00
    0.00000E+00         0.00000E+00        -0.56974E+08
 
   -0.55186E+08         0.14743E+07         0.00000E+00
    0.14743E+07        -0.59350E+08         0.00000E+00
    0.00000E+00         0.00000E+00        -0.57274E+08
 
   -0.55888E+08         0.14270E+07         0.00000E+00
    0.14270E+07        -0.59246E+08         0.00000E+00
    0.00000E+00         0.00000E+00        -0.57555E+08
 
   -0.56537E+08         0.13481E+07         0.00000E+00
    0.13481E+07        -0.59137E+08         0.00000E+00
    0.00000E+00         0.00000E+00        -0.57808E+08
 
   -0.57121E+08         0.12375E+07         0.00000E+00
    0.12375E+07        -0.59025E+08         0.00000E+00
    0.00000E+00         0.00000E+00        -0.58027E+08
 
   -0.57625E+08         0.10947E+07         0.00000E+00
    0.10947E+07        -0.58913E+08         0.00000E+00
    0.00000E+00         0.00000E+00        -0.58204E+08
 
   -0.58028E+08         0.92038E+06         0.00000E+00
    0.92038E+06        -0.58807E+08         0.00000E+00
    0.00000E+00         0.00000E+00        -0.58331E+08
 
   -0.58309E+08         0.71785E+06         0.00000E+00
    0.71785E+06        -0.58715E+08         0.00000E+00
    0.00000E+00         0.00000E+00        -0.58398E+08
 
   -0.49156E+08         0.23165E+06         0.00000E+00
    0.23165E+06        -0.59992E+08         0.00000E+00
    0.00000E+00         0.00000E+00        -0.55177E+08
 
   -0.49714E+08         0.63286E+06         0.00000E+00
    0.63286E+06        -0.59964E+08         0.00000E+00
    0.00000E+00         0.00000E+00        -0.55284E+08
 
   -0.50396E+08         0.95169E+06         0.00000E+00
    0.95169E+06        -0.59919E+08         0.00000E+00
    0.00000E+00         0.00000E+00        -0.55479E+08
 
   -0.51162E+08         0.11930E+07         0.00000E+00
    0.11930E+07        -0.59865E+08         0.00000E+00
    0.00000E+00         0.00000E+00        -0.55739E+08
 
   -0.51974E+08         0.13653E+07         0.00000E+00
    0.13653E+07        -0.59808E+08         0.00000E+00
    0.00000E+00         0.00000E+00        -0.56045E+08
 
   -0.52805E+08         0.14788E+07         0.00000E+00
    0.14788E+07        -0.59752E+08         0.00000E+00
    0.00000E+00         0.00000E+00        -0.56378E+08
 
   -0.53632E+08         0.15438E+07         0.00000E+00
    0.15438E+07        -0.59695E+08         0.00000E+00
    0.00000E+00         0.00000E+00        -0.56722E+08
 
   -0.54439E+08         0.15687E+07         0.00000E+00
    0.15687E+07        -0.59638E+08         0.00000E+00
    0.00000E+00         0.00000E+00        -0.57065E+08
 
   -0.55214E+08         0.15595E+07         0.00000E+00
    0.15595E+07        -0.59575E+08         0.00000E+00
    0.00000E+00         0.00000E+00        -0.57396E+08
 
   -0.55947E+08         0.15194E+07         0.00000E+00
    0.15194E+07        -0.59503E+08         0.00000E+00
    0.00000E+00         0.00000E+00        -0.57705E+08
 
   -0.56629E+08         0.14482E+07         0.00000E+00
    0.14482E+07        -0.59421E+08         0.00000E+00
    0.00000E+00         0.00000E+00        -0.57984E+08
 
   -0.57246E+08         0.13439E+07         0.00000E+00
    0.13439E+07        -0.59327E+08         0.00000E+00
    0.00000E+00         0.00000E+00        -0.58226E+08
 
   -0.57784E+08         0.12030E+07         0.00000E+00
    0.12030E+07        -0.59225E+08         0.00000E+00
    0.00000E+00         0.00000E+00        -0.58421E+08
 
   -0.58223E+08         0.10230E+07         0.00000E+00
    0.10230E+07        -0.59119E+08         0.00000E+00
    0.00000E+00         0.00000E+00        -0.58561E+08
 
   -0.58535E+08         0.80393E+06         0.00000E+00
    0.80393E+06        -0.59021E+08         0.00000E+00
    0.00000E+00         0.00000E+00        -0.58636E+08
 
   -0.48700E+08         0.24577E+06         0.00000E+00
    0.24577E+06        -0.59994E+08         0.00000E+00
    0.00000E+00         0.00000E+00        -0.55073E+08
 
   -0.49347E+08         0.66554E+06         0.00000E+00
    0.66554E+06        -0.59975E+08         0.00000E+00
    0.00000E+00         0.00000E+00        -0.55194E+08
 
   -0.50115E+08         0.99215E+06         0.00000E+00
    0.99215E+06        -0.59948E+08         0.00000E+00
    0.00000E+00         0.00000E+00        -0.55414E+08
 
   -0.50957E+08         0.12338E+07         0.00000E+00
    0.12338E+07        -0.59922E+08         0.00000E+00
    0.00000E+00         0.00000E+00        -0.55707E+08
 
   -0.51835E+08         0.14027E+07         0.00000E+00
    0.14027E+07        -0.59903E+08         0.00000E+00
    0.00000E+00         0.00000E+00        -0.56048E+08
 
   -0.52719E+08         0.15126E+07         0.00000E+00
    0.15126E+07        -0.59890E+08         0.00000E+00
    0.00000E+00         0.00000E+00        -0.56417E+08
 
   -0.53588E+08         0.15766E+07         0.00000E+00
    0.15766E+07        -0.59882E+08         0.00000E+00
    0.00000E+00         0.00000E+00        -0.56798E+08
 
   -0.54429E+08         0.16051E+07         0.00000E+00
    0.16051E+07        -0.59874E+08         0.00000E+00
    0.00000E+00         0.00000E+00        -0.57176E+08
 
   -0.55234E+08         0.16047E+07         0.00000E+00
    0.16047E+07        -0.59857E+08         0.00000E+00
    0.00000E+00         0.00000E+00        -0.57539E+08
 
   -0.55995E+08         0.15780E+07         0.00000E+00
    0.15780E+07        -0.59827E+08         0.00000E+00
    0.00000E+00         0.00000E+00        -0.57878E+08
 
   -0.56708E+08         0.15231E+07         0.00000E+00
    0.15231E+07        -0.59777E+08         0.00000E+00
    0.00000E+00         0.00000E+00        -0.58184E+08
 
   -0.57361E+08         0.14351E+07         0.00000E+00
    0.14351E+07        -0.59706E+08         0.00000E+00
    0.00000E+00         0.00000E+00        -0.58448E+08
 
   -0.57940E+08         0.13067E+07         0.00000E+00
    0.13067E+07        -0.59613E+08         0.00000E+00
    0.00000E+00         0.00000E+00        -0.58663E+08
 
   -0.58424E+08         0.11308E+07         0.00000E+00
    0.11308E+07        -0.59507E+08         0.00000E+00
    0.00000E+00         0.00000E+00        -0.58818E+08
 
   -0.58781E+08         0.90264E+06         0.00000E+00
    0.90264E+06        -0.59396E+08         0.00000E+00
    0.00000E+00         0.00000E+00        -0.58901E+08
 
   -0.48225E+08         0.25519E+06         0.00000E+00
    0.25519E+06        -0.59996E+08         0.00000E+00
    0.00000E+00         0.00000E+00        -0.54977E+08
 
   -0.48973E+08         0.68297E+06         0.00000E+00
    0.68297E+06        -0.59989E+08         0.00000E+00
    0.00000E+00         0.00000E+00        -0.55114E+08
 
   -0.49836E+08         0.10061E+07         0.00000E+00
    0.10061E+07        -0.59985E+08         0.00000E+00
    0.00000E+00         0.00000E+00        -0.55361E+08
 
   -0.50759E+08         0.12374E+07         0.00000E+00
    0.12374E+07        -0.59995E+08         0.00000E+00
    0.00000E+00         0.00000E+00        -0.55687E+08
 
   -0.51703E+08         0.13940E+07         0.00000E+00
    0.13940E+07        -0.60022E+08         0.00000E+00
    0.00000E+00         0.00000E+00        -0.56067E+08
 
   -0.52637E+08         0.14943E+07         0.00000E+00
    0.14943E+07        -0.60064E+08         0.00000E+00
    0.00000E+00         0.00000E+00        -0.56475E+08
 
   -0.53543E+08         0.15546E+07         0.00000E+00
    0.15546E+07        -0.60115E+08         0.00000E+00
    0.00000E+00         0.00000E+00        -0.56893E+08
 
   -0.54411E+08         0.15875E+07         0.00000E+00
    0.15875E+07        -0.60167E+08         0.00000E+00
    0.00000E+00         0.00000E+00        -0.57306E+08
 
   -0.55239E+08         0.16006E+07         0.00000E+00
    0.16006E+07        -0.60207E+08         0.00000E+00
    0.00000E+00         0.00000E+00        -0.57702E+08
 
   -0.56024E+08         0.15953E+07         0.00000E+00
    0.15953E+07        -0.60227E+08         0.00000E+00
    0.00000E+00         0.00000E+00        -0.58071E+08
 
   -0.56764E+08         0.15676E+07         0.00000E+00
    0.15676E+07        -0.60217E+08         0.00000E+00
    0.00000E+00         0.00000E+00        -0.58404E+08
 
   -0.57454E+08         0.15088E+07         0.00000E+00
    0.15088E+07        -0.60171E+08         0.00000E+00
    0.00000E+00         0.00000E+00        -0.58693E+08
 
   -0.58080E+08         0.14068E+07         0.00000E+00
    0.14068E+07        -0.60090E+08         0.00000E+00
    0.00000E+00         0.00000E+00        -0.58927E+08
 
   -0.58621E+08         0.12484E+07         0.00000E+00
    0.12484E+07        -0.59978E+08         0.00000E+00
    0.00000E+00         0.00000E+00        -0.59097E+08
 
   -0.59040E+08         0.10222E+07         0.00000E+00
    0.10222E+07        -0.59849E+08         0.00000E+00
    0.00000E+00         0.00000E+00        -0.59189E+08
 
   -0.47740E+08         0.25877E+06         0.00000E+00
    0.25877E+06        -0.59999E+08         0.00000E+00
    0.00000E+00         0.00000E+00        -0.54894E+08
 
   -0.48604E+08         0.68132E+06         0.00000E+00
    0.68132E+06        -0.60005E+08         0.00000E+00
    0.00000E+00         0.00000E+00        -0.55048E+08
 
   -0.49571E+08         0.98701E+06         0.00000E+00
    0.98701E+06        -0.60031E+08         0.00000E+00
    0.00000E+00         0.00000E+00        -0.55324E+08
 
   -0.50580E+08         0.11949E+07         0.00000E+00
    0.11949E+07        -0.60085E+08         0.00000E+00
    0.00000E+00         0.00000E+00        -0.55687E+08
 
   -0.51587E+08         0.13286E+07         0.00000E+00
    0.13286E+07        -0.60169E+08         0.00000E+00
    0.00000E+00         0.00000E+00        -0.56105E+08
 
   -0.52564E+08         0.14119E+07         0.00000E+00
    0.14119E+07        -0.60278E+08         0.00000E+00
    0.00000E+00         0.00000E+00        -0.56552E+08
 
   -0.53498E+08         0.14656E+07         0.00000E+00
    0.14656E+07        -0.60401E+08         0.00000E+00
    0.00000E+00         0.00000E+00        -0.57008E+08
 
   -0.54383E+08         0.15047E+07         0.00000E+00
    0.15047E+07        -0.60525E+08         0.00000E+00
    0.00000E+00         0.00000E+00        -0.57456E+08
 
   -0.55222E+08         0.15370E+07         0.00000E+00
    0.15370E+07        -0.60634E+08         0.00000E+00
    0.00000E+00         0.00000E+00        -0.57883E+08
 
   -0.56021E+08         0.15631E+07         0.00000E+00
    0.15631E+07        -0.60712E+08         0.00000E+00
    0.00000E+00         0.00000E+00        -0.58281E+08
 
   -0.56784E+08         0.15760E+07         0.00000E+00
    0.15760E+07        -0.60748E+08         0.00000E+00
    0.00000E+00         0.00000E+00        -0.58640E+08
 
   -0.57510E+08         0.15626E+07         0.00000E+00
    0.15626E+07        -0.60733E+08         0.00000E+00
    0.00000E+00         0.00000E+00        -0.58951E+08
 
   -0.58189E+08         0.15048E+07         0.00000E+00
    0.15048E+07        -0.60662E+08         0.00000E+00
    0.00000E+00         0.00000E+00        -0.59206E+08
 
   -0.58798E+08         0.13816E+07         0.00000E+00
    0.13816E+07        -0.60542E+08         0.00000E+00
    0.00000E+00         0.00000E+00        -0.59391E+08
 
   -0.59300E+08         0.11732E+07         0.00000E+00
    0.11732E+07        -0.60384E+08         0.00000E+00
    0.00000E+00         0.00000E+00        -0.59491E+08
 
   -0.47260E+08         0.25518E+06         0.00000E+00
    0.25518E+06        -0.60003E+08         0.00000E+00
    0.00000E+00         0.00000E+00        -0.54833E+08
 
   -0.48256E+08         0.65608E+06         0.00000E+00
    0.65608E+06        -0.60026E+08         0.00000E+00
    0.00000E+00         0.00000E+00        -0.55005E+08
 
   -0.49336E+08         0.92702E+06         0.00000E+00
    0.92702E+06        -0.60087E+08         0.00000E+00
    0.00000E+00         0.00000E+00        -0.55311E+08
 
   -0.50431E+08         0.10956E+07         0.00000E+00
    0.10956E+07        -0.60195E+08         0.00000E+00
    0.00000E+00         0.00000E+00        -0.55711E+08
 
   -0.51497E+08         0.11939E+07         0.00000E+00
    0.11939E+07        -0.60349E+08         0.00000E+00
    0.00000E+00         0.00000E+00        -0.56168E+08
 
   -0.52507E+08         0.12525E+07         0.00000E+00
    0.12525E+07        -0.60538E+08         0.00000E+00
    0.00000E+00         0.00000E+00        -0.56652E+08
 
   -0.53453E+08         0.12968E+07         0.00000E+00
    0.12968E+07        -0.60746E+08         0.00000E+00
    0.00000E+00         0.00000E+00        -0.57143E+08
 
   -0.54339E+08         0.13444E+07         0.00000E+00
    0.13444E+07        -0.60955E+08         0.00000E+00
    0.00000E+00         0.00000E+00        -0.57622E+08
 
   -0.55175E+08         0.14035E+07         0.00000E+00
    0.14035E+07        -0.61143E+08         0.00000E+00
    0.00000E+00         0.00000E+00        -0.58077E+08
 
   -0.55975E+08         0.14731E+07         0.00000E+00
    0.14731E+07        -0.61291E+08         0.00000E+00
    0.00000E+00         0.00000E+00        -0.58500E+08
 
   -0.56752E+08         0.15429E+07         0.00000E+00
    0.15429E+07        -0.61380E+08         0.00000E+00
    0.00000E+00         0.00000E+00        -0.58882E+08
 
   -0.57510E+08         0.15945E+07         0.00000E+00
    0.15945E+07        -0.61398E+08         0.00000E+00
    0.00000E+00         0.00000E+00        -0.59214E+08
 
   -0.58245E+08         0.16028E+07         0.00000E+00
    0.16028E+07        -0.61338E+08         0.00000E+00
    0.00000E+00         0.00000E+00        -0.59486E+08
 
   -0.58937E+08         0.15379E+07         0.00000E+00
    0.15379E+07        -0.61203E+08         0.00000E+00
    0.00000E+00         0.00000E+00        -0.59684E+08
 
   -0.59545E+08         0.13686E+07         0.00000E+00
    0.13686E+07        -0.61006E+08         0.00000E+00
    0.00000E+00         0.00000E+00        -0.59793E+08
 
   -0.46801E+08         0.24283E+06         0.00000E+00
    0.24283E+06        -0.60007E+08         0.00000E+00
    0.00000E+00         0.00000E+00        -0.54799E+08
 
   -0.47948E+08         0.60176E+06         0.00000E+00
    0.60176E+06        -0.60052E+08         0.00000E+00
    0.00000E+00         0.00000E+00        -0.54990E+08
 
   -0.49149E+08         0.81685E+06         0.00000E+00
    0.81685E+06        -0.60157E+08         0.00000E+00
    0.00000E+00         0.00000E+00        -0.55327E+08
 
   -0.50329E+08         0.92748E+06         0.00000E+00
    0.92748E+06        -0.60331E+08         0.00000E+00
    0.00000E+00         0.00000E+00        -0.55763E+08
 
   -0.51443E+08         0.97626E+06         0.00000E+00
    0.97626E+06        -0.60567E+08         0.00000E+00
    0.00000E+00         0.00000E+00        -0.56255E+08
 
   -0.52470E+08         0.10019E+07         0.00000E+00
    0.10019E+07        -0.60850E+08         0.00000E+00
    0.00000E+00         0.00000E+00        -0.56774E+08
 
   -0.53409E+08         0.10349E+07         0.00000E+00
    0.10349E+07        -0.61158E+08         0.00000E+00
    0.00000E+00         0.00000E+00        -0.57293E+08
 
   -0.54274E+08         0.10949E+07         0.00000E+00
    0.10949E+07        -0.61464E+08         0.00000E+00
    0.00000E+00         0.00000E+00        -0.57798E+08
 
   -0.55086E+08         0.11901E+07         0.00000E+00
    0.11901E+07        -0.61742E+08         0.00000E+00
    0.00000E+00         0.00000E+00        -0.58276E+08
 
   -0.55870E+08         0.13176E+07         0.00000E+00
    0.13176E+07        -0.61966E+08         0.00000E+00
    0.00000E+00         0.00000E+00        -0.58718E+08
 
   -0.56647E+08         0.14632E+07         0.00000E+00
    0.14632E+07        -0.62114E+08         0.00000E+00
    0.00000E+00         0.00000E+00        -0.59116E+08
 
   -0.57431E+08         0.16030E+07         0.00000E+00
    0.16030E+07        -0.62168E+08         0.00000E+00
    0.00000E+00         0.00000E+00        -0.59463E+08
 
   -0.58224E+08         0.17039E+07         0.00000E+00
    0.17039E+07        -0.62118E+08         0.00000E+00
    0.00000E+00         0.00000E+00        -0.59748E+08
 
   -0.59011E+08         0.17258E+07         0.00000E+00
    0.17258E+07        -0.61963E+08         0.00000E+00
    0.00000E+00         0.00000E+00        -0.59958E+08
 
   -0.59752E+08         0.16239E+07         0.00000E+00
    0.16239E+07        -0.61713E+08         0.00000E+00
    0.00000E+00         0.00000E+00        -0.60074E+08
 
   -0.46385E+08         0.21970E+06         0.00000E+00
    0.21970E+06        -0.60013E+08         0.00000E+00
    0.00000E+00         0.00000E+00        -0.54801E+08
 
   -0.47703E+08         0.51158E+06         0.00000E+00
    0.51158E+06        -0.60083E+08         0.00000E+00
    0.00000E+00         0.00000E+00        -0.55010E+08
 
   -0.49032E+08         0.64543E+06         0.00000E+00
    0.64543E+06        -0.60243E+08         0.00000E+00
    0.00000E+00         0.00000E+00        -0.55377E+08
 
   -0.50291E+08         0.67667E+06         0.00000E+00
    0.67667E+06        -0.60495E+08         0.00000E+00
    0.00000E+00         0.00000E+00        -0.55844E+08
 
   -0.51437E+08         0.66101E+06         0.00000E+00
    0.66101E+06        -0.60829E+08         0.00000E+00
    0.00000E+00         0.00000E+00        -0.56368E+08
 
   -0.52457E+08         0.64613E+06         0.00000E+00
    0.64613E+06        -0.61221E+08         0.00000E+00
    0.00000E+00         0.00000E+00        -0.56912E+08
 
   -0.53363E+08         0.66723E+06         0.00000E+00
    0.66723E+06        -0.61641E+08         0.00000E+00
    0.00000E+00         0.00000E+00        -0.57453E+08
 
   -0.54180E+08         0.74557E+06         0.00000E+00
    0.74557E+06        -0.62055E+08         0.00000E+00
    0.00000E+00         0.00000E+00        -0.57973E+08
 
   -0.54943E+08         0.88856E+06         0.00000E+00
    0.88856E+06        -0.62430E+08         0.00000E+00
    0.00000E+00         0.00000E+00        -0.58463E+08
 
   -0.55688E+08         0.10905E+07         0.00000E+00
    0.10905E+07        -0.62737E+08         0.00000E+00
    0.00000E+00         0.00000E+00        -0.58914E+08
 
   -0.56447E+08         0.13335E+07         0.00000E+00
    0.13335E+07        -0.62947E+08         0.00000E+00
    0.00000E+00         0.00000E+00        -0.59321E+08
 
   -0.57246E+08         0.15877E+07         0.00000E+00
    0.15877E+07        -0.63039E+08         0.00000E+00
    0.00000E+00         0.00000E+00        -0.59675E+08
 
   -0.58095E+08         0.18120E+07         0.00000E+00
    0.18120E+07        -0.62996E+08         0.00000E+00
    0.00000E+00         0.00000E+00        -0.59967E+08
 
   -0.58988E+08         0.19551E+07         0.00000E+00
    0.19551E+07        -0.62813E+08         0.00000E+00
    0.00000E+00         0.00000E+00        -0.60183E+08
 
   -0.59889E+08         0.19568E+07         0.00000E+00
    0.19568E+07        -0.62497E+08         0.00000E+00
    0.00000E+00         0.00000E+00        -0.60303E+08
 
   -0.46037E+08         0.18314E+06         0.00000E+00
    0.18314E+06        -0.60021E+08         0.00000E+00
    0.00000E+00         0.00000E+00        -0.54843E+08
 
   -0.47550E+08         0.37695E+06         0.00000E+00
    0.37695E+06        -0.60123E+08         0.00000E+00
    0.00000E+00         0.00000E+00        -0.55070E+08
 
   -0.49011E+08         0.39956E+06         0.00000E+00
    0.39956E+06        -0.60349E+08         0.00000E+00
    0.00000E+00         0.00000E+00        -0.55462E+08
 
   -0.50336E+08         0.32786E+06         0.00000E+00
    0.32786E+06        -0.60695E+08         0.00000E+00
    0.00000E+00         0.00000E+00        -0.55954E+08
 
   -0.51489E+08         0.23319E+06         0.00000E+00
    0.23319E+06        -0.61143E+08         0.00000E+00
    0.00000E+00         0.00000E+00        -0.56498E+08
 
   -0.52472E+08         0.17223E+06         0.00000E+00
    0.17223E+06        -0.61657E+08         0.00000E+00
    0.00000E+00         0.00000E+00        -0.57057E+08
 
   -0.53310E+08         0.18383E+06         0.00000E+00
    0.18383E+06        -0.62198E+08         0.00000E+00
    0.00000E+00         0.00000E+00        -0.57605E+08
 
   -0.54047E+08         0.28926E+06         0.00000E+00
    0.28926E+06        -0.62726E+08         0.00000E+00
    0.00000E+00         0.00000E+00        -0.58128E+08
 
   -0.54730E+08         0.49385E+06         0.00000E+00
    0.49385E+06        -0.63202E+08         0.00000E+00
    0.00000E+00         0.00000E+00        -0.58616E+08
 
   -0.55409E+08         0.78884E+06         0.00000E+00
    0.78884E+06        -0.63593E+08         0.00000E+00
    0.00000E+00         0.00000E+00        -0.59063E+08
 
   -0.56128E+08         0.11523E+07         0.00000E+00
    0.11523E+07        -0.63866E+08         0.00000E+00
    0.00000E+00         0.00000E+00        -0.59465E+08
 
   -0.56925E+08         0.15494E+07         0.00000E+00
    0.15494E+07        -0.63995E+08         0.00000E+00
    0.00000E+00         0.00000E+00        -0.59816E+08
 
   -0.57824E+08         0.19316E+07         0.00000E+00
    0.19316E+07        -0.63956E+08         0.00000E+00
    0.00000E+00         0.00000E+00        -0.60106E+08
 
   -0.58829E+08         0.22362E+07         0.00000E+00
    0.22362E+07        -0.63737E+08         0.00000E+00
    0.00000E+00         0.00000E+00        -0.60321E+08
 
   -0.59916E+08         0.23863E+07         0.00000E+00
    0.23863E+07        -0.63340E+08         0.00000E+00
    0.00000E+00         0.00000E+00        -0.60442E+08
 
   -0.45790E+08         0.12941E+06         0.00000E+00
    0.12941E+06        -0.60031E+08         0.00000E+00
    0.00000E+00         0.00000E+00        -0.54927E+08
 
   -0.47523E+08         0.18674E+06         0.00000E+00
    0.18674E+06        -0.60175E+08         0.00000E+00
    0.00000E+00         0.00000E+00        -0.55167E+08
 
   -0.49115E+08         0.63551E+05         0.00000E+00
    0.63551E+05        -0.60481E+08         0.00000E+00
    0.00000E+00         0.00000E+00        -0.55576E+08
 
   -0.50483E+08        -0.13524E+06         0.00000E+00
   -0.13524E+06        -0.60938E+08         0.00000E+00
    0.00000E+00         0.00000E+00        -0.56082E+08
 
   -0.51608E+08        -0.32096E+06         0.00000E+00
   -0.32096E+06        -0.61513E+08         0.00000E+00
    0.00000E+00         0.00000E+00        -0.56631E+08
 
   -0.52513E+08        -0.42928E+06         0.00000E+00
   -0.42928E+06        -0.62159E+08         0.00000E+00
    0.00000E+00         0.00000E+00        -0.57186E+08
 
   -0.53244E+08        -0.42037E+06         0.00000E+00
   -0.42037E+06        -0.62825E+08         0.00000E+00
    0.00000E+00         0.00000E+00        -0.57724E+08
 
   -0.53863E+08        -0.27555E+06         0.00000E+00
   -0.27555E+06        -0.63467E+08         0.00000E+00
    0.00000E+00         0.00000E+00        -0.58231E+08
 
   -0.54431E+08         0.68189E+04         0.00000E+00
    0.68189E+04        -0.64041E+08         0.00000E+00
    0.00000E+00         0.00000E+00        -0.58699E+08
 
   -0.55012E+08         0.41435E+06         0.00000E+00
    0.41435E+06        -0.64511E+08         0.00000E+00
    0.00000E+00         0.00000E+00        -0.59125E+08
 
   -0.55663E+08         0.92194E+06         0.00000E+00
    0.92194E+06        -0.64843E+08         0.00000E+00
    0.00000E+00         0.00000E+00        -0.59507E+08
 
   -0.56436E+08         0.14911E+07         0.00000E+00
    0.14911E+07        -0.65003E+08         0.00000E+00
    0.00000E+00         0.00000E+00        -0.59840E+08
 
   -0.57371E+08         0.20676E+07         0.00000E+00
    0.20676E+07        -0.64964E+08         0.00000E+00
    0.00000E+00         0.00000E+00        -0.60116E+08
 
   -0.58487E+08         0.25790E+07         0.00000E+00
    0.25790E+07        -0.64703E+08         0.00000E+00
    0.00000E+00         0.00000E+00        -0.60321E+08
 
   -0.59780E+08         0.29312E+07         0.00000E+00
    0.29312E+07        -0.64211E+08         0.00000E+00
    0.00000E+00         0.00000E+00        -0.60436E+08
 
   -0.45685E+08         0.53116E+05         0.00000E+00
    0.53116E+05        -0.60045E+08         0.00000E+00
    0.00000E+00         0.00000E+00        -0.55043E+08
 
   -0.47665E+08        -0.73551E+05         0.00000E+00
   -0.73551E+05        -0.60241E+08         0.00000E+00
    0.00000E+00         0.00000E+00        -0.55290E+08
 
   -0.49374E+08        -0.38071E+06         0.00000E+00
   -0.38071E+06        -0.60646E+08         0.00000E+00
    0.00000E+00         0.00000E+00        -0.55702E+08
 
   -0.50748E+08        -0.72861E+06         0.00000E+00
   -0.72861E+06        -0.61232E+08         0.00000E+00
    0.00000E+00         0.00000E+00        -0.56203E+08
 
   -0.51797E+08        -0.10115E+07         0.00000E+00
   -0.10115E+07        -0.61945E+08         0.00000E+00
    0.00000E+00         0.00000E+00        -0.56735E+08
 
   -0.52574E+08        -0.11614E+07         0.00000E+00
   -0.11614E+07        -0.62725E+08         0.00000E+00
    0.00000E+00         0.00000E+00        -0.57264E+08
 
   -0.53152E+08        -0.11421E+07         0.00000E+00
   -0.11421E+07        -0.63511E+08         0.00000E+00
    0.00000E+00         0.00000E+00        -0.57768E+08
 
   -0.53610E+08        -0.94142E+06         0.00000E+00
   -0.94142E+06        -0.64255E+08         0.00000E+00
    0.00000E+00         0.00000E+00        -0.58235E+08
 
   -0.54027E+08        -0.56344E+06         0.00000E+00
   -0.56344E+06        -0.64914E+08         0.00000E+00
    0.00000E+00         0.00000E+00        -0.58661E+08
 
   -0.54476E+08        -0.24342E+05         0.00000E+00
   -0.24342E+05        -0.65450E+08         0.00000E+00
    0.00000E+00         0.00000E+00        -0.59046E+08
 
   -0.55027E+08         0.64906E+06         0.00000E+00
    0.64906E+06        -0.65828E+08         0.00000E+00
    0.00000E+00         0.00000E+00        -0.59388E+08
 
   -0.55748E+08         0.14175E+07         0.00000E+00
    0.14175E+07        -0.66013E+08         0.00000E+00
    0.00000E+00         0.00000E+00        -0.59686E+08
 
   -0.56694E+08         0.22247E+07         0.00000E+00
    0.22247E+07        -0.65969E+08         0.00000E+00
    0.00000E+00         0.00000E+00        -0.59933E+08
 
   -0.57911E+08         0.29913E+07         0.00000E+00
    0.29913E+07        -0.65661E+08         0.00000E+00
    0.00000E+00         0.00000E+00        -0.60116E+08
 
   -0.59420E+08         0.36082E+07         0.00000E+00
    0.36082E+07        -0.65063E+08         0.00000E+00
    0.00000E+00         0.00000E+00        -0.60219E+08
 
   -0.45776E+08        -0.53702E+05         0.00000E+00
   -0.53702E+05        -0.60065E+08         0.00000E+00
    0.00000E+00         0.00000E+00        -0.55166E+08
 
   -0.48021E+08        -0.42252E+06         0.00000E+00
   -0.42252E+06        -0.60329E+08         0.00000E+00
    0.00000E+00         0.00000E+00        -0.55408E+08
 
   -0.49816E+08        -0.95295E+06         0.00000E+00
   -0.95295E+06        -0.60853E+08         0.00000E+00
    0.00000E+00         0.00000E+00        -0.55803E+08
 
   -0.51139E+08        -0.14653E+07         0.00000E+00
   -0.14653E+07        -0.61582E+08         0.00000E+00
    0.00000E+00         0.00000E+00        -0.56271E+08
 
   -0.52049E+08        -0.18411E+07         0.00000E+00
   -0.18411E+07        -0.62437E+08         0.00000E+00
    0.00000E+00         0.00000E+00        -0.56758E+08
 
   -0.52640E+08        -0.20162E+07         0.00000E+00
   -0.20162E+07        -0.63341E+08         0.00000E+00
    0.00000E+00         0.00000E+00        -0.57231E+08
 
   -0.53015E+08        -0.19656E+07         0.00000E+00
   -0.19656E+07        -0.64228E+08         0.00000E+00
    0.00000E+00         0.00000E+00        -0.57671E+08
 
   -0.53272E+08        -0.16884E+07         0.00000E+00
   -0.16884E+07        -0.65049E+08         0.00000E+00
    0.00000E+00         0.00000E+00        -0.58072E+08
 
   -0.53500E+08        -0.11967E+07         0.00000E+00
   -0.11967E+07        -0.65764E+08         0.00000E+00
    0.00000E+00         0.00000E+00        -0.58431E+08
 
   -0.53783E+08        -0.50994E+06         0.00000E+00
   -0.50994E+06        -0.66341E+08         0.00000E+00
    0.00000E+00         0.00000E+00        -0.58751E+08
 
   -0.54200E+08         0.34597E+06         0.00000E+00
    0.34597E+06        -0.66747E+08         0.00000E+00
    0.00000E+00         0.00000E+00        -0.59033E+08
 
   -0.54830E+08         0.13354E+07         0.00000E+00
    0.13354E+07        -0.66946E+08         0.00000E+00
    0.00000E+00         0.00000E+00        -0.59276E+08
 
   -0.55753E+08         0.24055E+07         0.00000E+00
    0.24055E+07        -0.66892E+08         0.00000E+00
    0.00000E+00         0.00000E+00        -0.59476E+08
 
   -0.57042E+08         0.34763E+07         0.00000E+00
    0.34763E+07        -0.66536E+08         0.00000E+00
    0.00000E+00         0.00000E+00        -0.59624E+08
 
   -0.58758E+08         0.44278E+07         0.00000E+00
    0.44278E+07        -0.65830E+08         0.00000E+00
    0.00000E+00         0.00000E+00        -0.59707E+08
 
   -0.46135E+08        -0.20248E+06         0.00000E+00
   -0.20248E+06        -0.60094E+08         0.00000E+00
    0.00000E+00         0.00000E+00        -0.55242E+08
 
   -0.48644E+08        -0.88294E+06         0.00000E+00
   -0.88294E+06        -0.60445E+08         0.00000E+00
    0.00000E+00         0.00000E+00        -0.55460E+08
 
   -0.50464E+08        -0.16720E+07         0.00000E+00
   -0.16720E+07        -0.61109E+08         0.00000E+00
    0.00000E+00         0.00000E+00        -0.55808E+08
 
   -0.51654E+08        -0.23507E+07         0.00000E+00
   -0.23507E+07        -0.61988E+08         0.00000E+00
    0.00000E+00         0.00000E+00        -0.56208E+08
 
   -0.52346E+08        -0.27989E+07         0.00000E+00
   -0.27989E+07        -0.62975E+08         0.00000E+00
    0.00000E+00         0.00000E+00        -0.56613E+08
 
   -0.52686E+08        -0.29692E+07         0.00000E+00
   -0.29692E+07        -0.63975E+08         0.00000E+00
    0.00000E+00         0.00000E+00        -0.56995E+08
 
   -0.52809E+08        -0.28577E+07         0.00000E+00
   -0.28577E+07        -0.64923E+08         0.00000E+00
    0.00000E+00         0.00000E+00        -0.57340E+08
 
   -0.52827E+08        -0.24803E+07         0.00000E+00
   -0.24803E+07        -0.65775E+08         0.00000E+00
    0.00000E+00         0.00000E+00        -0.57645E+08
 
   -0.52836E+08        -0.18590E+07         0.00000E+00
   -0.18590E+07        -0.66503E+08         0.00000E+00
    0.00000E+00         0.00000E+00        -0.57912E+08
 
   -0.52921E+08        -0.10150E+07         0.00000E+00
   -0.10150E+07        -0.67084E+08         0.00000E+00
    0.00000E+00         0.00000E+00        -0.58143E+08
 
   -0.53167E+08         0.30783E+05         0.00000E+00
    0.30783E+05        -0.67492E+08         0.00000E+00
    0.00000E+00         0.00000E+00        -0.58342E+08
 
   -0.53663E+08         0.12527E+07         0.00000E+00
    0.12527E+07        -0.67689E+08         0.00000E+00
    0.00000E+00         0.00000E+00        -0.58510E+08
 
   -0.54511E+08         0.26094E+07         0.00000E+00
    0.26094E+07        -0.67624E+08         0.00000E+00
    0.00000E+00         0.00000E+00        -0.58646E+08
 
   -0.55822E+08         0.40290E+07         0.00000E+00
    0.40290E+07        -0.67227E+08         0.00000E+00
    0.00000E+00         0.00000E+00        -0.58745E+08
 
   -0.57710E+08         0.53895E+07         0.00000E+00
    0.53895E+07        -0.66423E+08         0.00000E+00
    0.00000E+00         0.00000E+00        -0.58798E+08
 
   -0.46852E+08        -0.40895E+06         0.00000E+00
   -0.40895E+06        -0.60134E+08         0.00000E+00
    0.00000E+00         0.00000E+00        -0.55169E+08
 
   -0.49586E+08        -0.14801E+07         0.00000E+00
   -0.14801E+07        -0.60594E+08         0.00000E+00
    0.00000E+00         0.00000E+00        -0.55339E+08
 
   -0.51327E+08        -0.25507E+07         0.00000E+00
   -0.25507E+07        -0.61413E+08         0.00000E+00
    0.00000E+00         0.00000E+00        -0.55600E+08
 
   -0.52270E+08        -0.33749E+07         0.00000E+00
   -0.33749E+07        -0.62435E+08         0.00000E+00
    0.00000E+00         0.00000E+00        -0.55888E+08
 
   -0.52651E+08        -0.38528E+07         0.00000E+00
   -0.38528E+07        -0.63519E+08         0.00000E+00
    0.00000E+00         0.00000E+00        -0.56169E+08
 
   -0.52676E+08        -0.39726E+07         0.00000E+00
   -0.39726E+07        -0.64561E+08         0.00000E+00
    0.00000E+00         0.00000E+00        -0.56423E+08
 
   -0.52506E+08        -0.37629E+07         0.00000E+00
   -0.37629E+07        -0.65505E+08         0.00000E+00
    0.00000E+00         0.00000E+00        -0.56641E+08
 
   -0.52259E+08        -0.32619E+07         0.00000E+00
   -0.32619E+07        -0.66322E+08         0.00000E+00
    0.00000E+00         0.00000E+00        -0.56824E+08
 
   -0.52027E+08        -0.25016E+07         0.00000E+00
   -0.25016E+07        -0.67003E+08         0.00000E+00
    0.00000E+00         0.00000E+00        -0.56973E+08
 
   -0.51889E+08        -0.15020E+07         0.00000E+00
   -0.15020E+07        -0.67539E+08         0.00000E+00
    0.00000E+00         0.00000E+00        -0.57095E+08
 
   -0.51927E+08        -0.27321E+06         0.00000E+00
   -0.27321E+06        -0.67914E+08         0.00000E+00
    0.00000E+00         0.00000E+00        -0.57192E+08
 
   -0.52237E+08         0.11768E+07         0.00000E+00
    0.11768E+07        -0.68094E+08         0.00000E+00
    0.00000E+00         0.00000E+00        -0.57269E+08
 
   -0.52941E+08         0.28286E+07         0.00000E+00
    0.28286E+07        -0.68019E+08         0.00000E+00
    0.00000E+00         0.00000E+00        -0.57324E+08
 
   -0.54195E+08         0.46314E+07         0.00000E+00
    0.46314E+07        -0.67602E+08         0.00000E+00
    0.00000E+00         0.00000E+00        -0.57359E+08
 
   -0.56179E+08         0.64751E+07         0.00000E+00
    0.64751E+07        -0.66728E+08         0.00000E+00
    0.00000E+00         0.00000E+00        -0.57374E+08
 
   -0.48046E+08        -0.69298E+06         0.00000E+00
   -0.69298E+06        -0.60189E+08         0.00000E+00
    0.00000E+00         0.00000E+00        -0.54777E+08
 
   -0.50892E+08        -0.22370E+07         0.00000E+00
   -0.22370E+07        -0.60777E+08         0.00000E+00
    0.00000E+00         0.00000E+00        -0.54866E+08
 
   -0.52386E+08        -0.35855E+07         0.00000E+00
   -0.35855E+07        -0.61751E+08         0.00000E+00
    0.00000E+00         0.00000E+00        -0.54994E+08
 
   -0.52937E+08        -0.45013E+07         0.00000E+00
   -0.45013E+07        -0.62880E+08         0.00000E+00
    0.00000E+00         0.00000E+00        -0.55126E+08
 
   -0.52907E+08        -0.49399E+07         0.00000E+00
   -0.49399E+07        -0.63991E+08         0.00000E+00
    0.00000E+00         0.00000E+00        -0.55243E+08
 
   -0.52561E+08        -0.49489E+07         0.00000E+00
   -0.49489E+07        -0.64988E+08         0.00000E+00
    0.00000E+00         0.00000E+00        -0.55336E+08
 
   -0.52074E+08        -0.46009E+07         0.00000E+00
   -0.46009E+07        -0.65833E+08         0.00000E+00
    0.00000E+00         0.00000E+00        -0.55400E+08
 
   -0.51555E+08        -0.39586E+07         0.00000E+00
   -0.39586E+07        -0.66527E+08         0.00000E+00
    0.00000E+00         0.00000E+00        -0.55439E+08
 
   -0.51077E+08        -0.30617E+07         0.00000E+00
   -0.30617E+07        -0.67084E+08         0.00000E+00
    0.00000E+00         0.00000E+00        -0.55455E+08
 
   -0.50702E+08        -0.19244E+07         0.00000E+00
   -0.19244E+07        -0.67516E+08         0.00000E+00
    0.00000E+00         0.00000E+00        -0.55452E+08
 
   -0.50498E+08        -0.53958E+06         0.00000E+00
   -0.53958E+06        -0.67820E+08         0.00000E+00
    0.00000E+00         0.00000E+00        -0.55436E+08
 
   -0.50563E+08         0.11117E+07         0.00000E+00
    0.11117E+07        -0.67969E+08         0.00000E+00
    0.00000E+00         0.00000E+00        -0.55409E+08
 
   -0.51036E+08         0.30449E+07         0.00000E+00
    0.30449E+07        -0.67897E+08         0.00000E+00
    0.00000E+00         0.00000E+00        -0.55374E+08
 
   -0.52116E+08         0.52469E+07         0.00000E+00
    0.52469E+07        -0.67495E+08         0.00000E+00
    0.00000E+00         0.00000E+00        -0.55335E+08
 
   -0.54066E+08         0.76398E+07         0.00000E+00
    0.76398E+07        -0.66607E+08         0.00000E+00
    0.00000E+00         0.00000E+00        -0.55305E+08
 
   -0.49859E+08        -0.10761E+07         0.00000E+00
   -0.10761E+07        -0.60259E+08         0.00000E+00
    0.00000E+00         0.00000E+00        -0.53806E+08
 
   -0.52579E+08        -0.31632E+07         0.00000E+00
   -0.31632E+07        -0.60982E+08         0.00000E+00
    0.00000E+00         0.00000E+00        -0.53780E+08
 
   -0.53584E+08        -0.47418E+07         0.00000E+00
   -0.47418E+07        -0.62081E+08         0.00000E+00
    0.00000E+00         0.00000E+00        -0.53733E+08
 
   -0.53571E+08        -0.56521E+07         0.00000E+00
   -0.56521E+07        -0.63234E+08         0.00000E+00
    0.00000E+00         0.00000E+00        -0.53670E+08
 
   -0.53040E+08        -0.59566E+07         0.00000E+00
   -0.59566E+07        -0.64256E+08         0.00000E+00
    0.00000E+00         0.00000E+00        -0.53594E+08
 
   -0.52293E+08        -0.57873E+07         0.00000E+00
   -0.57873E+07        -0.65078E+08         0.00000E+00
    0.00000E+00         0.00000E+00        -0.53505E+08
 
   -0.51492E+08        -0.52669E+07         0.00000E+00
   -0.52669E+07        -0.65704E+08         0.00000E+00
    0.00000E+00         0.00000E+00        -0.53402E+08
 
   -0.50717E+08        -0.44798E+07         0.00000E+00
   -0.44798E+07        -0.66169E+08         0.00000E+00
    0.00000E+00         0.00000E+00        -0.53288E+08
 
   -0.50007E+08        -0.34671E+07         0.00000E+00
   -0.34671E+07        -0.66517E+08         0.00000E+00
    0.00000E+00         0.00000E+00        -0.53165E+08
 
   -0.49393E+08        -0.22313E+07         0.00000E+00
   -0.22313E+07        -0.66782E+08         0.00000E+00
    0.00000E+00         0.00000E+00        -0.53036E+08
 
   -0.48922E+08        -0.74211E+06         0.00000E+00
   -0.74211E+06        -0.66978E+08         0.00000E+00
    0.00000E+00         0.00000E+00        -0.52904E+08
 
   -0.48679E+08         0.10552E+07         0.00000E+00
    0.10552E+07        -0.67086E+08         0.00000E+00
    0.00000E+00         0.00000E+00        -0.52773E+08
 
   -0.48811E+08         0.32249E+07         0.00000E+00
    0.32249E+07        -0.67042E+08         0.00000E+00
    0.00000E+00         0.00000E+00        -0.52645E+08
 
   -0.49559E+08         0.58131E+07         0.00000E+00
    0.58131E+07        -0.66715E+08         0.00000E+00
    0.00000E+00         0.00000E+00        -0.52531E+08
 
   -0.51277E+08         0.88023E+07         0.00000E+00
    0.88023E+07        -0.65903E+08         0.00000E+00
    0.00000E+00         0.00000E+00        -0.52455E+08
 
   -0.52445E+08        -0.15746E+07         0.00000E+00
   -0.15746E+07        -0.60337E+08         0.00000E+00
    0.00000E+00         0.00000E+00        -0.51890E+08
 
   -0.54621E+08        -0.42361E+07         0.00000E+00
   -0.42361E+07        -0.61175E+08         0.00000E+00
    0.00000E+00         0.00000E+00        -0.51726E+08
 
   -0.54811E+08        -0.59302E+07         0.00000E+00
   -0.59302E+07        -0.62308E+08         0.00000E+00
    0.00000E+00         0.00000E+00        -0.51480E+08
 
   -0.54057E+08        -0.66911E+07         0.00000E+00
   -0.66911E+07        -0.63335E+08         0.00000E+00
    0.00000E+00         0.00000E+00        -0.51208E+08
 
   -0.52965E+08        -0.67511E+07         0.00000E+00
   -0.67511E+07        -0.64093E+08         0.00000E+00
    0.00000E+00         0.00000E+00        -0.50935E+08
 
   -0.51827E+08        -0.63450E+07         0.00000E+00
   -0.63450E+07        -0.64576E+08         0.00000E+00
    0.00000E+00         0.00000E+00        -0.50667E+08
 
   -0.50753E+08        -0.56397E+07         0.00000E+00
   -0.56397E+07        -0.64843E+08         0.00000E+00
    0.00000E+00         0.00000E+00        -0.50404E+08
 
   -0.49766E+08        -0.47286E+07         0.00000E+00
   -0.47286E+07        -0.64971E+08         0.00000E+00
    0.00000E+00         0.00000E+00        -0.50147E+08
 
   -0.48859E+08        -0.36449E+07         0.00000E+00
   -0.36449E+07        -0.65029E+08         0.00000E+00
    0.00000E+00         0.00000E+00        -0.49897E+08
 
   -0.48022E+08        -0.23739E+07         0.00000E+00
   -0.23739E+07        -0.65071E+08         0.00000E+00
    0.00000E+00         0.00000E+00        -0.49654E+08
 
   -0.47269E+08        -0.85894E+06         0.00000E+00
   -0.85894E+06        -0.65126E+08         0.00000E+00
    0.00000E+00         0.00000E+00        -0.49420E+08
 
   -0.46655E+08         0.99576E+06         0.00000E+00
    0.99576E+06        -0.65193E+08         0.00000E+00
    0.00000E+00         0.00000E+00        -0.49196E+08
 
   -0.46319E+08         0.33168E+07         0.00000E+00
    0.33168E+07        -0.65215E+08         0.00000E+00
    0.00000E+00         0.00000E+00        -0.48988E+08
 
   -0.46532E+08         0.62354E+07         0.00000E+00
    0.62354E+07        -0.65051E+08         0.00000E+00
    0.00000E+00         0.00000E+00        -0.48809E+08
 
   -0.47736E+08         0.98334E+07         0.00000E+00
    0.98334E+07        -0.64450E+08         0.00000E+00
    0.00000E+00         0.00000E+00        -0.48691E+08
 
   -0.55944E+08        -0.21862E+07         0.00000E+00
   -0.21862E+07        -0.60406E+08         0.00000E+00
    0.00000E+00         0.00000E+00        -0.48578E+08
 
   -0.56909E+08        -0.53703E+07         0.00000E+00
   -0.53703E+07        -0.61283E+08         0.00000E+00
    0.00000E+00         0.00000E+00        -0.48283E+08
 
   -0.55894E+08        -0.69773E+07         0.00000E+00
   -0.69773E+07        -0.62268E+08         0.00000E+00
    0.00000E+00         0.00000E+00        -0.47856E+08
 
   -0.54257E+08        -0.74071E+07         0.00000E+00
   -0.74071E+07        -0.62927E+08         0.00000E+00
    0.00000E+00         0.00000E+00        -0.47405E+08
 
   -0.52613E+08        -0.71251E+07         0.00000E+00
   -0.71251E+07        -0.63188E+08         0.00000E+00
    0.00000E+00         0.00000E+00        -0.46968E+08
 
   -0.51151E+08        -0.64618E+07         0.00000E+00
   -0.64618E+07        -0.63144E+08         0.00000E+00
    0.00000E+00         0.00000E+00        -0.46555E+08
 
   -0.49881E+08        -0.55998E+07         0.00000E+00
   -0.55998E+07        -0.62919E+08         0.00000E+00
    0.00000E+00         0.00000E+00        -0.46166E+08
 
   -0.48751E+08        -0.46196E+07         0.00000E+00
   -0.46196E+07        -0.62620E+08         0.00000E+00
    0.00000E+00         0.00000E+00        -0.45799E+08
 
   -0.47699E+08        -0.35358E+07         0.00000E+00
   -0.35358E+07        -0.62330E+08         0.00000E+00
    0.00000E+00         0.00000E+00        -0.45453E+08
 
   -0.46672E+08        -0.23144E+07         0.00000E+00
   -0.23144E+07        -0.62111E+08         0.00000E+00
    0.00000E+00         0.00000E+00        -0.45127E+08
 
   -0.45636E+08        -0.87601E+06         0.00000E+00
   -0.87601E+06        -0.62007E+08         0.00000E+00
    0.00000E+00         0.00000E+00        -0.44820E+08
 
   -0.44601E+08         0.91310E+06         0.00000E+00
    0.91310E+06        -0.62039E+08         0.00000E+00
    0.00000E+00         0.00000E+00        -0.44534E+08
 
   -0.43665E+08         0.32498E+07         0.00000E+00
    0.32498E+07        -0.62177E+08         0.00000E+00
    0.00000E+00         0.00000E+00        -0.44273E+08
 
   -0.43092E+08         0.63816E+07         0.00000E+00
    0.63816E+07        -0.62291E+08         0.00000E+00
    0.00000E+00         0.00000E+00        -0.44052E+08
 
   -0.43403E+08         0.10544E+08         0.00000E+00
    0.10544E+08        -0.62088E+08         0.00000E+00
    0.00000E+00         0.00000E+00        -0.43908E+08
 
   -0.60418E+08        -0.28694E+07         0.00000E+00
   -0.28694E+07        -0.60434E+08         0.00000E+00
    0.00000E+00         0.00000E+00        -0.43417E+08
 
   -0.59216E+08        -0.63714E+07         0.00000E+00
   -0.63714E+07        -0.61175E+08         0.00000E+00
    0.00000E+00         0.00000E+00        -0.43043E+08
 
   -0.56601E+08        -0.75849E+07         0.00000E+00
   -0.75849E+07        -0.61685E+08         0.00000E+00
    0.00000E+00         0.00000E+00        -0.42516E+08
 
   -0.54053E+08        -0.75072E+07         0.00000E+00
   -0.75072E+07        -0.61621E+08         0.00000E+00
    0.00000E+00         0.00000E+00        -0.41968E+08
 
   -0.51967E+08        -0.68568E+07         0.00000E+00
   -0.68568E+07        -0.61115E+08         0.00000E+00
    0.00000E+00         0.00000E+00        -0.41443E+08
 
   -0.50307E+08        -0.59923E+07         0.00000E+00
   -0.59923E+07        -0.60379E+08         0.00000E+00
    0.00000E+00         0.00000E+00        -0.40953E+08
 
   -0.48944E+08        -0.50599E+07         0.00000E+00
   -0.50599E+07        -0.59576E+08         0.00000E+00
    0.00000E+00         0.00000E+00        -0.40499E+08
 
   -0.47750E+08        -0.41031E+07         0.00000E+00
   -0.41031E+07        -0.58811E+08         0.00000E+00
    0.00000E+00         0.00000E+00        -0.40078E+08
 
   -0.46613E+08        -0.31117E+07         0.00000E+00
   -0.31117E+07        -0.58160E+08         0.00000E+00
    0.00000E+00         0.00000E+00        -0.39689E+08
 
   -0.45440E+08        -0.20368E+07         0.00000E+00
   -0.20368E+07        -0.57677E+08         0.00000E+00
    0.00000E+00         0.00000E+00        -0.39327E+08
 
   -0.44146E+08        -0.78848E+06         0.00000E+00
   -0.78848E+06        -0.57414E+08         0.00000E+00
    0.00000E+00         0.00000E+00        -0.38993E+08
 
   -0.42671E+08         0.78583E+06         0.00000E+00
    0.78583E+06        -0.57419E+08         0.00000E+00
    0.00000E+00         0.00000E+00        -0.38687E+08
 
   -0.41018E+08         0.29441E+07         0.00000E+00
    0.29441E+07        -0.57720E+08         0.00000E+00
    0.00000E+00         0.00000E+00        -0.38415E+08
 
   -0.39376E+08         0.60809E+07         0.00000E+00
    0.60809E+07        -0.58242E+08         0.00000E+00
    0.00000E+00         0.00000E+00        -0.38190E+08
 
   -0.38300E+08         0.10671E+08         0.00000E+00
    0.10671E+08        -0.58686E+08         0.00000E+00
    0.00000E+00         0.00000E+00        -0.38046E+08
 
   -0.65741E+08        -0.35122E+07         0.00000E+00
   -0.35122E+07        -0.60359E+08         0.00000E+00
    0.00000E+00         0.00000E+00        -0.36103E+08
 
   -0.61139E+08        -0.68465E+07         0.00000E+00
   -0.68465E+07        -0.60608E+08         0.00000E+00
    0.00000E+00         0.00000E+00        -0.35757E+08
 
   -0.56698E+08        -0.72786E+07         0.00000E+00
   -0.72786E+07        -0.60071E+08         0.00000E+00
    0.00000E+00         0.00000E+00        -0.35263E+08
 
   -0.53432E+08        -0.66534E+07         0.00000E+00
   -0.66534E+07        -0.58848E+08         0.00000E+00
    0.00000E+00         0.00000E+00        -0.34741E+08
 
   -0.51118E+08        -0.57666E+07         0.00000E+00
   -0.57666E+07        -0.57365E+08         0.00000E+00
    0.00000E+00         0.00000E+00        -0.34236E+08
 
   -0.49410E+08        -0.48623E+07         0.00000E+00
   -0.48623E+07        -0.55874E+08         0.00000E+00
    0.00000E+00         0.00000E+00        -0.33764E+08
 
   -0.48054E+08        -0.40045E+07         0.00000E+00
   -0.40045E+07        -0.54504E+08         0.00000E+00
    0.00000E+00         0.00000E+00        -0.33328E+08
 
   -0.46864E+08        -0.31919E+07         0.00000E+00
   -0.31919E+07        -0.53318E+08         0.00000E+00
    0.00000E+00         0.00000E+00        -0.32929E+08
 
   -0.45697E+08        -0.23941E+07         0.00000E+00
   -0.23941E+07        -0.52358E+08         0.00000E+00
    0.00000E+00         0.00000E+00        -0.32563E+08
 
   -0.44425E+08        -0.15589E+07         0.00000E+00
   -0.15589E+07        -0.51657E+08         0.00000E+00
    0.00000E+00         0.00000E+00        -0.32227E+08
 
   -0.42922E+08        -0.60399E+06         0.00000E+00
   -0.60399E+06        -0.51264E+08         0.00000E+00
    0.00000E+00         0.00000E+00        -0.31922E+08
 
   -0.41045E+08         0.60971E+06         0.00000E+00
    0.60971E+06        -0.51248E+08         0.00000E+00
    0.00000E+00         0.00000E+00        -0.31648E+08
 
   -0.38635E+08         0.23425E+07         0.00000E+00
    0.23425E+07        -0.51712E+08         0.00000E+00
    0.00000E+00         0.00000E+00        -0.31412E+08
 
   -0.35651E+08         0.51370E+07         0.00000E+00
    0.51370E+07        -0.52753E+08         0.00000E+00
    0.00000E+00         0.00000E+00        -0.31227E+08
 
   -0.32553E+08         0.98563E+07         0.00000E+00
    0.98563E+07        -0.54149E+08         0.00000E+00
    0.00000E+00         0.00000E+00        -0.31115E+08
 
   -0.71356E+08        -0.38386E+07         0.00000E+00
   -0.38386E+07        -0.60050E+08         0.00000E+00
    0.00000E+00         0.00000E+00        -0.26694E+08
 
   -0.62088E+08        -0.59510E+07         0.00000E+00
   -0.59510E+07        -0.58871E+08         0.00000E+00
    0.00000E+00         0.00000E+00        -0.26490E+08
 
   -0.56175E+08        -0.54683E+07         0.00000E+00
   -0.54683E+07        -0.56468E+08         0.00000E+00
    0.00000E+00         0.00000E+00        -0.26164E+08
 
   -0.52610E+08        -0.46344E+07         0.00000E+00
   -0.46344E+07        -0.53848E+08         0.00000E+00
    0.00000E+00         0.00000E+00        -0.25794E+08
 
   -0.50287E+08        -0.38356E+07         0.00000E+00
   -0.38356E+07        -0.51426E+08         0.00000E+00
    0.00000E+00         0.00000E+00        -0.25425E+08
 
   -0.48643E+08        -0.31358E+07         0.00000E+00
   -0.31358E+07        -0.49314E+08         0.00000E+00
    0.00000E+00         0.00000E+00        -0.25075E+08
 
   -0.47351E+08        -0.25267E+07         0.00000E+00
   -0.25267E+07        -0.47531E+08         0.00000E+00
    0.00000E+00         0.00000E+00        -0.24753E+08
 
   -0.46202E+08        -0.19813E+07         0.00000E+00
   -0.19813E+07        -0.46071E+08         0.00000E+00
    0.00000E+00         0.00000E+00        -0.24458E+08
 
   -0.45036E+08        -0.14668E+07         0.00000E+00
   -0.14668E+07        -0.44928E+08         0.00000E+00
    0.00000E+00         0.00000E+00        -0.24189E+08
 
   -0.43710E+08        -0.94269E+06         0.00000E+00
   -0.94269E+06        -0.44112E+08         0.00000E+00
    0.00000E+00         0.00000E+00        -0.23945E+08
 
   -0.42065E+08        -0.35259E+06         0.00000E+00
   -0.35259E+06        -0.43655E+08         0.00000E+00
    0.00000E+00         0.00000E+00        -0.23726E+08
 
   -0.39887E+08         0.39787E+06         0.00000E+00
    0.39787E+06        -0.43636E+08         0.00000E+00
    0.00000E+00         0.00000E+00        -0.23535E+08
 
   -0.36857E+08         0.14948E+07         0.00000E+00
    0.14948E+07        -0.44211E+08         0.00000E+00
    0.00000E+00         0.00000E+00        -0.23377E+08
 
   -0.32427E+08         0.33972E+07         0.00000E+00
    0.33972E+07        -0.45694E+08         0.00000E+00
    0.00000E+00         0.00000E+00        -0.23265E+08
 
   -0.26486E+08         0.75790E+07         0.00000E+00
    0.75790E+07        -0.48418E+08         0.00000E+00
    0.00000E+00         0.00000E+00        -0.23211E+08
 
   -0.75582E+08        -0.24280E+07         0.00000E+00
   -0.24280E+07        -0.57681E+08         0.00000E+00
    0.00000E+00         0.00000E+00        -0.15751E+08
 
   -0.61895E+08        -0.25042E+07         0.00000E+00
   -0.25042E+07        -0.53651E+08         0.00000E+00
    0.00000E+00         0.00000E+00        -0.15697E+08
 
   -0.55582E+08        -0.20466E+07         0.00000E+00
   -0.20466E+07        -0.49442E+08         0.00000E+00
    0.00000E+00         0.00000E+00        -0.15591E+08
 
   -0.52011E+08        -0.16496E+07         0.00000E+00
   -0.16496E+07        -0.45885E+08         0.00000E+00
    0.00000E+00         0.00000E+00        -0.15458E+08
 
   -0.49765E+08        -0.13233E+07         0.00000E+00
   -0.13233E+07        -0.42972E+08         0.00000E+00
    0.00000E+00         0.00000E+00        -0.15321E+08
 
   -0.48198E+08        -0.10591E+07         0.00000E+00
   -0.10591E+07        -0.40612E+08         0.00000E+00
    0.00000E+00         0.00000E+00        -0.15190E+08
 
   -0.46964E+08        -0.83959E+06         0.00000E+00
   -0.83959E+06        -0.38716E+08         0.00000E+00
    0.00000E+00         0.00000E+00        -0.15069E+08
 
   -0.45849E+08        -0.64919E+06         0.00000E+00
   -0.64919E+06        -0.37220E+08         0.00000E+00
    0.00000E+00         0.00000E+00        -0.14958E+08
 
   -0.44693E+08        -0.47350E+06         0.00000E+00
   -0.47350E+06        -0.36085E+08         0.00000E+00
    0.00000E+00         0.00000E+00        -0.14858E+08
 
   -0.43345E+08        -0.29736E+06         0.00000E+00
   -0.29736E+06        -0.35300E+08         0.00000E+00
    0.00000E+00         0.00000E+00        -0.14767E+08
 
   -0.41630E+08        -0.10096E+06         0.00000E+00
   -0.10096E+06        -0.34888E+08         0.00000E+00
    0.00000E+00         0.00000E+00        -0.14686E+08
 
   -0.39296E+08         0.14796E+06         0.00000E+00
    0.14796E+06        -0.34923E+08         0.00000E+00
    0.00000E+00         0.00000E+00        -0.14617E+08
 
   -0.35916E+08         0.51647E+06         0.00000E+00
    0.51647E+06        -0.35577E+08         0.00000E+00
    0.00000E+00         0.00000E+00        -0.14562E+08
 
   -0.30651E+08         0.11583E+07         0.00000E+00
    0.11583E+07        -0.37245E+08         0.00000E+00
    0.00000E+00         0.00000E+00        -0.14527E+08
 
   -0.20962E+08         0.29975E+07         0.00000E+00
    0.29975E+07        -0.41181E+08         0.00000E+00
    0.00000E+00         0.00000E+00        -0.14517E+08
 
SCALARS stresss double 
LOOKUP_TABLE default
  -55737800.0657545     
  -55801003.5811250     
  -55900202.8799208     
  -56028615.5097832     
  -56179341.1260913     
  -56345592.6758091     
  -56520853.0066262     
  -56698967.1170697     
  -56874183.1026187     
  -57041156.7361007     
  -57194935.4294715     
  -57330938.2459905     
  -57444950.0095169     
  -57533148.3336688     
  -57592181.0839492     
  -55714617.0231381     
  -55780755.8002118     
  -55883595.0107821     
  -56016102.7869951     
  -56171164.2541617     
  -56341811.2476383     
  -56521378.0468835     
  -56703589.9376932     
  -56882598.4334361     
  -57052979.0494017     
  -57209708.2103195     
  -57348136.5041026     
  -57463976.5453805     
  -57553324.3055452     
  -57612729.1113809     
  -55668465.9136103     
  -55740544.3285424     
  -55850714.1340304     
  -55991455.3618018     
  -56155224.6056700     
  -56334692.3575958     
  -56522897.4955077     
  -56713328.4847061     
  -56899946.8076004     
  -57077170.6368600     
  -57239837.0749368     
  -57383161.3210841     
  -57502711.5904340     
  -57594418.5958971     
  -57654636.6368949     
  -55599740.8455972     
  -55680871.9881297     
  -55802161.1378180     
  -55955357.0314361     
  -56132274.1409470     
  -56325042.8076193     
  -56526263.2653826     
  -56729075.5065171     
  -56927164.1268900     
  -57114719.5936466     
  -57286377.0598710     
  -57437152.9595235     
  -57562399.1654591     
  -57657794.1237731     
  -57719388.2442204     
  -55509085.3937294     
  -55602536.8701120     
  -55738872.4861935     
  -55908860.6715348     
  -56103457.8610413     
  -56314077.3842696     
  -56532743.2736850     
  -56752144.2126724     
  -56965611.7721091     
  -57167049.3854527     
  -57350837.2169995     
  -57511735.8887739     
  -57644810.3882399     
  -57745394.3127995     
  -57809112.6375490     
  -55397443.9735407     
  -55506681.8468332     
  -55662164.8197974     
  -55853423.5066086     
  -56070336.6581545     
  -56303426.1012748     
  -56544010.3932604     
  -56784237.0614693     
  -57017024.3861969     
  -57235945.9544840     
  -57435088.6212437     
  -57608910.6059282     
  -57752123.2372097     
  -57859617.7534309     
  -57926456.7481557     
  -55266135.1928826     
  -55394862.9223871     
  -55573795.9671431     
  -55790956.1738262     
  -56034919.2600654     
  -56295144.2740226     
  -56562126.7021547     
  -56827401.4392945     
  -57083435.6895798     
  -57323453.9725028     
  -57541233.0628809     
  -57730898.5522044     
  -57886749.5344564     
  -58003134.6706128     
  -58074401.2905709     
  -55116941.0296507     
  -55269135.0283271     
  -55476042.3613679     
  -55723885.0955185     
  -55999702.2148788     
  -56291723.3085400     
  -56589519.5929280     
  -56883967.3412045     
  -57167075.9230519     
  -57431734.2710849     
  -57671422.8091759     
  -57879928.8301024     
  -58051095.6763216     
  -58178631.4731153     
  -58256001.8638073     
  -54952208.7753939     
  -55132153.3342452     
  -55371792.0882136     
  -55655227.1254577     
  -55967715.6600831     
  -56296098.3122291     
  -56628944.0353780     
  -56956459.5424436     
  -57270231.6688510     
  -57562871.4837969     
  -57827618.6963971     
  -58057952.0272225     
  -58247240.5362752     
  -58388464.7047933     
  -58474035.1646133     
  -54774962.8681217     
  -54987289.0980935     
  -55264652.7452557     
  -55588674.4252488     
  -55942570.6600420     
  -56311645.8035407     
  -56683421.8836556     
  -57047473.0901207     
  -57395055.1416618     
  -57718617.4286774     
  -58011270.4666411     
  -58266263.2228956     
  -58476510.4088330     
  -58634201.7943692     
  -58730525.2235392     
  -54589023.5299394     
  -54838759.2292395     
  -55159072.4409400     
  -55528685.0187249     
  -55928499.8185522     
  -56342159.5821744     
  -56756143.3403697     
  -57159495.1738357     
  -57543304.7162292     
  -57900051.1192834     
  -58222899.3385752     
  -58505012.8331043     
  -58738927.6135194     
  -58916022.4446555     
  -59026120.3153590     
  -54399128.3416029     
  -54691767.6195826     
  -55060469.1088746     
  -55480568.7274477     
  -55930374.8920303     
  -56391783.4863485     
  -56850306.0255488     
  -57294647.3495277     
  -57715990.6063251     
  -58107130.0090521     
  -58461558.0967098     
  -58772580.5428900     
  -59032506.7331443     
  -59231951.9103847     
  -59359287.8573050     
  -54211051.2497610     
  -54552652.8168292     
  -54975355.9472968     
  -55450546.7766066     
  -55953670.7583800     
  -56464864.0784771     
  -56968851.7442587     
  -57454308.3911037     
  -57912888.4306063     
  -58338098.8087545     
  -58724138.5934200     
  -59064784.6340550     
  -59352371.2017933     
  -59576896.7728559     
  -59725293.2990468     
  -54031710.0607361     
  -54429028.5629385     
  -54911436.0109526     
  -55445742.7026672     
  -56004320.9855142     
  -56565661.5338181     
  -57114038.0474757     
  -57638558.5352860     
  -58131868.3647913     
  -58588711.9956949     
  -59004490.9731802     
  -59373897.4474204     
  -59689664.3651069     
  -59941456.7288516     
  -60114931.5157053     
  -53869246.2432790     
  -54329887.0785119     
  -54877611.6945293     
  -55474027.2755303     
  -56088372.2824309     
  -56697820.3328522     
  -57286749.4898939     
  -57845360.0753005     
  -58367968.9686521     
  -58851214.7789594     
  -59292314.3795726     
  -59687439.1224345     
  -60030235.1967899     
  -60310494.7556451     
  -60512988.2350508     
  -53733046.3325405     
  -54265603.2290622     
  -54883807.7617106     
  -55543584.8153527     
  -56211289.3114998     
  -56863451.0923827     
  -57485412.3140664     
  -58069358.6222943     
  -58612124.7485784     
  -59113017.2444314     
  -59571777.9573128     
  -59986728.8375893     
  -60353092.5567806     
  -60661466.2107268     
  -60896428.4357527     
  -53633646.8142029     
  -54247721.3911700     
  -54940430.6894956     
  -55661986.8449523     
  -56376686.1948718     
  -57061613.1511223     
  -57704330.6779921     
  -58300159.5597872     
  -58849440.8845407     
  -59354993.0725778     
  -59819838.4394217     
  -60245189.9516391     
  -60628647.5899516     
  -60962539.7031900     
  -61232343.7863636     
  -53582416.1668059     
  -54288314.0934204     
  -55057174.2372374     
  -55834450.4628063     
  -56584172.5693699     
  -57285925.2479585     
  -57931225.6776107     
  -58519918.5880844     
  -59056909.4001640     
  -59549347.8401341     
  -60004244.8997120     
  -60426439.6759064     
  -60816807.8175962     
  -61170595.2323144     
  -61475749.0864446     
  -53590829.5672367     
  -54398561.6782606     
  -55240730.9483931     
  -56060835.7888208     
  -56825922.8211467     
  -57520996.3336136     
  -58143758.3301086     
  -58700109.3722854     
  -59200500.0681699     
  -59657049.9330154     
  -60081275.9395214     
  -60482255.7229499     
  -60865057.2592887     
  -61229266.1079442     
  -61567407.0037242     
  -53669037.6580630     
  -54586016.2879004     
  -55490804.5283766     
  -56330841.9180265     
  -57081560.3950877     
  -57737414.9476945     
  -58304904.4478876     
  -58797437.7422224     
  -59231671.0038642     
  -59624926.4948786     
  -59993360.1750956     
  -60350617.0032555     
  -60706765.8994287     
  -61067309.8868539     
  -61431990.7549092     
  -53823290.2965744     
  -54849817.8883375     
  -55793713.1383802     
  -56616891.3381254     
  -57311095.8309627     
  -57885255.2450880     
  -58357299.5829669     
  -58749121.9984912     
  -59083576.3335855     
  -59382734.9449109     
  -59666915.8085364     
  -59954183.5454750     
  -60260133.0046887     
  -60597759.2759819     
  -60977073.7853079     
  -54051661.7812325     
  -55173042.9076868     
  -56112997.8068045     
  -56864527.8101433     
  -57446125.9778635     
  -57886577.4188211     
  -58217182.0982100     
  -58468224.8455315     
  -58667656.7625481     
  -58840870.9126063     
  -59011043.4643862     
  -59199837.4024884     
  -59428397.1246950     
  -59718522.0822219     
  -60093664.2520022     
  -54337585.1292476     
  -55511657.9667987     
  -56377108.5048288     
  -56981052.4725413     
  -57380482.2676269     
  -57628345.1895448     
  -57769411.9165299     
  -57840456.5662747     
  -57871921.5697799     
  -57889897.8677723     
  -57918146.6285018     
  -57980272.8855077     
  -58102250.4715717     
  -58315362.1577380     
  -58659259.1362209     
  -54641263.2384255     
  -55780702.6965053     
  -56465825.7652847     
  -56824821.7158416     
  -56963104.7661326     
  -56958569.1398187     
  -56866204.3866513     
  -56724829.3818959     
  -56563026.5515140     
  -56403753.2185874     
  -56268118.9638113     
  -56179092.7400062     
  -56165760.1429203     
  -56268461.9367428     
  -56544608.9803178     
  -54890616.7712648     
  -55840814.3217764     
  -56199726.2895878     
  -56199963.2763580     
  -55997849.7855317     
  -55690006.9111138     
  -55333395.1841059     
  -54961449.2988695     
  -54594977.4971509     
  -54249092.3943266     
  -53938273.3924876     
  -53681319.3349795     
  -53507441.1451102     
  -53463934.9209102     
  -53625407.7135593     
  -54976119.3477352     
  -55491608.8568960     
  -55339482.5254085     
  -54863116.0097940     
  -54256205.0408068     
  -53616573.5021431     
  -52988460.0450703     
  -52389880.4405024     
  -51827305.5100945     
  -51303229.1433873     
  -50821189.4034091     
  -50391346.0721348     
  -50038186.4362088     
  -49811572.2380318     
  -49799679.1679127     
  -54756288.9194323     
  -54477829.1140453     
  -53600747.6249666     
  -52547540.2460556     
  -51508140.1769404     
  -50546318.0640315     
  -49672773.7031255     
  -48879748.1406043     
  -48153860.0485689     
  -47481388.5982068     
  -46851298.3707088     
  -46259188.9990330     
  -45717419.0144491     
  -45269458.4967719     
  -45010617.9932338     
  -54067805.4776227     
  -52501308.5420516     
  -50677279.7259174     
  -49006882.6408943     
  -47572716.7757947     
  -46349403.6541986     
  -45295483.0493729     
  -44370499.8725178     
  -43538948.0268745     
  -42769907.8069526     
  -42036003.9364245     
  -41313637.4516938     
  -40586329.4024471     
  -39877181.4209957     
  -39272499.5935486     
  -52699937.4530900     
  -49149661.9776327     
  -46268881.5201327     
  -44084197.0650796     
  -42379184.1551982     
  -41010600.2800885     
  -39878224.4472908     
  -38910018.1871554     
  -38051001.4048264     
  -37255659.4727193     
  -36481998.9906438     
  -35685782.0645857     
  -34815012.2949889     
  -33795381.2865965     
  -32705040.1099460     
  -49671391.4544991     
  -43747517.3486322     
  -40204711.9878804     
  -37784514.5008991     
  -36019521.0137853     
  -34666520.5788532     
  -33582833.6525019     
  -32675695.5768486     
  -31878559.3873661     
  -31137545.0462115     
  -30401567.5719907     
  -29611962.4049141     
  -28685061.5938620     
  -27474436.1280779     
  -25553135.8705509     
SCALARS 2waySource double 
LOOKUP_TABLE default
 -1.366033455481109E-002
 -1.343602560978839E-002
 -1.308973770648376E-002
 -1.263848190126741E-002
 -1.210148913848537E-002
 -1.149991207211342E-002
 -1.085620040354165E-002
 -1.019339103471933E-002
 -9.534470058146432E-003
 -8.901833505771461E-003
 -8.316762055618224E-003
 -7.798779614733100E-003
 -7.364822501252697E-003
 -7.028318614431933E-003
 -6.798505349274441E-003
 -1.369999578027354E-002
 -1.346762900731480E-002
 -1.311284295065612E-002
 -1.265220200996843E-002
 -1.210477359264947E-002
 -1.149175819823652E-002
 -1.083578965460699E-002
 -1.016015133734562E-002
 -9.488086885175120E-003
 -8.842245008405098E-003
 -8.244175932087251E-003
 -7.713744656192787E-003
 -7.268376011108834E-003
 -6.922208711091436E-003
 -6.685452700180088E-003
 -1.377772095738697E-002
 -1.352944250668681E-002
 -1.315812004821696E-002
 -1.267955152874875E-002
 -1.211248718137400E-002
 -1.147818705297546E-002
 -1.079958823823534E-002
 -1.010038263992973E-002
 -9.404232612351855E-003
 -8.734188558059764E-003
 -8.112229802379103E-003
 -7.558784578841392E-003
 -7.092122351529190E-003
 -6.727655690837156E-003
 -6.477385652331940E-003
 -1.389000936589606E-002
 -1.361797059479764E-002
 -1.322217758108035E-002
 -1.271737447269797E-002
 -1.212183838728831E-002
 -1.145689041088829E-002
 -1.074587710457770E-002
 -1.001304324608181E-002
 -9.282606073453438E-003
 -8.578132832673942E-003
 -7.922147692695367E-003
 -7.335809379728769E-003
 -6.838521419111030E-003
 -6.447456438557257E-003
 -6.177145858845236E-003
 -1.403160958157403E-002
 -1.372786705784312E-002
 -1.329981432677292E-002
 -1.276082621781905E-002
 -1.212854412963255E-002
 -1.142434191764457E-002
 -1.067206404817823E-002
 -9.896624191523051E-003
 -9.122890000073762E-003
 -8.375006574489141E-003
 -7.676089611233795E-003
 -7.048109500455405E-003
 -6.511787964148210E-003
 -6.086419074589842E-003
 -5.789663240390507E-003
 -1.419558969804027E-002
 -1.385197005860373E-002
 -1.338400549984757E-002
 -1.280334536866318E-002
 -1.212682165122767E-002
 -1.137583845517456E-002
 -1.057479892156016E-002
 -9.749357845182844E-003
 -8.925068377490655E-003
 -8.126636610940062E-003
 -7.377718732707968E-003
 -6.701055887569383E-003
 -6.118720052716395E-003
 -5.652301764000488E-003
 -5.322968765609662E-003
 -1.437339970005146E-002
 -1.398134684984878E-002
 -1.346590726062001E-002
 -1.283665124018233E-002
 -1.210942289652926E-002
 -1.130561024455105E-002
 -1.045018962893719E-002
 -9.569562049083808E-003
 -8.689915230266982E-003
 -7.836394040562480E-003
 -7.033014654983822E-003
 -6.303085288957026E-003
 -5.669852405425169E-003
 -5.157115056554193E-003
 -4.789606446298745E-003
 -1.455490727220834E-002
 -1.410528364408521E-002
 -1.353482017799220E-002
 -1.285072698770531E-002
 -1.206768963817542E-002
 -1.120699162946612E-002
 -1.029411913649290E-002
 -9.356122848509039E-003
 -8.419655944069120E-003
 -7.510044515228478E-003
 -6.651322439205158E-003
 -5.866955883567594E-003
 -5.180919366506451E-003
 -4.618777545299251E-003
 -4.208441434084820E-003
 -1.472843189600112E-002
 -1.421122452804805E-002
 -1.357811047956632E-002
 -1.283380206190912E-002
 -1.199166363189916E-002
 -1.107270365064196E-002
 -1.010272344979173E-002
 -9.109175751319282E-003
 -8.118853384584592E-003
 -7.156841957352666E-003
 -6.246661694429894E-003
 -5.411283540928954E-003
 -4.674627782047778E-003
 -4.063120712953502E-003
 -3.606861815669185E-003
 -1.488080419354844E-002
 -1.428468996411723E-002
 -1.358113392684579E-002
 -1.277240616339789E-002
 -1.187035309022449E-002
 -1.089537033562941E-002
 -9.873159641361685E-003
 -8.831107839699582E-003
 -7.795622836411803E-003
 -6.790943677654893E-003
 -5.839344162277117E-003
 -4.962378534131395E-003
 -4.182735950985713E-003
 -3.526224293903982E-003
 -3.023353338382425E-003
 -1.499747224996689E-002
 -1.430921714344293E-002
 -1.352725160926599E-002
 -1.265163758745214E-002
 -1.169234221458702E-002
 -1.066847939760334E-002
 -9.604875546292828E-003
 -8.528072366813797E-003
 -7.463331396468367E-003
 -6.433256327696149E-003
 -5.457958655359817E-003
 -4.556392297163657E-003
 -3.748406145213186E-003
 -3.057021074271454E-003
 -2.510377872275915E-003
 -1.506268945476334E-002
 -1.426640116381008E-002
 -1.339810378673104E-002
 -1.245589750368145E-002
 -1.144705331154522E-002
 -1.038811759901264E-002
 -9.301696244746730E-003
 -8.212287224228518E-003
 -7.142989793398895E-003
 -6.113845798328490E-003
 -5.141777213218292E-003
 -4.241751050076287E-003
 -3.428740000530043E-003
 -2.720031431705183E-003
 -2.137396320441248E-003
 -1.505986285392746E-002
 -1.413620927310813E-002
 -1.317445302656221E-002
 -1.217051755807107E-002
 -1.112714937577732E-002
 -1.005596871516031E-002
 -8.975165770617409E-003
 -7.905472512999688E-003
 -6.866589105096845E-003
 -5.875051319487568E-003
 -4.943607826134660E-003
 -4.081789862529280E-003
 -3.297309331188721E-003
 -2.597961595734524E-003
 -1.993730461384015E-003
 -1.497223139632639E-002
 -1.389792030995327E-002
 -1.283815336152108E-002
 -1.178497102352845E-002
 -1.073280043659442E-002
 -9.684242529472125E-003
 -8.649699143336968E-003
 -7.643839138121598E-003
 -6.681640678341213E-003
 -5.775407347272722E-003
 -4.933044316486722E-003
 -4.157388064210085E-003
 -3.446342551327635E-003
 -2.793707976889977E-003
 -2.190735731620040E-003
 -1.478420306305738E-002
 -1.353234573961635E-002
 -1.237617314417181E-002
 -1.129870295360293E-002
 -1.027879270118773E-002
 -9.303345931861060E-003
 -8.370137426206379E-003
 -7.484996962787056E-003
 -6.657079021693694E-003
 -5.894341760280832E-003
 -5.199900182244221E-003
 -4.569212168092782E-003
 -3.987992963691575E-003
 -3.431029419723671E-003
 -2.862432652101547E-003
 -1.448393646448097E-002
 -1.302645451365620E-002
 -1.178809134644623E-002
 -1.073097814781719E-002
 -9.805620468425889E-003
 -8.973068455515437E-003
 -8.212108243915831E-003
 -7.516870357038311E-003
 -6.890368142782819E-003
 -6.337293045534676E-003
 -5.857291223735026E-003
 -5.438846345291917E-003
 -5.053764988906672E-003
 -4.652752767161370E-003
 -4.163290884103027E-003
 -1.406812052673981E-002
 -1.238215094880378E-002
 -1.109900492806681E-002
 -1.013632915280229E-002
 -9.395502716193410E-003
 -8.797551340061747E-003
 -8.294910613894303E-003
 -7.867963094406270E-003
 -7.514927789454012E-003
 -7.240231328425411E-003
 -7.043249022538422E-003
 -6.907563876187519E-003
 -6.790665664182558E-003
 -6.614839664295932E-003
 -6.261255964113774E-003
 -1.355034387343036E-002
 -1.163161551222550E-002
 -1.038001480374069E-002
 -9.626727937969112E-003
 -9.193192451647514E-003
 -8.942852599391597E-003
 -8.795049936207522E-003
 -8.716770955763842E-003
 -8.705610775867529E-003
 -8.771385671758570E-003
 -8.918766037407237E-003
 -9.130677645160536E-003
 -9.351937702374292E-003
 -9.473954908847454E-003
 -9.323360849099176E-003
 -1.297476095364339E-002
 -1.086186729720438E-002
 -9.777636639231545E-003
 -9.399587256502202E-003
 -9.428618919574463E-003
 -9.652784686550986E-003
 -9.955497795492946E-003
 -1.029539900011815E-002
 -1.067762262834444E-002
 -1.112605498034579E-002
 -1.165863718446918E-002
 -1.226421038489295E-002
 -1.287929146674948E-002
 -1.336537721173292E-002
 -1.349045017760159E-002
 -1.243641572253208E-002
 -1.024991528805182E-002
 -9.550044083571777E-003
 -9.765555838873119E-003
 -1.043257565985718E-002
 -1.125304803819101E-002
 -1.208073593370222E-002
 -1.287820238925593E-002
 -1.367078513807178E-002
 -1.450756591873702E-002
 -1.542926549784889E-002
 -1.643899965864794E-002
 -1.747243189495353E-002
 -1.836733723891142E-002
 -1.883690599315647E-002
 -1.210735719165049E-002
 -1.010463262060272E-002
 -1.009924791726693E-002
 -1.115964579087360E-002
 -1.262663285093275E-002
 -1.412511135681917E-002
 -1.550073463080992E-002
 -1.674078103863466E-002
 -1.790665196555102E-002
 -1.908392064121317E-002
 -2.034487504511988E-002
 -2.171544833460794E-002
 -2.314062196589867E-002
 -2.444757266697199E-002
 -2.531138448221076E-002
 -1.226115427738942E-002
 -1.089786501708483E-002
 -1.197030125805287E-002
 -1.410183773161911E-002
 -1.645456087725738E-002
 -1.862131240011255E-002
 -2.048007999549722E-002
 -2.206966509840228E-002
 -2.350212817589987E-002
 -2.490657309862235E-002
 -2.639119873750300E-002
 -2.801069776385464E-002
 -2.973081624095807E-002
 -3.138903013671136E-002
 -3.265670507270045E-002
 -1.327301181786773E-002
 -1.323863778623306E-002
 -1.575915833216905E-002
 -1.905194628660509E-002
 -2.221074319164195E-002
 -2.488785013406519E-002
 -2.704750825141461E-002
 -2.880361642397996E-002
 -3.032415335006356E-002
 -3.177859640070180E-002
 -3.330659824185341E-002
 -3.499147324271665E-002
 -3.682967699220947E-002
 -3.869634847602581E-002
 -4.031358593701477E-002
 -1.554266292589945E-002
 -1.769870405114286E-002
 -2.184093723039578E-002
 -2.609656014275186E-002
 -2.973016944920958E-002
 -3.257896148203937E-002
 -3.473946263379255E-002
 -3.640480846853814E-002
 -3.778540983997826E-002
 -3.907293485522073E-002
 -4.042237652251021E-002
 -4.193671370835610E-002
 -4.364778805511264E-002
 -4.549727425822866E-002
 -4.732778814414751E-002
 -1.925381185214285E-002
 -2.436832298127654E-002
 -2.985008681050579E-002
 -3.445967664717024E-002
 -3.797023296278099E-002
 -4.050968863827148E-002
 -4.230930183081657E-002
 -4.360972288830275E-002
 -4.462716988404009E-002
 -4.554293661499551E-002
 -4.650116541674518E-002
 -4.760680221833799E-002
 -4.892324546681330E-002
 -5.047975237561923E-002
 -5.230722927801287E-002
 -2.392279418409351E-002
 -3.212569838223430E-002
 -3.800840134726068E-002
 -4.200007506902519E-002
 -4.466514234232024E-002
 -4.642156001349004E-002
 -4.756180803538293E-002
 -4.830514210414093E-002
 -4.882276336799535E-002
 -4.924830208398069E-002
 -4.968617486725585E-002
 -5.022148544251964E-002
 -5.093571641175940E-002
 -5.194816435972285E-002
 -5.351102891753584E-002
 -2.794575048608182E-002
 -3.797319886495629E-002
 -4.273950980004899E-002
 -4.511239463598182E-002
 -4.642050003641864E-002
 -4.717404134531193E-002
 -4.758453211775149E-002
 -4.777444585709271E-002
 -4.782842580461291E-002
 -4.780751241567326E-002
 -4.775727196600088E-002
 -4.772172465108154E-002
 -4.778145392030807E-002
 -4.811851714042786E-002
 -4.917131874071284E-002
 -2.871242179407531E-002
 -3.724773703652364E-002
 -3.921540255918578E-002
 -3.956437162207410E-002
 -3.964078861973637E-002
 -3.965283326544530E-002
 -3.961902919064625E-002
 -3.953095710838378E-002
 -3.938175416839221E-002
 -3.916337777436740E-002
 -3.886423442725763E-002
 -3.847743966197657E-002
 -3.803559626941834E-002
 -3.774711855785173E-002
 -3.809377130739151E-002
 -2.378448348523732E-002
 -2.476904151721588E-002
 -2.320877455728083E-002
 -2.246522975414945E-002
 -2.225206554462531E-002
 -2.231244066525982E-002
 -2.247231418200385E-002
 -2.263448257423013E-002
 -2.274265400781013E-002
 -2.275552700958072E-002
 -2.263092696964408E-002
 -2.231868274750767E-002
 -2.176938618753005E-002
 -2.097679684203451E-002
 -2.045482638878461E-002
 -7.600909729351540E-003
  3.642674505004824E-003
  5.814357119206429E-003
  5.587961760955410E-003
  4.588050143358875E-003
  3.394611130204574E-003
  2.228301889144349E-003
  1.173745781737608E-003
  2.640172894795125E-004
 -4.808312313204087E-004
 -1.030939925377472E-003
 -1.324353084001690E-003
 -1.231280344769913E-003
 -4.700250764575772E-004
  1.595080335702522E-003
SCALARS elementIsPlast double 
LOOKUP_TABLE default
  0.000000000000000E+000
  0.000000000000000E+000
  0.000000000000000E+000
  0.000000000000000E+000
  0.000000000000000E+000
  0.000000000000000E+000
  0.000000000000000E+000
  0.000000000000000E+000
  0.000000000000000E+000
  0.000000000000000E+000
  0.000000000000000E+000
  0.000000000000000E+000
  0.000000000000000E+000
  0.000000000000000E+000
  0.000000000000000E+000
  0.000000000000000E+000
  0.000000000000000E+000
  0.000000000000000E+000
  0.000000000000000E+000
  0.000000000000000E+000
  0.000000000000000E+000
  0.000000000000000E+000
  0.000000000000000E+000
  0.000000000000000E+000
  0.000000000000000E+000
  0.000000000000000E+000
  0.000000000000000E+000
  0.000000000000000E+000
  0.000000000000000E+000
  0.000000000000000E+000
  0.000000000000000E+000
  0.000000000000000E+000
  0.000000000000000E+000
  0.000000000000000E+000
  0.000000000000000E+000
  0.000000000000000E+000
  0.000000000000000E+000
  0.000000000000000E+000
  0.000000000000000E+000
  0.000000000000000E+000
  0.000000000000000E+000
  0.000000000000000E+000
  0.000000000000000E+000
  0.000000000000000E+000
  0.000000000000000E+000
  0.000000000000000E+000
  0.000000000000000E+000
  0.000000000000000E+000
  0.000000000000000E+000
  0.000000000000000E+000
  0.000000000000000E+000
  0.000000000000000E+000
  0.000000000000000E+000
  0.000000000000000E+000
  0.000000000000000E+000
  0.000000000000000E+000
  0.000000000000000E+000
  0.000000000000000E+000
  0.000000000000000E+000
  0.000000000000000E+000
  0.000000000000000E+000
  0.000000000000000E+000
  0.000000000000000E+000
  0.000000000000000E+000
  0.000000000000000E+000
  0.000000000000000E+000
  0.000000000000000E+000
  0.000000000000000E+000
  0.000000000000000E+000
  0.000000000000000E+000
  0.000000000000000E+000
  0.000000000000000E+000
  0.000000000000000E+000
  0.000000000000000E+000
  0.000000000000000E+000
  0.000000000000000E+000
  0.000000000000000E+000
  0.000000000000000E+000
  0.000000000000000E+000
  0.000000000000000E+000
  0.000000000000000E+000
  0.000000000000000E+000
  0.000000000000000E+000
  0.000000000000000E+000
  0.000000000000000E+000
  0.000000000000000E+000
  0.000000000000000E+000
  0.000000000000000E+000
  0.000000000000000E+000
  0.000000000000000E+000
  0.000000000000000E+000
  0.000000000000000E+000
  0.000000000000000E+000
  0.000000000000000E+000
  0.000000000000000E+000
  0.000000000000000E+000
  0.000000000000000E+000
  0.000000000000000E+000
  0.000000000000000E+000
  0.000000000000000E+000
  0.000000000000000E+000
  0.000000000000000E+000
  0.000000000000000E+000
  0.000000000000000E+000
  0.000000000000000E+000
  0.000000000000000E+000
  0.000000000000000E+000
  0.000000000000000E+000
  0.000000000000000E+000
  0.000000000000000E+000
  0.000000000000000E+000
  0.000000000000000E+000
  0.000000000000000E+000
  0.000000000000000E+000
  0.000000000000000E+000
  0.000000000000000E+000
  0.000000000000000E+000
  0.000000000000000E+000
  0.000000000000000E+000
  0.000000000000000E+000
  0.000000000000000E+000
  0.000000000000000E+000
  0.000000000000000E+000
  0.000000000000000E+000
  0.000000000000000E+000
  0.000000000000000E+000
  0.000000000000000E+000
  0.000000000000000E+000
  0.000000000000000E+000
  0.000000000000000E+000
  0.000000000000000E+000
  0.000000000000000E+000
  0.000000000000000E+000
  0.000000000000000E+000
  0.000000000000000E+000
  0.000000000000000E+000
  0.000000000000000E+000
  0.000000000000000E+000
  0.000000000000000E+000
  0.000000000000000E+000
  0.000000000000000E+000
  0.000000000000000E+000
  0.000000000000000E+000
  0.000000000000000E+000
  0.000000000000000E+000
  0.000000000000000E+000
  0.000000000000000E+000
  0.000000000000000E+000
  0.000000000000000E+000
  0.000000000000000E+000
  0.000000000000000E+000
  0.000000000000000E+000
  0.000000000000000E+000
  0.000000000000000E+000
  0.000000000000000E+000
  0.000000000000000E+000
  0.000000000000000E+000
  0.000000000000000E+000
  0.000000000000000E+000
  0.000000000000000E+000
  0.000000000000000E+000
  0.000000000000000E+000
  0.000000000000000E+000
  0.000000000000000E+000
  0.000000000000000E+000
  0.000000000000000E+000
  0.000000000000000E+000
  0.000000000000000E+000
  0.000000000000000E+000
  0.000000000000000E+000
  0.000000000000000E+000
  0.000000000000000E+000
  0.000000000000000E+000
  0.000000000000000E+000
  0.000000000000000E+000
  0.000000000000000E+000
  0.000000000000000E+000
  0.000000000000000E+000
  0.000000000000000E+000
  0.000000000000000E+000
  0.000000000000000E+000
  0.000000000000000E+000
  0.000000000000000E+000
  0.000000000000000E+000
  0.000000000000000E+000
  0.000000000000000E+000
  0.000000000000000E+000
  0.000000000000000E+000
  0.000000000000000E+000
  0.000000000000000E+000
  0.000000000000000E+000
  0.000000000000000E+000
  0.000000000000000E+000
  0.000000000000000E+000
  0.000000000000000E+000
  0.000000000000000E+000
  0.000000000000000E+000
  0.000000000000000E+000
  0.000000000000000E+000
  0.000000000000000E+000
  0.000000000000000E+000
  0.000000000000000E+000
  0.000000000000000E+000
  0.000000000000000E+000
  0.000000000000000E+000
  0.000000000000000E+000
  0.000000000000000E+000
  0.000000000000000E+000
  0.000000000000000E+000
  0.000000000000000E+000
  0.000000000000000E+000
  0.000000000000000E+000
  0.000000000000000E+000
  0.000000000000000E+000
  0.000000000000000E+000
  0.000000000000000E+000
  0.000000000000000E+000
  0.000000000000000E+000
  0.000000000000000E+000
  0.000000000000000E+000
  0.000000000000000E+000
  0.000000000000000E+000
  0.000000000000000E+000
  0.000000000000000E+000
  0.000000000000000E+000
  0.000000000000000E+000
  0.000000000000000E+000
  0.000000000000000E+000
  0.000000000000000E+000
  0.000000000000000E+000
  0.000000000000000E+000
  0.000000000000000E+000
  0.000000000000000E+000
  0.000000000000000E+000
  0.000000000000000E+000
  0.000000000000000E+000
  0.000000000000000E+000
  0.000000000000000E+000
  0.000000000000000E+000
  0.000000000000000E+000
  0.000000000000000E+000
  0.000000000000000E+000
  0.000000000000000E+000
  0.000000000000000E+000
  0.000000000000000E+000
  0.000000000000000E+000
  0.000000000000000E+000
  0.000000000000000E+000
  0.000000000000000E+000
  0.000000000000000E+000
  0.000000000000000E+000
  0.000000000000000E+000
  0.000000000000000E+000
  0.000000000000000E+000
  0.000000000000000E+000
  0.000000000000000E+000
  0.000000000000000E+000
  0.000000000000000E+000
  0.000000000000000E+000
  0.000000000000000E+000
  0.000000000000000E+000
  0.000000000000000E+000
  0.000000000000000E+000
  0.000000000000000E+000
  0.000000000000000E+000
  0.000000000000000E+000
  0.000000000000000E+000
  0.000000000000000E+000
  0.000000000000000E+000
  0.000000000000000E+000
  0.000000000000000E+000
  0.000000000000000E+000
  0.000000000000000E+000
  0.000000000000000E+000
  0.000000000000000E+000
  0.000000000000000E+000
  0.000000000000000E+000
  0.000000000000000E+000
  0.000000000000000E+000
  0.000000000000000E+000
  0.000000000000000E+000
  0.000000000000000E+000
  0.000000000000000E+000
  0.000000000000000E+000
  0.000000000000000E+000
  0.000000000000000E+000
  0.000000000000000E+000
  0.000000000000000E+000
  0.000000000000000E+000
  0.000000000000000E+000
  0.000000000000000E+000
  0.000000000000000E+000
  0.000000000000000E+000
  0.000000000000000E+000
  0.000000000000000E+000
  0.000000000000000E+000
  0.000000000000000E+000
  0.000000000000000E+000
  0.000000000000000E+000
  0.000000000000000E+000
  0.000000000000000E+000
  0.000000000000000E+000
  0.000000000000000E+000
  0.000000000000000E+000
  0.000000000000000E+000
  0.000000000000000E+000
  0.000000000000000E+000
  0.000000000000000E+000
  0.000000000000000E+000
  0.000000000000000E+000
  0.000000000000000E+000
  0.000000000000000E+000
  0.000000000000000E+000
  0.000000000000000E+000
  0.000000000000000E+000
  0.000000000000000E+000
  0.000000000000000E+000
  0.000000000000000E+000
  0.000000000000000E+000
  0.000000000000000E+000
  0.000000000000000E+000
  0.000000000000000E+000
  0.000000000000000E+000
  0.000000000000000E+000
  0.000000000000000E+000
  0.000000000000000E+000
  0.000000000000000E+000
  0.000000000000000E+000
  0.000000000000000E+000
  0.000000000000000E+000
  0.000000000000000E+000
  0.000000000000000E+000
  0.000000000000000E+000
  0.000000000000000E+000
  0.000000000000000E+000
  0.000000000000000E+000
  0.000000000000000E+000
  0.000000000000000E+000
  0.000000000000000E+000
  0.000000000000000E+000
  0.000000000000000E+000
  0.000000000000000E+000
  0.000000000000000E+000
  0.000000000000000E+000
  0.000000000000000E+000
  0.000000000000000E+000
  0.000000000000000E+000
  0.000000000000000E+000
  0.000000000000000E+000
  0.000000000000000E+000
  0.000000000000000E+000
  0.000000000000000E+000
  0.000000000000000E+000
  0.000000000000000E+000
  0.000000000000000E+000
  0.000000000000000E+000
  0.000000000000000E+000
  0.000000000000000E+000
  0.000000000000000E+000
  0.000000000000000E+000
  0.000000000000000E+000
  0.000000000000000E+000
  0.000000000000000E+000
  0.000000000000000E+000
  0.000000000000000E+000
  0.000000000000000E+000
  0.000000000000000E+000
  0.000000000000000E+000
  0.000000000000000E+000
  0.000000000000000E+000
  0.000000000000000E+000
  0.000000000000000E+000
  0.000000000000000E+000
  0.000000000000000E+000
  0.000000000000000E+000
  0.000000000000000E+000
  0.000000000000000E+000
  0.000000000000000E+000
  0.000000000000000E+000
  0.000000000000000E+000
  0.000000000000000E+000
  0.000000000000000E+000
  0.000000000000000E+000
  0.000000000000000E+000
  0.000000000000000E+000
  0.000000000000000E+000
  0.000000000000000E+000
  0.000000000000000E+000
  0.000000000000000E+000
  0.000000000000000E+000
  0.000000000000000E+000
  0.000000000000000E+000
  0.000000000000000E+000
  0.000000000000000E+000
  0.000000000000000E+000
  0.000000000000000E+000
  0.000000000000000E+000
  0.000000000000000E+000
  0.000000000000000E+000
  0.000000000000000E+000
  0.000000000000000E+000
  0.000000000000000E+000
  0.000000000000000E+000
  0.000000000000000E+000
  0.000000000000000E+000
  0.000000000000000E+000
  0.000000000000000E+000
  0.000000000000000E+000
  0.000000000000000E+000
  0.000000000000000E+000
  0.000000000000000E+000
  0.000000000000000E+000
  0.000000000000000E+000
  0.000000000000000E+000
  0.000000000000000E+000
  0.000000000000000E+000
  0.000000000000000E+000
  0.000000000000000E+000
  0.000000000000000E+000
  0.000000000000000E+000
  0.000000000000000E+000
  0.000000000000000E+000
  0.000000000000000E+000
  0.000000000000000E+000
  0.000000000000000E+000
  0.000000000000000E+000
  0.000000000000000E+000
  0.000000000000000E+000
  0.000000000000000E+000
  0.000000000000000E+000
  0.000000000000000E+000
  0.000000000000000E+000
  0.000000000000000E+000
  0.000000000000000E+000
  0.000000000000000E+000
  0.000000000000000E+000
  0.000000000000000E+000
  0.000000000000000E+000
  0.000000000000000E+000
  0.000000000000000E+000
  0.000000000000000E+000
  0.000000000000000E+000
  0.000000000000000E+000
  0.000000000000000E+000
  0.000000000000000E+000
  0.000000000000000E+000
  0.000000000000000E+000
  0.000000000000000E+000
  0.000000000000000E+000
  0.000000000000000E+000
