# vtk DataFile Version 3.0
vtk output
ASCII
DATASET UNSTRUCTURED_GRID
POINTS       496 double 
  0.00000000E+00  3.00000000E+02  0.00000000E+00
  0.00000000E+00  2.80000000E+02  0.00000000E+00
  0.00000000E+00  2.60000000E+02  0.00000000E+00
  0.00000000E+00  2.40000000E+02  0.00000000E+00
  0.00000000E+00  2.20000000E+02  0.00000000E+00
  0.00000000E+00  2.00000000E+02  0.00000000E+00
  0.00000000E+00  1.80000000E+02  0.00000000E+00
  0.00000000E+00  1.60000000E+02  0.00000000E+00
  0.00000000E+00  1.40000000E+02  0.00000000E+00
  0.00000000E+00  1.20000000E+02  0.00000000E+00
  0.00000000E+00  1.00000000E+02  0.00000000E+00
  0.00000000E+00  8.00000000E+01  0.00000000E+00
  0.00000000E+00  6.00000000E+01  0.00000000E+00
  0.00000000E+00  4.00000000E+01  0.00000000E+00
  0.00000000E+00  2.00000000E+01  0.00000000E+00
  0.00000000E+00  4.99600361E-14  0.00000000E+00
  2.00000000E+01  3.00000000E+02  0.00000000E+00
  2.00000000E+01  2.80000000E+02  0.00000000E+00
  2.00000000E+01  2.60000000E+02  0.00000000E+00
  2.00000000E+01  2.40000000E+02  0.00000000E+00
  2.00000000E+01  2.20000000E+02  0.00000000E+00
  2.00000000E+01  2.00000000E+02  0.00000000E+00
  2.00000000E+01  1.80000000E+02  0.00000000E+00
  2.00000000E+01  1.60000000E+02  0.00000000E+00
  2.00000000E+01  1.40000000E+02  0.00000000E+00
  2.00000000E+01  1.20000000E+02  0.00000000E+00
  2.00000000E+01  1.00000000E+02  0.00000000E+00
  2.00000000E+01  8.00000000E+01  0.00000000E+00
  2.00000000E+01  6.00000000E+01  0.00000000E+00
  2.00000000E+01  4.00000000E+01  0.00000000E+00
  2.00000000E+01  2.00000000E+01  0.00000000E+00
  2.00000000E+01  4.99600361E-14  0.00000000E+00
  4.00000000E+01  3.00000000E+02  0.00000000E+00
  4.00000000E+01  2.80000000E+02  0.00000000E+00
  4.00000000E+01  2.60000000E+02  0.00000000E+00
  4.00000000E+01  2.40000000E+02  0.00000000E+00
  4.00000000E+01  2.20000000E+02  0.00000000E+00
  4.00000000E+01  2.00000000E+02  0.00000000E+00
  4.00000000E+01  1.80000000E+02  0.00000000E+00
  4.00000000E+01  1.60000000E+02  0.00000000E+00
  4.00000000E+01  1.40000000E+02  0.00000000E+00
  4.00000000E+01  1.20000000E+02  0.00000000E+00
  4.00000000E+01  1.00000000E+02  0.00000000E+00
  4.00000000E+01  8.00000000E+01  0.00000000E+00
  4.00000000E+01  6.00000000E+01  0.00000000E+00
  4.00000000E+01  4.00000000E+01  0.00000000E+00
  4.00000000E+01  2.00000000E+01  0.00000000E+00
  4.00000000E+01  4.99600361E-14  0.00000000E+00
  6.00000000E+01  3.00000000E+02  0.00000000E+00
  6.00000000E+01  2.80000000E+02  0.00000000E+00
  6.00000000E+01  2.60000000E+02  0.00000000E+00
  6.00000000E+01  2.40000000E+02  0.00000000E+00
  6.00000000E+01  2.20000000E+02  0.00000000E+00
  6.00000000E+01  2.00000000E+02  0.00000000E+00
  6.00000000E+01  1.80000000E+02  0.00000000E+00
  6.00000000E+01  1.60000000E+02  0.00000000E+00
  6.00000000E+01  1.40000000E+02  0.00000000E+00
  6.00000000E+01  1.20000000E+02  0.00000000E+00
  6.00000000E+01  1.00000000E+02  0.00000000E+00
  6.00000000E+01  8.00000000E+01  0.00000000E+00
  6.00000000E+01  6.00000000E+01  0.00000000E+00
  6.00000000E+01  4.00000000E+01  0.00000000E+00
  6.00000000E+01  2.00000000E+01  0.00000000E+00
  6.00000000E+01  4.99600361E-14  0.00000000E+00
  8.00000000E+01  3.00000000E+02  0.00000000E+00
  8.00000000E+01  2.80000000E+02  0.00000000E+00
  8.00000000E+01  2.60000000E+02  0.00000000E+00
  8.00000000E+01  2.40000000E+02  0.00000000E+00
  8.00000000E+01  2.20000000E+02  0.00000000E+00
  8.00000000E+01  2.00000000E+02  0.00000000E+00
  8.00000000E+01  1.80000000E+02  0.00000000E+00
  8.00000000E+01  1.60000000E+02  0.00000000E+00
  8.00000000E+01  1.40000000E+02  0.00000000E+00
  8.00000000E+01  1.20000000E+02  0.00000000E+00
  8.00000000E+01  1.00000000E+02  0.00000000E+00
  8.00000000E+01  8.00000000E+01  0.00000000E+00
  8.00000000E+01  6.00000000E+01  0.00000000E+00
  8.00000000E+01  4.00000000E+01  0.00000000E+00
  8.00000000E+01  2.00000000E+01  0.00000000E+00
  8.00000000E+01  4.99600361E-14  0.00000000E+00
  1.00000000E+02  3.00000000E+02  0.00000000E+00
  1.00000000E+02  2.80000000E+02  0.00000000E+00
  1.00000000E+02  2.60000000E+02  0.00000000E+00
  1.00000000E+02  2.40000000E+02  0.00000000E+00
  1.00000000E+02  2.20000000E+02  0.00000000E+00
  1.00000000E+02  2.00000000E+02  0.00000000E+00
  1.00000000E+02  1.80000000E+02  0.00000000E+00
  1.00000000E+02  1.60000000E+02  0.00000000E+00
  1.00000000E+02  1.40000000E+02  0.00000000E+00
  1.00000000E+02  1.20000000E+02  0.00000000E+00
  1.00000000E+02  1.00000000E+02  0.00000000E+00
  1.00000000E+02  8.00000000E+01  0.00000000E+00
  1.00000000E+02  6.00000000E+01  0.00000000E+00
  1.00000000E+02  4.00000000E+01  0.00000000E+00
  1.00000000E+02  2.00000000E+01  0.00000000E+00
  1.00000000E+02  4.99600361E-14  0.00000000E+00
  1.20000000E+02  3.00000000E+02  0.00000000E+00
  1.20000000E+02  2.80000000E+02  0.00000000E+00
  1.20000000E+02  2.60000000E+02  0.00000000E+00
  1.20000000E+02  2.40000000E+02  0.00000000E+00
  1.20000000E+02  2.20000000E+02  0.00000000E+00
  1.20000000E+02  2.00000000E+02  0.00000000E+00
  1.20000000E+02  1.80000000E+02  0.00000000E+00
  1.20000000E+02  1.60000000E+02  0.00000000E+00
  1.20000000E+02  1.40000000E+02  0.00000000E+00
  1.20000000E+02  1.20000000E+02  0.00000000E+00
  1.20000000E+02  1.00000000E+02  0.00000000E+00
  1.20000000E+02  8.00000000E+01  0.00000000E+00
  1.20000000E+02  6.00000000E+01  0.00000000E+00
  1.20000000E+02  4.00000000E+01  0.00000000E+00
  1.20000000E+02  2.00000000E+01  0.00000000E+00
  1.20000000E+02  4.99600361E-14  0.00000000E+00
  1.40000000E+02  3.00000000E+02  0.00000000E+00
  1.40000000E+02  2.80000000E+02  0.00000000E+00
  1.40000000E+02  2.60000000E+02  0.00000000E+00
  1.40000000E+02  2.40000000E+02  0.00000000E+00
  1.40000000E+02  2.20000000E+02  0.00000000E+00
  1.40000000E+02  2.00000000E+02  0.00000000E+00
  1.40000000E+02  1.80000000E+02  0.00000000E+00
  1.40000000E+02  1.60000000E+02  0.00000000E+00
  1.40000000E+02  1.40000000E+02  0.00000000E+00
  1.40000000E+02  1.20000000E+02  0.00000000E+00
  1.40000000E+02  1.00000000E+02  0.00000000E+00
  1.40000000E+02  8.00000000E+01  0.00000000E+00
  1.40000000E+02  6.00000000E+01  0.00000000E+00
  1.40000000E+02  4.00000000E+01  0.00000000E+00
  1.40000000E+02  2.00000000E+01  0.00000000E+00
  1.40000000E+02  4.99600361E-14  0.00000000E+00
  1.60000000E+02  3.00000000E+02  0.00000000E+00
  1.60000000E+02  2.80000000E+02  0.00000000E+00
  1.60000000E+02  2.60000000E+02  0.00000000E+00
  1.60000000E+02  2.40000000E+02  0.00000000E+00
  1.60000000E+02  2.20000000E+02  0.00000000E+00
  1.60000000E+02  2.00000000E+02  0.00000000E+00
  1.60000000E+02  1.80000000E+02  0.00000000E+00
  1.60000000E+02  1.60000000E+02  0.00000000E+00
  1.60000000E+02  1.40000000E+02  0.00000000E+00
  1.60000000E+02  1.20000000E+02  0.00000000E+00
  1.60000000E+02  1.00000000E+02  0.00000000E+00
  1.60000000E+02  8.00000000E+01  0.00000000E+00
  1.60000000E+02  6.00000000E+01  0.00000000E+00
  1.60000000E+02  4.00000000E+01  0.00000000E+00
  1.60000000E+02  2.00000000E+01  0.00000000E+00
  1.60000000E+02  4.99600361E-14  0.00000000E+00
  1.80000000E+02  3.00000000E+02  0.00000000E+00
  1.80000000E+02  2.80000000E+02  0.00000000E+00
  1.80000000E+02  2.60000000E+02  0.00000000E+00
  1.80000000E+02  2.40000000E+02  0.00000000E+00
  1.80000000E+02  2.20000000E+02  0.00000000E+00
  1.80000000E+02  2.00000000E+02  0.00000000E+00
  1.80000000E+02  1.80000000E+02  0.00000000E+00
  1.80000000E+02  1.60000000E+02  0.00000000E+00
  1.80000000E+02  1.40000000E+02  0.00000000E+00
  1.80000000E+02  1.20000000E+02  0.00000000E+00
  1.80000000E+02  1.00000000E+02  0.00000000E+00
  1.80000000E+02  8.00000000E+01  0.00000000E+00
  1.80000000E+02  6.00000000E+01  0.00000000E+00
  1.80000000E+02  4.00000000E+01  0.00000000E+00
  1.80000000E+02  2.00000000E+01  0.00000000E+00
  1.80000000E+02  4.99600361E-14  0.00000000E+00
  2.00000000E+02  3.00000000E+02  0.00000000E+00
  2.00000000E+02  2.80000000E+02  0.00000000E+00
  2.00000000E+02  2.60000000E+02  0.00000000E+00
  2.00000000E+02  2.40000000E+02  0.00000000E+00
  2.00000000E+02  2.20000000E+02  0.00000000E+00
  2.00000000E+02  2.00000000E+02  0.00000000E+00
  2.00000000E+02  1.80000000E+02  0.00000000E+00
  2.00000000E+02  1.60000000E+02  0.00000000E+00
  2.00000000E+02  1.40000000E+02  0.00000000E+00
  2.00000000E+02  1.20000000E+02  0.00000000E+00
  2.00000000E+02  1.00000000E+02  0.00000000E+00
  2.00000000E+02  8.00000000E+01  0.00000000E+00
  2.00000000E+02  6.00000000E+01  0.00000000E+00
  2.00000000E+02  4.00000000E+01  0.00000000E+00
  2.00000000E+02  2.00000000E+01  0.00000000E+00
  2.00000000E+02  4.99600361E-14  0.00000000E+00
  2.20000000E+02  3.00000000E+02  0.00000000E+00
  2.20000000E+02  2.80000000E+02  0.00000000E+00
  2.20000000E+02  2.60000000E+02  0.00000000E+00
  2.20000000E+02  2.40000000E+02  0.00000000E+00
  2.20000000E+02  2.20000000E+02  0.00000000E+00
  2.20000000E+02  2.00000000E+02  0.00000000E+00
  2.20000000E+02  1.80000000E+02  0.00000000E+00
  2.20000000E+02  1.60000000E+02  0.00000000E+00
  2.20000000E+02  1.40000000E+02  0.00000000E+00
  2.20000000E+02  1.20000000E+02  0.00000000E+00
  2.20000000E+02  1.00000000E+02  0.00000000E+00
  2.20000000E+02  8.00000000E+01  0.00000000E+00
  2.20000000E+02  6.00000000E+01  0.00000000E+00
  2.20000000E+02  4.00000000E+01  0.00000000E+00
  2.20000000E+02  2.00000000E+01  0.00000000E+00
  2.20000000E+02  4.99600361E-14  0.00000000E+00
  2.40000000E+02  3.00000000E+02  0.00000000E+00
  2.40000000E+02  2.80000000E+02  0.00000000E+00
  2.40000000E+02  2.60000000E+02  0.00000000E+00
  2.40000000E+02  2.40000000E+02  0.00000000E+00
  2.40000000E+02  2.20000000E+02  0.00000000E+00
  2.40000000E+02  2.00000000E+02  0.00000000E+00
  2.40000000E+02  1.80000000E+02  0.00000000E+00
  2.40000000E+02  1.60000000E+02  0.00000000E+00
  2.40000000E+02  1.40000000E+02  0.00000000E+00
  2.40000000E+02  1.20000000E+02  0.00000000E+00
  2.40000000E+02  1.00000000E+02  0.00000000E+00
  2.40000000E+02  8.00000000E+01  0.00000000E+00
  2.40000000E+02  6.00000000E+01  0.00000000E+00
  2.40000000E+02  4.00000000E+01  0.00000000E+00
  2.40000000E+02  2.00000000E+01  0.00000000E+00
  2.40000000E+02  4.99600361E-14  0.00000000E+00
  2.60000000E+02  3.00000000E+02  0.00000000E+00
  2.60000000E+02  2.80000000E+02  0.00000000E+00
  2.60000000E+02  2.60000000E+02  0.00000000E+00
  2.60000000E+02  2.40000000E+02  0.00000000E+00
  2.60000000E+02  2.20000000E+02  0.00000000E+00
  2.60000000E+02  2.00000000E+02  0.00000000E+00
  2.60000000E+02  1.80000000E+02  0.00000000E+00
  2.60000000E+02  1.60000000E+02  0.00000000E+00
  2.60000000E+02  1.40000000E+02  0.00000000E+00
  2.60000000E+02  1.20000000E+02  0.00000000E+00
  2.60000000E+02  1.00000000E+02  0.00000000E+00
  2.60000000E+02  8.00000000E+01  0.00000000E+00
  2.60000000E+02  6.00000000E+01  0.00000000E+00
  2.60000000E+02  4.00000000E+01  0.00000000E+00
  2.60000000E+02  2.00000000E+01  0.00000000E+00
  2.60000000E+02  4.99600361E-14  0.00000000E+00
  2.80000000E+02  3.00000000E+02  0.00000000E+00
  2.80000000E+02  2.80000000E+02  0.00000000E+00
  2.80000000E+02  2.60000000E+02  0.00000000E+00
  2.80000000E+02  2.40000000E+02  0.00000000E+00
  2.80000000E+02  2.20000000E+02  0.00000000E+00
  2.80000000E+02  2.00000000E+02  0.00000000E+00
  2.80000000E+02  1.80000000E+02  0.00000000E+00
  2.80000000E+02  1.60000000E+02  0.00000000E+00
  2.80000000E+02  1.40000000E+02  0.00000000E+00
  2.80000000E+02  1.20000000E+02  0.00000000E+00
  2.80000000E+02  1.00000000E+02  0.00000000E+00
  2.80000000E+02  8.00000000E+01  0.00000000E+00
  2.80000000E+02  6.00000000E+01  0.00000000E+00
  2.80000000E+02  4.00000000E+01  0.00000000E+00
  2.80000000E+02  2.00000000E+01  0.00000000E+00
  2.80000000E+02  4.99600361E-14  0.00000000E+00
  3.00000000E+02  3.00000000E+02  0.00000000E+00
  3.00000000E+02  2.80000000E+02  0.00000000E+00
  3.00000000E+02  2.60000000E+02  0.00000000E+00
  3.00000000E+02  2.40000000E+02  0.00000000E+00
  3.00000000E+02  2.20000000E+02  0.00000000E+00
  3.00000000E+02  2.00000000E+02  0.00000000E+00
  3.00000000E+02  1.80000000E+02  0.00000000E+00
  3.00000000E+02  1.60000000E+02  0.00000000E+00
  3.00000000E+02  1.40000000E+02  0.00000000E+00
  3.00000000E+02  1.20000000E+02  0.00000000E+00
  3.00000000E+02  1.00000000E+02  0.00000000E+00
  3.00000000E+02  8.00000000E+01  0.00000000E+00
  3.00000000E+02  6.00000000E+01  0.00000000E+00
  3.00000000E+02  4.00000000E+01  0.00000000E+00
  3.00000000E+02  2.00000000E+01  0.00000000E+00
  3.00000000E+02  4.99600361E-14  0.00000000E+00
  3.20000000E+02  3.00000000E+02  0.00000000E+00
  3.20000000E+02  2.80000000E+02  0.00000000E+00
  3.20000000E+02  2.60000000E+02  0.00000000E+00
  3.20000000E+02  2.40000000E+02  0.00000000E+00
  3.20000000E+02  2.20000000E+02  0.00000000E+00
  3.20000000E+02  2.00000000E+02  0.00000000E+00
  3.20000000E+02  1.80000000E+02  0.00000000E+00
  3.20000000E+02  1.60000000E+02  0.00000000E+00
  3.20000000E+02  1.40000000E+02  0.00000000E+00
  3.20000000E+02  1.20000000E+02  0.00000000E+00
  3.20000000E+02  1.00000000E+02  0.00000000E+00
  3.20000000E+02  8.00000000E+01  0.00000000E+00
  3.20000000E+02  6.00000000E+01  0.00000000E+00
  3.20000000E+02  4.00000000E+01  0.00000000E+00
  3.20000000E+02  2.00000000E+01  0.00000000E+00
  3.20000000E+02  4.99600361E-14  0.00000000E+00
  3.40000000E+02  3.00000000E+02  0.00000000E+00
  3.40000000E+02  2.80000000E+02  0.00000000E+00
  3.40000000E+02  2.60000000E+02  0.00000000E+00
  3.40000000E+02  2.40000000E+02  0.00000000E+00
  3.40000000E+02  2.20000000E+02  0.00000000E+00
  3.40000000E+02  2.00000000E+02  0.00000000E+00
  3.40000000E+02  1.80000000E+02  0.00000000E+00
  3.40000000E+02  1.60000000E+02  0.00000000E+00
  3.40000000E+02  1.40000000E+02  0.00000000E+00
  3.40000000E+02  1.20000000E+02  0.00000000E+00
  3.40000000E+02  1.00000000E+02  0.00000000E+00
  3.40000000E+02  8.00000000E+01  0.00000000E+00
  3.40000000E+02  6.00000000E+01  0.00000000E+00
  3.40000000E+02  4.00000000E+01  0.00000000E+00
  3.40000000E+02  2.00000000E+01  0.00000000E+00
  3.40000000E+02  4.99600361E-14  0.00000000E+00
  3.60000000E+02  3.00000000E+02  0.00000000E+00
  3.60000000E+02  2.80000000E+02  0.00000000E+00
  3.60000000E+02  2.60000000E+02  0.00000000E+00
  3.60000000E+02  2.40000000E+02  0.00000000E+00
  3.60000000E+02  2.20000000E+02  0.00000000E+00
  3.60000000E+02  2.00000000E+02  0.00000000E+00
  3.60000000E+02  1.80000000E+02  0.00000000E+00
  3.60000000E+02  1.60000000E+02  0.00000000E+00
  3.60000000E+02  1.40000000E+02  0.00000000E+00
  3.60000000E+02  1.20000000E+02  0.00000000E+00
  3.60000000E+02  1.00000000E+02  0.00000000E+00
  3.60000000E+02  8.00000000E+01  0.00000000E+00
  3.60000000E+02  6.00000000E+01  0.00000000E+00
  3.60000000E+02  4.00000000E+01  0.00000000E+00
  3.60000000E+02  2.00000000E+01  0.00000000E+00
  3.60000000E+02  4.99600361E-14  0.00000000E+00
  3.80000000E+02  3.00000000E+02  0.00000000E+00
  3.80000000E+02  2.80000000E+02  0.00000000E+00
  3.80000000E+02  2.60000000E+02  0.00000000E+00
  3.80000000E+02  2.40000000E+02  0.00000000E+00
  3.80000000E+02  2.20000000E+02  0.00000000E+00
  3.80000000E+02  2.00000000E+02  0.00000000E+00
  3.80000000E+02  1.80000000E+02  0.00000000E+00
  3.80000000E+02  1.60000000E+02  0.00000000E+00
  3.80000000E+02  1.40000000E+02  0.00000000E+00
  3.80000000E+02  1.20000000E+02  0.00000000E+00
  3.80000000E+02  1.00000000E+02  0.00000000E+00
  3.80000000E+02  8.00000000E+01  0.00000000E+00
  3.80000000E+02  6.00000000E+01  0.00000000E+00
  3.80000000E+02  4.00000000E+01  0.00000000E+00
  3.80000000E+02  2.00000000E+01  0.00000000E+00
  3.80000000E+02  4.99600361E-14  0.00000000E+00
  4.00000000E+02  3.00000000E+02  0.00000000E+00
  4.00000000E+02  2.80000000E+02  0.00000000E+00
  4.00000000E+02  2.60000000E+02  0.00000000E+00
  4.00000000E+02  2.40000000E+02  0.00000000E+00
  4.00000000E+02  2.20000000E+02  0.00000000E+00
  4.00000000E+02  2.00000000E+02  0.00000000E+00
  4.00000000E+02  1.80000000E+02  0.00000000E+00
  4.00000000E+02  1.60000000E+02  0.00000000E+00
  4.00000000E+02  1.40000000E+02  0.00000000E+00
  4.00000000E+02  1.20000000E+02  0.00000000E+00
  4.00000000E+02  1.00000000E+02  0.00000000E+00
  4.00000000E+02  8.00000000E+01  0.00000000E+00
  4.00000000E+02  6.00000000E+01  0.00000000E+00
  4.00000000E+02  4.00000000E+01  0.00000000E+00
  4.00000000E+02  2.00000000E+01  0.00000000E+00
  4.00000000E+02  4.99600361E-14  0.00000000E+00
  4.20000000E+02  3.00000000E+02  0.00000000E+00
  4.20000000E+02  2.80000000E+02  0.00000000E+00
  4.20000000E+02  2.60000000E+02  0.00000000E+00
  4.20000000E+02  2.40000000E+02  0.00000000E+00
  4.20000000E+02  2.20000000E+02  0.00000000E+00
  4.20000000E+02  2.00000000E+02  0.00000000E+00
  4.20000000E+02  1.80000000E+02  0.00000000E+00
  4.20000000E+02  1.60000000E+02  0.00000000E+00
  4.20000000E+02  1.40000000E+02  0.00000000E+00
  4.20000000E+02  1.20000000E+02  0.00000000E+00
  4.20000000E+02  1.00000000E+02  0.00000000E+00
  4.20000000E+02  8.00000000E+01  0.00000000E+00
  4.20000000E+02  6.00000000E+01  0.00000000E+00
  4.20000000E+02  4.00000000E+01  0.00000000E+00
  4.20000000E+02  2.00000000E+01  0.00000000E+00
  4.20000000E+02  4.99600361E-14  0.00000000E+00
  4.40000000E+02  3.00000000E+02  0.00000000E+00
  4.40000000E+02  2.80000000E+02  0.00000000E+00
  4.40000000E+02  2.60000000E+02  0.00000000E+00
  4.40000000E+02  2.40000000E+02  0.00000000E+00
  4.40000000E+02  2.20000000E+02  0.00000000E+00
  4.40000000E+02  2.00000000E+02  0.00000000E+00
  4.40000000E+02  1.80000000E+02  0.00000000E+00
  4.40000000E+02  1.60000000E+02  0.00000000E+00
  4.40000000E+02  1.40000000E+02  0.00000000E+00
  4.40000000E+02  1.20000000E+02  0.00000000E+00
  4.40000000E+02  1.00000000E+02  0.00000000E+00
  4.40000000E+02  8.00000000E+01  0.00000000E+00
  4.40000000E+02  6.00000000E+01  0.00000000E+00
  4.40000000E+02  4.00000000E+01  0.00000000E+00
  4.40000000E+02  2.00000000E+01  0.00000000E+00
  4.40000000E+02  4.99600361E-14  0.00000000E+00
  4.60000000E+02  3.00000000E+02  0.00000000E+00
  4.60000000E+02  2.80000000E+02  0.00000000E+00
  4.60000000E+02  2.60000000E+02  0.00000000E+00
  4.60000000E+02  2.40000000E+02  0.00000000E+00
  4.60000000E+02  2.20000000E+02  0.00000000E+00
  4.60000000E+02  2.00000000E+02  0.00000000E+00
  4.60000000E+02  1.80000000E+02  0.00000000E+00
  4.60000000E+02  1.60000000E+02  0.00000000E+00
  4.60000000E+02  1.40000000E+02  0.00000000E+00
  4.60000000E+02  1.20000000E+02  0.00000000E+00
  4.60000000E+02  1.00000000E+02  0.00000000E+00
  4.60000000E+02  8.00000000E+01  0.00000000E+00
  4.60000000E+02  6.00000000E+01  0.00000000E+00
  4.60000000E+02  4.00000000E+01  0.00000000E+00
  4.60000000E+02  2.00000000E+01  0.00000000E+00
  4.60000000E+02  4.99600361E-14  0.00000000E+00
  4.80000000E+02  3.00000000E+02  0.00000000E+00
  4.80000000E+02  2.80000000E+02  0.00000000E+00
  4.80000000E+02  2.60000000E+02  0.00000000E+00
  4.80000000E+02  2.40000000E+02  0.00000000E+00
  4.80000000E+02  2.20000000E+02  0.00000000E+00
  4.80000000E+02  2.00000000E+02  0.00000000E+00
  4.80000000E+02  1.80000000E+02  0.00000000E+00
  4.80000000E+02  1.60000000E+02  0.00000000E+00
  4.80000000E+02  1.40000000E+02  0.00000000E+00
  4.80000000E+02  1.20000000E+02  0.00000000E+00
  4.80000000E+02  1.00000000E+02  0.00000000E+00
  4.80000000E+02  8.00000000E+01  0.00000000E+00
  4.80000000E+02  6.00000000E+01  0.00000000E+00
  4.80000000E+02  4.00000000E+01  0.00000000E+00
  4.80000000E+02  2.00000000E+01  0.00000000E+00
  4.80000000E+02  4.99600361E-14  0.00000000E+00
  5.00000000E+02  3.00000000E+02  0.00000000E+00
  5.00000000E+02  2.80000000E+02  0.00000000E+00
  5.00000000E+02  2.60000000E+02  0.00000000E+00
  5.00000000E+02  2.40000000E+02  0.00000000E+00
  5.00000000E+02  2.20000000E+02  0.00000000E+00
  5.00000000E+02  2.00000000E+02  0.00000000E+00
  5.00000000E+02  1.80000000E+02  0.00000000E+00
  5.00000000E+02  1.60000000E+02  0.00000000E+00
  5.00000000E+02  1.40000000E+02  0.00000000E+00
  5.00000000E+02  1.20000000E+02  0.00000000E+00
  5.00000000E+02  1.00000000E+02  0.00000000E+00
  5.00000000E+02  8.00000000E+01  0.00000000E+00
  5.00000000E+02  6.00000000E+01  0.00000000E+00
  5.00000000E+02  4.00000000E+01  0.00000000E+00
  5.00000000E+02  2.00000000E+01  0.00000000E+00
  5.00000000E+02  4.99600361E-14  0.00000000E+00
  5.20000000E+02  3.00000000E+02  0.00000000E+00
  5.20000000E+02  2.80000000E+02  0.00000000E+00
  5.20000000E+02  2.60000000E+02  0.00000000E+00
  5.20000000E+02  2.40000000E+02  0.00000000E+00
  5.20000000E+02  2.20000000E+02  0.00000000E+00
  5.20000000E+02  2.00000000E+02  0.00000000E+00
  5.20000000E+02  1.80000000E+02  0.00000000E+00
  5.20000000E+02  1.60000000E+02  0.00000000E+00
  5.20000000E+02  1.40000000E+02  0.00000000E+00
  5.20000000E+02  1.20000000E+02  0.00000000E+00
  5.20000000E+02  1.00000000E+02  0.00000000E+00
  5.20000000E+02  8.00000000E+01  0.00000000E+00
  5.20000000E+02  6.00000000E+01  0.00000000E+00
  5.20000000E+02  4.00000000E+01  0.00000000E+00
  5.20000000E+02  2.00000000E+01  0.00000000E+00
  5.20000000E+02  4.99600361E-14  0.00000000E+00
  5.40000000E+02  3.00000000E+02  0.00000000E+00
  5.40000000E+02  2.80000000E+02  0.00000000E+00
  5.40000000E+02  2.60000000E+02  0.00000000E+00
  5.40000000E+02  2.40000000E+02  0.00000000E+00
  5.40000000E+02  2.20000000E+02  0.00000000E+00
  5.40000000E+02  2.00000000E+02  0.00000000E+00
  5.40000000E+02  1.80000000E+02  0.00000000E+00
  5.40000000E+02  1.60000000E+02  0.00000000E+00
  5.40000000E+02  1.40000000E+02  0.00000000E+00
  5.40000000E+02  1.20000000E+02  0.00000000E+00
  5.40000000E+02  1.00000000E+02  0.00000000E+00
  5.40000000E+02  8.00000000E+01  0.00000000E+00
  5.40000000E+02  6.00000000E+01  0.00000000E+00
  5.40000000E+02  4.00000000E+01  0.00000000E+00
  5.40000000E+02  2.00000000E+01  0.00000000E+00
  5.40000000E+02  4.99600361E-14  0.00000000E+00
  5.60000000E+02  3.00000000E+02  0.00000000E+00
  5.60000000E+02  2.80000000E+02  0.00000000E+00
  5.60000000E+02  2.60000000E+02  0.00000000E+00
  5.60000000E+02  2.40000000E+02  0.00000000E+00
  5.60000000E+02  2.20000000E+02  0.00000000E+00
  5.60000000E+02  2.00000000E+02  0.00000000E+00
  5.60000000E+02  1.80000000E+02  0.00000000E+00
  5.60000000E+02  1.60000000E+02  0.00000000E+00
  5.60000000E+02  1.40000000E+02  0.00000000E+00
  5.60000000E+02  1.20000000E+02  0.00000000E+00
  5.60000000E+02  1.00000000E+02  0.00000000E+00
  5.60000000E+02  8.00000000E+01  0.00000000E+00
  5.60000000E+02  6.00000000E+01  0.00000000E+00
  5.60000000E+02  4.00000000E+01  0.00000000E+00
  5.60000000E+02  2.00000000E+01  0.00000000E+00
  5.60000000E+02  4.99600361E-14  0.00000000E+00
  5.80000000E+02  3.00000000E+02  0.00000000E+00
  5.80000000E+02  2.80000000E+02  0.00000000E+00
  5.80000000E+02  2.60000000E+02  0.00000000E+00
  5.80000000E+02  2.40000000E+02  0.00000000E+00
  5.80000000E+02  2.20000000E+02  0.00000000E+00
  5.80000000E+02  2.00000000E+02  0.00000000E+00
  5.80000000E+02  1.80000000E+02  0.00000000E+00
  5.80000000E+02  1.60000000E+02  0.00000000E+00
  5.80000000E+02  1.40000000E+02  0.00000000E+00
  5.80000000E+02  1.20000000E+02  0.00000000E+00
  5.80000000E+02  1.00000000E+02  0.00000000E+00
  5.80000000E+02  8.00000000E+01  0.00000000E+00
  5.80000000E+02  6.00000000E+01  0.00000000E+00
  5.80000000E+02  4.00000000E+01  0.00000000E+00
  5.80000000E+02  2.00000000E+01  0.00000000E+00
  5.80000000E+02  4.99600361E-14  0.00000000E+00
  6.00000000E+02  3.00000000E+02  0.00000000E+00
  6.00000000E+02  2.80000000E+02  0.00000000E+00
  6.00000000E+02  2.60000000E+02  0.00000000E+00
  6.00000000E+02  2.40000000E+02  0.00000000E+00
  6.00000000E+02  2.20000000E+02  0.00000000E+00
  6.00000000E+02  2.00000000E+02  0.00000000E+00
  6.00000000E+02  1.80000000E+02  0.00000000E+00
  6.00000000E+02  1.60000000E+02  0.00000000E+00
  6.00000000E+02  1.40000000E+02  0.00000000E+00
  6.00000000E+02  1.20000000E+02  0.00000000E+00
  6.00000000E+02  1.00000000E+02  0.00000000E+00
  6.00000000E+02  8.00000000E+01  0.00000000E+00
  6.00000000E+02  6.00000000E+01  0.00000000E+00
  6.00000000E+02  4.00000000E+01  0.00000000E+00
  6.00000000E+02  2.00000000E+01  0.00000000E+00
  6.00000000E+02  4.99600361E-14  0.00000000E+00
CELLS       450      2250
         4           0           1          17          16
         4           1           2          18          17
         4           2           3          19          18
         4           3           4          20          19
         4           4           5          21          20
         4           5           6          22          21
         4           6           7          23          22
         4           7           8          24          23
         4           8           9          25          24
         4           9          10          26          25
         4          10          11          27          26
         4          11          12          28          27
         4          12          13          29          28
         4          13          14          30          29
         4          14          15          31          30
         4          16          17          33          32
         4          17          18          34          33
         4          18          19          35          34
         4          19          20          36          35
         4          20          21          37          36
         4          21          22          38          37
         4          22          23          39          38
         4          23          24          40          39
         4          24          25          41          40
         4          25          26          42          41
         4          26          27          43          42
         4          27          28          44          43
         4          28          29          45          44
         4          29          30          46          45
         4          30          31          47          46
         4          32          33          49          48
         4          33          34          50          49
         4          34          35          51          50
         4          35          36          52          51
         4          36          37          53          52
         4          37          38          54          53
         4          38          39          55          54
         4          39          40          56          55
         4          40          41          57          56
         4          41          42          58          57
         4          42          43          59          58
         4          43          44          60          59
         4          44          45          61          60
         4          45          46          62          61
         4          46          47          63          62
         4          48          49          65          64
         4          49          50          66          65
         4          50          51          67          66
         4          51          52          68          67
         4          52          53          69          68
         4          53          54          70          69
         4          54          55          71          70
         4          55          56          72          71
         4          56          57          73          72
         4          57          58          74          73
         4          58          59          75          74
         4          59          60          76          75
         4          60          61          77          76
         4          61          62          78          77
         4          62          63          79          78
         4          64          65          81          80
         4          65          66          82          81
         4          66          67          83          82
         4          67          68          84          83
         4          68          69          85          84
         4          69          70          86          85
         4          70          71          87          86
         4          71          72          88          87
         4          72          73          89          88
         4          73          74          90          89
         4          74          75          91          90
         4          75          76          92          91
         4          76          77          93          92
         4          77          78          94          93
         4          78          79          95          94
         4          80          81          97          96
         4          81          82          98          97
         4          82          83          99          98
         4          83          84         100          99
         4          84          85         101         100
         4          85          86         102         101
         4          86          87         103         102
         4          87          88         104         103
         4          88          89         105         104
         4          89          90         106         105
         4          90          91         107         106
         4          91          92         108         107
         4          92          93         109         108
         4          93          94         110         109
         4          94          95         111         110
         4          96          97         113         112
         4          97          98         114         113
         4          98          99         115         114
         4          99         100         116         115
         4         100         101         117         116
         4         101         102         118         117
         4         102         103         119         118
         4         103         104         120         119
         4         104         105         121         120
         4         105         106         122         121
         4         106         107         123         122
         4         107         108         124         123
         4         108         109         125         124
         4         109         110         126         125
         4         110         111         127         126
         4         112         113         129         128
         4         113         114         130         129
         4         114         115         131         130
         4         115         116         132         131
         4         116         117         133         132
         4         117         118         134         133
         4         118         119         135         134
         4         119         120         136         135
         4         120         121         137         136
         4         121         122         138         137
         4         122         123         139         138
         4         123         124         140         139
         4         124         125         141         140
         4         125         126         142         141
         4         126         127         143         142
         4         128         129         145         144
         4         129         130         146         145
         4         130         131         147         146
         4         131         132         148         147
         4         132         133         149         148
         4         133         134         150         149
         4         134         135         151         150
         4         135         136         152         151
         4         136         137         153         152
         4         137         138         154         153
         4         138         139         155         154
         4         139         140         156         155
         4         140         141         157         156
         4         141         142         158         157
         4         142         143         159         158
         4         144         145         161         160
         4         145         146         162         161
         4         146         147         163         162
         4         147         148         164         163
         4         148         149         165         164
         4         149         150         166         165
         4         150         151         167         166
         4         151         152         168         167
         4         152         153         169         168
         4         153         154         170         169
         4         154         155         171         170
         4         155         156         172         171
         4         156         157         173         172
         4         157         158         174         173
         4         158         159         175         174
         4         160         161         177         176
         4         161         162         178         177
         4         162         163         179         178
         4         163         164         180         179
         4         164         165         181         180
         4         165         166         182         181
         4         166         167         183         182
         4         167         168         184         183
         4         168         169         185         184
         4         169         170         186         185
         4         170         171         187         186
         4         171         172         188         187
         4         172         173         189         188
         4         173         174         190         189
         4         174         175         191         190
         4         176         177         193         192
         4         177         178         194         193
         4         178         179         195         194
         4         179         180         196         195
         4         180         181         197         196
         4         181         182         198         197
         4         182         183         199         198
         4         183         184         200         199
         4         184         185         201         200
         4         185         186         202         201
         4         186         187         203         202
         4         187         188         204         203
         4         188         189         205         204
         4         189         190         206         205
         4         190         191         207         206
         4         192         193         209         208
         4         193         194         210         209
         4         194         195         211         210
         4         195         196         212         211
         4         196         197         213         212
         4         197         198         214         213
         4         198         199         215         214
         4         199         200         216         215
         4         200         201         217         216
         4         201         202         218         217
         4         202         203         219         218
         4         203         204         220         219
         4         204         205         221         220
         4         205         206         222         221
         4         206         207         223         222
         4         208         209         225         224
         4         209         210         226         225
         4         210         211         227         226
         4         211         212         228         227
         4         212         213         229         228
         4         213         214         230         229
         4         214         215         231         230
         4         215         216         232         231
         4         216         217         233         232
         4         217         218         234         233
         4         218         219         235         234
         4         219         220         236         235
         4         220         221         237         236
         4         221         222         238         237
         4         222         223         239         238
         4         224         225         241         240
         4         225         226         242         241
         4         226         227         243         242
         4         227         228         244         243
         4         228         229         245         244
         4         229         230         246         245
         4         230         231         247         246
         4         231         232         248         247
         4         232         233         249         248
         4         233         234         250         249
         4         234         235         251         250
         4         235         236         252         251
         4         236         237         253         252
         4         237         238         254         253
         4         238         239         255         254
         4         240         241         257         256
         4         241         242         258         257
         4         242         243         259         258
         4         243         244         260         259
         4         244         245         261         260
         4         245         246         262         261
         4         246         247         263         262
         4         247         248         264         263
         4         248         249         265         264
         4         249         250         266         265
         4         250         251         267         266
         4         251         252         268         267
         4         252         253         269         268
         4         253         254         270         269
         4         254         255         271         270
         4         256         257         273         272
         4         257         258         274         273
         4         258         259         275         274
         4         259         260         276         275
         4         260         261         277         276
         4         261         262         278         277
         4         262         263         279         278
         4         263         264         280         279
         4         264         265         281         280
         4         265         266         282         281
         4         266         267         283         282
         4         267         268         284         283
         4         268         269         285         284
         4         269         270         286         285
         4         270         271         287         286
         4         272         273         289         288
         4         273         274         290         289
         4         274         275         291         290
         4         275         276         292         291
         4         276         277         293         292
         4         277         278         294         293
         4         278         279         295         294
         4         279         280         296         295
         4         280         281         297         296
         4         281         282         298         297
         4         282         283         299         298
         4         283         284         300         299
         4         284         285         301         300
         4         285         286         302         301
         4         286         287         303         302
         4         288         289         305         304
         4         289         290         306         305
         4         290         291         307         306
         4         291         292         308         307
         4         292         293         309         308
         4         293         294         310         309
         4         294         295         311         310
         4         295         296         312         311
         4         296         297         313         312
         4         297         298         314         313
         4         298         299         315         314
         4         299         300         316         315
         4         300         301         317         316
         4         301         302         318         317
         4         302         303         319         318
         4         304         305         321         320
         4         305         306         322         321
         4         306         307         323         322
         4         307         308         324         323
         4         308         309         325         324
         4         309         310         326         325
         4         310         311         327         326
         4         311         312         328         327
         4         312         313         329         328
         4         313         314         330         329
         4         314         315         331         330
         4         315         316         332         331
         4         316         317         333         332
         4         317         318         334         333
         4         318         319         335         334
         4         320         321         337         336
         4         321         322         338         337
         4         322         323         339         338
         4         323         324         340         339
         4         324         325         341         340
         4         325         326         342         341
         4         326         327         343         342
         4         327         328         344         343
         4         328         329         345         344
         4         329         330         346         345
         4         330         331         347         346
         4         331         332         348         347
         4         332         333         349         348
         4         333         334         350         349
         4         334         335         351         350
         4         336         337         353         352
         4         337         338         354         353
         4         338         339         355         354
         4         339         340         356         355
         4         340         341         357         356
         4         341         342         358         357
         4         342         343         359         358
         4         343         344         360         359
         4         344         345         361         360
         4         345         346         362         361
         4         346         347         363         362
         4         347         348         364         363
         4         348         349         365         364
         4         349         350         366         365
         4         350         351         367         366
         4         352         353         369         368
         4         353         354         370         369
         4         354         355         371         370
         4         355         356         372         371
         4         356         357         373         372
         4         357         358         374         373
         4         358         359         375         374
         4         359         360         376         375
         4         360         361         377         376
         4         361         362         378         377
         4         362         363         379         378
         4         363         364         380         379
         4         364         365         381         380
         4         365         366         382         381
         4         366         367         383         382
         4         368         369         385         384
         4         369         370         386         385
         4         370         371         387         386
         4         371         372         388         387
         4         372         373         389         388
         4         373         374         390         389
         4         374         375         391         390
         4         375         376         392         391
         4         376         377         393         392
         4         377         378         394         393
         4         378         379         395         394
         4         379         380         396         395
         4         380         381         397         396
         4         381         382         398         397
         4         382         383         399         398
         4         384         385         401         400
         4         385         386         402         401
         4         386         387         403         402
         4         387         388         404         403
         4         388         389         405         404
         4         389         390         406         405
         4         390         391         407         406
         4         391         392         408         407
         4         392         393         409         408
         4         393         394         410         409
         4         394         395         411         410
         4         395         396         412         411
         4         396         397         413         412
         4         397         398         414         413
         4         398         399         415         414
         4         400         401         417         416
         4         401         402         418         417
         4         402         403         419         418
         4         403         404         420         419
         4         404         405         421         420
         4         405         406         422         421
         4         406         407         423         422
         4         407         408         424         423
         4         408         409         425         424
         4         409         410         426         425
         4         410         411         427         426
         4         411         412         428         427
         4         412         413         429         428
         4         413         414         430         429
         4         414         415         431         430
         4         416         417         433         432
         4         417         418         434         433
         4         418         419         435         434
         4         419         420         436         435
         4         420         421         437         436
         4         421         422         438         437
         4         422         423         439         438
         4         423         424         440         439
         4         424         425         441         440
         4         425         426         442         441
         4         426         427         443         442
         4         427         428         444         443
         4         428         429         445         444
         4         429         430         446         445
         4         430         431         447         446
         4         432         433         449         448
         4         433         434         450         449
         4         434         435         451         450
         4         435         436         452         451
         4         436         437         453         452
         4         437         438         454         453
         4         438         439         455         454
         4         439         440         456         455
         4         440         441         457         456
         4         441         442         458         457
         4         442         443         459         458
         4         443         444         460         459
         4         444         445         461         460
         4         445         446         462         461
         4         446         447         463         462
         4         448         449         465         464
         4         449         450         466         465
         4         450         451         467         466
         4         451         452         468         467
         4         452         453         469         468
         4         453         454         470         469
         4         454         455         471         470
         4         455         456         472         471
         4         456         457         473         472
         4         457         458         474         473
         4         458         459         475         474
         4         459         460         476         475
         4         460         461         477         476
         4         461         462         478         477
         4         462         463         479         478
         4         464         465         481         480
         4         465         466         482         481
         4         466         467         483         482
         4         467         468         484         483
         4         468         469         485         484
         4         469         470         486         485
         4         470         471         487         486
         4         471         472         488         487
         4         472         473         489         488
         4         473         474         490         489
         4         474         475         491         490
         4         475         476         492         491
         4         476         477         493         492
         4         477         478         494         493
         4         478         479         495         494
CELL_TYPES        450
9
9
9
9
9
9
9
9
9
9
9
9
9
9
9
9
9
9
9
9
9
9
9
9
9
9
9
9
9
9
9
9
9
9
9
9
9
9
9
9
9
9
9
9
9
9
9
9
9
9
9
9
9
9
9
9
9
9
9
9
9
9
9
9
9
9
9
9
9
9
9
9
9
9
9
9
9
9
9
9
9
9
9
9
9
9
9
9
9
9
9
9
9
9
9
9
9
9
9
9
9
9
9
9
9
9
9
9
9
9
9
9
9
9
9
9
9
9
9
9
9
9
9
9
9
9
9
9
9
9
9
9
9
9
9
9
9
9
9
9
9
9
9
9
9
9
9
9
9
9
9
9
9
9
9
9
9
9
9
9
9
9
9
9
9
9
9
9
9
9
9
9
9
9
9
9
9
9
9
9
9
9
9
9
9
9
9
9
9
9
9
9
9
9
9
9
9
9
9
9
9
9
9
9
9
9
9
9
9
9
9
9
9
9
9
9
9
9
9
9
9
9
9
9
9
9
9
9
9
9
9
9
9
9
9
9
9
9
9
9
9
9
9
9
9
9
9
9
9
9
9
9
9
9
9
9
9
9
9
9
9
9
9
9
9
9
9
9
9
9
9
9
9
9
9
9
9
9
9
9
9
9
9
9
9
9
9
9
9
9
9
9
9
9
9
9
9
9
9
9
9
9
9
9
9
9
9
9
9
9
9
9
9
9
9
9
9
9
9
9
9
9
9
9
9
9
9
9
9
9
9
9
9
9
9
9
9
9
9
9
9
9
9
9
9
9
9
9
9
9
9
9
9
9
9
9
9
9
9
9
9
9
9
9
9
9
9
9
9
9
9
9
9
9
9
9
9
9
9
9
9
9
9
9
9
9
9
9
9
9
9
9
9
9
9
9
9
9
9
9
9
9
9
9
9
9
9
9
9
9
9
9
9
9
9
9
9
9
9
9
9
9
9
9
9
9
9
9
9
9
9
9
9
9
9
9
9
9
9
9
9
9
9
9
9
9
9
9
9
9
POINT_DATA       496
SCALARS p double 
LOOKUP_TABLE default
   58579751.0581521     
   58588229.6271076     
   58610975.7964221     
   58644271.8349130     
   58685102.5058486     
   58731113.0162045     
   58780377.3638955     
   58831228.5684806     
   58882199.9132296     
   58932031.1051895     
   58979690.3020745     
   59024352.2198706     
   59065186.9141967     
   59100703.1967687     
   59127522.7223474     
   59139115.1736413     
   58573722.3563922     
   58582509.8058693     
   58605954.1580104     
   58640111.1918305     
   58681840.7911402     
   58728724.0041167     
   58778800.6925902     
   58830381.9294085     
   58881982.9916992     
   58932326.4142263     
   58980363.0336803     
   59025251.0474900     
   59066151.2254149     
   59101587.8550602     
   59128249.4680560     
   59139737.2368346     
   58557375.3595112     
   58567066.9515667     
   58592606.5402608     
   58629367.7059066     
   58673818.8886776     
   58723342.0794323     
   58775874.8346124     
   58829663.7137229     
   58883171.0593723     
   58935068.6681316     
   58984255.9436683     
   59029841.7320139     
   59070957.9297160     
   59106170.8546248     
   59132362.2715521     
   59143537.3345388     
   58530717.1855344     
   58541916.7253205     
   58570994.8097084     
   58612175.8525553     
   58661243.6501876     
   58715237.3796643     
   58771925.5385686     
   58829451.2381480     
   58886192.0555573     
   58940737.7699713     
   58991903.7955308     
   59038717.3671516     
   59080259.7291227     
   59115156.8994476     
   59140595.7105428     
   59151249.2347246     
   58493542.3178035     
   58506921.7235134     
   58541107.2096693     
   58588650.1633213     
   58644342.7172286     
   58704736.1276214     
   58767366.9372606     
   58830241.1408354     
   58891624.4680549     
   58949997.0995766     
   59004060.4195519     
   59052728.6876401     
   59095008.6058481     
   59129596.0185902     
   59154078.5197255     
   59164036.3697176     
   58445589.9219500     
   58461903.4758759     
   58502918.9024601     
   58558923.0753539     
   58623390.7382795     
   58692238.7686455     
   58762713.5034089     
   58832656.5159664     
   58900200.7851010     
   58963694.4283629     
   59021698.2825094     
   59072983.4985385     
   59116456.1750053     
   59150884.3484065     
   59174332.6847151     
   59183484.2940812     
   58386739.4846785     
   58406806.4278816     
   58456521.0578120     
   58523254.9236014     
   58598808.5967811     
   58678310.9256568     
   58758663.7005863     
   58837524.2249545     
   58912879.6757730     
   58982930.4992541     
   59046075.3532039     
   59100913.9105586     
   59146222.3524487     
   59180831.0366530     
   59203329.0440284     
   59211641.9560148     
   58317039.2732364     
   58341746.5840188     
   58402186.0241994     
   58482099.9911915     
   58571223.7404808     
   58663735.8869112     
   58756144.0744844     
   58845910.9545227     
   58930875.1525582     
   59009083.1927745     
   59078756.9727591     
   59138299.2969953     
   59186322.7836566     
   59221692.2141016     
   59243527.1768421     
   59251063.4841528     
   58236698.8426585     
   58267016.4474892     
   58340383.2490002     
   58436123.2766811     
   58541481.0197615     
   58649516.2889979     
   58756300.5285980     
   58859104.0452337     
   58955628.0070228     
   59043771.7957032     
   59121576.4540729     
   59187228.0041512     
   59239137.5964914     
   59276153.3613392     
   59297876.0148059     
   59304821.7775784     
   58146142.3333520     
   58183129.2386344     
   58271810.8957614     
   58386220.8075174     
   58510651.3405043     
   58636870.0206521     
   58760480.5226442     
   58878579.7303535     
   58988761.0015369     
   59088801.5776551     
   59176573.2000398     
   59250034.8948328     
   59307355.6140820     
   59347287.4621982     
   59369789.7697059     
   59376495.8502529     
   58046093.3730544     
   58090894.1343809     
   58197454.7916089     
   58333562.4394073     
   58480058.7179940     
   58627240.7956774     
   58770225.8459717     
   58905977.2251481     
   59032034.7243958     
   59146103.8251854     
   59245921.6154646     
   59329226.0631159     
   59393903.2909071     
   59438496.0442252     
   59463104.4932397     
   59470136.4005442     
   57937661.2072215     
   57991497.7803650     
   58118659.0160963     
   58279648.6105367     
   58451320.9776293     
   58622319.8792643     
   58787272.1013565     
   58943073.4538302     
   59087296.9175799     
   59217661.8279424     
   59331838.9580430     
   59427376.8658493     
   59501843.4612096     
   59553418.9304854     
   59582004.0931856     
   59590201.8095567     
   57822423.2096713     
   57886584.5149950     
   58037200.2867664     
   58226375.5044717     
   58426400.8033816     
   58624076.5792655     
   58813551.9010997     
   58991753.5687809     
   59156417.7352624     
   59305412.1164969     
   59436458.2084683     
   59546986.5336035     
   59634225.2763287     
   59695793.5692560     
   59730897.5385807     
   59741447.4158694     
   57702499.8863399     
   57778332.2993654     
   57955365.7211852     
   58176111.2692383     
   58407671.9658496     
   58634802.8216567     
   58851205.7845754     
   59053978.4888059     
   59241208.3494635     
   59411113.9523617     
   59561654.3512212     
   59690273.4124736     
   59793865.8126347     
   59869242.0257891     
   59914224.1870506     
   59928744.6974498     
   57580614.4573397     
   57669520.0333406     
   57876036.3505494     
   58131791.6744308     
   58398012.4834806     
   58657183.8419347     
   58902610.5514738     
   59131754.9760389     
   59343323.0701063     
   59536181.1450433     
   59708811.6679622     
   59858892.0788666     
   59983039.0551968     
   60076957.3728611     
   60136156.9398911     
   60156799.6256868     
   57460129.1548496     
   57563583.4945808     
   57802783.7997373     
   58097051.4873725     
   58400945.3132074     
   58694415.0220115     
   58970440.8852558     
   59227117.9112820     
   59464147.3183349     
   59681470.4166241     
   59878517.4458200     
   60053548.6504940     
   60203040.3022166     
   60321251.4538116     
   60400162.2416315     
   60429728.8219128     
   57345053.5122577     
   57464663.0005664     
   57739998.4142879     
   58076422.0835897     
   58420861.4204181     
   58750396.5573542     
   59057788.3381241     
   59342139.6265492     
   59604676.7281555     
   59847021.3568212     
   60070165.5280661     
   60273484.7685697     
   60453583.7368615     
   60602911.9617057     
   60708360.1252662     
   60750436.3273618     
   57240029.1021354     
   57377660.6563795     
   57693089.7498433     
   58075651.7821055     
   58463383.1675046     
   58830054.2139522     
   59168371.8463010     
   59478987.0376289     
   59765396.5691097     
   60031745.5494126     
   60281452.7929380     
   60515794.7535011     
   60731977.1198072     
   60920295.4806031     
   61060601.9983997     
   61119707.8340862     
   57150325.7148324     
   57308357.1632665     
   57668840.9677466     
   58102247.5868936     
   58535959.3338430     
   58939853.8506174     
   59306881.7133807     
   59640049.6981748     
   59946173.0057940     
   60233066.1345593     
   60507753.5298238     
   60774534.1735982     
   61031996.9524806     
   61268046.5547652     
   61453136.7500679     
   61534890.4872277     
   57081902.1134730     
   57263683.9219668     
   57676075.1804147     
   58166418.7729569     
   58648841.7626055     
   59088604.1093234     
   59479503.9787009     
   59828161.1098262     
   60146172.5982463     
   60446522.4441762     
   60741372.1265348     
   61039581.5992655     
   61342362.6301576     
   61635270.2318280     
   61876642.2712791     
   61987923.4227762     
   57041702.4126860     
   57252427.0300554     
   57727004.2001611     
   58282775.3909371     
   58816684.6139673     
   59288661.5080578     
   59694657.5769256     
   60046920.7172859     
   60363831.1562223     
   60665383.3235616     
   60970716.8034379     
   61295243.8900539     
   61644683.4851307     
   62002872.3351609     
   62313196.7759948     
   62462241.7834014     
   57038951.9471970     
   57286975.9064579     
   57839869.7975455     
   58473280.1717172     
   59061019.5345205     
   59557562.3345046     
   59963846.1081367     
   60301006.3739099     
   60596820.0078463     
   60880292.5607200     
   61179454.1470639     
   61518604.5375985     
   61910674.5908914     
   62339520.5590082     
   62731281.7802694     
   62927496.5171114     
   57086942.0145011     
   57386263.3574871     
   58044031.3599521     
   58772700.0739764     
   59414312.3337175     
   59920252.7172181     
   60302540.3188894     
   60596398.8449026     
   60842080.7737234     
   61079199.9598854     
   61346013.6207225     
   61677916.2808573     
   62098554.2408750     
   62595342.5763637     
   63076897.2599631     
   63329597.2534516     
   57204302.9512753     
   57584697.0734797     
   58394658.1238236     
   59241297.0602221     
   59927305.7725769     
   60411864.0490437     
   60730543.1670610     
   60940146.1891068     
   61095960.1460168     
   61248047.6728050     
   61444271.4931687     
   61731937.8935313     
   62148919.9214638     
   62691930.4974324     
   63256474.0228161     
   63569466.5500905     
   57451938.1447732     
   57979127.9400760     
   59010605.1479240     
   59980512.7205497     
   60666497.8787458     
   61065780.5361957     
   61257346.5324096     
   61326456.7712282     
   61342338.9618004     
   61361144.2235118     
   61435555.6007099     
   61621678.4395089     
   61972363.4358661     
   62499956.8907184     
   63099100.2085277     
   63453441.0808475     
   58084749.4628208     
   58824740.3077629     
   60073222.4112921     
   61061822.5748473     
   61612497.6696927     
   61806075.6994974     
   61778480.7003717     
   61639156.0234783     
   61461099.4609457     
   61295559.6881769     
   61189257.2172064     
   61196938.9572395     
   61378992.1284866     
   61764042.2550363     
   62265677.5255990     
   62585002.4808998     
   59559409.1813983     
   60351194.4284650     
   61458713.7907826     
   62105805.1424020     
   62253480.6212634     
   62070853.5006739     
   61723736.0959670     
   61317286.9730040     
   60906583.3362351     
   60521520.2289764     
   60187819.4955108     
   59941786.6960063     
   59832010.6072154     
   59889140.8674052     
   60062916.0406544     
   60186338.1293814     
   61258092.0967702     
   61466663.7050278     
   61585320.9669955     
   61336371.1518174     
   60795567.8572357     
   60114813.9162224     
   59409937.9829245     
   58736690.3252463     
   58108611.4991121     
   57520831.1404786     
   56966893.1261390     
   56449528.5739592     
   55982467.5656538     
   55574334.2346312     
   55208928.7611809     
   54959243.7177636     
   58564305.9740581     
   57628472.0070388     
   56205472.3511253     
   54886963.7713078     
   53697801.9397268     
   52638468.2230175     
   51712600.4215957     
   50904192.3869482     
   50181585.5660494     
   49508476.4375400     
   48850765.4215095     
   48179657.0462597     
   47470663.5973937     
   46701811.2906900     
   45894559.2614930     
   45306461.9302076     
   42905316.8751262     
   41641988.4874972     
   39757538.2223090     
   38251860.4461141     
   37084715.8880602     
   36156141.8443278     
   35401806.0056752     
   34771978.7640865     
   34222417.1062854     
   33713550.1775610     
   33209697.9882120     
   32677336.3975545     
   32083046.8111258     
   31401068.5737699     
   30682489.7703129     
   30262299.7996438     
   10500000.0000000     
   10500000.0000000     
   10500000.0000000     
   10500000.0000000     
   10500000.0000000     
   10500000.0000000     
   10500000.0000000     
   10500000.0000000     
   10500000.0000000     
   10500000.0000000     
   10500000.0000000     
   10500000.0000000     
   10500000.0000000     
   10500000.0000000     
   10500000.0000000     
   10500000.0000000     
VECTORS u double 
    0.00000E+00        -0.55212E-01         0.00000E+00
    0.00000E+00        -0.48156E-01         0.00000E+00
    0.00000E+00        -0.41284E-01         0.00000E+00
    0.00000E+00        -0.34751E-01         0.00000E+00
    0.00000E+00        -0.28677E-01         0.00000E+00
    0.00000E+00        -0.23152E-01         0.00000E+00
    0.00000E+00        -0.18233E-01         0.00000E+00
    0.00000E+00        -0.13953E-01         0.00000E+00
    0.00000E+00        -0.10317E-01         0.00000E+00
    0.00000E+00        -0.73129E-02         0.00000E+00
    0.00000E+00        -0.49093E-02         0.00000E+00
    0.00000E+00        -0.30613E-02         0.00000E+00
    0.00000E+00        -0.17143E-02         0.00000E+00
    0.00000E+00        -0.80591E-03         0.00000E+00
    0.00000E+00        -0.26425E-03         0.00000E+00
    0.00000E+00         0.00000E+00         0.00000E+00
    0.71661E-02        -0.55238E-01         0.00000E+00
    0.70342E-02        -0.48154E-01         0.00000E+00
    0.67495E-02        -0.41258E-01         0.00000E+00
    0.63366E-02        -0.34706E-01         0.00000E+00
    0.58238E-02        -0.28619E-01         0.00000E+00
    0.52397E-02        -0.23086E-01         0.00000E+00
    0.46117E-02        -0.18164E-01         0.00000E+00
    0.39650E-02        -0.13884E-01         0.00000E+00
    0.33221E-02        -0.10252E-01         0.00000E+00
    0.27025E-02        -0.72559E-02         0.00000E+00
    0.21218E-02        -0.48621E-02         0.00000E+00
    0.15912E-02        -0.30254E-02         0.00000E+00
    0.11169E-02        -0.16899E-02         0.00000E+00
    0.69909E-03        -0.79227E-03         0.00000E+00
    0.33148E-03        -0.25916E-03         0.00000E+00
    0.00000E+00         0.00000E+00         0.00000E+00
    0.14389E-01        -0.55313E-01         0.00000E+00
    0.14118E-01        -0.48150E-01         0.00000E+00
    0.13539E-01        -0.41184E-01         0.00000E+00
    0.12702E-01        -0.34577E-01         0.00000E+00
    0.11666E-01        -0.28450E-01         0.00000E+00
    0.10488E-01        -0.22891E-01         0.00000E+00
    0.92226E-02        -0.17958E-01         0.00000E+00
    0.79211E-02        -0.13680E-01         0.00000E+00
    0.66286E-02        -0.10061E-01         0.00000E+00
    0.53840E-02        -0.70870E-02         0.00000E+00
    0.42188E-02        -0.47222E-02         0.00000E+00
    0.31559E-02        -0.29187E-02         0.00000E+00
    0.22079E-02        -0.16176E-02         0.00000E+00
    0.13761E-02        -0.75155E-03         0.00000E+00
    0.64865E-03        -0.24370E-03         0.00000E+00
    0.00000E+00         0.00000E+00         0.00000E+00
    0.21734E-01        -0.55446E-01         0.00000E+00
    0.21307E-01        -0.48155E-01         0.00000E+00
    0.20411E-01        -0.41074E-01         0.00000E+00
    0.19129E-01        -0.34374E-01         0.00000E+00
    0.17549E-01        -0.28180E-01         0.00000E+00
    0.15757E-01        -0.22579E-01         0.00000E+00
    0.13837E-01        -0.17627E-01         0.00000E+00
    0.11865E-01        -0.13350E-01         0.00000E+00
    0.99093E-02        -0.97522E-02         0.00000E+00
    0.80290E-02        -0.68128E-02         0.00000E+00
    0.62718E-02        -0.44945E-02         0.00000E+00
    0.46728E-02        -0.27446E-02         0.00000E+00
    0.32525E-02        -0.14990E-02         0.00000E+00
    0.20140E-02        -0.68452E-03         0.00000E+00
    0.94169E-03        -0.21784E-03         0.00000E+00
    0.00000E+00         0.00000E+00         0.00000E+00
    0.29269E-01        -0.55662E-01         0.00000E+00
    0.28654E-01        -0.48190E-01         0.00000E+00
    0.27411E-01        -0.40949E-01         0.00000E+00
    0.25652E-01        -0.34120E-01         0.00000E+00
    0.23496E-01        -0.27831E-01         0.00000E+00
    0.21062E-01        -0.22170E-01         0.00000E+00
    0.18460E-01        -0.17190E-01         0.00000E+00
    0.15795E-01        -0.12913E-01         0.00000E+00
    0.13156E-01        -0.93394E-02         0.00000E+00
    0.10625E-01        -0.64452E-02         0.00000E+00
    0.82640E-02        -0.41879E-02         0.00000E+00
    0.61233E-02        -0.25092E-02         0.00000E+00
    0.42319E-02        -0.13379E-02         0.00000E+00
    0.25970E-02        -0.59281E-03         0.00000E+00
    0.12009E-02        -0.18211E-03         0.00000E+00
    0.00000E+00         0.00000E+00         0.00000E+00
    0.37059E-01        -0.55993E-01         0.00000E+00
    0.36216E-01        -0.48290E-01         0.00000E+00
    0.34582E-01        -0.40842E-01         0.00000E+00
    0.32303E-01        -0.33846E-01         0.00000E+00
    0.29531E-01        -0.27435E-01         0.00000E+00
    0.26417E-01        -0.21695E-01         0.00000E+00
    0.23101E-01        -0.16674E-01         0.00000E+00
    0.19712E-01        -0.12393E-01         0.00000E+00
    0.16365E-01        -0.88451E-02         0.00000E+00
    0.13161E-01        -0.60022E-02         0.00000E+00
    0.10182E-01        -0.38162E-02         0.00000E+00
    0.74917E-02        -0.22218E-02         0.00000E+00
    0.51301E-02        -0.11399E-02         0.00000E+00
    0.31108E-02        -0.47923E-03         0.00000E+00
    0.14171E-02        -0.13747E-03         0.00000E+00
    0.00000E+00         0.00000E+00         0.00000E+00
    0.45175E-01        -0.56487E-01         0.00000E+00
    0.44049E-01        -0.48499E-01         0.00000E+00
    0.41970E-01        -0.40799E-01         0.00000E+00
    0.39117E-01        -0.33599E-01         0.00000E+00
    0.35680E-01        -0.27037E-01         0.00000E+00
    0.31840E-01        -0.21196E-01         0.00000E+00
    0.27768E-01        -0.16121E-01         0.00000E+00
    0.23620E-01        -0.11827E-01         0.00000E+00
    0.19534E-01        -0.83006E-02         0.00000E+00
    0.15633E-01        -0.55095E-02         0.00000E+00
    0.12017E-01        -0.33988E-02         0.00000E+00
    0.87667E-02        -0.18963E-02         0.00000E+00
    0.59345E-02        -0.91347E-03         0.00000E+00
    0.35439E-02        -0.34802E-03         0.00000E+00
    0.15826E-02        -0.85395E-04         0.00000E+00
    0.00000E+00         0.00000E+00         0.00000E+00
    0.53686E-01        -0.57204E-01         0.00000E+00
    0.52210E-01        -0.48879E-01         0.00000E+00
    0.49617E-01        -0.40880E-01         0.00000E+00
    0.46128E-01        -0.33437E-01         0.00000E+00
    0.41966E-01        -0.26694E-01         0.00000E+00
    0.37348E-01        -0.20730E-01         0.00000E+00
    0.32475E-01        -0.15584E-01         0.00000E+00
    0.27527E-01        -0.11263E-01         0.00000E+00
    0.22669E-01        -0.77487E-02         0.00000E+00
    0.18043E-01        -0.50022E-02         0.00000E+00
    0.13768E-01        -0.29630E-02         0.00000E+00
    0.99435E-02        -0.15516E-02         0.00000E+00
    0.66380E-02        -0.67040E-03         0.00000E+00
    0.38882E-02        -0.20529E-03         0.00000E+00
    0.16913E-02        -0.28044E-04         0.00000E+00
    0.00000E+00         0.00000E+00         0.00000E+00
    0.62665E-01        -0.58218E-01         0.00000E+00
    0.60755E-01        -0.49505E-01         0.00000E+00
    0.57570E-01        -0.41161E-01         0.00000E+00
    0.53370E-01        -0.33439E-01         0.00000E+00
    0.48418E-01        -0.26485E-01         0.00000E+00
    0.42964E-01        -0.20373E-01         0.00000E+00
    0.37239E-01        -0.15134E-01         0.00000E+00
    0.31451E-01        -0.10766E-01         0.00000E+00
    0.25783E-01        -0.72460E-02         0.00000E+00
    0.20400E-01        -0.45277E-02         0.00000E+00
    0.15442E-01        -0.25455E-02         0.00000E+00
    0.11026E-01        -0.12139E-02         0.00000E+00
    0.72411E-02        -0.42713E-03         0.00000E+00
    0.41415E-02        -0.59514E-04         0.00000E+00
    0.17401E-02         0.31563E-04         0.00000E+00
    0.00000E+00         0.00000E+00         0.00000E+00
    0.72184E-01        -0.59623E-01         0.00000E+00
    0.69740E-01        -0.50472E-01         0.00000E+00
    0.65870E-01        -0.41740E-01         0.00000E+00
    0.60876E-01        -0.33703E-01         0.00000E+00
    0.55063E-01        -0.26507E-01         0.00000E+00
    0.48713E-01        -0.20220E-01         0.00000E+00
    0.42085E-01        -0.14861E-01         0.00000E+00
    0.35412E-01        -0.10421E-01         0.00000E+00
    0.28898E-01        -0.68669E-02         0.00000E+00
    0.22727E-01        -0.41479E-02         0.00000E+00
    0.17059E-01        -0.21949E-02         0.00000E+00
    0.12031E-01        -0.91811E-03         0.00000E+00
    0.77544E-02        -0.20574E-03         0.00000E+00
    0.43089E-02         0.77749E-04         0.00000E+00
    0.17299E-02         0.89284E-04         0.00000E+00
    0.00000E+00         0.00000E+00         0.00000E+00
    0.82315E-01        -0.61530E-01         0.00000E+00
    0.79220E-01        -0.51897E-01         0.00000E+00
    0.74559E-01        -0.42736E-01         0.00000E+00
    0.68681E-01        -0.34350E-01         0.00000E+00
    0.61929E-01        -0.26883E-01         0.00000E+00
    0.54621E-01        -0.20392E-01         0.00000E+00
    0.47041E-01        -0.14884E-01         0.00000E+00
    0.39443E-01        -0.10335E-01         0.00000E+00
    0.32050E-01        -0.67068E-02         0.00000E+00
    0.25060E-01        -0.39437E-02         0.00000E+00
    0.18653E-01        -0.19748E-02         0.00000E+00
    0.12988E-01        -0.71017E-03         0.00000E+00
    0.82022E-02        -0.35636E-04         0.00000E+00
    0.44056E-02         0.19099E-03         0.00000E+00
    0.16670E-02         0.13952E-03         0.00000E+00
    0.00000E+00         0.00000E+00         0.00000E+00
    0.93129E-01        -0.64073E-01         0.00000E+00
    0.89245E-01        -0.53917E-01         0.00000E+00
    0.83674E-01        -0.44294E-01         0.00000E+00
    0.76813E-01        -0.35528E-01         0.00000E+00
    0.69045E-01        -0.27763E-01         0.00000E+00
    0.60719E-01        -0.21039E-01         0.00000E+00
    0.52144E-01        -0.15345E-01         0.00000E+00
    0.43589E-01        -0.10644E-01         0.00000E+00
    0.35288E-01        -0.68873E-02         0.00000E+00
    0.27454E-01        -0.40181E-02         0.00000E+00
    0.20281E-01        -0.19674E-02         0.00000E+00
    0.13949E-01        -0.65000E-03         0.00000E+00
    0.86264E-02         0.44548E-04         0.00000E+00
    0.44606E-02         0.25963E-03         0.00000E+00
    0.15652E-02         0.17475E-03         0.00000E+00
    0.00000E+00         0.00000E+00         0.00000E+00
    0.10469E+00        -0.67412E-01         0.00000E+00
    0.99861E-01        -0.56701E-01         0.00000E+00
    0.93248E-01        -0.46587E-01         0.00000E+00
    0.85298E-01        -0.37419E-01         0.00000E+00
    0.76437E-01        -0.29332E-01         0.00000E+00
    0.67042E-01        -0.22346E-01         0.00000E+00
    0.57438E-01        -0.16425E-01         0.00000E+00
    0.47904E-01        -0.11516E-01         0.00000E+00
    0.38681E-01        -0.75608E-02         0.00000E+00
    0.29985E-01        -0.45019E-02         0.00000E+00
    0.22021E-01        -0.22776E-02         0.00000E+00
    0.14990E-01        -0.81475E-03         0.00000E+00
    0.90912E-02        -0.15401E-04         0.00000E+00
    0.45198E-02         0.25668E-03         0.00000E+00
    0.14480E-02         0.18507E-03         0.00000E+00
    0.00000E+00         0.00000E+00         0.00000E+00
    0.11706E+00        -0.71729E-01         0.00000E+00
    0.11110E+00        -0.60442E-01         0.00000E+00
    0.10330E+00        -0.49820E-01         0.00000E+00
    0.94158E-01        -0.40236E-01         0.00000E+00
    0.84130E-01        -0.31810E-01         0.00000E+00
    0.73623E-01        -0.24534E-01         0.00000E+00
    0.62973E-01        -0.18342E-01         0.00000E+00
    0.52459E-01        -0.13159E-01         0.00000E+00
    0.42316E-01        -0.89166E-02         0.00000E+00
    0.32756E-01        -0.55588E-02         0.00000E+00
    0.23984E-01        -0.30379E-02         0.00000E+00
    0.16217E-01        -0.13028E-02         0.00000E+00
    0.96899E-02        -0.28007E-03         0.00000E+00
    0.46519E-02         0.14710E-03         0.00000E+00
    0.13513E-02         0.15746E-03         0.00000E+00
    0.00000E+00         0.00000E+00         0.00000E+00
    0.13029E+00        -0.77236E-01         0.00000E+00
    0.12300E+00        -0.65365E-01         0.00000E+00
    0.11385E+00        -0.54232E-01         0.00000E+00
    0.10340E+00        -0.44229E-01         0.00000E+00
    0.92140E-01        -0.35458E-01         0.00000E+00
    0.80496E-01        -0.27869E-01         0.00000E+00
    0.68807E-01        -0.21360E-01         0.00000E+00
    0.57339E-01        -0.15826E-01         0.00000E+00
    0.46307E-01        -0.11187E-01         0.00000E+00
    0.35901E-01        -0.73912E-02         0.00000E+00
    0.26316E-01        -0.44136E-02         0.00000E+00
    0.17777E-01        -0.22379E-02         0.00000E+00
    0.10551E-01        -0.83166E-03         0.00000E+00
    0.49541E-02        -0.11418E-03         0.00000E+00
    0.13277E-02         0.75046E-04         0.00000E+00
    0.00000E+00         0.00000E+00         0.00000E+00
    0.14440E+00        -0.84173E-01         0.00000E+00
    0.13555E+00        -0.71726E-01         0.00000E+00
    0.12489E+00        -0.60096E-01         0.00000E+00
    0.11302E+00        -0.49691E-01         0.00000E+00
    0.10048E+00        -0.40581E-01         0.00000E+00
    0.87693E-01        -0.32667E-01         0.00000E+00
    0.75005E-01        -0.25794E-01         0.00000E+00
    0.62646E-01        -0.19821E-01         0.00000E+00
    0.50792E-01        -0.14653E-01         0.00000E+00
    0.39590E-01        -0.10247E-01         0.00000E+00
    0.29207E-01        -0.66090E-02         0.00000E+00
    0.19861E-01        -0.37748E-02         0.00000E+00
    0.11849E-01        -0.17737E-02         0.00000E+00
    0.55597E-02        -0.58451E-03         0.00000E+00
    0.14506E-02        -0.83866E-04         0.00000E+00
    0.00000E+00         0.00000E+00         0.00000E+00
    0.15942E+00        -0.92807E-01         0.00000E+00
    0.14876E+00        -0.79815E-01         0.00000E+00
    0.13640E+00        -0.67723E-01         0.00000E+00
    0.12300E+00        -0.56954E-01         0.00000E+00
    0.10913E+00        -0.47534E-01         0.00000E+00
    0.95238E-01        -0.39293E-01         0.00000E+00
    0.81633E-01        -0.32012E-01         0.00000E+00
    0.68499E-01        -0.25504E-01         0.00000E+00
    0.55940E-01        -0.19651E-01         0.00000E+00
    0.44036E-01        -0.14423E-01         0.00000E+00
    0.32897E-01        -0.98722E-02         0.00000E+00
    0.22716E-01        -0.61033E-02         0.00000E+00
    0.13812E-01        -0.32352E-02         0.00000E+00
    0.66469E-02        -0.13362E-02         0.00000E+00
    0.18201E-02        -0.34693E-03         0.00000E+00
    0.00000E+00         0.00000E+00         0.00000E+00
    0.17534E+00        -0.10344E+00         0.00000E+00
    0.16260E+00        -0.89954E-01         0.00000E+00
    0.14833E+00        -0.77464E-01         0.00000E+00
    0.13328E+00        -0.66398E-01         0.00000E+00
    0.11807E+00        -0.56720E-01         0.00000E+00
    0.10314E+00        -0.48171E-01         0.00000E+00
    0.88762E-01        -0.40445E-01         0.00000E+00
    0.75031E-01        -0.33293E-01         0.00000E+00
    0.61952E-01        -0.26574E-01         0.00000E+00
    0.49497E-01        -0.20274E-01         0.00000E+00
    0.37686E-01        -0.14500E-01         0.00000E+00
    0.26658E-01        -0.94540E-02         0.00000E+00
    0.16732E-01        -0.53751E-02         0.00000E+00
    0.84492E-02        -0.24599E-02         0.00000E+00
    0.25697E-02        -0.74921E-03         0.00000E+00
    0.00000E+00         0.00000E+00         0.00000E+00
    0.19214E+00        -0.11640E+00         0.00000E+00
    0.17699E+00        -0.10250E+00         0.00000E+00
    0.16060E+00        -0.89710E-01         0.00000E+00
    0.14379E+00        -0.78450E-01         0.00000E+00
    0.12725E+00        -0.68601E-01         0.00000E+00
    0.11141E+00        -0.59785E-01         0.00000E+00
    0.96464E-01        -0.51582E-01         0.00000E+00
    0.82397E-01        -0.43668E-01         0.00000E+00
    0.69064E-01        -0.35872E-01         0.00000E+00
    0.56283E-01        -0.28203E-01         0.00000E+00
    0.43938E-01        -0.20840E-01         0.00000E+00
    0.32072E-01        -0.14101E-01         0.00000E+00
    0.20980E-01        -0.83869E-02         0.00000E+00
    0.11268E-01        -0.40681E-02         0.00000E+00
    0.38749E-02        -0.13352E-02         0.00000E+00
    0.00000E+00         0.00000E+00         0.00000E+00
    0.20978E+00        -0.13205E+00         0.00000E+00
    0.19187E+00        -0.11786E+00         0.00000E+00
    0.17309E+00        -0.10490E+00         0.00000E+00
    0.15441E+00        -0.93598E-01         0.00000E+00
    0.13658E+00        -0.83703E-01         0.00000E+00
    0.12002E+00        -0.74679E-01         0.00000E+00
    0.10481E+00        -0.65969E-01         0.00000E+00
    0.90774E-01        -0.57156E-01         0.00000E+00
    0.77550E-01        -0.48042E-01         0.00000E+00
    0.64754E-01        -0.38663E-01         0.00000E+00
    0.52081E-01        -0.29283E-01         0.00000E+00
    0.39427E-01        -0.20366E-01         0.00000E+00
    0.27013E-01        -0.12504E-01         0.00000E+00
    0.15483E-01        -0.63015E-02         0.00000E+00
    0.59636E-02        -0.21619E-02         0.00000E+00
    0.00000E+00         0.00000E+00         0.00000E+00
    0.22820E+00        -0.15081E+00         0.00000E+00
    0.20712E+00        -0.13649E+00         0.00000E+00
    0.18565E+00        -0.12355E+00         0.00000E+00
    0.16497E+00        -0.11240E+00         0.00000E+00
    0.14594E+00        -0.10262E+00         0.00000E+00
    0.12895E+00        -0.93463E-01         0.00000E+00
    0.11391E+00        -0.84196E-01         0.00000E+00
    0.10037E+00        -0.74312E-01         0.00000E+00
    0.87724E-01        -0.63595E-01         0.00000E+00
    0.75319E-01        -0.52123E-01         0.00000E+00
    0.62605E-01        -0.40255E-01         0.00000E+00
    0.49267E-01        -0.28609E-01         0.00000E+00
    0.35382E-01        -0.18005E-01         0.00000E+00
    0.21571E-01        -0.93372E-02         0.00000E+00
    0.91293E-02        -0.33043E-02         0.00000E+00
    0.00000E+00         0.00000E+00         0.00000E+00
    0.24737E+00        -0.17319E+00         0.00000E+00
    0.22258E+00        -0.15893E+00         0.00000E+00
    0.19803E+00        -0.14627E+00         0.00000E+00
    0.17525E+00        -0.13554E+00         0.00000E+00
    0.15522E+00        -0.12606E+00         0.00000E+00
    0.13822E+00        -0.11680E+00         0.00000E+00
    0.12389E+00        -0.10686E+00         0.00000E+00
    0.11145E+00        -0.95667E-01         0.00000E+00
    0.99943E-01        -0.83008E-01         0.00000E+00
    0.88421E-01        -0.69027E-01         0.00000E+00
    0.76037E-01        -0.54178E-01         0.00000E+00
    0.62194E-01        -0.39225E-01         0.00000E+00
    0.46723E-01        -0.25223E-01         0.00000E+00
    0.30114E-01        -0.13404E-01         0.00000E+00
    0.13750E-01        -0.48662E-02         0.00000E+00
    0.00000E+00         0.00000E+00         0.00000E+00
    0.26727E+00        -0.19978E+00         0.00000E+00
    0.23808E+00        -0.18589E+00         0.00000E+00
    0.20997E+00        -0.17385E+00         0.00000E+00
    0.18500E+00        -0.16386E+00         0.00000E+00
    0.16432E+00        -0.15484E+00         0.00000E+00
    0.14793E+00        -0.14541E+00         0.00000E+00
    0.13501E+00        -0.13453E+00         0.00000E+00
    0.12435E+00        -0.12164E+00         0.00000E+00
    0.11461E+00        -0.10662E+00         0.00000E+00
    0.10451E+00        -0.89699E-01         0.00000E+00
    0.92893E-01        -0.71409E-01         0.00000E+00
    0.78820E-01        -0.52610E-01         0.00000E+00
    0.61738E-01        -0.34548E-01         0.00000E+00
    0.41806E-01        -0.18810E-01         0.00000E+00
    0.20311E-01        -0.70004E-02         0.00000E+00
    0.00000E+00         0.00000E+00         0.00000E+00
    0.28798E+00        -0.23143E+00         0.00000E+00
    0.25339E+00        -0.21832E+00         0.00000E+00
    0.22107E+00        -0.20743E+00         0.00000E+00
    0.19400E+00        -0.19854E+00         0.00000E+00
    0.17331E+00        -0.18995E+00         0.00000E+00
    0.15841E+00        -0.17996E+00         0.00000E+00
    0.14776E+00        -0.16755E+00         0.00000E+00
    0.13957E+00        -0.15236E+00         0.00000E+00
    0.13216E+00        -0.13447E+00         0.00000E+00
    0.12398E+00        -0.11420E+00         0.00000E+00
    0.11359E+00        -0.92130E-01         0.00000E+00
    0.99669E-01        -0.69100E-01         0.00000E+00
    0.81111E-01        -0.46427E-01         0.00000E+00
    0.57437E-01        -0.25978E-01         0.00000E+00
    0.29442E-01        -0.99488E-02         0.00000E+00
    0.00000E+00         0.00000E+00         0.00000E+00
    0.30981E+00        -0.26930E+00         0.00000E+00
    0.26821E+00        -0.25782E+00         0.00000E+00
    0.23090E+00        -0.24887E+00         0.00000E+00
    0.20224E+00        -0.24127E+00         0.00000E+00
    0.18273E+00        -0.23252E+00         0.00000E+00
    0.17047E+00        -0.22091E+00         0.00000E+00
    0.16292E+00        -0.20585E+00         0.00000E+00
    0.15776E+00        -0.18745E+00         0.00000E+00
    0.15304E+00        -0.16606E+00         0.00000E+00
    0.14710E+00        -0.14214E+00         0.00000E+00
    0.13831E+00        -0.11617E+00         0.00000E+00
    0.12499E+00        -0.88846E-01         0.00000E+00
    0.10534E+00        -0.61309E-01         0.00000E+00
    0.77795E-01        -0.35482E-01         0.00000E+00
    0.41924E-01        -0.14104E-01         0.00000E+00
    0.00000E+00         0.00000E+00         0.00000E+00
    0.33404E+00        -0.31556E+00         0.00000E+00
    0.28214E+00        -0.30760E+00         0.00000E+00
    0.23912E+00        -0.30150E+00         0.00000E+00
    0.21032E+00        -0.29436E+00         0.00000E+00
    0.19378E+00        -0.28346E+00         0.00000E+00
    0.18538E+00        -0.26804E+00         0.00000E+00
    0.18148E+00        -0.24852E+00         0.00000E+00
    0.17943E+00        -0.22566E+00         0.00000E+00
    0.17733E+00        -0.20013E+00         0.00000E+00
    0.17358E+00        -0.17240E+00         0.00000E+00
    0.16657E+00        -0.14277E+00         0.00000E+00
    0.15431E+00        -0.11157E+00         0.00000E+00
    0.13425E+00        -0.79461E-01         0.00000E+00
    0.10325E+00        -0.47985E-01         0.00000E+00
    0.58513E-01        -0.20063E-01         0.00000E+00
    0.00000E+00         0.00000E+00         0.00000E+00
    0.36318E+00        -0.37659E+00         0.00000E+00
    0.29385E+00        -0.37472E+00         0.00000E+00
    0.24536E+00        -0.37043E+00         0.00000E+00
    0.21917E+00        -0.35980E+00         0.00000E+00
    0.20753E+00        -0.34230E+00         0.00000E+00
    0.20358E+00        -0.31953E+00         0.00000E+00
    0.20307E+00        -0.29321E+00         0.00000E+00
    0.20352E+00        -0.26460E+00         0.00000E+00
    0.20336E+00        -0.23442E+00         0.00000E+00
    0.20129E+00        -0.20298E+00         0.00000E+00
    0.19587E+00        -0.17028E+00         0.00000E+00
    0.18502E+00        -0.13617E+00         0.00000E+00
    0.16554E+00        -0.10054E+00         0.00000E+00
    0.13244E+00        -0.63931E-01         0.00000E+00
    0.79102E-01        -0.28560E-01         0.00000E+00
    0.00000E+00         0.00000E+00         0.00000E+00
    0.39513E+00        -0.47008E+00         0.00000E+00
    0.29745E+00        -0.47098E+00         0.00000E+00
    0.24684E+00        -0.45980E+00         0.00000E+00
    0.22679E+00        -0.43607E+00         0.00000E+00
    0.22073E+00        -0.40510E+00         0.00000E+00
    0.22032E+00        -0.37100E+00         0.00000E+00
    0.22180E+00        -0.33586E+00         0.00000E+00
    0.22337E+00        -0.30066E+00         0.00000E+00
    0.22396E+00        -0.26572E+00         0.00000E+00
    0.22267E+00        -0.23098E+00         0.00000E+00
    0.21834E+00        -0.19608E+00         0.00000E+00
    0.20908E+00        -0.16037E+00         0.00000E+00
    0.19146E+00        -0.12298E+00         0.00000E+00
    0.15904E+00        -0.82848E-01         0.00000E+00
    0.10043E+00        -0.40114E-01         0.00000E+00
    0.00000E+00         0.00000E+00         0.00000E+00
    0.40193E+00        -0.62529E+00         0.00000E+00
    0.27454E+00        -0.60433E+00         0.00000E+00
    0.23169E+00        -0.56340E+00         0.00000E+00
    0.21962E+00        -0.51307E+00         0.00000E+00
    0.21721E+00        -0.46284E+00         0.00000E+00
    0.21791E+00        -0.41536E+00         0.00000E+00
    0.21929E+00        -0.37102E+00         0.00000E+00
    0.22033E+00        -0.32954E+00         0.00000E+00
    0.22045E+00        -0.29043E+00         0.00000E+00
    0.21909E+00        -0.25311E+00         0.00000E+00
    0.21543E+00        -0.21687E+00         0.00000E+00
    0.20796E+00        -0.18076E+00         0.00000E+00
    0.19376E+00        -0.14340E+00         0.00000E+00
    0.16669E+00        -0.10248E+00         0.00000E+00
    0.11207E+00        -0.54323E-01         0.00000E+00
    0.00000E+00         0.00000E+00         0.00000E+00
    0.30274E+00        -0.84735E+00         0.00000E+00
    0.19064E+00        -0.74882E+00         0.00000E+00
    0.16854E+00        -0.65254E+00         0.00000E+00
    0.16217E+00        -0.57131E+00         0.00000E+00
    0.16051E+00        -0.50314E+00         0.00000E+00
    0.16022E+00        -0.44469E+00         0.00000E+00
    0.16019E+00        -0.39341E+00         0.00000E+00
    0.15997E+00        -0.34748E+00         0.00000E+00
    0.15929E+00        -0.30558E+00         0.00000E+00
    0.15783E+00        -0.26665E+00         0.00000E+00
    0.15514E+00        -0.22973E+00         0.00000E+00
    0.15033E+00        -0.19379E+00         0.00000E+00
    0.14169E+00        -0.15732E+00         0.00000E+00
    0.12538E+00        -0.11772E+00         0.00000E+00
    0.91862E-01        -0.69268E-01         0.00000E+00
    0.00000E+00         0.00000E+00         0.00000E+00
    0.00000E+00        -0.10050E+01         0.00000E+00
    0.00000E+00        -0.81606E+00         0.00000E+00
    0.00000E+00        -0.68701E+00         0.00000E+00
    0.00000E+00        -0.59195E+00         0.00000E+00
    0.00000E+00        -0.51664E+00         0.00000E+00
    0.00000E+00        -0.45415E+00         0.00000E+00
    0.00000E+00        -0.40044E+00         0.00000E+00
    0.00000E+00        -0.35300E+00         0.00000E+00
    0.00000E+00        -0.31017E+00         0.00000E+00
    0.00000E+00        -0.27071E+00         0.00000E+00
    0.00000E+00        -0.23359E+00         0.00000E+00
    0.00000E+00        -0.19774E+00         0.00000E+00
    0.00000E+00        -0.16170E+00         0.00000E+00
    0.00000E+00        -0.12296E+00         0.00000E+00
    0.00000E+00        -0.76317E-01         0.00000E+00
    0.00000E+00         0.00000E+00         0.00000E+00
CELL_DATA        450
VECTORS vDarcy double 
    0.23497E-10         0.34532E-10         0.00000E+00
    0.21483E-10         0.92381E-10         0.00000E+00
    0.18365E-10         0.13491E-09         0.00000E+00
    0.14845E-10         0.16512E-09         0.00000E+00
    0.11301E-10         0.18579E-09         0.00000E+00
    0.79314E-11         0.19868E-09         0.00000E+00
    0.48466E-11         0.20486E-09         0.00000E+00
    0.21271E-11         0.20514E-09         0.00000E+00
   -0.15678E-12         0.20035E-09         0.00000E+00
   -0.19361E-11         0.19139E-09         0.00000E+00
   -0.31431E-11         0.17910E-09         0.00000E+00
   -0.37263E-11         0.16347E-09         0.00000E+00
   -0.36979E-11         0.14191E-09         0.00000E+00
   -0.32228E-11         0.10696E-09         0.00000E+00
   -0.26976E-11         0.46160E-10         0.00000E+00
    0.63580E-10         0.36958E-10         0.00000E+00
    0.57581E-10         0.97968E-10         0.00000E+00
    0.48182E-10         0.14184E-09         0.00000E+00
    0.37531E-10         0.17236E-09         0.00000E+00
    0.26808E-10         0.19281E-09         0.00000E+00
    0.16616E-10         0.20522E-09         0.00000E+00
    0.72881E-11         0.21074E-09         0.00000E+00
   -0.93970E-12         0.21022E-09         0.00000E+00
   -0.78606E-11         0.20448E-09         0.00000E+00
   -0.13270E-10         0.19445E-09         0.00000E+00
   -0.16967E-10         0.18095E-09         0.00000E+00
   -0.18795E-10         0.16403E-09         0.00000E+00
   -0.18779E-10         0.14130E-09         0.00000E+00
   -0.17392E-10         0.10571E-09         0.00000E+00
   -0.15826E-10         0.45326E-10         0.00000E+00
    0.10362E-09         0.41782E-10         0.00000E+00
    0.93524E-10         0.10924E-09         0.00000E+00
    0.77607E-10         0.15588E-09         0.00000E+00
    0.59534E-10         0.18704E-09         0.00000E+00
    0.41360E-10         0.20703E-09         0.00000E+00
    0.24108E-10         0.21844E-09         0.00000E+00
    0.83235E-11         0.22263E-09         0.00000E+00
   -0.56170E-11         0.22050E-09         0.00000E+00
   -0.17380E-10         0.21289E-09         0.00000E+00
   -0.26634E-10         0.20071E-09         0.00000E+00
   -0.33047E-10         0.18480E-09         0.00000E+00
   -0.36355E-10         0.16532E-09         0.00000E+00
   -0.36576E-10         0.14022E-09         0.00000E+00
   -0.34439E-10         0.10326E-09         0.00000E+00
   -0.31891E-10         0.43657E-10         0.00000E+00
    0.14434E-09         0.49158E-10         0.00000E+00
    0.12977E-09         0.12653E-09         0.00000E+00
    0.10683E-09         0.17745E-09         0.00000E+00
    0.80853E-10         0.20952E-09         0.00000E+00
    0.54804E-10         0.22877E-09         0.00000E+00
    0.30120E-10         0.23864E-09         0.00000E+00
    0.75374E-11         0.24080E-09         0.00000E+00
   -0.12445E-10         0.23625E-09         0.00000E+00
   -0.29383E-10         0.22584E-09         0.00000E+00
   -0.42832E-10         0.21046E-09         0.00000E+00
   -0.52336E-10         0.19096E-09         0.00000E+00
   -0.57520E-10         0.16764E-09         0.00000E+00
   -0.58376E-10         0.13897E-09         0.00000E+00
   -0.55844E-10         0.99843E-10         0.00000E+00
   -0.52540E-10         0.41223E-10         0.00000E+00
    0.18594E-09         0.59386E-10         0.00000E+00
    0.16641E-09         0.15040E-09         0.00000E+00
    0.13583E-09         0.20709E-09         0.00000E+00
    0.10136E-09         0.24032E-09         0.00000E+00
    0.66899E-10         0.25848E-09         0.00000E+00
    0.34302E-10         0.26621E-09         0.00000E+00
    0.44761E-11         0.26563E-09         0.00000E+00
   -0.21983E-10         0.25786E-09         0.00000E+00
   -0.44547E-10         0.24373E-09         0.00000E+00
   -0.62670E-10         0.22413E-09         0.00000E+00
   -0.75785E-10         0.19991E-09         0.00000E+00
   -0.83405E-10         0.17151E-09         0.00000E+00
   -0.85472E-10         0.13803E-09         0.00000E+00
   -0.83085E-10         0.95862E-10         0.00000E+00
   -0.79404E-10         0.38219E-10         0.00000E+00
    0.22789E-09         0.72761E-10         0.00000E+00
    0.20299E-09         0.18146E-09         0.00000E+00
    0.16413E-09         0.24548E-09         0.00000E+00
    0.12050E-09         0.28004E-09         0.00000E+00
    0.77020E-10         0.29670E-09         0.00000E+00
    0.35955E-10         0.30166E-09         0.00000E+00
   -0.16358E-11         0.29761E-09         0.00000E+00
   -0.35093E-10         0.28580E-09         0.00000E+00
   -0.63830E-10         0.26709E-09         0.00000E+00
   -0.87226E-10         0.24230E-09         0.00000E+00
   -0.10461E-09         0.21225E-09         0.00000E+00
   -0.11539E-09         0.17756E-09         0.00000E+00
   -0.11943E-09         0.13807E-09         0.00000E+00
   -0.11789E-09         0.91893E-10         0.00000E+00
   -0.11431E-09         0.34929E-10         0.00000E+00
    0.26952E-09         0.89549E-10         0.00000E+00
    0.23879E-09         0.22031E-09         0.00000E+00
    0.19098E-09         0.29330E-09         0.00000E+00
    0.13748E-09         0.32935E-09         0.00000E+00
    0.84320E-10         0.34403E-09         0.00000E+00
    0.34189E-10         0.34552E-09         0.00000E+00
   -0.11734E-10         0.33725E-09         0.00000E+00
   -0.52764E-10         0.32064E-09         0.00000E+00
   -0.88296E-10         0.29652E-09         0.00000E+00
   -0.11767E-09         0.26564E-09         0.00000E+00
   -0.14013E-09         0.22876E-09         0.00000E+00
   -0.15497E-09         0.18666E-09         0.00000E+00
   -0.16192E-09         0.13996E-09         0.00000E+00
   -0.16212E-09         0.88666E-10         0.00000E+00
   -0.15924E-09         0.31698E-10         0.00000E+00
    0.31014E-09         0.11005E-09         0.00000E+00
    0.27307E-09         0.26761E-09         0.00000E+00
    0.21556E-09         0.35131E-09         0.00000E+00
    0.15144E-09         0.38896E-09         0.00000E+00
    0.87925E-10         0.40109E-09         0.00000E+00
    0.28126E-10         0.39838E-09         0.00000E+00
   -0.26699E-10         0.38514E-09         0.00000E+00
   -0.75892E-10         0.36298E-09         0.00000E+00
   -0.11888E-09         0.33270E-09         0.00000E+00
   -0.15502E-09         0.29496E-09         0.00000E+00
   -0.18350E-09         0.25039E-09         0.00000E+00
   -0.20349E-09         0.19987E-09         0.00000E+00
   -0.21455E-09         0.14477E-09         0.00000E+00
   -0.21762E-09         0.87115E-10         0.00000E+00
   -0.21621E-09         0.28964E-10         0.00000E+00
    0.34889E-09         0.13461E-09         0.00000E+00
    0.30492E-09         0.32410E-09         0.00000E+00
    0.23695E-09         0.42030E-09         0.00000E+00
    0.16146E-09         0.45958E-09         0.00000E+00
    0.86952E-10         0.46851E-09         0.00000E+00
    0.16933E-10         0.46079E-09         0.00000E+00
   -0.47311E-10         0.44181E-09         0.00000E+00
   -0.10522E-09         0.41341E-09         0.00000E+00
   -0.15633E-09         0.37637E-09         0.00000E+00
   -0.20005E-09         0.33115E-09         0.00000E+00
   -0.23561E-09         0.27823E-09         0.00000E+00
   -0.26205E-09         0.21846E-09         0.00000E+00
   -0.27870E-09         0.15390E-09         0.00000E+00
   -0.28610E-09         0.88450E-10         0.00000E+00
   -0.28718E-09         0.27304E-10         0.00000E+00
    0.38457E-09         0.16358E-09         0.00000E+00
    0.33318E-09         0.39048E-09         0.00000E+00
    0.25403E-09         0.50104E-09         0.00000E+00
    0.16650E-09         0.54185E-09         0.00000E+00
    0.80444E-10         0.54680E-09         0.00000E+00
   -0.23220E-12         0.53319E-09         0.00000E+00
   -0.74286E-10         0.50770E-09         0.00000E+00
   -0.14134E-09         0.47248E-09         0.00000E+00
   -0.20115E-09         0.42822E-09         0.00000E+00
   -0.25330E-09         0.37518E-09         0.00000E+00
   -0.29708E-09         0.31353E-09         0.00000E+00
   -0.33148E-09         0.24400E-09         0.00000E+00
   -0.35551E-09         0.16905E-09         0.00000E+00
   -0.36905E-09         0.94222E-10         0.00000E+00
   -0.37391E-09         0.27476E-10         0.00000E+00
    0.41566E-09         0.19727E-09         0.00000E+00
    0.35638E-09         0.46744E-09         0.00000E+00
    0.26542E-09         0.59419E-09         0.00000E+00
    0.16530E-09         0.63634E-09         0.00000E+00
    0.67317E-10         0.63636E-09         0.00000E+00
   -0.24251E-10         0.61587E-09         0.00000E+00
   -0.10828E-09         0.58311E-09         0.00000E+00
   -0.18472E-09         0.54056E-09         0.00000E+00
   -0.25364E-09         0.48887E-09         0.00000E+00
   -0.31495E-09         0.42799E-09         0.00000E+00
   -0.36814E-09         0.35768E-09         0.00000E+00
   -0.41218E-09         0.27829E-09         0.00000E+00
   -0.44573E-09         0.19234E-09         0.00000E+00
   -0.46764E-09         0.10639E-09         0.00000E+00
   -0.47793E-09         0.30459E-10         0.00000E+00
    0.44030E-09         0.23600E-09         0.00000E+00
    0.37274E-09         0.55555E-09         0.00000E+00
    0.26946E-09         0.70033E-09         0.00000E+00
    0.15639E-09         0.74340E-09         0.00000E+00
    0.46327E-10         0.73735E-09         0.00000E+00
   -0.56073E-10         0.70886E-09         0.00000E+00
   -0.14992E-09         0.66801E-09         0.00000E+00
   -0.23560E-09         0.61778E-09         0.00000E+00
   -0.31374E-09         0.55872E-09         0.00000E+00
   -0.38474E-09         0.49045E-09         0.00000E+00
   -0.44846E-09         0.41213E-09         0.00000E+00
   -0.50398E-09         0.32341E-09         0.00000E+00
   -0.54951E-09         0.22629E-09         0.00000E+00
   -0.58254E-09         0.12738E-09         0.00000E+00
   -0.60028E-09         0.37495E-10         0.00000E+00
    0.45635E-09         0.27999E-09         0.00000E+00
    0.38017E-09         0.65530E-09         0.00000E+00
    0.26420E-09         0.81984E-09         0.00000E+00
    0.13799E-09         0.86317E-09         0.00000E+00
    0.16005E-10         0.84961E-09         0.00000E+00
   -0.96760E-10         0.81176E-09         0.00000E+00
   -0.19976E-09         0.76195E-09         0.00000E+00
   -0.29403E-09         0.70379E-09         0.00000E+00
   -0.38098E-09         0.63780E-09         0.00000E+00
   -0.46180E-09         0.56317E-09         0.00000E+00
   -0.53697E-09         0.47829E-09         0.00000E+00
   -0.60585E-09         0.38166E-09         0.00000E+00
   -0.66618E-09         0.27389E-09         0.00000E+00
   -0.71355E-09         0.16017E-09         0.00000E+00
   -0.74125E-09         0.50141E-10         0.00000E+00
    0.46140E-09         0.32948E-09         0.00000E+00
    0.37628E-09         0.76710E-09         0.00000E+00
    0.24730E-09         0.95300E-09         0.00000E+00
    0.10796E-09         0.99556E-09         0.00000E+00
   -0.25443E-10         0.97260E-09         0.00000E+00
   -0.14757E-09         0.92366E-09         0.00000E+00
   -0.25836E-09         0.86383E-09         0.00000E+00
   -0.35978E-09         0.79760E-09         0.00000E+00
   -0.45436E-09         0.72553E-09         0.00000E+00
   -0.54445E-09         0.64634E-09         0.00000E+00
   -0.63155E-09         0.55740E-09         0.00000E+00
   -0.71558E-09         0.45548E-09         0.00000E+00
   -0.79378E-09         0.33859E-09         0.00000E+00
   -0.85930E-09         0.20836E-09         0.00000E+00
   -0.89998E-09         0.70326E-10         0.00000E+00
    0.45284E-09         0.38472E-09         0.00000E+00
    0.35838E-09         0.89143E-09         0.00000E+00
    0.21599E-09         0.11000E-08         0.00000E+00
    0.63615E-10         0.11402E-08         0.00000E+00
   -0.80328E-10         0.11053E-08         0.00000E+00
   -0.21012E-09         0.10429E-08         0.00000E+00
   -0.32639E-09         0.97164E-09         0.00000E+00
   -0.43237E-09         0.89720E-09         0.00000E+00
   -0.53223E-09         0.82036E-09         0.00000E+00
   -0.62999E-09         0.73936E-09         0.00000E+00
   -0.72872E-09         0.65022E-09         0.00000E+00
   -0.82932E-09         0.54728E-09         0.00000E+00
   -0.92859E-09         0.42426E-09         0.00000E+00
   -0.10166E-08         0.27622E-09         0.00000E+00
   -0.10739E-08         0.10042E-09         0.00000E+00
    0.42799E-09         0.44613E-09         0.00000E+00
    0.32341E-09         0.10291E-08         0.00000E+00
    0.16683E-09         0.12614E-08         0.00000E+00
    0.14266E-11         0.12967E-08         0.00000E+00
   -0.15180E-09         0.12460E-08         0.00000E+00
   -0.28666E-09         0.11668E-08         0.00000E+00
   -0.40474E-09         0.10821E-08         0.00000E+00
   -0.51110E-09         0.99913E-09         0.00000E+00
   -0.61216E-09         0.91934E-09         0.00000E+00
   -0.71440E-09         0.84038E-09         0.00000E+00
   -0.82317E-09         0.75670E-09         0.00000E+00
   -0.94096E-09         0.65918E-09         0.00000E+00
   -0.10644E-08         0.53508E-09         0.00000E+00
   -0.11797E-08         0.36872E-09         0.00000E+00
   -0.12578E-08         0.14329E-09         0.00000E+00
    0.38405E-09         0.51448E-09         0.00000E+00
    0.26782E-09         0.11815E-08         0.00000E+00
    0.95358E-10         0.14380E-08         0.00000E+00
   -0.83503E-10         0.14643E-08         0.00000E+00
   -0.24436E-09         0.13924E-08         0.00000E+00
   -0.38048E-09         0.12914E-08         0.00000E+00
   -0.49486E-09         0.11899E-08         0.00000E+00
   -0.59513E-09         0.10979E-08         0.00000E+00
   -0.69089E-09         0.10174E-08         0.00000E+00
   -0.79202E-09         0.94570E-09         0.00000E+00
   -0.90719E-09         0.87532E-09         0.00000E+00
   -0.10414E-08         0.79256E-09         0.00000E+00
   -0.11916E-08         0.67529E-09         0.00000E+00
   -0.13393E-08         0.49151E-09         0.00000E+00
   -0.14430E-08         0.20236E-09         0.00000E+00
    0.31801E-09         0.59133E-09         0.00000E+00
    0.18710E-09         0.13518E-08         0.00000E+00
   -0.46940E-11         0.16319E-08         0.00000E+00
   -0.19834E-09         0.16429E-08         0.00000E+00
   -0.36475E-09         0.15411E-08         0.00000E+00
   -0.49662E-09         0.14107E-08         0.00000E+00
   -0.59915E-09         0.12876E-08         0.00000E+00
   -0.68368E-09         0.11851E-08         0.00000E+00
   -0.76419E-09         0.11065E-08         0.00000E+00
   -0.85524E-09         0.10488E-08         0.00000E+00
   -0.97008E-09         0.10022E-08         0.00000E+00
   -0.11175E-08         0.94729E-09         0.00000E+00
   -0.12955E-08         0.84874E-09         0.00000E+00
   -0.14806E-08         0.65079E-09         0.00000E+00
   -0.16154E-08         0.28172E-09         0.00000E+00
    0.22619E-09         0.67963E-09         0.00000E+00
    0.74878E-10         0.15458E-08         0.00000E+00
   -0.14281E-09         0.18475E-08         0.00000E+00
   -0.35411E-09         0.18323E-08         0.00000E+00
   -0.52327E-09         0.16873E-08         0.00000E+00
   -0.64275E-09         0.15159E-08         0.00000E+00
   -0.72147E-09         0.13637E-08         0.00000E+00
   -0.77622E-09         0.12483E-08         0.00000E+00
   -0.82691E-09         0.11745E-08         0.00000E+00
   -0.89415E-09         0.11391E-08         0.00000E+00
   -0.99733E-09         0.11300E-08         0.00000E+00
   -0.11508E-08         0.11205E-08         0.00000E+00
   -0.13552E-08         0.10579E-08         0.00000E+00
   -0.15815E-08         0.85292E-09         0.00000E+00
   -0.17531E-08         0.38607E-09         0.00000E+00
    0.10291E-09         0.78501E-09         0.00000E+00
   -0.79344E-10         0.17739E-08         0.00000E+00
   -0.33457E-09         0.20922E-08         0.00000E+00
   -0.56840E-09         0.20327E-08         0.00000E+00
   -0.73580E-09         0.18235E-08         0.00000E+00
   -0.83042E-09         0.15938E-08         0.00000E+00
   -0.86783E-09         0.14018E-08         0.00000E+00
   -0.87284E-09         0.12698E-08         0.00000E+00
   -0.87304E-09         0.12038E-08         0.00000E+00
   -0.89641E-09         0.12004E-08         0.00000E+00
   -0.97001E-09         0.12455E-08         0.00000E+00
   -0.11160E-08         0.13044E-08         0.00000E+00
   -0.13398E-08         0.13022E-08         0.00000E+00
   -0.16083E-08         0.11034E-08         0.00000E+00
   -0.18217E-08         0.52065E-09         0.00000E+00
   -0.63597E-10         0.91750E-09         0.00000E+00
   -0.29483E-09         0.20549E-08         0.00000E+00
   -0.60674E-09         0.23784E-08         0.00000E+00
   -0.86968E-09         0.22433E-08         0.00000E+00
   -0.10265E-08         0.19370E-08         0.00000E+00
   -0.10762E-08         0.16246E-08         0.00000E+00
   -0.10465E-08         0.13788E-08         0.00000E+00
   -0.97415E-09         0.12254E-08         0.00000E+00
   -0.89580E-09         0.11700E-08         0.00000E+00
   -0.84729E-09         0.12090E-08         0.00000E+00
   -0.86420E-09         0.13274E-08         0.00000E+00
   -0.97870E-09         0.14830E-08         0.00000E+00
   -0.12053E-08         0.15741E-08         0.00000E+00
   -0.15095E-08         0.14042E-08         0.00000E+00
   -0.17667E-08         0.69052E-09         0.00000E+00
   -0.29456E-09         0.10947E-08         0.00000E+00
   -0.60690E-09         0.24213E-08         0.00000E+00
   -0.10072E-08         0.27242E-08         0.00000E+00
   -0.13054E-08         0.24587E-08         0.00000E+00
   -0.14320E-08         0.20050E-08         0.00000E+00
   -0.14028E-08         0.15771E-08         0.00000E+00
   -0.12682E-08         0.12620E-08         0.00000E+00
   -0.10813E-08         0.10830E-08         0.00000E+00
   -0.88834E-09         0.10412E-08         0.00000E+00
   -0.73093E-09         0.11320E-08         0.00000E+00
   -0.65174E-09         0.13421E-08         0.00000E+00
   -0.69438E-09         0.16254E-08         0.00000E+00
   -0.88740E-09         0.18513E-08         0.00000E+00
   -0.12029E-08         0.17466E-08         0.00000E+00
   -0.14954E-08         0.89783E-09         0.00000E+00
   -0.63159E-09         0.13594E-08         0.00000E+00
   -0.10981E-08         0.29355E-08         0.00000E+00
   -0.16384E-08         0.31506E-08         0.00000E+00
   -0.19632E-08         0.26552E-08         0.00000E+00
   -0.20092E-08         0.19810E-08         0.00000E+00
   -0.18392E-08         0.14019E-08         0.00000E+00
   -0.15435E-08         0.10069E-08         0.00000E+00
   -0.11953E-08         0.80299E-09         0.00000E+00
   -0.84545E-09         0.77841E-09         0.00000E+00
   -0.53421E-09         0.92607E-09         0.00000E+00
   -0.30456E-09         0.12391E-08         0.00000E+00
   -0.20877E-09         0.16752E-08         0.00000E+00
   -0.29391E-09         0.20796E-08         0.00000E+00
   -0.55233E-09         0.20922E-08         0.00000E+00
   -0.83889E-09         0.11314E-08         0.00000E+00
   -0.12841E-08         0.18152E-08         0.00000E+00
   -0.20208E-08         0.36829E-08         0.00000E+00
   -0.27103E-08         0.36331E-08         0.00000E+00
   -0.29568E-08         0.27440E-08         0.00000E+00
   -0.27862E-08         0.17677E-08         0.00000E+00
   -0.23614E-08         0.10205E-08         0.00000E+00
   -0.18262E-08         0.55743E-09         0.00000E+00
   -0.12654E-08         0.34339E-09         0.00000E+00
   -0.71895E-09         0.34179E-09         0.00000E+00
   -0.20876E-09         0.54127E-09         0.00000E+00
    0.23795E-09         0.94758E-09         0.00000E+00
    0.57363E-09         0.15353E-08         0.00000E+00
    0.73706E-09         0.21412E-08         0.00000E+00
    0.69869E-09         0.23274E-08         0.00000E+00
    0.54680E-09         0.13347E-08         0.00000E+00
   -0.29568E-08         0.25344E-08         0.00000E+00
   -0.38165E-08         0.45599E-08         0.00000E+00
   -0.42879E-08         0.39170E-08         0.00000E+00
   -0.40546E-08         0.24733E-08         0.00000E+00
   -0.33726E-08         0.11857E-08         0.00000E+00
   -0.25229E-08         0.32794E-09         0.00000E+00
   -0.16677E-08        -0.14043E-09         0.00000E+00
   -0.86292E-09        -0.32435E-09         0.00000E+00
   -0.10635E-09        -0.29347E-09         0.00000E+00
    0.62377E-09        -0.63782E-10         0.00000E+00
    0.13421E-08         0.38761E-09         0.00000E+00
    0.20362E-08         0.10655E-08         0.00000E+00
    0.26586E-08         0.18253E-08         0.00000E+00
    0.31387E-08         0.22016E-08         0.00000E+00
    0.34037E-08         0.13473E-08         0.00000E+00
   -0.60022E-08         0.30636E-08         0.00000E+00
   -0.58239E-08         0.47120E-08         0.00000E+00
   -0.48589E-08         0.32714E-08         0.00000E+00
   -0.33699E-08         0.13967E-08         0.00000E+00
   -0.18115E-08         0.21902E-10         0.00000E+00
   -0.42007E-09        -0.74942E-09         0.00000E+00
    0.75323E-09        -0.10915E-08         0.00000E+00
    0.17528E-08        -0.11775E-08         0.00000E+00
    0.26571E-08        -0.11012E-08         0.00000E+00
    0.35510E-08        -0.88001E-09         0.00000E+00
    0.45132E-08        -0.47670E-09         0.00000E+00
    0.56043E-08         0.14455E-09         0.00000E+00
    0.68438E-08         0.88436E-09         0.00000E+00
    0.81553E-08         0.13508E-08         0.00000E+00
    0.92029E-08         0.88549E-09         0.00000E+00
   -0.56283E-08         0.20007E-08         0.00000E+00
   -0.24842E-08         0.24524E-08         0.00000E+00
    0.12857E-08         0.79628E-09         0.00000E+00
    0.44547E-08        -0.78626E-09         0.00000E+00
    0.68279E-08        -0.17268E-08         0.00000E+00
    0.85397E-08        -0.21040E-08         0.00000E+00
    0.97888E-08        -0.21594E-08         0.00000E+00
    0.10757E-07        -0.20776E-08         0.00000E+00
    0.11597E-07        -0.19457E-08         0.00000E+00
    0.12443E-07        -0.17753E-08         0.00000E+00
    0.13426E-07        -0.15268E-08         0.00000E+00
    0.14684E-07        -0.11537E-08         0.00000E+00
    0.16329E-07        -0.70201E-09         0.00000E+00
    0.18338E-07        -0.38326E-09         0.00000E+00
    0.20162E-07        -0.25253E-09         0.00000E+00
    0.13064E-07        -0.14545E-08         0.00000E+00
    0.18436E-07        -0.26087E-08         0.00000E+00
    0.23659E-07        -0.31349E-08         0.00000E+00
    0.27094E-07        -0.34599E-08         0.00000E+00
    0.29148E-07        -0.34802E-08         0.00000E+00
    0.30347E-07        -0.32615E-08         0.00000E+00
    0.31060E-07        -0.29633E-08         0.00000E+00
    0.31519E-07        -0.27014E-08         0.00000E+00
    0.31879E-07        -0.25218E-08         0.00000E+00
    0.32257E-07        -0.24233E-08         0.00000E+00
    0.32772E-07        -0.23769E-08         0.00000E+00
    0.33563E-07        -0.23521E-08         0.00000E+00
    0.34769E-07        -0.23540E-08         0.00000E+00
    0.36374E-07        -0.23453E-08         0.00000E+00
    0.37934E-07        -0.16756E-08         0.00000E+00
    0.63291E-07        -0.43983E-08         0.00000E+00
    0.64869E-07        -0.66149E-08         0.00000E+00
    0.66166E-07        -0.56484E-08         0.00000E+00
    0.66496E-07        -0.47126E-08         0.00000E+00
    0.66191E-07        -0.39758E-08         0.00000E+00
    0.65586E-07        -0.33604E-08         0.00000E+00
    0.64886E-07        -0.28765E-08         0.00000E+00
    0.64183E-07        -0.25443E-08         0.00000E+00
    0.63508E-07        -0.23640E-08         0.00000E+00
    0.62872E-07        -0.23231E-08         0.00000E+00
    0.62287E-07        -0.24069E-08         0.00000E+00
    0.61780E-07        -0.26066E-08         0.00000E+00
    0.61377E-07        -0.29017E-08         0.00000E+00
    0.61026E-07        -0.30517E-08         0.00000E+00
    0.60512E-07        -0.20166E-08         0.00000E+00
    0.12709E-06        -0.25267E-08         0.00000E+00
    0.12080E-06        -0.37689E-08         0.00000E+00
    0.11402E-06        -0.30114E-08         0.00000E+00
    0.10867E-06        -0.23343E-08         0.00000E+00
    0.10448E-06        -0.18571E-08         0.00000E+00
    0.10112E-06        -0.15087E-08         0.00000E+00
    0.98348E-07        -0.12597E-08         0.00000E+00
    0.95989E-07        -0.10991E-08         0.00000E+00
    0.93872E-07        -0.10177E-08         0.00000E+00
    0.91846E-07        -0.10077E-08         0.00000E+00
    0.89774E-07        -0.10647E-08         0.00000E+00
    0.87521E-07        -0.11886E-08         0.00000E+00
    0.84968E-07        -0.13640E-08         0.00000E+00
    0.82167E-07        -0.14372E-08         0.00000E+00
    0.79890E-07        -0.84038E-09         0.00000E+00
POINT_DATA        496
VECTORS vDarcyNodal double 
    0.24115E-10         0.33914E-10         0.00000E+00
    0.22879E-10         0.62449E-10         0.00000E+00
    0.20087E-10         0.11208E-09         0.00000E+00
    0.16643E-10         0.14825E-09         0.00000E+00
    0.13047E-10         0.17368E-09         0.00000E+00
    0.95560E-11         0.19055E-09         0.00000E+00
    0.63067E-11         0.20023E-09         0.00000E+00
    0.33866E-11         0.20365E-09         0.00000E+00
    0.86769E-12         0.20161E-09         0.00000E+00
   -0.11812E-11         0.19498E-09         0.00000E+00
   -0.26909E-11         0.18464E-09         0.00000E+00
   -0.35953E-11         0.17099E-09         0.00000E+00
   -0.38572E-11         0.15270E-09         0.00000E+00
   -0.35386E-11         0.12467E-09         0.00000E+00
   -0.29070E-11         0.76824E-10         0.00000E+00
   -0.24883E-11         0.46370E-10         0.00000E+00
    0.44751E-10         0.35150E-10         0.00000E+00
    0.42325E-10         0.64464E-10         0.00000E+00
    0.36739E-10         0.11520E-09         0.00000E+00
    0.29808E-10         0.15177E-09         0.00000E+00
    0.22567E-10         0.17723E-09         0.00000E+00
    0.15542E-10         0.19392E-09         0.00000E+00
    0.90051E-11         0.20332E-09         0.00000E+00
    0.31297E-11         0.20636E-09         0.00000E+00
   -0.19423E-11         0.20389E-09         0.00000E+00
   -0.60751E-11         0.19676E-09         0.00000E+00
   -0.91313E-11         0.18585E-09         0.00000E+00
   -0.10979E-10         0.17158E-09         0.00000E+00
   -0.11542E-10         0.15267E-09         0.00000E+00
   -0.10935E-10         0.12420E-09         0.00000E+00
   -0.96791E-11         0.76299E-10         0.00000E+00
   -0.88443E-11         0.45951E-10         0.00000E+00
    0.86010E-10         0.38766E-10         0.00000E+00
    0.81186E-10         0.70462E-10         0.00000E+00
    0.69919E-10         0.12460E-09         0.00000E+00
    0.55871E-10         0.16242E-09         0.00000E+00
    0.41194E-10         0.18795E-09         0.00000E+00
    0.26973E-10         0.20411E-09         0.00000E+00
    0.13750E-10         0.21264E-09         0.00000E+00
    0.18614E-11         0.21459E-09         0.00000E+00
   -0.84181E-11         0.21081E-09         0.00000E+00
   -0.16823E-10         0.20217E-09         0.00000E+00
   -0.23082E-10         0.18955E-09         0.00000E+00
   -0.26933E-10         0.17340E-09         0.00000E+00
   -0.28217E-10         0.15266E-09         0.00000E+00
   -0.27138E-10         0.12281E-09         0.00000E+00
   -0.24692E-10         0.74733E-10         0.00000E+00
   -0.23024E-10         0.44700E-10         0.00000E+00
    0.12767E-09         0.44798E-10         0.00000E+00
    0.12029E-09         0.80555E-10         0.00000E+00
    0.10300E-09         0.14052E-09         0.00000E+00
    0.81435E-10         0.18050E-09         0.00000E+00
    0.58952E-10         0.20612E-09         0.00000E+00
    0.37212E-10         0.22136E-09         0.00000E+00
    0.17016E-10         0.22843E-09         0.00000E+00
   -0.11549E-11         0.22853E-09         0.00000E+00
   -0.16907E-10         0.22257E-09         0.00000E+00
   -0.29857E-10         0.21142E-09         0.00000E+00
   -0.39609E-10         0.19596E-09         0.00000E+00
   -0.45774E-10         0.17671E-09         0.00000E+00
   -0.48101E-10         0.15288E-09         0.00000E+00
   -0.46850E-10         0.12067E-09         0.00000E+00
   -0.43432E-10         0.72185E-10         0.00000E+00
   -0.40998E-10         0.42614E-10         0.00000E+00
    0.17025E-09         0.53518E-10         0.00000E+00
    0.16003E-09         0.95130E-10         0.00000E+00
    0.13615E-09         0.16346E-09         0.00000E+00
    0.10651E-09         0.20647E-09         0.00000E+00
    0.75706E-10         0.23217E-09         0.00000E+00
    0.45997E-10         0.24605E-09         0.00000E+00
    0.18424E-10         0.25101E-09         0.00000E+00
   -0.64106E-11         0.24852E-09         0.00000E+00
   -0.28017E-10         0.23951E-09         0.00000E+00
   -0.45913E-10         0.22487E-09         0.00000E+00
   -0.59589E-10         0.20546E-09         0.00000E+00
   -0.68532E-10         0.18190E-09         0.00000E+00
   -0.72393E-10         0.15373E-09         0.00000E+00
   -0.71455E-10         0.11814E-09         0.00000E+00
   -0.67474E-10         0.68881E-10         0.00000E+00
   -0.64470E-10         0.39831E-10         0.00000E+00
    0.21361E-09         0.65254E-10         0.00000E+00
    0.20023E-09         0.11466E-09         0.00000E+00
    0.16917E-09         0.19404E-09         0.00000E+00
    0.13079E-09         0.24094E-09         0.00000E+00
    0.91068E-10         0.26663E-09         0.00000E+00
    0.52850E-10         0.27865E-09         0.00000E+00
    0.17406E-10         0.28084E-09         0.00000E+00
   -0.14566E-10         0.27497E-09         0.00000E+00
   -0.42510E-10         0.26208E-09         0.00000E+00
   -0.65867E-10         0.24299E-09         0.00000E+00
   -0.84030E-10         0.21858E-09         0.00000E+00
   -0.96370E-10         0.18952E-09         0.00000E+00
   -0.10243E-09         0.15580E-09         0.00000E+00
   -0.10247E-09         0.11575E-09         0.00000E+00
   -0.98501E-10         0.65200E-10         0.00000E+00
   -0.95211E-10         0.36606E-10         0.00000E+00
    0.25710E-09         0.80268E-10         0.00000E+00
    0.24031E-09         0.13956E-09         0.00000E+00
    0.20147E-09         0.23290E-09         0.00000E+00
    0.15365E-09         0.28458E-09         0.00000E+00
    0.10433E-09         0.31011E-09         0.00000E+00
    0.57006E-10         0.31971E-09         0.00000E+00
    0.13139E-10         0.31843E-09         0.00000E+00
   -0.26509E-10         0.30843E-09         0.00000E+00
   -0.61349E-10         0.29081E-09         0.00000E+00
   -0.90778E-10         0.26639E-09         0.00000E+00
   -0.11412E-09         0.23597E-09         0.00000E+00
   -0.13063E-09         0.20029E-09         0.00000E+00
   -0.13973E-09         0.15983E-09         0.00000E+00
   -0.14162E-09         0.11421E-09         0.00000E+00
   -0.13839E-09         0.61622E-10         0.00000E+00
   -0.13516E-09         0.33252E-10         0.00000E+00
    0.30008E-09         0.98829E-10         0.00000E+00
    0.27958E-09         0.17029E-09         0.00000E+00
    0.23228E-09         0.28071E-09         0.00000E+00
    0.17426E-09         0.33808E-09         0.00000E+00
    0.11466E-09         0.36327E-09         0.00000E+00
    0.57589E-10         0.36984E-09         0.00000E+00
    0.47263E-11         0.36435E-09         0.00000E+00
   -0.43160E-10         0.34946E-09         0.00000E+00
   -0.85497E-10         0.32634E-09         0.00000E+00
   -0.12168E-09         0.29576E-09         0.00000E+00
   -0.15100E-09         0.25843E-09         0.00000E+00
   -0.17263E-09         0.21513E-09         0.00000E+00
   -0.18583E-09         0.16679E-09         0.00000E+00
   -0.19064E-09         0.11441E-09         0.00000E+00
   -0.18909E-09         0.58743E-10         0.00000E+00
   -0.18636E-09         0.30145E-10         0.00000E+00
    0.34179E-09         0.12127E-09         0.00000E+00
    0.31723E-09         0.20737E-09         0.00000E+00
    0.26075E-09         0.33821E-09         0.00000E+00
    0.19176E-09         0.40220E-09         0.00000E+00
    0.12114E-09         0.42679E-09         0.00000E+00
    0.53732E-10         0.42964E-09         0.00000E+00
   -0.86729E-11         0.41918E-09         0.00000E+00
   -0.65338E-10         0.39865E-09         0.00000E+00
   -0.11577E-09         0.36934E-09         0.00000E+00
   -0.15944E-09         0.33190E-09         0.00000E+00
   -0.19563E-09         0.28691E-09         0.00000E+00
   -0.22347E-09         0.23512E-09         0.00000E+00
   -0.24207E-09         0.17785E-09         0.00000E+00
   -0.25119E-09         0.11748E-09         0.00000E+00
   -0.25253E-09         0.57337E-10         0.00000E+00
   -0.25086E-09         0.27783E-10         0.00000E+00
    0.38121E-09         0.14795E-09         0.00000E+00
    0.35224E-09         0.25134E-09         0.00000E+00
    0.28586E-09         0.40618E-09         0.00000E+00
    0.20512E-09         0.47768E-09         0.00000E+00
    0.12284E-09         0.50130E-09         0.00000E+00
    0.44551E-10         0.49966E-09         0.00000E+00
   -0.27851E-10         0.48342E-09         0.00000E+00
   -0.93746E-10         0.45656E-09         0.00000E+00
   -0.15281E-09         0.42044E-09         0.00000E+00
   -0.20466E-09         0.37562E-09         0.00000E+00
   -0.24869E-09         0.32247E-09         0.00000E+00
   -0.28400E-09         0.26156E-09         0.00000E+00
   -0.30953E-09         0.19451E-09         0.00000E+00
   -0.32469E-09         0.12487E-09         0.00000E+00
   -0.33046E-09         0.58417E-10         0.00000E+00
   -0.33063E-09         0.26824E-10         0.00000E+00
    0.41696E-09         0.17920E-09         0.00000E+00
    0.38326E-09         0.30272E-09         0.00000E+00
    0.30630E-09         0.48534E-09         0.00000E+00
    0.21314E-09         0.56521E-09         0.00000E+00
    0.11866E-09         0.58736E-09         0.00000E+00
    0.29100E-10         0.58033E-09         0.00000E+00
   -0.53583E-10         0.55747E-09         0.00000E+00
   -0.12899E-09         0.52362E-09         0.00000E+00
   -0.19707E-09         0.48025E-09         0.00000E+00
   -0.25772E-09         0.42777E-09         0.00000E+00
   -0.31053E-09         0.36624E-09         0.00000E+00
   -0.35468E-09         0.29596E-09         0.00000E+00
   -0.38898E-09         0.21854E-09         0.00000E+00
   -0.41226E-09         0.13840E-09         0.00000E+00
   -0.42443E-09         0.63281E-10         0.00000E+00
   -0.42741E-09         0.28128E-10         0.00000E+00
    0.44734E-09         0.21535E-09         0.00000E+00
    0.40862E-09         0.36200E-09         0.00000E+00
    0.32051E-09         0.57630E-09         0.00000E+00
    0.21437E-09         0.66532E-09         0.00000E+00
    0.10732E-09         0.68534E-09         0.00000E+00
    0.63284E-11         0.67190E-09         0.00000E+00
   -0.86652E-10         0.64151E-09         0.00000E+00
   -0.17155E-09         0.60005E-09         0.00000E+00
   -0.24877E-09         0.54918E-09         0.00000E+00
   -0.31862E-09         0.48908E-09         0.00000E+00
   -0.38107E-09         0.41943E-09         0.00000E+00
   -0.43552E-09         0.34001E-09         0.00000E+00
   -0.48064E-09         0.25208E-09         0.00000E+00
   -0.51460E-09         0.16032E-09         0.00000E+00
   -0.53559E-09         0.73566E-10         0.00000E+00
   -0.54262E-09         0.32791E-10         0.00000E+00
    0.47032E-09         0.25665E-09         0.00000E+00
    0.42633E-09         0.42955E-09         0.00000E+00
    0.32659E-09         0.67958E-09         0.00000E+00
    0.20707E-09         0.77840E-09         0.00000E+00
    0.87298E-10         0.79540E-09         0.00000E+00
   -0.24966E-10         0.77430E-09         0.00000E+00
   -0.12787E-09         0.73535E-09         0.00000E+00
   -0.22181E-09         0.68573E-09         0.00000E+00
   -0.30782E-09         0.62732E-09         0.00000E+00
   -0.38690E-09         0.56008E-09         0.00000E+00
   -0.45963E-09         0.48315E-09         0.00000E+00
   -0.52579E-09         0.39553E-09         0.00000E+00
   -0.58404E-09         0.29761E-09         0.00000E+00
   -0.63165E-09         0.19334E-09         0.00000E+00
   -0.66444E-09         0.91308E-10         0.00000E+00
   -0.67709E-09         0.42200E-10         0.00000E+00
    0.48362E-09         0.30333E-09         0.00000E+00
    0.43413E-09         0.50573E-09         0.00000E+00
    0.32233E-09         0.79556E-09         0.00000E+00
    0.18917E-09         0.90461E-09         0.00000E+00
    0.56777E-10         0.91738E-09         0.00000E+00
   -0.66215E-10         0.88707E-09         0.00000E+00
   -0.17812E-09         0.83835E-09         0.00000E+00
   -0.28000E-09         0.78001E-09         0.00000E+00
   -0.37381E-09         0.71427E-09         0.00000E+00
   -0.46154E-09         0.64089E-09         0.00000E+00
   -0.54471E-09         0.55832E-09         0.00000E+00
   -0.62381E-09         0.46442E-09         0.00000E+00
   -0.69763E-09         0.35794E-09         0.00000E+00
   -0.76233E-09         0.24072E-09         0.00000E+00
   -0.81052E-09         0.11901E-09         0.00000E+00
   -0.83070E-09         0.58082E-10         0.00000E+00
    0.48474E-09         0.35562E-09         0.00000E+00
    0.42950E-09         0.59084E-09         0.00000E+00
    0.30516E-09         0.92454E-09         0.00000E+00
    0.15812E-09         0.10440E-08         0.00000E+00
    0.13453E-10         0.10508E-08         0.00000E+00
   -0.11922E-09         0.10092E-08         0.00000E+00
   -0.23847E-09         0.94914E-09         0.00000E+00
   -0.34628E-09         0.88143E-09         0.00000E+00
   -0.44588E-09         0.80885E-09         0.00000E+00
   -0.54071E-09         0.73098E-09         0.00000E+00
   -0.63373E-09         0.64542E-09         0.00000E+00
   -0.72655E-09         0.54845E-09         0.00000E+00
   -0.81835E-09         0.43613E-09         0.00000E+00
   -0.90402E-09         0.30624E-09         0.00000E+00
   -0.97188E-09         0.15968E-09         0.00000E+00
   -0.10020E-08         0.82571E-10         0.00000E+00
    0.47112E-09         0.41382E-09         0.00000E+00
    0.40971E-09         0.68531E-09         0.00000E+00
    0.27208E-09         0.10669E-08         0.00000E+00
    0.11074E-09         0.11963E-08         0.00000E+00
   -0.45698E-10         0.11947E-08         0.00000E+00
   -0.18643E-09         0.11390E-08         0.00000E+00
   -0.31036E-09         0.10654E-08         0.00000E+00
   -0.42077E-09         0.98741E-09         0.00000E+00
   -0.52271E-09         0.90871E-09         0.00000E+00
   -0.62168E-09         0.82874E-09         0.00000E+00
   -0.72271E-09         0.74416E-09         0.00000E+00
   -0.82919E-09         0.64905E-09         0.00000E+00
   -0.94109E-09         0.53541E-09         0.00000E+00
   -0.10519E-08         0.39424E-09         0.00000E+00
   -0.11444E-08         0.21695E-09         0.00000E+00
   -0.11873E-08         0.11827E-09         0.00000E+00
    0.44020E-09         0.47844E-09         0.00000E+00
    0.37185E-09         0.78989E-09         0.00000E+00
    0.21939E-09         0.12235E-08         0.00000E+00
    0.42799E-10         0.13617E-08         0.00000E+00
   -0.12488E-09         0.13479E-08         0.00000E+00
   -0.27128E-09         0.12739E-08         0.00000E+00
   -0.39586E-09         0.11835E-08         0.00000E+00
   -0.50374E-09         0.10938E-08         0.00000E+00
   -0.60250E-09         0.10098E-08         0.00000E+00
   -0.70055E-09         0.93098E-09         0.00000E+00
   -0.80587E-09         0.85293E-09         0.00000E+00
   -0.92449E-09         0.76684E-09         0.00000E+00
   -0.10579E-08         0.65885E-09         0.00000E+00
   -0.11981E-08         0.50955E-09         0.00000E+00
   -0.13209E-08         0.29505E-09         0.00000E+00
   -0.13800E-08         0.16830E-09         0.00000E+00
    0.38946E-09         0.55053E-09         0.00000E+00
    0.31261E-09         0.90612E-09         0.00000E+00
    0.14231E-09         0.13960E-08         0.00000E+00
   -0.51651E-10         0.15406E-08         0.00000E+00
   -0.23020E-09         0.15088E-08         0.00000E+00
   -0.37891E-09         0.14100E-08         0.00000E+00
   -0.49819E-09         0.12979E-08         0.00000E+00
   -0.59582E-09         0.11940E-08         0.00000E+00
   -0.68299E-09         0.11055E-08         0.00000E+00
   -0.77209E-09         0.10321E-08         0.00000E+00
   -0.87518E-09         0.96810E-09         0.00000E+00
   -0.10021E-08         0.90105E-09         0.00000E+00
   -0.11568E-08         0.80900E-09         0.00000E+00
   -0.13303E-08         0.65725E-09         0.00000E+00
   -0.14896E-08         0.39882E-09         0.00000E+00
   -0.15689E-08         0.23642E-09         0.00000E+00
    0.31625E-09         0.63213E-09         0.00000E+00
    0.22795E-09         0.10370E-08         0.00000E+00
    0.34029E-10         0.15878E-08         0.00000E+00
   -0.18153E-09         0.17342E-08         0.00000E+00
   -0.37092E-09         0.16752E-08         0.00000E+00
   -0.51710E-09         0.15418E-08         0.00000E+00
   -0.62226E-09         0.14004E-08         0.00000E+00
   -0.69835E-09         0.12786E-08         0.00000E+00
   -0.76155E-09         0.11860E-08         0.00000E+00
   -0.82955E-09         0.11232E-08         0.00000E+00
   -0.91984E-09         0.10829E-08         0.00000E+00
   -0.10476E-08         0.10485E-08         0.00000E+00
   -0.12208E-08         0.98702E-09         0.00000E+00
   -0.14299E-08         0.84228E-09         0.00000E+00
   -0.16321E-08         0.53369E-09         0.00000E+00
   -0.17364E-08         0.32701E-09         0.00000E+00
    0.21725E-09         0.72713E-09         0.00000E+00
    0.11186E-09         0.11883E-08         0.00000E+00
   -0.11633E-09         0.18055E-08         0.00000E+00
   -0.36106E-09         0.19455E-08         0.00000E+00
   -0.56145E-09         0.18444E-08         0.00000E+00
   -0.69762E-09         0.16613E-08         0.00000E+00
   -0.77555E-09         0.14791E-08         0.00000E+00
   -0.81374E-09         0.13333E-08         0.00000E+00
   -0.83532E-09         0.12367E-08         0.00000E+00
   -0.86463E-09         0.11904E-08         0.00000E+00
   -0.92593E-09         0.11861E-08         0.00000E+00
   -0.10414E-08         0.12020E-08         0.00000E+00
   -0.12254E-08         0.11914E-08         0.00000E+00
   -0.14697E-08         0.10686E-08         0.00000E+00
   -0.17201E-08         0.70531E-09         0.00000E+00
   -0.18547E-08         0.44512E-09         0.00000E+00
    0.85900E-10         0.84290E-09         0.00000E+00
   -0.46584E-10         0.13706E-08         0.00000E+00
   -0.32759E-09         0.20607E-08         0.00000E+00
   -0.61372E-09         0.21794E-08         0.00000E+00
   -0.82436E-09         0.20118E-08         0.00000E+00
   -0.93792E-09         0.17559E-08         0.00000E+00
   -0.96868E-09         0.15165E-08         0.00000E+00
   -0.94569E-09         0.13383E-08         0.00000E+00
   -0.90129E-09         0.12369E-08         0.00000E+00
   -0.86754E-09         0.12138E-08         0.00000E+00
   -0.87616E-09         0.12597E-08         0.00000E+00
   -0.95805E-09         0.13479E-08         0.00000E+00
   -0.11366E-08         0.14153E-08         0.00000E+00
   -0.14085E-08         0.13370E-08         0.00000E+00
   -0.17093E-08         0.91874E-09         0.00000E+00
   -0.18791E-08         0.59618E-09         0.00000E+00
   -0.90479E-10         0.99210E-09         0.00000E+00
   -0.26767E-09         0.16018E-08         0.00000E+00
   -0.63405E-09         0.23726E-08         0.00000E+00
   -0.97985E-09         0.24423E-08         0.00000E+00
   -0.11953E-08         0.21686E-08         0.00000E+00
   -0.12632E-08         0.18057E-08         0.00000E+00
   -0.12158E-08         0.14869E-08         0.00000E+00
   -0.10990E-08         0.12659E-08         0.00000E+00
   -0.95650E-09         0.11586E-08         0.00000E+00
   -0.82763E-09         0.11653E-08         0.00000E+00
   -0.75059E-09         0.12766E-08         0.00000E+00
   -0.76534E-09         0.14624E-08         0.00000E+00
   -0.90774E-09         0.16418E-08         0.00000E+00
   -0.11849E-08         0.16412E-08         0.00000E+00
   -0.15274E-08         0.11760E-08         0.00000E+00
   -0.17347E-08         0.78486E-09         0.00000E+00
   -0.33070E-09         0.11973E-08         0.00000E+00
   -0.59544E-09         0.19142E-08         0.00000E+00
   -0.11096E-08         0.27729E-08         0.00000E+00
   -0.15360E-08         0.27406E-08         0.00000E+00
   -0.17326E-08         0.22951E-08         0.00000E+00
   -0.17086E-08         0.17765E-08         0.00000E+00
   -0.15334E-08         0.13523E-08         0.00000E+00
   -0.12783E-08         0.10791E-08         0.00000E+00
   -0.99828E-09         0.96560E-09         0.00000E+00
   -0.73551E-09         0.10079E-08         0.00000E+00
   -0.52963E-09         0.11974E-08         0.00000E+00
   -0.42667E-09         0.15051E-08         0.00000E+00
   -0.47649E-09         0.18349E-08         0.00000E+00
   -0.70482E-09         0.19567E-08         0.00000E+00
   -0.10504E-08         0.14685E-08         0.00000E+00
   -0.12839E-08         0.10108E-08         0.00000E+00
   -0.72999E-09         0.15216E-08         0.00000E+00
   -0.11857E-08         0.23807E-08         0.00000E+00
   -0.19331E-08         0.33132E-08         0.00000E+00
   -0.24156E-08         0.30653E-08         0.00000E+00
   -0.25044E-08         0.23411E-08         0.00000E+00
   -0.22911E-08         0.16065E-08         0.00000E+00
   -0.19096E-08         0.10566E-08         0.00000E+00
   -0.14601E-08         0.73083E-09         0.00000E+00
   -0.10005E-08         0.61580E-09         0.00000E+00
   -0.56389E-09         0.69662E-09         0.00000E+00
   -0.17908E-09         0.96778E-09         0.00000E+00
    0.11248E-09         0.14093E-08         0.00000E+00
    0.25238E-09         0.19200E-08         0.00000E+00
    0.19077E-09         0.22151E-08         0.00000E+00
   -0.44406E-10         0.17551E-08         0.00000E+00
   -0.24769E-09         0.12520E-08         0.00000E+00
   -0.17609E-08         0.21088E-08         0.00000E+00
   -0.24801E-08         0.31173E-08         0.00000E+00
   -0.33571E-08         0.40028E-08         0.00000E+00
   -0.36411E-08         0.33118E-08         0.00000E+00
   -0.33704E-08         0.21705E-08         0.00000E+00
   -0.27884E-08         0.11817E-08         0.00000E+00
   -0.20959E-08         0.52135E-09         0.00000E+00
   -0.13980E-08         0.16998E-09         0.00000E+00
   -0.73028E-09         0.69375E-10         0.00000E+00
   -0.95024E-10         0.18643E-09         0.00000E+00
    0.51003E-09         0.52107E-09         0.00000E+00
    0.10700E-08         0.10736E-08         0.00000E+00
    0.15399E-08         0.17566E-08         0.00000E+00
    0.18558E-08         0.22535E-08         0.00000E+00
    0.19816E-08         0.19070E-08         0.00000E+00
    0.19689E-08         0.14174E-08         0.00000E+00
   -0.42149E-08         0.29600E-08         0.00000E+00
   -0.47441E-08         0.39769E-08         0.00000E+00
   -0.48962E-08         0.44742E-08         0.00000E+00
   -0.42506E-08         0.30786E-08         0.00000E+00
   -0.31740E-08         0.14885E-08         0.00000E+00
   -0.20101E-08         0.33197E-09         0.00000E+00
   -0.93278E-09        -0.33384E-09         0.00000E+00
    0.18340E-10        -0.63476E-09         0.00000E+00
    0.87151E-09        -0.68719E-09         0.00000E+00
    0.16792E-08        -0.54368E-09         0.00000E+00
    0.24955E-08        -0.19724E-09         0.00000E+00
    0.33598E-08         0.37947E-09         0.00000E+00
    0.42807E-08         0.11342E-08         0.00000E+00
    0.52216E-08         0.17734E-08         0.00000E+00
    0.60724E-08         0.16419E-08         0.00000E+00
    0.65342E-08         0.12773E-08         0.00000E+00
   -0.63467E-08         0.31671E-08         0.00000E+00
   -0.52838E-08         0.37986E-08         0.00000E+00
   -0.30242E-08         0.35092E-08         0.00000E+00
   -0.54910E-09         0.15895E-08         0.00000E+00
    0.16339E-08        -0.69903E-10         0.00000E+00
    0.33825E-08        -0.10595E-08         0.00000E+00
    0.47371E-08        -0.15071E-08         0.00000E+00
    0.58049E-08        -0.16343E-08         0.00000E+00
    0.67050E-08        -0.15915E-08         0.00000E+00
    0.75495E-08        -0.14375E-08         0.00000E+00
    0.84447E-08        -0.11595E-08         0.00000E+00
    0.94948E-08        -0.71162E-09         0.00000E+00
    0.10793E-07        -0.10529E-09         0.00000E+00
    0.12379E-07         0.46181E-09         0.00000E+00
    0.14113E-07         0.59439E-09         0.00000E+00
    0.15252E-07         0.49369E-09         0.00000E+00
    0.19902E-08         0.83429E-09         0.00000E+00
    0.54454E-08         0.65446E-09         0.00000E+00
    0.10506E-07        -0.26059E-09         0.00000E+00
    0.14438E-07        -0.15795E-08         0.00000E+00
    0.17111E-07        -0.24431E-08         0.00000E+00
    0.18865E-07        -0.27713E-08         0.00000E+00
    0.20022E-07        -0.27562E-08         0.00000E+00
    0.20826E-07        -0.26027E-08         0.00000E+00
    0.21450E-07        -0.24317E-08         0.00000E+00
    0.22026E-07        -0.22834E-08         0.00000E+00
    0.22674E-07        -0.21426E-08         0.00000E+00
    0.23524E-07        -0.19689E-08         0.00000E+00
    0.24723E-07        -0.17504E-08         0.00000E+00
    0.26375E-07        -0.15471E-08         0.00000E+00
    0.28337E-07        -0.12302E-08         0.00000E+00
    0.29760E-07        -0.99874E-09         0.00000E+00
    0.36706E-07        -0.37433E-08         0.00000E+00
    0.39649E-07        -0.47177E-08         0.00000E+00
    0.43656E-07        -0.54830E-08         0.00000E+00
    0.46169E-07        -0.50153E-08         0.00000E+00
    0.47422E-07        -0.44970E-08         0.00000E+00
    0.47917E-07        -0.39704E-08         0.00000E+00
    0.48016E-07        -0.34686E-08         0.00000E+00
    0.47929E-07        -0.30620E-08         0.00000E+00
    0.47772E-07        -0.27914E-08         0.00000E+00
    0.47615E-07        -0.26616E-08         0.00000E+00
    0.47514E-07        -0.26576E-08         0.00000E+00
    0.47544E-07        -0.27602E-08         0.00000E+00
    0.47799E-07        -0.29557E-08         0.00000E+00
    0.48347E-07        -0.31522E-08         0.00000E+00
    0.49053E-07        -0.27907E-08         0.00000E+00
    0.49394E-07        -0.23524E-08         0.00000E+00
    0.96129E-07        -0.50533E-08         0.00000E+00
    0.94257E-07        -0.62956E-08         0.00000E+00
    0.91411E-07        -0.67803E-08         0.00000E+00
    0.88774E-07        -0.53456E-08         0.00000E+00
    0.86396E-07        -0.41914E-08         0.00000E+00
    0.84277E-07        -0.33658E-08         0.00000E+00
    0.82425E-07        -0.27683E-08         0.00000E+00
    0.80808E-07        -0.23588E-08         0.00000E+00
    0.79363E-07        -0.21169E-08         0.00000E+00
    0.78017E-07        -0.20254E-08         0.00000E+00
    0.76702E-07        -0.20724E-08         0.00000E+00
    0.75359E-07        -0.22533E-08         0.00000E+00
    0.73941E-07        -0.25525E-08         0.00000E+00
    0.72404E-07        -0.28011E-08         0.00000E+00
    0.70789E-07        -0.22775E-08         0.00000E+00
    0.69613E-07        -0.16808E-08         0.00000E+00
    0.12962E-06         0.00000E+00         0.00000E+00
    0.12457E-06         0.00000E+00         0.00000E+00
    0.11703E-06        -0.33528E-21         0.00000E+00
    0.11101E-06         0.46566E-23         0.00000E+00
    0.10634E-06         0.30268E-21         0.00000E+00
    0.10262E-06         0.00000E+00         0.00000E+00
    0.99607E-07         0.00000E+00         0.00000E+00
    0.97088E-07        -0.27940E-21         0.00000E+00
    0.94890E-07        -0.27008E-21         0.00000E+00
    0.92854E-07         0.26543E-21         0.00000E+00
    0.90839E-07         0.25611E-21         0.00000E+00
    0.88709E-07        -0.25611E-21         0.00000E+00
    0.86332E-07         0.00000E+00         0.00000E+00
    0.83604E-07         0.24214E-21         0.00000E+00
    0.80730E-07         0.46566E-23         0.00000E+00
    0.79049E-07         0.00000E+00         0.00000E+00
CELL_DATA        450
TENSORS stressef double 
    0.14200E+07         0.54367E+04         0.00000E+00
    0.54367E+04        -0.14139E+07         0.00000E+00
    0.00000E+00         0.00000E+00         0.00000E+00
 
    0.13784E+07         0.15638E+05         0.00000E+00
    0.15638E+05        -0.13769E+07         0.00000E+00
    0.00000E+00         0.00000E+00         0.00000E+00
 
    0.13086E+07         0.24158E+05         0.00000E+00
    0.24158E+05        -0.13085E+07         0.00000E+00
    0.00000E+00         0.00000E+00         0.00000E+00
 
    0.12160E+07         0.30756E+05         0.00000E+00
    0.30756E+05        -0.12160E+07         0.00000E+00
    0.00000E+00         0.00000E+00         0.00000E+00
 
    0.11064E+07         0.35409E+05         0.00000E+00
    0.35409E+05        -0.11059E+07         0.00000E+00
    0.00000E+00         0.00000E+00         0.00000E+00
 
    0.98514E+06         0.38200E+05         0.00000E+00
    0.38200E+05        -0.98410E+06         0.00000E+00
    0.00000E+00         0.00000E+00         0.00000E+00
 
    0.85766E+06         0.39275E+05         0.00000E+00
    0.39275E+05        -0.85610E+06         0.00000E+00
    0.00000E+00         0.00000E+00         0.00000E+00
 
    0.72871E+06         0.38821E+05         0.00000E+00
    0.38821E+05        -0.72668E+06         0.00000E+00
    0.00000E+00         0.00000E+00         0.00000E+00
 
    0.60246E+06         0.37058E+05         0.00000E+00
    0.37058E+05        -0.60005E+06         0.00000E+00
    0.00000E+00         0.00000E+00         0.00000E+00
 
    0.48244E+06         0.34246E+05         0.00000E+00
    0.34246E+05        -0.47974E+06         0.00000E+00
    0.00000E+00         0.00000E+00         0.00000E+00
 
    0.37131E+06         0.30684E+05         0.00000E+00
    0.30684E+05        -0.36848E+06         0.00000E+00
    0.00000E+00         0.00000E+00         0.00000E+00
 
    0.27081E+06         0.26729E+05         0.00000E+00
    0.26729E+05        -0.26825E+06         0.00000E+00
    0.00000E+00         0.00000E+00         0.00000E+00
 
    0.18160E+06         0.22789E+05         0.00000E+00
    0.22789E+05        -0.18060E+06         0.00000E+00
    0.00000E+00         0.00000E+00         0.00000E+00
 
    0.10306E+06         0.19317E+05         0.00000E+00
    0.19317E+05        -0.10748E+06         0.00000E+00
    0.00000E+00         0.00000E+00         0.00000E+00
 
    0.33148E+05         0.16829E+05         0.00000E+00
    0.16829E+05        -0.52341E+05         0.00000E+00
    0.00000E+00         0.00000E+00         0.00000E+00
 
    0.14307E+07         0.16601E+05         0.00000E+00
    0.16601E+05        -0.14246E+07         0.00000E+00
    0.00000E+00         0.00000E+00         0.00000E+00
 
    0.13873E+07         0.47119E+05         0.00000E+00
    0.47119E+05        -0.13862E+07         0.00000E+00
    0.00000E+00         0.00000E+00         0.00000E+00
 
    0.13154E+07         0.72642E+05         0.00000E+00
    0.72642E+05        -0.13160E+07         0.00000E+00
    0.00000E+00         0.00000E+00         0.00000E+00
 
    0.12207E+07         0.92410E+05         0.00000E+00
    0.92410E+05        -0.12214E+07         0.00000E+00
    0.00000E+00         0.00000E+00         0.00000E+00
 
    0.11090E+07         0.10634E+06         0.00000E+00
    0.10634E+06        -0.11092E+07         0.00000E+00
    0.00000E+00         0.00000E+00         0.00000E+00
 
    0.98588E+06         0.11469E+06         0.00000E+00
    0.11469E+06        -0.98554E+06         0.00000E+00
    0.00000E+00         0.00000E+00         0.00000E+00
 
    0.85670E+06         0.11789E+06         0.00000E+00
    0.11789E+06        -0.85584E+06         0.00000E+00
    0.00000E+00         0.00000E+00         0.00000E+00
 
    0.72626E+06         0.11651E+06         0.00000E+00
    0.11651E+06        -0.72494E+06         0.00000E+00
    0.00000E+00         0.00000E+00         0.00000E+00
 
    0.59880E+06         0.11120E+06         0.00000E+00
    0.11120E+06        -0.59709E+06         0.00000E+00
    0.00000E+00         0.00000E+00         0.00000E+00
 
    0.47785E+06         0.10274E+06         0.00000E+00
    0.10274E+06        -0.47585E+06         0.00000E+00
    0.00000E+00         0.00000E+00         0.00000E+00
 
    0.36617E+06         0.92008E+05         0.00000E+00
    0.92008E+05        -0.36402E+06         0.00000E+00
    0.00000E+00         0.00000E+00         0.00000E+00
 
    0.26557E+06         0.80068E+05         0.00000E+00
    0.80068E+05        -0.26366E+06         0.00000E+00
    0.00000E+00         0.00000E+00         0.00000E+00
 
    0.17680E+06         0.68135E+05         0.00000E+00
    0.68135E+05        -0.17637E+06         0.00000E+00
    0.00000E+00         0.00000E+00         0.00000E+00
 
    0.99420E+05         0.57563E+05         0.00000E+00
    0.57563E+05        -0.10410E+06         0.00000E+00
    0.00000E+00         0.00000E+00         0.00000E+00
 
    0.31717E+05         0.49780E+05         0.00000E+00
    0.49780E+05        -0.50286E+05         0.00000E+00
    0.00000E+00         0.00000E+00         0.00000E+00
 
    0.14533E+07         0.28007E+05         0.00000E+00
    0.28007E+05        -0.14454E+07         0.00000E+00
    0.00000E+00         0.00000E+00         0.00000E+00
 
    0.14061E+07         0.79042E+05         0.00000E+00
    0.79042E+05        -0.14047E+07         0.00000E+00
    0.00000E+00         0.00000E+00         0.00000E+00
 
    0.13300E+07         0.12155E+06         0.00000E+00
    0.12155E+06        -0.13308E+07         0.00000E+00
    0.00000E+00         0.00000E+00         0.00000E+00
 
    0.12310E+07         0.15444E+06         0.00000E+00
    0.15444E+06        -0.12321E+07         0.00000E+00
    0.00000E+00         0.00000E+00         0.00000E+00
 
    0.11152E+07         0.17758E+06         0.00000E+00
    0.17758E+06        -0.11159E+07         0.00000E+00
    0.00000E+00         0.00000E+00         0.00000E+00
 
    0.98836E+06         0.19141E+06         0.00000E+00
    0.19141E+06        -0.98854E+06         0.00000E+00
    0.00000E+00         0.00000E+00         0.00000E+00
 
    0.85581E+06         0.19668E+06         0.00000E+00
    0.19668E+06        -0.85547E+06         0.00000E+00
    0.00000E+00         0.00000E+00         0.00000E+00
 
    0.72246E+06         0.19432E+06         0.00000E+00
    0.19432E+06        -0.72165E+06         0.00000E+00
    0.00000E+00         0.00000E+00         0.00000E+00
 
    0.59258E+06         0.18541E+06         0.00000E+00
    0.18541E+06        -0.59138E+06         0.00000E+00
    0.00000E+00         0.00000E+00         0.00000E+00
 
    0.46980E+06         0.17121E+06         0.00000E+00
    0.17121E+06        -0.46831E+06         0.00000E+00
    0.00000E+00         0.00000E+00         0.00000E+00
 
    0.35700E+06         0.15319E+06         0.00000E+00
    0.15319E+06        -0.35534E+06         0.00000E+00
    0.00000E+00         0.00000E+00         0.00000E+00
 
    0.25615E+06         0.13305E+06         0.00000E+00
    0.13305E+06        -0.25467E+06         0.00000E+00
    0.00000E+00         0.00000E+00         0.00000E+00
 
    0.16824E+06         0.11279E+06         0.00000E+00
    0.11279E+06        -0.16805E+06         0.00000E+00
    0.00000E+00         0.00000E+00         0.00000E+00
 
    0.93092E+05         0.94634E+05         0.00000E+00
    0.94634E+05        -0.97453E+05         0.00000E+00
    0.00000E+00         0.00000E+00         0.00000E+00
 
    0.29304E+05         0.80810E+05         0.00000E+00
    0.80810E+05        -0.46153E+05         0.00000E+00
    0.00000E+00         0.00000E+00         0.00000E+00
 
    0.14881E+07         0.39589E+05         0.00000E+00
    0.39589E+05        -0.14763E+07         0.00000E+00
    0.00000E+00         0.00000E+00         0.00000E+00
 
    0.14347E+07         0.11143E+06         0.00000E+00
    0.11143E+06        -0.14322E+07         0.00000E+00
    0.00000E+00         0.00000E+00         0.00000E+00
 
    0.13522E+07         0.17100E+06         0.00000E+00
    0.17100E+06        -0.13529E+07         0.00000E+00
    0.00000E+00         0.00000E+00         0.00000E+00
 
    0.12470E+07         0.21694E+06         0.00000E+00
    0.21694E+06        -0.12483E+07         0.00000E+00
    0.00000E+00         0.00000E+00         0.00000E+00
 
    0.11252E+07         0.24917E+06         0.00000E+00
    0.24917E+06        -0.11262E+07         0.00000E+00
    0.00000E+00         0.00000E+00         0.00000E+00
 
    0.99282E+06         0.26838E+06         0.00000E+00
    0.26838E+06        -0.99329E+06         0.00000E+00
    0.00000E+00         0.00000E+00         0.00000E+00
 
    0.85534E+06         0.27562E+06         0.00000E+00
    0.27562E+06        -0.85529E+06         0.00000E+00
    0.00000E+00         0.00000E+00         0.00000E+00
 
    0.71770E+06         0.27221E+06         0.00000E+00
    0.27221E+06        -0.71719E+06         0.00000E+00
    0.00000E+00         0.00000E+00         0.00000E+00
 
    0.58426E+06         0.25963E+06         0.00000E+00
    0.25963E+06        -0.58336E+06         0.00000E+00
    0.00000E+00         0.00000E+00         0.00000E+00
 
    0.45877E+06         0.23959E+06         0.00000E+00
    0.23959E+06        -0.45756E+06         0.00000E+00
    0.00000E+00         0.00000E+00         0.00000E+00
 
    0.34427E+06         0.21408E+06         0.00000E+00
    0.21408E+06        -0.34286E+06         0.00000E+00
    0.00000E+00         0.00000E+00         0.00000E+00
 
    0.24299E+06         0.18542E+06         0.00000E+00
    0.18542E+06        -0.24168E+06         0.00000E+00
    0.00000E+00         0.00000E+00         0.00000E+00
 
    0.15624E+06         0.15631E+06         0.00000E+00
    0.15631E+06        -0.15596E+06         0.00000E+00
    0.00000E+00         0.00000E+00         0.00000E+00
 
    0.84212E+05         0.12979E+06         0.00000E+00
    0.12979E+06        -0.87738E+05         0.00000E+00
    0.00000E+00         0.00000E+00         0.00000E+00
 
    0.25918E+05         0.10891E+06         0.00000E+00
    0.10891E+06        -0.39995E+05         0.00000E+00
    0.00000E+00         0.00000E+00         0.00000E+00
 
    0.15353E+07         0.51345E+05         0.00000E+00
    0.51345E+05        -0.15175E+07         0.00000E+00
    0.00000E+00         0.00000E+00         0.00000E+00
 
    0.14734E+07         0.14423E+06         0.00000E+00
    0.14423E+06        -0.14688E+07         0.00000E+00
    0.00000E+00         0.00000E+00         0.00000E+00
 
    0.13823E+07         0.22093E+06         0.00000E+00
    0.22093E+06        -0.13825E+07         0.00000E+00
    0.00000E+00         0.00000E+00         0.00000E+00
 
    0.12687E+07         0.27982E+06         0.00000E+00
    0.27982E+06        -0.12700E+07         0.00000E+00
    0.00000E+00         0.00000E+00         0.00000E+00
 
    0.11391E+07         0.32099E+06         0.00000E+00
    0.32099E+06        -0.11401E+07         0.00000E+00
    0.00000E+00         0.00000E+00         0.00000E+00
 
    0.99956E+06         0.34540E+06         0.00000E+00
    0.34540E+06        -0.10001E+07         0.00000E+00
    0.00000E+00         0.00000E+00         0.00000E+00
 
    0.85571E+06         0.35450E+06         0.00000E+00
    0.35450E+06        -0.85577E+06         0.00000E+00
    0.00000E+00         0.00000E+00         0.00000E+00
 
    0.71254E+06         0.34996E+06         0.00000E+00
    0.34996E+06        -0.71215E+06         0.00000E+00
    0.00000E+00         0.00000E+00         0.00000E+00
 
    0.57449E+06         0.33366E+06         0.00000E+00
    0.33366E+06        -0.57371E+06         0.00000E+00
    0.00000E+00         0.00000E+00         0.00000E+00
 
    0.44544E+06         0.30771E+06         0.00000E+00
    0.30771E+06        -0.44433E+06         0.00000E+00
    0.00000E+00         0.00000E+00         0.00000E+00
 
    0.32864E+06         0.27451E+06         0.00000E+00
    0.27451E+06        -0.32731E+06         0.00000E+00
    0.00000E+00         0.00000E+00         0.00000E+00
 
    0.22665E+06         0.23692E+06         0.00000E+00
    0.23692E+06        -0.22532E+06         0.00000E+00
    0.00000E+00         0.00000E+00         0.00000E+00
 
    0.14120E+06         0.19829E+06         0.00000E+00
    0.19829E+06        -0.14058E+06         0.00000E+00
    0.00000E+00         0.00000E+00         0.00000E+00
 
    0.73012E+05         0.16240E+06         0.00000E+00
    0.16240E+06        -0.75246E+05         0.00000E+00
    0.00000E+00         0.00000E+00         0.00000E+00
 
    0.21627E+05         0.13313E+06         0.00000E+00
    0.13313E+06        -0.31958E+05         0.00000E+00
    0.00000E+00         0.00000E+00         0.00000E+00
 
    0.15949E+07         0.63267E+05         0.00000E+00
    0.63267E+05        -0.15692E+07         0.00000E+00
    0.00000E+00         0.00000E+00         0.00000E+00
 
    0.15221E+07         0.17736E+06         0.00000E+00
    0.17736E+06        -0.15147E+07         0.00000E+00
    0.00000E+00         0.00000E+00         0.00000E+00
 
    0.14202E+07         0.27112E+06         0.00000E+00
    0.27112E+06        -0.14196E+07         0.00000E+00
    0.00000E+00         0.00000E+00         0.00000E+00
 
    0.12962E+07         0.34276E+06         0.00000E+00
    0.34276E+06        -0.12973E+07         0.00000E+00
    0.00000E+00         0.00000E+00         0.00000E+00
 
    0.11571E+07         0.39261E+06         0.00000E+00
    0.39261E+06        -0.11581E+07         0.00000E+00
    0.00000E+00         0.00000E+00         0.00000E+00
 
    0.10090E+07         0.42202E+06         0.00000E+00
    0.42202E+06        -0.10095E+07         0.00000E+00
    0.00000E+00         0.00000E+00         0.00000E+00
 
    0.85749E+06         0.43285E+06         0.00000E+00
    0.43285E+06        -0.85758E+06         0.00000E+00
    0.00000E+00         0.00000E+00         0.00000E+00
 
    0.70772E+06         0.42714E+06         0.00000E+00
    0.42714E+06        -0.70737E+06         0.00000E+00
    0.00000E+00         0.00000E+00         0.00000E+00
 
    0.56414E+06         0.40713E+06         0.00000E+00
    0.40713E+06        -0.56341E+06         0.00000E+00
    0.00000E+00         0.00000E+00         0.00000E+00
 
    0.43075E+06         0.37523E+06         0.00000E+00
    0.37523E+06        -0.42967E+06         0.00000E+00
    0.00000E+00         0.00000E+00         0.00000E+00
 
    0.31103E+06         0.33420E+06         0.00000E+00
    0.33420E+06        -0.30968E+06         0.00000E+00
    0.00000E+00         0.00000E+00         0.00000E+00
 
    0.20794E+06         0.28730E+06         0.00000E+00
    0.28730E+06        -0.20647E+06         0.00000E+00
    0.00000E+00         0.00000E+00         0.00000E+00
 
    0.12375E+06         0.23838E+06         0.00000E+00
    0.23838E+06        -0.12262E+06         0.00000E+00
    0.00000E+00         0.00000E+00         0.00000E+00
 
    0.59854E+05         0.19191E+06         0.00000E+00
    0.19191E+06        -0.60439E+05         0.00000E+00
    0.00000E+00         0.00000E+00         0.00000E+00
 
    0.16548E+05         0.15259E+06         0.00000E+00
    0.15259E+06        -0.22287E+05         0.00000E+00
    0.00000E+00         0.00000E+00         0.00000E+00
 
    0.16672E+07         0.75302E+05         0.00000E+00
    0.75302E+05        -0.16313E+07         0.00000E+00
    0.00000E+00         0.00000E+00         0.00000E+00
 
    0.15808E+07         0.21058E+06         0.00000E+00
    0.21058E+06        -0.15699E+07         0.00000E+00
    0.00000E+00         0.00000E+00         0.00000E+00
 
    0.14659E+07         0.32114E+06         0.00000E+00
    0.32114E+06        -0.14642E+07         0.00000E+00
    0.00000E+00         0.00000E+00         0.00000E+00
 
    0.13298E+07         0.40516E+06         0.00000E+00
    0.40516E+06        -0.13306E+07         0.00000E+00
    0.00000E+00         0.00000E+00         0.00000E+00
 
    0.11795E+07         0.46330E+06         0.00000E+00
    0.46330E+06        -0.11805E+07         0.00000E+00
    0.00000E+00         0.00000E+00         0.00000E+00
 
    0.10216E+07         0.49742E+06         0.00000E+00
    0.49742E+06        -0.10221E+07         0.00000E+00
    0.00000E+00         0.00000E+00         0.00000E+00
 
    0.86149E+06         0.50982E+06         0.00000E+00
    0.50982E+06        -0.86159E+06         0.00000E+00
    0.00000E+00         0.00000E+00         0.00000E+00
 
    0.70430E+06         0.50297E+06         0.00000E+00
    0.50297E+06        -0.70398E+06         0.00000E+00
    0.00000E+00         0.00000E+00         0.00000E+00
 
    0.55446E+06         0.47936E+06         0.00000E+00
    0.47936E+06        -0.55376E+06         0.00000E+00
    0.00000E+00         0.00000E+00         0.00000E+00
 
    0.41603E+06         0.44165E+06         0.00000E+00
    0.44165E+06        -0.41499E+06         0.00000E+00
    0.00000E+00         0.00000E+00         0.00000E+00
 
    0.29276E+06         0.39279E+06         0.00000E+00
    0.39279E+06        -0.29140E+06         0.00000E+00
    0.00000E+00         0.00000E+00         0.00000E+00
 
    0.18803E+06         0.33627E+06         0.00000E+00
    0.33627E+06        -0.18640E+06         0.00000E+00
    0.00000E+00         0.00000E+00         0.00000E+00
 
    0.10479E+06         0.27631E+06         0.00000E+00
    0.27631E+06        -0.10306E+06         0.00000E+00
    0.00000E+00         0.00000E+00         0.00000E+00
 
    0.45307E+05         0.21791E+06         0.00000E+00
    0.21791E+06        -0.43987E+05         0.00000E+00
    0.00000E+00         0.00000E+00         0.00000E+00
 
    0.10870E+05         0.16656E+06         0.00000E+00
    0.16656E+06        -0.11344E+05         0.00000E+00
    0.00000E+00         0.00000E+00         0.00000E+00
 
    0.17524E+07         0.87323E+05         0.00000E+00
    0.87323E+05        -0.17038E+07         0.00000E+00
    0.00000E+00         0.00000E+00         0.00000E+00
 
    0.16497E+07         0.24348E+06         0.00000E+00
    0.24348E+06        -0.16343E+07         0.00000E+00
    0.00000E+00         0.00000E+00         0.00000E+00
 
    0.15194E+07         0.37029E+06         0.00000E+00
    0.37029E+06        -0.15164E+07         0.00000E+00
    0.00000E+00         0.00000E+00         0.00000E+00
 
    0.13694E+07         0.46604E+06         0.00000E+00
    0.46604E+06        -0.13698E+07         0.00000E+00
    0.00000E+00         0.00000E+00         0.00000E+00
 
    0.12068E+07         0.53189E+06         0.00000E+00
    0.53189E+06        -0.12076E+07         0.00000E+00
    0.00000E+00         0.00000E+00         0.00000E+00
 
    0.10381E+07         0.57031E+06         0.00000E+00
    0.57031E+06        -0.10386E+07         0.00000E+00
    0.00000E+00         0.00000E+00         0.00000E+00
 
    0.86879E+06         0.58415E+06         0.00000E+00
    0.58415E+06        -0.86888E+06         0.00000E+00
    0.00000E+00         0.00000E+00         0.00000E+00
 
    0.70367E+06         0.57625E+06         0.00000E+00
    0.57625E+06        -0.70340E+06         0.00000E+00
    0.00000E+00         0.00000E+00         0.00000E+00
 
    0.54710E+06         0.54935E+06         0.00000E+00
    0.54935E+06        -0.54648E+06         0.00000E+00
    0.00000E+00         0.00000E+00         0.00000E+00
 
    0.40311E+06         0.50621E+06         0.00000E+00
    0.50621E+06        -0.40214E+06         0.00000E+00
    0.00000E+00         0.00000E+00         0.00000E+00
 
    0.27564E+06         0.44979E+06         0.00000E+00
    0.44979E+06        -0.27430E+06         0.00000E+00
    0.00000E+00         0.00000E+00         0.00000E+00
 
    0.16857E+06         0.38358E+06         0.00000E+00
    0.38358E+06        -0.16680E+06         0.00000E+00
    0.00000E+00         0.00000E+00         0.00000E+00
 
    0.85636E+05         0.31192E+06         0.00000E+00
    0.31192E+06        -0.83272E+05         0.00000E+00
    0.00000E+00         0.00000E+00         0.00000E+00
 
    0.30206E+05         0.24018E+06         0.00000E+00
    0.24018E+06        -0.26832E+05         0.00000E+00
    0.00000E+00         0.00000E+00         0.00000E+00
 
    0.48786E+04         0.17455E+06         0.00000E+00
    0.17455E+06         0.35192E+03         0.00000E+00
    0.00000E+00         0.00000E+00         0.00000E+00
 
    0.18504E+07         0.99120E+05         0.00000E+00
    0.99120E+05        -0.17864E+07         0.00000E+00
    0.00000E+00         0.00000E+00         0.00000E+00
 
    0.17285E+07         0.27543E+06         0.00000E+00
    0.27543E+06        -0.17076E+07         0.00000E+00
    0.00000E+00         0.00000E+00         0.00000E+00
 
    0.15807E+07         0.41753E+06         0.00000E+00
    0.41753E+06        -0.15759E+07         0.00000E+00
    0.00000E+00         0.00000E+00         0.00000E+00
 
    0.14151E+07         0.52401E+06         0.00000E+00
    0.52401E+06        -0.14150E+07         0.00000E+00
    0.00000E+00         0.00000E+00         0.00000E+00
 
    0.12393E+07         0.59672E+06         0.00000E+00
    0.59672E+06        -0.12399E+07         0.00000E+00
    0.00000E+00         0.00000E+00         0.00000E+00
 
    0.10594E+07         0.63888E+06         0.00000E+00
    0.63888E+06        -0.10598E+07         0.00000E+00
    0.00000E+00         0.00000E+00         0.00000E+00
 
    0.88069E+06         0.65398E+06         0.00000E+00
    0.65398E+06        -0.88079E+06         0.00000E+00
    0.00000E+00         0.00000E+00         0.00000E+00
 
    0.70762E+06         0.64526E+06         0.00000E+00
    0.64526E+06        -0.70743E+06         0.00000E+00
    0.00000E+00         0.00000E+00         0.00000E+00
 
    0.54422E+06         0.61566E+06         0.00000E+00
    0.61566E+06        -0.54372E+06         0.00000E+00
    0.00000E+00         0.00000E+00         0.00000E+00
 
    0.39435E+06         0.56783E+06         0.00000E+00
    0.56783E+06        -0.39352E+06         0.00000E+00
    0.00000E+00         0.00000E+00         0.00000E+00
 
    0.26208E+06         0.50451E+06         0.00000E+00
    0.50451E+06        -0.26083E+06         0.00000E+00
    0.00000E+00         0.00000E+00         0.00000E+00
 
    0.15177E+06         0.42892E+06         0.00000E+00
    0.42892E+06        -0.14992E+06         0.00000E+00
    0.00000E+00         0.00000E+00         0.00000E+00
 
    0.68069E+05         0.34519E+06         0.00000E+00
    0.34519E+06        -0.65110E+05         0.00000E+00
    0.00000E+00         0.00000E+00         0.00000E+00
 
    0.15713E+05         0.25877E+06         0.00000E+00
    0.25877E+06        -0.10261E+05         0.00000E+00
    0.00000E+00         0.00000E+00         0.00000E+00
 
   -0.10232E+04         0.17639E+06         0.00000E+00
    0.17639E+06         0.12085E+05         0.00000E+00
    0.00000E+00         0.00000E+00         0.00000E+00
 
    0.19611E+07         0.11039E+06         0.00000E+00
    0.11039E+06        -0.18784E+07         0.00000E+00
    0.00000E+00         0.00000E+00         0.00000E+00
 
    0.18169E+07         0.30555E+06         0.00000E+00
    0.30555E+06        -0.17892E+07         0.00000E+00
    0.00000E+00         0.00000E+00         0.00000E+00
 
    0.16493E+07         0.46144E+06         0.00000E+00
    0.46144E+06        -0.16425E+07         0.00000E+00
    0.00000E+00         0.00000E+00         0.00000E+00
 
    0.14670E+07         0.57717E+06         0.00000E+00
    0.57717E+06        -0.14663E+07         0.00000E+00
    0.00000E+00         0.00000E+00         0.00000E+00
 
    0.12774E+07         0.65551E+06         0.00000E+00
    0.65551E+06        -0.12778E+07         0.00000E+00
    0.00000E+00         0.00000E+00         0.00000E+00
 
    0.10864E+07         0.70063E+06         0.00000E+00
    0.70063E+06        -0.10867E+07         0.00000E+00
    0.00000E+00         0.00000E+00         0.00000E+00
 
    0.89877E+06         0.71678E+06         0.00000E+00
    0.71678E+06        -0.89888E+06         0.00000E+00
    0.00000E+00         0.00000E+00         0.00000E+00
 
    0.71832E+06         0.70765E+06         0.00000E+00
    0.70765E+06        -0.71825E+06         0.00000E+00
    0.00000E+00         0.00000E+00         0.00000E+00
 
    0.54849E+06         0.67625E+06         0.00000E+00
    0.67625E+06        -0.54821E+06         0.00000E+00
    0.00000E+00         0.00000E+00         0.00000E+00
 
    0.39278E+06         0.62499E+06         0.00000E+00
    0.62499E+06        -0.39219E+06         0.00000E+00
    0.00000E+00         0.00000E+00         0.00000E+00
 
    0.25518E+06         0.55606E+06         0.00000E+00
    0.55606E+06        -0.25414E+06         0.00000E+00
    0.00000E+00         0.00000E+00         0.00000E+00
 
    0.14051E+06         0.47198E+06         0.00000E+00
    0.47198E+06        -0.13869E+06         0.00000E+00
    0.00000E+00         0.00000E+00         0.00000E+00
 
    0.54459E+05         0.37627E+06         0.00000E+00
    0.37627E+06        -0.51011E+05         0.00000E+00
    0.00000E+00         0.00000E+00         0.00000E+00
 
    0.33914E+04         0.27405E+06         0.00000E+00
    0.27405E+06         0.39936E+04         0.00000E+00
    0.00000E+00         0.00000E+00         0.00000E+00
 
   -0.62863E+04         0.17236E+06         0.00000E+00
    0.17236E+06         0.22880E+05         0.00000E+00
    0.00000E+00         0.00000E+00         0.00000E+00
 
    0.20840E+07         0.12074E+06         0.00000E+00
    0.12074E+06        -0.19789E+07         0.00000E+00
    0.00000E+00         0.00000E+00         0.00000E+00
 
    0.19141E+07         0.33268E+06         0.00000E+00
    0.33268E+06        -0.18783E+07         0.00000E+00
    0.00000E+00         0.00000E+00         0.00000E+00
 
    0.17247E+07         0.50015E+06         0.00000E+00
    0.50015E+06        -0.17153E+07         0.00000E+00
    0.00000E+00         0.00000E+00         0.00000E+00
 
    0.15248E+07         0.62303E+06         0.00000E+00
    0.62303E+06        -0.15232E+07         0.00000E+00
    0.00000E+00         0.00000E+00         0.00000E+00
 
    0.13214E+07         0.70528E+06         0.00000E+00
    0.70528E+06        -0.13215E+07         0.00000E+00
    0.00000E+00         0.00000E+00         0.00000E+00
 
    0.11201E+07         0.75228E+06         0.00000E+00
    0.75228E+06        -0.11203E+07         0.00000E+00
    0.00000E+00         0.00000E+00         0.00000E+00
 
    0.92483E+06         0.76920E+06         0.00000E+00
    0.76920E+06        -0.92496E+06         0.00000E+00
    0.00000E+00         0.00000E+00         0.00000E+00
 
    0.73836E+06         0.76024E+06         0.00000E+00
    0.76024E+06        -0.73846E+06         0.00000E+00
    0.00000E+00         0.00000E+00         0.00000E+00
 
    0.56322E+06         0.72843E+06         0.00000E+00
    0.72843E+06        -0.56324E+06         0.00000E+00
    0.00000E+00         0.00000E+00         0.00000E+00
 
    0.40216E+06         0.67567E+06         0.00000E+00
    0.67567E+06        -0.40195E+06         0.00000E+00
    0.00000E+00         0.00000E+00         0.00000E+00
 
    0.25889E+06         0.60323E+06         0.00000E+00
    0.60323E+06        -0.25820E+06         0.00000E+00
    0.00000E+00         0.00000E+00         0.00000E+00
 
    0.13853E+06         0.51243E+06         0.00000E+00
    0.51243E+06        -0.13691E+06         0.00000E+00
    0.00000E+00         0.00000E+00         0.00000E+00
 
    0.47905E+05         0.40556E+06         0.00000E+00
    0.40556E+06        -0.44170E+05         0.00000E+00
    0.00000E+00         0.00000E+00         0.00000E+00
 
   -0.46851E+04         0.28689E+06         0.00000E+00
    0.28689E+06         0.13635E+05         0.00000E+00
    0.00000E+00         0.00000E+00         0.00000E+00
 
   -0.10177E+05         0.16338E+06         0.00000E+00
    0.16338E+06         0.31427E+05         0.00000E+00
    0.00000E+00         0.00000E+00         0.00000E+00
 
    0.22179E+07         0.12969E+06         0.00000E+00
    0.12969E+06        -0.20867E+07         0.00000E+00
    0.00000E+00         0.00000E+00         0.00000E+00
 
    0.20189E+07         0.35538E+06         0.00000E+00
    0.35538E+06        -0.19737E+07         0.00000E+00
    0.00000E+00         0.00000E+00         0.00000E+00
 
    0.18059E+07         0.53134E+06         0.00000E+00
    0.53134E+06        -0.17934E+07         0.00000E+00
    0.00000E+00         0.00000E+00         0.00000E+00
 
    0.15878E+07         0.65847E+06         0.00000E+00
    0.65847E+06        -0.15852E+07         0.00000E+00
    0.00000E+00         0.00000E+00         0.00000E+00
 
    0.13715E+07         0.74227E+06         0.00000E+00
    0.74227E+06        -0.13711E+07         0.00000E+00
    0.00000E+00         0.00000E+00         0.00000E+00
 
    0.11616E+07         0.78963E+06         0.00000E+00
    0.78963E+06        -0.11616E+07         0.00000E+00
    0.00000E+00         0.00000E+00         0.00000E+00
 
    0.96086E+06         0.80690E+06         0.00000E+00
    0.80690E+06        -0.96102E+06         0.00000E+00
    0.00000E+00         0.00000E+00         0.00000E+00
 
    0.77078E+06         0.79890E+06         0.00000E+00
    0.79890E+06        -0.77113E+06         0.00000E+00
    0.00000E+00         0.00000E+00         0.00000E+00
 
    0.59236E+06         0.76861E+06         0.00000E+00
    0.76861E+06        -0.59282E+06         0.00000E+00
    0.00000E+00         0.00000E+00         0.00000E+00
 
    0.42715E+06         0.71716E+06         0.00000E+00
    0.71716E+06        -0.42750E+06         0.00000E+00
    0.00000E+00         0.00000E+00         0.00000E+00
 
    0.27814E+06         0.64441E+06         0.00000E+00
    0.64441E+06        -0.27803E+06         0.00000E+00
    0.00000E+00         0.00000E+00         0.00000E+00
 
    0.15058E+06         0.54983E+06         0.00000E+00
    0.54983E+06        -0.14939E+06         0.00000E+00
    0.00000E+00         0.00000E+00         0.00000E+00
 
    0.52408E+05         0.43372E+06         0.00000E+00
    0.43372E+06        -0.48716E+05         0.00000E+00
    0.00000E+00         0.00000E+00         0.00000E+00
 
   -0.58042E+04         0.29872E+06         0.00000E+00
    0.29872E+06         0.15648E+05         0.00000E+00
    0.00000E+00         0.00000E+00         0.00000E+00
 
   -0.11726E+05         0.15118E+06         0.00000E+00
    0.15118E+06         0.35983E+05         0.00000E+00
    0.00000E+00         0.00000E+00         0.00000E+00
 
    0.23613E+07         0.13665E+06         0.00000E+00
    0.13665E+06        -0.21998E+07         0.00000E+00
    0.00000E+00         0.00000E+00         0.00000E+00
 
    0.21298E+07         0.37198E+06         0.00000E+00
    0.37198E+06        -0.20735E+07         0.00000E+00
    0.00000E+00         0.00000E+00         0.00000E+00
 
    0.18915E+07         0.55224E+06         0.00000E+00
    0.55224E+06        -0.18753E+07         0.00000E+00
    0.00000E+00         0.00000E+00         0.00000E+00
 
    0.16552E+07         0.67972E+06         0.00000E+00
    0.67972E+06        -0.16512E+07         0.00000E+00
    0.00000E+00         0.00000E+00         0.00000E+00
 
    0.14274E+07         0.76184E+06         0.00000E+00
    0.76184E+06        -0.14263E+07         0.00000E+00
    0.00000E+00         0.00000E+00         0.00000E+00
 
    0.12116E+07         0.80743E+06         0.00000E+00
    0.80743E+06        -0.12113E+07         0.00000E+00
    0.00000E+00         0.00000E+00         0.00000E+00
 
    0.10090E+07         0.82438E+06         0.00000E+00
    0.82438E+06        -0.10092E+07         0.00000E+00
    0.00000E+00         0.00000E+00         0.00000E+00
 
    0.81906E+06         0.81834E+06         0.00000E+00
    0.81834E+06        -0.81972E+06         0.00000E+00
    0.00000E+00         0.00000E+00         0.00000E+00
 
    0.64064E+06         0.79215E+06         0.00000E+00
    0.79215E+06        -0.64168E+06         0.00000E+00
    0.00000E+00         0.00000E+00         0.00000E+00
 
    0.47340E+06         0.74592E+06         0.00000E+00
    0.74592E+06        -0.47452E+06         0.00000E+00
    0.00000E+00         0.00000E+00         0.00000E+00
 
    0.31906E+06         0.67750E+06         0.00000E+00
    0.67750E+06        -0.31980E+06         0.00000E+00
    0.00000E+00         0.00000E+00         0.00000E+00
 
    0.18262E+06         0.58367E+06         0.00000E+00
    0.58367E+06        -0.18220E+06         0.00000E+00
    0.00000E+00         0.00000E+00         0.00000E+00
 
    0.73078E+05         0.46176E+06         0.00000E+00
    0.46176E+06        -0.69925E+05         0.00000E+00
    0.00000E+00         0.00000E+00         0.00000E+00
 
    0.35450E+04         0.31176E+06         0.00000E+00
    0.31176E+06         0.61242E+04         0.00000E+00
    0.00000E+00         0.00000E+00         0.00000E+00
 
   -0.96664E+04         0.13859E+06         0.00000E+00
    0.13859E+06         0.34254E+05         0.00000E+00
    0.00000E+00         0.00000E+00         0.00000E+00
 
    0.25119E+07         0.14098E+06         0.00000E+00
    0.14098E+06        -0.23159E+07         0.00000E+00
    0.00000E+00         0.00000E+00         0.00000E+00
 
    0.22444E+07         0.38054E+06         0.00000E+00
    0.38054E+06        -0.21754E+07         0.00000E+00
    0.00000E+00         0.00000E+00         0.00000E+00
 
    0.19792E+07         0.55965E+06         0.00000E+00
    0.55965E+06        -0.19587E+07         0.00000E+00
    0.00000E+00         0.00000E+00         0.00000E+00
 
    0.17252E+07         0.68230E+06         0.00000E+00
    0.68230E+06        -0.17197E+07         0.00000E+00
    0.00000E+00         0.00000E+00         0.00000E+00
 
    0.14884E+07         0.75838E+06         0.00000E+00
    0.75838E+06        -0.14866E+07         0.00000E+00
    0.00000E+00         0.00000E+00         0.00000E+00
 
    0.12708E+07         0.79925E+06         0.00000E+00
    0.79925E+06        -0.12701E+07         0.00000E+00
    0.00000E+00         0.00000E+00         0.00000E+00
 
    0.10715E+07         0.81483E+06         0.00000E+00
    0.81483E+06        -0.10717E+07         0.00000E+00
    0.00000E+00         0.00000E+00         0.00000E+00
 
    0.88711E+06         0.81188E+06         0.00000E+00
    0.81188E+06        -0.88816E+06         0.00000E+00
    0.00000E+00         0.00000E+00         0.00000E+00
 
    0.71355E+06         0.79317E+06         0.00000E+00
    0.79317E+06        -0.71535E+06         0.00000E+00
    0.00000E+00         0.00000E+00         0.00000E+00
 
    0.54768E+06         0.75740E+06         0.00000E+00
    0.75740E+06        -0.54985E+06         0.00000E+00
    0.00000E+00         0.00000E+00         0.00000E+00
 
    0.38915E+06         0.69976E+06         0.00000E+00
    0.69976E+06        -0.39108E+06         0.00000E+00
    0.00000E+00         0.00000E+00         0.00000E+00
 
    0.24211E+06         0.61332E+06         0.00000E+00
    0.61332E+06        -0.24290E+06         0.00000E+00
    0.00000E+00         0.00000E+00         0.00000E+00
 
    0.11637E+06         0.49112E+06         0.00000E+00
    0.49112E+06        -0.11446E+06         0.00000E+00
    0.00000E+00         0.00000E+00         0.00000E+00
 
    0.27861E+05         0.32916E+06         0.00000E+00
    0.32916E+06        -0.19960E+05         0.00000E+00
    0.00000E+00         0.00000E+00         0.00000E+00
 
   -0.23609E+04         0.12983E+06         0.00000E+00
    0.12983E+06         0.23251E+05         0.00000E+00
    0.00000E+00         0.00000E+00         0.00000E+00
 
    0.26670E+07         0.14201E+06         0.00000E+00
    0.14201E+06        -0.24318E+07         0.00000E+00
    0.00000E+00         0.00000E+00         0.00000E+00
 
    0.23597E+07         0.37902E+06         0.00000E+00
    0.37902E+06        -0.22763E+07         0.00000E+00
    0.00000E+00         0.00000E+00         0.00000E+00
 
    0.20662E+07         0.54997E+06         0.00000E+00
    0.54997E+06        -0.20407E+07         0.00000E+00
    0.00000E+00         0.00000E+00         0.00000E+00
 
    0.17956E+07         0.66103E+06         0.00000E+00
    0.66103E+06        -0.17881E+07         0.00000E+00
    0.00000E+00         0.00000E+00         0.00000E+00
 
    0.15532E+07         0.72524E+06         0.00000E+00
    0.72524E+06        -0.15504E+07         0.00000E+00
    0.00000E+00         0.00000E+00         0.00000E+00
 
    0.13395E+07         0.75731E+06         0.00000E+00
    0.75731E+06        -0.13383E+07         0.00000E+00
    0.00000E+00         0.00000E+00         0.00000E+00
 
    0.11505E+07         0.76990E+06         0.00000E+00
    0.76990E+06        -0.11506E+07         0.00000E+00
    0.00000E+00         0.00000E+00         0.00000E+00
 
    0.97921E+06         0.77131E+06         0.00000E+00
    0.77131E+06        -0.98075E+06         0.00000E+00
    0.00000E+00         0.00000E+00         0.00000E+00
 
    0.81741E+06         0.76430E+06         0.00000E+00
    0.76430E+06        -0.82018E+06         0.00000E+00
    0.00000E+00         0.00000E+00         0.00000E+00
 
    0.65799E+06         0.74584E+06         0.00000E+00
    0.74584E+06        -0.66153E+06         0.00000E+00
    0.00000E+00         0.00000E+00         0.00000E+00
 
    0.49743E+06         0.70767E+06         0.00000E+00
    0.70767E+06        -0.50099E+06         0.00000E+00
    0.00000E+00         0.00000E+00         0.00000E+00
 
    0.33815E+06         0.63791E+06         0.00000E+00
    0.63791E+06        -0.34073E+06         0.00000E+00
    0.00000E+00         0.00000E+00         0.00000E+00
 
    0.19035E+06         0.52372E+06         0.00000E+00
    0.52372E+06        -0.19067E+06         0.00000E+00
    0.00000E+00         0.00000E+00         0.00000E+00
 
    0.72848E+05         0.35531E+06         0.00000E+00
    0.35531E+06        -0.68988E+05         0.00000E+00
    0.00000E+00         0.00000E+00         0.00000E+00
 
    0.12289E+05         0.13097E+06         0.00000E+00
    0.13097E+06        -0.88201E+03         0.00000E+00
    0.00000E+00         0.00000E+00         0.00000E+00
 
    0.28229E+07         0.13910E+06         0.00000E+00
    0.13910E+06        -0.25438E+07         0.00000E+00
    0.00000E+00         0.00000E+00         0.00000E+00
 
    0.24718E+07         0.36529E+06         0.00000E+00
    0.36529E+06        -0.23722E+07         0.00000E+00
    0.00000E+00         0.00000E+00         0.00000E+00
 
    0.21486E+07         0.51932E+06         0.00000E+00
    0.51932E+06        -0.21174E+07         0.00000E+00
    0.00000E+00         0.00000E+00         0.00000E+00
 
    0.18629E+07         0.61002E+06         0.00000E+00
    0.61002E+06        -0.18530E+07         0.00000E+00
    0.00000E+00         0.00000E+00         0.00000E+00
 
    0.16197E+07         0.65465E+06         0.00000E+00
    0.65465E+06        -0.16155E+07         0.00000E+00
    0.00000E+00         0.00000E+00         0.00000E+00
 
    0.14173E+07         0.67240E+06         0.00000E+00
    0.67240E+06        -0.14154E+07         0.00000E+00
    0.00000E+00         0.00000E+00         0.00000E+00
 
    0.12481E+07         0.67959E+06         0.00000E+00
    0.67959E+06        -0.12481E+07         0.00000E+00
    0.00000E+00         0.00000E+00         0.00000E+00
 
    0.11000E+07         0.68667E+06         0.00000E+00
    0.68667E+06        -0.11021E+07         0.00000E+00
    0.00000E+00         0.00000E+00         0.00000E+00
 
    0.95937E+06         0.69654E+06         0.00000E+00
    0.69654E+06        -0.96334E+06         0.00000E+00
    0.00000E+00         0.00000E+00         0.00000E+00
 
    0.81361E+06         0.70409E+06         0.00000E+00
    0.70409E+06        -0.81890E+06         0.00000E+00
    0.00000E+00         0.00000E+00         0.00000E+00
 
    0.65460E+06         0.69677E+06         0.00000E+00
    0.69677E+06        -0.66031E+06         0.00000E+00
    0.00000E+00         0.00000E+00         0.00000E+00
 
    0.48180E+06         0.65631E+06         0.00000E+00
    0.65631E+06        -0.48691E+06         0.00000E+00
    0.00000E+00         0.00000E+00         0.00000E+00
 
    0.30494E+06         0.56205E+06         0.00000E+00
    0.56205E+06        -0.30882E+06         0.00000E+00
    0.00000E+00         0.00000E+00         0.00000E+00
 
    0.14566E+06         0.39606E+06         0.00000E+00
    0.39606E+06        -0.14900E+06         0.00000E+00
    0.00000E+00         0.00000E+00         0.00000E+00
 
    0.36946E+05         0.15038E+06         0.00000E+00
    0.15038E+06        -0.43079E+05         0.00000E+00
    0.00000E+00         0.00000E+00         0.00000E+00
 
    0.29753E+07         0.13169E+06         0.00000E+00
    0.13169E+06        -0.26475E+07         0.00000E+00
    0.00000E+00         0.00000E+00         0.00000E+00
 
    0.25761E+07         0.33729E+06         0.00000E+00
    0.33729E+06        -0.24582E+07         0.00000E+00
    0.00000E+00         0.00000E+00         0.00000E+00
 
    0.22213E+07         0.46349E+06         0.00000E+00
    0.46349E+06        -0.21835E+07         0.00000E+00
    0.00000E+00         0.00000E+00         0.00000E+00
 
    0.19226E+07         0.52261E+06         0.00000E+00
    0.52261E+06        -0.19098E+07         0.00000E+00
    0.00000E+00         0.00000E+00         0.00000E+00
 
    0.16847E+07         0.53759E+06         0.00000E+00
    0.53759E+06        -0.16789E+07         0.00000E+00
    0.00000E+00         0.00000E+00         0.00000E+00
 
    0.15034E+07         0.53369E+06         0.00000E+00
    0.53369E+06        -0.15006E+07         0.00000E+00
    0.00000E+00         0.00000E+00         0.00000E+00
 
    0.13661E+07         0.53217E+06         0.00000E+00
    0.53217E+06        -0.13661E+07         0.00000E+00
    0.00000E+00         0.00000E+00         0.00000E+00
 
    0.12544E+07         0.54628E+06         0.00000E+00
    0.54628E+06        -0.12572E+07         0.00000E+00
    0.00000E+00         0.00000E+00         0.00000E+00
 
    0.11473E+07         0.57924E+06         0.00000E+00
    0.57924E+06        -0.11528E+07         0.00000E+00
    0.00000E+00         0.00000E+00         0.00000E+00
 
    0.10250E+07         0.62356E+06         0.00000E+00
    0.62356E+06        -0.10325E+07         0.00000E+00
    0.00000E+00         0.00000E+00         0.00000E+00
 
    0.87304E+06         0.66154E+06         0.00000E+00
    0.66154E+06        -0.88150E+06         0.00000E+00
    0.00000E+00         0.00000E+00         0.00000E+00
 
    0.68615E+06         0.66702E+06         0.00000E+00
    0.66702E+06        -0.69470E+06         0.00000E+00
    0.00000E+00         0.00000E+00         0.00000E+00
 
    0.47225E+06         0.60918E+06         0.00000E+00
    0.60918E+06        -0.48143E+06         0.00000E+00
    0.00000E+00         0.00000E+00         0.00000E+00
 
    0.25520E+06         0.45902E+06         0.00000E+00
    0.45902E+06        -0.27000E+06         0.00000E+00
    0.00000E+00         0.00000E+00         0.00000E+00
 
    0.74960E+05         0.19937E+06         0.00000E+00
    0.19937E+06        -0.10961E+06         0.00000E+00
    0.00000E+00         0.00000E+00         0.00000E+00
 
    0.31198E+07         0.11939E+06         0.00000E+00
    0.11939E+06        -0.27375E+07         0.00000E+00
    0.00000E+00         0.00000E+00         0.00000E+00
 
    0.26668E+07         0.29311E+06         0.00000E+00
    0.29311E+06        -0.25283E+07         0.00000E+00
    0.00000E+00         0.00000E+00         0.00000E+00
 
    0.22781E+07         0.37798E+06         0.00000E+00
    0.37798E+06        -0.22327E+07         0.00000E+00
    0.00000E+00         0.00000E+00         0.00000E+00
 
    0.19688E+07         0.39115E+06         0.00000E+00
    0.39115E+06        -0.19527E+07         0.00000E+00
    0.00000E+00         0.00000E+00         0.00000E+00
 
    0.17442E+07         0.36354E+06         0.00000E+00
    0.36354E+06        -0.17365E+07         0.00000E+00
    0.00000E+00         0.00000E+00         0.00000E+00
 
    0.15966E+07         0.32871E+06         0.00000E+00
    0.32871E+06        -0.15928E+07         0.00000E+00
    0.00000E+00         0.00000E+00         0.00000E+00
 
    0.15068E+07         0.31429E+06         0.00000E+00
    0.31429E+06        -0.15066E+07         0.00000E+00
    0.00000E+00         0.00000E+00         0.00000E+00
 
    0.14479E+07         0.33698E+06         0.00000E+00
    0.33698E+06        -0.14515E+07         0.00000E+00
    0.00000E+00         0.00000E+00         0.00000E+00
 
    0.13898E+07         0.40038E+06         0.00000E+00
    0.40038E+06        -0.13970E+07         0.00000E+00
    0.00000E+00         0.00000E+00         0.00000E+00
 
    0.13037E+07         0.49434E+06         0.00000E+00
    0.49434E+06        -0.13137E+07         0.00000E+00
    0.00000E+00         0.00000E+00         0.00000E+00
 
    0.11666E+07         0.59534E+06         0.00000E+00
    0.59534E+06        -0.11784E+07         0.00000E+00
    0.00000E+00         0.00000E+00         0.00000E+00
 
    0.96628E+06         0.66798E+06         0.00000E+00
    0.66798E+06        -0.97935E+06         0.00000E+00
    0.00000E+00         0.00000E+00         0.00000E+00
 
    0.70665E+06         0.66873E+06         0.00000E+00
    0.66873E+06        -0.72341E+06         0.00000E+00
    0.00000E+00         0.00000E+00         0.00000E+00
 
    0.41236E+06         0.55390E+06         0.00000E+00
    0.55390E+06        -0.44436E+06         0.00000E+00
    0.00000E+00         0.00000E+00         0.00000E+00
 
    0.13052E+06         0.29293E+06         0.00000E+00
    0.29293E+06        -0.20844E+06         0.00000E+00
    0.00000E+00         0.00000E+00         0.00000E+00
 
    0.32517E+07         0.10206E+06         0.00000E+00
    0.10206E+06        -0.28077E+07         0.00000E+00
    0.00000E+00         0.00000E+00         0.00000E+00
 
    0.27373E+07         0.23095E+06         0.00000E+00
    0.23095E+06        -0.25751E+07         0.00000E+00
    0.00000E+00         0.00000E+00         0.00000E+00
 
    0.23110E+07         0.25760E+06         0.00000E+00
    0.25760E+06        -0.22567E+07         0.00000E+00
    0.00000E+00         0.00000E+00         0.00000E+00
 
    0.19946E+07         0.20644E+06         0.00000E+00
    0.20644E+06        -0.19744E+07         0.00000E+00
    0.00000E+00         0.00000E+00         0.00000E+00
 
    0.17939E+07         0.12009E+06         0.00000E+00
    0.12009E+06        -0.17840E+07         0.00000E+00
    0.00000E+00         0.00000E+00         0.00000E+00
 
    0.16960E+07         0.43324E+05         0.00000E+00
    0.43324E+05        -0.16913E+07         0.00000E+00
    0.00000E+00         0.00000E+00         0.00000E+00
 
    0.16727E+07         0.11529E+05         0.00000E+00
    0.11529E+05        -0.16727E+07         0.00000E+00
    0.00000E+00         0.00000E+00         0.00000E+00
 
    0.16863E+07         0.45022E+05         0.00000E+00
    0.45022E+05        -0.16910E+07         0.00000E+00
    0.00000E+00         0.00000E+00         0.00000E+00
 
    0.16957E+07         0.14743E+06         0.00000E+00
    0.14743E+06        -0.17048E+07         0.00000E+00
    0.00000E+00         0.00000E+00         0.00000E+00
 
    0.16614E+07         0.30575E+06         0.00000E+00
    0.30575E+06        -0.16743E+07         0.00000E+00
    0.00000E+00         0.00000E+00         0.00000E+00
 
    0.15498E+07         0.49051E+06         0.00000E+00
    0.49051E+06        -0.15656E+07         0.00000E+00
    0.00000E+00         0.00000E+00         0.00000E+00
 
    0.13388E+07         0.65629E+06         0.00000E+00
    0.65629E+06        -0.13576E+07         0.00000E+00
    0.00000E+00         0.00000E+00         0.00000E+00
 
    0.10249E+07         0.74458E+06         0.00000E+00
    0.74458E+06        -0.10521E+07         0.00000E+00
    0.00000E+00         0.00000E+00         0.00000E+00
 
    0.63042E+06         0.69261E+06         0.00000E+00
    0.69261E+06        -0.68725E+06         0.00000E+00
    0.00000E+00         0.00000E+00         0.00000E+00
 
    0.20887E+06         0.45059E+06         0.00000E+00
    0.45059E+06        -0.34971E+06         0.00000E+00
    0.00000E+00         0.00000E+00         0.00000E+00
 
    0.33670E+07         0.79829E+05         0.00000E+00
    0.79829E+05        -0.28509E+07         0.00000E+00
    0.00000E+00         0.00000E+00         0.00000E+00
 
    0.27797E+07         0.14875E+06         0.00000E+00
    0.14875E+06        -0.25895E+07         0.00000E+00
    0.00000E+00         0.00000E+00         0.00000E+00
 
    0.23108E+07         0.95463E+05         0.00000E+00
    0.95463E+05        -0.22458E+07         0.00000E+00
    0.00000E+00         0.00000E+00         0.00000E+00
 
    0.19923E+07        -0.43498E+05         0.00000E+00
   -0.43498E+05        -0.19675E+07         0.00000E+00
    0.00000E+00         0.00000E+00         0.00000E+00
 
    0.18303E+07        -0.20789E+06         0.00000E+00
   -0.20789E+06        -0.18183E+07         0.00000E+00
    0.00000E+00         0.00000E+00         0.00000E+00
 
    0.18030E+07        -0.33805E+06         0.00000E+00
   -0.33805E+06        -0.17978E+07         0.00000E+00
    0.00000E+00         0.00000E+00         0.00000E+00
 
    0.18690E+07        -0.39028E+06         0.00000E+00
   -0.39028E+06        -0.18696E+07         0.00000E+00
    0.00000E+00         0.00000E+00         0.00000E+00
 
    0.19770E+07        -0.34195E+06         0.00000E+00
   -0.34195E+06        -0.19831E+07         0.00000E+00
    0.00000E+00         0.00000E+00         0.00000E+00
 
    0.20739E+07        -0.19062E+06         0.00000E+00
   -0.19062E+06        -0.20851E+07         0.00000E+00
    0.00000E+00         0.00000E+00         0.00000E+00
 
    0.21089E+07         0.47748E+05         0.00000E+00
    0.47748E+05        -0.21247E+07         0.00000E+00
    0.00000E+00         0.00000E+00         0.00000E+00
 
    0.20364E+07         0.33874E+06         0.00000E+00
    0.33874E+06        -0.20564E+07         0.00000E+00
    0.00000E+00         0.00000E+00         0.00000E+00
 
    0.18208E+07         0.62776E+06         0.00000E+00
    0.62776E+06        -0.18466E+07         0.00000E+00
    0.00000E+00         0.00000E+00         0.00000E+00
 
    0.14457E+07         0.84016E+06         0.00000E+00
    0.84016E+06        -0.14871E+07         0.00000E+00
    0.00000E+00         0.00000E+00         0.00000E+00
 
    0.92538E+06         0.88916E+06         0.00000E+00
    0.88916E+06        -0.10172E+07         0.00000E+00
    0.00000E+00         0.00000E+00         0.00000E+00
 
    0.31658E+06         0.69752E+06         0.00000E+00
    0.69752E+06        -0.54662E+06         0.00000E+00
    0.00000E+00         0.00000E+00         0.00000E+00
 
    0.34632E+07         0.52987E+05         0.00000E+00
    0.52987E+05        -0.28575E+07         0.00000E+00
    0.00000E+00         0.00000E+00         0.00000E+00
 
    0.27854E+07         0.43086E+05         0.00000E+00
    0.43086E+05        -0.25597E+07         0.00000E+00
    0.00000E+00         0.00000E+00         0.00000E+00
 
    0.22671E+07        -0.11934E+06         0.00000E+00
   -0.11934E+06        -0.21885E+07         0.00000E+00
    0.00000E+00         0.00000E+00         0.00000E+00
 
    0.19559E+07        -0.37610E+06         0.00000E+00
   -0.37610E+06        -0.19260E+07         0.00000E+00
    0.00000E+00         0.00000E+00         0.00000E+00
 
    0.18547E+07        -0.63957E+06         0.00000E+00
   -0.63957E+06        -0.18415E+07         0.00000E+00
    0.00000E+00         0.00000E+00         0.00000E+00
 
    0.19251E+07        -0.83151E+06         0.00000E+00
   -0.83151E+06        -0.19207E+07         0.00000E+00
    0.00000E+00         0.00000E+00         0.00000E+00
 
    0.21058E+07        -0.90218E+06         0.00000E+00
   -0.90218E+06        -0.21081E+07         0.00000E+00
    0.00000E+00         0.00000E+00         0.00000E+00
 
    0.23295E+07        -0.83097E+06         0.00000E+00
   -0.83097E+06        -0.23376E+07         0.00000E+00
    0.00000E+00         0.00000E+00         0.00000E+00
 
    0.25321E+07        -0.61948E+06         0.00000E+00
   -0.61948E+06        -0.25453E+07         0.00000E+00
    0.00000E+00         0.00000E+00         0.00000E+00
 
    0.26534E+07        -0.28637E+06         0.00000E+00
   -0.28637E+06        -0.26717E+07         0.00000E+00
    0.00000E+00         0.00000E+00         0.00000E+00
 
    0.26359E+07         0.13207E+06         0.00000E+00
    0.13207E+06        -0.26599E+07         0.00000E+00
    0.00000E+00         0.00000E+00         0.00000E+00
 
    0.24269E+07         0.57614E+06         0.00000E+00
    0.57614E+06        -0.24606E+07         0.00000E+00
    0.00000E+00         0.00000E+00         0.00000E+00
 
    0.19884E+07         0.95675E+06         0.00000E+00
    0.95675E+06        -0.20487E+07         0.00000E+00
    0.00000E+00         0.00000E+00         0.00000E+00
 
    0.13163E+07         0.11589E+07         0.00000E+00
    0.11589E+07        -0.14571E+07         0.00000E+00
    0.00000E+00         0.00000E+00         0.00000E+00
 
    0.46203E+06         0.10659E+07         0.00000E+00
    0.10659E+07        -0.81705E+06         0.00000E+00
    0.00000E+00         0.00000E+00         0.00000E+00
 
    0.35402E+07         0.21481E+05         0.00000E+00
    0.21481E+05        -0.28144E+07         0.00000E+00
    0.00000E+00         0.00000E+00         0.00000E+00
 
    0.27436E+07        -0.93415E+05         0.00000E+00
   -0.93415E+05        -0.24695E+07         0.00000E+00
    0.00000E+00         0.00000E+00         0.00000E+00
 
    0.21689E+07        -0.40711E+06         0.00000E+00
   -0.40711E+06        -0.20725E+07         0.00000E+00
    0.00000E+00         0.00000E+00         0.00000E+00
 
    0.18852E+07        -0.81939E+06         0.00000E+00
   -0.81939E+06        -0.18505E+07         0.00000E+00
    0.00000E+00         0.00000E+00         0.00000E+00
 
    0.18803E+07        -0.11997E+07         0.00000E+00
   -0.11997E+07        -0.18683E+07         0.00000E+00
    0.00000E+00         0.00000E+00         0.00000E+00
 
    0.20830E+07        -0.14509E+07         0.00000E+00
   -0.14509E+07        -0.20820E+07         0.00000E+00
    0.00000E+00         0.00000E+00         0.00000E+00
 
    0.24029E+07        -0.15262E+07         0.00000E+00
   -0.15262E+07        -0.24088E+07         0.00000E+00
    0.00000E+00         0.00000E+00         0.00000E+00
 
    0.27570E+07        -0.14168E+07         0.00000E+00
   -0.14168E+07        -0.27677E+07         0.00000E+00
    0.00000E+00         0.00000E+00         0.00000E+00
 
    0.30753E+07        -0.11330E+07         0.00000E+00
   -0.11330E+07        -0.30901E+07         0.00000E+00
    0.00000E+00         0.00000E+00         0.00000E+00
 
    0.32944E+07        -0.69512E+06         0.00000E+00
   -0.69512E+06        -0.33140E+07         0.00000E+00
    0.00000E+00         0.00000E+00         0.00000E+00
 
    0.33482E+07        -0.13494E+06         0.00000E+00
   -0.13494E+06        -0.33752E+07         0.00000E+00
    0.00000E+00         0.00000E+00         0.00000E+00
 
    0.31640E+07         0.49216E+06         0.00000E+00
    0.49216E+06        -0.32063E+07         0.00000E+00
    0.00000E+00         0.00000E+00         0.00000E+00
 
    0.26706E+07         0.10905E+07         0.00000E+00
    0.10905E+07        -0.27557E+07         0.00000E+00
    0.00000E+00         0.00000E+00         0.00000E+00
 
    0.18253E+07         0.15159E+07         0.00000E+00
    0.15159E+07        -0.20348E+07         0.00000E+00
    0.00000E+00         0.00000E+00         0.00000E+00
 
    0.65615E+06         0.15963E+07         0.00000E+00
    0.15963E+07        -0.11867E+07         0.00000E+00
    0.00000E+00         0.00000E+00         0.00000E+00
 
    0.36011E+07        -0.15495E+05         0.00000E+00
   -0.15495E+05        -0.26998E+07         0.00000E+00
    0.00000E+00         0.00000E+00         0.00000E+00
 
    0.26408E+07        -0.27880E+06         0.00000E+00
   -0.27880E+06        -0.22929E+07         0.00000E+00
    0.00000E+00         0.00000E+00         0.00000E+00
 
    0.20097E+07        -0.81036E+06         0.00000E+00
   -0.81036E+06        -0.18881E+07         0.00000E+00
    0.00000E+00         0.00000E+00         0.00000E+00
 
    0.17991E+07        -0.14210E+07         0.00000E+00
   -0.14210E+07        -0.17616E+07         0.00000E+00
    0.00000E+00         0.00000E+00         0.00000E+00
 
    0.19478E+07        -0.19184E+07         0.00000E+00
   -0.19184E+07        -0.19417E+07         0.00000E+00
    0.00000E+00         0.00000E+00         0.00000E+00
 
    0.23225E+07        -0.21999E+07         0.00000E+00
   -0.21999E+07        -0.23289E+07         0.00000E+00
    0.00000E+00         0.00000E+00         0.00000E+00
 
    0.27963E+07        -0.22447E+07         0.00000E+00
   -0.22447E+07        -0.28079E+07         0.00000E+00
    0.00000E+00         0.00000E+00         0.00000E+00
 
    0.32775E+07        -0.20710E+07         0.00000E+00
   -0.20710E+07        -0.32912E+07         0.00000E+00
    0.00000E+00         0.00000E+00         0.00000E+00
 
    0.37029E+07        -0.17035E+07         0.00000E+00
   -0.17035E+07        -0.37181E+07         0.00000E+00
    0.00000E+00         0.00000E+00         0.00000E+00
 
    0.40176E+07        -0.11611E+07         0.00000E+00
   -0.11611E+07        -0.40365E+07         0.00000E+00
    0.00000E+00         0.00000E+00         0.00000E+00
 
    0.41551E+07        -0.46059E+06         0.00000E+00
   -0.46059E+06        -0.41829E+07         0.00000E+00
    0.00000E+00         0.00000E+00         0.00000E+00
 
    0.40222E+07         0.36354E+06         0.00000E+00
    0.36354E+06        -0.40734E+07         0.00000E+00
    0.00000E+00         0.00000E+00         0.00000E+00
 
    0.35005E+07         0.12279E+07         0.00000E+00
    0.12279E+07        -0.36187E+07         0.00000E+00
    0.00000E+00         0.00000E+00         0.00000E+00
 
    0.24763E+07         0.19686E+07         0.00000E+00
    0.19686E+07        -0.27839E+07         0.00000E+00
    0.00000E+00         0.00000E+00         0.00000E+00
 
    0.91312E+06         0.23403E+07         0.00000E+00
    0.23403E+07        -0.16949E+07         0.00000E+00
    0.00000E+00         0.00000E+00         0.00000E+00
 
    0.36660E+07        -0.59221E+05         0.00000E+00
   -0.59221E+05        -0.24586E+07         0.00000E+00
    0.00000E+00         0.00000E+00         0.00000E+00
 
    0.24652E+07        -0.56533E+06         0.00000E+00
   -0.56533E+06        -0.19846E+07         0.00000E+00
    0.00000E+00         0.00000E+00         0.00000E+00
 
    0.18070E+07        -0.14217E+07         0.00000E+00
   -0.14217E+07        -0.16490E+07         0.00000E+00
    0.00000E+00         0.00000E+00         0.00000E+00
 
    0.17654E+07        -0.22556E+07         0.00000E+00
   -0.22556E+07        -0.17343E+07         0.00000E+00
    0.00000E+00         0.00000E+00         0.00000E+00
 
    0.21475E+07        -0.28185E+07         0.00000E+00
   -0.28185E+07        -0.21596E+07         0.00000E+00
    0.00000E+00         0.00000E+00         0.00000E+00
 
    0.27229E+07        -0.30528E+07         0.00000E+00
   -0.30528E+07        -0.27465E+07         0.00000E+00
    0.00000E+00         0.00000E+00         0.00000E+00
 
    0.33355E+07        -0.30022E+07         0.00000E+00
   -0.30022E+07        -0.33596E+07         0.00000E+00
    0.00000E+00         0.00000E+00         0.00000E+00
 
    0.39065E+07        -0.27279E+07         0.00000E+00
   -0.27279E+07        -0.39278E+07         0.00000E+00
    0.00000E+00         0.00000E+00         0.00000E+00
 
    0.43990E+07        -0.22704E+07         0.00000E+00
   -0.22704E+07        -0.44183E+07         0.00000E+00
    0.00000E+00         0.00000E+00         0.00000E+00
 
    0.47832E+07        -0.16405E+07         0.00000E+00
   -0.16405E+07        -0.48041E+07         0.00000E+00
    0.00000E+00         0.00000E+00         0.00000E+00
 
    0.50046E+07        -0.82724E+06         0.00000E+00
   -0.82724E+06        -0.50358E+07         0.00000E+00
    0.00000E+00         0.00000E+00         0.00000E+00
 
    0.49558E+07         0.17912E+06         0.00000E+00
    0.17912E+06        -0.50210E+07         0.00000E+00
    0.00000E+00         0.00000E+00         0.00000E+00
 
    0.44589E+07         0.13418E+07         0.00000E+00
    0.13418E+07        -0.46276E+07         0.00000E+00
    0.00000E+00         0.00000E+00         0.00000E+00
 
    0.32839E+07         0.25103E+07         0.00000E+00
    0.25103E+07        -0.37407E+07         0.00000E+00
    0.00000E+00         0.00000E+00         0.00000E+00
 
    0.12481E+07         0.33605E+07         0.00000E+00
    0.33605E+07        -0.24053E+07         0.00000E+00
    0.00000E+00         0.00000E+00         0.00000E+00
 
    0.38154E+07        -0.12701E+06         0.00000E+00
   -0.12701E+06        -0.19439E+07         0.00000E+00
    0.00000E+00         0.00000E+00         0.00000E+00
 
    0.22146E+07        -0.11043E+07         0.00000E+00
   -0.11043E+07        -0.15054E+07         0.00000E+00
    0.00000E+00         0.00000E+00         0.00000E+00
 
    0.16303E+07        -0.24125E+07         0.00000E+00
   -0.24125E+07        -0.14744E+07         0.00000E+00
    0.00000E+00         0.00000E+00         0.00000E+00
 
    0.19131E+07        -0.33989E+07         0.00000E+00
   -0.33989E+07        -0.19650E+07         0.00000E+00
    0.00000E+00         0.00000E+00         0.00000E+00
 
    0.25954E+07        -0.38705E+07         0.00000E+00
   -0.38705E+07        -0.27028E+07         0.00000E+00
    0.00000E+00         0.00000E+00         0.00000E+00
 
    0.33456E+07        -0.39170E+07         0.00000E+00
   -0.39170E+07        -0.34576E+07         0.00000E+00
    0.00000E+00         0.00000E+00         0.00000E+00
 
    0.40227E+07        -0.36833E+07         0.00000E+00
   -0.36833E+07        -0.41266E+07         0.00000E+00
    0.00000E+00         0.00000E+00         0.00000E+00
 
    0.45964E+07        -0.32731E+07         0.00000E+00
   -0.32731E+07        -0.46911E+07         0.00000E+00
    0.00000E+00         0.00000E+00         0.00000E+00
 
    0.50774E+07        -0.27319E+07         0.00000E+00
   -0.27319E+07        -0.51652E+07         0.00000E+00
    0.00000E+00         0.00000E+00         0.00000E+00
 
    0.54736E+07        -0.20532E+07         0.00000E+00
   -0.20532E+07        -0.55596E+07         0.00000E+00
    0.00000E+00         0.00000E+00         0.00000E+00
 
    0.57571E+07        -0.11874E+07         0.00000E+00
   -0.11874E+07        -0.58533E+07         0.00000E+00
    0.00000E+00         0.00000E+00         0.00000E+00
 
    0.58228E+07        -0.57856E+05         0.00000E+00
   -0.57856E+05        -0.59644E+07         0.00000E+00
    0.00000E+00         0.00000E+00         0.00000E+00
 
    0.54368E+07         0.13945E+07         0.00000E+00
    0.13945E+07        -0.57303E+07         0.00000E+00
    0.00000E+00         0.00000E+00         0.00000E+00
 
    0.42048E+07         0.31075E+07         0.00000E+00
    0.31075E+07        -0.49300E+07         0.00000E+00
    0.00000E+00         0.00000E+00         0.00000E+00
 
    0.16589E+07         0.47239E+07         0.00000E+00
    0.47239E+07        -0.34167E+07         0.00000E+00
    0.00000E+00         0.00000E+00         0.00000E+00
 
    0.40849E+07        -0.34508E+06         0.00000E+00
   -0.34508E+06        -0.98245E+06         0.00000E+00
    0.00000E+00         0.00000E+00         0.00000E+00
 
    0.17943E+07        -0.22267E+07         0.00000E+00
   -0.22267E+07        -0.10397E+07         0.00000E+00
    0.00000E+00         0.00000E+00         0.00000E+00
 
    0.15085E+07        -0.39688E+07         0.00000E+00
   -0.39688E+07        -0.17773E+07         0.00000E+00
    0.00000E+00         0.00000E+00         0.00000E+00
 
    0.22605E+07        -0.48049E+07         0.00000E+00
   -0.48049E+07        -0.28399E+07         0.00000E+00
    0.00000E+00         0.00000E+00         0.00000E+00
 
    0.31953E+07        -0.48987E+07         0.00000E+00
   -0.48987E+07        -0.38192E+07         0.00000E+00
    0.00000E+00         0.00000E+00         0.00000E+00
 
    0.39789E+07        -0.45887E+07         0.00000E+00
   -0.45887E+07        -0.45833E+07         0.00000E+00
    0.00000E+00         0.00000E+00         0.00000E+00
 
    0.45680E+07        -0.41025E+07         0.00000E+00
   -0.41025E+07        -0.51472E+07         0.00000E+00
    0.00000E+00         0.00000E+00         0.00000E+00
 
    0.50123E+07        -0.35480E+07         0.00000E+00
   -0.35480E+07        -0.55708E+07         0.00000E+00
    0.00000E+00         0.00000E+00         0.00000E+00
 
    0.53746E+07        -0.29520E+07         0.00000E+00
   -0.29520E+07        -0.59169E+07         0.00000E+00
    0.00000E+00         0.00000E+00         0.00000E+00
 
    0.57012E+07        -0.22823E+07         0.00000E+00
   -0.22823E+07        -0.62323E+07         0.00000E+00
    0.00000E+00         0.00000E+00         0.00000E+00
 
    0.60009E+07        -0.14511E+07         0.00000E+00
   -0.14511E+07        -0.65319E+07         0.00000E+00
    0.00000E+00         0.00000E+00         0.00000E+00
 
    0.62002E+07        -0.30721E+06         0.00000E+00
   -0.30721E+06        -0.67733E+07         0.00000E+00
    0.00000E+00         0.00000E+00         0.00000E+00
 
    0.60481E+07         0.13535E+07         0.00000E+00
    0.13535E+07        -0.68089E+07         0.00000E+00
    0.00000E+00         0.00000E+00         0.00000E+00
 
    0.49778E+07         0.36819E+07         0.00000E+00
    0.36819E+07        -0.63294E+07         0.00000E+00
    0.00000E+00         0.00000E+00         0.00000E+00
 
    0.20589E+07         0.64559E+07         0.00000E+00
    0.64559E+07        -0.48622E+07         0.00000E+00
    0.00000E+00         0.00000E+00         0.00000E+00
 
    0.35552E+07        -0.11372E+07         0.00000E+00
   -0.11372E+07        -0.96290E+05         0.00000E+00
    0.00000E+00         0.00000E+00         0.00000E+00
 
    0.50879E+06        -0.43263E+07         0.00000E+00
   -0.43263E+07        -0.15472E+07         0.00000E+00
    0.00000E+00         0.00000E+00         0.00000E+00
 
    0.90994E+06        -0.59706E+07         0.00000E+00
   -0.59706E+07        -0.34362E+07         0.00000E+00
    0.00000E+00         0.00000E+00         0.00000E+00
 
    0.20816E+07        -0.60689E+07         0.00000E+00
   -0.60689E+07        -0.48472E+07         0.00000E+00
    0.00000E+00         0.00000E+00         0.00000E+00
 
    0.29940E+07        -0.54955E+07         0.00000E+00
   -0.54955E+07        -0.56870E+07         0.00000E+00
    0.00000E+00         0.00000E+00         0.00000E+00
 
    0.35480E+07        -0.47550E+07         0.00000E+00
   -0.47550E+07        -0.61449E+07         0.00000E+00
    0.00000E+00         0.00000E+00         0.00000E+00
 
    0.38587E+07        -0.40367E+07         0.00000E+00
   -0.40367E+07        -0.63818E+07         0.00000E+00
    0.00000E+00         0.00000E+00         0.00000E+00
 
    0.40445E+07        -0.33896E+07         0.00000E+00
   -0.33896E+07        -0.65119E+07         0.00000E+00
    0.00000E+00         0.00000E+00         0.00000E+00
 
    0.41974E+07        -0.27974E+07         0.00000E+00
   -0.27974E+07        -0.66175E+07         0.00000E+00
    0.00000E+00         0.00000E+00         0.00000E+00
 
    0.43852E+07        -0.22021E+07         0.00000E+00
   -0.22021E+07        -0.67598E+07         0.00000E+00
    0.00000E+00         0.00000E+00         0.00000E+00
 
    0.46529E+07        -0.14947E+07         0.00000E+00
   -0.14947E+07        -0.69818E+07         0.00000E+00
    0.00000E+00         0.00000E+00         0.00000E+00
 
    0.49973E+07        -0.47725E+06         0.00000E+00
   -0.47725E+06        -0.73022E+07         0.00000E+00
    0.00000E+00         0.00000E+00         0.00000E+00
 
    0.52520E+07         0.12086E+07         0.00000E+00
    0.12086E+07        -0.76744E+07         0.00000E+00
    0.00000E+00         0.00000E+00         0.00000E+00
 
    0.47927E+07         0.40740E+07         0.00000E+00
    0.40740E+07        -0.78105E+07         0.00000E+00
    0.00000E+00         0.00000E+00         0.00000E+00
 
    0.21327E+07         0.83988E+07         0.00000E+00
    0.83988E+07        -0.68674E+07         0.00000E+00
    0.00000E+00         0.00000E+00         0.00000E+00
 
   -0.16112E+07        -0.31747E+07         0.00000E+00
   -0.31747E+07        -0.20060E+07         0.00000E+00
    0.00000E+00         0.00000E+00         0.00000E+00
 
   -0.38062E+07        -0.71744E+07         0.00000E+00
   -0.71744E+07        -0.52105E+07         0.00000E+00
    0.00000E+00         0.00000E+00         0.00000E+00
 
   -0.22309E+07        -0.74242E+07         0.00000E+00
   -0.74242E+07        -0.74062E+07         0.00000E+00
    0.00000E+00         0.00000E+00         0.00000E+00
 
   -0.10684E+07        -0.63137E+07         0.00000E+00
   -0.63137E+07        -0.81206E+07         0.00000E+00
    0.00000E+00         0.00000E+00         0.00000E+00
 
   -0.59219E+06        -0.51198E+07         0.00000E+00
   -0.51198E+07        -0.81579E+07         0.00000E+00
    0.00000E+00         0.00000E+00         0.00000E+00
 
   -0.49130E+06        -0.41190E+07         0.00000E+00
   -0.41190E+07        -0.79478E+07         0.00000E+00
    0.00000E+00         0.00000E+00         0.00000E+00
 
   -0.55491E+06        -0.33319E+07         0.00000E+00
   -0.33319E+07        -0.76686E+07         0.00000E+00
    0.00000E+00         0.00000E+00         0.00000E+00
 
   -0.65472E+06        -0.27148E+07         0.00000E+00
   -0.27148E+07        -0.74042E+07         0.00000E+00
    0.00000E+00         0.00000E+00         0.00000E+00
 
   -0.70843E+06        -0.22096E+07         0.00000E+00
   -0.22096E+07        -0.72054E+07         0.00000E+00
    0.00000E+00         0.00000E+00         0.00000E+00
 
   -0.64892E+06        -0.17463E+07         0.00000E+00
   -0.17463E+07        -0.71148E+07         0.00000E+00
    0.00000E+00         0.00000E+00         0.00000E+00
 
   -0.40280E+06        -0.12224E+07         0.00000E+00
   -0.12224E+07        -0.71813E+07         0.00000E+00
    0.00000E+00         0.00000E+00         0.00000E+00
 
    0.11847E+06        -0.44966E+06         0.00000E+00
   -0.44966E+06        -0.74757E+07         0.00000E+00
    0.00000E+00         0.00000E+00         0.00000E+00
 
    0.99525E+06         0.97179E+06         0.00000E+00
    0.97179E+06        -0.81048E+07         0.00000E+00
    0.00000E+00         0.00000E+00         0.00000E+00
 
    0.19290E+07         0.39699E+07         0.00000E+00
    0.39699E+07        -0.90893E+07         0.00000E+00
    0.00000E+00         0.00000E+00         0.00000E+00
 
    0.11637E+07         0.99143E+07         0.00000E+00
    0.99143E+07        -0.94438E+07         0.00000E+00
    0.00000E+00         0.00000E+00         0.00000E+00
 
   -0.18309E+08        -0.63526E+07         0.00000E+00
   -0.63526E+07        -0.11950E+08         0.00000E+00
    0.00000E+00         0.00000E+00         0.00000E+00
 
   -0.14705E+08        -0.84340E+07         0.00000E+00
   -0.84340E+07        -0.13721E+08         0.00000E+00
    0.00000E+00         0.00000E+00         0.00000E+00
 
   -0.12061E+08        -0.64461E+07         0.00000E+00
   -0.64461E+07        -0.13156E+08         0.00000E+00
    0.00000E+00         0.00000E+00         0.00000E+00
 
   -0.11415E+08        -0.47235E+07         0.00000E+00
   -0.47235E+07        -0.11841E+08         0.00000E+00
    0.00000E+00         0.00000E+00         0.00000E+00
 
   -0.11439E+08        -0.35021E+07         0.00000E+00
   -0.35021E+07        -0.10593E+08         0.00000E+00
    0.00000E+00         0.00000E+00         0.00000E+00
 
   -0.11680E+08        -0.26538E+07         0.00000E+00
   -0.26538E+07        -0.95619E+07         0.00000E+00
    0.00000E+00         0.00000E+00         0.00000E+00
 
   -0.11947E+08        -0.20583E+07         0.00000E+00
   -0.20583E+07        -0.87410E+07         0.00000E+00
    0.00000E+00         0.00000E+00         0.00000E+00
 
   -0.12153E+08        -0.16266E+07         0.00000E+00
   -0.16266E+07        -0.81011E+07         0.00000E+00
    0.00000E+00         0.00000E+00         0.00000E+00
 
   -0.12243E+08        -0.12934E+07         0.00000E+00
   -0.12934E+07        -0.76249E+07         0.00000E+00
    0.00000E+00         0.00000E+00         0.00000E+00
 
   -0.12155E+08        -0.10017E+07         0.00000E+00
   -0.10017E+07        -0.73155E+07         0.00000E+00
    0.00000E+00         0.00000E+00         0.00000E+00
 
   -0.11792E+08        -0.68113E+06         0.00000E+00
   -0.68113E+06        -0.72054E+07         0.00000E+00
    0.00000E+00         0.00000E+00         0.00000E+00
 
   -0.10970E+08        -0.20563E+06         0.00000E+00
   -0.20563E+06        -0.73831E+07         0.00000E+00
    0.00000E+00         0.00000E+00         0.00000E+00
 
   -0.93387E+07         0.71148E+06         0.00000E+00
    0.71148E+06        -0.80521E+07         0.00000E+00
    0.00000E+00         0.00000E+00         0.00000E+00
 
   -0.61521E+07         0.28983E+07         0.00000E+00
    0.28983E+07        -0.96607E+07         0.00000E+00
    0.00000E+00         0.00000E+00         0.00000E+00
 
   -0.20204E+07         0.94492E+07         0.00000E+00
    0.94492E+07        -0.12359E+08         0.00000E+00
    0.00000E+00         0.00000E+00         0.00000E+00
 
   -0.49338E+08        -0.56400E+07         0.00000E+00
   -0.56400E+07        -0.28748E+08         0.00000E+00
    0.00000E+00         0.00000E+00         0.00000E+00
 
   -0.35918E+08        -0.39809E+07         0.00000E+00
   -0.39809E+07        -0.22534E+08         0.00000E+00
    0.00000E+00         0.00000E+00         0.00000E+00
 
   -0.33071E+08        -0.24365E+07         0.00000E+00
   -0.24365E+07        -0.17628E+08         0.00000E+00
    0.00000E+00         0.00000E+00         0.00000E+00
 
   -0.32268E+08        -0.16244E+07         0.00000E+00
   -0.16244E+07        -0.14348E+08         0.00000E+00
    0.00000E+00         0.00000E+00         0.00000E+00
 
   -0.32073E+08        -0.11334E+07         0.00000E+00
   -0.11334E+07        -0.12094E+08         0.00000E+00
    0.00000E+00         0.00000E+00         0.00000E+00
 
   -0.32041E+08        -0.82273E+06         0.00000E+00
   -0.82273E+06        -0.10499E+08         0.00000E+00
    0.00000E+00         0.00000E+00         0.00000E+00
 
   -0.32016E+08        -0.61644E+06         0.00000E+00
   -0.61644E+06        -0.93365E+07         0.00000E+00
    0.00000E+00         0.00000E+00         0.00000E+00
 
   -0.31926E+08        -0.47139E+06         0.00000E+00
   -0.47139E+06        -0.84742E+07         0.00000E+00
    0.00000E+00         0.00000E+00         0.00000E+00
 
   -0.31712E+08        -0.36003E+06         0.00000E+00
   -0.36003E+06        -0.78392E+07         0.00000E+00
    0.00000E+00         0.00000E+00         0.00000E+00
 
   -0.31297E+08        -0.26100E+06         0.00000E+00
   -0.26100E+06        -0.74030E+07         0.00000E+00
    0.00000E+00         0.00000E+00         0.00000E+00
 
   -0.30547E+08        -0.14982E+06         0.00000E+00
   -0.14982E+06        -0.71799E+07         0.00000E+00
    0.00000E+00         0.00000E+00         0.00000E+00
 
   -0.29202E+08         0.15374E+05         0.00000E+00
    0.15374E+05        -0.72503E+07         0.00000E+00
    0.00000E+00         0.00000E+00         0.00000E+00
 
   -0.26707E+08         0.33427E+06         0.00000E+00
    0.33427E+06        -0.78342E+07         0.00000E+00
    0.00000E+00         0.00000E+00         0.00000E+00
 
   -0.21724E+08         0.10609E+07         0.00000E+00
    0.10609E+07        -0.95096E+07         0.00000E+00
    0.00000E+00         0.00000E+00         0.00000E+00
 
   -0.91862E+07         0.42407E+07         0.00000E+00
    0.42407E+07        -0.14558E+08         0.00000E+00
    0.00000E+00         0.00000E+00         0.00000E+00
 
TENSORS stresstot double 
   -0.57161E+08         0.54367E+04         0.00000E+00
    0.54367E+04        -0.59995E+08         0.00000E+00
    0.00000E+00         0.00000E+00        -0.58581E+08
 
   -0.57219E+08         0.15638E+05         0.00000E+00
    0.15638E+05        -0.59974E+08         0.00000E+00
    0.00000E+00         0.00000E+00        -0.58597E+08
 
   -0.57317E+08         0.24158E+05         0.00000E+00
    0.24158E+05        -0.59934E+08         0.00000E+00
    0.00000E+00         0.00000E+00        -0.58625E+08
 
   -0.57447E+08         0.30756E+05         0.00000E+00
    0.30756E+05        -0.59879E+08         0.00000E+00
    0.00000E+00         0.00000E+00        -0.58663E+08
 
   -0.57600E+08         0.35409E+05         0.00000E+00
    0.35409E+05        -0.59813E+08         0.00000E+00
    0.00000E+00         0.00000E+00        -0.58707E+08
 
   -0.57770E+08         0.38200E+05         0.00000E+00
    0.38200E+05        -0.59739E+08         0.00000E+00
    0.00000E+00         0.00000E+00        -0.58755E+08
 
   -0.57948E+08         0.39275E+05         0.00000E+00
    0.39275E+05        -0.59661E+08         0.00000E+00
    0.00000E+00         0.00000E+00        -0.58805E+08
 
   -0.58128E+08         0.38821E+05         0.00000E+00
    0.38821E+05        -0.59583E+08         0.00000E+00
    0.00000E+00         0.00000E+00        -0.58856E+08
 
   -0.58305E+08         0.37058E+05         0.00000E+00
    0.37058E+05        -0.59507E+08         0.00000E+00
    0.00000E+00         0.00000E+00        -0.58907E+08
 
   -0.58474E+08         0.34246E+05         0.00000E+00
    0.34246E+05        -0.59436E+08         0.00000E+00
    0.00000E+00         0.00000E+00        -0.58956E+08
 
   -0.58631E+08         0.30684E+05         0.00000E+00
    0.30684E+05        -0.59371E+08         0.00000E+00
    0.00000E+00         0.00000E+00        -0.59002E+08
 
   -0.58774E+08         0.26729E+05         0.00000E+00
    0.26729E+05        -0.59313E+08         0.00000E+00
    0.00000E+00         0.00000E+00        -0.59045E+08
 
   -0.58902E+08         0.22789E+05         0.00000E+00
    0.22789E+05        -0.59264E+08         0.00000E+00
    0.00000E+00         0.00000E+00        -0.59083E+08
 
   -0.59011E+08         0.19317E+05         0.00000E+00
    0.19317E+05        -0.59222E+08         0.00000E+00
    0.00000E+00         0.00000E+00        -0.59115E+08
 
   -0.59101E+08         0.16829E+05         0.00000E+00
    0.16829E+05        -0.59186E+08         0.00000E+00
    0.00000E+00         0.00000E+00        -0.59134E+08
 
   -0.57139E+08         0.16601E+05         0.00000E+00
    0.16601E+05        -0.59995E+08         0.00000E+00
    0.00000E+00         0.00000E+00        -0.58570E+08
 
   -0.57200E+08         0.47119E+05         0.00000E+00
    0.47119E+05        -0.59973E+08         0.00000E+00
    0.00000E+00         0.00000E+00        -0.58587E+08
 
   -0.57302E+08         0.72642E+05         0.00000E+00
    0.72642E+05        -0.59933E+08         0.00000E+00
    0.00000E+00         0.00000E+00        -0.58617E+08
 
   -0.57436E+08         0.92410E+05         0.00000E+00
    0.92410E+05        -0.59878E+08         0.00000E+00
    0.00000E+00         0.00000E+00        -0.58656E+08
 
   -0.57593E+08         0.10634E+06         0.00000E+00
    0.10634E+06        -0.59811E+08         0.00000E+00
    0.00000E+00         0.00000E+00        -0.58702E+08
 
   -0.57766E+08         0.11469E+06         0.00000E+00
    0.11469E+06        -0.59737E+08         0.00000E+00
    0.00000E+00         0.00000E+00        -0.58752E+08
 
   -0.57947E+08         0.11789E+06         0.00000E+00
    0.11789E+06        -0.59660E+08         0.00000E+00
    0.00000E+00         0.00000E+00        -0.58804E+08
 
   -0.58130E+08         0.11651E+06         0.00000E+00
    0.11651E+06        -0.59581E+08         0.00000E+00
    0.00000E+00         0.00000E+00        -0.58856E+08
 
   -0.58309E+08         0.11120E+06         0.00000E+00
    0.11120E+06        -0.59505E+08         0.00000E+00
    0.00000E+00         0.00000E+00        -0.58908E+08
 
   -0.58480E+08         0.10274E+06         0.00000E+00
    0.10274E+06        -0.59434E+08         0.00000E+00
    0.00000E+00         0.00000E+00        -0.58958E+08
 
   -0.58639E+08         0.92008E+05         0.00000E+00
    0.92008E+05        -0.59369E+08         0.00000E+00
    0.00000E+00         0.00000E+00        -0.59005E+08
 
   -0.58782E+08         0.80068E+05         0.00000E+00
    0.80068E+05        -0.59312E+08         0.00000E+00
    0.00000E+00         0.00000E+00        -0.59048E+08
 
   -0.58909E+08         0.68135E+05         0.00000E+00
    0.68135E+05        -0.59263E+08         0.00000E+00
    0.00000E+00         0.00000E+00        -0.59086E+08
 
   -0.59018E+08         0.57563E+05         0.00000E+00
    0.57563E+05        -0.59221E+08         0.00000E+00
    0.00000E+00         0.00000E+00        -0.59117E+08
 
   -0.59104E+08         0.49780E+05         0.00000E+00
    0.49780E+05        -0.59186E+08         0.00000E+00
    0.00000E+00         0.00000E+00        -0.59136E+08
 
   -0.57096E+08         0.28007E+05         0.00000E+00
    0.28007E+05        -0.59995E+08         0.00000E+00
    0.00000E+00         0.00000E+00        -0.58549E+08
 
   -0.57162E+08         0.79042E+05         0.00000E+00
    0.79042E+05        -0.59973E+08         0.00000E+00
    0.00000E+00         0.00000E+00        -0.58568E+08
 
   -0.57271E+08         0.12155E+06         0.00000E+00
    0.12155E+06        -0.59932E+08         0.00000E+00
    0.00000E+00         0.00000E+00        -0.58601E+08
 
   -0.57413E+08         0.15444E+06         0.00000E+00
    0.15444E+06        -0.59876E+08         0.00000E+00
    0.00000E+00         0.00000E+00        -0.58644E+08
 
   -0.57578E+08         0.17758E+06         0.00000E+00
    0.17758E+06        -0.59809E+08         0.00000E+00
    0.00000E+00         0.00000E+00        -0.58693E+08
 
   -0.57758E+08         0.19141E+06         0.00000E+00
    0.19141E+06        -0.59735E+08         0.00000E+00
    0.00000E+00         0.00000E+00        -0.58747E+08
 
   -0.57946E+08         0.19668E+06         0.00000E+00
    0.19668E+06        -0.59657E+08         0.00000E+00
    0.00000E+00         0.00000E+00        -0.58802E+08
 
   -0.58135E+08         0.19432E+06         0.00000E+00
    0.19432E+06        -0.59579E+08         0.00000E+00
    0.00000E+00         0.00000E+00        -0.58857E+08
 
   -0.58319E+08         0.18541E+06         0.00000E+00
    0.18541E+06        -0.59503E+08         0.00000E+00
    0.00000E+00         0.00000E+00        -0.58911E+08
 
   -0.58493E+08         0.17121E+06         0.00000E+00
    0.17121E+06        -0.59431E+08         0.00000E+00
    0.00000E+00         0.00000E+00        -0.58963E+08
 
   -0.58654E+08         0.15319E+06         0.00000E+00
    0.15319E+06        -0.59367E+08         0.00000E+00
    0.00000E+00         0.00000E+00        -0.59011E+08
 
   -0.58799E+08         0.13305E+06         0.00000E+00
    0.13305E+06        -0.59310E+08         0.00000E+00
    0.00000E+00         0.00000E+00        -0.59055E+08
 
   -0.58925E+08         0.11279E+06         0.00000E+00
    0.11279E+06        -0.59261E+08         0.00000E+00
    0.00000E+00         0.00000E+00        -0.59093E+08
 
   -0.59030E+08         0.94634E+05         0.00000E+00
    0.94634E+05        -0.59221E+08         0.00000E+00
    0.00000E+00         0.00000E+00        -0.59124E+08
 
   -0.59113E+08         0.80810E+05         0.00000E+00
    0.80810E+05        -0.59188E+08         0.00000E+00
    0.00000E+00         0.00000E+00        -0.59142E+08
 
   -0.57030E+08         0.39589E+05         0.00000E+00
    0.39589E+05        -0.59995E+08         0.00000E+00
    0.00000E+00         0.00000E+00        -0.58518E+08
 
   -0.57106E+08         0.11143E+06         0.00000E+00
    0.11143E+06        -0.59972E+08         0.00000E+00
    0.00000E+00         0.00000E+00        -0.58540E+08
 
   -0.57226E+08         0.17100E+06         0.00000E+00
    0.17100E+06        -0.59931E+08         0.00000E+00
    0.00000E+00         0.00000E+00        -0.58578E+08
 
   -0.57380E+08         0.21694E+06         0.00000E+00
    0.21694E+06        -0.59875E+08         0.00000E+00
    0.00000E+00         0.00000E+00        -0.58627E+08
 
   -0.57556E+08         0.24917E+06         0.00000E+00
    0.24917E+06        -0.59808E+08         0.00000E+00
    0.00000E+00         0.00000E+00        -0.58681E+08
 
   -0.57747E+08         0.26838E+06         0.00000E+00
    0.26838E+06        -0.59733E+08         0.00000E+00
    0.00000E+00         0.00000E+00        -0.58740E+08
 
   -0.57944E+08         0.27562E+06         0.00000E+00
    0.27562E+06        -0.59655E+08         0.00000E+00
    0.00000E+00         0.00000E+00        -0.58800E+08
 
   -0.58142E+08         0.27221E+06         0.00000E+00
    0.27221E+06        -0.59577E+08         0.00000E+00
    0.00000E+00         0.00000E+00        -0.58859E+08
 
   -0.58333E+08         0.25963E+06         0.00000E+00
    0.25963E+06        -0.59500E+08         0.00000E+00
    0.00000E+00         0.00000E+00        -0.58917E+08
 
   -0.58513E+08         0.23959E+06         0.00000E+00
    0.23959E+06        -0.59429E+08         0.00000E+00
    0.00000E+00         0.00000E+00        -0.58972E+08
 
   -0.58678E+08         0.21408E+06         0.00000E+00
    0.21408E+06        -0.59365E+08         0.00000E+00
    0.00000E+00         0.00000E+00        -0.59022E+08
 
   -0.58824E+08         0.18542E+06         0.00000E+00
    0.18542E+06        -0.59308E+08         0.00000E+00
    0.00000E+00         0.00000E+00        -0.59067E+08
 
   -0.58949E+08         0.15631E+06         0.00000E+00
    0.15631E+06        -0.59261E+08         0.00000E+00
    0.00000E+00         0.00000E+00        -0.59105E+08
 
   -0.59051E+08         0.12979E+06         0.00000E+00
    0.12979E+06        -0.59223E+08         0.00000E+00
    0.00000E+00         0.00000E+00        -0.59135E+08
 
   -0.59127E+08         0.10891E+06         0.00000E+00
    0.10891E+06        -0.59192E+08         0.00000E+00
    0.00000E+00         0.00000E+00        -0.59152E+08
 
   -0.56942E+08         0.51345E+05         0.00000E+00
    0.51345E+05        -0.59995E+08         0.00000E+00
    0.00000E+00         0.00000E+00        -0.58477E+08
 
   -0.57030E+08         0.14423E+06         0.00000E+00
    0.14423E+06        -0.59972E+08         0.00000E+00
    0.00000E+00         0.00000E+00        -0.58503E+08
 
   -0.57166E+08         0.22093E+06         0.00000E+00
    0.22093E+06        -0.59930E+08         0.00000E+00
    0.00000E+00         0.00000E+00        -0.58548E+08
 
   -0.57335E+08         0.27982E+06         0.00000E+00
    0.27982E+06        -0.59874E+08         0.00000E+00
    0.00000E+00         0.00000E+00        -0.58604E+08
 
   -0.57527E+08         0.32099E+06         0.00000E+00
    0.32099E+06        -0.59806E+08         0.00000E+00
    0.00000E+00         0.00000E+00        -0.58666E+08
 
   -0.57732E+08         0.34540E+06         0.00000E+00
    0.34540E+06        -0.59732E+08         0.00000E+00
    0.00000E+00         0.00000E+00        -0.58732E+08
 
   -0.57943E+08         0.35450E+06         0.00000E+00
    0.35450E+06        -0.59654E+08         0.00000E+00
    0.00000E+00         0.00000E+00        -0.58798E+08
 
   -0.58151E+08         0.34996E+06         0.00000E+00
    0.34996E+06        -0.59576E+08         0.00000E+00
    0.00000E+00         0.00000E+00        -0.58864E+08
 
   -0.58352E+08         0.33366E+06         0.00000E+00
    0.33366E+06        -0.59500E+08         0.00000E+00
    0.00000E+00         0.00000E+00        -0.58926E+08
 
   -0.58539E+08         0.30771E+06         0.00000E+00
    0.30771E+06        -0.59429E+08         0.00000E+00
    0.00000E+00         0.00000E+00        -0.58985E+08
 
   -0.58709E+08         0.27451E+06         0.00000E+00
    0.27451E+06        -0.59365E+08         0.00000E+00
    0.00000E+00         0.00000E+00        -0.59038E+08
 
   -0.58858E+08         0.23692E+06         0.00000E+00
    0.23692E+06        -0.59310E+08         0.00000E+00
    0.00000E+00         0.00000E+00        -0.59084E+08
 
   -0.58982E+08         0.19829E+06         0.00000E+00
    0.19829E+06        -0.59264E+08         0.00000E+00
    0.00000E+00         0.00000E+00        -0.59123E+08
 
   -0.59079E+08         0.16240E+06         0.00000E+00
    0.16240E+06        -0.59227E+08         0.00000E+00
    0.00000E+00         0.00000E+00        -0.59152E+08
 
   -0.59147E+08         0.13313E+06         0.00000E+00
    0.13313E+06        -0.59201E+08         0.00000E+00
    0.00000E+00         0.00000E+00        -0.59169E+08
 
   -0.56830E+08         0.63267E+05         0.00000E+00
    0.63267E+05        -0.59994E+08         0.00000E+00
    0.00000E+00         0.00000E+00        -0.58425E+08
 
   -0.56935E+08         0.17736E+06         0.00000E+00
    0.17736E+06        -0.59972E+08         0.00000E+00
    0.00000E+00         0.00000E+00        -0.58457E+08
 
   -0.57090E+08         0.27112E+06         0.00000E+00
    0.27112E+06        -0.59930E+08         0.00000E+00
    0.00000E+00         0.00000E+00        -0.58510E+08
 
   -0.57280E+08         0.34276E+06         0.00000E+00
    0.34276E+06        -0.59873E+08         0.00000E+00
    0.00000E+00         0.00000E+00        -0.58576E+08
 
   -0.57491E+08         0.39261E+06         0.00000E+00
    0.39261E+06        -0.59806E+08         0.00000E+00
    0.00000E+00         0.00000E+00        -0.58648E+08
 
   -0.57714E+08         0.42202E+06         0.00000E+00
    0.42202E+06        -0.59733E+08         0.00000E+00
    0.00000E+00         0.00000E+00        -0.58723E+08
 
   -0.57940E+08         0.43285E+06         0.00000E+00
    0.43285E+06        -0.59655E+08         0.00000E+00
    0.00000E+00         0.00000E+00        -0.58798E+08
 
   -0.58163E+08         0.42714E+06         0.00000E+00
    0.42714E+06        -0.59578E+08         0.00000E+00
    0.00000E+00         0.00000E+00        -0.58871E+08
 
   -0.58376E+08         0.40713E+06         0.00000E+00
    0.40713E+06        -0.59503E+08         0.00000E+00
    0.00000E+00         0.00000E+00        -0.58940E+08
 
   -0.58573E+08         0.37523E+06         0.00000E+00
    0.37523E+06        -0.59433E+08         0.00000E+00
    0.00000E+00         0.00000E+00        -0.59004E+08
 
   -0.58749E+08         0.33420E+06         0.00000E+00
    0.33420E+06        -0.59370E+08         0.00000E+00
    0.00000E+00         0.00000E+00        -0.59060E+08
 
   -0.58901E+08         0.28730E+06         0.00000E+00
    0.28730E+06        -0.59316E+08         0.00000E+00
    0.00000E+00         0.00000E+00        -0.59109E+08
 
   -0.59025E+08         0.23838E+06         0.00000E+00
    0.23838E+06        -0.59271E+08         0.00000E+00
    0.00000E+00         0.00000E+00        -0.59149E+08
 
   -0.59117E+08         0.19191E+06         0.00000E+00
    0.19191E+06        -0.59238E+08         0.00000E+00
    0.00000E+00         0.00000E+00        -0.59177E+08
 
   -0.59177E+08         0.15259E+06         0.00000E+00
    0.15259E+06        -0.59215E+08         0.00000E+00
    0.00000E+00         0.00000E+00        -0.59193E+08
 
   -0.56696E+08         0.75302E+05         0.00000E+00
    0.75302E+05        -0.59994E+08         0.00000E+00
    0.00000E+00         0.00000E+00        -0.58363E+08
 
   -0.56821E+08         0.21058E+06         0.00000E+00
    0.21058E+06        -0.59972E+08         0.00000E+00
    0.00000E+00         0.00000E+00        -0.58402E+08
 
   -0.57000E+08         0.32114E+06         0.00000E+00
    0.32114E+06        -0.59930E+08         0.00000E+00
    0.00000E+00         0.00000E+00        -0.58466E+08
 
   -0.57214E+08         0.40516E+06         0.00000E+00
    0.40516E+06        -0.59874E+08         0.00000E+00
    0.00000E+00         0.00000E+00        -0.58544E+08
 
   -0.57448E+08         0.46330E+06         0.00000E+00
    0.46330E+06        -0.59809E+08         0.00000E+00
    0.00000E+00         0.00000E+00        -0.58628E+08
 
   -0.57693E+08         0.49742E+06         0.00000E+00
    0.49742E+06        -0.59736E+08         0.00000E+00
    0.00000E+00         0.00000E+00        -0.58714E+08
 
   -0.57938E+08         0.50982E+06         0.00000E+00
    0.50982E+06        -0.59661E+08         0.00000E+00
    0.00000E+00         0.00000E+00        -0.58800E+08
 
   -0.58177E+08         0.50297E+06         0.00000E+00
    0.50297E+06        -0.59586E+08         0.00000E+00
    0.00000E+00         0.00000E+00        -0.58882E+08
 
   -0.58404E+08         0.47936E+06         0.00000E+00
    0.47936E+06        -0.59513E+08         0.00000E+00
    0.00000E+00         0.00000E+00        -0.58959E+08
 
   -0.58613E+08         0.44165E+06         0.00000E+00
    0.44165E+06        -0.59444E+08         0.00000E+00
    0.00000E+00         0.00000E+00        -0.59029E+08
 
   -0.58798E+08         0.39279E+06         0.00000E+00
    0.39279E+06        -0.59382E+08         0.00000E+00
    0.00000E+00         0.00000E+00        -0.59091E+08
 
   -0.58955E+08         0.33627E+06         0.00000E+00
    0.33627E+06        -0.59329E+08         0.00000E+00
    0.00000E+00         0.00000E+00        -0.59143E+08
 
   -0.59079E+08         0.27631E+06         0.00000E+00
    0.27631E+06        -0.59287E+08         0.00000E+00
    0.00000E+00         0.00000E+00        -0.59184E+08
 
   -0.59167E+08         0.21791E+06         0.00000E+00
    0.21791E+06        -0.59256E+08         0.00000E+00
    0.00000E+00         0.00000E+00        -0.59212E+08
 
   -0.59217E+08         0.16656E+06         0.00000E+00
    0.16656E+06        -0.59239E+08         0.00000E+00
    0.00000E+00         0.00000E+00        -0.59227E+08
 
   -0.56538E+08         0.87323E+05         0.00000E+00
    0.87323E+05        -0.59994E+08         0.00000E+00
    0.00000E+00         0.00000E+00        -0.58291E+08
 
   -0.56688E+08         0.24348E+06         0.00000E+00
    0.24348E+06        -0.59972E+08         0.00000E+00
    0.00000E+00         0.00000E+00        -0.58338E+08
 
   -0.56896E+08         0.37029E+06         0.00000E+00
    0.37029E+06        -0.59932E+08         0.00000E+00
    0.00000E+00         0.00000E+00        -0.58415E+08
 
   -0.57138E+08         0.46604E+06         0.00000E+00
    0.46604E+06        -0.59877E+08         0.00000E+00
    0.00000E+00         0.00000E+00        -0.58508E+08
 
   -0.57400E+08         0.53189E+06         0.00000E+00
    0.53189E+06        -0.59814E+08         0.00000E+00
    0.00000E+00         0.00000E+00        -0.58606E+08
 
   -0.57668E+08         0.57031E+06         0.00000E+00
    0.57031E+06        -0.59745E+08         0.00000E+00
    0.00000E+00         0.00000E+00        -0.58706E+08
 
   -0.57936E+08         0.58415E+06         0.00000E+00
    0.58415E+06        -0.59673E+08         0.00000E+00
    0.00000E+00         0.00000E+00        -0.58804E+08
 
   -0.58194E+08         0.57625E+06         0.00000E+00
    0.57625E+06        -0.59601E+08         0.00000E+00
    0.00000E+00         0.00000E+00        -0.58898E+08
 
   -0.58438E+08         0.54935E+06         0.00000E+00
    0.54935E+06        -0.59531E+08         0.00000E+00
    0.00000E+00         0.00000E+00        -0.58985E+08
 
   -0.58660E+08         0.50621E+06         0.00000E+00
    0.50621E+06        -0.59465E+08         0.00000E+00
    0.00000E+00         0.00000E+00        -0.59063E+08
 
   -0.58856E+08         0.44979E+06         0.00000E+00
    0.44979E+06        -0.59406E+08         0.00000E+00
    0.00000E+00         0.00000E+00        -0.59131E+08
 
   -0.59019E+08         0.38358E+06         0.00000E+00
    0.38358E+06        -0.59355E+08         0.00000E+00
    0.00000E+00         0.00000E+00        -0.59188E+08
 
   -0.59145E+08         0.31192E+06         0.00000E+00
    0.31192E+06        -0.59314E+08         0.00000E+00
    0.00000E+00         0.00000E+00        -0.59231E+08
 
   -0.59230E+08         0.24018E+06         0.00000E+00
    0.24018E+06        -0.59287E+08         0.00000E+00
    0.00000E+00         0.00000E+00        -0.59260E+08
 
   -0.59269E+08         0.17455E+06         0.00000E+00
    0.17455E+06        -0.59274E+08         0.00000E+00
    0.00000E+00         0.00000E+00        -0.59274E+08
 
   -0.56358E+08         0.99120E+05         0.00000E+00
    0.99120E+05        -0.59995E+08         0.00000E+00
    0.00000E+00         0.00000E+00        -0.58208E+08
 
   -0.56537E+08         0.27543E+06         0.00000E+00
    0.27543E+06        -0.59973E+08         0.00000E+00
    0.00000E+00         0.00000E+00        -0.58266E+08
 
   -0.56778E+08         0.41753E+06         0.00000E+00
    0.41753E+06        -0.59935E+08         0.00000E+00
    0.00000E+00         0.00000E+00        -0.58359E+08
 
   -0.57053E+08         0.52401E+06         0.00000E+00
    0.52401E+06        -0.59884E+08         0.00000E+00
    0.00000E+00         0.00000E+00        -0.58469E+08
 
   -0.57345E+08         0.59672E+06         0.00000E+00
    0.59672E+06        -0.59825E+08         0.00000E+00
    0.00000E+00         0.00000E+00        -0.58585E+08
 
   -0.57641E+08         0.63888E+06         0.00000E+00
    0.63888E+06        -0.59761E+08         0.00000E+00
    0.00000E+00         0.00000E+00        -0.58701E+08
 
   -0.57933E+08         0.65398E+06         0.00000E+00
    0.65398E+06        -0.59694E+08         0.00000E+00
    0.00000E+00         0.00000E+00        -0.58814E+08
 
   -0.58213E+08         0.64526E+06         0.00000E+00
    0.64526E+06        -0.59628E+08         0.00000E+00
    0.00000E+00         0.00000E+00        -0.58921E+08
 
   -0.58475E+08         0.61566E+06         0.00000E+00
    0.61566E+06        -0.59563E+08         0.00000E+00
    0.00000E+00         0.00000E+00        -0.59019E+08
 
   -0.58713E+08         0.56783E+06         0.00000E+00
    0.56783E+06        -0.59501E+08         0.00000E+00
    0.00000E+00         0.00000E+00        -0.59108E+08
 
   -0.58922E+08         0.50451E+06         0.00000E+00
    0.50451E+06        -0.59445E+08         0.00000E+00
    0.00000E+00         0.00000E+00        -0.59184E+08
 
   -0.59094E+08         0.42892E+06         0.00000E+00
    0.42892E+06        -0.59396E+08         0.00000E+00
    0.00000E+00         0.00000E+00        -0.59246E+08
 
   -0.59224E+08         0.34519E+06         0.00000E+00
    0.34519E+06        -0.59358E+08         0.00000E+00
    0.00000E+00         0.00000E+00        -0.59292E+08
 
   -0.59307E+08         0.25877E+06         0.00000E+00
    0.25877E+06        -0.59333E+08         0.00000E+00
    0.00000E+00         0.00000E+00        -0.59323E+08
 
   -0.59338E+08         0.17639E+06         0.00000E+00
    0.17639E+06        -0.59325E+08         0.00000E+00
    0.00000E+00         0.00000E+00        -0.59337E+08
 
   -0.56155E+08         0.11039E+06         0.00000E+00
    0.11039E+06        -0.59995E+08         0.00000E+00
    0.00000E+00         0.00000E+00        -0.58117E+08
 
   -0.56369E+08         0.30555E+06         0.00000E+00
    0.30555E+06        -0.59975E+08         0.00000E+00
    0.00000E+00         0.00000E+00        -0.58186E+08
 
   -0.56648E+08         0.46144E+06         0.00000E+00
    0.46144E+06        -0.59940E+08         0.00000E+00
    0.00000E+00         0.00000E+00        -0.58297E+08
 
   -0.56961E+08         0.57717E+06         0.00000E+00
    0.57717E+06        -0.59894E+08         0.00000E+00
    0.00000E+00         0.00000E+00        -0.58428E+08
 
   -0.57286E+08         0.65551E+06         0.00000E+00
    0.65551E+06        -0.59841E+08         0.00000E+00
    0.00000E+00         0.00000E+00        -0.58564E+08
 
   -0.57612E+08         0.70063E+06         0.00000E+00
    0.70063E+06        -0.59785E+08         0.00000E+00
    0.00000E+00         0.00000E+00        -0.58699E+08
 
   -0.57930E+08         0.71678E+06         0.00000E+00
    0.71678E+06        -0.59728E+08         0.00000E+00
    0.00000E+00         0.00000E+00        -0.58829E+08
 
   -0.58233E+08         0.70765E+06         0.00000E+00
    0.70765E+06        -0.59670E+08         0.00000E+00
    0.00000E+00         0.00000E+00        -0.58951E+08
 
   -0.58515E+08         0.67625E+06         0.00000E+00
    0.67625E+06        -0.59612E+08         0.00000E+00
    0.00000E+00         0.00000E+00        -0.59064E+08
 
   -0.58772E+08         0.62499E+06         0.00000E+00
    0.62499E+06        -0.59557E+08         0.00000E+00
    0.00000E+00         0.00000E+00        -0.59164E+08
 
   -0.58995E+08         0.55606E+06         0.00000E+00
    0.55606E+06        -0.59505E+08         0.00000E+00
    0.00000E+00         0.00000E+00        -0.59250E+08
 
   -0.59180E+08         0.47198E+06         0.00000E+00
    0.47198E+06        -0.59459E+08         0.00000E+00
    0.00000E+00         0.00000E+00        -0.59320E+08
 
   -0.59317E+08         0.37627E+06         0.00000E+00
    0.37627E+06        -0.59423E+08         0.00000E+00
    0.00000E+00         0.00000E+00        -0.59372E+08
 
   -0.59401E+08         0.27405E+06         0.00000E+00
    0.27405E+06        -0.59401E+08         0.00000E+00
    0.00000E+00         0.00000E+00        -0.59405E+08
 
   -0.59426E+08         0.17236E+06         0.00000E+00
    0.17236E+06        -0.59397E+08         0.00000E+00
    0.00000E+00         0.00000E+00        -0.59420E+08
 
   -0.55933E+08         0.12074E+06         0.00000E+00
    0.12074E+06        -0.59995E+08         0.00000E+00
    0.00000E+00         0.00000E+00        -0.58017E+08
 
   -0.56186E+08         0.33268E+06         0.00000E+00
    0.33268E+06        -0.59978E+08         0.00000E+00
    0.00000E+00         0.00000E+00        -0.58100E+08
 
   -0.56508E+08         0.50015E+06         0.00000E+00
    0.50015E+06        -0.59948E+08         0.00000E+00
    0.00000E+00         0.00000E+00        -0.58232E+08
 
   -0.56861E+08         0.62303E+06         0.00000E+00
    0.62303E+06        -0.59909E+08         0.00000E+00
    0.00000E+00         0.00000E+00        -0.58386E+08
 
   -0.57224E+08         0.70528E+06         0.00000E+00
    0.70528E+06        -0.59867E+08         0.00000E+00
    0.00000E+00         0.00000E+00        -0.58545E+08
 
   -0.57582E+08         0.75228E+06         0.00000E+00
    0.75228E+06        -0.59822E+08         0.00000E+00
    0.00000E+00         0.00000E+00        -0.58702E+08
 
   -0.57927E+08         0.76920E+06         0.00000E+00
    0.76920E+06        -0.59777E+08         0.00000E+00
    0.00000E+00         0.00000E+00        -0.58852E+08
 
   -0.58254E+08         0.76024E+06         0.00000E+00
    0.76024E+06        -0.59731E+08         0.00000E+00
    0.00000E+00         0.00000E+00        -0.58992E+08
 
   -0.58558E+08         0.72843E+06         0.00000E+00
    0.72843E+06        -0.59684E+08         0.00000E+00
    0.00000E+00         0.00000E+00        -0.59121E+08
 
   -0.58833E+08         0.67567E+06         0.00000E+00
    0.67567E+06        -0.59637E+08         0.00000E+00
    0.00000E+00         0.00000E+00        -0.59235E+08
 
   -0.59075E+08         0.60323E+06         0.00000E+00
    0.60323E+06        -0.59592E+08         0.00000E+00
    0.00000E+00         0.00000E+00        -0.59334E+08
 
   -0.59275E+08         0.51243E+06         0.00000E+00
    0.51243E+06        -0.59550E+08         0.00000E+00
    0.00000E+00         0.00000E+00        -0.59413E+08
 
   -0.59424E+08         0.40556E+06         0.00000E+00
    0.40556E+06        -0.59516E+08         0.00000E+00
    0.00000E+00         0.00000E+00        -0.59472E+08
 
   -0.59514E+08         0.28689E+06         0.00000E+00
    0.28689E+06        -0.59496E+08         0.00000E+00
    0.00000E+00         0.00000E+00        -0.59509E+08
 
   -0.59537E+08         0.16338E+06         0.00000E+00
    0.16338E+06        -0.59495E+08         0.00000E+00
    0.00000E+00         0.00000E+00        -0.59526E+08
 
   -0.55692E+08         0.12969E+06         0.00000E+00
    0.12969E+06        -0.59996E+08         0.00000E+00
    0.00000E+00         0.00000E+00        -0.57910E+08
 
   -0.55990E+08         0.35538E+06         0.00000E+00
    0.35538E+06        -0.59982E+08         0.00000E+00
    0.00000E+00         0.00000E+00        -0.58008E+08
 
   -0.56360E+08         0.53134E+06         0.00000E+00
    0.53134E+06        -0.59959E+08         0.00000E+00
    0.00000E+00         0.00000E+00        -0.58165E+08
 
   -0.56758E+08         0.65847E+06         0.00000E+00
    0.65847E+06        -0.59931E+08         0.00000E+00
    0.00000E+00         0.00000E+00        -0.58346E+08
 
   -0.57160E+08         0.74227E+06         0.00000E+00
    0.74227E+06        -0.59902E+08         0.00000E+00
    0.00000E+00         0.00000E+00        -0.58531E+08
 
   -0.57550E+08         0.78963E+06         0.00000E+00
    0.78963E+06        -0.59873E+08         0.00000E+00
    0.00000E+00         0.00000E+00        -0.58712E+08
 
   -0.57923E+08         0.80690E+06         0.00000E+00
    0.80690E+06        -0.59845E+08         0.00000E+00
    0.00000E+00         0.00000E+00        -0.58884E+08
 
   -0.58274E+08         0.79890E+06         0.00000E+00
    0.79890E+06        -0.59816E+08         0.00000E+00
    0.00000E+00         0.00000E+00        -0.59045E+08
 
   -0.58599E+08         0.76861E+06         0.00000E+00
    0.76861E+06        -0.59785E+08         0.00000E+00
    0.00000E+00         0.00000E+00        -0.59192E+08
 
   -0.58896E+08         0.71716E+06         0.00000E+00
    0.71716E+06        -0.59750E+08         0.00000E+00
    0.00000E+00         0.00000E+00        -0.59323E+08
 
   -0.59158E+08         0.64441E+06         0.00000E+00
    0.64441E+06        -0.59714E+08         0.00000E+00
    0.00000E+00         0.00000E+00        -0.59436E+08
 
   -0.59377E+08         0.54983E+06         0.00000E+00
    0.54983E+06        -0.59677E+08         0.00000E+00
    0.00000E+00         0.00000E+00        -0.59528E+08
 
   -0.59544E+08         0.43372E+06         0.00000E+00
    0.43372E+06        -0.59645E+08         0.00000E+00
    0.00000E+00         0.00000E+00        -0.59596E+08
 
   -0.59646E+08         0.29872E+06         0.00000E+00
    0.29872E+06        -0.59625E+08         0.00000E+00
    0.00000E+00         0.00000E+00        -0.59641E+08
 
   -0.59673E+08         0.15118E+06         0.00000E+00
    0.15118E+06        -0.59625E+08         0.00000E+00
    0.00000E+00         0.00000E+00        -0.59661E+08
 
   -0.55436E+08         0.13665E+06         0.00000E+00
    0.13665E+06        -0.59997E+08         0.00000E+00
    0.00000E+00         0.00000E+00        -0.57797E+08
 
   -0.55785E+08         0.37198E+06         0.00000E+00
    0.37198E+06        -0.59988E+08         0.00000E+00
    0.00000E+00         0.00000E+00        -0.57914E+08
 
   -0.56207E+08         0.55224E+06         0.00000E+00
    0.55224E+06        -0.59974E+08         0.00000E+00
    0.00000E+00         0.00000E+00        -0.58099E+08
 
   -0.56654E+08         0.67972E+06         0.00000E+00
    0.67972E+06        -0.59960E+08         0.00000E+00
    0.00000E+00         0.00000E+00        -0.58309E+08
 
   -0.57096E+08         0.76184E+06         0.00000E+00
    0.76184E+06        -0.59950E+08         0.00000E+00
    0.00000E+00         0.00000E+00        -0.58523E+08
 
   -0.57519E+08         0.80743E+06         0.00000E+00
    0.80743E+06        -0.59942E+08         0.00000E+00
    0.00000E+00         0.00000E+00        -0.58731E+08
 
   -0.57919E+08         0.82438E+06         0.00000E+00
    0.82438E+06        -0.59937E+08         0.00000E+00
    0.00000E+00         0.00000E+00        -0.58928E+08
 
   -0.58292E+08         0.81834E+06         0.00000E+00
    0.81834E+06        -0.59931E+08         0.00000E+00
    0.00000E+00         0.00000E+00        -0.59111E+08
 
   -0.58638E+08         0.79215E+06         0.00000E+00
    0.79215E+06        -0.59920E+08         0.00000E+00
    0.00000E+00         0.00000E+00        -0.59279E+08
 
   -0.58955E+08         0.74592E+06         0.00000E+00
    0.74592E+06        -0.59903E+08         0.00000E+00
    0.00000E+00         0.00000E+00        -0.59429E+08
 
   -0.59240E+08         0.67750E+06         0.00000E+00
    0.67750E+06        -0.59879E+08         0.00000E+00
    0.00000E+00         0.00000E+00        -0.59559E+08
 
   -0.59484E+08         0.58367E+06         0.00000E+00
    0.58367E+06        -0.59849E+08         0.00000E+00
    0.00000E+00         0.00000E+00        -0.59666E+08
 
   -0.59675E+08         0.46176E+06         0.00000E+00
    0.46176E+06        -0.59818E+08         0.00000E+00
    0.00000E+00         0.00000E+00        -0.59748E+08
 
   -0.59799E+08         0.31176E+06         0.00000E+00
    0.31176E+06        -0.59796E+08         0.00000E+00
    0.00000E+00         0.00000E+00        -0.59803E+08
 
   -0.59838E+08         0.13859E+06         0.00000E+00
    0.13859E+06        -0.59795E+08         0.00000E+00
    0.00000E+00         0.00000E+00        -0.59829E+08
 
   -0.55171E+08         0.14098E+06         0.00000E+00
    0.14098E+06        -0.59999E+08         0.00000E+00
    0.00000E+00         0.00000E+00        -0.57683E+08
 
   -0.55575E+08         0.38054E+06         0.00000E+00
    0.38054E+06        -0.59995E+08         0.00000E+00
    0.00000E+00         0.00000E+00        -0.57820E+08
 
   -0.56056E+08         0.55965E+06         0.00000E+00
    0.55965E+06        -0.59994E+08         0.00000E+00
    0.00000E+00         0.00000E+00        -0.58035E+08
 
   -0.56553E+08         0.68230E+06         0.00000E+00
    0.68230E+06        -0.59998E+08         0.00000E+00
    0.00000E+00         0.00000E+00        -0.58278E+08
 
   -0.57036E+08         0.75838E+06         0.00000E+00
    0.75838E+06        -0.60011E+08         0.00000E+00
    0.00000E+00         0.00000E+00        -0.58524E+08
 
   -0.57491E+08         0.79925E+06         0.00000E+00
    0.79925E+06        -0.60032E+08         0.00000E+00
    0.00000E+00         0.00000E+00        -0.58761E+08
 
   -0.57913E+08         0.81483E+06         0.00000E+00
    0.81483E+06        -0.60057E+08         0.00000E+00
    0.00000E+00         0.00000E+00        -0.58985E+08
 
   -0.58305E+08         0.81188E+06         0.00000E+00
    0.81188E+06        -0.60081E+08         0.00000E+00
    0.00000E+00         0.00000E+00        -0.59193E+08
 
   -0.58669E+08         0.79317E+06         0.00000E+00
    0.79317E+06        -0.60098E+08         0.00000E+00
    0.00000E+00         0.00000E+00        -0.59383E+08
 
   -0.59007E+08         0.75740E+06         0.00000E+00
    0.75740E+06        -0.60104E+08         0.00000E+00
    0.00000E+00         0.00000E+00        -0.59554E+08
 
   -0.59316E+08         0.69976E+06         0.00000E+00
    0.69976E+06        -0.60096E+08         0.00000E+00
    0.00000E+00         0.00000E+00        -0.59705E+08
 
   -0.59589E+08         0.61332E+06         0.00000E+00
    0.61332E+06        -0.60074E+08         0.00000E+00
    0.00000E+00         0.00000E+00        -0.59832E+08
 
   -0.59814E+08         0.49112E+06         0.00000E+00
    0.49112E+06        -0.60045E+08         0.00000E+00
    0.00000E+00         0.00000E+00        -0.59931E+08
 
   -0.59971E+08         0.32916E+06         0.00000E+00
    0.32916E+06        -0.60019E+08         0.00000E+00
    0.00000E+00         0.00000E+00        -0.59999E+08
 
   -0.60036E+08         0.12983E+06         0.00000E+00
    0.12983E+06        -0.60011E+08         0.00000E+00
    0.00000E+00         0.00000E+00        -0.60034E+08
 
   -0.54901E+08         0.14201E+06         0.00000E+00
    0.14201E+06        -0.60000E+08         0.00000E+00
    0.00000E+00         0.00000E+00        -0.57568E+08
 
   -0.55368E+08         0.37902E+06         0.00000E+00
    0.37902E+06        -0.60004E+08         0.00000E+00
    0.00000E+00         0.00000E+00        -0.57728E+08
 
   -0.55911E+08         0.54997E+06         0.00000E+00
    0.54997E+06        -0.60018E+08         0.00000E+00
    0.00000E+00         0.00000E+00        -0.57977E+08
 
   -0.56461E+08         0.66103E+06         0.00000E+00
    0.66103E+06        -0.60045E+08         0.00000E+00
    0.00000E+00         0.00000E+00        -0.58257E+08
 
   -0.56984E+08         0.72524E+06         0.00000E+00
    0.72524E+06        -0.60088E+08         0.00000E+00
    0.00000E+00         0.00000E+00        -0.58538E+08
 
   -0.57467E+08         0.75731E+06         0.00000E+00
    0.75731E+06        -0.60144E+08         0.00000E+00
    0.00000E+00         0.00000E+00        -0.58806E+08
 
   -0.57907E+08         0.76990E+06         0.00000E+00
    0.76990E+06        -0.60209E+08         0.00000E+00
    0.00000E+00         0.00000E+00        -0.59058E+08
 
   -0.58312E+08         0.77131E+06         0.00000E+00
    0.77131E+06        -0.60272E+08         0.00000E+00
    0.00000E+00         0.00000E+00        -0.59292E+08
 
   -0.58689E+08         0.76430E+06         0.00000E+00
    0.76430E+06        -0.60326E+08         0.00000E+00
    0.00000E+00         0.00000E+00        -0.59506E+08
 
   -0.59043E+08         0.74584E+06         0.00000E+00
    0.74584E+06        -0.60363E+08         0.00000E+00
    0.00000E+00         0.00000E+00        -0.59701E+08
 
   -0.59378E+08         0.70767E+06         0.00000E+00
    0.70767E+06        -0.60376E+08         0.00000E+00
    0.00000E+00         0.00000E+00        -0.59875E+08
 
   -0.59686E+08         0.63791E+06         0.00000E+00
    0.63791E+06        -0.60365E+08         0.00000E+00
    0.00000E+00         0.00000E+00        -0.60025E+08
 
   -0.59956E+08         0.52372E+06         0.00000E+00
    0.52372E+06        -0.60337E+08         0.00000E+00
    0.00000E+00         0.00000E+00        -0.60146E+08
 
   -0.60161E+08         0.35531E+06         0.00000E+00
    0.35531E+06        -0.60303E+08         0.00000E+00
    0.00000E+00         0.00000E+00        -0.60234E+08
 
   -0.60268E+08         0.13097E+06         0.00000E+00
    0.13097E+06        -0.60282E+08         0.00000E+00
    0.00000E+00         0.00000E+00        -0.60281E+08
 
   -0.54635E+08         0.13910E+06         0.00000E+00
    0.13910E+06        -0.60002E+08         0.00000E+00
    0.00000E+00         0.00000E+00        -0.57458E+08
 
   -0.55171E+08         0.36529E+06         0.00000E+00
    0.36529E+06        -0.60015E+08         0.00000E+00
    0.00000E+00         0.00000E+00        -0.57643E+08
 
   -0.55781E+08         0.51932E+06         0.00000E+00
    0.51932E+06        -0.60046E+08         0.00000E+00
    0.00000E+00         0.00000E+00        -0.57929E+08
 
   -0.56386E+08         0.61002E+06         0.00000E+00
    0.61002E+06        -0.60102E+08         0.00000E+00
    0.00000E+00         0.00000E+00        -0.58249E+08
 
   -0.56947E+08         0.65465E+06         0.00000E+00
    0.65465E+06        -0.60182E+08         0.00000E+00
    0.00000E+00         0.00000E+00        -0.58567E+08
 
   -0.57451E+08         0.67240E+06         0.00000E+00
    0.67240E+06        -0.60284E+08         0.00000E+00
    0.00000E+00         0.00000E+00        -0.58868E+08
 
   -0.57901E+08         0.67959E+06         0.00000E+00
    0.67959E+06        -0.60397E+08         0.00000E+00
    0.00000E+00         0.00000E+00        -0.59149E+08
 
   -0.58310E+08         0.68667E+06         0.00000E+00
    0.68667E+06        -0.60512E+08         0.00000E+00
    0.00000E+00         0.00000E+00        -0.59410E+08
 
   -0.58690E+08         0.69654E+06         0.00000E+00
    0.69654E+06        -0.60613E+08         0.00000E+00
    0.00000E+00         0.00000E+00        -0.59649E+08
 
   -0.59056E+08         0.70409E+06         0.00000E+00
    0.70409E+06        -0.60688E+08         0.00000E+00
    0.00000E+00         0.00000E+00        -0.59869E+08
 
   -0.59414E+08         0.69677E+06         0.00000E+00
    0.69677E+06        -0.60729E+08         0.00000E+00
    0.00000E+00         0.00000E+00        -0.60069E+08
 
   -0.59764E+08         0.65631E+06         0.00000E+00
    0.65631E+06        -0.60733E+08         0.00000E+00
    0.00000E+00         0.00000E+00        -0.60246E+08
 
   -0.60090E+08         0.56205E+06         0.00000E+00
    0.56205E+06        -0.60704E+08         0.00000E+00
    0.00000E+00         0.00000E+00        -0.60395E+08
 
   -0.60363E+08         0.39606E+06         0.00000E+00
    0.39606E+06        -0.60657E+08         0.00000E+00
    0.00000E+00         0.00000E+00        -0.60508E+08
 
   -0.60535E+08         0.15038E+06         0.00000E+00
    0.15038E+06        -0.60615E+08         0.00000E+00
    0.00000E+00         0.00000E+00        -0.60572E+08
 
   -0.54382E+08         0.13169E+06         0.00000E+00
    0.13169E+06        -0.60004E+08         0.00000E+00
    0.00000E+00         0.00000E+00        -0.57357E+08
 
   -0.54993E+08         0.33729E+06         0.00000E+00
    0.33729E+06        -0.60027E+08         0.00000E+00
    0.00000E+00         0.00000E+00        -0.57569E+08
 
   -0.55675E+08         0.46349E+06         0.00000E+00
    0.46349E+06        -0.60080E+08         0.00000E+00
    0.00000E+00         0.00000E+00        -0.57896E+08
 
   -0.56336E+08         0.52261E+06         0.00000E+00
    0.52261E+06        -0.60169E+08         0.00000E+00
    0.00000E+00         0.00000E+00        -0.58259E+08
 
   -0.56931E+08         0.53759E+06         0.00000E+00
    0.53759E+06        -0.60295E+08         0.00000E+00
    0.00000E+00         0.00000E+00        -0.58616E+08
 
   -0.57448E+08         0.53369E+06         0.00000E+00
    0.53369E+06        -0.60452E+08         0.00000E+00
    0.00000E+00         0.00000E+00        -0.58952E+08
 
   -0.57896E+08         0.53217E+06         0.00000E+00
    0.53217E+06        -0.60628E+08         0.00000E+00
    0.00000E+00         0.00000E+00        -0.59262E+08
 
   -0.58293E+08         0.54628E+06         0.00000E+00
    0.54628E+06        -0.60805E+08         0.00000E+00
    0.00000E+00         0.00000E+00        -0.59548E+08
 
   -0.58665E+08         0.57924E+06         0.00000E+00
    0.57924E+06        -0.60965E+08         0.00000E+00
    0.00000E+00         0.00000E+00        -0.59812E+08
 
   -0.59033E+08         0.62356E+06         0.00000E+00
    0.62356E+06        -0.61090E+08         0.00000E+00
    0.00000E+00         0.00000E+00        -0.60058E+08
 
   -0.59412E+08         0.66154E+06         0.00000E+00
    0.66154E+06        -0.61167E+08         0.00000E+00
    0.00000E+00         0.00000E+00        -0.60285E+08
 
   -0.59808E+08         0.66702E+06         0.00000E+00
    0.66702E+06        -0.61188E+08         0.00000E+00
    0.00000E+00         0.00000E+00        -0.60494E+08
 
   -0.60205E+08         0.60918E+06         0.00000E+00
    0.60918E+06        -0.61159E+08         0.00000E+00
    0.00000E+00         0.00000E+00        -0.60677E+08
 
   -0.60568E+08         0.45902E+06         0.00000E+00
    0.45902E+06        -0.61093E+08         0.00000E+00
    0.00000E+00         0.00000E+00        -0.60823E+08
 
   -0.60835E+08         0.19937E+06         0.00000E+00
    0.19937E+06        -0.61019E+08         0.00000E+00
    0.00000E+00         0.00000E+00        -0.60910E+08
 
   -0.54149E+08         0.11939E+06         0.00000E+00
    0.11939E+06        -0.60007E+08         0.00000E+00
    0.00000E+00         0.00000E+00        -0.57269E+08
 
   -0.54845E+08         0.29311E+06         0.00000E+00
    0.29311E+06        -0.60040E+08         0.00000E+00
    0.00000E+00         0.00000E+00        -0.57512E+08
 
   -0.55607E+08         0.37798E+06         0.00000E+00
    0.37798E+06        -0.60118E+08         0.00000E+00
    0.00000E+00         0.00000E+00        -0.57885E+08
 
   -0.56325E+08         0.39115E+06         0.00000E+00
    0.39115E+06        -0.60247E+08         0.00000E+00
    0.00000E+00         0.00000E+00        -0.58294E+08
 
   -0.56948E+08         0.36354E+06         0.00000E+00
    0.36354E+06        -0.60429E+08         0.00000E+00
    0.00000E+00         0.00000E+00        -0.58692E+08
 
   -0.57465E+08         0.32871E+06         0.00000E+00
    0.32871E+06        -0.60654E+08         0.00000E+00
    0.00000E+00         0.00000E+00        -0.59061E+08
 
   -0.57892E+08         0.31429E+06         0.00000E+00
    0.31429E+06        -0.60905E+08         0.00000E+00
    0.00000E+00         0.00000E+00        -0.59399E+08
 
   -0.58260E+08         0.33698E+06         0.00000E+00
    0.33698E+06        -0.61159E+08         0.00000E+00
    0.00000E+00         0.00000E+00        -0.59708E+08
 
   -0.58604E+08         0.40038E+06         0.00000E+00
    0.40038E+06        -0.61391E+08         0.00000E+00
    0.00000E+00         0.00000E+00        -0.59994E+08
 
   -0.58960E+08         0.49434E+06         0.00000E+00
    0.49434E+06        -0.61577E+08         0.00000E+00
    0.00000E+00         0.00000E+00        -0.60264E+08
 
   -0.59353E+08         0.59534E+06         0.00000E+00
    0.59534E+06        -0.61698E+08         0.00000E+00
    0.00000E+00         0.00000E+00        -0.60520E+08
 
   -0.59797E+08         0.66798E+06         0.00000E+00
    0.66798E+06        -0.61743E+08         0.00000E+00
    0.00000E+00         0.00000E+00        -0.60764E+08
 
   -0.60281E+08         0.66873E+06         0.00000E+00
    0.66873E+06        -0.61711E+08         0.00000E+00
    0.00000E+00         0.00000E+00        -0.60988E+08
 
   -0.60763E+08         0.55390E+06         0.00000E+00
    0.55390E+06        -0.61620E+08         0.00000E+00
    0.00000E+00         0.00000E+00        -0.61176E+08
 
   -0.61162E+08         0.29293E+06         0.00000E+00
    0.29293E+06        -0.61501E+08         0.00000E+00
    0.00000E+00         0.00000E+00        -0.61292E+08
 
   -0.53949E+08         0.10206E+06         0.00000E+00
    0.10206E+06        -0.60009E+08         0.00000E+00
    0.00000E+00         0.00000E+00        -0.57201E+08
 
   -0.54742E+08         0.23095E+06         0.00000E+00
    0.23095E+06        -0.60054E+08         0.00000E+00
    0.00000E+00         0.00000E+00        -0.57479E+08
 
   -0.55592E+08         0.25760E+06         0.00000E+00
    0.25760E+06        -0.60160E+08         0.00000E+00
    0.00000E+00         0.00000E+00        -0.57903E+08
 
   -0.56369E+08         0.20644E+06         0.00000E+00
    0.20644E+06        -0.60338E+08         0.00000E+00
    0.00000E+00         0.00000E+00        -0.58363E+08
 
   -0.57009E+08         0.12009E+06         0.00000E+00
    0.12009E+06        -0.60587E+08         0.00000E+00
    0.00000E+00         0.00000E+00        -0.58803E+08
 
   -0.57508E+08         0.43324E+05         0.00000E+00
    0.43324E+05        -0.60895E+08         0.00000E+00
    0.00000E+00         0.00000E+00        -0.59204E+08
 
   -0.57891E+08         0.11529E+05         0.00000E+00
    0.11529E+05        -0.61236E+08         0.00000E+00
    0.00000E+00         0.00000E+00        -0.59564E+08
 
   -0.58204E+08         0.45022E+05         0.00000E+00
    0.45022E+05        -0.61581E+08         0.00000E+00
    0.00000E+00         0.00000E+00        -0.59890E+08
 
   -0.58497E+08         0.14743E+06         0.00000E+00
    0.14743E+06        -0.61898E+08         0.00000E+00
    0.00000E+00         0.00000E+00        -0.60193E+08
 
   -0.58821E+08         0.30575E+06         0.00000E+00
    0.30575E+06        -0.62156E+08         0.00000E+00
    0.00000E+00         0.00000E+00        -0.60482E+08
 
   -0.59216E+08         0.49051E+06         0.00000E+00
    0.49051E+06        -0.62331E+08         0.00000E+00
    0.00000E+00         0.00000E+00        -0.60766E+08
 
   -0.59708E+08         0.65629E+06         0.00000E+00
    0.65629E+06        -0.62405E+08         0.00000E+00
    0.00000E+00         0.00000E+00        -0.61047E+08
 
   -0.60295E+08         0.74458E+06         0.00000E+00
    0.74458E+06        -0.62372E+08         0.00000E+00
    0.00000E+00         0.00000E+00        -0.61319E+08
 
   -0.60928E+08         0.69261E+06         0.00000E+00
    0.69261E+06        -0.62246E+08         0.00000E+00
    0.00000E+00         0.00000E+00        -0.61558E+08
 
   -0.61504E+08         0.45059E+06         0.00000E+00
    0.45059E+06        -0.62063E+08         0.00000E+00
    0.00000E+00         0.00000E+00        -0.61713E+08
 
   -0.53793E+08         0.79829E+05         0.00000E+00
    0.79829E+05        -0.60011E+08         0.00000E+00
    0.00000E+00         0.00000E+00        -0.57160E+08
 
   -0.54700E+08         0.14875E+06         0.00000E+00
    0.14875E+06        -0.60069E+08         0.00000E+00
    0.00000E+00         0.00000E+00        -0.57480E+08
 
   -0.55652E+08         0.95463E+05         0.00000E+00
    0.95463E+05        -0.60209E+08         0.00000E+00
    0.00000E+00         0.00000E+00        -0.57963E+08
 
   -0.56486E+08        -0.43498E+05         0.00000E+00
   -0.43498E+05        -0.60446E+08         0.00000E+00
    0.00000E+00         0.00000E+00        -0.58479E+08
 
   -0.57130E+08        -0.20789E+06         0.00000E+00
   -0.20789E+06        -0.60779E+08         0.00000E+00
    0.00000E+00         0.00000E+00        -0.58961E+08
 
   -0.57585E+08        -0.33805E+06         0.00000E+00
   -0.33805E+06        -0.61186E+08         0.00000E+00
    0.00000E+00         0.00000E+00        -0.59388E+08
 
   -0.57893E+08        -0.39028E+06         0.00000E+00
   -0.39028E+06        -0.61632E+08         0.00000E+00
    0.00000E+00         0.00000E+00        -0.59762E+08
 
   -0.58119E+08        -0.34195E+06         0.00000E+00
   -0.34195E+06        -0.62079E+08         0.00000E+00
    0.00000E+00         0.00000E+00        -0.60096E+08
 
   -0.58332E+08        -0.19062E+06         0.00000E+00
   -0.19062E+06        -0.62491E+08         0.00000E+00
    0.00000E+00         0.00000E+00        -0.60405E+08
 
   -0.58597E+08         0.47748E+05         0.00000E+00
    0.47748E+05        -0.62831E+08         0.00000E+00
    0.00000E+00         0.00000E+00        -0.60706E+08
 
   -0.58975E+08         0.33874E+06         0.00000E+00
    0.33874E+06        -0.63068E+08         0.00000E+00
    0.00000E+00         0.00000E+00        -0.61012E+08
 
   -0.59510E+08         0.62776E+06         0.00000E+00
    0.62776E+06        -0.63177E+08         0.00000E+00
    0.00000E+00         0.00000E+00        -0.61330E+08
 
   -0.60211E+08         0.84016E+06         0.00000E+00
    0.84016E+06        -0.63143E+08         0.00000E+00
    0.00000E+00         0.00000E+00        -0.61656E+08
 
   -0.61032E+08         0.88916E+06         0.00000E+00
    0.88916E+06        -0.62974E+08         0.00000E+00
    0.00000E+00         0.00000E+00        -0.61957E+08
 
   -0.61843E+08         0.69752E+06         0.00000E+00
    0.69752E+06        -0.62707E+08         0.00000E+00
    0.00000E+00         0.00000E+00        -0.62160E+08
 
   -0.53692E+08         0.52987E+05         0.00000E+00
    0.52987E+05        -0.60013E+08         0.00000E+00
    0.00000E+00         0.00000E+00        -0.57155E+08
 
   -0.54741E+08         0.43086E+05         0.00000E+00
    0.43086E+05        -0.60086E+08         0.00000E+00
    0.00000E+00         0.00000E+00        -0.57527E+08
 
   -0.55814E+08        -0.11934E+06         0.00000E+00
   -0.11934E+06        -0.60269E+08         0.00000E+00
    0.00000E+00         0.00000E+00        -0.58081E+08
 
   -0.56703E+08        -0.37610E+06         0.00000E+00
   -0.37610E+06        -0.60584E+08         0.00000E+00
    0.00000E+00         0.00000E+00        -0.58658E+08
 
   -0.57326E+08        -0.63957E+06         0.00000E+00
   -0.63957E+06        -0.61022E+08         0.00000E+00
    0.00000E+00         0.00000E+00        -0.59181E+08
 
   -0.57701E+08        -0.83151E+06         0.00000E+00
   -0.83151E+06        -0.61547E+08         0.00000E+00
    0.00000E+00         0.00000E+00        -0.59626E+08
 
   -0.57896E+08        -0.90218E+06         0.00000E+00
   -0.90218E+06        -0.62110E+08         0.00000E+00
    0.00000E+00         0.00000E+00        -0.60002E+08
 
   -0.57998E+08        -0.83097E+06         0.00000E+00
   -0.83097E+06        -0.62665E+08         0.00000E+00
    0.00000E+00         0.00000E+00        -0.60327E+08
 
   -0.58094E+08        -0.61948E+06         0.00000E+00
   -0.61948E+06        -0.63172E+08         0.00000E+00
    0.00000E+00         0.00000E+00        -0.60627E+08
 
   -0.58271E+08        -0.28637E+06         0.00000E+00
   -0.28637E+06        -0.63596E+08         0.00000E+00
    0.00000E+00         0.00000E+00        -0.60924E+08
 
   -0.58605E+08         0.13207E+06         0.00000E+00
    0.13207E+06        -0.63901E+08         0.00000E+00
    0.00000E+00         0.00000E+00        -0.61241E+08
 
   -0.59165E+08         0.57614E+06         0.00000E+00
    0.57614E+06        -0.64053E+08         0.00000E+00
    0.00000E+00         0.00000E+00        -0.61592E+08
 
   -0.59986E+08         0.95675E+06         0.00000E+00
    0.95675E+06        -0.64023E+08         0.00000E+00
    0.00000E+00         0.00000E+00        -0.61974E+08
 
   -0.61030E+08         0.11589E+07         0.00000E+00
    0.11589E+07        -0.63804E+08         0.00000E+00
    0.00000E+00         0.00000E+00        -0.62347E+08
 
   -0.62147E+08         0.10659E+07         0.00000E+00
    0.10659E+07        -0.63426E+08         0.00000E+00
    0.00000E+00         0.00000E+00        -0.62609E+08
 
   -0.53660E+08         0.21481E+05         0.00000E+00
    0.21481E+05        -0.60014E+08         0.00000E+00
    0.00000E+00         0.00000E+00        -0.57200E+08
 
   -0.54896E+08        -0.93415E+05         0.00000E+00
   -0.93415E+05        -0.60109E+08         0.00000E+00
    0.00000E+00         0.00000E+00        -0.57639E+08
 
   -0.56114E+08        -0.40711E+06         0.00000E+00
   -0.40711E+06        -0.60355E+08         0.00000E+00
    0.00000E+00         0.00000E+00        -0.58282E+08
 
   -0.57045E+08        -0.81939E+06         0.00000E+00
   -0.81939E+06        -0.60781E+08         0.00000E+00
    0.00000E+00         0.00000E+00        -0.58930E+08
 
   -0.57608E+08        -0.11997E+07         0.00000E+00
   -0.11997E+07        -0.61357E+08         0.00000E+00
    0.00000E+00         0.00000E+00        -0.59488E+08
 
   -0.57853E+08        -0.14509E+07         0.00000E+00
   -0.14509E+07        -0.62018E+08         0.00000E+00
    0.00000E+00         0.00000E+00        -0.59936E+08
 
   -0.57888E+08        -0.15262E+07         0.00000E+00
   -0.15262E+07        -0.62700E+08         0.00000E+00
    0.00000E+00         0.00000E+00        -0.60291E+08
 
   -0.57827E+08        -0.14168E+07         0.00000E+00
   -0.14168E+07        -0.63352E+08         0.00000E+00
    0.00000E+00         0.00000E+00        -0.60584E+08
 
   -0.57774E+08        -0.11330E+07         0.00000E+00
   -0.11330E+07        -0.63940E+08         0.00000E+00
    0.00000E+00         0.00000E+00        -0.60850E+08
 
   -0.57827E+08        -0.69512E+06         0.00000E+00
   -0.69512E+06        -0.64435E+08         0.00000E+00
    0.00000E+00         0.00000E+00        -0.61121E+08
 
   -0.58082E+08        -0.13494E+06         0.00000E+00
   -0.13494E+06        -0.64806E+08         0.00000E+00
    0.00000E+00         0.00000E+00        -0.61430E+08
 
   -0.58637E+08         0.49216E+06         0.00000E+00
    0.49216E+06        -0.65008E+08         0.00000E+00
    0.00000E+00         0.00000E+00        -0.61801E+08
 
   -0.59565E+08         0.10905E+07         0.00000E+00
    0.10905E+07        -0.64992E+08         0.00000E+00
    0.00000E+00         0.00000E+00        -0.62236E+08
 
   -0.60860E+08         0.15159E+07         0.00000E+00
    0.15159E+07        -0.64721E+08         0.00000E+00
    0.00000E+00         0.00000E+00        -0.62686E+08
 
   -0.62360E+08         0.15963E+07         0.00000E+00
    0.15963E+07        -0.64203E+08         0.00000E+00
    0.00000E+00         0.00000E+00        -0.63016E+08
 
   -0.53714E+08        -0.15495E+05         0.00000E+00
   -0.15495E+05        -0.60015E+08         0.00000E+00
    0.00000E+00         0.00000E+00        -0.57316E+08
 
   -0.55212E+08        -0.27880E+06         0.00000E+00
   -0.27880E+06        -0.60145E+08         0.00000E+00
    0.00000E+00         0.00000E+00        -0.57852E+08
 
   -0.56603E+08        -0.81036E+06         0.00000E+00
   -0.81036E+06        -0.60501E+08         0.00000E+00
    0.00000E+00         0.00000E+00        -0.58613E+08
 
   -0.57540E+08        -0.14210E+07         0.00000E+00
   -0.14210E+07        -0.61101E+08         0.00000E+00
    0.00000E+00         0.00000E+00        -0.59339E+08
 
   -0.57971E+08        -0.19184E+07         0.00000E+00
   -0.19184E+07        -0.61860E+08         0.00000E+00
    0.00000E+00         0.00000E+00        -0.59918E+08
 
   -0.58019E+08        -0.21999E+07         0.00000E+00
   -0.21999E+07        -0.62670E+08         0.00000E+00
    0.00000E+00         0.00000E+00        -0.60341E+08
 
   -0.57846E+08        -0.22447E+07         0.00000E+00
   -0.22447E+07        -0.63450E+08         0.00000E+00
    0.00000E+00         0.00000E+00        -0.60642E+08
 
   -0.57591E+08        -0.20710E+07         0.00000E+00
   -0.20710E+07        -0.64160E+08         0.00000E+00
    0.00000E+00         0.00000E+00        -0.60869E+08
 
   -0.57363E+08        -0.17035E+07         0.00000E+00
   -0.17035E+07        -0.64784E+08         0.00000E+00
    0.00000E+00         0.00000E+00        -0.61066E+08
 
   -0.57262E+08        -0.11611E+07         0.00000E+00
   -0.11611E+07        -0.65316E+08         0.00000E+00
    0.00000E+00         0.00000E+00        -0.61279E+08
 
   -0.57395E+08        -0.46059E+06         0.00000E+00
   -0.46059E+06        -0.65733E+08         0.00000E+00
    0.00000E+00         0.00000E+00        -0.61550E+08
 
   -0.57892E+08         0.36354E+06         0.00000E+00
    0.36354E+06        -0.65988E+08         0.00000E+00
    0.00000E+00         0.00000E+00        -0.61914E+08
 
   -0.58883E+08         0.12279E+07         0.00000E+00
    0.12279E+07        -0.66002E+08         0.00000E+00
    0.00000E+00         0.00000E+00        -0.62384E+08
 
   -0.60429E+08         0.19686E+07         0.00000E+00
    0.19686E+07        -0.65689E+08         0.00000E+00
    0.00000E+00         0.00000E+00        -0.62905E+08
 
   -0.62395E+08         0.23403E+07         0.00000E+00
    0.23403E+07        -0.65003E+08         0.00000E+00
    0.00000E+00         0.00000E+00        -0.63308E+08
 
   -0.53889E+08        -0.59221E+05         0.00000E+00
   -0.59221E+05        -0.60014E+08         0.00000E+00
    0.00000E+00         0.00000E+00        -0.57555E+08
 
   -0.55777E+08        -0.56533E+06         0.00000E+00
   -0.56533E+06        -0.60227E+08         0.00000E+00
    0.00000E+00         0.00000E+00        -0.58242E+08
 
   -0.57350E+08        -0.14217E+07         0.00000E+00
   -0.14217E+07        -0.60806E+08         0.00000E+00
    0.00000E+00         0.00000E+00        -0.59157E+08
 
   -0.58188E+08        -0.22556E+07         0.00000E+00
   -0.22556E+07        -0.61688E+08         0.00000E+00
    0.00000E+00         0.00000E+00        -0.59954E+08
 
   -0.58370E+08        -0.28185E+07         0.00000E+00
   -0.28185E+07        -0.62677E+08         0.00000E+00
    0.00000E+00         0.00000E+00        -0.60518E+08
 
   -0.58144E+08        -0.30528E+07         0.00000E+00
   -0.30528E+07        -0.63613E+08         0.00000E+00
    0.00000E+00         0.00000E+00        -0.60866E+08
 
   -0.57728E+08        -0.30022E+07         0.00000E+00
   -0.30022E+07        -0.64423E+08         0.00000E+00
    0.00000E+00         0.00000E+00        -0.61064E+08
 
   -0.57270E+08        -0.27279E+07         0.00000E+00
   -0.27279E+07        -0.65104E+08         0.00000E+00
    0.00000E+00         0.00000E+00        -0.61176E+08
 
   -0.56863E+08        -0.22704E+07         0.00000E+00
   -0.22704E+07        -0.65680E+08         0.00000E+00
    0.00000E+00         0.00000E+00        -0.61262E+08
 
   -0.56589E+08        -0.16405E+07         0.00000E+00
   -0.16405E+07        -0.66176E+08         0.00000E+00
    0.00000E+00         0.00000E+00        -0.61372E+08
 
   -0.56554E+08        -0.82724E+06         0.00000E+00
   -0.82724E+06        -0.66594E+08         0.00000E+00
    0.00000E+00         0.00000E+00        -0.61558E+08
 
   -0.56913E+08         0.17912E+06         0.00000E+00
    0.17912E+06        -0.66890E+08         0.00000E+00
    0.00000E+00         0.00000E+00        -0.61869E+08
 
   -0.57869E+08         0.13418E+07         0.00000E+00
    0.13418E+07        -0.66956E+08         0.00000E+00
    0.00000E+00         0.00000E+00        -0.62328E+08
 
   -0.59603E+08         0.25103E+07         0.00000E+00
    0.25103E+07        -0.66628E+08         0.00000E+00
    0.00000E+00         0.00000E+00        -0.62887E+08
 
   -0.62096E+08         0.33605E+07         0.00000E+00
    0.33605E+07        -0.65750E+08         0.00000E+00
    0.00000E+00         0.00000E+00        -0.63345E+08
 
   -0.54270E+08        -0.12701E+06         0.00000E+00
   -0.12701E+06        -0.60029E+08         0.00000E+00
    0.00000E+00         0.00000E+00        -0.58085E+08
 
   -0.56757E+08        -0.11043E+07         0.00000E+00
   -0.11043E+07        -0.60477E+08         0.00000E+00
    0.00000E+00         0.00000E+00        -0.58972E+08
 
   -0.58401E+08        -0.24125E+07         0.00000E+00
   -0.24125E+07        -0.61506E+08         0.00000E+00
    0.00000E+00         0.00000E+00        -0.60032E+08
 
   -0.58917E+08        -0.33989E+07         0.00000E+00
   -0.33989E+07        -0.62795E+08         0.00000E+00
    0.00000E+00         0.00000E+00        -0.60830E+08
 
   -0.58692E+08        -0.38705E+07         0.00000E+00
   -0.38705E+07        -0.63991E+08         0.00000E+00
    0.00000E+00         0.00000E+00        -0.61288E+08
 
   -0.58131E+08        -0.39170E+07         0.00000E+00
   -0.39170E+07        -0.64934E+08         0.00000E+00
    0.00000E+00         0.00000E+00        -0.61477E+08
 
   -0.57478E+08        -0.36833E+07         0.00000E+00
   -0.36833E+07        -0.65627E+08         0.00000E+00
    0.00000E+00         0.00000E+00        -0.61500E+08
 
   -0.56846E+08        -0.32731E+07         0.00000E+00
   -0.32731E+07        -0.66133E+08         0.00000E+00
    0.00000E+00         0.00000E+00        -0.61442E+08
 
   -0.56288E+08        -0.27319E+07         0.00000E+00
   -0.27319E+07        -0.66530E+08         0.00000E+00
    0.00000E+00         0.00000E+00        -0.61365E+08
 
   -0.55847E+08        -0.20532E+07         0.00000E+00
   -0.20532E+07        -0.66880E+08         0.00000E+00
    0.00000E+00         0.00000E+00        -0.61320E+08
 
   -0.55604E+08        -0.11874E+07         0.00000E+00
   -0.11874E+07        -0.67214E+08         0.00000E+00
    0.00000E+00         0.00000E+00        -0.61361E+08
 
   -0.55720E+08        -0.57856E+05         0.00000E+00
   -0.57856E+05        -0.67507E+08         0.00000E+00
    0.00000E+00         0.00000E+00        -0.61542E+08
 
   -0.56467E+08         0.13945E+07         0.00000E+00
    0.13945E+07        -0.67634E+08         0.00000E+00
    0.00000E+00         0.00000E+00        -0.61904E+08
 
   -0.58202E+08         0.31075E+07         0.00000E+00
    0.31075E+07        -0.67337E+08         0.00000E+00
    0.00000E+00         0.00000E+00        -0.62407E+08
 
   -0.61192E+08         0.47239E+07         0.00000E+00
    0.47239E+07        -0.66267E+08         0.00000E+00
    0.00000E+00         0.00000E+00        -0.62851E+08
 
   -0.55120E+08        -0.34508E+06         0.00000E+00
   -0.34508E+06        -0.60187E+08         0.00000E+00
    0.00000E+00         0.00000E+00        -0.59205E+08
 
   -0.58383E+08        -0.22267E+07         0.00000E+00
   -0.22267E+07        -0.61217E+08         0.00000E+00
    0.00000E+00         0.00000E+00        -0.60177E+08
 
   -0.59666E+08        -0.39688E+07         0.00000E+00
   -0.39688E+07        -0.62952E+08         0.00000E+00
    0.00000E+00         0.00000E+00        -0.61175E+08
 
   -0.59498E+08        -0.48049E+07         0.00000E+00
   -0.48049E+07        -0.64598E+08         0.00000E+00
    0.00000E+00         0.00000E+00        -0.61758E+08
 
   -0.58740E+08        -0.48987E+07         0.00000E+00
   -0.48987E+07        -0.65755E+08         0.00000E+00
    0.00000E+00         0.00000E+00        -0.61936E+08
 
   -0.57866E+08        -0.45887E+07         0.00000E+00
   -0.45887E+07        -0.66428E+08         0.00000E+00
    0.00000E+00         0.00000E+00        -0.61845E+08
 
   -0.57047E+08        -0.41025E+07         0.00000E+00
   -0.41025E+07        -0.66762E+08         0.00000E+00
    0.00000E+00         0.00000E+00        -0.61615E+08
 
   -0.56319E+08        -0.35480E+07         0.00000E+00
   -0.35480E+07        -0.66902E+08         0.00000E+00
    0.00000E+00         0.00000E+00        -0.61331E+08
 
   -0.55672E+08        -0.29520E+07         0.00000E+00
   -0.29520E+07        -0.66963E+08         0.00000E+00
    0.00000E+00         0.00000E+00        -0.61046E+08
 
   -0.55097E+08        -0.22823E+07         0.00000E+00
   -0.22823E+07        -0.67031E+08         0.00000E+00
    0.00000E+00         0.00000E+00        -0.60799E+08
 
   -0.54628E+08        -0.14511E+07         0.00000E+00
   -0.14511E+07        -0.67161E+08         0.00000E+00
    0.00000E+00         0.00000E+00        -0.60629E+08
 
   -0.54387E+08        -0.30721E+06         0.00000E+00
   -0.30721E+06        -0.67361E+08         0.00000E+00
    0.00000E+00         0.00000E+00        -0.60587E+08
 
   -0.54668E+08         0.13535E+07         0.00000E+00
    0.13535E+07        -0.67525E+08         0.00000E+00
    0.00000E+00         0.00000E+00        -0.60716E+08
 
   -0.56018E+08         0.36819E+07         0.00000E+00
    0.36819E+07        -0.67325E+08         0.00000E+00
    0.00000E+00         0.00000E+00        -0.60995E+08
 
   -0.59216E+08         0.64559E+07         0.00000E+00
    0.64559E+07        -0.66137E+08         0.00000E+00
    0.00000E+00         0.00000E+00        -0.61275E+08
 
   -0.57104E+08        -0.11372E+07         0.00000E+00
   -0.11372E+07        -0.60755E+08         0.00000E+00
    0.00000E+00         0.00000E+00        -0.60659E+08
 
   -0.60707E+08        -0.43263E+07         0.00000E+00
   -0.43263E+07        -0.62763E+08         0.00000E+00
    0.00000E+00         0.00000E+00        -0.61215E+08
 
   -0.60712E+08        -0.59706E+07         0.00000E+00
   -0.59706E+07        -0.65058E+08         0.00000E+00
    0.00000E+00         0.00000E+00        -0.61622E+08
 
   -0.59541E+08        -0.60689E+07         0.00000E+00
   -0.60689E+07        -0.66470E+08         0.00000E+00
    0.00000E+00         0.00000E+00        -0.61623E+08
 
   -0.58315E+08        -0.54955E+07         0.00000E+00
   -0.54955E+07        -0.66996E+08         0.00000E+00
    0.00000E+00         0.00000E+00        -0.61309E+08
 
   -0.57282E+08        -0.47550E+07         0.00000E+00
   -0.47550E+07        -0.66975E+08         0.00000E+00
    0.00000E+00         0.00000E+00        -0.60830E+08
 
   -0.56438E+08        -0.40367E+07         0.00000E+00
   -0.40367E+07        -0.66679E+08         0.00000E+00
    0.00000E+00         0.00000E+00        -0.60297E+08
 
   -0.55723E+08        -0.33896E+07         0.00000E+00
   -0.33896E+07        -0.66279E+08         0.00000E+00
    0.00000E+00         0.00000E+00        -0.59767E+08
 
   -0.55067E+08        -0.27974E+07         0.00000E+00
   -0.27974E+07        -0.65882E+08         0.00000E+00
    0.00000E+00         0.00000E+00        -0.59264E+08
 
   -0.54414E+08        -0.22021E+07         0.00000E+00
   -0.22021E+07        -0.65559E+08         0.00000E+00
    0.00000E+00         0.00000E+00        -0.58799E+08
 
   -0.53734E+08        -0.14947E+07         0.00000E+00
   -0.14947E+07        -0.65368E+08         0.00000E+00
    0.00000E+00         0.00000E+00        -0.58387E+08
 
   -0.53054E+08        -0.47725E+06         0.00000E+00
   -0.47725E+06        -0.65354E+08         0.00000E+00
    0.00000E+00         0.00000E+00        -0.58051E+08
 
   -0.52568E+08         0.12086E+07         0.00000E+00
    0.12086E+07        -0.65494E+08         0.00000E+00
    0.00000E+00         0.00000E+00        -0.57819E+08
 
   -0.52891E+08         0.40740E+07         0.00000E+00
    0.40740E+07        -0.65494E+08         0.00000E+00
    0.00000E+00         0.00000E+00        -0.57684E+08
 
   -0.55472E+08         0.83988E+07         0.00000E+00
    0.83988E+07        -0.64472E+08         0.00000E+00
    0.00000E+00         0.00000E+00        -0.57604E+08
 
   -0.61341E+08        -0.31747E+07         0.00000E+00
   -0.31747E+07        -0.61735E+08         0.00000E+00
    0.00000E+00         0.00000E+00        -0.59729E+08
 
   -0.63028E+08        -0.71744E+07         0.00000E+00
   -0.71744E+07        -0.64432E+08         0.00000E+00
    0.00000E+00         0.00000E+00        -0.59221E+08
 
   -0.60734E+08        -0.74242E+07         0.00000E+00
   -0.74242E+07        -0.65910E+08         0.00000E+00
    0.00000E+00         0.00000E+00        -0.58504E+08
 
   -0.58748E+08        -0.63137E+07         0.00000E+00
   -0.63137E+07        -0.65800E+08         0.00000E+00
    0.00000E+00         0.00000E+00        -0.57679E+08
 
   -0.57404E+08        -0.51198E+07         0.00000E+00
   -0.51198E+07        -0.64970E+08         0.00000E+00
    0.00000E+00         0.00000E+00        -0.56812E+08
 
   -0.56460E+08        -0.41190E+07         0.00000E+00
   -0.41190E+07        -0.63917E+08         0.00000E+00
    0.00000E+00         0.00000E+00        -0.55969E+08
 
   -0.55746E+08        -0.33319E+07         0.00000E+00
   -0.33319E+07        -0.62859E+08         0.00000E+00
    0.00000E+00         0.00000E+00        -0.55191E+08
 
   -0.55137E+08        -0.27148E+07         0.00000E+00
   -0.27148E+07        -0.61887E+08         0.00000E+00
    0.00000E+00         0.00000E+00        -0.54483E+08
 
   -0.54538E+08        -0.22096E+07         0.00000E+00
   -0.22096E+07        -0.61035E+08         0.00000E+00
    0.00000E+00         0.00000E+00        -0.53830E+08
 
   -0.53861E+08        -0.17463E+07         0.00000E+00
   -0.17463E+07        -0.60327E+08         0.00000E+00
    0.00000E+00         0.00000E+00        -0.53212E+08
 
   -0.53015E+08        -0.12224E+07         0.00000E+00
   -0.12224E+07        -0.59793E+08         0.00000E+00
    0.00000E+00         0.00000E+00        -0.52612E+08
 
   -0.51902E+08        -0.44966E+06         0.00000E+00
   -0.44966E+06        -0.59496E+08         0.00000E+00
    0.00000E+00         0.00000E+00        -0.52021E+08
 
   -0.50437E+08         0.97179E+06         0.00000E+00
    0.97179E+06        -0.59537E+08         0.00000E+00
    0.00000E+00         0.00000E+00        -0.51432E+08
 
   -0.48916E+08         0.39699E+07         0.00000E+00
    0.39699E+07        -0.59934E+08         0.00000E+00
    0.00000E+00         0.00000E+00        -0.50845E+08
 
   -0.49179E+08         0.99143E+07         0.00000E+00
    0.99143E+07        -0.59786E+08         0.00000E+00
    0.00000E+00         0.00000E+00        -0.50342E+08
 
   -0.68494E+08        -0.63526E+07         0.00000E+00
   -0.63526E+07        -0.62135E+08         0.00000E+00
    0.00000E+00         0.00000E+00        -0.50185E+08
 
   -0.63513E+08        -0.84340E+07         0.00000E+00
   -0.84340E+07        -0.62529E+08         0.00000E+00
    0.00000E+00         0.00000E+00        -0.48808E+08
 
   -0.59336E+08        -0.64461E+07         0.00000E+00
   -0.64461E+07        -0.60431E+08         0.00000E+00
    0.00000E+00         0.00000E+00        -0.47275E+08
 
   -0.57396E+08        -0.47235E+07         0.00000E+00
   -0.47235E+07        -0.57821E+08         0.00000E+00
    0.00000E+00         0.00000E+00        -0.45980E+08
 
   -0.56333E+08        -0.35021E+07         0.00000E+00
   -0.35021E+07        -0.55487E+08         0.00000E+00
    0.00000E+00         0.00000E+00        -0.44894E+08
 
   -0.55658E+08        -0.26538E+07         0.00000E+00
   -0.26538E+07        -0.53539E+08         0.00000E+00
    0.00000E+00         0.00000E+00        -0.43977E+08
 
   -0.55145E+08        -0.20583E+07         0.00000E+00
   -0.20583E+07        -0.51939E+08         0.00000E+00
    0.00000E+00         0.00000E+00        -0.43198E+08
 
   -0.54673E+08        -0.16266E+07         0.00000E+00
   -0.16266E+07        -0.50621E+08         0.00000E+00
    0.00000E+00         0.00000E+00        -0.42520E+08
 
   -0.54149E+08        -0.12934E+07         0.00000E+00
   -0.12934E+07        -0.49531E+08         0.00000E+00
    0.00000E+00         0.00000E+00        -0.41907E+08
 
   -0.53476E+08        -0.10017E+07         0.00000E+00
   -0.10017E+07        -0.48636E+08         0.00000E+00
    0.00000E+00         0.00000E+00        -0.41321E+08
 
   -0.52522E+08        -0.68113E+06         0.00000E+00
   -0.68113E+06        -0.47935E+08         0.00000E+00
    0.00000E+00         0.00000E+00        -0.40729E+08
 
   -0.51073E+08        -0.20563E+06         0.00000E+00
   -0.20563E+06        -0.47486E+08         0.00000E+00
    0.00000E+00         0.00000E+00        -0.40103E+08
 
   -0.48753E+08         0.71148E+06         0.00000E+00
    0.71148E+06        -0.47466E+08         0.00000E+00
    0.00000E+00         0.00000E+00        -0.39414E+08
 
   -0.44822E+08         0.28983E+07         0.00000E+00
    0.28983E+07        -0.48331E+08         0.00000E+00
    0.00000E+00         0.00000E+00        -0.38670E+08
 
   -0.40057E+08         0.94492E+07         0.00000E+00
    0.94492E+07        -0.50396E+08         0.00000E+00
    0.00000E+00         0.00000E+00        -0.38036E+08
 
   -0.75725E+08        -0.56400E+07         0.00000E+00
   -0.56400E+07        -0.55135E+08         0.00000E+00
    0.00000E+00         0.00000E+00        -0.26387E+08
 
   -0.61518E+08        -0.39809E+07         0.00000E+00
   -0.39809E+07        -0.48134E+08         0.00000E+00
    0.00000E+00         0.00000E+00        -0.25600E+08
 
   -0.57823E+08        -0.24365E+07         0.00000E+00
   -0.24365E+07        -0.42381E+08         0.00000E+00
    0.00000E+00         0.00000E+00        -0.24752E+08
 
   -0.56352E+08        -0.16244E+07         0.00000E+00
   -0.16244E+07        -0.38432E+08         0.00000E+00
    0.00000E+00         0.00000E+00        -0.24084E+08
 
   -0.55633E+08        -0.11334E+07         0.00000E+00
   -0.11334E+07        -0.35654E+08         0.00000E+00
    0.00000E+00         0.00000E+00        -0.23560E+08
 
   -0.55180E+08        -0.82273E+06         0.00000E+00
   -0.82273E+06        -0.33638E+08         0.00000E+00
    0.00000E+00         0.00000E+00        -0.23139E+08
 
   -0.54809E+08        -0.61644E+06         0.00000E+00
   -0.61644E+06        -0.32130E+08         0.00000E+00
    0.00000E+00         0.00000E+00        -0.22793E+08
 
   -0.54424E+08        -0.47139E+06         0.00000E+00
   -0.47139E+06        -0.30973E+08         0.00000E+00
    0.00000E+00         0.00000E+00        -0.22499E+08
 
   -0.53946E+08        -0.36003E+06         0.00000E+00
   -0.36003E+06        -0.30073E+08         0.00000E+00
    0.00000E+00         0.00000E+00        -0.22234E+08
 
   -0.53278E+08        -0.26100E+06         0.00000E+00
   -0.26100E+06        -0.29384E+08         0.00000E+00
    0.00000E+00         0.00000E+00        -0.21981E+08
 
   -0.52268E+08        -0.14982E+06         0.00000E+00
   -0.14982E+06        -0.28902E+08         0.00000E+00
    0.00000E+00         0.00000E+00        -0.21722E+08
 
   -0.50642E+08         0.15374E+05         0.00000E+00
    0.15374E+05        -0.28690E+08         0.00000E+00
    0.00000E+00         0.00000E+00        -0.21440E+08
 
   -0.47828E+08         0.33427E+06         0.00000E+00
    0.33427E+06        -0.28955E+08         0.00000E+00
    0.00000E+00         0.00000E+00        -0.21121E+08
 
   -0.42495E+08         0.10609E+07         0.00000E+00
    0.10609E+07        -0.30280E+08         0.00000E+00
    0.00000E+00         0.00000E+00        -0.20771E+08
 
   -0.29672E+08         0.42407E+07         0.00000E+00
    0.42407E+07        -0.35045E+08         0.00000E+00
    0.00000E+00         0.00000E+00        -0.20486E+08
 
SCALARS stresss double 
LOOKUP_TABLE default
  -58579015.7351502     
  -58596413.4525876     
  -58625301.9299451     
  -58662816.6365658     
  -58706530.3719545     
  -58754405.6324890     
  -58804674.1203738     
  -58855771.4756658     
  -58906330.7659168     
  -58955203.2782596     
  -59001470.5451883     
  -59044380.3530122     
  -59083075.2280691     
  -59115988.5701037     
  -59140053.8429021     
  -58568122.2345823     
  -58586658.7558184     
  -58617188.3485862     
  -58656498.7781548     
  -58702001.4390967     
  -58751572.8623447     
  -58803393.0250709     
  -58855858.6966562     
  -58907567.9280551     
  -58957337.4232257     
  -59004214.0580722     
  -59047415.2120043     
  -59086071.7323202     
  -59118651.1896432     
  -59142161.2781593     
  -58546623.3397352     
  -58567677.8129541     
  -58601561.8033029     
  -58644521.5025686     
  -58693649.7488834     
  -58746654.0532963     
  -58801613.8270432     
  -58856850.6058582     
  -58910894.2457700     
  -58962493.5856006     
  -59010627.0244513     
  -59054451.1754998     
  -59093072.6652686     
  -59125025.1913833     
  -59147552.7059884     
  -58514332.9547211     
  -58539388.3086660     
  -58578472.1555505     
  -58627040.4383757     
  -58681720.5567811     
  -58739971.7352295     
  -58799729.0541155     
  -58859206.8860418     
  -58916837.1826112     
  -58971270.1407255     
  -59021383.3578852     
  -59066242.4567556     
  -59104914.4639818     
  -59136032.1340441     
  -59157182.2661880     
  -58471071.4297807     
  -58501704.4231015     
  -58547978.6376937     
  -58604254.8071469     
  -58666534.9412893     
  -58731954.6336567     
  -58798266.5618486     
  -58863551.7898641     
  -58926119.5443788     
  -58984494.2461423     
  -59037422.4313375     
  -59083848.2433213     
  -59122780.4369162     
  -59152967.6623096     
  -59172426.5422914     
  -58416689.7247905     
  -58454602.1497009     
  -58510217.8292155     
  -58576460.8801868     
  -58648534.1739019     
  -58723174.6064200     
  -58797920.3633701     
  -58870700.0303489     
  -58939681.6905914     
  -59003241.8168965     
  -59059968.3647025     
  -59108653.0012509     
  -59148221.0752160     
  -59177539.1451843     
  -59195109.6886247     
  -58351127.0809921     
  -58398180.5301287     
  -58465469.6141390     
  -58544115.1342451     
  -58628335.5149091     
  -58714394.6916729     
  -58799591.2210265     
  -58881690.8415416     
  -58958710.5276009     
  -59028863.4816359     
  -59090555.5892010     
  -59142394.4532870     
  -59183188.8599879     
  -59211904.8536330     
  -59227548.2973510     
  -58274448.1184658     
  -58332695.1525494     
  -58414193.1288677     
  -58507867.6998129     
  -58606758.8152813     
  -58706586.7808773     
  -58804395.0320246     
  -58897787.7371102     
  -58984632.2548302     
  -59062972.9364863     
  -59131016.4606181     
  -59187155.2664481     
  -59230038.7239579     
  -59258687.4758825     
  -59272578.5942019     
  -58186896.4831718     
  -58258596.2039716     
  -58357055.5462856     
  -58468582.1639746     
  -58584836.0075881     
  -58700929.5258847     
  -58813648.6129115     
  -58920452.6543828     
  -59019076.5671104     
  -59107404.3063745     
  -59183436.3887646     
  -59245321.8557561     
  -59291497.2572669     
  -59320959.4977841     
  -59333558.6661595     
  -58088972.0869475     
  -58176589.6049944     
  -58294976.4316107     
  -58427365.1046880     
  -58563826.1192925     
  -58698808.0961904     
  -58828853.4554040     
  -58951313.8239641     
  -59063830.2318410     
  -59164154.8792978     
  -59250091.1389816     
  -59319523.3684270     
  -59370611.2414896     
  -59402207.7844958     
  -59414350.4201133     
  -57981518.2040915     
  -58087711.7984155     
  -58229187.0181664     
  -58385609.3456011     
  -58545241.5205347     
  -58701821.5341842     
  -58851682.2784111     
  -58992130.6720212     
  -59120781.4515480     
  -59235312.5579859     
  -59333363.6973528     
  -59412546.6273674     
  -59470670.4645467     
  -59506272.6888774     
  -59519278.3424422     
  -57865809.7054934     
  -57993408.4550475     
  -58161297.5127541     
  -58345047.3794537     
  -58530883.7406301     
  -58711796.3035810     
  -58883965.9102035     
  -59044751.2911865     
  -59191847.9765259     
  -59322958.2101212     
  -59435628.2712974     
  -59527212.6407491     
  -59595089.6116383     
  -59637247.1784690     
  -59653052.0145230     
  -57743637.2366777     
  -57895613.3950146     
  -58093370.8021556     
  -58307815.8195829     
  -58522891.2148035     
  -58730808.2846266     
  -58927681.1003227     
  -59111060.2376609     
  -59278883.1267837     
  -59429033.1571602     
  -59559087.8812516     
  -59666197.9646788     
  -59747230.4050506     
  -59799316.2784700     
  -59820632.7153022     
  -57617379.8237977     
  -57796825.5069514     
  -58028005.6850447     
  -58276537.9707139     
  -58523807.8117815     
  -58761221.4361331     
  -58984944.8157909     
  -59192918.0716530     
  -59383556.0712088     
  -59555162.6253390     
  -59705550.8754600     
  -59831781.3538310     
  -59930140.6968321     
  -59996511.3554844     
  -60027018.0325629     
  -57490056.2552057     
  -57700182.7270182     
  -57968437.7275389     
  -58254438.7886108     
  -58536688.5668768     
  -58805757.9954157     
  -59058025.6252567     
  -59292097.2645073     
  -59507203.9771418     
  -59702425.1592039     
  -59876128.6045997     
  -60025490.7371615     
  -60146179.8634330     
  -60232345.2279987     
  -60276909.5980610     
  -57365345.6205810     
  -57609536.9212731     
  -57918675.0464183     
  -58245517.9123457     
  -58565270.0756394     
  -58867624.0189906     
  -59149389.0455049     
  -59410222.8473343     
  -59650655.0621930     
  -59871056.9039983     
  -60070832.3931381     
  -60247618.1004448     
  -60396489.3826822     
  -60509281.8165615     
  -60574216.4792644     
  -57247571.0553640     
  -57529545.0432567     
  -57883704.0947445     
  -58254825.9412154     
  -58614249.9552453     
  -58950726.3625193     
  -59261801.5380376     
  -59548730.7785420     
  -59814023.8857495     
  -60060079.3899030     
  -60288043.7545572     
  -60496560.3730910     
  -60680252.6082018     
  -60827975.6877313     
  -60921327.8577994     
  -57141653.6681274     
  -57465816.1902068     
  -57869832.5748706     
  -58288921.0466337     
  -58689744.3059302     
  -59060031.9765058     
  -59398525.1847929     
  -59708860.8800254     
  -59996483.1536779     
  -60266840.9007781     
  -60523828.4284150     
  -60767932.1957537     
  -60993664.9822353     
  -61186186.3417969     
  -61318056.6639561     
  -57053066.1138908     
  -57425197.8669695     
  -57885295.9592017     
  -58356638.3032202     
  -58800028.5217244     
  -59202136.3889101     
  -59563638.7391536     
  -59891702.7165709     
  -60196021.6315121     
  -60486469.4027204     
  -60771067.5061729     
  -61053383.4016107     
  -61328500.2186198     
  -61577216.7047503     
  -61760094.3496998     
  -56987868.6792559     
  -57416394.3281056     
  -57941383.4541184     
  -58470405.1840799     
  -58956718.5496145     
  -59386117.6381800     
  -59762511.1578214     
  -60098307.4353115     
  -60409208.6261182     
  -60711259.3984452     
  -61018400.4487266     
  -61339047.7739724     
  -61670101.8134313     
  -61987616.5051709     
  -62236682.9564464     
  -56953108.2611030     
  -57451337.8336260     
  -58054541.4509834     
  -58648469.4422626     
  -59176580.9028954     
  -59624704.7438691     
  -60002383.1754899     
  -60329830.4977740     
  -60630980.2265184     
  -60930047.3322971     
  -61249014.8254388     
  -61603545.1680395     
  -61994521.1130287     
  -62393652.8123191     
  -62726893.7184004     
  -56957866.9676508     
  -57547912.6124114     
  -58250348.3280490     
  -58918769.5811139     
  -59484264.1570276     
  -59935718.0890973     
  -60292911.8343471     
  -60587631.9858156     
  -60854516.4446097     
  -61127766.7412112     
  -61439487.8649653     
  -61815558.6776456     
  -62264396.1687270     
  -62755571.6860052     
  -63193152.6884309     
  -57015130.7643412     
  -57736453.3880621     
  -58572640.2285064     
  -59326403.9278685     
  -59916378.5857233     
  -60343454.0283098     
  -60646277.0963764     
  -60873180.7336231     
  -61071389.1646770     
  -61285664.2461892     
  -61559305.0616351     
  -61931383.8535479     
  -62423116.2500749     
  -63007706.6808285     
  -63568709.4649789     
  -57152560.7826290     
  -58082048.2895035     
  -59104117.2745829     
  -59943530.5689644     
  -60521894.3860439     
  -60874267.1305537     
  -61071663.2109271     
  -61183346.9878729     
  -61268280.3222329     
  -61379190.4923974     
  -61568758.2830198     
  -61890476.4575417     
  -62384524.1810414     
  -63039138.5551153     
  -63730331.2904400     
  -57461294.7534483     
  -58735537.3797925     
  -59979562.2588176     
  -60847630.8869314     
  -61323525.0889064     
  -61514229.4309828     
  -61534992.3398313     
  -61473818.1528748     
  -61394295.4245856     
  -61349054.0180007     
  -61392929.8263466     
  -61589686.2198802     
  -62001687.8886536     
  -62648943.4835839     
  -63436726.6992537     
  -58170860.7067571     
  -59925420.8649904     
  -61264504.0873089     
  -61951547.6172341     
  -62143680.0330351     
  -62046226.4526805     
  -61807739.1427440     
  -61517181.3926992     
  -61226957.9342286     
  -60975580.4506407     
  -60805959.0046647     
  -60778440.1304565     
  -60969668.9070579     
  -61445976.5075742     
  -62209409.6827501     
  -59505860.1960992     
  -61561613.7436157     
  -62463642.0710165     
  -62544665.5476833     
  -62206349.7285401     
  -61695482.1233140     
  -61137958.2394854     
  -60589740.5721734     
  -60071113.9076584     
  -59590793.7396452     
  -59162808.4480800     
  -58819732.6699589     
  -58626973.2175983     
  -58689785.6556634     
  -59182595.1937964     
  -60935119.1363731     
  -62227045.1108809     
  -61715899.1991593     
  -60742161.0826856     
  -59728368.9181014     
  -58781991.9673114     
  -57932027.8308043     
  -57169066.2244774     
  -56467820.1851866     
  -55799648.1519500     
  -55139740.0336218     
  -54472996.5007218     
  -53802170.0318946     
  -53231677.8374855     
  -53102322.1546837     
  -60271496.1996041     
  -58283491.8502072     
  -55680856.4649397     
  -53732259.2990680     
  -52238260.1760835     
  -51058003.4521834     
  -50093683.6951293     
  -49271370.5866329     
  -48529006.8293905     
  -47810846.7681483     
  -47061971.9194214     
  -46220450.4401576     
  -45211086.6380203     
  -43940934.7505176     
  -42829625.2704639     
  -52415611.6252561     
  -45083857.2440183     
  -41652164.6749428     
  -39622756.3462433     
  -38282573.6655525     
  -37319260.3114282     
  -36577499.8042297     
  -35965180.9386846     
  -35417734.1144366     
  -34880784.5672759     
  -34297241.4810630     
  -33590967.2116281     
  -32634762.1544711     
  -31182055.2147679     
  -28401090.9502776     
SCALARS 2waySource double 
LOOKUP_TABLE default
 -2.823320378894070E-003
 -2.797898281586685E-003
 -2.747591470550390E-003
 -2.676712899870266E-003
 -2.590595113201200E-003
 -2.494294629552805E-003
 -2.392027237518908E-003
 -2.287273793062336E-003
 -2.182999631113549E-003
 -2.081762510359104E-003
 -1.985851786130743E-003
 -1.897771956569914E-003
 -1.821126712792806E-003
 -1.760844244687891E-003
 -1.720578810098989E-003
 -2.844787954052286E-003
 -2.817438786395750E-003
 -2.764327912198824E-003
 -2.689890394801232E-003
 -2.599916129061117E-003
 -2.499810650395012E-003
 -2.393986073649845E-003
 -2.286032041791739E-003
 -2.178989752449604E-003
 -2.075483835723932E-003
 -1.977859163555004E-003
 -1.888633541994690E-003
 -1.811336991652465E-003
 -1.750753994786824E-003
 -1.710464301843347E-003
 -2.886195322055444E-003
 -2.855182223412810E-003
 -2.796617292885716E-003
 -2.715351940274977E-003
 -2.617975900666176E-003
 -2.510557730230300E-003
 -2.397894361061921E-003
 -2.283783436911510E-003
 -2.171408050056910E-003
 -2.063518956139328E-003
 -1.962569737972027E-003
 -1.871115971583654E-003
 -1.792566476183966E-003
 -1.731427996321999E-003
 -1.691125050705132E-003
 -2.947302441133268E-003
 -2.910917613722369E-003
 -2.844257442055425E-003
 -2.752806395036098E-003
 -2.644350959008928E-003
 -2.525971737004699E-003
 -2.403051301789478E-003
 -2.279693995260236E-003
 -2.159286042234356E-003
 -2.044759319441290E-003
 -1.938728393379005E-003
 -1.843817649430329E-003
 -1.763284277313528E-003
 -1.701245277666271E-003
 -1.660908335951635E-003
 -3.027881563149784E-003
 -2.984158072854518E-003
 -2.906612224921374E-003
 -2.801417421232637E-003
 -2.677993391048323E-003
 -2.544803047560009E-003
 -2.408016998210339E-003
 -2.272138294922527E-003
 -2.140808644139941E-003
 -2.017188373935409E-003
 -1.904101463905132E-003
 -1.804275808267013E-003
 -1.720805073778974E-003
 -1.657346623864176E-003
 -1.616864937405586E-003
 -3.127953958417618E-003
 -3.074625170975627E-003
 -2.983094083355480E-003
 -2.860306335509991E-003
 -2.717752192021081E-003
 -2.565651356594179E-003
 -2.411158809422641E-003
 -2.259255981007519E-003
 -2.113878762876388E-003
 -1.978451265146745E-003
 -1.856047354062313E-003
 -1.749532767527488E-003
 -1.661840066357979E-003
 -1.596133845612877E-003
 -1.555151353676377E-003
 -3.247363726442649E-003
 -3.181984212225328E-003
 -3.073089454928816E-003
 -2.928556703413114E-003
 -2.762414016375754E-003
 -2.587028191217109E-003
 -2.410730979934843E-003
 -2.239046354383511E-003
 -2.076224485401251E-003
 -1.925971360709674E-003
 -1.791638721004379E-003
 -1.676262200518305E-003
 -1.582632209050421E-003
 -1.513428870870291E-003
 -1.471238818659061E-003
 -3.385550645063158E-003
 -3.305508583346237E-003
 -3.175651257713736E-003
 -3.004939081834397E-003
 -2.810454530166390E-003
 -2.607131486317228E-003
 -2.404670729518331E-003
 -2.209184677193532E-003
 -2.025233481507065E-003
 -1.856799225077996E-003
 -1.707521556569638E-003
 -1.580635167522755E-003
 -1.478832801365596E-003
 -1.404379327011423E-003
 -1.359868937397509E-003
 -3.541539167280444E-003
 -3.444006529231059E-003
 -3.289365010552412E-003
 -3.087767916611628E-003
 -2.859908632818888E-003
 -2.623738009191722E-003
 -2.390516260883708E-003
 -2.166966659766419E-003
 -1.957922662754883E-003
 -1.767603483901450E-003
 -1.599920462952596E-003
 -1.458330696211382E-003
 -1.345507776953952E-003
 -1.263453235123008E-003
 -1.215027958504747E-003
 -3.713854054689675E-003
 -3.595775076283764E-003
 -3.412299475056104E-003
 -3.174856444321027E-003
 -2.908342208988414E-003
 -2.634200953970565E-003
 -2.365436148048686E-003
 -2.109372931221913E-003
 -1.871037797811086E-003
 -1.654801516166584E-003
 -1.464791598094958E-003
 -1.304697545530870E-003
 -1.177291739080074E-003
 -1.084568500513800E-003
 -1.030039118971382E-003
 -3.900377753749892E-003
 -3.758488414994109E-003
 -3.541920331707922E-003
 -3.263449536317529E-003
 -2.952808735175129E-003
 -2.635438605121771E-003
 -2.326258651958454E-003
 -2.033145557068977E-003
 -1.761179673312310E-003
 -1.514731986729223E-003
 -1.298031824085721E-003
 -1.114984490258289E-003
 -9.686212556818527E-004
 -8.613132415283501E-004
 -7.977602860724244E-004
 -4.098218656364744E-003
 -3.929071009866347E-003
 -3.674971636305956E-003
 -3.350117696311913E-003
 -2.989765661199477E-003
 -2.623887244242311E-003
 -2.269476158752764E-003
 -1.934856326169042E-003
 -1.624942781008547E-003
 -1.343862553030262E-003
 -1.095745222731500E-003
 -8.846477604607966E-004
 -7.140618032161626E-004
 -5.872732910971645E-004
 -5.108980413562414E-004
 -4.303599882167366E-003
 -4.103578958718265E-003
 -3.807342524857038E-003
 -3.430618230326792E-003
 -3.014949375396972E-003
 -2.595415307849541E-003
 -2.191224639671958E-003
 -1.810973056613165E-003
 -1.459081394795018E-003
 -1.139057468437975E-003
 -8.546017911328130E-004
 -6.097794366576980E-004
 -4.087781772791462E-004
 -2.565176220065546E-004
 -1.624844877077077E-004
 -4.511771986335011E-003
 -4.277086471477289E-003
 -3.933910287935915E-003
 -3.499706183504462E-003
 -3.023185720635566E-003
 -2.545175827096752E-003
 -2.087220698057757E-003
 -1.657916018603055E-003
 -1.260707172970093E-003
 -8.979227177894347E-004
 -5.723201357820017E-004
 -2.877024879713028E-004
 -4.920608016170064E-005
  1.356922535396819E-004
  2.534134773720721E-004
 -4.716953585875146E-003
 -4.443566317356675E-003
 -4.048332639732183E-003
 -3.550854146507641E-003
 -3.008088607267849E-003
 -2.467352231103581E-003
 -1.952621188487976E-003
 -1.472083725987789E-003
 -1.027514004170846E-003
 -6.192423694015962E-004
 -2.483073494776518E-004
  8.221378425339745E-005
  3.660015502141909E-004
  5.918795057067196E-004
  7.406543101070937E-004
 -4.912301050429588E-003
 -4.595739955175877E-003
 -4.142734437154147E-003
 -3.575804425079299E-003
 -2.961564254852443E-003
 -2.354724119423073E-003
 -1.781750256154093E-003
 -1.249814129737666E-003
 -7.580174265226864E-004
 -3.035157402945762E-004
  1.155086527677959E-004
  4.974523426225255E-004
  8.346552736279253E-004
  1.110888772692183E-003
  1.299507108874578E-003
 -5.089869253363534E-003
 -4.724814306988663E-003
 -4.207169142384010E-003
 -3.563815736711203E-003
 -2.872988474900811E-003
 -2.197946220522274E-003
 -1.567620537706473E-003
 -9.872381733462005E-004
 -4.517898122225168E-004
  4.639996640047828E-005
  5.136186532735819E-004
  9.508811429740254E-004
  1.349201207231158E-003
  1.685790220171769E-003
  1.924431094627778E-003
 -5.240441559617389E-003
 -4.819975768349050E-003
 -4.228687450281554E-003
 -3.500400803924668E-003
 -2.727871694125992E-003
 -1.984412576017636E-003
 -1.301181766476564E-003
 -6.800000970323234E-004
 -1.096856043607839E-004
  4.245318627373980E-004
  9.356011033444638E-004
  1.428812105889544E-003
  1.894177302981536E-003
  2.300830879834808E-003
  2.600744470733384E-003
 -5.353326861896764E-003
 -4.867457643459075E-003
 -4.189533379266393E-003
 -3.365016896777409E-003
 -2.505581556950872E-003
 -1.696436207003891E-003
 -9.701514641295283E-004
 -3.227492180470333E-004
  2.660458276671646E-004
  8.210379229764747E-004
  1.364615604677434E-003
  1.908575276549385E-003
  2.442738010489680E-003
  2.926942292359015E-003
  3.299447043127509E-003
 -5.415108714819046E-003
 -4.847796943858148E-003
 -4.063287203616537E-003
 -3.126901691759089E-003
 -2.175696593460750E-003
 -1.308663871631414E-003
 -5.575417415839058E-004
  9.146438104506696E-005
  6.717184433889606E-004
  1.221523362507152E-003
  1.775816383335366E-003
  2.355572461967468E-003
  2.951855794521741E-003
  3.514836584034214E-003
  3.968635691882366E-003
 -5.405400983136804E-003
 -4.731147869925342E-003
 -3.809207254029996E-003
 -2.738792622467742E-003
 -1.693034584258309E-003
 -7.853544645179698E-004
 -4.079940933211858E-005
  5.710338101923690E-004
  1.101630887767471E-003
  1.606085344219606E-003
  2.134474006853346E-003
  2.719429991421768E-003
  3.355209053072969E-003
  3.983626871175336E-003
  4.518244129952106E-003
 -5.300600116563178E-003
 -4.473984843483369E-003
 -3.356832153199682E-003
 -2.119233636065294E-003
 -9.853980806869686E-004
 -7.412182473770936E-005
  6.110246043678964E-004
  1.127659996311062E-003
  1.550285866785800E-003
  1.951987064676555E-003
  2.398002421065006E-003
  2.933015431408361E-003
  3.555746533253967E-003
  4.203504818294038E-003
  4.792265613983930E-003
 -5.067553281875150E-003
 -3.968193628751211E-003
 -2.538706032935103E-003
 -1.110228553461628E-003
  6.141666313238887E-005
  8.940564744216818E-004
  1.432537926537413E-003
  1.772227487960961E-003
  2.010945960144123E-003
  2.235114021698379E-003
  2.518845678604765E-003
  2.912665783437253E-003
  3.415491048405286E-003
  3.964874469162535E-003
  4.511667712640954E-003
 -4.487193116774973E-003
 -2.843167459596219E-003
 -1.032853877776850E-003
  4.514866812532674E-004
  1.474759983553169E-003
  2.063379172413617E-003
  2.324743265944694E-003
  2.385723118000949E-003
  2.355296299089076E-003
  2.318996664428259E-003
  2.343855858042158E-003
  2.467161427546869E-003
  2.667536399652767E-003
  2.878311602280983E-003
  3.146122483626041E-003
 -2.909610538193222E-003
 -5.300081674328762E-004
  1.135486079319199E-003
  2.096431501355643E-003
  2.575306127625347E-003
  2.679660054418739E-003
  2.517708235546796E-003
  2.206734308409521E-003
  1.840200523885629E-003
  1.481905394563540E-003
  1.170232239339626E-003
  8.993323689557697E-004
  5.848869974944952E-004
  1.243010712562311E-004
 -2.739073254745119E-004
 -2.085987798629720E-004
  2.078370133821530E-003
  1.986398890801909E-003
  1.498852789319578E-003
  1.029952756665493E-003
  4.824377352565587E-004
 -1.694369507769224E-004
 -8.713810188683769E-004
 -1.569858505531248E-003
 -2.235985709795613E-003
 -2.869847395679977E-003
 -3.535873688062375E-003
 -4.414182461487043E-003
 -5.698078365068013E-003
 -7.041851725580322E-003
  4.194709981145510E-004
  1.325452545073109E-004
 -3.012246463480050E-003
 -5.117655311834567E-003
 -6.432801911724236E-003
 -7.499180300654431E-003
 -8.508096092988752E-003
 -9.471817455202335E-003
 -1.037244616600605E-002
 -1.120637047378385E-002
 -1.199355370468917E-002
 -1.281979388000237E-002
 -1.391380067654240E-002
 -1.555260740338275E-002
 -1.747166957356115E-002
 -5.651847087310948E-003
 -1.062962011459028E-002
 -1.483468458766482E-002
 -1.716560278524865E-002
 -1.862314596437407E-002
 -1.977470240619964E-002
 -2.082291632144322E-002
 -2.178722662194563E-002
 -2.265660413085588E-002
 -2.342805117758476E-002
 -2.410712323680687E-002
 -2.473291146050995E-002
 -2.542977986650563E-002
 -2.644778497957748E-002
 -2.787514307042727E-002
 -1.310214434337612E-002
 -1.966014033443454E-002
 -2.154351992285639E-002
 -2.308998982106154E-002
 -2.423134006144119E-002
 -2.518337515623804E-002
 -2.604247354166008E-002
 -2.681401469289228E-002
 -2.748981688556271E-002
 -2.806470664527133E-002
 -2.852765173088957E-002
 -2.886019054259150E-002
 -2.903607536458195E-002
 -2.900897402520283E-002
 -2.942742911367282E-002
  1.683711800688438E-003
 -1.019941553764255E-003
 -4.279494609418302E-003
 -6.564207794025979E-003
 -8.141091077390094E-003
 -9.291848519386778E-003
 -1.018958435538799E-002
 -1.092584347222093E-002
 -1.155768087079431E-002
 -1.212658309745076E-002
 -1.266436220758345E-002
 -1.319625681226218E-002
 -1.373301042945624E-002
 -1.420170970047506E-002
 -1.431700501881092E-002
SCALARS elementIsPlast double 
LOOKUP_TABLE default
  0.000000000000000E+000
  0.000000000000000E+000
  0.000000000000000E+000
  0.000000000000000E+000
  0.000000000000000E+000
  0.000000000000000E+000
  0.000000000000000E+000
  0.000000000000000E+000
  0.000000000000000E+000
  0.000000000000000E+000
  0.000000000000000E+000
  0.000000000000000E+000
  0.000000000000000E+000
  0.000000000000000E+000
  0.000000000000000E+000
  0.000000000000000E+000
  0.000000000000000E+000
  0.000000000000000E+000
  0.000000000000000E+000
  0.000000000000000E+000
  0.000000000000000E+000
  0.000000000000000E+000
  0.000000000000000E+000
  0.000000000000000E+000
  0.000000000000000E+000
  0.000000000000000E+000
  0.000000000000000E+000
  0.000000000000000E+000
  0.000000000000000E+000
  0.000000000000000E+000
  0.000000000000000E+000
  0.000000000000000E+000
  0.000000000000000E+000
  0.000000000000000E+000
  0.000000000000000E+000
  0.000000000000000E+000
  0.000000000000000E+000
  0.000000000000000E+000
  0.000000000000000E+000
  0.000000000000000E+000
  0.000000000000000E+000
  0.000000000000000E+000
  0.000000000000000E+000
  0.000000000000000E+000
  0.000000000000000E+000
  0.000000000000000E+000
  0.000000000000000E+000
  0.000000000000000E+000
  0.000000000000000E+000
  0.000000000000000E+000
  0.000000000000000E+000
  0.000000000000000E+000
  0.000000000000000E+000
  0.000000000000000E+000
  0.000000000000000E+000
  0.000000000000000E+000
  0.000000000000000E+000
  0.000000000000000E+000
  0.000000000000000E+000
  0.000000000000000E+000
  0.000000000000000E+000
  0.000000000000000E+000
  0.000000000000000E+000
  0.000000000000000E+000
  0.000000000000000E+000
  0.000000000000000E+000
  0.000000000000000E+000
  0.000000000000000E+000
  0.000000000000000E+000
  0.000000000000000E+000
  0.000000000000000E+000
  0.000000000000000E+000
  0.000000000000000E+000
  0.000000000000000E+000
  0.000000000000000E+000
  0.000000000000000E+000
  0.000000000000000E+000
  0.000000000000000E+000
  0.000000000000000E+000
  0.000000000000000E+000
  0.000000000000000E+000
  0.000000000000000E+000
  0.000000000000000E+000
  0.000000000000000E+000
  0.000000000000000E+000
  0.000000000000000E+000
  0.000000000000000E+000
  0.000000000000000E+000
  0.000000000000000E+000
  0.000000000000000E+000
  0.000000000000000E+000
  0.000000000000000E+000
  0.000000000000000E+000
  0.000000000000000E+000
  0.000000000000000E+000
  0.000000000000000E+000
  0.000000000000000E+000
  0.000000000000000E+000
  0.000000000000000E+000
  0.000000000000000E+000
  0.000000000000000E+000
  0.000000000000000E+000
  0.000000000000000E+000
  0.000000000000000E+000
  0.000000000000000E+000
  0.000000000000000E+000
  0.000000000000000E+000
  0.000000000000000E+000
  0.000000000000000E+000
  0.000000000000000E+000
  0.000000000000000E+000
  0.000000000000000E+000
  0.000000000000000E+000
  0.000000000000000E+000
  0.000000000000000E+000
  0.000000000000000E+000
  0.000000000000000E+000
  0.000000000000000E+000
  0.000000000000000E+000
  0.000000000000000E+000
  0.000000000000000E+000
  0.000000000000000E+000
  0.000000000000000E+000
  0.000000000000000E+000
  0.000000000000000E+000
  0.000000000000000E+000
  0.000000000000000E+000
  0.000000000000000E+000
  0.000000000000000E+000
  0.000000000000000E+000
  0.000000000000000E+000
  0.000000000000000E+000
  0.000000000000000E+000
  0.000000000000000E+000
  0.000000000000000E+000
  0.000000000000000E+000
  0.000000000000000E+000
  0.000000000000000E+000
  0.000000000000000E+000
  0.000000000000000E+000
  0.000000000000000E+000
  0.000000000000000E+000
  0.000000000000000E+000
  0.000000000000000E+000
  0.000000000000000E+000
  0.000000000000000E+000
  0.000000000000000E+000
  0.000000000000000E+000
  0.000000000000000E+000
  0.000000000000000E+000
  0.000000000000000E+000
  0.000000000000000E+000
  0.000000000000000E+000
  0.000000000000000E+000
  0.000000000000000E+000
  0.000000000000000E+000
  0.000000000000000E+000
  0.000000000000000E+000
  0.000000000000000E+000
  0.000000000000000E+000
  0.000000000000000E+000
  0.000000000000000E+000
  0.000000000000000E+000
  0.000000000000000E+000
  0.000000000000000E+000
  0.000000000000000E+000
  0.000000000000000E+000
  0.000000000000000E+000
  0.000000000000000E+000
  0.000000000000000E+000
  0.000000000000000E+000
  0.000000000000000E+000
  0.000000000000000E+000
  0.000000000000000E+000
  0.000000000000000E+000
  0.000000000000000E+000
  0.000000000000000E+000
  0.000000000000000E+000
  0.000000000000000E+000
  0.000000000000000E+000
  0.000000000000000E+000
  0.000000000000000E+000
  0.000000000000000E+000
  0.000000000000000E+000
  0.000000000000000E+000
  0.000000000000000E+000
  0.000000000000000E+000
  0.000000000000000E+000
  0.000000000000000E+000
  0.000000000000000E+000
  0.000000000000000E+000
  0.000000000000000E+000
  0.000000000000000E+000
  0.000000000000000E+000
  0.000000000000000E+000
  0.000000000000000E+000
  0.000000000000000E+000
  0.000000000000000E+000
  0.000000000000000E+000
  0.000000000000000E+000
  0.000000000000000E+000
  0.000000000000000E+000
  0.000000000000000E+000
  0.000000000000000E+000
  0.000000000000000E+000
  0.000000000000000E+000
  0.000000000000000E+000
  0.000000000000000E+000
  0.000000000000000E+000
  0.000000000000000E+000
  0.000000000000000E+000
  0.000000000000000E+000
  0.000000000000000E+000
  0.000000000000000E+000
  0.000000000000000E+000
  0.000000000000000E+000
  0.000000000000000E+000
  0.000000000000000E+000
  0.000000000000000E+000
  0.000000000000000E+000
  0.000000000000000E+000
  0.000000000000000E+000
  0.000000000000000E+000
  0.000000000000000E+000
  0.000000000000000E+000
  0.000000000000000E+000
  0.000000000000000E+000
  0.000000000000000E+000
  0.000000000000000E+000
  0.000000000000000E+000
  0.000000000000000E+000
  0.000000000000000E+000
  0.000000000000000E+000
  0.000000000000000E+000
  0.000000000000000E+000
  0.000000000000000E+000
  0.000000000000000E+000
  0.000000000000000E+000
  0.000000000000000E+000
  0.000000000000000E+000
  0.000000000000000E+000
  0.000000000000000E+000
  0.000000000000000E+000
  0.000000000000000E+000
  0.000000000000000E+000
  0.000000000000000E+000
  0.000000000000000E+000
  0.000000000000000E+000
  0.000000000000000E+000
  0.000000000000000E+000
  0.000000000000000E+000
  0.000000000000000E+000
  0.000000000000000E+000
  0.000000000000000E+000
  0.000000000000000E+000
  0.000000000000000E+000
  0.000000000000000E+000
  0.000000000000000E+000
  0.000000000000000E+000
  0.000000000000000E+000
  0.000000000000000E+000
  0.000000000000000E+000
  0.000000000000000E+000
  0.000000000000000E+000
  0.000000000000000E+000
  0.000000000000000E+000
  0.000000000000000E+000
  0.000000000000000E+000
  0.000000000000000E+000
  0.000000000000000E+000
  0.000000000000000E+000
  0.000000000000000E+000
  0.000000000000000E+000
  0.000000000000000E+000
  0.000000000000000E+000
  0.000000000000000E+000
  0.000000000000000E+000
  0.000000000000000E+000
  0.000000000000000E+000
  0.000000000000000E+000
  0.000000000000000E+000
  0.000000000000000E+000
  0.000000000000000E+000
  0.000000000000000E+000
  0.000000000000000E+000
  0.000000000000000E+000
  0.000000000000000E+000
  0.000000000000000E+000
  0.000000000000000E+000
  0.000000000000000E+000
  0.000000000000000E+000
  0.000000000000000E+000
  0.000000000000000E+000
  0.000000000000000E+000
  0.000000000000000E+000
  0.000000000000000E+000
  0.000000000000000E+000
  0.000000000000000E+000
  0.000000000000000E+000
  0.000000000000000E+000
  0.000000000000000E+000
  0.000000000000000E+000
  0.000000000000000E+000
  0.000000000000000E+000
  0.000000000000000E+000
  0.000000000000000E+000
  0.000000000000000E+000
  0.000000000000000E+000
  0.000000000000000E+000
  0.000000000000000E+000
  0.000000000000000E+000
  0.000000000000000E+000
  0.000000000000000E+000
  0.000000000000000E+000
  0.000000000000000E+000
  0.000000000000000E+000
  0.000000000000000E+000
  0.000000000000000E+000
  0.000000000000000E+000
  0.000000000000000E+000
  0.000000000000000E+000
  0.000000000000000E+000
  0.000000000000000E+000
  0.000000000000000E+000
  0.000000000000000E+000
  0.000000000000000E+000
  0.000000000000000E+000
  0.000000000000000E+000
  0.000000000000000E+000
  0.000000000000000E+000
  0.000000000000000E+000
  0.000000000000000E+000
  0.000000000000000E+000
  0.000000000000000E+000
  0.000000000000000E+000
  0.000000000000000E+000
  0.000000000000000E+000
  0.000000000000000E+000
  0.000000000000000E+000
  0.000000000000000E+000
  0.000000000000000E+000
  0.000000000000000E+000
  0.000000000000000E+000
  0.000000000000000E+000
  0.000000000000000E+000
  0.000000000000000E+000
  0.000000000000000E+000
  0.000000000000000E+000
  0.000000000000000E+000
  0.000000000000000E+000
  0.000000000000000E+000
  0.000000000000000E+000
  0.000000000000000E+000
  0.000000000000000E+000
  0.000000000000000E+000
  0.000000000000000E+000
  0.000000000000000E+000
  0.000000000000000E+000
  0.000000000000000E+000
  0.000000000000000E+000
  0.000000000000000E+000
  0.000000000000000E+000
  0.000000000000000E+000
  0.000000000000000E+000
  0.000000000000000E+000
  0.000000000000000E+000
  0.000000000000000E+000
  0.000000000000000E+000
  0.000000000000000E+000
  0.000000000000000E+000
  0.000000000000000E+000
  0.000000000000000E+000
  0.000000000000000E+000
  0.000000000000000E+000
  0.000000000000000E+000
  0.000000000000000E+000
  0.000000000000000E+000
  0.000000000000000E+000
  0.000000000000000E+000
  0.000000000000000E+000
  0.000000000000000E+000
  0.000000000000000E+000
  0.000000000000000E+000
  0.000000000000000E+000
  0.000000000000000E+000
  0.000000000000000E+000
  0.000000000000000E+000
  0.000000000000000E+000
  0.000000000000000E+000
  0.000000000000000E+000
  0.000000000000000E+000
  0.000000000000000E+000
  0.000000000000000E+000
  0.000000000000000E+000
  0.000000000000000E+000
  0.000000000000000E+000
  0.000000000000000E+000
  0.000000000000000E+000
  0.000000000000000E+000
  0.000000000000000E+000
  0.000000000000000E+000
  0.000000000000000E+000
  0.000000000000000E+000
  0.000000000000000E+000
  0.000000000000000E+000
  0.000000000000000E+000
  0.000000000000000E+000
  0.000000000000000E+000
  0.000000000000000E+000
  0.000000000000000E+000
  0.000000000000000E+000
  0.000000000000000E+000
  0.000000000000000E+000
  0.000000000000000E+000
  0.000000000000000E+000
  0.000000000000000E+000
  0.000000000000000E+000
  0.000000000000000E+000
  0.000000000000000E+000
  0.000000000000000E+000
  0.000000000000000E+000
  0.000000000000000E+000
  0.000000000000000E+000
  0.000000000000000E+000
  0.000000000000000E+000
  0.000000000000000E+000
  0.000000000000000E+000
  0.000000000000000E+000
  0.000000000000000E+000
  0.000000000000000E+000
  0.000000000000000E+000
  0.000000000000000E+000
  0.000000000000000E+000
  0.000000000000000E+000
  0.000000000000000E+000
  0.000000000000000E+000
  0.000000000000000E+000
  0.000000000000000E+000
  0.000000000000000E+000
  0.000000000000000E+000
  0.000000000000000E+000
  0.000000000000000E+000
  0.000000000000000E+000
  0.000000000000000E+000
  0.000000000000000E+000
  0.000000000000000E+000
  0.000000000000000E+000
  0.000000000000000E+000
  0.000000000000000E+000
  0.000000000000000E+000
