# vtk DataFile Version 3.0
vtk output
ASCII
DATASET UNSTRUCTURED_GRID
POINTS       496 double 
  0.00000000E+00  3.00000000E+02  0.00000000E+00
  0.00000000E+00  2.80000000E+02  0.00000000E+00
  0.00000000E+00  2.60000000E+02  0.00000000E+00
  0.00000000E+00  2.40000000E+02  0.00000000E+00
  0.00000000E+00  2.20000000E+02  0.00000000E+00
  0.00000000E+00  2.00000000E+02  0.00000000E+00
  0.00000000E+00  1.80000000E+02  0.00000000E+00
  0.00000000E+00  1.60000000E+02  0.00000000E+00
  0.00000000E+00  1.40000000E+02  0.00000000E+00
  0.00000000E+00  1.20000000E+02  0.00000000E+00
  0.00000000E+00  1.00000000E+02  0.00000000E+00
  0.00000000E+00  8.00000000E+01  0.00000000E+00
  0.00000000E+00  6.00000000E+01  0.00000000E+00
  0.00000000E+00  4.00000000E+01  0.00000000E+00
  0.00000000E+00  2.00000000E+01  0.00000000E+00
  0.00000000E+00  4.99600361E-14  0.00000000E+00
  2.00000000E+01  3.00000000E+02  0.00000000E+00
  2.00000000E+01  2.80000000E+02  0.00000000E+00
  2.00000000E+01  2.60000000E+02  0.00000000E+00
  2.00000000E+01  2.40000000E+02  0.00000000E+00
  2.00000000E+01  2.20000000E+02  0.00000000E+00
  2.00000000E+01  2.00000000E+02  0.00000000E+00
  2.00000000E+01  1.80000000E+02  0.00000000E+00
  2.00000000E+01  1.60000000E+02  0.00000000E+00
  2.00000000E+01  1.40000000E+02  0.00000000E+00
  2.00000000E+01  1.20000000E+02  0.00000000E+00
  2.00000000E+01  1.00000000E+02  0.00000000E+00
  2.00000000E+01  8.00000000E+01  0.00000000E+00
  2.00000000E+01  6.00000000E+01  0.00000000E+00
  2.00000000E+01  4.00000000E+01  0.00000000E+00
  2.00000000E+01  2.00000000E+01  0.00000000E+00
  2.00000000E+01  4.99600361E-14  0.00000000E+00
  4.00000000E+01  3.00000000E+02  0.00000000E+00
  4.00000000E+01  2.80000000E+02  0.00000000E+00
  4.00000000E+01  2.60000000E+02  0.00000000E+00
  4.00000000E+01  2.40000000E+02  0.00000000E+00
  4.00000000E+01  2.20000000E+02  0.00000000E+00
  4.00000000E+01  2.00000000E+02  0.00000000E+00
  4.00000000E+01  1.80000000E+02  0.00000000E+00
  4.00000000E+01  1.60000000E+02  0.00000000E+00
  4.00000000E+01  1.40000000E+02  0.00000000E+00
  4.00000000E+01  1.20000000E+02  0.00000000E+00
  4.00000000E+01  1.00000000E+02  0.00000000E+00
  4.00000000E+01  8.00000000E+01  0.00000000E+00
  4.00000000E+01  6.00000000E+01  0.00000000E+00
  4.00000000E+01  4.00000000E+01  0.00000000E+00
  4.00000000E+01  2.00000000E+01  0.00000000E+00
  4.00000000E+01  4.99600361E-14  0.00000000E+00
  6.00000000E+01  3.00000000E+02  0.00000000E+00
  6.00000000E+01  2.80000000E+02  0.00000000E+00
  6.00000000E+01  2.60000000E+02  0.00000000E+00
  6.00000000E+01  2.40000000E+02  0.00000000E+00
  6.00000000E+01  2.20000000E+02  0.00000000E+00
  6.00000000E+01  2.00000000E+02  0.00000000E+00
  6.00000000E+01  1.80000000E+02  0.00000000E+00
  6.00000000E+01  1.60000000E+02  0.00000000E+00
  6.00000000E+01  1.40000000E+02  0.00000000E+00
  6.00000000E+01  1.20000000E+02  0.00000000E+00
  6.00000000E+01  1.00000000E+02  0.00000000E+00
  6.00000000E+01  8.00000000E+01  0.00000000E+00
  6.00000000E+01  6.00000000E+01  0.00000000E+00
  6.00000000E+01  4.00000000E+01  0.00000000E+00
  6.00000000E+01  2.00000000E+01  0.00000000E+00
  6.00000000E+01  4.99600361E-14  0.00000000E+00
  8.00000000E+01  3.00000000E+02  0.00000000E+00
  8.00000000E+01  2.80000000E+02  0.00000000E+00
  8.00000000E+01  2.60000000E+02  0.00000000E+00
  8.00000000E+01  2.40000000E+02  0.00000000E+00
  8.00000000E+01  2.20000000E+02  0.00000000E+00
  8.00000000E+01  2.00000000E+02  0.00000000E+00
  8.00000000E+01  1.80000000E+02  0.00000000E+00
  8.00000000E+01  1.60000000E+02  0.00000000E+00
  8.00000000E+01  1.40000000E+02  0.00000000E+00
  8.00000000E+01  1.20000000E+02  0.00000000E+00
  8.00000000E+01  1.00000000E+02  0.00000000E+00
  8.00000000E+01  8.00000000E+01  0.00000000E+00
  8.00000000E+01  6.00000000E+01  0.00000000E+00
  8.00000000E+01  4.00000000E+01  0.00000000E+00
  8.00000000E+01  2.00000000E+01  0.00000000E+00
  8.00000000E+01  4.99600361E-14  0.00000000E+00
  1.00000000E+02  3.00000000E+02  0.00000000E+00
  1.00000000E+02  2.80000000E+02  0.00000000E+00
  1.00000000E+02  2.60000000E+02  0.00000000E+00
  1.00000000E+02  2.40000000E+02  0.00000000E+00
  1.00000000E+02  2.20000000E+02  0.00000000E+00
  1.00000000E+02  2.00000000E+02  0.00000000E+00
  1.00000000E+02  1.80000000E+02  0.00000000E+00
  1.00000000E+02  1.60000000E+02  0.00000000E+00
  1.00000000E+02  1.40000000E+02  0.00000000E+00
  1.00000000E+02  1.20000000E+02  0.00000000E+00
  1.00000000E+02  1.00000000E+02  0.00000000E+00
  1.00000000E+02  8.00000000E+01  0.00000000E+00
  1.00000000E+02  6.00000000E+01  0.00000000E+00
  1.00000000E+02  4.00000000E+01  0.00000000E+00
  1.00000000E+02  2.00000000E+01  0.00000000E+00
  1.00000000E+02  4.99600361E-14  0.00000000E+00
  1.20000000E+02  3.00000000E+02  0.00000000E+00
  1.20000000E+02  2.80000000E+02  0.00000000E+00
  1.20000000E+02  2.60000000E+02  0.00000000E+00
  1.20000000E+02  2.40000000E+02  0.00000000E+00
  1.20000000E+02  2.20000000E+02  0.00000000E+00
  1.20000000E+02  2.00000000E+02  0.00000000E+00
  1.20000000E+02  1.80000000E+02  0.00000000E+00
  1.20000000E+02  1.60000000E+02  0.00000000E+00
  1.20000000E+02  1.40000000E+02  0.00000000E+00
  1.20000000E+02  1.20000000E+02  0.00000000E+00
  1.20000000E+02  1.00000000E+02  0.00000000E+00
  1.20000000E+02  8.00000000E+01  0.00000000E+00
  1.20000000E+02  6.00000000E+01  0.00000000E+00
  1.20000000E+02  4.00000000E+01  0.00000000E+00
  1.20000000E+02  2.00000000E+01  0.00000000E+00
  1.20000000E+02  4.99600361E-14  0.00000000E+00
  1.40000000E+02  3.00000000E+02  0.00000000E+00
  1.40000000E+02  2.80000000E+02  0.00000000E+00
  1.40000000E+02  2.60000000E+02  0.00000000E+00
  1.40000000E+02  2.40000000E+02  0.00000000E+00
  1.40000000E+02  2.20000000E+02  0.00000000E+00
  1.40000000E+02  2.00000000E+02  0.00000000E+00
  1.40000000E+02  1.80000000E+02  0.00000000E+00
  1.40000000E+02  1.60000000E+02  0.00000000E+00
  1.40000000E+02  1.40000000E+02  0.00000000E+00
  1.40000000E+02  1.20000000E+02  0.00000000E+00
  1.40000000E+02  1.00000000E+02  0.00000000E+00
  1.40000000E+02  8.00000000E+01  0.00000000E+00
  1.40000000E+02  6.00000000E+01  0.00000000E+00
  1.40000000E+02  4.00000000E+01  0.00000000E+00
  1.40000000E+02  2.00000000E+01  0.00000000E+00
  1.40000000E+02  4.99600361E-14  0.00000000E+00
  1.60000000E+02  3.00000000E+02  0.00000000E+00
  1.60000000E+02  2.80000000E+02  0.00000000E+00
  1.60000000E+02  2.60000000E+02  0.00000000E+00
  1.60000000E+02  2.40000000E+02  0.00000000E+00
  1.60000000E+02  2.20000000E+02  0.00000000E+00
  1.60000000E+02  2.00000000E+02  0.00000000E+00
  1.60000000E+02  1.80000000E+02  0.00000000E+00
  1.60000000E+02  1.60000000E+02  0.00000000E+00
  1.60000000E+02  1.40000000E+02  0.00000000E+00
  1.60000000E+02  1.20000000E+02  0.00000000E+00
  1.60000000E+02  1.00000000E+02  0.00000000E+00
  1.60000000E+02  8.00000000E+01  0.00000000E+00
  1.60000000E+02  6.00000000E+01  0.00000000E+00
  1.60000000E+02  4.00000000E+01  0.00000000E+00
  1.60000000E+02  2.00000000E+01  0.00000000E+00
  1.60000000E+02  4.99600361E-14  0.00000000E+00
  1.80000000E+02  3.00000000E+02  0.00000000E+00
  1.80000000E+02  2.80000000E+02  0.00000000E+00
  1.80000000E+02  2.60000000E+02  0.00000000E+00
  1.80000000E+02  2.40000000E+02  0.00000000E+00
  1.80000000E+02  2.20000000E+02  0.00000000E+00
  1.80000000E+02  2.00000000E+02  0.00000000E+00
  1.80000000E+02  1.80000000E+02  0.00000000E+00
  1.80000000E+02  1.60000000E+02  0.00000000E+00
  1.80000000E+02  1.40000000E+02  0.00000000E+00
  1.80000000E+02  1.20000000E+02  0.00000000E+00
  1.80000000E+02  1.00000000E+02  0.00000000E+00
  1.80000000E+02  8.00000000E+01  0.00000000E+00
  1.80000000E+02  6.00000000E+01  0.00000000E+00
  1.80000000E+02  4.00000000E+01  0.00000000E+00
  1.80000000E+02  2.00000000E+01  0.00000000E+00
  1.80000000E+02  4.99600361E-14  0.00000000E+00
  2.00000000E+02  3.00000000E+02  0.00000000E+00
  2.00000000E+02  2.80000000E+02  0.00000000E+00
  2.00000000E+02  2.60000000E+02  0.00000000E+00
  2.00000000E+02  2.40000000E+02  0.00000000E+00
  2.00000000E+02  2.20000000E+02  0.00000000E+00
  2.00000000E+02  2.00000000E+02  0.00000000E+00
  2.00000000E+02  1.80000000E+02  0.00000000E+00
  2.00000000E+02  1.60000000E+02  0.00000000E+00
  2.00000000E+02  1.40000000E+02  0.00000000E+00
  2.00000000E+02  1.20000000E+02  0.00000000E+00
  2.00000000E+02  1.00000000E+02  0.00000000E+00
  2.00000000E+02  8.00000000E+01  0.00000000E+00
  2.00000000E+02  6.00000000E+01  0.00000000E+00
  2.00000000E+02  4.00000000E+01  0.00000000E+00
  2.00000000E+02  2.00000000E+01  0.00000000E+00
  2.00000000E+02  4.99600361E-14  0.00000000E+00
  2.20000000E+02  3.00000000E+02  0.00000000E+00
  2.20000000E+02  2.80000000E+02  0.00000000E+00
  2.20000000E+02  2.60000000E+02  0.00000000E+00
  2.20000000E+02  2.40000000E+02  0.00000000E+00
  2.20000000E+02  2.20000000E+02  0.00000000E+00
  2.20000000E+02  2.00000000E+02  0.00000000E+00
  2.20000000E+02  1.80000000E+02  0.00000000E+00
  2.20000000E+02  1.60000000E+02  0.00000000E+00
  2.20000000E+02  1.40000000E+02  0.00000000E+00
  2.20000000E+02  1.20000000E+02  0.00000000E+00
  2.20000000E+02  1.00000000E+02  0.00000000E+00
  2.20000000E+02  8.00000000E+01  0.00000000E+00
  2.20000000E+02  6.00000000E+01  0.00000000E+00
  2.20000000E+02  4.00000000E+01  0.00000000E+00
  2.20000000E+02  2.00000000E+01  0.00000000E+00
  2.20000000E+02  4.99600361E-14  0.00000000E+00
  2.40000000E+02  3.00000000E+02  0.00000000E+00
  2.40000000E+02  2.80000000E+02  0.00000000E+00
  2.40000000E+02  2.60000000E+02  0.00000000E+00
  2.40000000E+02  2.40000000E+02  0.00000000E+00
  2.40000000E+02  2.20000000E+02  0.00000000E+00
  2.40000000E+02  2.00000000E+02  0.00000000E+00
  2.40000000E+02  1.80000000E+02  0.00000000E+00
  2.40000000E+02  1.60000000E+02  0.00000000E+00
  2.40000000E+02  1.40000000E+02  0.00000000E+00
  2.40000000E+02  1.20000000E+02  0.00000000E+00
  2.40000000E+02  1.00000000E+02  0.00000000E+00
  2.40000000E+02  8.00000000E+01  0.00000000E+00
  2.40000000E+02  6.00000000E+01  0.00000000E+00
  2.40000000E+02  4.00000000E+01  0.00000000E+00
  2.40000000E+02  2.00000000E+01  0.00000000E+00
  2.40000000E+02  4.99600361E-14  0.00000000E+00
  2.60000000E+02  3.00000000E+02  0.00000000E+00
  2.60000000E+02  2.80000000E+02  0.00000000E+00
  2.60000000E+02  2.60000000E+02  0.00000000E+00
  2.60000000E+02  2.40000000E+02  0.00000000E+00
  2.60000000E+02  2.20000000E+02  0.00000000E+00
  2.60000000E+02  2.00000000E+02  0.00000000E+00
  2.60000000E+02  1.80000000E+02  0.00000000E+00
  2.60000000E+02  1.60000000E+02  0.00000000E+00
  2.60000000E+02  1.40000000E+02  0.00000000E+00
  2.60000000E+02  1.20000000E+02  0.00000000E+00
  2.60000000E+02  1.00000000E+02  0.00000000E+00
  2.60000000E+02  8.00000000E+01  0.00000000E+00
  2.60000000E+02  6.00000000E+01  0.00000000E+00
  2.60000000E+02  4.00000000E+01  0.00000000E+00
  2.60000000E+02  2.00000000E+01  0.00000000E+00
  2.60000000E+02  4.99600361E-14  0.00000000E+00
  2.80000000E+02  3.00000000E+02  0.00000000E+00
  2.80000000E+02  2.80000000E+02  0.00000000E+00
  2.80000000E+02  2.60000000E+02  0.00000000E+00
  2.80000000E+02  2.40000000E+02  0.00000000E+00
  2.80000000E+02  2.20000000E+02  0.00000000E+00
  2.80000000E+02  2.00000000E+02  0.00000000E+00
  2.80000000E+02  1.80000000E+02  0.00000000E+00
  2.80000000E+02  1.60000000E+02  0.00000000E+00
  2.80000000E+02  1.40000000E+02  0.00000000E+00
  2.80000000E+02  1.20000000E+02  0.00000000E+00
  2.80000000E+02  1.00000000E+02  0.00000000E+00
  2.80000000E+02  8.00000000E+01  0.00000000E+00
  2.80000000E+02  6.00000000E+01  0.00000000E+00
  2.80000000E+02  4.00000000E+01  0.00000000E+00
  2.80000000E+02  2.00000000E+01  0.00000000E+00
  2.80000000E+02  4.99600361E-14  0.00000000E+00
  3.00000000E+02  3.00000000E+02  0.00000000E+00
  3.00000000E+02  2.80000000E+02  0.00000000E+00
  3.00000000E+02  2.60000000E+02  0.00000000E+00
  3.00000000E+02  2.40000000E+02  0.00000000E+00
  3.00000000E+02  2.20000000E+02  0.00000000E+00
  3.00000000E+02  2.00000000E+02  0.00000000E+00
  3.00000000E+02  1.80000000E+02  0.00000000E+00
  3.00000000E+02  1.60000000E+02  0.00000000E+00
  3.00000000E+02  1.40000000E+02  0.00000000E+00
  3.00000000E+02  1.20000000E+02  0.00000000E+00
  3.00000000E+02  1.00000000E+02  0.00000000E+00
  3.00000000E+02  8.00000000E+01  0.00000000E+00
  3.00000000E+02  6.00000000E+01  0.00000000E+00
  3.00000000E+02  4.00000000E+01  0.00000000E+00
  3.00000000E+02  2.00000000E+01  0.00000000E+00
  3.00000000E+02  4.99600361E-14  0.00000000E+00
  3.20000000E+02  3.00000000E+02  0.00000000E+00
  3.20000000E+02  2.80000000E+02  0.00000000E+00
  3.20000000E+02  2.60000000E+02  0.00000000E+00
  3.20000000E+02  2.40000000E+02  0.00000000E+00
  3.20000000E+02  2.20000000E+02  0.00000000E+00
  3.20000000E+02  2.00000000E+02  0.00000000E+00
  3.20000000E+02  1.80000000E+02  0.00000000E+00
  3.20000000E+02  1.60000000E+02  0.00000000E+00
  3.20000000E+02  1.40000000E+02  0.00000000E+00
  3.20000000E+02  1.20000000E+02  0.00000000E+00
  3.20000000E+02  1.00000000E+02  0.00000000E+00
  3.20000000E+02  8.00000000E+01  0.00000000E+00
  3.20000000E+02  6.00000000E+01  0.00000000E+00
  3.20000000E+02  4.00000000E+01  0.00000000E+00
  3.20000000E+02  2.00000000E+01  0.00000000E+00
  3.20000000E+02  4.99600361E-14  0.00000000E+00
  3.40000000E+02  3.00000000E+02  0.00000000E+00
  3.40000000E+02  2.80000000E+02  0.00000000E+00
  3.40000000E+02  2.60000000E+02  0.00000000E+00
  3.40000000E+02  2.40000000E+02  0.00000000E+00
  3.40000000E+02  2.20000000E+02  0.00000000E+00
  3.40000000E+02  2.00000000E+02  0.00000000E+00
  3.40000000E+02  1.80000000E+02  0.00000000E+00
  3.40000000E+02  1.60000000E+02  0.00000000E+00
  3.40000000E+02  1.40000000E+02  0.00000000E+00
  3.40000000E+02  1.20000000E+02  0.00000000E+00
  3.40000000E+02  1.00000000E+02  0.00000000E+00
  3.40000000E+02  8.00000000E+01  0.00000000E+00
  3.40000000E+02  6.00000000E+01  0.00000000E+00
  3.40000000E+02  4.00000000E+01  0.00000000E+00
  3.40000000E+02  2.00000000E+01  0.00000000E+00
  3.40000000E+02  4.99600361E-14  0.00000000E+00
  3.60000000E+02  3.00000000E+02  0.00000000E+00
  3.60000000E+02  2.80000000E+02  0.00000000E+00
  3.60000000E+02  2.60000000E+02  0.00000000E+00
  3.60000000E+02  2.40000000E+02  0.00000000E+00
  3.60000000E+02  2.20000000E+02  0.00000000E+00
  3.60000000E+02  2.00000000E+02  0.00000000E+00
  3.60000000E+02  1.80000000E+02  0.00000000E+00
  3.60000000E+02  1.60000000E+02  0.00000000E+00
  3.60000000E+02  1.40000000E+02  0.00000000E+00
  3.60000000E+02  1.20000000E+02  0.00000000E+00
  3.60000000E+02  1.00000000E+02  0.00000000E+00
  3.60000000E+02  8.00000000E+01  0.00000000E+00
  3.60000000E+02  6.00000000E+01  0.00000000E+00
  3.60000000E+02  4.00000000E+01  0.00000000E+00
  3.60000000E+02  2.00000000E+01  0.00000000E+00
  3.60000000E+02  4.99600361E-14  0.00000000E+00
  3.80000000E+02  3.00000000E+02  0.00000000E+00
  3.80000000E+02  2.80000000E+02  0.00000000E+00
  3.80000000E+02  2.60000000E+02  0.00000000E+00
  3.80000000E+02  2.40000000E+02  0.00000000E+00
  3.80000000E+02  2.20000000E+02  0.00000000E+00
  3.80000000E+02  2.00000000E+02  0.00000000E+00
  3.80000000E+02  1.80000000E+02  0.00000000E+00
  3.80000000E+02  1.60000000E+02  0.00000000E+00
  3.80000000E+02  1.40000000E+02  0.00000000E+00
  3.80000000E+02  1.20000000E+02  0.00000000E+00
  3.80000000E+02  1.00000000E+02  0.00000000E+00
  3.80000000E+02  8.00000000E+01  0.00000000E+00
  3.80000000E+02  6.00000000E+01  0.00000000E+00
  3.80000000E+02  4.00000000E+01  0.00000000E+00
  3.80000000E+02  2.00000000E+01  0.00000000E+00
  3.80000000E+02  4.99600361E-14  0.00000000E+00
  4.00000000E+02  3.00000000E+02  0.00000000E+00
  4.00000000E+02  2.80000000E+02  0.00000000E+00
  4.00000000E+02  2.60000000E+02  0.00000000E+00
  4.00000000E+02  2.40000000E+02  0.00000000E+00
  4.00000000E+02  2.20000000E+02  0.00000000E+00
  4.00000000E+02  2.00000000E+02  0.00000000E+00
  4.00000000E+02  1.80000000E+02  0.00000000E+00
  4.00000000E+02  1.60000000E+02  0.00000000E+00
  4.00000000E+02  1.40000000E+02  0.00000000E+00
  4.00000000E+02  1.20000000E+02  0.00000000E+00
  4.00000000E+02  1.00000000E+02  0.00000000E+00
  4.00000000E+02  8.00000000E+01  0.00000000E+00
  4.00000000E+02  6.00000000E+01  0.00000000E+00
  4.00000000E+02  4.00000000E+01  0.00000000E+00
  4.00000000E+02  2.00000000E+01  0.00000000E+00
  4.00000000E+02  4.99600361E-14  0.00000000E+00
  4.20000000E+02  3.00000000E+02  0.00000000E+00
  4.20000000E+02  2.80000000E+02  0.00000000E+00
  4.20000000E+02  2.60000000E+02  0.00000000E+00
  4.20000000E+02  2.40000000E+02  0.00000000E+00
  4.20000000E+02  2.20000000E+02  0.00000000E+00
  4.20000000E+02  2.00000000E+02  0.00000000E+00
  4.20000000E+02  1.80000000E+02  0.00000000E+00
  4.20000000E+02  1.60000000E+02  0.00000000E+00
  4.20000000E+02  1.40000000E+02  0.00000000E+00
  4.20000000E+02  1.20000000E+02  0.00000000E+00
  4.20000000E+02  1.00000000E+02  0.00000000E+00
  4.20000000E+02  8.00000000E+01  0.00000000E+00
  4.20000000E+02  6.00000000E+01  0.00000000E+00
  4.20000000E+02  4.00000000E+01  0.00000000E+00
  4.20000000E+02  2.00000000E+01  0.00000000E+00
  4.20000000E+02  4.99600361E-14  0.00000000E+00
  4.40000000E+02  3.00000000E+02  0.00000000E+00
  4.40000000E+02  2.80000000E+02  0.00000000E+00
  4.40000000E+02  2.60000000E+02  0.00000000E+00
  4.40000000E+02  2.40000000E+02  0.00000000E+00
  4.40000000E+02  2.20000000E+02  0.00000000E+00
  4.40000000E+02  2.00000000E+02  0.00000000E+00
  4.40000000E+02  1.80000000E+02  0.00000000E+00
  4.40000000E+02  1.60000000E+02  0.00000000E+00
  4.40000000E+02  1.40000000E+02  0.00000000E+00
  4.40000000E+02  1.20000000E+02  0.00000000E+00
  4.40000000E+02  1.00000000E+02  0.00000000E+00
  4.40000000E+02  8.00000000E+01  0.00000000E+00
  4.40000000E+02  6.00000000E+01  0.00000000E+00
  4.40000000E+02  4.00000000E+01  0.00000000E+00
  4.40000000E+02  2.00000000E+01  0.00000000E+00
  4.40000000E+02  4.99600361E-14  0.00000000E+00
  4.60000000E+02  3.00000000E+02  0.00000000E+00
  4.60000000E+02  2.80000000E+02  0.00000000E+00
  4.60000000E+02  2.60000000E+02  0.00000000E+00
  4.60000000E+02  2.40000000E+02  0.00000000E+00
  4.60000000E+02  2.20000000E+02  0.00000000E+00
  4.60000000E+02  2.00000000E+02  0.00000000E+00
  4.60000000E+02  1.80000000E+02  0.00000000E+00
  4.60000000E+02  1.60000000E+02  0.00000000E+00
  4.60000000E+02  1.40000000E+02  0.00000000E+00
  4.60000000E+02  1.20000000E+02  0.00000000E+00
  4.60000000E+02  1.00000000E+02  0.00000000E+00
  4.60000000E+02  8.00000000E+01  0.00000000E+00
  4.60000000E+02  6.00000000E+01  0.00000000E+00
  4.60000000E+02  4.00000000E+01  0.00000000E+00
  4.60000000E+02  2.00000000E+01  0.00000000E+00
  4.60000000E+02  4.99600361E-14  0.00000000E+00
  4.80000000E+02  3.00000000E+02  0.00000000E+00
  4.80000000E+02  2.80000000E+02  0.00000000E+00
  4.80000000E+02  2.60000000E+02  0.00000000E+00
  4.80000000E+02  2.40000000E+02  0.00000000E+00
  4.80000000E+02  2.20000000E+02  0.00000000E+00
  4.80000000E+02  2.00000000E+02  0.00000000E+00
  4.80000000E+02  1.80000000E+02  0.00000000E+00
  4.80000000E+02  1.60000000E+02  0.00000000E+00
  4.80000000E+02  1.40000000E+02  0.00000000E+00
  4.80000000E+02  1.20000000E+02  0.00000000E+00
  4.80000000E+02  1.00000000E+02  0.00000000E+00
  4.80000000E+02  8.00000000E+01  0.00000000E+00
  4.80000000E+02  6.00000000E+01  0.00000000E+00
  4.80000000E+02  4.00000000E+01  0.00000000E+00
  4.80000000E+02  2.00000000E+01  0.00000000E+00
  4.80000000E+02  4.99600361E-14  0.00000000E+00
  5.00000000E+02  3.00000000E+02  0.00000000E+00
  5.00000000E+02  2.80000000E+02  0.00000000E+00
  5.00000000E+02  2.60000000E+02  0.00000000E+00
  5.00000000E+02  2.40000000E+02  0.00000000E+00
  5.00000000E+02  2.20000000E+02  0.00000000E+00
  5.00000000E+02  2.00000000E+02  0.00000000E+00
  5.00000000E+02  1.80000000E+02  0.00000000E+00
  5.00000000E+02  1.60000000E+02  0.00000000E+00
  5.00000000E+02  1.40000000E+02  0.00000000E+00
  5.00000000E+02  1.20000000E+02  0.00000000E+00
  5.00000000E+02  1.00000000E+02  0.00000000E+00
  5.00000000E+02  8.00000000E+01  0.00000000E+00
  5.00000000E+02  6.00000000E+01  0.00000000E+00
  5.00000000E+02  4.00000000E+01  0.00000000E+00
  5.00000000E+02  2.00000000E+01  0.00000000E+00
  5.00000000E+02  4.99600361E-14  0.00000000E+00
  5.20000000E+02  3.00000000E+02  0.00000000E+00
  5.20000000E+02  2.80000000E+02  0.00000000E+00
  5.20000000E+02  2.60000000E+02  0.00000000E+00
  5.20000000E+02  2.40000000E+02  0.00000000E+00
  5.20000000E+02  2.20000000E+02  0.00000000E+00
  5.20000000E+02  2.00000000E+02  0.00000000E+00
  5.20000000E+02  1.80000000E+02  0.00000000E+00
  5.20000000E+02  1.60000000E+02  0.00000000E+00
  5.20000000E+02  1.40000000E+02  0.00000000E+00
  5.20000000E+02  1.20000000E+02  0.00000000E+00
  5.20000000E+02  1.00000000E+02  0.00000000E+00
  5.20000000E+02  8.00000000E+01  0.00000000E+00
  5.20000000E+02  6.00000000E+01  0.00000000E+00
  5.20000000E+02  4.00000000E+01  0.00000000E+00
  5.20000000E+02  2.00000000E+01  0.00000000E+00
  5.20000000E+02  4.99600361E-14  0.00000000E+00
  5.40000000E+02  3.00000000E+02  0.00000000E+00
  5.40000000E+02  2.80000000E+02  0.00000000E+00
  5.40000000E+02  2.60000000E+02  0.00000000E+00
  5.40000000E+02  2.40000000E+02  0.00000000E+00
  5.40000000E+02  2.20000000E+02  0.00000000E+00
  5.40000000E+02  2.00000000E+02  0.00000000E+00
  5.40000000E+02  1.80000000E+02  0.00000000E+00
  5.40000000E+02  1.60000000E+02  0.00000000E+00
  5.40000000E+02  1.40000000E+02  0.00000000E+00
  5.40000000E+02  1.20000000E+02  0.00000000E+00
  5.40000000E+02  1.00000000E+02  0.00000000E+00
  5.40000000E+02  8.00000000E+01  0.00000000E+00
  5.40000000E+02  6.00000000E+01  0.00000000E+00
  5.40000000E+02  4.00000000E+01  0.00000000E+00
  5.40000000E+02  2.00000000E+01  0.00000000E+00
  5.40000000E+02  4.99600361E-14  0.00000000E+00
  5.60000000E+02  3.00000000E+02  0.00000000E+00
  5.60000000E+02  2.80000000E+02  0.00000000E+00
  5.60000000E+02  2.60000000E+02  0.00000000E+00
  5.60000000E+02  2.40000000E+02  0.00000000E+00
  5.60000000E+02  2.20000000E+02  0.00000000E+00
  5.60000000E+02  2.00000000E+02  0.00000000E+00
  5.60000000E+02  1.80000000E+02  0.00000000E+00
  5.60000000E+02  1.60000000E+02  0.00000000E+00
  5.60000000E+02  1.40000000E+02  0.00000000E+00
  5.60000000E+02  1.20000000E+02  0.00000000E+00
  5.60000000E+02  1.00000000E+02  0.00000000E+00
  5.60000000E+02  8.00000000E+01  0.00000000E+00
  5.60000000E+02  6.00000000E+01  0.00000000E+00
  5.60000000E+02  4.00000000E+01  0.00000000E+00
  5.60000000E+02  2.00000000E+01  0.00000000E+00
  5.60000000E+02  4.99600361E-14  0.00000000E+00
  5.80000000E+02  3.00000000E+02  0.00000000E+00
  5.80000000E+02  2.80000000E+02  0.00000000E+00
  5.80000000E+02  2.60000000E+02  0.00000000E+00
  5.80000000E+02  2.40000000E+02  0.00000000E+00
  5.80000000E+02  2.20000000E+02  0.00000000E+00
  5.80000000E+02  2.00000000E+02  0.00000000E+00
  5.80000000E+02  1.80000000E+02  0.00000000E+00
  5.80000000E+02  1.60000000E+02  0.00000000E+00
  5.80000000E+02  1.40000000E+02  0.00000000E+00
  5.80000000E+02  1.20000000E+02  0.00000000E+00
  5.80000000E+02  1.00000000E+02  0.00000000E+00
  5.80000000E+02  8.00000000E+01  0.00000000E+00
  5.80000000E+02  6.00000000E+01  0.00000000E+00
  5.80000000E+02  4.00000000E+01  0.00000000E+00
  5.80000000E+02  2.00000000E+01  0.00000000E+00
  5.80000000E+02  4.99600361E-14  0.00000000E+00
  6.00000000E+02  3.00000000E+02  0.00000000E+00
  6.00000000E+02  2.80000000E+02  0.00000000E+00
  6.00000000E+02  2.60000000E+02  0.00000000E+00
  6.00000000E+02  2.40000000E+02  0.00000000E+00
  6.00000000E+02  2.20000000E+02  0.00000000E+00
  6.00000000E+02  2.00000000E+02  0.00000000E+00
  6.00000000E+02  1.80000000E+02  0.00000000E+00
  6.00000000E+02  1.60000000E+02  0.00000000E+00
  6.00000000E+02  1.40000000E+02  0.00000000E+00
  6.00000000E+02  1.20000000E+02  0.00000000E+00
  6.00000000E+02  1.00000000E+02  0.00000000E+00
  6.00000000E+02  8.00000000E+01  0.00000000E+00
  6.00000000E+02  6.00000000E+01  0.00000000E+00
  6.00000000E+02  4.00000000E+01  0.00000000E+00
  6.00000000E+02  2.00000000E+01  0.00000000E+00
  6.00000000E+02  4.99600361E-14  0.00000000E+00
CELLS       450      2250
         4           0           1          17          16
         4           1           2          18          17
         4           2           3          19          18
         4           3           4          20          19
         4           4           5          21          20
         4           5           6          22          21
         4           6           7          23          22
         4           7           8          24          23
         4           8           9          25          24
         4           9          10          26          25
         4          10          11          27          26
         4          11          12          28          27
         4          12          13          29          28
         4          13          14          30          29
         4          14          15          31          30
         4          16          17          33          32
         4          17          18          34          33
         4          18          19          35          34
         4          19          20          36          35
         4          20          21          37          36
         4          21          22          38          37
         4          22          23          39          38
         4          23          24          40          39
         4          24          25          41          40
         4          25          26          42          41
         4          26          27          43          42
         4          27          28          44          43
         4          28          29          45          44
         4          29          30          46          45
         4          30          31          47          46
         4          32          33          49          48
         4          33          34          50          49
         4          34          35          51          50
         4          35          36          52          51
         4          36          37          53          52
         4          37          38          54          53
         4          38          39          55          54
         4          39          40          56          55
         4          40          41          57          56
         4          41          42          58          57
         4          42          43          59          58
         4          43          44          60          59
         4          44          45          61          60
         4          45          46          62          61
         4          46          47          63          62
         4          48          49          65          64
         4          49          50          66          65
         4          50          51          67          66
         4          51          52          68          67
         4          52          53          69          68
         4          53          54          70          69
         4          54          55          71          70
         4          55          56          72          71
         4          56          57          73          72
         4          57          58          74          73
         4          58          59          75          74
         4          59          60          76          75
         4          60          61          77          76
         4          61          62          78          77
         4          62          63          79          78
         4          64          65          81          80
         4          65          66          82          81
         4          66          67          83          82
         4          67          68          84          83
         4          68          69          85          84
         4          69          70          86          85
         4          70          71          87          86
         4          71          72          88          87
         4          72          73          89          88
         4          73          74          90          89
         4          74          75          91          90
         4          75          76          92          91
         4          76          77          93          92
         4          77          78          94          93
         4          78          79          95          94
         4          80          81          97          96
         4          81          82          98          97
         4          82          83          99          98
         4          83          84         100          99
         4          84          85         101         100
         4          85          86         102         101
         4          86          87         103         102
         4          87          88         104         103
         4          88          89         105         104
         4          89          90         106         105
         4          90          91         107         106
         4          91          92         108         107
         4          92          93         109         108
         4          93          94         110         109
         4          94          95         111         110
         4          96          97         113         112
         4          97          98         114         113
         4          98          99         115         114
         4          99         100         116         115
         4         100         101         117         116
         4         101         102         118         117
         4         102         103         119         118
         4         103         104         120         119
         4         104         105         121         120
         4         105         106         122         121
         4         106         107         123         122
         4         107         108         124         123
         4         108         109         125         124
         4         109         110         126         125
         4         110         111         127         126
         4         112         113         129         128
         4         113         114         130         129
         4         114         115         131         130
         4         115         116         132         131
         4         116         117         133         132
         4         117         118         134         133
         4         118         119         135         134
         4         119         120         136         135
         4         120         121         137         136
         4         121         122         138         137
         4         122         123         139         138
         4         123         124         140         139
         4         124         125         141         140
         4         125         126         142         141
         4         126         127         143         142
         4         128         129         145         144
         4         129         130         146         145
         4         130         131         147         146
         4         131         132         148         147
         4         132         133         149         148
         4         133         134         150         149
         4         134         135         151         150
         4         135         136         152         151
         4         136         137         153         152
         4         137         138         154         153
         4         138         139         155         154
         4         139         140         156         155
         4         140         141         157         156
         4         141         142         158         157
         4         142         143         159         158
         4         144         145         161         160
         4         145         146         162         161
         4         146         147         163         162
         4         147         148         164         163
         4         148         149         165         164
         4         149         150         166         165
         4         150         151         167         166
         4         151         152         168         167
         4         152         153         169         168
         4         153         154         170         169
         4         154         155         171         170
         4         155         156         172         171
         4         156         157         173         172
         4         157         158         174         173
         4         158         159         175         174
         4         160         161         177         176
         4         161         162         178         177
         4         162         163         179         178
         4         163         164         180         179
         4         164         165         181         180
         4         165         166         182         181
         4         166         167         183         182
         4         167         168         184         183
         4         168         169         185         184
         4         169         170         186         185
         4         170         171         187         186
         4         171         172         188         187
         4         172         173         189         188
         4         173         174         190         189
         4         174         175         191         190
         4         176         177         193         192
         4         177         178         194         193
         4         178         179         195         194
         4         179         180         196         195
         4         180         181         197         196
         4         181         182         198         197
         4         182         183         199         198
         4         183         184         200         199
         4         184         185         201         200
         4         185         186         202         201
         4         186         187         203         202
         4         187         188         204         203
         4         188         189         205         204
         4         189         190         206         205
         4         190         191         207         206
         4         192         193         209         208
         4         193         194         210         209
         4         194         195         211         210
         4         195         196         212         211
         4         196         197         213         212
         4         197         198         214         213
         4         198         199         215         214
         4         199         200         216         215
         4         200         201         217         216
         4         201         202         218         217
         4         202         203         219         218
         4         203         204         220         219
         4         204         205         221         220
         4         205         206         222         221
         4         206         207         223         222
         4         208         209         225         224
         4         209         210         226         225
         4         210         211         227         226
         4         211         212         228         227
         4         212         213         229         228
         4         213         214         230         229
         4         214         215         231         230
         4         215         216         232         231
         4         216         217         233         232
         4         217         218         234         233
         4         218         219         235         234
         4         219         220         236         235
         4         220         221         237         236
         4         221         222         238         237
         4         222         223         239         238
         4         224         225         241         240
         4         225         226         242         241
         4         226         227         243         242
         4         227         228         244         243
         4         228         229         245         244
         4         229         230         246         245
         4         230         231         247         246
         4         231         232         248         247
         4         232         233         249         248
         4         233         234         250         249
         4         234         235         251         250
         4         235         236         252         251
         4         236         237         253         252
         4         237         238         254         253
         4         238         239         255         254
         4         240         241         257         256
         4         241         242         258         257
         4         242         243         259         258
         4         243         244         260         259
         4         244         245         261         260
         4         245         246         262         261
         4         246         247         263         262
         4         247         248         264         263
         4         248         249         265         264
         4         249         250         266         265
         4         250         251         267         266
         4         251         252         268         267
         4         252         253         269         268
         4         253         254         270         269
         4         254         255         271         270
         4         256         257         273         272
         4         257         258         274         273
         4         258         259         275         274
         4         259         260         276         275
         4         260         261         277         276
         4         261         262         278         277
         4         262         263         279         278
         4         263         264         280         279
         4         264         265         281         280
         4         265         266         282         281
         4         266         267         283         282
         4         267         268         284         283
         4         268         269         285         284
         4         269         270         286         285
         4         270         271         287         286
         4         272         273         289         288
         4         273         274         290         289
         4         274         275         291         290
         4         275         276         292         291
         4         276         277         293         292
         4         277         278         294         293
         4         278         279         295         294
         4         279         280         296         295
         4         280         281         297         296
         4         281         282         298         297
         4         282         283         299         298
         4         283         284         300         299
         4         284         285         301         300
         4         285         286         302         301
         4         286         287         303         302
         4         288         289         305         304
         4         289         290         306         305
         4         290         291         307         306
         4         291         292         308         307
         4         292         293         309         308
         4         293         294         310         309
         4         294         295         311         310
         4         295         296         312         311
         4         296         297         313         312
         4         297         298         314         313
         4         298         299         315         314
         4         299         300         316         315
         4         300         301         317         316
         4         301         302         318         317
         4         302         303         319         318
         4         304         305         321         320
         4         305         306         322         321
         4         306         307         323         322
         4         307         308         324         323
         4         308         309         325         324
         4         309         310         326         325
         4         310         311         327         326
         4         311         312         328         327
         4         312         313         329         328
         4         313         314         330         329
         4         314         315         331         330
         4         315         316         332         331
         4         316         317         333         332
         4         317         318         334         333
         4         318         319         335         334
         4         320         321         337         336
         4         321         322         338         337
         4         322         323         339         338
         4         323         324         340         339
         4         324         325         341         340
         4         325         326         342         341
         4         326         327         343         342
         4         327         328         344         343
         4         328         329         345         344
         4         329         330         346         345
         4         330         331         347         346
         4         331         332         348         347
         4         332         333         349         348
         4         333         334         350         349
         4         334         335         351         350
         4         336         337         353         352
         4         337         338         354         353
         4         338         339         355         354
         4         339         340         356         355
         4         340         341         357         356
         4         341         342         358         357
         4         342         343         359         358
         4         343         344         360         359
         4         344         345         361         360
         4         345         346         362         361
         4         346         347         363         362
         4         347         348         364         363
         4         348         349         365         364
         4         349         350         366         365
         4         350         351         367         366
         4         352         353         369         368
         4         353         354         370         369
         4         354         355         371         370
         4         355         356         372         371
         4         356         357         373         372
         4         357         358         374         373
         4         358         359         375         374
         4         359         360         376         375
         4         360         361         377         376
         4         361         362         378         377
         4         362         363         379         378
         4         363         364         380         379
         4         364         365         381         380
         4         365         366         382         381
         4         366         367         383         382
         4         368         369         385         384
         4         369         370         386         385
         4         370         371         387         386
         4         371         372         388         387
         4         372         373         389         388
         4         373         374         390         389
         4         374         375         391         390
         4         375         376         392         391
         4         376         377         393         392
         4         377         378         394         393
         4         378         379         395         394
         4         379         380         396         395
         4         380         381         397         396
         4         381         382         398         397
         4         382         383         399         398
         4         384         385         401         400
         4         385         386         402         401
         4         386         387         403         402
         4         387         388         404         403
         4         388         389         405         404
         4         389         390         406         405
         4         390         391         407         406
         4         391         392         408         407
         4         392         393         409         408
         4         393         394         410         409
         4         394         395         411         410
         4         395         396         412         411
         4         396         397         413         412
         4         397         398         414         413
         4         398         399         415         414
         4         400         401         417         416
         4         401         402         418         417
         4         402         403         419         418
         4         403         404         420         419
         4         404         405         421         420
         4         405         406         422         421
         4         406         407         423         422
         4         407         408         424         423
         4         408         409         425         424
         4         409         410         426         425
         4         410         411         427         426
         4         411         412         428         427
         4         412         413         429         428
         4         413         414         430         429
         4         414         415         431         430
         4         416         417         433         432
         4         417         418         434         433
         4         418         419         435         434
         4         419         420         436         435
         4         420         421         437         436
         4         421         422         438         437
         4         422         423         439         438
         4         423         424         440         439
         4         424         425         441         440
         4         425         426         442         441
         4         426         427         443         442
         4         427         428         444         443
         4         428         429         445         444
         4         429         430         446         445
         4         430         431         447         446
         4         432         433         449         448
         4         433         434         450         449
         4         434         435         451         450
         4         435         436         452         451
         4         436         437         453         452
         4         437         438         454         453
         4         438         439         455         454
         4         439         440         456         455
         4         440         441         457         456
         4         441         442         458         457
         4         442         443         459         458
         4         443         444         460         459
         4         444         445         461         460
         4         445         446         462         461
         4         446         447         463         462
         4         448         449         465         464
         4         449         450         466         465
         4         450         451         467         466
         4         451         452         468         467
         4         452         453         469         468
         4         453         454         470         469
         4         454         455         471         470
         4         455         456         472         471
         4         456         457         473         472
         4         457         458         474         473
         4         458         459         475         474
         4         459         460         476         475
         4         460         461         477         476
         4         461         462         478         477
         4         462         463         479         478
         4         464         465         481         480
         4         465         466         482         481
         4         466         467         483         482
         4         467         468         484         483
         4         468         469         485         484
         4         469         470         486         485
         4         470         471         487         486
         4         471         472         488         487
         4         472         473         489         488
         4         473         474         490         489
         4         474         475         491         490
         4         475         476         492         491
         4         476         477         493         492
         4         477         478         494         493
         4         478         479         495         494
CELL_TYPES        450
9
9
9
9
9
9
9
9
9
9
9
9
9
9
9
9
9
9
9
9
9
9
9
9
9
9
9
9
9
9
9
9
9
9
9
9
9
9
9
9
9
9
9
9
9
9
9
9
9
9
9
9
9
9
9
9
9
9
9
9
9
9
9
9
9
9
9
9
9
9
9
9
9
9
9
9
9
9
9
9
9
9
9
9
9
9
9
9
9
9
9
9
9
9
9
9
9
9
9
9
9
9
9
9
9
9
9
9
9
9
9
9
9
9
9
9
9
9
9
9
9
9
9
9
9
9
9
9
9
9
9
9
9
9
9
9
9
9
9
9
9
9
9
9
9
9
9
9
9
9
9
9
9
9
9
9
9
9
9
9
9
9
9
9
9
9
9
9
9
9
9
9
9
9
9
9
9
9
9
9
9
9
9
9
9
9
9
9
9
9
9
9
9
9
9
9
9
9
9
9
9
9
9
9
9
9
9
9
9
9
9
9
9
9
9
9
9
9
9
9
9
9
9
9
9
9
9
9
9
9
9
9
9
9
9
9
9
9
9
9
9
9
9
9
9
9
9
9
9
9
9
9
9
9
9
9
9
9
9
9
9
9
9
9
9
9
9
9
9
9
9
9
9
9
9
9
9
9
9
9
9
9
9
9
9
9
9
9
9
9
9
9
9
9
9
9
9
9
9
9
9
9
9
9
9
9
9
9
9
9
9
9
9
9
9
9
9
9
9
9
9
9
9
9
9
9
9
9
9
9
9
9
9
9
9
9
9
9
9
9
9
9
9
9
9
9
9
9
9
9
9
9
9
9
9
9
9
9
9
9
9
9
9
9
9
9
9
9
9
9
9
9
9
9
9
9
9
9
9
9
9
9
9
9
9
9
9
9
9
9
9
9
9
9
9
9
9
9
9
9
9
9
9
9
9
9
9
9
9
9
9
9
9
9
9
9
9
9
9
9
9
9
9
9
9
9
9
9
9
9
9
9
9
9
9
9
9
9
9
9
9
9
9
9
9
9
9
9
9
9
POINT_DATA       496
SCALARS p double 
LOOKUP_TABLE default
   52701148.2403595     
   52718901.7157990     
   52767888.3768036     
   52841940.7959590     
   52935251.2790828     
   53042374.6557191     
   53158221.3055614     
   53278042.4943212     
   53397409.8812465     
   53512190.8722242     
   53618521.3241653     
   53712776.9566909     
   53791544.6956919     
   53851595.0606847     
   53889856.6152414     
   53903393.4289704     
   52691709.8717344     
   52709442.3753694     
   52758362.1158579     
   52832299.3840894     
   52925448.7549895     
   53032370.7891194     
   53147984.1370981     
   53267550.0984756     
   53386651.4767511     
   53501167.3850458     
   53607245.4895905     
   53701273.0293208     
   53779847.8192247     
   53839750.3332466     
   53877917.8707275     
   53891421.7403436     
   52663115.2390974     
   52680782.9105106     
   52729496.8659974     
   52803081.4879643     
   52895738.9263206     
   53002047.5565388     
   53116951.3397391     
   53235742.0710420     
   53354036.2965593     
   53467748.4953276     
   53573061.9577372     
   53666398.6455152     
   53744389.1900427     
   53803844.0763841     
   53841726.9710672     
   53855131.0840351     
   52614520.5870459     
   52632073.8655111     
   52680428.2389586     
   52753401.3473071     
   52845210.5084840     
   52950465.8474975     
   53064155.1546296     
   53181622.3510324     
   53298541.2405214     
   53410886.0471364     
   53514900.0773097     
   53607063.7027669     
   53684062.7358743     
   53742758.1638454     
   53780158.1231242     
   53793392.9318065     
   52544502.5442758     
   52561882.5355750     
   52609699.1015130     
   52681766.9034574     
   52772329.7797147     
   52876046.5746037     
   52987969.8444747     
   53103519.1700378     
   53218450.6129205     
   53328823.6810915     
   53430967.0120472     
   53521443.8448260     
   53597018.2327946     
   53654622.8496646     
   53691329.1623120     
   53704320.6866869     
   52451032.9370734     
   52468168.0306541     
   52515235.3271681     
   52586056.5918010     
   52674918.6886821     
   52776550.2970629     
   52886092.9634957     
   52999068.0319191     
   53111340.8106846     
   53219083.1683466     
   53318735.5995381     
   53406969.6700263     
   53480651.6375163     
   53536807.9529956     
   53572593.2770191     
   53585261.5966768     
   52331444.4866660     
   52348247.3226363     
   52394312.8041834     
   52463487.8041139     
   52550125.1560065     
   52649049.6437848     
   52755520.0865984     
   52865188.8381813     
   52974059.8443285     
   53078446.2396666     
   53174928.3189228     
   53260312.5914860     
   53331592.5233917     
   53385911.4889892     
   53420528.3955034     
   53432786.4068061     
   52182388.3347969     
   52198753.2190942     
   52243516.6399892     
   52310577.9575344     
   52394386.5041858     
   52489895.4703682     
   52592513.9339874     
   52698058.0990611     
   52802702.6365961     
   52902932.8598314     
   52995498.3225224     
   53077368.3080313     
   53145689.5815396     
   53197746.7085084     
   53230925.1985547     
   53242677.7129547     
   51999784.5880113     
   52015585.4519974     
   52058693.7454887     
   52123099.3488815     
   52203387.1922122     
   52294677.9272073     
   52392569.0728992     
   52493077.4191385     
   52592583.2962522     
   52687777.1536111     
   52775608.7454248     
   52853239.1058443     
   52917995.4109435     
   52967328.7724293     
   52998774.9842326     
   53009918.2438029     
   51778767.2937753     
   51793856.2913293     
   51834900.2024192     
   51896029.1919249     
   51972012.2511484     
   52058183.8391303     
   52150373.6061565     
   52244839.6802039     
   52338205.8045085     
   52427402.4351989     
   52509611.7572321     
   52582216.4641877     
   52642752.0765195     
   52688862.5421062     
   52718258.8668072     
   52728680.5529890     
   51513625.4500877     
   51527832.2810497     
   51566345.0032747     
   51623496.4223785     
   51694298.0078765     
   51774351.9945745     
   51859769.4636429     
   51947094.5603475     
   52033234.7775178     
   52115397.0275080     
   52191029.0614216     
   52257765.6843654     
   52313379.1624497     
   52355733.2167078     
   52382740.0410508     
   52392319.8523860     
   51197741.7921523     
   51210873.8361313     
   51246331.8950599     
   51298727.0011818     
   51363381.8383698     
   51436228.1086232     
   51513713.0938255     
   51592715.2248204     
   51670468.1796745     
   51744492.7815835     
   51812535.7811344     
   51872514.5006658     
   51922466.2908480     
   51960501.7918061     
   51984761.0863662     
   51993371.9604159     
   50823531.1811837     
   50835374.5212028     
   50867201.1434671     
   50913989.5411891     
   50971452.8017679     
   51035921.3544776     
   51104238.5057776     
   51173668.2008345     
   51241814.0602763     
   51306548.4215898     
   51365949.8980801     
   51418247.8677505     
   51461772.3151926     
   51494907.5535835     
   51516048.5243732     
   51523558.5779005     
   50382380.4275944     
   50392701.8403326     
   50420273.0513129     
   50460543.1167047     
   50509705.0664208     
   50564564.4495033     
   50622424.7379817     
   50680988.6074367     
   50738273.5739704     
   50792540.0513465     
   50842229.6373498     
   50885911.3538977     
   50922233.6362115     
   50949880.0608770     
   50967527.0795482     
   50973802.3389202     
   49864591.3009360     
   49873141.2917313     
   49895795.0044750     
   49928589.0829570     
   49968296.0464975     
   50012279.3364025     
   50058369.9331909     
   50104763.0594066     
   50149932.7302933     
   50192561.3704583     
   50231481.4200413     
   50265625.8067189     
   50293984.3264067     
   50315563.3030170     
   50329346.3244373     
   50334254.3143573     
   49259328.3021014     
   49265845.2716490     
   49282893.6739883     
   49307228.6320635     
   49336311.1265935     
   49368150.5260450     
   49401174.2906906     
   49434122.7135942     
   49465965.5109623     
   49495836.3702750     
   49522981.2427008     
   49546716.1988584     
   49566390.9866278     
   49581354.9513368     
   49590922.6138610     
   49594336.8657938     
   48554572.4938276     
   48558788.1442554     
   48569533.7744261     
   48584427.6501876     
   48601736.7766242     
   48620208.1869132     
   48638934.2721316     
   48657249.0995495     
   48674651.2128533     
   48690747.5227282     
   48705212.5908947     
   48717757.8027548     
   48728105.4863553     
   48735963.8356304     
   48740999.4140027     
   48742804.9443036     
   47737082.3036474     
   47738728.4312655     
   47742484.4757916     
   47746990.2383332     
   47751443.7831538     
   47755423.1183165     
   47758750.5974644     
   47761395.6103583     
   47763409.1446029     
   47764882.7492619     
   47765924.2514246     
   47766643.0734094     
   47767138.9398262     
   47767488.9513437     
   47767729.2883407     
   47767829.0779457     
   46792361.7362133     
   46791178.6278579     
   46787294.2134064     
   46780542.0613527     
   46771182.3110171     
   46759715.9068827     
   46746752.8574225     
   46732927.8821954     
   46718854.1586456     
   46705104.7692916     
   46692211.6384518     
   46680672.8063711     
   46670960.4054447     
   46663523.3988756     
   46658780.8725017     
   46657103.3528511     
   45704635.8741167     
   45700382.6433181     
   45688274.2866809     
   45669524.5828816     
   45645590.6820207     
   45617982.9753242     
   45588144.1135995     
   45557386.8510743     
   45526876.9781104     
   45497646.7705681     
   45470625.4509332     
   45446675.2238542     
   45426623.7996744     
   45411286.6084102     
   45401474.0927886     
   45397981.6054836     
   44456832.9306964     
   44449300.3360423     
   44428491.3744719     
   44397201.3911542     
   44358220.3394852     
   44314143.1319479     
   44267269.8644753     
   44219579.1735588     
   44172753.9176572     
   44128238.6749954     
   44087311.5381898     
   44051156.5114932     
   44020926.2793403     
   43997787.9165233     
   43982946.5743923     
   43977644.7281292     
   43030571.4750284     
   43019598.1295979     
   42989769.0915519     
   42945678.5297889     
   42891580.8714844     
   42831210.0458822     
   42767717.5634386     
   42703701.1150758     
   42641291.4107076     
   42582268.4733320     
   42528185.5777621     
   42480485.7821952     
   42440600.6974051     
   42410023.9042042     
   42390353.5443726     
   42383301.3551396     
   41406150.8139679     
   41391644.3708560     
   41352699.2914656     
   41295942.6118208     
   41227211.9599148     
   41151399.5486676     
   41072456.0064983     
   40993504.1582038     
   40917011.6671261     
   40844982.8994417     
   40779145.2120138     
   40721116.1469103     
   40672543.4220961     
   40635210.7179050     
   40611102.4628397     
   40602423.1665879     
   39562541.9127483     
   39544508.1215065     
   39496665.6367345     
   39427924.6985772     
   39345795.1530841     
   39256287.0496397     
   39164029.0938676     
   39072513.6144346     
   38984386.5076121     
   38901730.5773385     
   38826320.0397292     
   38759840.9843001     
   38704076.4524450     
   38661050.6886348     
   38633122.0572076     
   38623014.6033299     
   37477375.6720893     
   37455960.8264121     
   37399886.4236481     
   37320606.9690717     
   37227330.1711285     
   37127041.6237653     
   37024826.4448864     
   36924315.2115752     
   36828126.2548012     
   36738247.8226613     
   36656355.3878232     
   36584079.7676998     
   36523238.7796917     
   36476029.7188780     
   36445163.4301772     
   36433915.0774764     
   35126924.4092751     
   35102482.6814388     
   35039494.2013436     
   34952208.7037004     
   34851423.3378371     
   34744781.9109690     
   34637463.8504851     
   34532927.5702088     
   34433528.2367937     
   34340981.5371246     
   34256717.9077813     
   34182179.5923988     
   34119095.2455194     
   34069737.7119064     
   34037128.7248776     
   34025130.1667257     
   32486071.5119756     
   32459281.3504240     
   32391695.8991704     
   32300532.3528217     
   32197778.5835880     
   32091125.4932618     
   31985314.7003846     
   31883276.6777283     
   31786883.9036574     
   31697434.9842932     
   31615999.2622652     
   31543704.4680011     
   31482039.1992875     
   31433197.6853944     
   31400420.5694117     
   31388188.2789582     
   29528249.5143467     
   29500351.9080909     
   29432132.7782298     
   29343652.4987865     
   29247057.4457716     
   29149021.1770649     
   29053223.4434892     
   28961776.1631126     
   28875934.7416318     
   28796516.2278068     
   28724179.8206834     
   28659662.5278762     
   28604040.1382535     
   28559174.5492672     
   28528305.7084013     
   28516519.8017938     
   26225366.3670467     
   26198680.6168329     
   26136795.9429731     
   26061402.5695789     
   25982322.0729633     
   25903897.3428707     
   25828387.1963395     
   25756990.4781448     
   25690358.4313386     
   25628872.4823529     
   25572827.0391170     
   25522580.1591297     
   25478733.7424848     
   25442395.2315572     
   25416268.4764159     
   25405891.1838968     
   22547401.3708542     
   22527264.0933831     
   22485018.7678462     
   22438284.0081553     
   22390973.5683612     
   22345009.5742886     
   22301309.9461311     
   22260324.9321891     
   22222262.3516676     
   22187215.1863029     
   22155244.3771127     
   22126446.6121211     
   22101024.9012968     
   22079430.9255829     
   22062405.2147046     
   22054788.4713832     
   18466666.6666667     
   18466666.6666667     
   18466666.6666667     
   18466666.6666667     
   18466666.6666667     
   18466666.6666667     
   18466666.6666667     
   18466666.6666667     
   18466666.6666667     
   18466666.6666667     
   18466666.6666667     
   18466666.6666667     
   18466666.6666667     
   18466666.6666667     
   18466666.6666667     
   18466666.6666667     
VECTORS u double 
    0.00000E+00        -0.43946E+00         0.00000E+00
    0.00000E+00        -0.40305E+00         0.00000E+00
    0.00000E+00        -0.36698E+00         0.00000E+00
    0.00000E+00        -0.33152E+00         0.00000E+00
    0.00000E+00        -0.29687E+00         0.00000E+00
    0.00000E+00        -0.26322E+00         0.00000E+00
    0.00000E+00        -0.23068E+00         0.00000E+00
    0.00000E+00        -0.19937E+00         0.00000E+00
    0.00000E+00        -0.16935E+00         0.00000E+00
    0.00000E+00        -0.14070E+00         0.00000E+00
    0.00000E+00        -0.11347E+00         0.00000E+00
    0.00000E+00        -0.87714E-01         0.00000E+00
    0.00000E+00        -0.63464E-01         0.00000E+00
    0.00000E+00        -0.40751E-01         0.00000E+00
    0.00000E+00        -0.19595E-01         0.00000E+00
    0.00000E+00         0.00000E+00         0.00000E+00
    0.50446E-01        -0.44097E+00         0.00000E+00
    0.47295E-01        -0.40451E+00         0.00000E+00
    0.43942E-01        -0.36839E+00         0.00000E+00
    0.40467E-01        -0.33287E+00         0.00000E+00
    0.36931E-01        -0.29816E+00         0.00000E+00
    0.33380E-01        -0.26444E+00         0.00000E+00
    0.29842E-01        -0.23182E+00         0.00000E+00
    0.26340E-01        -0.20041E+00         0.00000E+00
    0.22882E-01        -0.17029E+00         0.00000E+00
    0.19474E-01        -0.14152E+00         0.00000E+00
    0.16115E-01        -0.11417E+00         0.00000E+00
    0.12804E-01        -0.88286E-01         0.00000E+00
    0.95374E-02        -0.63899E-01         0.00000E+00
    0.63140E-02        -0.41043E-01         0.00000E+00
    0.31338E-02        -0.19741E-01         0.00000E+00
    0.00000E+00         0.00000E+00         0.00000E+00
    0.10099E+00        -0.44552E+00         0.00000E+00
    0.94641E-01        -0.40892E+00         0.00000E+00
    0.87899E-01        -0.37264E+00         0.00000E+00
    0.80925E-01        -0.33695E+00         0.00000E+00
    0.73838E-01        -0.30205E+00         0.00000E+00
    0.66727E-01        -0.26811E+00         0.00000E+00
    0.59651E-01        -0.23524E+00         0.00000E+00
    0.52648E-01        -0.20355E+00         0.00000E+00
    0.45739E-01        -0.17312E+00         0.00000E+00
    0.38930E-01        -0.14401E+00         0.00000E+00
    0.32220E-01        -0.11629E+00         0.00000E+00
    0.25605E-01        -0.90011E-01         0.00000E+00
    0.19077E-01        -0.65208E-01         0.00000E+00
    0.12632E-01        -0.41923E-01         0.00000E+00
    0.62714E-02        -0.20182E-01         0.00000E+00
    0.00000E+00         0.00000E+00         0.00000E+00
    0.15173E+00        -0.45319E+00         0.00000E+00
    0.14208E+00        -0.41634E+00         0.00000E+00
    0.13188E+00        -0.37980E+00         0.00000E+00
    0.12136E+00        -0.34383E+00         0.00000E+00
    0.11069E+00        -0.30861E+00         0.00000E+00
    0.10001E+00        -0.27429E+00         0.00000E+00
    0.89389E-01        -0.24101E+00         0.00000E+00
    0.78893E-01        -0.20885E+00         0.00000E+00
    0.68544E-01        -0.17789E+00         0.00000E+00
    0.58350E-01        -0.14821E+00         0.00000E+00
    0.48305E-01        -0.11986E+00         0.00000E+00
    0.38399E-01        -0.92914E-01         0.00000E+00
    0.28620E-01        -0.67412E-01         0.00000E+00
    0.18960E-01        -0.43404E-01         0.00000E+00
    0.94168E-02        -0.20925E-01         0.00000E+00
    0.00000E+00         0.00000E+00         0.00000E+00
    0.20274E+00        -0.46413E+00         0.00000E+00
    0.18965E+00        -0.42692E+00         0.00000E+00
    0.17588E+00        -0.39001E+00         0.00000E+00
    0.16174E+00        -0.35362E+00         0.00000E+00
    0.14745E+00        -0.31793E+00         0.00000E+00
    0.13317E+00        -0.28309E+00         0.00000E+00
    0.11901E+00        -0.24920E+00         0.00000E+00
    0.10503E+00        -0.21637E+00         0.00000E+00
    0.91266E-01        -0.18466E+00         0.00000E+00
    0.77711E-01        -0.15416E+00         0.00000E+00
    0.64356E-01        -0.12493E+00         0.00000E+00
    0.51182E-01        -0.97035E-01         0.00000E+00
    0.38168E-01        -0.70541E-01         0.00000E+00
    0.25300E-01        -0.45505E-01         0.00000E+00
    0.12574E-01        -0.21978E-01         0.00000E+00
    0.00000E+00         0.00000E+00         0.00000E+00
    0.25407E+00        -0.47852E+00         0.00000E+00
    0.23735E+00        -0.44084E+00         0.00000E+00
    0.21988E+00        -0.40342E+00         0.00000E+00
    0.20202E+00        -0.36648E+00         0.00000E+00
    0.18405E+00        -0.33018E+00         0.00000E+00
    0.16616E+00        -0.29463E+00         0.00000E+00
    0.14846E+00        -0.25996E+00         0.00000E+00
    0.13102E+00        -0.22623E+00         0.00000E+00
    0.11387E+00        -0.19354E+00         0.00000E+00
    0.96987E-01        -0.16196E+00         0.00000E+00
    0.80358E-01        -0.13156E+00         0.00000E+00
    0.63946E-01        -0.10243E+00         0.00000E+00
    0.47720E-01        -0.74637E-01         0.00000E+00
    0.31657E-01        -0.48256E-01         0.00000E+00
    0.15746E-01        -0.23357E-01         0.00000E+00
    0.00000E+00         0.00000E+00         0.00000E+00
    0.30573E+00        -0.49660E+00         0.00000E+00
    0.28515E+00        -0.45831E+00         0.00000E+00
    0.26381E+00        -0.42026E+00         0.00000E+00
    0.24214E+00        -0.38262E+00         0.00000E+00
    0.22043E+00        -0.34553E+00         0.00000E+00
    0.19890E+00        -0.30909E+00         0.00000E+00
    0.17767E+00        -0.27342E+00         0.00000E+00
    0.15680E+00        -0.23857E+00         0.00000E+00
    0.13630E+00        -0.20464E+00         0.00000E+00
    0.11614E+00        -0.17171E+00         0.00000E+00
    0.96288E-01        -0.13985E+00         0.00000E+00
    0.76682E-01        -0.10917E+00         0.00000E+00
    0.57276E-01        -0.79751E-01         0.00000E+00
    0.38034E-01        -0.51690E-01         0.00000E+00
    0.18938E-01        -0.25078E-01         0.00000E+00
    0.00000E+00         0.00000E+00         0.00000E+00
    0.35769E+00        -0.51866E+00         0.00000E+00
    0.33299E+00        -0.47962E+00         0.00000E+00
    0.30759E+00        -0.44077E+00         0.00000E+00
    0.28198E+00        -0.40226E+00         0.00000E+00
    0.25647E+00        -0.36420E+00         0.00000E+00
    0.23129E+00        -0.32667E+00         0.00000E+00
    0.20655E+00        -0.28976E+00         0.00000E+00
    0.18229E+00        -0.25355E+00         0.00000E+00
    0.15850E+00        -0.21811E+00         0.00000E+00
    0.13514E+00        -0.18352E+00         0.00000E+00
    0.11212E+00        -0.14990E+00         0.00000E+00
    0.89377E-01        -0.11733E+00         0.00000E+00
    0.66832E-01        -0.85944E-01         0.00000E+00
    0.44433E-01        -0.55848E-01         0.00000E+00
    0.22154E-01        -0.27163E-01         0.00000E+00
    0.00000E+00         0.00000E+00         0.00000E+00
    0.40988E+00        -0.54504E+00         0.00000E+00
    0.38074E+00        -0.50508E+00         0.00000E+00
    0.35109E+00        -0.46525E+00         0.00000E+00
    0.32141E+00        -0.42568E+00         0.00000E+00
    0.29205E+00        -0.38644E+00         0.00000E+00
    0.26321E+00        -0.34759E+00         0.00000E+00
    0.23499E+00        -0.30920E+00         0.00000E+00
    0.20740E+00        -0.27134E+00         0.00000E+00
    0.18041E+00        -0.23409E+00         0.00000E+00
    0.15392E+00        -0.19755E+00         0.00000E+00
    0.12782E+00        -0.16181E+00         0.00000E+00
    0.10201E+00        -0.12701E+00         0.00000E+00
    0.76381E-01        -0.93284E-01         0.00000E+00
    0.50857E-01        -0.60775E-01         0.00000E+00
    0.25396E-01        -0.29632E-01         0.00000E+00
    0.00000E+00         0.00000E+00         0.00000E+00
    0.46214E+00        -0.57611E+00         0.00000E+00
    0.42825E+00        -0.53502E+00         0.00000E+00
    0.39411E+00        -0.49402E+00         0.00000E+00
    0.36024E+00        -0.45317E+00         0.00000E+00
    0.32697E+00        -0.41252E+00         0.00000E+00
    0.29449E+00        -0.37209E+00         0.00000E+00
    0.26285E+00        -0.33195E+00         0.00000E+00
    0.23203E+00        -0.29215E+00         0.00000E+00
    0.20193E+00        -0.25277E+00         0.00000E+00
    0.17242E+00        -0.21392E+00         0.00000E+00
    0.14335E+00        -0.17571E+00         0.00000E+00
    0.11456E+00        -0.13830E+00         0.00000E+00
    0.85914E-01        -0.10184E+00         0.00000E+00
    0.57304E-01        -0.66519E-01         0.00000E+00
    0.28669E-01        -0.32511E-01         0.00000E+00
    0.00000E+00         0.00000E+00         0.00000E+00
    0.51425E+00        -0.61227E+00         0.00000E+00
    0.47525E+00        -0.56984E+00         0.00000E+00
    0.43642E+00        -0.52743E+00         0.00000E+00
    0.39824E+00        -0.48506E+00         0.00000E+00
    0.36103E+00        -0.44272E+00         0.00000E+00
    0.32494E+00        -0.40044E+00         0.00000E+00
    0.28996E+00        -0.35824E+00         0.00000E+00
    0.25602E+00        -0.31617E+00         0.00000E+00
    0.22295E+00        -0.27431E+00         0.00000E+00
    0.19057E+00        -0.23278E+00         0.00000E+00
    0.15865E+00        -0.19172E+00         0.00000E+00
    0.12700E+00        -0.15129E+00         0.00000E+00
    0.95418E-01        -0.11169E+00         0.00000E+00
    0.63773E-01        -0.73127E-01         0.00000E+00
    0.31974E-01        -0.35822E-01         0.00000E+00
    0.00000E+00         0.00000E+00         0.00000E+00
    0.56589E+00        -0.65394E+00         0.00000E+00
    0.52144E+00        -0.60991E+00         0.00000E+00
    0.47769E+00        -0.56583E+00         0.00000E+00
    0.43511E+00        -0.52166E+00         0.00000E+00
    0.39396E+00        -0.47735E+00         0.00000E+00
    0.35432E+00        -0.43290E+00         0.00000E+00
    0.31613E+00        -0.38829E+00         0.00000E+00
    0.27921E+00        -0.34359E+00         0.00000E+00
    0.24335E+00        -0.29888E+00         0.00000E+00
    0.20826E+00        -0.25428E+00         0.00000E+00
    0.17366E+00        -0.20995E+00         0.00000E+00
    0.13928E+00        -0.16608E+00         0.00000E+00
    0.10487E+00        -0.12290E+00         0.00000E+00
    0.70257E-01        -0.80648E-01         0.00000E+00
    0.35313E-01        -0.39591E-01         0.00000E+00
    0.00000E+00         0.00000E+00         0.00000E+00
    0.61666E+00        -0.70157E+00         0.00000E+00
    0.56640E+00        -0.65564E+00         0.00000E+00
    0.51753E+00        -0.60959E+00         0.00000E+00
    0.47048E+00        -0.56330E+00         0.00000E+00
    0.42542E+00        -0.51669E+00         0.00000E+00
    0.38235E+00        -0.46971E+00         0.00000E+00
    0.34111E+00        -0.42233E+00         0.00000E+00
    0.30142E+00        -0.37462E+00         0.00000E+00
    0.26297E+00        -0.32665E+00         0.00000E+00
    0.22538E+00        -0.27855E+00         0.00000E+00
    0.18829E+00        -0.23052E+00         0.00000E+00
    0.15135E+00        -0.18276E+00         0.00000E+00
    0.11425E+00        -0.13553E+00         0.00000E+00
    0.76748E-01        -0.89123E-01         0.00000E+00
    0.38686E-01        -0.43839E-01         0.00000E+00
    0.00000E+00         0.00000E+00         0.00000E+00
    0.66603E+00        -0.75559E+00         0.00000E+00
    0.60962E+00        -0.70743E+00         0.00000E+00
    0.55548E+00        -0.65906E+00         0.00000E+00
    0.50393E+00        -0.61030E+00         0.00000E+00
    0.45505E+00        -0.56101E+00         0.00000E+00
    0.40870E+00        -0.51110E+00         0.00000E+00
    0.36462E+00        -0.46056E+00         0.00000E+00
    0.32240E+00        -0.40940E+00         0.00000E+00
    0.28162E+00        -0.35774E+00         0.00000E+00
    0.24179E+00        -0.30571E+00         0.00000E+00
    0.20245E+00        -0.25351E+00         0.00000E+00
    0.16315E+00        -0.20139E+00         0.00000E+00
    0.12351E+00        -0.14964E+00         0.00000E+00
    0.83230E-01        -0.98587E-01         0.00000E+00
    0.42091E-01        -0.48583E-01         0.00000E+00
    0.00000E+00         0.00000E+00         0.00000E+00
    0.71335E+00        -0.81642E+00         0.00000E+00
    0.65049E+00        -0.76564E+00         0.00000E+00
    0.59096E+00        -0.71456E+00         0.00000E+00
    0.53494E+00        -0.66293E+00         0.00000E+00
    0.48238E+00        -0.61054E+00         0.00000E+00
    0.43299E+00        -0.55728E+00         0.00000E+00
    0.38634E+00        -0.50312E+00         0.00000E+00
    0.34190E+00        -0.44808E+00         0.00000E+00
    0.29909E+00        -0.39225E+00         0.00000E+00
    0.25732E+00        -0.33582E+00         0.00000E+00
    0.21600E+00        -0.27898E+00         0.00000E+00
    0.17459E+00        -0.22202E+00         0.00000E+00
    0.13261E+00        -0.16526E+00         0.00000E+00
    0.89678E-01        -0.10907E+00         0.00000E+00
    0.45520E-01        -0.53836E-01         0.00000E+00
    0.00000E+00         0.00000E+00         0.00000E+00
    0.75782E+00        -0.88445E+00         0.00000E+00
    0.68827E+00        -0.83062E+00         0.00000E+00
    0.62330E+00        -0.77638E+00         0.00000E+00
    0.56293E+00        -0.72141E+00         0.00000E+00
    0.50690E+00        -0.66545E+00         0.00000E+00
    0.45476E+00        -0.60838E+00         0.00000E+00
    0.40588E+00        -0.55011E+00         0.00000E+00
    0.35959E+00        -0.49070E+00         0.00000E+00
    0.31513E+00        -0.43024E+00         0.00000E+00
    0.27178E+00        -0.36891E+00         0.00000E+00
    0.22881E+00        -0.30696E+00         0.00000E+00
    0.18557E+00        -0.24467E+00         0.00000E+00
    0.14148E+00        -0.18240E+00         0.00000E+00
    0.96057E-01        -0.12057E+00         0.00000E+00
    0.48962E-01        -0.59604E-01         0.00000E+00
    0.00000E+00         0.00000E+00         0.00000E+00
    0.79851E+00        -0.96001E+00         0.00000E+00
    0.72210E+00        -0.90262E+00         0.00000E+00
    0.65174E+00        -0.84472E+00         0.00000E+00
    0.58721E+00        -0.78589E+00         0.00000E+00
    0.52803E+00        -0.72586E+00         0.00000E+00
    0.47351E+00        -0.66444E+00         0.00000E+00
    0.42284E+00        -0.60157E+00         0.00000E+00
    0.37512E+00        -0.53727E+00         0.00000E+00
    0.32944E+00        -0.47168E+00         0.00000E+00
    0.28492E+00        -0.40497E+00         0.00000E+00
    0.24068E+00        -0.33740E+00         0.00000E+00
    0.19595E+00        -0.26930E+00         0.00000E+00
    0.15002E+00        -0.20105E+00         0.00000E+00
    0.10232E+00        -0.13308E+00         0.00000E+00
    0.52398E-01        -0.65882E-01         0.00000E+00
    0.00000E+00         0.00000E+00         0.00000E+00
    0.83430E+00        -0.10433E+01         0.00000E+00
    0.75098E+00        -0.98181E+00         0.00000E+00
    0.67538E+00        -0.91968E+00         0.00000E+00
    0.60701E+00        -0.85644E+00         0.00000E+00
    0.54509E+00        -0.79175E+00         0.00000E+00
    0.48868E+00        -0.72543E+00         0.00000E+00
    0.43671E+00        -0.65739E+00         0.00000E+00
    0.38808E+00        -0.58769E+00         0.00000E+00
    0.34169E+00        -0.51644E+00         0.00000E+00
    0.29646E+00        -0.44386E+00         0.00000E+00
    0.25140E+00        -0.37022E+00         0.00000E+00
    0.20556E+00        -0.29584E+00         0.00000E+00
    0.15812E+00        -0.22114E+00         0.00000E+00
    0.10839E+00        -0.14657E+00         0.00000E+00
    0.55797E-01        -0.72656E-01         0.00000E+00
    0.00000E+00         0.00000E+00         0.00000E+00
    0.86392E+00        -0.11345E+01         0.00000E+00
    0.77377E+00        -0.10683E+01         0.00000E+00
    0.69324E+00        -0.10013E+01         0.00000E+00
    0.62147E+00        -0.93296E+00         0.00000E+00
    0.55736E+00        -0.86299E+00         0.00000E+00
    0.49964E+00        -0.79115E+00         0.00000E+00
    0.44697E+00        -0.71738E+00         0.00000E+00
    0.39802E+00        -0.64172E+00         0.00000E+00
    0.35147E+00        -0.56432E+00         0.00000E+00
    0.30608E+00        -0.48539E+00         0.00000E+00
    0.26068E+00        -0.40522E+00         0.00000E+00
    0.21418E+00        -0.32414E+00         0.00000E+00
    0.16563E+00        -0.24256E+00         0.00000E+00
    0.11416E+00        -0.16096E+00         0.00000E+00
    0.59114E-01        -0.79895E-01         0.00000E+00
    0.00000E+00         0.00000E+00         0.00000E+00
    0.88591E+00        -0.12336E+01         0.00000E+00
    0.78919E+00        -0.11618E+01         0.00000E+00
    0.70420E+00        -0.10892E+01         0.00000E+00
    0.62965E+00        -0.10152E+01         0.00000E+00
    0.56402E+00        -0.93926E+00         0.00000E+00
    0.50569E+00        -0.86126E+00         0.00000E+00
    0.45302E+00        -0.78114E+00         0.00000E+00
    0.40440E+00        -0.69898E+00         0.00000E+00
    0.35833E+00        -0.61493E+00         0.00000E+00
    0.31337E+00        -0.52922E+00         0.00000E+00
    0.26818E+00        -0.44213E+00         0.00000E+00
    0.22154E+00        -0.35398E+00         0.00000E+00
    0.17232E+00        -0.26516E+00         0.00000E+00
    0.11951E+00        -0.17617E+00         0.00000E+00
    0.62285E-01        -0.87554E-01         0.00000E+00
    0.00000E+00         0.00000E+00         0.00000E+00
    0.89859E+00        -0.13403E+01         0.00000E+00
    0.79580E+00        -0.12622E+01         0.00000E+00
    0.70705E+00        -0.11833E+01         0.00000E+00
    0.63052E+00        -0.11027E+01         0.00000E+00
    0.56422E+00        -0.10200E+01         0.00000E+00
    0.50611E+00        -0.93518E+00         0.00000E+00
    0.45421E+00        -0.84810E+00         0.00000E+00
    0.40666E+00        -0.75891E+00         0.00000E+00
    0.36174E+00        -0.66776E+00         0.00000E+00
    0.31784E+00        -0.57489E+00         0.00000E+00
    0.27348E+00        -0.48055E+00         0.00000E+00
    0.22727E+00        -0.38503E+00         0.00000E+00
    0.17792E+00        -0.28872E+00         0.00000E+00
    0.12424E+00        -0.19204E+00         0.00000E+00
    0.65217E-01        -0.95569E-01         0.00000E+00
    0.00000E+00         0.00000E+00         0.00000E+00
    0.90011E+00        -0.14541E+01         0.00000E+00
    0.79201E+00        -0.13689E+01         0.00000E+00
    0.70047E+00        -0.12826E+01         0.00000E+00
    0.62299E+00        -0.11946E+01         0.00000E+00
    0.55703E+00        -0.11045E+01         0.00000E+00
    0.50009E+00        -0.10121E+01         0.00000E+00
    0.44983E+00        -0.91745E+00         0.00000E+00
    0.40414E+00        -0.82072E+00         0.00000E+00
    0.36109E+00        -0.72208E+00         0.00000E+00
    0.31894E+00        -0.62175E+00         0.00000E+00
    0.27606E+00        -0.51994E+00         0.00000E+00
    0.23092E+00        -0.41690E+00         0.00000E+00
    0.18206E+00        -0.31292E+00         0.00000E+00
    0.12810E+00        -0.20840E+00         0.00000E+00
    0.67782E-01        -0.10386E+00         0.00000E+00
    0.00000E+00         0.00000E+00         0.00000E+00
    0.88840E+00        -0.15742E+01         0.00000E+00
    0.77612E+00        -0.14809E+01         0.00000E+00
    0.68305E+00        -0.13864E+01         0.00000E+00
    0.60592E+00        -0.12901E+01         0.00000E+00
    0.54150E+00        -0.11916E+01         0.00000E+00
    0.48679E+00        -0.10909E+01         0.00000E+00
    0.43911E+00        -0.98808E+00         0.00000E+00
    0.39609E+00        -0.88338E+00         0.00000E+00
    0.35566E+00        -0.77696E+00         0.00000E+00
    0.31596E+00        -0.66900E+00         0.00000E+00
    0.27526E+00        -0.55964E+00         0.00000E+00
    0.23190E+00        -0.44905E+00         0.00000E+00
    0.18426E+00        -0.33740E+00         0.00000E+00
    0.13075E+00        -0.22501E+00         0.00000E+00
    0.69804E-01        -0.11232E+00         0.00000E+00
    0.00000E+00         0.00000E+00         0.00000E+00
    0.86117E+00        -0.16995E+01         0.00000E+00
    0.74628E+00        -0.15969E+01         0.00000E+00
    0.65335E+00        -0.14931E+01         0.00000E+00
    0.57815E+00        -0.13874E+01         0.00000E+00
    0.51667E+00        -0.12797E+01         0.00000E+00
    0.46536E+00        -0.11700E+01         0.00000E+00
    0.42121E+00        -0.10586E+01         0.00000E+00
    0.38169E+00        -0.94558E+00         0.00000E+00
    0.34461E+00        -0.83123E+00         0.00000E+00
    0.30806E+00        -0.71562E+00         0.00000E+00
    0.27026E+00        -0.59882E+00         0.00000E+00
    0.22946E+00        -0.48083E+00         0.00000E+00
    0.18389E+00        -0.36171E+00         0.00000E+00
    0.13172E+00        -0.24160E+00         0.00000E+00
    0.71040E-01        -0.12082E+00         0.00000E+00
    0.00000E+00         0.00000E+00         0.00000E+00
    0.81591E+00        -0.18281E+01         0.00000E+00
    0.70054E+00        -0.17151E+01         0.00000E+00
    0.60991E+00        -0.16008E+01         0.00000E+00
    0.53854E+00        -0.14848E+01         0.00000E+00
    0.48156E+00        -0.13670E+01         0.00000E+00
    0.43489E+00        -0.12477E+01         0.00000E+00
    0.39525E+00        -0.11272E+01         0.00000E+00
    0.35999E+00        -0.10057E+01         0.00000E+00
    0.32694E+00        -0.88348E+00         0.00000E+00
    0.29421E+00        -0.76043E+00         0.00000E+00
    0.26004E+00        -0.63649E+00         0.00000E+00
    0.22264E+00        -0.51150E+00         0.00000E+00
    0.18013E+00        -0.38531E+00         0.00000E+00
    0.13040E+00        -0.25784E+00         0.00000E+00
    0.71160E-01        -0.12924E+00         0.00000E+00
    0.00000E+00         0.00000E+00         0.00000E+00
    0.74989E+00        -0.19578E+01         0.00000E+00
    0.63691E+00        -0.18329E+01         0.00000E+00
    0.55130E+00        -0.17070E+01         0.00000E+00
    0.48604E+00        -0.15795E+01         0.00000E+00
    0.43527E+00        -0.14508E+01         0.00000E+00
    0.39446E+00        -0.13215E+01         0.00000E+00
    0.36020E+00        -0.11918E+01         0.00000E+00
    0.32989E+00        -0.10620E+01         0.00000E+00
    0.30148E+00        -0.93211E+00         0.00000E+00
    0.27319E+00        -0.80205E+00         0.00000E+00
    0.24336E+00        -0.67153E+00         0.00000E+00
    0.21025E+00        -0.54017E+00         0.00000E+00
    0.17190E+00        -0.40757E+00         0.00000E+00
    0.12598E+00        -0.27336E+00         0.00000E+00
    0.69717E-01        -0.13741E+00         0.00000E+00
    0.00000E+00         0.00000E+00         0.00000E+00
    0.66013E+00        -0.20852E+01         0.00000E+00
    0.55343E+00        -0.19471E+01         0.00000E+00
    0.47629E+00        -0.18081E+01         0.00000E+00
    0.41972E+00        -0.16682E+01         0.00000E+00
    0.37690E+00        -0.15281E+01         0.00000E+00
    0.34307E+00        -0.13886E+01         0.00000E+00
    0.31493E+00        -0.12499E+01         0.00000E+00
    0.29012E+00        -0.11122E+01         0.00000E+00
    0.26682E+00        -0.97534E+00         0.00000E+00
    0.24350E+00        -0.83900E+00         0.00000E+00
    0.21867E+00        -0.70271E+00         0.00000E+00
    0.19075E+00        -0.56588E+00         0.00000E+00
    0.15780E+00        -0.42779E+00         0.00000E+00
    0.11734E+00        -0.28773E+00         0.00000E+00
    0.66088E-01        -0.14515E+00         0.00000E+00
    0.00000E+00         0.00000E+00         0.00000E+00
    0.54342E+00        -0.22057E+01         0.00000E+00
    0.44836E+00        -0.20529E+01         0.00000E+00
    0.38397E+00        -0.18996E+01         0.00000E+00
    0.33885E+00        -0.17465E+01         0.00000E+00
    0.30554E+00        -0.15951E+01         0.00000E+00
    0.27956E+00        -0.14458E+01         0.00000E+00
    0.25808E+00        -0.12989E+01         0.00000E+00
    0.23916E+00        -0.11542E+01         0.00000E+00
    0.22135E+00        -0.10113E+01         0.00000E+00
    0.20342E+00        -0.86975E+00         0.00000E+00
    0.18418E+00        -0.72875E+00         0.00000E+00
    0.16230E+00        -0.58755E+00         0.00000E+00
    0.13605E+00        -0.44516E+00         0.00000E+00
    0.10299E+00        -0.30045E+00         0.00000E+00
    0.59383E-01        -0.15227E+00         0.00000E+00
    0.00000E+00         0.00000E+00         0.00000E+00
    0.39629E+00        -0.23127E+01         0.00000E+00
    0.32053E+00        -0.21436E+01         0.00000E+00
    0.27398E+00        -0.19750E+01         0.00000E+00
    0.24276E+00        -0.18091E+01         0.00000E+00
    0.22008E+00        -0.16474E+01         0.00000E+00
    0.20251E+00        -0.14898E+01         0.00000E+00
    0.18801E+00        -0.13362E+01         0.00000E+00
    0.17522E+00        -0.11860E+01         0.00000E+00
    0.16316E+00        -0.10384E+01         0.00000E+00
    0.15096E+00        -0.89287E+00         0.00000E+00
    0.13779E+00        -0.74841E+00         0.00000E+00
    0.12270E+00        -0.60409E+00         0.00000E+00
    0.10437E+00        -0.45874E+00         0.00000E+00
    0.80795E-01        -0.31087E+00         0.00000E+00
    0.48234E-01        -0.15852E+00         0.00000E+00
    0.00000E+00         0.00000E+00         0.00000E+00
    0.21517E+00        -0.23957E+01         0.00000E+00
    0.17037E+00        -0.22088E+01         0.00000E+00
    0.14632E+00        -0.20260E+01         0.00000E+00
    0.13043E+00        -0.18500E+01         0.00000E+00
    0.11896E+00        -0.16809E+01         0.00000E+00
    0.11008E+00        -0.15177E+01         0.00000E+00
    0.10274E+00        -0.13596E+01         0.00000E+00
    0.96265E-01        -0.12057E+01         0.00000E+00
    0.90137E-01        -0.10553E+01         0.00000E+00
    0.83929E-01        -0.90721E+00         0.00000E+00
    0.77210E-01        -0.76064E+00         0.00000E+00
    0.69477E-01        -0.61448E+00         0.00000E+00
    0.60027E-01        -0.46746E+00         0.00000E+00
    0.47704E-01        -0.31796E+00         0.00000E+00
    0.30247E-01        -0.16349E+00         0.00000E+00
    0.00000E+00         0.00000E+00         0.00000E+00
    0.00000E+00        -0.24332E+01         0.00000E+00
    0.00000E+00        -0.22334E+01         0.00000E+00
    0.00000E+00        -0.20442E+01         0.00000E+00
    0.00000E+00        -0.18643E+01         0.00000E+00
    0.00000E+00        -0.16924E+01         0.00000E+00
    0.00000E+00        -0.15271E+01         0.00000E+00
    0.00000E+00        -0.13675E+01         0.00000E+00
    0.00000E+00        -0.12124E+01         0.00000E+00
    0.00000E+00        -0.10609E+01         0.00000E+00
    0.00000E+00        -0.91204E+00         0.00000E+00
    0.00000E+00        -0.76476E+00         0.00000E+00
    0.00000E+00        -0.61800E+00         0.00000E+00
    0.00000E+00        -0.47047E+00         0.00000E+00
    0.00000E+00        -0.32049E+00         0.00000E+00
    0.00000E+00        -0.16558E+00         0.00000E+00
    0.00000E+00         0.00000E+00         0.00000E+00
CELL_DATA        450
VECTORS vDarcy double 
    0.54310E-08         0.10198E-07         0.00000E+00
    0.54488E-08         0.28099E-07         0.00000E+00
    0.54938E-08         0.42416E-07         0.00000E+00
    0.55659E-08         0.53375E-07         0.00000E+00
    0.56629E-08         0.61198E-07         0.00000E+00
    0.57805E-08         0.66101E-07         0.00000E+00
    0.59136E-08         0.68291E-07         0.00000E+00
    0.60561E-08         0.67959E-07         0.00000E+00
    0.62014E-08         0.65282E-07         0.00000E+00
    0.63428E-08         0.60418E-07         0.00000E+00
    0.64738E-08         0.53508E-07         0.00000E+00
    0.65879E-08         0.44678E-07         0.00000E+00
    0.66793E-08         0.34033E-07         0.00000E+00
    0.67427E-08         0.21668E-07         0.00000E+00
    0.67736E-08         0.76603E-08         0.00000E+00
    0.16454E-07         0.10173E-07         0.00000E+00
    0.16509E-07         0.28019E-07         0.00000E+00
    0.16647E-07         0.42280E-07         0.00000E+00
    0.16867E-07         0.53185E-07         0.00000E+00
    0.17163E-07         0.60960E-07         0.00000E+00
    0.17521E-07         0.65826E-07         0.00000E+00
    0.17925E-07         0.67990E-07         0.00000E+00
    0.18357E-07         0.67646E-07         0.00000E+00
    0.18798E-07         0.64970E-07         0.00000E+00
    0.19227E-07         0.60121E-07         0.00000E+00
    0.19623E-07         0.53240E-07         0.00000E+00
    0.19969E-07         0.44451E-07         0.00000E+00
    0.20245E-07         0.33860E-07         0.00000E+00
    0.20437E-07         0.21558E-07         0.00000E+00
    0.20530E-07         0.76217E-08         0.00000E+00
    0.27963E-07         0.10122E-07         0.00000E+00
    0.28059E-07         0.27855E-07         0.00000E+00
    0.28299E-07         0.41999E-07         0.00000E+00
    0.28679E-07         0.52794E-07         0.00000E+00
    0.29187E-07         0.60473E-07         0.00000E+00
    0.29800E-07         0.65264E-07         0.00000E+00
    0.30491E-07         0.67377E-07         0.00000E+00
    0.31228E-07         0.67009E-07         0.00000E+00
    0.31977E-07         0.64337E-07         0.00000E+00
    0.32706E-07         0.59519E-07         0.00000E+00
    0.33379E-07         0.52697E-07         0.00000E+00
    0.33965E-07         0.43992E-07         0.00000E+00
    0.34434E-07         0.33508E-07         0.00000E+00
    0.34759E-07         0.21334E-07         0.00000E+00
    0.34917E-07         0.75434E-08         0.00000E+00
    0.40291E-07         0.10039E-07         0.00000E+00
    0.40435E-07         0.27595E-07         0.00000E+00
    0.40790E-07         0.41557E-07         0.00000E+00
    0.41351E-07         0.52183E-07         0.00000E+00
    0.42093E-07         0.59717E-07         0.00000E+00
    0.42986E-07         0.64394E-07         0.00000E+00
    0.43987E-07         0.66432E-07         0.00000E+00
    0.45052E-07         0.66028E-07         0.00000E+00
    0.46133E-07         0.63363E-07         0.00000E+00
    0.47181E-07         0.58596E-07         0.00000E+00
    0.48148E-07         0.51865E-07         0.00000E+00
    0.48989E-07         0.43289E-07         0.00000E+00
    0.49662E-07         0.32970E-07         0.00000E+00
    0.50128E-07         0.20992E-07         0.00000E+00
    0.50355E-07         0.74234E-08         0.00000E+00
    0.53785E-07         0.99175E-08         0.00000E+00
    0.53985E-07         0.27220E-07         0.00000E+00
    0.54475E-07         0.40931E-07         0.00000E+00
    0.55241E-07         0.51323E-07         0.00000E+00
    0.56249E-07         0.58660E-07         0.00000E+00
    0.57452E-07         0.63185E-07         0.00000E+00
    0.58797E-07         0.65122E-07         0.00000E+00
    0.60222E-07         0.64675E-07         0.00000E+00
    0.61663E-07         0.62023E-07         0.00000E+00
    0.63058E-07         0.57326E-07         0.00000E+00
    0.64344E-07         0.50722E-07         0.00000E+00
    0.65460E-07         0.42325E-07         0.00000E+00
    0.66352E-07         0.32232E-07         0.00000E+00
    0.66970E-07         0.20523E-07         0.00000E+00
    0.67270E-07         0.72589E-08         0.00000E+00
    0.68810E-07         0.97502E-08         0.00000E+00
    0.69076E-07         0.26711E-07         0.00000E+00
    0.69724E-07         0.40088E-07         0.00000E+00
    0.70726E-07         0.50179E-07         0.00000E+00
    0.72036E-07         0.57263E-07         0.00000E+00
    0.73590E-07         0.61596E-07         0.00000E+00
    0.75317E-07         0.63410E-07         0.00000E+00
    0.77139E-07         0.62911E-07         0.00000E+00
    0.78978E-07         0.60282E-07         0.00000E+00
    0.80752E-07         0.55681E-07         0.00000E+00
    0.82383E-07         0.49243E-07         0.00000E+00
    0.83798E-07         0.41078E-07         0.00000E+00
    0.84928E-07         0.31279E-07         0.00000E+00
    0.85709E-07         0.19917E-07         0.00000E+00
    0.86089E-07         0.70463E-08         0.00000E+00
    0.85751E-07         0.95266E-08         0.00000E+00
    0.86094E-07         0.26041E-07         0.00000E+00
    0.86926E-07         0.38993E-07         0.00000E+00
    0.88200E-07         0.48707E-07         0.00000E+00
    0.89853E-07         0.55480E-07         0.00000E+00
    0.91801E-07         0.59581E-07         0.00000E+00
    0.93955E-07         0.61248E-07         0.00000E+00
    0.96219E-07         0.60694E-07         0.00000E+00
    0.98494E-07         0.58101E-07         0.00000E+00
    0.10068E-06         0.53625E-07         0.00000E+00
    0.10269E-06         0.47398E-07         0.00000E+00
    0.10443E-06         0.39525E-07         0.00000E+00
    0.10582E-06         0.30092E-07         0.00000E+00
    0.10678E-06         0.19163E-07         0.00000E+00
    0.10724E-06         0.67813E-08         0.00000E+00
    0.10502E-06         0.92355E-08         0.00000E+00
    0.10545E-06         0.25180E-07         0.00000E+00
    0.10649E-06         0.37605E-07         0.00000E+00
    0.10808E-06         0.46859E-07         0.00000E+00
    0.11012E-06         0.53260E-07         0.00000E+00
    0.11251E-06         0.57087E-07         0.00000E+00
    0.11514E-06         0.58589E-07         0.00000E+00
    0.11789E-06         0.57977E-07         0.00000E+00
    0.12064E-06         0.55437E-07         0.00000E+00
    0.12328E-06         0.51120E-07         0.00000E+00
    0.12570E-06         0.45155E-07         0.00000E+00
    0.12779E-06         0.37640E-07         0.00000E+00
    0.12946E-06         0.28652E-07         0.00000E+00
    0.13061E-06         0.18247E-07         0.00000E+00
    0.13116E-06         0.64596E-08         0.00000E+00
    0.12706E-06         0.88645E-08         0.00000E+00
    0.12758E-06         0.24098E-07         0.00000E+00
    0.12886E-06         0.35879E-07         0.00000E+00
    0.13080E-06         0.44584E-07         0.00000E+00
    0.13327E-06         0.50548E-07         0.00000E+00
    0.13615E-06         0.54062E-07         0.00000E+00
    0.13930E-06         0.55378E-07         0.00000E+00
    0.14258E-06         0.54712E-07         0.00000E+00
    0.14585E-06         0.52246E-07         0.00000E+00
    0.14898E-06         0.48129E-07         0.00000E+00
    0.15185E-06         0.42480E-07         0.00000E+00
    0.15432E-06         0.35394E-07         0.00000E+00
    0.15628E-06         0.26938E-07         0.00000E+00
    0.15764E-06         0.17158E-07         0.00000E+00
    0.15829E-06         0.60765E-08         0.00000E+00
    0.15232E-06         0.84009E-08         0.00000E+00
    0.15295E-06         0.22762E-07         0.00000E+00
    0.15449E-06         0.33771E-07         0.00000E+00
    0.15681E-06         0.41831E-07         0.00000E+00
    0.15976E-06         0.47290E-07         0.00000E+00
    0.16317E-06         0.50450E-07         0.00000E+00
    0.16689E-06         0.51565E-07         0.00000E+00
    0.17074E-06         0.50852E-07         0.00000E+00
    0.17458E-06         0.48487E-07         0.00000E+00
    0.17823E-06         0.44613E-07         0.00000E+00
    0.18157E-06         0.39344E-07         0.00000E+00
    0.18444E-06         0.32765E-07         0.00000E+00
    0.18672E-06         0.24933E-07         0.00000E+00
    0.18829E-06         0.15883E-07         0.00000E+00
    0.18904E-06         0.56277E-08         0.00000E+00
    0.18130E-06         0.78320E-08         0.00000E+00
    0.18203E-06         0.21139E-07         0.00000E+00
    0.18386E-06         0.31237E-07         0.00000E+00
    0.18660E-06         0.38549E-07         0.00000E+00
    0.19006E-06         0.43435E-07         0.00000E+00
    0.19405E-06         0.46202E-07         0.00000E+00
    0.19837E-06         0.47105E-07         0.00000E+00
    0.20283E-06         0.46355E-07         0.00000E+00
    0.20726E-06         0.44122E-07         0.00000E+00
    0.21147E-06         0.40543E-07         0.00000E+00
    0.21530E-06         0.35721E-07         0.00000E+00
    0.21859E-06         0.29730E-07         0.00000E+00
    0.22120E-06         0.22620E-07         0.00000E+00
    0.22300E-06         0.14412E-07         0.00000E+00
    0.22385E-06         0.51097E-08         0.00000E+00
    0.21449E-06         0.71455E-08         0.00000E+00
    0.21534E-06         0.19200E-07         0.00000E+00
    0.21747E-06         0.28237E-07         0.00000E+00
    0.22065E-06         0.34694E-07         0.00000E+00
    0.22466E-06         0.38939E-07         0.00000E+00
    0.22925E-06         0.41277E-07         0.00000E+00
    0.23421E-06         0.41960E-07         0.00000E+00
    0.23931E-06         0.41189E-07         0.00000E+00
    0.24435E-06         0.39126E-07         0.00000E+00
    0.24914E-06         0.35896E-07         0.00000E+00
    0.25347E-06         0.31591E-07         0.00000E+00
    0.25720E-06         0.26276E-07         0.00000E+00
    0.26015E-06         0.19988E-07         0.00000E+00
    0.26217E-06         0.12739E-07         0.00000E+00
    0.26313E-06         0.45197E-08         0.00000E+00
    0.25243E-06         0.63306E-08         0.00000E+00
    0.25338E-06         0.16918E-07         0.00000E+00
    0.25582E-06         0.24736E-07         0.00000E+00
    0.25947E-06         0.30230E-07         0.00000E+00
    0.26404E-06         0.33767E-07         0.00000E+00
    0.26927E-06         0.35645E-07         0.00000E+00
    0.27488E-06         0.36104E-07         0.00000E+00
    0.28063E-06         0.35334E-07         0.00000E+00
    0.28630E-06         0.33482E-07         0.00000E+00
    0.29166E-06         0.30661E-07         0.00000E+00
    0.29651E-06         0.26948E-07         0.00000E+00
    0.30067E-06         0.22398E-07         0.00000E+00
    0.30395E-06         0.17034E-07         0.00000E+00
    0.30620E-06         0.10861E-07         0.00000E+00
    0.30726E-06         0.38567E-08         0.00000E+00
    0.29564E-06         0.53782E-08         0.00000E+00
    0.29668E-06         0.14272E-07         0.00000E+00
    0.29944E-06         0.20709E-07         0.00000E+00
    0.30356E-06         0.25133E-07         0.00000E+00
    0.30871E-06         0.27900E-07         0.00000E+00
    0.31457E-06         0.29292E-07         0.00000E+00
    0.32084E-06         0.29531E-07         0.00000E+00
    0.32724E-06         0.28790E-07         0.00000E+00
    0.33353E-06         0.27196E-07         0.00000E+00
    0.33945E-06         0.24844E-07         0.00000E+00
    0.34481E-06         0.21799E-07         0.00000E+00
    0.34939E-06         0.18100E-07         0.00000E+00
    0.35300E-06         0.13763E-07         0.00000E+00
    0.35547E-06         0.87799E-08         0.00000E+00
    0.35662E-06         0.31213E-08         0.00000E+00
    0.34463E-06         0.42823E-08         0.00000E+00
    0.34575E-06         0.11250E-07         0.00000E+00
    0.34882E-06         0.16146E-07         0.00000E+00
    0.35342E-06         0.19397E-07         0.00000E+00
    0.35914E-06         0.21339E-07         0.00000E+00
    0.36562E-06         0.22228E-07         0.00000E+00
    0.37253E-06         0.22260E-07         0.00000E+00
    0.37956E-06         0.21579E-07         0.00000E+00
    0.38643E-06         0.20291E-07         0.00000E+00
    0.39290E-06         0.18472E-07         0.00000E+00
    0.39873E-06         0.16168E-07         0.00000E+00
    0.40371E-06         0.13406E-07         0.00000E+00
    0.40763E-06         0.10190E-07         0.00000E+00
    0.41030E-06         0.65059E-08         0.00000E+00
    0.41154E-06         0.23167E-08         0.00000E+00
    0.39990E-06         0.30401E-08         0.00000E+00
    0.40109E-06         0.78484E-08         0.00000E+00
    0.40446E-06         0.11048E-07         0.00000E+00
    0.40951E-06         0.13036E-07         0.00000E+00
    0.41579E-06         0.14110E-07         0.00000E+00
    0.42286E-06         0.14490E-07         0.00000E+00
    0.43037E-06         0.14334E-07         0.00000E+00
    0.43798E-06         0.13754E-07         0.00000E+00
    0.44540E-06         0.12825E-07         0.00000E+00
    0.45236E-06         0.11598E-07         0.00000E+00
    0.45861E-06         0.10104E-07         0.00000E+00
    0.46394E-06         0.83544E-08         0.00000E+00
    0.46814E-06         0.63456E-08         0.00000E+00
    0.47098E-06         0.40570E-08         0.00000E+00
    0.47229E-06         0.14489E-08         0.00000E+00
    0.46193E-06         0.16535E-08         0.00000E+00
    0.46317E-06         0.40779E-08         0.00000E+00
    0.46682E-06         0.54408E-08         0.00000E+00
    0.47230E-06         0.60902E-08         0.00000E+00
    0.47908E-06         0.62713E-08         0.00000E+00
    0.48670E-06         0.61511E-08         0.00000E+00
    0.49474E-06         0.58387E-08         0.00000E+00
    0.50286E-06         0.54027E-08         0.00000E+00
    0.51074E-06         0.48846E-08         0.00000E+00
    0.51811E-06         0.43075E-08         0.00000E+00
    0.52472E-06         0.36817E-08         0.00000E+00
    0.53035E-06         0.30076E-08         0.00000E+00
    0.53476E-06         0.22750E-08         0.00000E+00
    0.53775E-06         0.14611E-08         0.00000E+00
    0.53910E-06         0.52723E-09         0.00000E+00
    0.53112E-06         0.12996E-09         0.00000E+00
    0.53239E-06        -0.35918E-10         0.00000E+00
    0.53631E-06        -0.62695E-09         0.00000E+00
    0.54219E-06        -0.13664E-08         0.00000E+00
    0.54942E-06        -0.20818E-08         0.00000E+00
    0.55749E-06        -0.26756E-08         0.00000E+00
    0.56597E-06        -0.31010E-08         0.00000E+00
    0.57448E-06        -0.33422E-08         0.00000E+00
    0.58272E-06        -0.33993E-08         0.00000E+00
    0.59039E-06        -0.32797E-08         0.00000E+00
    0.59727E-06        -0.29923E-08         0.00000E+00
    0.60310E-06        -0.25473E-08         0.00000E+00
    0.60768E-06        -0.19574E-08         0.00000E+00
    0.61077E-06        -0.12426E-08         0.00000E+00
    0.61215E-06        -0.43511E-09         0.00000E+00
    0.60780E-06        -0.15167E-08         0.00000E+00
    0.60913E-06        -0.44486E-08         0.00000E+00
    0.61329E-06        -0.70768E-08         0.00000E+00
    0.61950E-06        -0.92218E-08         0.00000E+00
    0.62710E-06        -0.10807E-07         0.00000E+00
    0.63552E-06        -0.11825E-07         0.00000E+00
    0.64431E-06        -0.12306E-07         0.00000E+00
    0.65308E-06        -0.12298E-07         0.00000E+00
    0.66152E-06        -0.11849E-07         0.00000E+00
    0.66937E-06        -0.10999E-07         0.00000E+00
    0.67637E-06        -0.97752E-08         0.00000E+00
    0.68232E-06        -0.81944E-08         0.00000E+00
    0.68697E-06        -0.62667E-08         0.00000E+00
    0.69011E-06        -0.40026E-08         0.00000E+00
    0.69149E-06        -0.14207E-08         0.00000E+00
    0.69224E-06        -0.32649E-08         0.00000E+00
    0.69363E-06        -0.90935E-08         0.00000E+00
    0.69802E-06        -0.13794E-07         0.00000E+00
    0.70452E-06        -0.17317E-07         0.00000E+00
    0.71239E-06        -0.19708E-07         0.00000E+00
    0.72102E-06        -0.21073E-07         0.00000E+00
    0.72994E-06        -0.21538E-07         0.00000E+00
    0.73879E-06        -0.21224E-07         0.00000E+00
    0.74725E-06        -0.20233E-07         0.00000E+00
    0.75508E-06        -0.18639E-07         0.00000E+00
    0.76207E-06        -0.16483E-07         0.00000E+00
    0.76799E-06        -0.13785E-07         0.00000E+00
    0.77263E-06        -0.10545E-07         0.00000E+00
    0.77576E-06        -0.67533E-08         0.00000E+00
    0.77712E-06        -0.24074E-08         0.00000E+00
    0.78457E-06        -0.50838E-08         0.00000E+00
    0.78608E-06        -0.13877E-07         0.00000E+00
    0.79071E-06        -0.20622E-07         0.00000E+00
    0.79743E-06        -0.25435E-07         0.00000E+00
    0.80543E-06        -0.28521E-07         0.00000E+00
    0.81410E-06        -0.30125E-07         0.00000E+00
    0.82295E-06        -0.30486E-07         0.00000E+00
    0.83163E-06        -0.29811E-07         0.00000E+00
    0.83989E-06        -0.28257E-07         0.00000E+00
    0.84749E-06        -0.25932E-07         0.00000E+00
    0.85427E-06        -0.22888E-07         0.00000E+00
    0.86002E-06        -0.19137E-07         0.00000E+00
    0.86454E-06        -0.14658E-07         0.00000E+00
    0.86759E-06        -0.94147E-08         0.00000E+00
    0.86891E-06        -0.33683E-08         0.00000E+00
    0.88478E-06        -0.69315E-08         0.00000E+00
    0.88653E-06        -0.18674E-07         0.00000E+00
    0.89142E-06        -0.27351E-07         0.00000E+00
    0.89830E-06        -0.33293E-07         0.00000E+00
    0.90629E-06        -0.36907E-07         0.00000E+00
    0.91477E-06        -0.38606E-07         0.00000E+00
    0.92329E-06        -0.38762E-07         0.00000E+00
    0.93153E-06        -0.37674E-07         0.00000E+00
    0.93929E-06        -0.35561E-07         0.00000E+00
    0.94641E-06        -0.32554E-07         0.00000E+00
    0.95275E-06        -0.28712E-07         0.00000E+00
    0.95815E-06        -0.24028E-07         0.00000E+00
    0.96243E-06        -0.18448E-07         0.00000E+00
    0.96535E-06        -0.11891E-07         0.00000E+00
    0.96663E-06        -0.42713E-08         0.00000E+00
    0.99273E-06        -0.87526E-08         0.00000E+00
    0.99491E-06        -0.23317E-07         0.00000E+00
    0.10001E-05        -0.33704E-07         0.00000E+00
    0.10071E-05        -0.40521E-07         0.00000E+00
    0.10149E-05        -0.44428E-07         0.00000E+00
    0.10229E-05        -0.46043E-07         0.00000E+00
    0.10308E-05        -0.45886E-07         0.00000E+00
    0.10382E-05        -0.44352E-07         0.00000E+00
    0.10452E-05        -0.41713E-07         0.00000E+00
    0.10515E-05        -0.38121E-07         0.00000E+00
    0.10571E-05        -0.33628E-07         0.00000E+00
    0.10620E-05        -0.28197E-07         0.00000E+00
    0.10659E-05        -0.21725E-07         0.00000E+00
    0.10686E-05        -0.14071E-07         0.00000E+00
    0.10699E-05        -0.50791E-08         0.00000E+00
    0.11081E-05        -0.10473E-07         0.00000E+00
    0.11110E-05        -0.27585E-07         0.00000E+00
    0.11167E-05        -0.39317E-07         0.00000E+00
    0.11237E-05        -0.46643E-07         0.00000E+00
    0.11311E-05        -0.50539E-07         0.00000E+00
    0.11383E-05        -0.51862E-07         0.00000E+00
    0.11451E-05        -0.51288E-07         0.00000E+00
    0.11514E-05        -0.49302E-07         0.00000E+00
    0.11571E-05        -0.46215E-07         0.00000E+00
    0.11623E-05        -0.42190E-07         0.00000E+00
    0.11669E-05        -0.37259E-07         0.00000E+00
    0.11710E-05        -0.31342E-07         0.00000E+00
    0.11744E-05        -0.24273E-07         0.00000E+00
    0.11769E-05        -0.15824E-07         0.00000E+00
    0.11782E-05        -0.57485E-08         0.00000E+00
    0.12304E-05        -0.11995E-07         0.00000E+00
    0.12345E-05        -0.31182E-07         0.00000E+00
    0.12408E-05        -0.43707E-07         0.00000E+00
    0.12478E-05        -0.51039E-07         0.00000E+00
    0.12544E-05        -0.54554E-07         0.00000E+00
    0.12604E-05        -0.55372E-07         0.00000E+00
    0.12657E-05        -0.54310E-07         0.00000E+00
    0.12703E-05        -0.51915E-07         0.00000E+00
    0.12744E-05        -0.48516E-07         0.00000E+00
    0.12780E-05        -0.44269E-07         0.00000E+00
    0.12814E-05        -0.39180E-07         0.00000E+00
    0.12845E-05        -0.33120E-07         0.00000E+00
    0.12872E-05        -0.25840E-07         0.00000E+00
    0.12895E-05        -0.17002E-07         0.00000E+00
    0.12909E-05        -0.62301E-08         0.00000E+00
    0.13590E-05        -0.13176E-07         0.00000E+00
    0.13650E-05        -0.33686E-07         0.00000E+00
    0.13722E-05        -0.46206E-07         0.00000E+00
    0.13789E-05        -0.52902E-07         0.00000E+00
    0.13844E-05        -0.55638E-07         0.00000E+00
    0.13887E-05        -0.55782E-07         0.00000E+00
    0.13919E-05        -0.54233E-07         0.00000E+00
    0.13943E-05        -0.51546E-07         0.00000E+00
    0.13963E-05        -0.48036E-07         0.00000E+00
    0.13980E-05        -0.43837E-07         0.00000E+00
    0.13996E-05        -0.38929E-07         0.00000E+00
    0.14014E-05        -0.33139E-07         0.00000E+00
    0.14034E-05        -0.26133E-07         0.00000E+00
    0.14054E-05        -0.17427E-07         0.00000E+00
    0.14071E-05        -0.64653E-08         0.00000E+00
    0.14930E-05        -0.13799E-07         0.00000E+00
    0.15020E-05        -0.34464E-07         0.00000E+00
    0.15103E-05        -0.45859E-07         0.00000E+00
    0.15164E-05        -0.51171E-07         0.00000E+00
    0.15202E-05        -0.52804E-07         0.00000E+00
    0.15221E-05        -0.52238E-07         0.00000E+00
    0.15226E-05        -0.50328E-07         0.00000E+00
    0.15224E-05        -0.47566E-07         0.00000E+00
    0.15217E-05        -0.44214E-07         0.00000E+00
    0.15210E-05        -0.40377E-07         0.00000E+00
    0.15207E-05        -0.36019E-07         0.00000E+00
    0.15208E-05        -0.30957E-07         0.00000E+00
    0.15218E-05        -0.24793E-07         0.00000E+00
    0.15236E-05        -0.16876E-07         0.00000E+00
    0.15259E-05        -0.63806E-08         0.00000E+00
    0.16316E-05        -0.13484E-07         0.00000E+00
    0.16451E-05        -0.32443E-07         0.00000E+00
    0.16546E-05        -0.41223E-07         0.00000E+00
    0.16594E-05        -0.44526E-07         0.00000E+00
    0.16605E-05        -0.45010E-07         0.00000E+00
    0.16592E-05        -0.43932E-07         0.00000E+00
    0.16565E-05        -0.41955E-07         0.00000E+00
    0.16531E-05        -0.39443E-07         0.00000E+00
    0.16495E-05        -0.36582E-07         0.00000E+00
    0.16460E-05        -0.33442E-07         0.00000E+00
    0.16432E-05        -0.29989E-07         0.00000E+00
    0.16415E-05        -0.26072E-07         0.00000E+00
    0.16412E-05        -0.21351E-07         0.00000E+00
    0.16428E-05        -0.15032E-07         0.00000E+00
    0.16459E-05        -0.58623E-08         0.00000E+00
    0.17743E-05        -0.11304E-07         0.00000E+00
    0.17944E-05        -0.25515E-07         0.00000E+00
    0.18041E-05        -0.30286E-07         0.00000E+00
    0.18060E-05        -0.31639E-07         0.00000E+00
    0.18035E-05        -0.31374E-07         0.00000E+00
    0.17984E-05        -0.30255E-07         0.00000E+00
    0.17920E-05        -0.28672E-07         0.00000E+00
    0.17851E-05        -0.26833E-07         0.00000E+00
    0.17781E-05        -0.24842E-07         0.00000E+00
    0.17717E-05        -0.22734E-07         0.00000E+00
    0.17662E-05        -0.20489E-07         0.00000E+00
    0.17621E-05        -0.18019E-07         0.00000E+00
    0.17600E-05        -0.15126E-07         0.00000E+00
    0.17611E-05        -0.11314E-07         0.00000E+00
    0.17657E-05        -0.47386E-08         0.00000E+00
    0.19231E-05        -0.47567E-08         0.00000E+00
    0.19498E-05        -0.10196E-07         0.00000E+00
    0.19561E-05        -0.11442E-07         0.00000E+00
    0.19538E-05        -0.11707E-07         0.00000E+00
    0.19468E-05        -0.11468E-07         0.00000E+00
    0.19375E-05        -0.10977E-07         0.00000E+00
    0.19271E-05        -0.10354E-07         0.00000E+00
    0.19165E-05        -0.96626E-08         0.00000E+00
    0.19061E-05        -0.89357E-08         0.00000E+00
    0.18966E-05        -0.81839E-08         0.00000E+00
    0.18882E-05        -0.73998E-08         0.00000E+00
    0.18815E-05        -0.65575E-08         0.00000E+00
    0.18772E-05        -0.55934E-08         0.00000E+00
    0.18764E-05        -0.44318E-08         0.00000E+00
    0.18829E-05        -0.19963E-08         0.00000E+00
POINT_DATA        496
VECTORS vDarcyNodal double 
    0.54249E-08         0.10204E-07         0.00000E+00
    0.54333E-08         0.19161E-07         0.00000E+00
    0.54644E-08         0.35284E-07         0.00000E+00
    0.55233E-08         0.47935E-07         0.00000E+00
    0.56087E-08         0.57338E-07         0.00000E+00
    0.57172E-08         0.63712E-07         0.00000E+00
    0.58440E-08         0.67266E-07         0.00000E+00
    0.59834E-08         0.68200E-07         0.00000E+00
    0.61289E-08         0.66696E-07         0.00000E+00
    0.62740E-08         0.62923E-07         0.00000E+00
    0.64118E-08         0.57031E-07         0.00000E+00
    0.65359E-08         0.49153E-07         0.00000E+00
    0.66400E-08         0.39404E-07         0.00000E+00
    0.67186E-08         0.27885E-07         0.00000E+00
    0.67668E-08         0.14682E-07         0.00000E+00
    0.67829E-08         0.76697E-08         0.00000E+00
    0.10930E-07         0.10192E-07         0.00000E+00
    0.10947E-07         0.19136E-07         0.00000E+00
    0.11011E-07         0.35231E-07         0.00000E+00
    0.11130E-07         0.47855E-07         0.00000E+00
    0.11303E-07         0.57233E-07         0.00000E+00
    0.11523E-07         0.63585E-07         0.00000E+00
    0.11779E-07         0.67123E-07         0.00000E+00
    0.12060E-07         0.68047E-07         0.00000E+00
    0.12354E-07         0.66541E-07         0.00000E+00
    0.12646E-07         0.62772E-07         0.00000E+00
    0.12924E-07         0.56891E-07         0.00000E+00
    0.13173E-07         0.49030E-07         0.00000E+00
    0.13383E-07         0.39305E-07         0.00000E+00
    0.13541E-07         0.27814E-07         0.00000E+00
    0.13638E-07         0.14645E-07         0.00000E+00
    0.13671E-07         0.76505E-08         0.00000E+00
    0.22183E-07         0.10155E-07         0.00000E+00
    0.22218E-07         0.19057E-07         0.00000E+00
    0.22350E-07         0.35068E-07         0.00000E+00
    0.22596E-07         0.47608E-07         0.00000E+00
    0.22951E-07         0.56910E-07         0.00000E+00
    0.23399E-07         0.63198E-07         0.00000E+00
    0.23922E-07         0.66690E-07         0.00000E+00
    0.24494E-07         0.67585E-07         0.00000E+00
    0.25091E-07         0.66071E-07         0.00000E+00
    0.25685E-07         0.62315E-07         0.00000E+00
    0.26248E-07         0.56467E-07         0.00000E+00
    0.26754E-07         0.48658E-07         0.00000E+00
    0.27179E-07         0.39004E-07         0.00000E+00
    0.27500E-07         0.27601E-07         0.00000E+00
    0.27696E-07         0.14533E-07         0.00000E+00
    0.27762E-07         0.75924E-08         0.00000E+00
    0.34086E-07         0.10089E-07         0.00000E+00
    0.34143E-07         0.18920E-07         0.00000E+00
    0.34351E-07         0.34785E-07         0.00000E+00
    0.34738E-07         0.47183E-07         0.00000E+00
    0.35292E-07         0.56355E-07         0.00000E+00
    0.35989E-07         0.62536E-07         0.00000E+00
    0.36798E-07         0.65949E-07         0.00000E+00
    0.37681E-07         0.66798E-07         0.00000E+00
    0.38599E-07         0.65271E-07         0.00000E+00
    0.39511E-07         0.61537E-07         0.00000E+00
    0.40375E-07         0.55746E-07         0.00000E+00
    0.41152E-07         0.48028E-07         0.00000E+00
    0.41803E-07         0.38494E-07         0.00000E+00
    0.42293E-07         0.27240E-07         0.00000E+00
    0.42594E-07         0.14343E-07         0.00000E+00
    0.42695E-07         0.74939E-08         0.00000E+00
    0.46978E-07         0.99883E-08         0.00000E+00
    0.47062E-07         0.18713E-07         0.00000E+00
    0.47359E-07         0.34365E-07         0.00000E+00
    0.47908E-07         0.46555E-07         0.00000E+00
    0.48685E-07         0.55542E-07         0.00000E+00
    0.49658E-07         0.61572E-07         0.00000E+00
    0.50781E-07         0.64874E-07         0.00000E+00
    0.52004E-07         0.65659E-07         0.00000E+00
    0.53271E-07         0.64117E-07         0.00000E+00
    0.54526E-07         0.60418E-07         0.00000E+00
    0.55714E-07         0.54710E-07         0.00000E+00
    0.56779E-07         0.47123E-07         0.00000E+00
    0.57671E-07         0.37763E-07         0.00000E+00
    0.58344E-07         0.26721E-07         0.00000E+00
    0.58755E-07         0.14071E-07         0.00000E+00
    0.58893E-07         0.73525E-08         0.00000E+00
    0.61214E-07         0.98464E-08         0.00000E+00
    0.61330E-07         0.18424E-07         0.00000E+00
    0.61733E-07         0.33784E-07         0.00000E+00
    0.62468E-07         0.45696E-07         0.00000E+00
    0.63501E-07         0.54438E-07         0.00000E+00
    0.64785E-07         0.60270E-07         0.00000E+00
    0.66259E-07         0.63429E-07         0.00000E+00
    0.67856E-07         0.64134E-07         0.00000E+00
    0.69506E-07         0.62577E-07         0.00000E+00
    0.71136E-07         0.58928E-07         0.00000E+00
    0.72675E-07         0.53334E-07         0.00000E+00
    0.74053E-07         0.45921E-07         0.00000E+00
    0.75206E-07         0.36792E-07         0.00000E+00
    0.76074E-07         0.26033E-07         0.00000E+00
    0.76605E-07         0.13710E-07         0.00000E+00
    0.76783E-07         0.71649E-08         0.00000E+00
    0.77170E-07         0.96536E-08         0.00000E+00
    0.77323E-07         0.18036E-07         0.00000E+00
    0.77851E-07         0.33013E-07         0.00000E+00
    0.78802E-07         0.44568E-07         0.00000E+00
    0.80128E-07         0.53001E-07         0.00000E+00
    0.81763E-07         0.58586E-07         0.00000E+00
    0.83630E-07         0.61572E-07         0.00000E+00
    0.85644E-07         0.62182E-07         0.00000E+00
    0.87716E-07         0.60612E-07         0.00000E+00
    0.89757E-07         0.57032E-07         0.00000E+00
    0.91679E-07         0.51586E-07         0.00000E+00
    0.93398E-07         0.44397E-07         0.00000E+00
    0.94834E-07         0.35563E-07         0.00000E+00
    0.95914E-07         0.25162E-07         0.00000E+00
    0.96574E-07         0.13253E-07         0.00000E+00
    0.96795E-07         0.69272E-08         0.00000E+00
    0.95242E-07         0.93991E-08         0.00000E+00
    0.95439E-07         0.17530E-07         0.00000E+00
    0.96112E-07         0.32019E-07         0.00000E+00
    0.97312E-07         0.43129E-07         0.00000E+00
    0.98971E-07         0.51183E-07         0.00000E+00
    0.10100E-06         0.56471E-07         0.00000E+00
    0.10331E-06         0.59253E-07         0.00000E+00
    0.10579E-06         0.59756E-07         0.00000E+00
    0.10832E-06         0.58179E-07         0.00000E+00
    0.11081E-06         0.54691E-07         0.00000E+00
    0.11315E-06         0.49433E-07         0.00000E+00
    0.11524E-06         0.42523E-07         0.00000E+00
    0.11698E-06         0.34053E-07         0.00000E+00
    0.11829E-06         0.24092E-07         0.00000E+00
    0.11909E-06         0.12691E-07         0.00000E+00
    0.11936E-06         0.66350E-08         0.00000E+00
    0.11586E-06         0.90712E-08         0.00000E+00
    0.11610E-06         0.16885E-07         0.00000E+00
    0.11694E-06         0.30764E-07         0.00000E+00
    0.11842E-06         0.41332E-07         0.00000E+00
    0.12046E-06         0.48932E-07         0.00000E+00
    0.12293E-06         0.53872E-07         0.00000E+00
    0.12573E-06         0.56419E-07         0.00000E+00
    0.12871E-06         0.56806E-07         0.00000E+00
    0.13176E-06         0.55231E-07         0.00000E+00
    0.13474E-06         0.51863E-07         0.00000E+00
    0.13753E-06         0.46839E-07         0.00000E+00
    0.14002E-06         0.40268E-07         0.00000E+00
    0.14209E-06         0.32237E-07         0.00000E+00
    0.14365E-06         0.22806E-07         0.00000E+00
    0.14460E-06         0.12015E-07         0.00000E+00
    0.14491E-06         0.62837E-08         0.00000E+00
    0.13946E-06         0.86571E-08         0.00000E+00
    0.13976E-06         0.16077E-07         0.00000E+00
    0.14078E-06         0.29211E-07         0.00000E+00
    0.14258E-06         0.39128E-07         0.00000E+00
    0.14503E-06         0.46196E-07         0.00000E+00
    0.14800E-06         0.50734E-07         0.00000E+00
    0.15133E-06         0.53017E-07         0.00000E+00
    0.15486E-06         0.53281E-07         0.00000E+00
    0.15846E-06         0.51723E-07         0.00000E+00
    0.16197E-06         0.48508E-07         0.00000E+00
    0.16525E-06         0.43768E-07         0.00000E+00
    0.16817E-06         0.37604E-07         0.00000E+00
    0.17059E-06         0.30094E-07         0.00000E+00
    0.17241E-06         0.21289E-07         0.00000E+00
    0.17352E-06         0.11218E-07         0.00000E+00
    0.17389E-06         0.58689E-08         0.00000E+00
    0.16653E-06         0.81439E-08         0.00000E+00
    0.16689E-06         0.15084E-07         0.00000E+00
    0.16811E-06         0.27320E-07         0.00000E+00
    0.17026E-06         0.36470E-07         0.00000E+00
    0.17317E-06         0.42921E-07         0.00000E+00
    0.17666E-06         0.47003E-07         0.00000E+00
    0.18057E-06         0.48995E-07         0.00000E+00
    0.18470E-06         0.49134E-07         0.00000E+00
    0.18889E-06         0.47612E-07         0.00000E+00
    0.19296E-06         0.44589E-07         0.00000E+00
    0.19675E-06         0.40188E-07         0.00000E+00
    0.20012E-06         0.34504E-07         0.00000E+00
    0.20291E-06         0.27602E-07         0.00000E+00
    0.20501E-06         0.19526E-07         0.00000E+00
    0.20628E-06         0.10292E-07         0.00000E+00
    0.20670E-06         0.53863E-08         0.00000E+00
    0.19756E-06         0.75191E-08         0.00000E+00
    0.19798E-06         0.13885E-07         0.00000E+00
    0.19941E-06         0.25054E-07         0.00000E+00
    0.20193E-06         0.33313E-07         0.00000E+00
    0.20533E-06         0.39060E-07         0.00000E+00
    0.20940E-06         0.42632E-07         0.00000E+00
    0.21392E-06         0.44310E-07         0.00000E+00
    0.21868E-06         0.44324E-07         0.00000E+00
    0.22348E-06         0.42863E-07         0.00000E+00
    0.22814E-06         0.40075E-07         0.00000E+00
    0.23247E-06         0.36075E-07         0.00000E+00
    0.23631E-06         0.30947E-07         0.00000E+00
    0.23949E-06         0.24747E-07         0.00000E+00
    0.24186E-06         0.17506E-07         0.00000E+00
    0.24330E-06         0.92301E-08         0.00000E+00
    0.24378E-06         0.48329E-08         0.00000E+00
    0.23306E-06         0.67710E-08         0.00000E+00
    0.23355E-06         0.12459E-07         0.00000E+00
    0.23520E-06         0.22381E-07         0.00000E+00
    0.23812E-06         0.29616E-07         0.00000E+00
    0.24203E-06         0.34571E-07         0.00000E+00
    0.24669E-06         0.37582E-07         0.00000E+00
    0.25185E-06         0.38926E-07         0.00000E+00
    0.25726E-06         0.38823E-07         0.00000E+00
    0.26270E-06         0.37451E-07         0.00000E+00
    0.26796E-06         0.34946E-07         0.00000E+00
    0.27284E-06         0.31413E-07         0.00000E+00
    0.27715E-06         0.26921E-07         0.00000E+00
    0.28072E-06         0.21518E-07         0.00000E+00
    0.28338E-06         0.15222E-07         0.00000E+00
    0.28499E-06         0.80292E-08         0.00000E+00
    0.28552E-06         0.42066E-08         0.00000E+00
    0.27357E-06         0.58895E-08         0.00000E+00
    0.27412E-06         0.10789E-07         0.00000E+00
    0.27599E-06         0.19272E-07         0.00000E+00
    0.27931E-06         0.25349E-07         0.00000E+00
    0.28376E-06         0.29425E-07         0.00000E+00
    0.28903E-06         0.31829E-07         0.00000E+00
    0.29483E-06         0.32823E-07         0.00000E+00
    0.30091E-06         0.32616E-07         0.00000E+00
    0.30699E-06         0.31367E-07         0.00000E+00
    0.31285E-06         0.29198E-07         0.00000E+00
    0.31827E-06         0.26198E-07         0.00000E+00
    0.32305E-06         0.22426E-07         0.00000E+00
    0.32701E-06         0.17915E-07         0.00000E+00
    0.32995E-06         0.12674E-07         0.00000E+00
    0.33172E-06         0.66890E-08         0.00000E+00
    0.33231E-06         0.35071E-08         0.00000E+00
    0.31959E-06         0.48667E-08         0.00000E+00
    0.32020E-06         0.88616E-08         0.00000E+00
    0.32229E-06         0.15710E-07         0.00000E+00
    0.32602E-06         0.20495E-07         0.00000E+00
    0.33100E-06         0.23610E-07         0.00000E+00
    0.33688E-06         0.25365E-07         0.00000E+00
    0.34334E-06         0.26003E-07         0.00000E+00
    0.35006E-06         0.25709E-07         0.00000E+00
    0.35677E-06         0.24622E-07         0.00000E+00
    0.36321E-06         0.22845E-07         0.00000E+00
    0.36916E-06         0.20448E-07         0.00000E+00
    0.37439E-06         0.17476E-07         0.00000E+00
    0.37871E-06         0.13951E-07         0.00000E+00
    0.38192E-06         0.98705E-08         0.00000E+00
    0.38385E-06         0.52133E-08         0.00000E+00
    0.38448E-06         0.27361E-08         0.00000E+00
    0.37165E-06         0.36982E-08         0.00000E+00
    0.37231E-06         0.66715E-08         0.00000E+00
    0.37461E-06         0.11688E-07         0.00000E+00
    0.37874E-06         0.15052E-07         0.00000E+00
    0.38425E-06         0.17131E-07         0.00000E+00
    0.39072E-06         0.18208E-07         0.00000E+00
    0.39780E-06         0.18491E-07         0.00000E+00
    0.40513E-06         0.18136E-07         0.00000E+00
    0.41243E-06         0.17255E-07         0.00000E+00
    0.41942E-06         0.15925E-07         0.00000E+00
    0.42585E-06         0.14198E-07         0.00000E+00
    0.43150E-06         0.12103E-07         0.00000E+00
    0.43616E-06         0.96497E-08         0.00000E+00
    0.43961E-06         0.68286E-08         0.00000E+00
    0.44167E-06         0.36110E-08         0.00000E+00
    0.44234E-06         0.18982E-08         0.00000E+00
    0.43023E-06         0.23833E-08         0.00000E+00
    0.43093E-06         0.42196E-08         0.00000E+00
    0.43343E-06         0.72138E-08         0.00000E+00
    0.43794E-06         0.90397E-08         0.00000E+00
    0.44395E-06         0.10024E-07         0.00000E+00
    0.45098E-06         0.10403E-07         0.00000E+00
    0.45863E-06         0.10345E-07         0.00000E+00
    0.46652E-06         0.99629E-08         0.00000E+00
    0.47434E-06         0.93343E-08         0.00000E+00
    0.48181E-06         0.85080E-08         0.00000E+00
    0.48867E-06         0.75131E-08         0.00000E+00
    0.49467E-06         0.63628E-08         0.00000E+00
    0.49962E-06         0.50563E-08         0.00000E+00
    0.50328E-06         0.35783E-08         0.00000E+00
    0.50545E-06         0.18972E-08         0.00000E+00
    0.50615E-06         0.10008E-08         0.00000E+00
    0.49576E-06         0.92638E-09         0.00000E+00
    0.49650E-06         0.15168E-08         0.00000E+00
    0.49919E-06         0.23142E-08         0.00000E+00
    0.50406E-06         0.25039E-08         0.00000E+00
    0.51052E-06         0.23524E-08         0.00000E+00
    0.51805E-06         0.20350E-08         0.00000E+00
    0.52620E-06         0.16612E-08         0.00000E+00
    0.53456E-06         0.12944E-08         0.00000E+00
    0.54281E-06         0.96802E-09         0.00000E+00
    0.55066E-06         0.69763E-09         0.00000E+00
    0.55785E-06         0.48792E-09         0.00000E+00
    0.56414E-06         0.33645E-09         0.00000E+00
    0.56930E-06         0.23413E-09         0.00000E+00
    0.57312E-06         0.16329E-09         0.00000E+00
    0.57538E-06         0.94013E-10         0.00000E+00
    0.57611E-06         0.55133E-10         0.00000E+00
    0.56863E-06        -0.66216E-09         0.00000E+00
    0.56942E-06        -0.14148E-08         0.00000E+00
    0.57227E-06        -0.29628E-08         0.00000E+00
    0.57747E-06        -0.44788E-08         0.00000E+00
    0.58433E-06        -0.57795E-08         0.00000E+00
    0.59228E-06        -0.67702E-08         0.00000E+00
    0.60081E-06        -0.74159E-08         0.00000E+00
    0.60952E-06        -0.77166E-08         0.00000E+00
    0.61808E-06        -0.76902E-08         0.00000E+00
    0.62618E-06        -0.73594E-08         0.00000E+00
    0.63359E-06        -0.67451E-08         0.00000E+00
    0.64005E-06        -0.58638E-08         0.00000E+00
    0.64535E-06        -0.47294E-08         0.00000E+00
    0.64927E-06        -0.33568E-08         0.00000E+00
    0.65158E-06        -0.17684E-08         0.00000E+00
    0.65231E-06        -0.92360E-09         0.00000E+00
    0.64914E-06        -0.23649E-08         0.00000E+00
    0.64997E-06        -0.45390E-08         0.00000E+00
    0.65299E-06        -0.85424E-08         0.00000E+00
    0.65849E-06        -0.11794E-07         0.00000E+00
    0.66567E-06        -0.14221E-07         0.00000E+00
    0.67392E-06        -0.15833E-07         0.00000E+00
    0.68270E-06        -0.16688E-07         0.00000E+00
    0.69161E-06        -0.16862E-07         0.00000E+00
    0.70030E-06        -0.16434E-07         0.00000E+00
    0.70849E-06        -0.15468E-07         0.00000E+00
    0.71596E-06        -0.14012E-07         0.00000E+00
    0.72247E-06        -0.12091E-07         0.00000E+00
    0.72781E-06        -0.97207E-08         0.00000E+00
    0.73176E-06        -0.69050E-08         0.00000E+00
    0.73407E-06        -0.36510E-08         0.00000E+00
    0.73480E-06        -0.19157E-08         0.00000E+00
    0.73748E-06        -0.41560E-08         0.00000E+00
    0.73838E-06        -0.78036E-08         0.00000E+00
    0.74159E-06        -0.14319E-07         0.00000E+00
    0.74734E-06        -0.19284E-07         0.00000E+00
    0.75477E-06        -0.22768E-07         0.00000E+00
    0.76318E-06        -0.24912E-07         0.00000E+00
    0.77203E-06        -0.25890E-07         0.00000E+00
    0.78092E-06        -0.25869E-07         0.00000E+00
    0.78953E-06        -0.24996E-07         0.00000E+00
    0.79762E-06        -0.23380E-07         0.00000E+00
    0.80495E-06        -0.21090E-07         0.00000E+00
    0.81135E-06        -0.18161E-07         0.00000E+00
    0.81661E-06        -0.14597E-07         0.00000E+00
    0.82050E-06        -0.10385E-07         0.00000E+00
    0.82278E-06        -0.55055E-08         0.00000E+00
    0.82350E-06        -0.28969E-08         0.00000E+00
    0.83372E-06        -0.59997E-08         0.00000E+00
    0.83473E-06        -0.11137E-07         0.00000E+00
    0.83819E-06        -0.20147E-07         0.00000E+00
    0.84417E-06        -0.26733E-07         0.00000E+00
    0.85173E-06        -0.31146E-07         0.00000E+00
    0.86013E-06        -0.33693E-07         0.00000E+00
    0.86883E-06        -0.34683E-07         0.00000E+00
    0.87746E-06        -0.34393E-07         0.00000E+00
    0.88573E-06        -0.33042E-07         0.00000E+00
    0.89345E-06        -0.30783E-07         0.00000E+00
    0.90044E-06        -0.27708E-07         0.00000E+00
    0.90653E-06        -0.23846E-07         0.00000E+00
    0.91156E-06        -0.19185E-07         0.00000E+00
    0.91531E-06        -0.13680E-07         0.00000E+00
    0.91752E-06        -0.72732E-08         0.00000E+00
    0.91823E-06        -0.38376E-08         0.00000E+00
    0.93780E-06        -0.78482E-08         0.00000E+00
    0.93900E-06        -0.14443E-07         0.00000E+00
    0.94280E-06        -0.25837E-07         0.00000E+00
    0.94901E-06        -0.33863E-07         0.00000E+00
    0.95657E-06        -0.39005E-07         0.00000E+00
    0.96475E-06        -0.41774E-07         0.00000E+00
    0.97303E-06        -0.42643E-07         0.00000E+00
    0.98108E-06        -0.42006E-07         0.00000E+00
    0.98870E-06        -0.40162E-07         0.00000E+00
    0.99575E-06        -0.37305E-07         0.00000E+00
    0.10021E-05        -0.33536E-07         0.00000E+00
    0.10077E-05        -0.28876E-07         0.00000E+00
    0.10124E-05        -0.23277E-07         0.00000E+00
    0.10159E-05        -0.16651E-07         0.00000E+00
    0.10180E-05        -0.88851E-08         0.00000E+00
    0.10187E-05        -0.47031E-08         0.00000E+00
    0.10495E-05        -0.96386E-08         0.00000E+00
    0.10510E-05        -0.17596E-07         0.00000E+00
    0.10553E-05        -0.31137E-07         0.00000E+00
    0.10618E-05        -0.40310E-07         0.00000E+00
    0.10692E-05        -0.45894E-07         0.00000E+00
    0.10769E-05        -0.48652E-07         0.00000E+00
    0.10844E-05        -0.49246E-07         0.00000E+00
    0.10915E-05        -0.48196E-07         0.00000E+00
    0.10981E-05        -0.45873E-07         0.00000E+00
    0.11041E-05        -0.42504E-07         0.00000E+00
    0.11096E-05        -0.38192E-07         0.00000E+00
    0.11144E-05        -0.32933E-07         0.00000E+00
    0.11185E-05        -0.26633E-07         0.00000E+00
    0.11217E-05        -0.19137E-07         0.00000E+00
    0.11237E-05        -0.10261E-07         0.00000E+00
    0.11244E-05        -0.54533E-08         0.00000E+00
    0.11684E-05        -0.11287E-07         0.00000E+00
    0.11704E-05        -0.20429E-07         0.00000E+00
    0.11755E-05        -0.35716E-07         0.00000E+00
    0.11822E-05        -0.45598E-07         0.00000E+00
    0.11893E-05        -0.51240E-07         0.00000E+00
    0.11962E-05        -0.53707E-07         0.00000E+00
    0.12025E-05        -0.53869E-07         0.00000E+00
    0.12083E-05        -0.52364E-07         0.00000E+00
    0.12134E-05        -0.49619E-07         0.00000E+00
    0.12180E-05        -0.45881E-07         0.00000E+00
    0.12222E-05        -0.41239E-07         0.00000E+00
    0.12260E-05        -0.35655E-07         0.00000E+00
    0.12293E-05        -0.28973E-07         0.00000E+00
    0.12321E-05        -0.20953E-07         0.00000E+00
    0.12341E-05        -0.11308E-07         0.00000E+00
    0.12348E-05        -0.60423E-08         0.00000E+00
    0.12940E-05        -0.12679E-07         0.00000E+00
    0.12968E-05        -0.22713E-07         0.00000E+00
    0.13031E-05        -0.39125E-07         0.00000E+00
    0.13101E-05        -0.49103E-07         0.00000E+00
    0.13166E-05        -0.54317E-07         0.00000E+00
    0.13222E-05        -0.56190E-07         0.00000E+00
    0.13268E-05        -0.55790E-07         0.00000E+00
    0.13307E-05        -0.53842E-07         0.00000E+00
    0.13339E-05        -0.50796E-07         0.00000E+00
    0.13367E-05        -0.46891E-07         0.00000E+00
    0.13392E-05        -0.42198E-07         0.00000E+00
    0.13417E-05        -0.36636E-07         0.00000E+00
    0.13441E-05        -0.29980E-07         0.00000E+00
    0.13464E-05        -0.21884E-07         0.00000E+00
    0.13483E-05        -0.11921E-07         0.00000E+00
    0.13491E-05        -0.64170E-08         0.00000E+00
    0.14255E-05        -0.13650E-07         0.00000E+00
    0.14296E-05        -0.24119E-07         0.00000E+00
    0.14376E-05        -0.40732E-07         0.00000E+00
    0.14448E-05        -0.49980E-07         0.00000E+00
    0.14503E-05        -0.54208E-07         0.00000E+00
    0.14540E-05        -0.55222E-07         0.00000E+00
    0.14564E-05        -0.54220E-07         0.00000E+00
    0.14578E-05        -0.51933E-07         0.00000E+00
    0.14586E-05        -0.48783E-07         0.00000E+00
    0.14592E-05        -0.44978E-07         0.00000E+00
    0.14597E-05        -0.40564E-07         0.00000E+00
    0.14605E-05        -0.35429E-07         0.00000E+00
    0.14617E-05        -0.29289E-07         0.00000E+00
    0.14634E-05        -0.21673E-07         0.00000E+00
    0.14654E-05        -0.11970E-07         0.00000E+00
    0.14665E-05        -0.65134E-08         0.00000E+00
    0.15623E-05        -0.13931E-07         0.00000E+00
    0.15682E-05        -0.24128E-07         0.00000E+00
    0.15786E-05        -0.39584E-07         0.00000E+00
    0.15857E-05        -0.47061E-07         0.00000E+00
    0.15894E-05        -0.49787E-07         0.00000E+00
    0.15906E-05        -0.49843E-07         0.00000E+00
    0.15901E-05        -0.48368E-07         0.00000E+00
    0.15886E-05        -0.45979E-07         0.00000E+00
    0.15865E-05        -0.43012E-07         0.00000E+00
    0.15844E-05        -0.39625E-07         0.00000E+00
    0.15825E-05        -0.35841E-07         0.00000E+00
    0.15813E-05        -0.31553E-07         0.00000E+00
    0.15810E-05        -0.26464E-07         0.00000E+00
    0.15820E-05        -0.19996E-07         0.00000E+00
    0.15842E-05        -0.11287E-07         0.00000E+00
    0.15857E-05        -0.62485E-08         0.00000E+00
    0.17039E-05        -0.13035E-07         0.00000E+00
    0.17125E-05        -0.21815E-07         0.00000E+00
    0.17255E-05        -0.34129E-07         0.00000E+00
    0.17315E-05        -0.38751E-07         0.00000E+00
    0.17325E-05        -0.39812E-07         0.00000E+00
    0.17304E-05        -0.39157E-07         0.00000E+00
    0.17264E-05        -0.37570E-07         0.00000E+00
    0.17215E-05        -0.35462E-07         0.00000E+00
    0.17162E-05        -0.33050E-07         0.00000E+00
    0.17111E-05        -0.30431E-07         0.00000E+00
    0.17065E-05        -0.27615E-07         0.00000E+00
    0.17029E-05        -0.24527E-07         0.00000E+00
    0.17007E-05        -0.20971E-07         0.00000E+00
    0.17006E-05        -0.16391E-07         0.00000E+00
    0.17032E-05        -0.96092E-08         0.00000E+00
    0.17053E-05        -0.54776E-08         0.00000E+00
    0.18519E-05        -0.96184E-08         0.00000E+00
    0.18626E-05        -0.15083E-07         0.00000E+00
    0.18770E-05        -0.21789E-07         0.00000E+00
    0.18803E-05        -0.23291E-07         0.00000E+00
    0.18775E-05        -0.23306E-07         0.00000E+00
    0.18714E-05        -0.22565E-07         0.00000E+00
    0.18635E-05        -0.21439E-07         0.00000E+00
    0.18549E-05        -0.20114E-07         0.00000E+00
    0.18461E-05        -0.18686E-07         0.00000E+00
    0.18378E-05        -0.17198E-07         0.00000E+00
    0.18303E-05        -0.15653E-07         0.00000E+00
    0.18241E-05        -0.14018E-07         0.00000E+00
    0.18197E-05        -0.12201E-07         0.00000E+00
    0.18180E-05        -0.10064E-07         0.00000E+00
    0.18205E-05        -0.64489E-08         0.00000E+00
    0.18229E-05        -0.40021E-08         0.00000E+00
    0.19279E-05         0.00000E+00         0.00000E+00
    0.19392E-05         0.00000E+00         0.00000E+00
    0.19536E-05        -0.57002E-20         0.00000E+00
    0.19551E-05         0.60972E-22         0.00000E+00
    0.19502E-05         0.57612E-20         0.00000E+00
    0.19419E-05         0.00000E+00         0.00000E+00
    0.19320E-05         0.00000E+00         0.00000E+00
    0.19214E-05        -0.53196E-20         0.00000E+00
    0.19109E-05        -0.53196E-20         0.00000E+00
    0.19010E-05         0.53640E-20         0.00000E+00
    0.18920E-05         0.53640E-20         0.00000E+00
    0.18845E-05        -0.54053E-20         0.00000E+00
    0.18789E-05        -0.11837E-20         0.00000E+00
    0.18762E-05         0.48277E-20         0.00000E+00
    0.18784E-05         0.60605E-21         0.00000E+00
    0.18809E-05         0.00000E+00         0.00000E+00
CELL_DATA        450
TENSORS stressef double 
    0.97740E+07         0.92483E+04         0.00000E+00
    0.92483E+04        -0.72863E+07         0.00000E+00
    0.00000E+00         0.00000E+00         0.00000E+00
 
    0.91236E+07         0.24260E+05         0.00000E+00
    0.24260E+05        -0.72196E+07         0.00000E+00
    0.00000E+00         0.00000E+00         0.00000E+00
 
    0.84409E+07         0.35691E+05         0.00000E+00
    0.35691E+05        -0.70984E+07         0.00000E+00
    0.00000E+00         0.00000E+00         0.00000E+00
 
    0.77398E+07         0.44700E+05         0.00000E+00
    0.44700E+05        -0.69347E+07         0.00000E+00
    0.00000E+00         0.00000E+00         0.00000E+00
 
    0.70311E+07         0.52281E+05         0.00000E+00
    0.52281E+05        -0.67380E+07         0.00000E+00
    0.00000E+00         0.00000E+00         0.00000E+00
 
    0.63222E+07         0.59256E+05         0.00000E+00
    0.59256E+05        -0.65156E+07         0.00000E+00
    0.00000E+00         0.00000E+00         0.00000E+00
 
    0.56182E+07         0.66272E+05         0.00000E+00
    0.66272E+05        -0.62728E+07         0.00000E+00
    0.00000E+00         0.00000E+00         0.00000E+00
 
    0.49221E+07         0.73801E+05         0.00000E+00
    0.73801E+05        -0.60138E+07         0.00000E+00
    0.00000E+00         0.00000E+00         0.00000E+00
 
    0.42355E+07         0.82152E+05         0.00000E+00
    0.82152E+05        -0.57413E+07         0.00000E+00
    0.00000E+00         0.00000E+00         0.00000E+00
 
    0.35589E+07         0.91477E+05         0.00000E+00
    0.91477E+05        -0.54577E+07         0.00000E+00
    0.00000E+00         0.00000E+00         0.00000E+00
 
    0.28919E+07         0.10179E+06         0.00000E+00
    0.10179E+06        -0.51646E+07         0.00000E+00
    0.00000E+00         0.00000E+00         0.00000E+00
 
    0.22341E+07         0.11299E+06         0.00000E+00
    0.11299E+06        -0.48637E+07         0.00000E+00
    0.00000E+00         0.00000E+00         0.00000E+00
 
    0.15851E+07         0.12485E+06         0.00000E+00
    0.12485E+06        -0.45568E+07         0.00000E+00
    0.00000E+00         0.00000E+00         0.00000E+00
 
    0.94478E+06         0.13710E+06         0.00000E+00
    0.13710E+06        -0.42459E+07         0.00000E+00
    0.00000E+00         0.00000E+00         0.00000E+00
 
    0.31338E+06         0.14937E+06         0.00000E+00
    0.14937E+06        -0.39336E+07         0.00000E+00
    0.00000E+00         0.00000E+00         0.00000E+00
 
    0.97893E+07         0.27477E+05         0.00000E+00
    0.27477E+05        -0.73056E+07         0.00000E+00
    0.00000E+00         0.00000E+00         0.00000E+00
 
    0.91304E+07         0.72025E+05         0.00000E+00
    0.72025E+05        -0.72400E+07         0.00000E+00
    0.00000E+00         0.00000E+00         0.00000E+00
 
    0.84415E+07         0.10591E+06         0.00000E+00
    0.10591E+06        -0.71209E+07         0.00000E+00
    0.00000E+00         0.00000E+00         0.00000E+00
 
    0.77365E+07         0.13262E+06         0.00000E+00
    0.13262E+06        -0.69602E+07         0.00000E+00
    0.00000E+00         0.00000E+00         0.00000E+00
 
    0.70254E+07         0.15514E+06         0.00000E+00
    0.15514E+06        -0.67670E+07         0.00000E+00
    0.00000E+00         0.00000E+00         0.00000E+00
 
    0.63156E+07         0.17593E+06         0.00000E+00
    0.17593E+06        -0.65486E+07         0.00000E+00
    0.00000E+00         0.00000E+00         0.00000E+00
 
    0.56118E+07         0.19694E+06         0.00000E+00
    0.19694E+06        -0.63100E+07         0.00000E+00
    0.00000E+00         0.00000E+00         0.00000E+00
 
    0.49166E+07         0.21957E+06         0.00000E+00
    0.21957E+06        -0.60552E+07         0.00000E+00
    0.00000E+00         0.00000E+00         0.00000E+00
 
    0.42313E+07         0.24474E+06         0.00000E+00
    0.24474E+06        -0.57869E+07         0.00000E+00
    0.00000E+00         0.00000E+00         0.00000E+00
 
    0.35562E+07         0.27290E+06         0.00000E+00
    0.27290E+06        -0.55070E+07         0.00000E+00
    0.00000E+00         0.00000E+00         0.00000E+00
 
    0.28906E+07         0.30409E+06         0.00000E+00
    0.30409E+06        -0.52172E+07         0.00000E+00
    0.00000E+00         0.00000E+00         0.00000E+00
 
    0.22340E+07         0.33797E+06         0.00000E+00
    0.33797E+06        -0.49190E+07         0.00000E+00
    0.00000E+00         0.00000E+00         0.00000E+00
 
    0.15858E+07         0.37391E+06         0.00000E+00
    0.37391E+06        -0.46141E+07         0.00000E+00
    0.00000E+00         0.00000E+00         0.00000E+00
 
    0.94561E+06         0.41100E+06         0.00000E+00
    0.41100E+06        -0.43043E+07         0.00000E+00
    0.00000E+00         0.00000E+00         0.00000E+00
 
    0.31376E+06         0.44820E+06         0.00000E+00
    0.44820E+06        -0.39923E+07         0.00000E+00
    0.00000E+00         0.00000E+00         0.00000E+00
 
    0.98182E+07         0.44899E+05         0.00000E+00
    0.44899E+05        -0.73448E+07         0.00000E+00
    0.00000E+00         0.00000E+00         0.00000E+00
 
    0.91425E+07         0.11752E+06         0.00000E+00
    0.11752E+06        -0.72815E+07         0.00000E+00
    0.00000E+00         0.00000E+00         0.00000E+00
 
    0.84416E+07         0.17264E+06         0.00000E+00
    0.17264E+06        -0.71666E+07         0.00000E+00
    0.00000E+00         0.00000E+00         0.00000E+00
 
    0.77286E+07         0.21610E+06         0.00000E+00
    0.21610E+06        -0.70118E+07         0.00000E+00
    0.00000E+00         0.00000E+00         0.00000E+00
 
    0.70131E+07         0.25288E+06         0.00000E+00
    0.25288E+06        -0.68258E+07         0.00000E+00
    0.00000E+00         0.00000E+00         0.00000E+00
 
    0.63016E+07         0.28710E+06         0.00000E+00
    0.28710E+06        -0.66153E+07         0.00000E+00
    0.00000E+00         0.00000E+00         0.00000E+00
 
    0.55982E+07         0.32197E+06         0.00000E+00
    0.32197E+06        -0.63852E+07         0.00000E+00
    0.00000E+00         0.00000E+00         0.00000E+00
 
    0.49050E+07         0.35983E+06         0.00000E+00
    0.35983E+06        -0.61389E+07         0.00000E+00
    0.00000E+00         0.00000E+00         0.00000E+00
 
    0.42225E+07         0.40218E+06         0.00000E+00
    0.40218E+06        -0.58787E+07         0.00000E+00
    0.00000E+00         0.00000E+00         0.00000E+00
 
    0.35505E+07         0.44975E+06         0.00000E+00
    0.44975E+06        -0.56064E+07         0.00000E+00
    0.00000E+00         0.00000E+00         0.00000E+00
 
    0.28879E+07         0.50256E+06         0.00000E+00
    0.50256E+06        -0.53232E+07         0.00000E+00
    0.00000E+00         0.00000E+00         0.00000E+00
 
    0.22337E+07         0.56002E+06         0.00000E+00
    0.56002E+06        -0.50304E+07         0.00000E+00
    0.00000E+00         0.00000E+00         0.00000E+00
 
    0.15870E+07         0.62102E+06         0.00000E+00
    0.62102E+06        -0.47294E+07         0.00000E+00
    0.00000E+00         0.00000E+00         0.00000E+00
 
    0.94726E+06         0.68406E+06         0.00000E+00
    0.68406E+06        -0.44220E+07         0.00000E+00
    0.00000E+00         0.00000E+00         0.00000E+00
 
    0.31454E+06         0.74730E+06         0.00000E+00
    0.74730E+06        -0.41107E+07         0.00000E+00
    0.00000E+00         0.00000E+00         0.00000E+00
 
    0.98575E+07         0.60965E+05         0.00000E+00
    0.60965E+05        -0.74051E+07         0.00000E+00
    0.00000E+00         0.00000E+00         0.00000E+00
 
    0.91569E+07         0.15921E+06         0.00000E+00
    0.15921E+06        -0.73451E+07         0.00000E+00
    0.00000E+00         0.00000E+00         0.00000E+00
 
    0.84383E+07         0.23352E+06         0.00000E+00
    0.23352E+06        -0.72367E+07         0.00000E+00
    0.00000E+00         0.00000E+00         0.00000E+00
 
    0.77139E+07         0.29213E+06         0.00000E+00
    0.29213E+06        -0.70908E+07         0.00000E+00
    0.00000E+00         0.00000E+00         0.00000E+00
 
    0.69922E+07         0.34206E+06         0.00000E+00
    0.34206E+06        -0.69156E+07         0.00000E+00
    0.00000E+00         0.00000E+00         0.00000E+00
 
    0.62786E+07         0.38905E+06         0.00000E+00
    0.38905E+06        -0.67172E+07         0.00000E+00
    0.00000E+00         0.00000E+00         0.00000E+00
 
    0.55763E+07         0.43759E+06         0.00000E+00
    0.43759E+06        -0.64998E+07         0.00000E+00
    0.00000E+00         0.00000E+00         0.00000E+00
 
    0.48863E+07         0.49091E+06         0.00000E+00
    0.49091E+06        -0.62663E+07         0.00000E+00
    0.00000E+00         0.00000E+00         0.00000E+00
 
    0.42083E+07         0.55105E+06         0.00000E+00
    0.55105E+06        -0.60185E+07         0.00000E+00
    0.00000E+00         0.00000E+00         0.00000E+00
 
    0.35412E+07         0.61896E+06         0.00000E+00
    0.61896E+06        -0.57575E+07         0.00000E+00
    0.00000E+00         0.00000E+00         0.00000E+00
 
    0.28834E+07         0.69463E+06         0.00000E+00
    0.69463E+06        -0.54843E+07         0.00000E+00
    0.00000E+00         0.00000E+00         0.00000E+00
 
    0.22331E+07         0.77716E+06         0.00000E+00
    0.77716E+06        -0.51995E+07         0.00000E+00
    0.00000E+00         0.00000E+00         0.00000E+00
 
    0.15888E+07         0.86491E+06         0.00000E+00
    0.86491E+06        -0.49045E+07         0.00000E+00
    0.00000E+00         0.00000E+00         0.00000E+00
 
    0.94972E+06         0.95569E+06         0.00000E+00
    0.95569E+06        -0.46006E+07         0.00000E+00
    0.00000E+00         0.00000E+00         0.00000E+00
 
    0.31570E+06         0.10469E+07         0.00000E+00
    0.10469E+07        -0.42903E+07         0.00000E+00
    0.00000E+00         0.00000E+00         0.00000E+00
 
    0.99024E+07         0.75108E+05         0.00000E+00
    0.75108E+05        -0.74882E+07         0.00000E+00
    0.00000E+00         0.00000E+00         0.00000E+00
 
    0.91693E+07         0.19551E+06         0.00000E+00
    0.19551E+06        -0.74328E+07         0.00000E+00
    0.00000E+00         0.00000E+00         0.00000E+00
 
    0.84279E+07         0.28614E+06         0.00000E+00
    0.28614E+06        -0.73331E+07         0.00000E+00
    0.00000E+00         0.00000E+00         0.00000E+00
 
    0.76890E+07         0.35769E+06         0.00000E+00
    0.35769E+06        -0.71992E+07         0.00000E+00
    0.00000E+00         0.00000E+00         0.00000E+00
 
    0.69597E+07         0.41921E+06         0.00000E+00
    0.41921E+06        -0.70385E+07         0.00000E+00
    0.00000E+00         0.00000E+00         0.00000E+00
 
    0.62441E+07         0.47809E+06         0.00000E+00
    0.47809E+06        -0.68563E+07         0.00000E+00
    0.00000E+00         0.00000E+00         0.00000E+00
 
    0.55440E+07         0.54003E+06         0.00000E+00
    0.54003E+06        -0.66561E+07         0.00000E+00
    0.00000E+00         0.00000E+00         0.00000E+00
 
    0.48590E+07         0.60912E+06         0.00000E+00
    0.60912E+06        -0.64397E+07         0.00000E+00
    0.00000E+00         0.00000E+00         0.00000E+00
 
    0.41876E+07         0.68790E+06         0.00000E+00
    0.68790E+06        -0.62084E+07         0.00000E+00
    0.00000E+00         0.00000E+00         0.00000E+00
 
    0.35277E+07         0.77750E+06         0.00000E+00
    0.77750E+06        -0.59627E+07         0.00000E+00
    0.00000E+00         0.00000E+00         0.00000E+00
 
    0.28766E+07         0.87777E+06         0.00000E+00
    0.87777E+06        -0.57027E+07         0.00000E+00
    0.00000E+00         0.00000E+00         0.00000E+00
 
    0.22317E+07         0.98744E+06         0.00000E+00
    0.98744E+06        -0.54288E+07         0.00000E+00
    0.00000E+00         0.00000E+00         0.00000E+00
 
    0.15909E+07         0.11043E+07         0.00000E+00
    0.11043E+07        -0.51417E+07         0.00000E+00
    0.00000E+00         0.00000E+00         0.00000E+00
 
    0.95295E+06         0.12253E+07         0.00000E+00
    0.12253E+07        -0.48426E+07         0.00000E+00
    0.00000E+00         0.00000E+00         0.00000E+00
 
    0.31726E+06         0.13471E+07         0.00000E+00
    0.13471E+07        -0.45335E+07         0.00000E+00
    0.00000E+00         0.00000E+00         0.00000E+00
 
    0.99461E+07         0.86743E+05         0.00000E+00
    0.86743E+05        -0.75964E+07         0.00000E+00
    0.00000E+00         0.00000E+00         0.00000E+00
 
    0.91735E+07         0.22481E+06         0.00000E+00
    0.22481E+06        -0.75469E+07         0.00000E+00
    0.00000E+00         0.00000E+00         0.00000E+00
 
    0.84048E+07         0.32806E+06         0.00000E+00
    0.32806E+06        -0.74583E+07         0.00000E+00
    0.00000E+00         0.00000E+00         0.00000E+00
 
    0.76491E+07         0.40969E+06         0.00000E+00
    0.40969E+06        -0.73396E+07         0.00000E+00
    0.00000E+00         0.00000E+00         0.00000E+00
 
    0.69118E+07         0.48082E+06         0.00000E+00
    0.48082E+06        -0.71973E+07         0.00000E+00
    0.00000E+00         0.00000E+00         0.00000E+00
 
    0.61950E+07         0.55046E+06         0.00000E+00
    0.55046E+06        -0.70356E+07         0.00000E+00
    0.00000E+00         0.00000E+00         0.00000E+00
 
    0.54987E+07         0.62550E+06         0.00000E+00
    0.62550E+06        -0.68569E+07         0.00000E+00
    0.00000E+00         0.00000E+00         0.00000E+00
 
    0.48210E+07         0.71080E+06         0.00000E+00
    0.71080E+06        -0.66622E+07         0.00000E+00
    0.00000E+00         0.00000E+00         0.00000E+00
 
    0.41589E+07         0.80933E+06         0.00000E+00
    0.80933E+06        -0.64516E+07         0.00000E+00
    0.00000E+00         0.00000E+00         0.00000E+00
 
    0.35087E+07         0.92233E+06         0.00000E+00
    0.92233E+06        -0.62250E+07         0.00000E+00
    0.00000E+00         0.00000E+00         0.00000E+00
 
    0.28667E+07         0.10494E+07         0.00000E+00
    0.10494E+07        -0.59816E+07         0.00000E+00
    0.00000E+00         0.00000E+00         0.00000E+00
 
    0.22292E+07         0.11889E+07         0.00000E+00
    0.11889E+07        -0.57213E+07         0.00000E+00
    0.00000E+00         0.00000E+00         0.00000E+00
 
    0.15933E+07         0.13379E+07         0.00000E+00
    0.13379E+07        -0.54442E+07         0.00000E+00
    0.00000E+00         0.00000E+00         0.00000E+00
 
    0.95690E+06         0.14925E+07         0.00000E+00
    0.14925E+07        -0.51510E+07         0.00000E+00
    0.00000E+00         0.00000E+00         0.00000E+00
 
    0.31921E+06         0.16482E+07         0.00000E+00
    0.16482E+07        -0.48435E+07         0.00000E+00
    0.00000E+00         0.00000E+00         0.00000E+00
 
    0.99802E+07         0.95255E+05         0.00000E+00
    0.95255E+05        -0.77327E+07         0.00000E+00
    0.00000E+00         0.00000E+00         0.00000E+00
 
    0.91619E+07         0.24543E+06         0.00000E+00
    0.24543E+06        -0.76906E+07         0.00000E+00
    0.00000E+00         0.00000E+00         0.00000E+00
 
    0.83624E+07         0.35675E+06         0.00000E+00
    0.35675E+06        -0.76155E+07         0.00000E+00
    0.00000E+00         0.00000E+00         0.00000E+00
 
    0.75886E+07         0.44500E+06         0.00000E+00
    0.44500E+06        -0.75154E+07         0.00000E+00
    0.00000E+00         0.00000E+00         0.00000E+00
 
    0.68434E+07         0.52337E+06         0.00000E+00
    0.52337E+06        -0.73954E+07         0.00000E+00
    0.00000E+00         0.00000E+00         0.00000E+00
 
    0.61270E+07         0.60243E+06         0.00000E+00
    0.60243E+06        -0.72586E+07         0.00000E+00
    0.00000E+00         0.00000E+00         0.00000E+00
 
    0.54370E+07         0.69021E+06         0.00000E+00
    0.69021E+06        -0.71059E+07         0.00000E+00
    0.00000E+00         0.00000E+00         0.00000E+00
 
    0.47697E+07         0.79228E+06         0.00000E+00
    0.79228E+06        -0.69372E+07         0.00000E+00
    0.00000E+00         0.00000E+00         0.00000E+00
 
    0.41201E+07         0.91196E+06         0.00000E+00
    0.91196E+06        -0.67517E+07         0.00000E+00
    0.00000E+00         0.00000E+00         0.00000E+00
 
    0.34829E+07         0.10505E+07         0.00000E+00
    0.10505E+07        -0.65481E+07         0.00000E+00
    0.00000E+00         0.00000E+00         0.00000E+00
 
    0.28528E+07         0.12071E+07         0.00000E+00
    0.12071E+07        -0.63248E+07         0.00000E+00
    0.00000E+00         0.00000E+00         0.00000E+00
 
    0.22250E+07         0.13797E+07         0.00000E+00
    0.13797E+07        -0.60808E+07         0.00000E+00
    0.00000E+00         0.00000E+00         0.00000E+00
 
    0.15955E+07         0.15645E+07         0.00000E+00
    0.15645E+07        -0.58157E+07         0.00000E+00
    0.00000E+00         0.00000E+00         0.00000E+00
 
    0.96148E+06         0.17566E+07         0.00000E+00
    0.17566E+07        -0.55297E+07         0.00000E+00
    0.00000E+00         0.00000E+00         0.00000E+00
 
    0.32154E+06         0.19504E+07         0.00000E+00
    0.19504E+07        -0.52241E+07         0.00000E+00
    0.00000E+00         0.00000E+00         0.00000E+00
 
    0.99944E+07         0.10001E+06         0.00000E+00
    0.10001E+06        -0.79011E+07         0.00000E+00
    0.00000E+00         0.00000E+00         0.00000E+00
 
    0.91253E+07         0.25564E+06         0.00000E+00
    0.25564E+06        -0.78676E+07         0.00000E+00
    0.00000E+00         0.00000E+00         0.00000E+00
 
    0.82925E+07         0.36966E+06         0.00000E+00
    0.36966E+06        -0.78086E+07         0.00000E+00
    0.00000E+00         0.00000E+00         0.00000E+00
 
    0.75002E+07         0.46046E+06         0.00000E+00
    0.46046E+06        -0.77305E+07         0.00000E+00
    0.00000E+00         0.00000E+00         0.00000E+00
 
    0.67487E+07         0.54330E+06         0.00000E+00
    0.54330E+06        -0.76370E+07         0.00000E+00
    0.00000E+00         0.00000E+00         0.00000E+00
 
    0.60352E+07         0.63027E+06         0.00000E+00
    0.63027E+06        -0.75294E+07         0.00000E+00
    0.00000E+00         0.00000E+00         0.00000E+00
 
    0.53551E+07         0.73043E+06         0.00000E+00
    0.73043E+06        -0.74073E+07         0.00000E+00
    0.00000E+00         0.00000E+00         0.00000E+00
 
    0.47019E+07         0.84998E+06         0.00000E+00
    0.84998E+06        -0.72692E+07         0.00000E+00
    0.00000E+00         0.00000E+00         0.00000E+00
 
    0.40688E+07         0.99244E+06         0.00000E+00
    0.99244E+06        -0.71130E+07         0.00000E+00
    0.00000E+00         0.00000E+00         0.00000E+00
 
    0.34484E+07         0.11589E+07         0.00000E+00
    0.11589E+07        -0.69362E+07         0.00000E+00
    0.00000E+00         0.00000E+00         0.00000E+00
 
    0.28337E+07         0.13484E+07         0.00000E+00
    0.13484E+07        -0.67364E+07         0.00000E+00
    0.00000E+00         0.00000E+00         0.00000E+00
 
    0.22184E+07         0.15579E+07         0.00000E+00
    0.15579E+07        -0.65116E+07         0.00000E+00
    0.00000E+00         0.00000E+00         0.00000E+00
 
    0.15973E+07         0.17828E+07         0.00000E+00
    0.17828E+07        -0.62605E+07         0.00000E+00
    0.00000E+00         0.00000E+00         0.00000E+00
 
    0.96657E+06         0.20172E+07         0.00000E+00
    0.20172E+07        -0.59829E+07         0.00000E+00
    0.00000E+00         0.00000E+00         0.00000E+00
 
    0.32423E+06         0.22540E+07         0.00000E+00
    0.22540E+07        -0.56795E+07         0.00000E+00
    0.00000E+00         0.00000E+00         0.00000E+00
 
    0.99763E+07         0.10033E+06         0.00000E+00
    0.10033E+06        -0.81058E+07         0.00000E+00
    0.00000E+00         0.00000E+00         0.00000E+00
 
    0.90526E+07         0.25367E+06         0.00000E+00
    0.25367E+06        -0.80825E+07         0.00000E+00
    0.00000E+00         0.00000E+00         0.00000E+00
 
    0.81855E+07         0.36416E+06         0.00000E+00
    0.36416E+06        -0.80423E+07         0.00000E+00
    0.00000E+00         0.00000E+00         0.00000E+00
 
    0.73758E+07         0.45288E+06         0.00000E+00
    0.45288E+06        -0.79899E+07         0.00000E+00
    0.00000E+00         0.00000E+00         0.00000E+00
 
    0.66206E+07         0.53709E+06         0.00000E+00
    0.53709E+06        -0.79269E+07         0.00000E+00
    0.00000E+00         0.00000E+00         0.00000E+00
 
    0.59139E+07         0.63030E+06         0.00000E+00
    0.63030E+06        -0.78529E+07         0.00000E+00
    0.00000E+00         0.00000E+00         0.00000E+00
 
    0.52480E+07         0.74252E+06         0.00000E+00
    0.74252E+06        -0.77660E+07         0.00000E+00
    0.00000E+00         0.00000E+00         0.00000E+00
 
    0.46140E+07         0.88040E+06         0.00000E+00
    0.88040E+06        -0.76629E+07         0.00000E+00
    0.00000E+00         0.00000E+00         0.00000E+00
 
    0.40022E+07         0.10476E+07         0.00000E+00
    0.10476E+07        -0.75403E+07         0.00000E+00
    0.00000E+00         0.00000E+00         0.00000E+00
 
    0.34032E+07         0.12449E+07         0.00000E+00
    0.12449E+07        -0.73942E+07         0.00000E+00
    0.00000E+00         0.00000E+00         0.00000E+00
 
    0.28079E+07         0.14709E+07         0.00000E+00
    0.14709E+07        -0.72211E+07         0.00000E+00
    0.00000E+00         0.00000E+00         0.00000E+00
 
    0.22084E+07         0.17217E+07         0.00000E+00
    0.17217E+07        -0.70182E+07         0.00000E+00
    0.00000E+00         0.00000E+00         0.00000E+00
 
    0.15981E+07         0.19917E+07         0.00000E+00
    0.19917E+07        -0.67832E+07         0.00000E+00
    0.00000E+00         0.00000E+00         0.00000E+00
 
    0.97197E+06         0.22737E+07         0.00000E+00
    0.22737E+07        -0.65151E+07         0.00000E+00
    0.00000E+00         0.00000E+00         0.00000E+00
 
    0.32724E+06         0.25593E+07         0.00000E+00
    0.25593E+07        -0.62143E+07         0.00000E+00
    0.00000E+00         0.00000E+00         0.00000E+00
 
    0.99115E+07         0.95534E+05         0.00000E+00
    0.95534E+05        -0.83523E+07         0.00000E+00
    0.00000E+00         0.00000E+00         0.00000E+00
 
    0.89309E+07         0.23770E+06         0.00000E+00
    0.23770E+06        -0.83407E+07         0.00000E+00
    0.00000E+00         0.00000E+00         0.00000E+00
 
    0.80300E+07         0.33766E+06         0.00000E+00
    0.33766E+06        -0.83221E+07         0.00000E+00
    0.00000E+00         0.00000E+00         0.00000E+00
 
    0.72057E+07         0.41913E+06         0.00000E+00
    0.41913E+06        -0.82989E+07         0.00000E+00
    0.00000E+00         0.00000E+00         0.00000E+00
 
    0.64510E+07         0.50129E+06         0.00000E+00
    0.50129E+06        -0.82706E+07         0.00000E+00
    0.00000E+00         0.00000E+00         0.00000E+00
 
    0.57563E+07         0.59900E+06         0.00000E+00
    0.59900E+06        -0.82347E+07         0.00000E+00
    0.00000E+00         0.00000E+00         0.00000E+00
 
    0.51105E+07         0.72298E+06         0.00000E+00
    0.72298E+06        -0.81873E+07         0.00000E+00
    0.00000E+00         0.00000E+00         0.00000E+00
 
    0.45015E+07         0.88024E+06         0.00000E+00
    0.88024E+06        -0.81236E+07         0.00000E+00
    0.00000E+00         0.00000E+00         0.00000E+00
 
    0.39169E+07         0.10743E+07         0.00000E+00
    0.10743E+07        -0.80385E+07         0.00000E+00
    0.00000E+00         0.00000E+00         0.00000E+00
 
    0.33446E+07         0.13058E+07         0.00000E+00
    0.13058E+07        -0.79268E+07         0.00000E+00
    0.00000E+00         0.00000E+00         0.00000E+00
 
    0.27736E+07         0.15723E+07         0.00000E+00
    0.15723E+07        -0.77839E+07         0.00000E+00
    0.00000E+00         0.00000E+00         0.00000E+00
 
    0.21939E+07         0.18693E+07         0.00000E+00
    0.18693E+07        -0.76055E+07         0.00000E+00
    0.00000E+00         0.00000E+00         0.00000E+00
 
    0.15972E+07         0.21900E+07         0.00000E+00
    0.21900E+07        -0.73886E+07         0.00000E+00
    0.00000E+00         0.00000E+00         0.00000E+00
 
    0.97739E+06         0.25257E+07         0.00000E+00
    0.25257E+07        -0.71313E+07         0.00000E+00
    0.00000E+00         0.00000E+00         0.00000E+00
 
    0.33051E+06         0.28665E+07         0.00000E+00
    0.28665E+07        -0.68333E+07         0.00000E+00
    0.00000E+00         0.00000E+00         0.00000E+00
 
    0.97833E+07         0.84915E+05         0.00000E+00
    0.84915E+05        -0.86467E+07         0.00000E+00
    0.00000E+00         0.00000E+00         0.00000E+00
 
    0.87457E+07         0.20590E+06         0.00000E+00
    0.20590E+06        -0.86484E+07         0.00000E+00
    0.00000E+00         0.00000E+00         0.00000E+00
 
    0.78136E+07         0.28754E+06         0.00000E+00
    0.28754E+06        -0.86542E+07         0.00000E+00
    0.00000E+00         0.00000E+00         0.00000E+00
 
    0.69791E+07         0.35613E+06         0.00000E+00
    0.35613E+06        -0.86638E+07         0.00000E+00
    0.00000E+00         0.00000E+00         0.00000E+00
 
    0.62308E+07         0.43264E+06         0.00000E+00
    0.43264E+06        -0.86742E+07         0.00000E+00
    0.00000E+00         0.00000E+00         0.00000E+00
 
    0.55549E+07         0.53302E+06         0.00000E+00
    0.53302E+06        -0.86807E+07         0.00000E+00
    0.00000E+00         0.00000E+00         0.00000E+00
 
    0.49363E+07         0.66859E+06         0.00000E+00
    0.66859E+06        -0.86771E+07         0.00000E+00
    0.00000E+00         0.00000E+00         0.00000E+00
 
    0.43595E+07         0.84645E+06         0.00000E+00
    0.84645E+06        -0.86568E+07         0.00000E+00
    0.00000E+00         0.00000E+00         0.00000E+00
 
    0.38089E+07         0.10699E+07         0.00000E+00
    0.10699E+07        -0.86131E+07         0.00000E+00
    0.00000E+00         0.00000E+00         0.00000E+00
 
    0.32698E+07         0.13390E+07         0.00000E+00
    0.13390E+07        -0.85394E+07         0.00000E+00
    0.00000E+00         0.00000E+00         0.00000E+00
 
    0.27287E+07         0.16506E+07         0.00000E+00
    0.16506E+07        -0.84295E+07         0.00000E+00
    0.00000E+00         0.00000E+00         0.00000E+00
 
    0.21734E+07         0.19992E+07         0.00000E+00
    0.19992E+07        -0.82782E+07         0.00000E+00
    0.00000E+00         0.00000E+00         0.00000E+00
 
    0.15939E+07         0.23765E+07         0.00000E+00
    0.23765E+07        -0.80814E+07         0.00000E+00
    0.00000E+00         0.00000E+00         0.00000E+00
 
    0.98241E+06         0.27727E+07         0.00000E+00
    0.27727E+07        -0.78362E+07         0.00000E+00
    0.00000E+00         0.00000E+00         0.00000E+00
 
    0.33393E+06         0.31759E+07         0.00000E+00
    0.31759E+07        -0.75414E+07         0.00000E+00
    0.00000E+00         0.00000E+00         0.00000E+00
 
    0.95729E+07         0.67759E+05         0.00000E+00
    0.67759E+05        -0.89961E+07         0.00000E+00
    0.00000E+00         0.00000E+00         0.00000E+00
 
    0.84804E+07         0.15648E+06         0.00000E+00
    0.15648E+06        -0.90128E+07         0.00000E+00
    0.00000E+00         0.00000E+00         0.00000E+00
 
    0.75220E+07         0.21132E+06         0.00000E+00
    0.21132E+06        -0.90458E+07         0.00000E+00
    0.00000E+00         0.00000E+00         0.00000E+00
 
    0.66841E+07         0.26102E+06         0.00000E+00
    0.26102E+06        -0.90916E+07         0.00000E+00
    0.00000E+00         0.00000E+00         0.00000E+00
 
    0.59501E+07         0.32811E+06         0.00000E+00
    0.32811E+06        -0.91446E+07         0.00000E+00
    0.00000E+00         0.00000E+00         0.00000E+00
 
    0.53013E+07         0.42940E+06         0.00000E+00
    0.42940E+06        -0.91974E+07         0.00000E+00
    0.00000E+00         0.00000E+00         0.00000E+00
 
    0.47186E+07         0.57651E+06         0.00000E+00
    0.57651E+06        -0.92415E+07         0.00000E+00
    0.00000E+00         0.00000E+00         0.00000E+00
 
    0.41823E+07         0.77640E+06         0.00000E+00
    0.77640E+06        -0.92684E+07         0.00000E+00
    0.00000E+00         0.00000E+00         0.00000E+00
 
    0.36738E+07         0.10320E+07         0.00000E+00
    0.10320E+07        -0.92695E+07         0.00000E+00
    0.00000E+00         0.00000E+00         0.00000E+00
 
    0.31752E+07         0.13425E+07         0.00000E+00
    0.13425E+07        -0.92367E+07         0.00000E+00
    0.00000E+00         0.00000E+00         0.00000E+00
 
    0.26704E+07         0.17040E+07         0.00000E+00
    0.17040E+07        -0.91627E+07         0.00000E+00
    0.00000E+00         0.00000E+00         0.00000E+00
 
    0.21450E+07         0.21098E+07         0.00000E+00
    0.21098E+07        -0.90409E+07         0.00000E+00
    0.00000E+00         0.00000E+00         0.00000E+00
 
    0.15868E+07         0.25504E+07         0.00000E+00
    0.25504E+07        -0.88660E+07         0.00000E+00
    0.00000E+00         0.00000E+00         0.00000E+00
 
    0.98644E+06         0.30142E+07         0.00000E+00
    0.30142E+07        -0.86341E+07         0.00000E+00
    0.00000E+00         0.00000E+00         0.00000E+00
 
    0.33733E+06         0.34876E+07         0.00000E+00
    0.34876E+07        -0.83430E+07         0.00000E+00
    0.00000E+00         0.00000E+00         0.00000E+00
 
    0.92591E+07         0.43359E+05         0.00000E+00
    0.43359E+05        -0.94086E+07         0.00000E+00
    0.00000E+00         0.00000E+00         0.00000E+00
 
    0.81168E+07         0.87696E+05         0.00000E+00
    0.87696E+05        -0.94419E+07         0.00000E+00
    0.00000E+00         0.00000E+00         0.00000E+00
 
    0.71396E+07         0.10667E+06         0.00000E+00
    0.10667E+06        -0.95047E+07         0.00000E+00
    0.00000E+00         0.00000E+00         0.00000E+00
 
    0.63074E+07         0.13121E+06         0.00000E+00
    0.13121E+06        -0.95902E+07         0.00000E+00
    0.00000E+00         0.00000E+00         0.00000E+00
 
    0.55976E+07         0.18510E+06         0.00000E+00
    0.18510E+06        -0.96893E+07         0.00000E+00
    0.00000E+00         0.00000E+00         0.00000E+00
 
    0.49864E+07         0.28566E+06         0.00000E+00
    0.28566E+06        -0.97917E+07         0.00000E+00
    0.00000E+00         0.00000E+00         0.00000E+00
 
    0.44496E+07         0.44447E+06         0.00000E+00
    0.44447E+06        -0.98868E+07         0.00000E+00
    0.00000E+00         0.00000E+00         0.00000E+00
 
    0.39637E+07         0.66805E+06         0.00000E+00
    0.66805E+06        -0.99639E+07         0.00000E+00
    0.00000E+00         0.00000E+00         0.00000E+00
 
    0.35063E+07         0.95861E+06         0.00000E+00
    0.95861E+06        -0.10013E+08         0.00000E+00
    0.00000E+00         0.00000E+00         0.00000E+00
 
    0.30565E+07         0.13145E+07         0.00000E+00
    0.13145E+07        -0.10023E+08         0.00000E+00
    0.00000E+00         0.00000E+00         0.00000E+00
 
    0.25954E+07         0.17309E+07         0.00000E+00
    0.17309E+07        -0.99877E+07         0.00000E+00
    0.00000E+00         0.00000E+00         0.00000E+00
 
    0.21062E+07         0.21998E+07         0.00000E+00
    0.21998E+07        -0.98975E+07         0.00000E+00
    0.00000E+00         0.00000E+00         0.00000E+00
 
    0.15744E+07         0.27105E+07         0.00000E+00
    0.27105E+07        -0.97463E+07         0.00000E+00
    0.00000E+00         0.00000E+00         0.00000E+00
 
    0.98861E+06         0.32496E+07         0.00000E+00
    0.32496E+07        -0.95289E+07         0.00000E+00
    0.00000E+00         0.00000E+00         0.00000E+00
 
    0.34046E+06         0.38017E+07         0.00000E+00
    0.38017E+07        -0.92421E+07         0.00000E+00
    0.00000E+00         0.00000E+00         0.00000E+00
 
    0.88185E+07         0.11036E+05         0.00000E+00
    0.11036E+05        -0.98935E+07         0.00000E+00
    0.00000E+00         0.00000E+00         0.00000E+00
 
    0.76348E+07        -0.20584E+04         0.00000E+00
   -0.20584E+04        -0.99449E+07         0.00000E+00
    0.00000E+00         0.00000E+00         0.00000E+00
 
    0.66493E+07        -0.28479E+05         0.00000E+00
   -0.28479E+05        -0.10040E+08         0.00000E+00
    0.00000E+00         0.00000E+00         0.00000E+00
 
    0.58347E+07        -0.35458E+05         0.00000E+00
   -0.35458E+05        -0.10168E+08         0.00000E+00
    0.00000E+00         0.00000E+00         0.00000E+00
 
    0.51616E+07         0.16057E+04         0.00000E+00
    0.16057E+04        -0.10316E+08         0.00000E+00
    0.00000E+00         0.00000E+00         0.00000E+00
 
    0.46001E+07         0.10006E+06         0.00000E+00
    0.10006E+06        -0.10471E+08         0.00000E+00
    0.00000E+00         0.00000E+00         0.00000E+00
 
    0.41210E+07         0.27098E+06         0.00000E+00
    0.27098E+06        -0.10619E+08         0.00000E+00
    0.00000E+00         0.00000E+00         0.00000E+00
 
    0.36965E+07         0.52011E+06         0.00000E+00
    0.52011E+06        -0.10749E+08         0.00000E+00
    0.00000E+00         0.00000E+00         0.00000E+00
 
    0.33004E+07         0.84868E+06         0.00000E+00
    0.84868E+06        -0.10847E+08         0.00000E+00
    0.00000E+00         0.00000E+00         0.00000E+00
 
    0.29088E+07         0.12541E+07         0.00000E+00
    0.12541E+07        -0.10903E+08         0.00000E+00
    0.00000E+00         0.00000E+00         0.00000E+00
 
    0.24998E+07         0.17303E+07         0.00000E+00
    0.17303E+07        -0.10908E+08         0.00000E+00
    0.00000E+00         0.00000E+00         0.00000E+00
 
    0.20540E+07         0.22682E+07         0.00000E+00
    0.22682E+07        -0.10851E+08         0.00000E+00
    0.00000E+00         0.00000E+00         0.00000E+00
 
    0.15546E+07         0.28558E+07         0.00000E+00
    0.28558E+07        -0.10725E+08         0.00000E+00
    0.00000E+00         0.00000E+00         0.00000E+00
 
    0.98773E+06         0.34783E+07         0.00000E+00
    0.34783E+07        -0.10523E+08         0.00000E+00
    0.00000E+00         0.00000E+00         0.00000E+00
 
    0.34293E+06         0.41179E+07         0.00000E+00
    0.41179E+07        -0.10242E+08         0.00000E+00
    0.00000E+00         0.00000E+00         0.00000E+00
 
    0.82253E+07        -0.29845E+05         0.00000E+00
   -0.29845E+05        -0.10461E+08         0.00000E+00
    0.00000E+00         0.00000E+00         0.00000E+00
 
    0.70125E+07        -0.11420E+06         0.00000E+00
   -0.11420E+06        -0.10532E+08         0.00000E+00
    0.00000E+00         0.00000E+00         0.00000E+00
 
    0.60330E+07        -0.19577E+06         0.00000E+00
   -0.19577E+06        -0.10661E+08         0.00000E+00
    0.00000E+00         0.00000E+00         0.00000E+00
 
    0.52509E+07        -0.24049E+06         0.00000E+00
   -0.24049E+06        -0.10834E+08         0.00000E+00
    0.00000E+00         0.00000E+00         0.00000E+00
 
    0.46293E+07        -0.22354E+06         0.00000E+00
   -0.22354E+06        -0.11033E+08         0.00000E+00
    0.00000E+00         0.00000E+00         0.00000E+00
 
    0.41318E+07        -0.12816E+06         0.00000E+00
   -0.12816E+06        -0.11242E+08         0.00000E+00
    0.00000E+00         0.00000E+00         0.00000E+00
 
    0.37238E+07         0.55654E+05         0.00000E+00
    0.55654E+05        -0.11446E+08         0.00000E+00
    0.00000E+00         0.00000E+00         0.00000E+00
 
    0.33729E+07         0.33239E+06         0.00000E+00
    0.33239E+06        -0.11628E+08         0.00000E+00
    0.00000E+00         0.00000E+00         0.00000E+00
 
    0.30494E+07         0.70202E+06         0.00000E+00
    0.70202E+06        -0.11777E+08         0.00000E+00
    0.00000E+00         0.00000E+00         0.00000E+00
 
    0.27261E+07         0.11607E+07         0.00000E+00
    0.11607E+07        -0.11879E+08         0.00000E+00
    0.00000E+00         0.00000E+00         0.00000E+00
 
    0.23785E+07         0.17015E+07         0.00000E+00
    0.17015E+07        -0.11925E+08         0.00000E+00
    0.00000E+00         0.00000E+00         0.00000E+00
 
    0.19845E+07         0.23141E+07         0.00000E+00
    0.23141E+07        -0.11902E+08         0.00000E+00
    0.00000E+00         0.00000E+00         0.00000E+00
 
    0.15246E+07         0.29855E+07         0.00000E+00
    0.29855E+07        -0.11803E+08         0.00000E+00
    0.00000E+00         0.00000E+00         0.00000E+00
 
    0.98213E+06         0.36992E+07         0.00000E+00
    0.36992E+07        -0.11619E+08         0.00000E+00
    0.00000E+00         0.00000E+00         0.00000E+00
 
    0.34422E+06         0.44357E+07         0.00000E+00
    0.44357E+07        -0.11344E+08         0.00000E+00
    0.00000E+00         0.00000E+00         0.00000E+00
 
    0.74516E+07        -0.79843E+05         0.00000E+00
   -0.79843E+05        -0.11122E+08         0.00000E+00
    0.00000E+00         0.00000E+00         0.00000E+00
 
    0.62266E+07        -0.24984E+06         0.00000E+00
   -0.24984E+06        -0.11214E+08         0.00000E+00
    0.00000E+00         0.00000E+00         0.00000E+00
 
    0.52714E+07        -0.39631E+06         0.00000E+00
   -0.39631E+06        -0.11380E+08         0.00000E+00
    0.00000E+00         0.00000E+00         0.00000E+00
 
    0.45402E+07        -0.48455E+06         0.00000E+00
   -0.48455E+06        -0.11599E+08         0.00000E+00
    0.00000E+00         0.00000E+00         0.00000E+00
 
    0.39877E+07        -0.49038E+06         0.00000E+00
   -0.49038E+06        -0.11850E+08         0.00000E+00
    0.00000E+00         0.00000E+00         0.00000E+00
 
    0.35704E+07        -0.39844E+06         0.00000E+00
   -0.39844E+06        -0.12113E+08         0.00000E+00
    0.00000E+00         0.00000E+00         0.00000E+00
 
    0.32482E+07        -0.20052E+06         0.00000E+00
   -0.20052E+06        -0.12371E+08         0.00000E+00
    0.00000E+00         0.00000E+00         0.00000E+00
 
    0.29842E+07         0.10607E+06         0.00000E+00
    0.10607E+06        -0.12606E+08         0.00000E+00
    0.00000E+00         0.00000E+00         0.00000E+00
 
    0.27453E+07         0.51968E+06         0.00000E+00
    0.51968E+06        -0.12804E+08         0.00000E+00
    0.00000E+00         0.00000E+00         0.00000E+00
 
    0.25014E+07         0.10352E+07         0.00000E+00
    0.10352E+07        -0.12952E+08         0.00000E+00
    0.00000E+00         0.00000E+00         0.00000E+00
 
    0.22254E+07         0.16447E+07         0.00000E+00
    0.16447E+07        -0.13039E+08         0.00000E+00
    0.00000E+00         0.00000E+00         0.00000E+00
 
    0.18925E+07         0.23371E+07         0.00000E+00
    0.23371E+07        -0.13052E+08         0.00000E+00
    0.00000E+00         0.00000E+00         0.00000E+00
 
    0.14804E+07         0.30984E+07         0.00000E+00
    0.30984E+07        -0.12981E+08         0.00000E+00
    0.00000E+00         0.00000E+00         0.00000E+00
 
    0.96952E+06         0.39112E+07         0.00000E+00
    0.39112E+07        -0.12816E+08         0.00000E+00
    0.00000E+00         0.00000E+00         0.00000E+00
 
    0.34355E+06         0.47541E+07         0.00000E+00
    0.47541E+07        -0.12549E+08         0.00000E+00
    0.00000E+00         0.00000E+00         0.00000E+00
 
    0.64676E+07        -0.13942E+06         0.00000E+00
   -0.13942E+06        -0.11890E+08         0.00000E+00
    0.00000E+00         0.00000E+00         0.00000E+00
 
    0.52526E+07        -0.40974E+06         0.00000E+00
   -0.40974E+06        -0.12003E+08         0.00000E+00
    0.00000E+00         0.00000E+00         0.00000E+00
 
    0.43445E+07        -0.63043E+06         0.00000E+00
   -0.63043E+06        -0.12206E+08         0.00000E+00
    0.00000E+00         0.00000E+00         0.00000E+00
 
    0.36863E+07        -0.76716E+06         0.00000E+00
   -0.76716E+06        -0.12472E+08         0.00000E+00
    0.00000E+00         0.00000E+00         0.00000E+00
 
    0.32232E+07        -0.79745E+06         0.00000E+00
   -0.79745E+06        -0.12775E+08         0.00000E+00
    0.00000E+00         0.00000E+00         0.00000E+00
 
    0.29043E+07        -0.70846E+06         0.00000E+00
   -0.70846E+06        -0.13091E+08         0.00000E+00
    0.00000E+00         0.00000E+00         0.00000E+00
 
    0.26837E+07        -0.49466E+06         0.00000E+00
   -0.49466E+06        -0.13400E+08         0.00000E+00
    0.00000E+00         0.00000E+00         0.00000E+00
 
    0.25207E+07        -0.15587E+06         0.00000E+00
   -0.15587E+06        -0.13684E+08         0.00000E+00
    0.00000E+00         0.00000E+00         0.00000E+00
 
    0.23789E+07         0.30429E+06         0.00000E+00
    0.30429E+06        -0.13929E+08         0.00000E+00
    0.00000E+00         0.00000E+00         0.00000E+00
 
    0.22260E+07         0.87943E+06         0.00000E+00
    0.87943E+06        -0.14121E+08         0.00000E+00
    0.00000E+00         0.00000E+00         0.00000E+00
 
    0.20326E+07         0.15607E+07         0.00000E+00
    0.15607E+07        -0.14247E+08         0.00000E+00
    0.00000E+00         0.00000E+00         0.00000E+00
 
    0.17713E+07         0.23368E+07         0.00000E+00
    0.23368E+07        -0.14296E+08         0.00000E+00
    0.00000E+00         0.00000E+00         0.00000E+00
 
    0.14171E+07         0.31934E+07         0.00000E+00
    0.31934E+07        -0.14254E+08         0.00000E+00
    0.00000E+00         0.00000E+00         0.00000E+00
 
    0.94673E+06         0.41124E+07         0.00000E+00
    0.41124E+07        -0.14111E+08         0.00000E+00
    0.00000E+00         0.00000E+00         0.00000E+00
 
    0.33988E+06         0.50710E+07         0.00000E+00
    0.50710E+07        -0.13854E+08         0.00000E+00
    0.00000E+00         0.00000E+00         0.00000E+00
 
    0.52414E+07        -0.20890E+06         0.00000E+00
   -0.20890E+06        -0.12778E+08         0.00000E+00
    0.00000E+00         0.00000E+00         0.00000E+00
 
    0.40650E+07        -0.59412E+06         0.00000E+00
   -0.59412E+06        -0.12913E+08         0.00000E+00
    0.00000E+00         0.00000E+00         0.00000E+00
 
    0.32321E+07        -0.89748E+06         0.00000E+00
   -0.89748E+06        -0.13154E+08         0.00000E+00
    0.00000E+00         0.00000E+00         0.00000E+00
 
    0.26729E+07        -0.10863E+07         0.00000E+00
   -0.10863E+07        -0.13465E+08         0.00000E+00
    0.00000E+00         0.00000E+00         0.00000E+00
 
    0.23223E+07        -0.11413E+07         0.00000E+00
   -0.11413E+07        -0.13816E+08         0.00000E+00
    0.00000E+00         0.00000E+00         0.00000E+00
 
    0.21216E+07        -0.10536E+07         0.00000E+00
   -0.10536E+07        -0.14181E+08         0.00000E+00
    0.00000E+00         0.00000E+00         0.00000E+00
 
    0.20195E+07        -0.82151E+06         0.00000E+00
   -0.82151E+06        -0.14536E+08         0.00000E+00
    0.00000E+00         0.00000E+00         0.00000E+00
 
    0.19717E+07        -0.44817E+06         0.00000E+00
   -0.44817E+06        -0.14865E+08         0.00000E+00
    0.00000E+00         0.00000E+00         0.00000E+00
 
    0.19397E+07         0.60474E+05         0.00000E+00
    0.60474E+05        -0.15151E+08         0.00000E+00
    0.00000E+00         0.00000E+00         0.00000E+00
 
    0.18895E+07         0.69671E+06         0.00000E+00
    0.69671E+06        -0.15382E+08         0.00000E+00
    0.00000E+00         0.00000E+00         0.00000E+00
 
    0.17902E+07         0.14514E+07         0.00000E+00
    0.14514E+07        -0.15545E+08         0.00000E+00
    0.00000E+00         0.00000E+00         0.00000E+00
 
    0.16124E+07         0.23134E+07         0.00000E+00
    0.23134E+07        -0.15628E+08         0.00000E+00
    0.00000E+00         0.00000E+00         0.00000E+00
 
    0.13279E+07         0.32690E+07         0.00000E+00
    0.32690E+07        -0.15617E+08         0.00000E+00
    0.00000E+00         0.00000E+00         0.00000E+00
 
    0.90948E+06         0.43001E+07         0.00000E+00
    0.43001E+07        -0.15498E+08         0.00000E+00
    0.00000E+00         0.00000E+00         0.00000E+00
 
    0.33172E+06         0.53836E+07         0.00000E+00
    0.53836E+07        -0.15255E+08         0.00000E+00
    0.00000E+00         0.00000E+00         0.00000E+00
 
    0.37400E+07        -0.28847E+06         0.00000E+00
   -0.28847E+06        -0.13801E+08         0.00000E+00
    0.00000E+00         0.00000E+00         0.00000E+00
 
    0.26378E+07        -0.80258E+06         0.00000E+00
   -0.80258E+06        -0.13959E+08         0.00000E+00
    0.00000E+00         0.00000E+00         0.00000E+00
 
    0.19142E+07        -0.11955E+07         0.00000E+00
   -0.11955E+07        -0.14236E+08         0.00000E+00
    0.00000E+00         0.00000E+00         0.00000E+00
 
    0.14846E+07        -0.14380E+07         0.00000E+00
   -0.14380E+07        -0.14590E+08         0.00000E+00
    0.00000E+00         0.00000E+00         0.00000E+00
 
    0.12723E+07        -0.15160E+07         0.00000E+00
   -0.15160E+07        -0.14984E+08         0.00000E+00
    0.00000E+00         0.00000E+00         0.00000E+00
 
    0.12108E+07        -0.14264E+07         0.00000E+00
   -0.14264E+07        -0.15389E+08         0.00000E+00
    0.00000E+00         0.00000E+00         0.00000E+00
 
    0.12440E+07        -0.11728E+07         0.00000E+00
   -0.11728E+07        -0.15782E+08         0.00000E+00
    0.00000E+00         0.00000E+00         0.00000E+00
 
    0.13251E+07        -0.76272E+06         0.00000E+00
   -0.76272E+06        -0.16145E+08         0.00000E+00
    0.00000E+00         0.00000E+00         0.00000E+00
 
    0.14148E+07        -0.20476E+06         0.00000E+00
   -0.20476E+06        -0.16464E+08         0.00000E+00
    0.00000E+00         0.00000E+00         0.00000E+00
 
    0.14789E+07         0.49226E+06         0.00000E+00
    0.49226E+06        -0.16727E+08         0.00000E+00
    0.00000E+00         0.00000E+00         0.00000E+00
 
    0.14858E+07         0.13195E+07         0.00000E+00
    0.13195E+07        -0.16923E+08         0.00000E+00
    0.00000E+00         0.00000E+00         0.00000E+00
 
    0.14045E+07         0.22671E+07         0.00000E+00
    0.22671E+07        -0.17039E+08         0.00000E+00
    0.00000E+00         0.00000E+00         0.00000E+00
 
    0.12039E+07         0.33230E+07         0.00000E+00
    0.33230E+07        -0.17060E+08         0.00000E+00
    0.00000E+00         0.00000E+00         0.00000E+00
 
    0.85197E+06         0.44706E+07         0.00000E+00
    0.44706E+07        -0.16968E+08         0.00000E+00
    0.00000E+00         0.00000E+00         0.00000E+00
 
    0.31708E+06         0.56870E+07         0.00000E+00
    0.56870E+07        -0.16745E+08         0.00000E+00
    0.00000E+00         0.00000E+00         0.00000E+00
 
    0.19291E+07        -0.37810E+06         0.00000E+00
   -0.37810E+06        -0.14977E+08         0.00000E+00
    0.00000E+00         0.00000E+00         0.00000E+00
 
    0.94549E+06        -0.10339E+07         0.00000E+00
   -0.10339E+07        -0.15156E+08         0.00000E+00
    0.00000E+00         0.00000E+00         0.00000E+00
 
    0.37199E+06        -0.15209E+07         0.00000E+00
   -0.15209E+07        -0.15466E+08         0.00000E+00
    0.00000E+00         0.00000E+00         0.00000E+00
 
    0.10694E+06        -0.18157E+07         0.00000E+00
   -0.18157E+07        -0.15857E+08         0.00000E+00
    0.00000E+00         0.00000E+00         0.00000E+00
 
    0.61181E+05        -0.19122E+07         0.00000E+00
   -0.19122E+07        -0.16285E+08         0.00000E+00
    0.00000E+00         0.00000E+00         0.00000E+00
 
    0.16039E+06        -0.18155E+07         0.00000E+00
   -0.18155E+07        -0.16719E+08         0.00000E+00
    0.00000E+00         0.00000E+00         0.00000E+00
 
    0.34484E+06        -0.15365E+07         0.00000E+00
   -0.15365E+07        -0.17136E+08         0.00000E+00
    0.00000E+00         0.00000E+00         0.00000E+00
 
    0.56720E+06        -0.10880E+07         0.00000E+00
   -0.10880E+07        -0.17519E+08         0.00000E+00
    0.00000E+00         0.00000E+00         0.00000E+00
 
    0.78926E+06        -0.48153E+06         0.00000E+00
   -0.48153E+06        -0.17858E+08         0.00000E+00
    0.00000E+00         0.00000E+00         0.00000E+00
 
    0.97824E+06         0.27330E+06         0.00000E+00
    0.27330E+06        -0.18144E+08         0.00000E+00
    0.00000E+00         0.00000E+00         0.00000E+00
 
    0.11034E+07         0.11689E+07         0.00000E+00
    0.11689E+07        -0.18366E+08         0.00000E+00
    0.00000E+00         0.00000E+00         0.00000E+00
 
    0.11331E+07         0.21983E+07         0.00000E+00
    0.21983E+07        -0.18513E+08         0.00000E+00
    0.00000E+00         0.00000E+00         0.00000E+00
 
    0.10332E+07         0.33526E+07         0.00000E+00
    0.33526E+07        -0.18567E+08         0.00000E+00
    0.00000E+00         0.00000E+00         0.00000E+00
 
    0.76644E+06         0.46183E+07         0.00000E+00
    0.46183E+07        -0.18508E+08         0.00000E+00
    0.00000E+00         0.00000E+00         0.00000E+00
 
    0.29323E+06         0.59743E+07         0.00000E+00
    0.59743E+07        -0.18312E+08         0.00000E+00
    0.00000E+00         0.00000E+00         0.00000E+00
 
   -0.22611E+06        -0.47759E+06         0.00000E+00
   -0.47759E+06        -0.16321E+08         0.00000E+00
    0.00000E+00         0.00000E+00         0.00000E+00
 
   -0.10366E+07        -0.12858E+07         0.00000E+00
   -0.12858E+07        -0.16521E+08         0.00000E+00
    0.00000E+00         0.00000E+00         0.00000E+00
 
   -0.14112E+07        -0.18678E+07         0.00000E+00
   -0.18678E+07        -0.16860E+08         0.00000E+00
    0.00000E+00         0.00000E+00         0.00000E+00
 
   -0.14718E+07        -0.22095E+07         0.00000E+00
   -0.22095E+07        -0.17278E+08         0.00000E+00
    0.00000E+00         0.00000E+00         0.00000E+00
 
   -0.13211E+07        -0.23163E+07         0.00000E+00
   -0.23163E+07        -0.17726E+08         0.00000E+00
    0.00000E+00         0.00000E+00         0.00000E+00
 
   -0.10403E+07        -0.22050E+07         0.00000E+00
   -0.22050E+07        -0.18172E+08         0.00000E+00
    0.00000E+00         0.00000E+00         0.00000E+00
 
   -0.69077E+06        -0.18959E+07         0.00000E+00
   -0.18959E+07        -0.18593E+08         0.00000E+00
    0.00000E+00         0.00000E+00         0.00000E+00
 
   -0.31761E+06        -0.14083E+07         0.00000E+00
   -0.14083E+07        -0.18978E+08         0.00000E+00
    0.00000E+00         0.00000E+00         0.00000E+00
 
    0.44733E+05        -0.75669E+06         0.00000E+00
   -0.75669E+06        -0.19320E+08         0.00000E+00
    0.00000E+00         0.00000E+00         0.00000E+00
 
    0.36747E+06         0.49281E+05         0.00000E+00
    0.49281E+05        -0.19615E+08         0.00000E+00
    0.00000E+00         0.00000E+00         0.00000E+00
 
    0.62263E+06         0.10047E+07         0.00000E+00
    0.10047E+07        -0.19856E+08         0.00000E+00
    0.00000E+00         0.00000E+00         0.00000E+00
 
    0.77918E+06         0.21071E+07         0.00000E+00
    0.21071E+07        -0.20030E+08         0.00000E+00
    0.00000E+00         0.00000E+00         0.00000E+00
 
    0.80034E+06         0.33533E+07         0.00000E+00
    0.33533E+07        -0.20120E+08         0.00000E+00
    0.00000E+00         0.00000E+00         0.00000E+00
 
    0.64257E+06         0.47351E+07         0.00000E+00
    0.47351E+07        -0.20101E+08         0.00000E+00
    0.00000E+00         0.00000E+00         0.00000E+00
 
    0.25654E+06         0.62355E+07         0.00000E+00
    0.62355E+07        -0.19943E+08         0.00000E+00
    0.00000E+00         0.00000E+00         0.00000E+00
 
   -0.27604E+07        -0.58648E+06         0.00000E+00
   -0.58648E+06        -0.17853E+08         0.00000E+00
    0.00000E+00         0.00000E+00         0.00000E+00
 
   -0.33305E+07        -0.15547E+07         0.00000E+00
   -0.15547E+07        -0.18071E+08         0.00000E+00
    0.00000E+00         0.00000E+00         0.00000E+00
 
   -0.34484E+07        -0.22273E+07         0.00000E+00
   -0.22273E+07        -0.18432E+08         0.00000E+00
    0.00000E+00         0.00000E+00         0.00000E+00
 
   -0.32600E+07        -0.26047E+07         0.00000E+00
   -0.26047E+07        -0.18863E+08         0.00000E+00
    0.00000E+00         0.00000E+00         0.00000E+00
 
   -0.28823E+07        -0.27092E+07         0.00000E+00
   -0.27092E+07        -0.19311E+08         0.00000E+00
    0.00000E+00         0.00000E+00         0.00000E+00
 
   -0.24015E+07        -0.25732E+07         0.00000E+00
   -0.25732E+07        -0.19743E+08         0.00000E+00
    0.00000E+00         0.00000E+00         0.00000E+00
 
   -0.18769E+07        -0.22291E+07         0.00000E+00
   -0.22291E+07        -0.20143E+08         0.00000E+00
    0.00000E+00         0.00000E+00         0.00000E+00
 
   -0.13478E+07        -0.17034E+07         0.00000E+00
   -0.17034E+07        -0.20505E+08         0.00000E+00
    0.00000E+00         0.00000E+00         0.00000E+00
 
   -0.84104E+06        -0.10135E+07         0.00000E+00
   -0.10135E+07        -0.20829E+08         0.00000E+00
    0.00000E+00         0.00000E+00         0.00000E+00
 
   -0.37834E+06        -0.16799E+06         0.00000E+00
   -0.16799E+06        -0.21117E+08         0.00000E+00
    0.00000E+00         0.00000E+00         0.00000E+00
 
    0.17715E+05         0.83276E+06         0.00000E+00
    0.83276E+06        -0.21364E+08         0.00000E+00
    0.00000E+00         0.00000E+00         0.00000E+00
 
    0.31835E+06         0.19932E+07         0.00000E+00
    0.19932E+07        -0.21562E+08         0.00000E+00
    0.00000E+00         0.00000E+00         0.00000E+00
 
    0.48485E+06         0.33187E+07         0.00000E+00
    0.33187E+07        -0.21692E+08         0.00000E+00
    0.00000E+00         0.00000E+00         0.00000E+00
 
    0.46666E+06         0.48098E+07         0.00000E+00
    0.48098E+07        -0.21723E+08         0.00000E+00
    0.00000E+00         0.00000E+00         0.00000E+00
 
    0.20215E+06         0.64563E+07         0.00000E+00
    0.64563E+07        -0.21617E+08         0.00000E+00
    0.00000E+00         0.00000E+00         0.00000E+00
 
   -0.57078E+07        -0.70406E+06         0.00000E+00
   -0.70406E+06        -0.19594E+08         0.00000E+00
    0.00000E+00         0.00000E+00         0.00000E+00
 
   -0.59543E+07        -0.18350E+07         0.00000E+00
   -0.18350E+07        -0.19826E+08         0.00000E+00
    0.00000E+00         0.00000E+00         0.00000E+00
 
   -0.57470E+07        -0.25863E+07         0.00000E+00
   -0.25863E+07        -0.20197E+08         0.00000E+00
    0.00000E+00         0.00000E+00         0.00000E+00
 
   -0.52609E+07        -0.29805E+07         0.00000E+00
   -0.29805E+07        -0.20620E+08         0.00000E+00
    0.00000E+00         0.00000E+00         0.00000E+00
 
   -0.46270E+07        -0.30645E+07         0.00000E+00
   -0.30645E+07        -0.21038E+08         0.00000E+00
    0.00000E+00         0.00000E+00         0.00000E+00
 
   -0.39325E+07        -0.28914E+07         0.00000E+00
   -0.28914E+07        -0.21424E+08         0.00000E+00
    0.00000E+00         0.00000E+00         0.00000E+00
 
   -0.32293E+07        -0.25080E+07         0.00000E+00
   -0.25080E+07        -0.21769E+08         0.00000E+00
    0.00000E+00         0.00000E+00         0.00000E+00
 
   -0.25453E+07        -0.19483E+07         0.00000E+00
   -0.19483E+07        -0.22077E+08         0.00000E+00
    0.00000E+00         0.00000E+00         0.00000E+00
 
   -0.18953E+07        -0.12320E+07         0.00000E+00
   -0.12320E+07        -0.22357E+08         0.00000E+00
    0.00000E+00         0.00000E+00         0.00000E+00
 
   -0.12902E+07        -0.36459E+06         0.00000E+00
   -0.36459E+06        -0.22616E+08         0.00000E+00
    0.00000E+00         0.00000E+00         0.00000E+00
 
   -0.74397E+06         0.65976E+06         0.00000E+00
    0.65976E+06        -0.22858E+08         0.00000E+00
    0.00000E+00         0.00000E+00         0.00000E+00
 
   -0.28071E+06         0.18553E+07         0.00000E+00
    0.18553E+07        -0.23076E+08         0.00000E+00
    0.00000E+00         0.00000E+00         0.00000E+00
 
    0.60202E+05         0.32396E+07         0.00000E+00
    0.32396E+07        -0.23251E+08         0.00000E+00
    0.00000E+00         0.00000E+00         0.00000E+00
 
    0.22059E+06         0.48264E+07         0.00000E+00
    0.48264E+07        -0.23347E+08         0.00000E+00
    0.00000E+00         0.00000E+00         0.00000E+00
 
    0.12357E+06         0.66168E+07         0.00000E+00
    0.66168E+07        -0.23314E+08         0.00000E+00
    0.00000E+00         0.00000E+00         0.00000E+00
 
   -0.91000E+07        -0.82928E+06         0.00000E+00
   -0.82928E+06        -0.21565E+08         0.00000E+00
    0.00000E+00         0.00000E+00         0.00000E+00
 
   -0.89188E+07        -0.21182E+07         0.00000E+00
   -0.21182E+07        -0.21805E+08         0.00000E+00
    0.00000E+00         0.00000E+00         0.00000E+00
 
   -0.83058E+07        -0.29251E+07         0.00000E+00
   -0.29251E+07        -0.22167E+08         0.00000E+00
    0.00000E+00         0.00000E+00         0.00000E+00
 
   -0.74711E+07        -0.33071E+07         0.00000E+00
   -0.33071E+07        -0.22550E+08         0.00000E+00
    0.00000E+00         0.00000E+00         0.00000E+00
 
   -0.65570E+07        -0.33465E+07         0.00000E+00
   -0.33465E+07        -0.22899E+08         0.00000E+00
    0.00000E+00         0.00000E+00         0.00000E+00
 
   -0.56436E+07        -0.31228E+07         0.00000E+00
   -0.31228E+07        -0.23195E+08         0.00000E+00
    0.00000E+00         0.00000E+00         0.00000E+00
 
   -0.47670E+07        -0.26986E+07         0.00000E+00
   -0.26986E+07        -0.23443E+08         0.00000E+00
    0.00000E+00         0.00000E+00         0.00000E+00
 
   -0.39370E+07        -0.21142E+07         0.00000E+00
   -0.21142E+07        -0.23661E+08         0.00000E+00
    0.00000E+00         0.00000E+00         0.00000E+00
 
   -0.31514E+07        -0.13892E+07         0.00000E+00
   -0.13892E+07        -0.23866E+08         0.00000E+00
    0.00000E+00         0.00000E+00         0.00000E+00
 
   -0.24060E+07        -0.52494E+06         0.00000E+00
   -0.52494E+06        -0.24075E+08         0.00000E+00
    0.00000E+00         0.00000E+00         0.00000E+00
 
   -0.17029E+07         0.49286E+06         0.00000E+00
    0.49286E+06        -0.24298E+08         0.00000E+00
    0.00000E+00         0.00000E+00         0.00000E+00
 
   -0.10579E+07         0.16909E+07         0.00000E+00
    0.16909E+07        -0.24531E+08         0.00000E+00
    0.00000E+00         0.00000E+00         0.00000E+00
 
   -0.50828E+06         0.31034E+07         0.00000E+00
    0.31034E+07        -0.24758E+08         0.00000E+00
    0.00000E+00         0.00000E+00         0.00000E+00
 
   -0.11973E+06         0.47632E+07         0.00000E+00
    0.47632E+07        -0.24937E+08         0.00000E+00
    0.00000E+00         0.00000E+00         0.00000E+00
 
    0.12083E+05         0.66892E+07         0.00000E+00
    0.66892E+07        -0.25007E+08         0.00000E+00
    0.00000E+00         0.00000E+00         0.00000E+00
 
   -0.12965E+08        -0.96055E+06         0.00000E+00
   -0.96055E+06        -0.23788E+08         0.00000E+00
    0.00000E+00         0.00000E+00         0.00000E+00
 
   -0.12224E+08        -0.23906E+07         0.00000E+00
   -0.23906E+07        -0.24025E+08         0.00000E+00
    0.00000E+00         0.00000E+00         0.00000E+00
 
   -0.11111E+08        -0.32131E+07         0.00000E+00
   -0.32131E+07        -0.24349E+08         0.00000E+00
    0.00000E+00         0.00000E+00         0.00000E+00
 
   -0.98797E+07        -0.35415E+07         0.00000E+00
   -0.35415E+07        -0.24645E+08         0.00000E+00
    0.00000E+00         0.00000E+00         0.00000E+00
 
   -0.86723E+07        -0.35078E+07         0.00000E+00
   -0.35078E+07        -0.24868E+08         0.00000E+00
    0.00000E+00         0.00000E+00         0.00000E+00
 
   -0.75479E+07        -0.32229E+07         0.00000E+00
   -0.32229E+07        -0.25019E+08         0.00000E+00
    0.00000E+00         0.00000E+00         0.00000E+00
 
   -0.65144E+07        -0.27626E+07         0.00000E+00
   -0.27626E+07        -0.25123E+08         0.00000E+00
    0.00000E+00         0.00000E+00         0.00000E+00
 
   -0.55560E+07        -0.21700E+07         0.00000E+00
   -0.21700E+07        -0.25211E+08         0.00000E+00
    0.00000E+00         0.00000E+00         0.00000E+00
 
   -0.46490E+07        -0.14616E+07         0.00000E+00
   -0.14616E+07        -0.25311E+08         0.00000E+00
    0.00000E+00         0.00000E+00         0.00000E+00
 
   -0.37712E+07        -0.63291E+06         0.00000E+00
   -0.63291E+06        -0.25447E+08         0.00000E+00
    0.00000E+00         0.00000E+00         0.00000E+00
 
   -0.29084E+07         0.33948E+06         0.00000E+00
    0.33948E+06        -0.25635E+08         0.00000E+00
    0.00000E+00         0.00000E+00         0.00000E+00
 
   -0.20633E+07         0.14964E+07         0.00000E+00
    0.14964E+07        -0.25880E+08         0.00000E+00
    0.00000E+00         0.00000E+00         0.00000E+00
 
   -0.12660E+07         0.28933E+07         0.00000E+00
    0.28933E+07        -0.26167E+08         0.00000E+00
    0.00000E+00         0.00000E+00         0.00000E+00
 
   -0.58690E+06         0.45906E+07         0.00000E+00
    0.45906E+07        -0.26455E+08         0.00000E+00
    0.00000E+00         0.00000E+00         0.00000E+00
 
   -0.14431E+06         0.66355E+07         0.00000E+00
    0.66355E+07        -0.26665E+08         0.00000E+00
    0.00000E+00         0.00000E+00         0.00000E+00
 
   -0.17323E+08        -0.10952E+07         0.00000E+00
   -0.10952E+07        -0.26286E+08         0.00000E+00
    0.00000E+00         0.00000E+00         0.00000E+00
 
   -0.15848E+08        -0.26284E+07         0.00000E+00
   -0.26284E+07        -0.26502E+08         0.00000E+00
    0.00000E+00         0.00000E+00         0.00000E+00
 
   -0.14133E+08        -0.34011E+07         0.00000E+00
   -0.34011E+07        -0.26737E+08         0.00000E+00
    0.00000E+00         0.00000E+00         0.00000E+00
 
   -0.12469E+08        -0.36213E+07         0.00000E+00
   -0.36213E+07        -0.26873E+08         0.00000E+00
    0.00000E+00         0.00000E+00         0.00000E+00
 
   -0.10976E+08        -0.34882E+07         0.00000E+00
   -0.34882E+07        -0.26894E+08         0.00000E+00
    0.00000E+00         0.00000E+00         0.00000E+00
 
   -0.96666E+07        -0.31416E+07         0.00000E+00
   -0.31416E+07        -0.26837E+08         0.00000E+00
    0.00000E+00         0.00000E+00         0.00000E+00
 
   -0.85045E+07        -0.26618E+07         0.00000E+00
   -0.26618E+07        -0.26749E+08         0.00000E+00
    0.00000E+00         0.00000E+00         0.00000E+00
 
   -0.74426E+07        -0.20872E+07         0.00000E+00
   -0.20872E+07        -0.26671E+08         0.00000E+00
    0.00000E+00         0.00000E+00         0.00000E+00
 
   -0.64340E+07        -0.14281E+07         0.00000E+00
   -0.14281E+07        -0.26639E+08         0.00000E+00
    0.00000E+00         0.00000E+00         0.00000E+00
 
   -0.54369E+07        -0.67356E+06         0.00000E+00
   -0.67356E+06        -0.26681E+08         0.00000E+00
    0.00000E+00         0.00000E+00         0.00000E+00
 
   -0.44180E+07         0.20735E+06         0.00000E+00
    0.20735E+06        -0.26820E+08         0.00000E+00
    0.00000E+00         0.00000E+00         0.00000E+00
 
   -0.33592E+07         0.12684E+07         0.00000E+00
    0.12684E+07        -0.27069E+08         0.00000E+00
    0.00000E+00         0.00000E+00         0.00000E+00
 
   -0.22730E+07         0.25894E+07         0.00000E+00
    0.25894E+07        -0.27427E+08         0.00000E+00
    0.00000E+00         0.00000E+00         0.00000E+00
 
   -0.12265E+07         0.42697E+07         0.00000E+00
    0.42697E+07        -0.27853E+08         0.00000E+00
    0.00000E+00         0.00000E+00         0.00000E+00
 
   -0.36289E+06         0.64031E+07         0.00000E+00
    0.64031E+07        -0.28256E+08         0.00000E+00
    0.00000E+00         0.00000E+00         0.00000E+00
 
   -0.22178E+08        -0.12277E+07         0.00000E+00
   -0.12277E+07        -0.29084E+08         0.00000E+00
    0.00000E+00         0.00000E+00         0.00000E+00
 
   -0.19739E+08        -0.27850E+07         0.00000E+00
   -0.27850E+07        -0.29237E+08         0.00000E+00
    0.00000E+00         0.00000E+00         0.00000E+00
 
   -0.17319E+08        -0.34058E+07         0.00000E+00
   -0.34058E+07        -0.29291E+08         0.00000E+00
    0.00000E+00         0.00000E+00         0.00000E+00
 
   -0.15223E+08        -0.34587E+07         0.00000E+00
   -0.34587E+07        -0.29155E+08         0.00000E+00
    0.00000E+00         0.00000E+00         0.00000E+00
 
   -0.13487E+08        -0.32185E+07         0.00000E+00
   -0.32185E+07        -0.28883E+08         0.00000E+00
    0.00000E+00         0.00000E+00         0.00000E+00
 
   -0.12036E+08        -0.28322E+07         0.00000E+00
   -0.28322E+07        -0.28557E+08         0.00000E+00
    0.00000E+00         0.00000E+00         0.00000E+00
 
   -0.10781E+08        -0.23666E+07         0.00000E+00
   -0.23666E+07        -0.28239E+08         0.00000E+00
    0.00000E+00         0.00000E+00         0.00000E+00
 
   -0.96441E+07        -0.18471E+07         0.00000E+00
   -0.18471E+07        -0.27973E+08         0.00000E+00
    0.00000E+00         0.00000E+00         0.00000E+00
 
   -0.85562E+07        -0.12755E+07         0.00000E+00
   -0.12755E+07        -0.27794E+08         0.00000E+00
    0.00000E+00         0.00000E+00         0.00000E+00
 
   -0.74577E+07        -0.63616E+06         0.00000E+00
   -0.63616E+06        -0.27728E+08         0.00000E+00
    0.00000E+00         0.00000E+00         0.00000E+00
 
   -0.62946E+07         0.10486E+06         0.00000E+00
    0.10486E+06        -0.27804E+08         0.00000E+00
    0.00000E+00         0.00000E+00         0.00000E+00
 
   -0.50201E+07         0.10072E+07         0.00000E+00
    0.10072E+07        -0.28047E+08         0.00000E+00
    0.00000E+00         0.00000E+00         0.00000E+00
 
   -0.36102E+07         0.21719E+07         0.00000E+00
    0.21719E+07        -0.28477E+08         0.00000E+00
    0.00000E+00         0.00000E+00         0.00000E+00
 
   -0.21059E+07         0.37507E+07         0.00000E+00
    0.37507E+07        -0.29076E+08         0.00000E+00
    0.00000E+00         0.00000E+00         0.00000E+00
 
   -0.67058E+06         0.59174E+07         0.00000E+00
    0.59174E+07        -0.29743E+08         0.00000E+00
    0.00000E+00         0.00000E+00         0.00000E+00
 
   -0.27496E+08        -0.13434E+07         0.00000E+00
   -0.13434E+07        -0.32197E+08         0.00000E+00
    0.00000E+00         0.00000E+00         0.00000E+00
 
   -0.23782E+08        -0.27574E+07         0.00000E+00
   -0.27574E+07        -0.32194E+08         0.00000E+00
    0.00000E+00         0.00000E+00         0.00000E+00
 
   -0.20608E+08        -0.30835E+07         0.00000E+00
   -0.30835E+07        -0.31883E+08         0.00000E+00
    0.00000E+00         0.00000E+00         0.00000E+00
 
   -0.18155E+08        -0.29462E+07         0.00000E+00
   -0.29462E+07        -0.31325E+08         0.00000E+00
    0.00000E+00         0.00000E+00         0.00000E+00
 
   -0.16251E+08        -0.26397E+07         0.00000E+00
   -0.26397E+07        -0.30680E+08         0.00000E+00
    0.00000E+00         0.00000E+00         0.00000E+00
 
   -0.14712E+08        -0.22682E+07         0.00000E+00
   -0.22682E+07        -0.30051E+08         0.00000E+00
    0.00000E+00         0.00000E+00         0.00000E+00
 
   -0.13400E+08        -0.18683E+07         0.00000E+00
   -0.18683E+07        -0.29493E+08         0.00000E+00
    0.00000E+00         0.00000E+00         0.00000E+00
 
   -0.12212E+08        -0.14490E+07         0.00000E+00
   -0.14490E+07        -0.29041E+08         0.00000E+00
    0.00000E+00         0.00000E+00         0.00000E+00
 
   -0.11065E+08        -0.10047E+07         0.00000E+00
   -0.10047E+07        -0.28718E+08         0.00000E+00
    0.00000E+00         0.00000E+00         0.00000E+00
 
   -0.98850E+07        -0.51877E+06         0.00000E+00
   -0.51877E+06        -0.28546E+08         0.00000E+00
    0.00000E+00         0.00000E+00         0.00000E+00
 
   -0.85988E+07         0.39239E+05         0.00000E+00
    0.39239E+05        -0.28553E+08         0.00000E+00
    0.00000E+00         0.00000E+00         0.00000E+00
 
   -0.71284E+07         0.72285E+06         0.00000E+00
    0.72285E+06        -0.28774E+08         0.00000E+00
    0.00000E+00         0.00000E+00         0.00000E+00
 
   -0.53875E+07         0.16325E+07         0.00000E+00
    0.16325E+07        -0.29258E+08         0.00000E+00
    0.00000E+00         0.00000E+00         0.00000E+00
 
   -0.33340E+07         0.29752E+07         0.00000E+00
    0.29752E+07        -0.30053E+08         0.00000E+00
    0.00000E+00         0.00000E+00         0.00000E+00
 
   -0.11149E+07         0.50687E+07         0.00000E+00
    0.50687E+07        -0.31079E+08         0.00000E+00
    0.00000E+00         0.00000E+00         0.00000E+00
 
   -0.33128E+08        -0.13820E+07         0.00000E+00
   -0.13820E+07        -0.35613E+08         0.00000E+00
    0.00000E+00         0.00000E+00         0.00000E+00
 
   -0.27782E+08        -0.22798E+07         0.00000E+00
   -0.22798E+07        -0.35139E+08         0.00000E+00
    0.00000E+00         0.00000E+00         0.00000E+00
 
   -0.23999E+08        -0.22383E+07         0.00000E+00
   -0.22383E+07        -0.34175E+08         0.00000E+00
    0.00000E+00         0.00000E+00         0.00000E+00
 
   -0.21345E+08        -0.20111E+07         0.00000E+00
   -0.20111E+07        -0.33096E+08         0.00000E+00
    0.00000E+00         0.00000E+00         0.00000E+00
 
   -0.19355E+08        -0.17417E+07         0.00000E+00
   -0.17417E+07        -0.32073E+08         0.00000E+00
    0.00000E+00         0.00000E+00         0.00000E+00
 
   -0.17770E+08        -0.14663E+07         0.00000E+00
   -0.14663E+07        -0.31169E+08         0.00000E+00
    0.00000E+00         0.00000E+00         0.00000E+00
 
   -0.16422E+08        -0.11928E+07         0.00000E+00
   -0.11928E+07        -0.30408E+08         0.00000E+00
    0.00000E+00         0.00000E+00         0.00000E+00
 
   -0.15198E+08        -0.91884E+06         0.00000E+00
   -0.91884E+06        -0.29802E+08         0.00000E+00
    0.00000E+00         0.00000E+00         0.00000E+00
 
   -0.14005E+08        -0.63683E+06         0.00000E+00
   -0.63683E+06        -0.29363E+08         0.00000E+00
    0.00000E+00         0.00000E+00         0.00000E+00
 
   -0.12761E+08        -0.33388E+06         0.00000E+00
   -0.33388E+06        -0.29104E+08         0.00000E+00
    0.00000E+00         0.00000E+00         0.00000E+00
 
   -0.11380E+08         0.10684E+05         0.00000E+00
    0.10684E+05        -0.29048E+08         0.00000E+00
    0.00000E+00         0.00000E+00         0.00000E+00
 
   -0.97561E+07         0.43297E+06         0.00000E+00
    0.43297E+06        -0.29236E+08         0.00000E+00
    0.00000E+00         0.00000E+00         0.00000E+00
 
   -0.77433E+07         0.10041E+07         0.00000E+00
    0.10041E+07        -0.29738E+08         0.00000E+00
    0.00000E+00         0.00000E+00         0.00000E+00
 
   -0.51078E+07         0.18981E+07         0.00000E+00
    0.18981E+07        -0.30682E+08         0.00000E+00
    0.00000E+00         0.00000E+00         0.00000E+00
 
   -0.17987E+07         0.36756E+07         0.00000E+00
    0.36756E+07        -0.32200E+08         0.00000E+00
    0.00000E+00         0.00000E+00         0.00000E+00
 
   -0.38555E+08        -0.86198E+06         0.00000E+00
   -0.86198E+06        -0.38674E+08         0.00000E+00
    0.00000E+00         0.00000E+00         0.00000E+00
 
   -0.31670E+08        -0.93789E+06         0.00000E+00
   -0.93789E+06        -0.37203E+08         0.00000E+00
    0.00000E+00         0.00000E+00         0.00000E+00
 
   -0.27675E+08        -0.82710E+06         0.00000E+00
   -0.82710E+06        -0.35578E+08         0.00000E+00
    0.00000E+00         0.00000E+00         0.00000E+00
 
   -0.24939E+08        -0.71462E+06         0.00000E+00
   -0.71462E+06        -0.34112E+08         0.00000E+00
    0.00000E+00         0.00000E+00         0.00000E+00
 
   -0.22904E+08        -0.60592E+06         0.00000E+00
   -0.60592E+06        -0.32842E+08         0.00000E+00
    0.00000E+00         0.00000E+00         0.00000E+00
 
   -0.21282E+08        -0.50364E+06         0.00000E+00
   -0.50364E+06        -0.31771E+08         0.00000E+00
    0.00000E+00         0.00000E+00         0.00000E+00
 
   -0.19901E+08        -0.40625E+06         0.00000E+00
   -0.40625E+06        -0.30891E+08         0.00000E+00
    0.00000E+00         0.00000E+00         0.00000E+00
 
   -0.18640E+08        -0.31110E+06         0.00000E+00
   -0.31110E+06        -0.30199E+08         0.00000E+00
    0.00000E+00         0.00000E+00         0.00000E+00
 
   -0.17407E+08        -0.21467E+06         0.00000E+00
   -0.21467E+06        -0.29694E+08         0.00000E+00
    0.00000E+00         0.00000E+00         0.00000E+00
 
   -0.16114E+08        -0.11211E+06         0.00000E+00
   -0.11211E+06        -0.29385E+08         0.00000E+00
    0.00000E+00         0.00000E+00         0.00000E+00
 
   -0.14669E+08         0.38497E+04         0.00000E+00
    0.38497E+04        -0.29292E+08         0.00000E+00
    0.00000E+00         0.00000E+00         0.00000E+00
 
   -0.12950E+08         0.14563E+06         0.00000E+00
    0.14563E+06        -0.29454E+08         0.00000E+00
    0.00000E+00         0.00000E+00         0.00000E+00
 
   -0.10773E+08         0.33892E+06         0.00000E+00
    0.33892E+06        -0.29949E+08         0.00000E+00
    0.00000E+00         0.00000E+00         0.00000E+00
 
   -0.77951E+07         0.64118E+06         0.00000E+00
    0.64118E+06        -0.30937E+08         0.00000E+00
    0.00000E+00         0.00000E+00         0.00000E+00
 
   -0.30247E+07         0.14074E+07         0.00000E+00
    0.14074E+07        -0.32907E+08         0.00000E+00
    0.00000E+00         0.00000E+00         0.00000E+00
 
TENSORS stresstot double 
   -0.42931E+08         0.92483E+04         0.00000E+00
    0.92483E+04        -0.59992E+08         0.00000E+00
    0.00000E+00         0.00000E+00        -0.52705E+08
 
   -0.43615E+08         0.24260E+05         0.00000E+00
    0.24260E+05        -0.59958E+08         0.00000E+00
    0.00000E+00         0.00000E+00        -0.52739E+08
 
   -0.44359E+08         0.35691E+05         0.00000E+00
    0.35691E+05        -0.59898E+08         0.00000E+00
    0.00000E+00         0.00000E+00        -0.52800E+08
 
   -0.45144E+08         0.44700E+05         0.00000E+00
    0.44700E+05        -0.59818E+08         0.00000E+00
    0.00000E+00         0.00000E+00        -0.52884E+08
 
   -0.45953E+08         0.52281E+05         0.00000E+00
    0.52281E+05        -0.59722E+08         0.00000E+00
    0.00000E+00         0.00000E+00        -0.52984E+08
 
   -0.46773E+08         0.59256E+05         0.00000E+00
    0.59256E+05        -0.59611E+08         0.00000E+00
    0.00000E+00         0.00000E+00        -0.53095E+08
 
   -0.47595E+08         0.66272E+05         0.00000E+00
    0.66272E+05        -0.59486E+08         0.00000E+00
    0.00000E+00         0.00000E+00        -0.53213E+08
 
   -0.48410E+08         0.73801E+05         0.00000E+00
    0.73801E+05        -0.59346E+08         0.00000E+00
    0.00000E+00         0.00000E+00        -0.53332E+08
 
   -0.49214E+08         0.82152E+05         0.00000E+00
    0.82152E+05        -0.59191E+08         0.00000E+00
    0.00000E+00         0.00000E+00        -0.53449E+08
 
   -0.50001E+08         0.91477E+05         0.00000E+00
    0.91477E+05        -0.59017E+08         0.00000E+00
    0.00000E+00         0.00000E+00        -0.53560E+08
 
   -0.50768E+08         0.10179E+06         0.00000E+00
    0.10179E+06        -0.58825E+08         0.00000E+00
    0.00000E+00         0.00000E+00        -0.53660E+08
 
   -0.51512E+08         0.11299E+06         0.00000E+00
    0.11299E+06        -0.58610E+08         0.00000E+00
    0.00000E+00         0.00000E+00        -0.53746E+08
 
   -0.52231E+08         0.12485E+06         0.00000E+00
    0.12485E+06        -0.58372E+08         0.00000E+00
    0.00000E+00         0.00000E+00        -0.53816E+08
 
   -0.52920E+08         0.13710E+06         0.00000E+00
    0.13710E+06        -0.58111E+08         0.00000E+00
    0.00000E+00         0.00000E+00        -0.53865E+08
 
   -0.53577E+08         0.14937E+06         0.00000E+00
    0.14937E+06        -0.57824E+08         0.00000E+00
    0.00000E+00         0.00000E+00        -0.53891E+08
 
   -0.42897E+08         0.27477E+05         0.00000E+00
    0.27477E+05        -0.59992E+08         0.00000E+00
    0.00000E+00         0.00000E+00        -0.52686E+08
 
   -0.43589E+08         0.72025E+05         0.00000E+00
    0.72025E+05        -0.59960E+08         0.00000E+00
    0.00000E+00         0.00000E+00        -0.52720E+08
 
   -0.44339E+08         0.10591E+06         0.00000E+00
    0.10591E+06        -0.59902E+08         0.00000E+00
    0.00000E+00         0.00000E+00        -0.52781E+08
 
   -0.45128E+08         0.13262E+06         0.00000E+00
    0.13262E+06        -0.59824E+08         0.00000E+00
    0.00000E+00         0.00000E+00        -0.52864E+08
 
   -0.45938E+08         0.15514E+06         0.00000E+00
    0.15514E+06        -0.59731E+08         0.00000E+00
    0.00000E+00         0.00000E+00        -0.52964E+08
 
   -0.46759E+08         0.17593E+06         0.00000E+00
    0.17593E+06        -0.59623E+08         0.00000E+00
    0.00000E+00         0.00000E+00        -0.53075E+08
 
   -0.47580E+08         0.19694E+06         0.00000E+00
    0.19694E+06        -0.59502E+08         0.00000E+00
    0.00000E+00         0.00000E+00        -0.53192E+08
 
   -0.48394E+08         0.21957E+06         0.00000E+00
    0.21957E+06        -0.59366E+08         0.00000E+00
    0.00000E+00         0.00000E+00        -0.53311E+08
 
   -0.49196E+08         0.24474E+06         0.00000E+00
    0.24474E+06        -0.59214E+08         0.00000E+00
    0.00000E+00         0.00000E+00        -0.53427E+08
 
   -0.49981E+08         0.27290E+06         0.00000E+00
    0.27290E+06        -0.59044E+08         0.00000E+00
    0.00000E+00         0.00000E+00        -0.53537E+08
 
   -0.50746E+08         0.30409E+06         0.00000E+00
    0.30409E+06        -0.58854E+08         0.00000E+00
    0.00000E+00         0.00000E+00        -0.53637E+08
 
   -0.51489E+08         0.33797E+06         0.00000E+00
    0.33797E+06        -0.58642E+08         0.00000E+00
    0.00000E+00         0.00000E+00        -0.53723E+08
 
   -0.52206E+08         0.37391E+06         0.00000E+00
    0.37391E+06        -0.58406E+08         0.00000E+00
    0.00000E+00         0.00000E+00        -0.53792E+08
 
   -0.52895E+08         0.41100E+06         0.00000E+00
    0.41100E+06        -0.58145E+08         0.00000E+00
    0.00000E+00         0.00000E+00        -0.53841E+08
 
   -0.53553E+08         0.44820E+06         0.00000E+00
    0.44820E+06        -0.57859E+08         0.00000E+00
    0.00000E+00         0.00000E+00        -0.53867E+08
 
   -0.42829E+08         0.44899E+05         0.00000E+00
    0.44899E+05        -0.59992E+08         0.00000E+00
    0.00000E+00         0.00000E+00        -0.52648E+08
 
   -0.43538E+08         0.11752E+06         0.00000E+00
    0.11752E+06        -0.59962E+08         0.00000E+00
    0.00000E+00         0.00000E+00        -0.52681E+08
 
   -0.44300E+08         0.17264E+06         0.00000E+00
    0.17264E+06        -0.59908E+08         0.00000E+00
    0.00000E+00         0.00000E+00        -0.52742E+08
 
   -0.45096E+08         0.21610E+06         0.00000E+00
    0.21610E+06        -0.59836E+08         0.00000E+00
    0.00000E+00         0.00000E+00        -0.52824E+08
 
   -0.45910E+08         0.25288E+06         0.00000E+00
    0.25288E+06        -0.59749E+08         0.00000E+00
    0.00000E+00         0.00000E+00        -0.52923E+08
 
   -0.46732E+08         0.28710E+06         0.00000E+00
    0.28710E+06        -0.59649E+08         0.00000E+00
    0.00000E+00         0.00000E+00        -0.53033E+08
 
   -0.47551E+08         0.32197E+06         0.00000E+00
    0.32197E+06        -0.59535E+08         0.00000E+00
    0.00000E+00         0.00000E+00        -0.53150E+08
 
   -0.48363E+08         0.35983E+06         0.00000E+00
    0.35983E+06        -0.59406E+08         0.00000E+00
    0.00000E+00         0.00000E+00        -0.53267E+08
 
   -0.49160E+08         0.40218E+06         0.00000E+00
    0.40218E+06        -0.59262E+08         0.00000E+00
    0.00000E+00         0.00000E+00        -0.53383E+08
 
   -0.49941E+08         0.44975E+06         0.00000E+00
    0.44975E+06        -0.59098E+08         0.00000E+00
    0.00000E+00         0.00000E+00        -0.53492E+08
 
   -0.50702E+08         0.50256E+06         0.00000E+00
    0.50256E+06        -0.58914E+08         0.00000E+00
    0.00000E+00         0.00000E+00        -0.53590E+08
 
   -0.51442E+08         0.56002E+06         0.00000E+00
    0.56002E+06        -0.58706E+08         0.00000E+00
    0.00000E+00         0.00000E+00        -0.53675E+08
 
   -0.52157E+08         0.62102E+06         0.00000E+00
    0.62102E+06        -0.58473E+08         0.00000E+00
    0.00000E+00         0.00000E+00        -0.53744E+08
 
   -0.52845E+08         0.68406E+06         0.00000E+00
    0.68406E+06        -0.58214E+08         0.00000E+00
    0.00000E+00         0.00000E+00        -0.53792E+08
 
   -0.53503E+08         0.74730E+06         0.00000E+00
    0.74730E+06        -0.57928E+08         0.00000E+00
    0.00000E+00         0.00000E+00        -0.53818E+08
 
   -0.42731E+08         0.60965E+05         0.00000E+00
    0.60965E+05        -0.59993E+08         0.00000E+00
    0.00000E+00         0.00000E+00        -0.52588E+08
 
   -0.43464E+08         0.15921E+06         0.00000E+00
    0.15921E+06        -0.59966E+08         0.00000E+00
    0.00000E+00         0.00000E+00        -0.52621E+08
 
   -0.44243E+08         0.23352E+06         0.00000E+00
    0.23352E+06        -0.59918E+08         0.00000E+00
    0.00000E+00         0.00000E+00        -0.52681E+08
 
   -0.45049E+08         0.29213E+06         0.00000E+00
    0.29213E+06        -0.59854E+08         0.00000E+00
    0.00000E+00         0.00000E+00        -0.52763E+08
 
   -0.45869E+08         0.34206E+06         0.00000E+00
    0.34206E+06        -0.59777E+08         0.00000E+00
    0.00000E+00         0.00000E+00        -0.52861E+08
 
   -0.46691E+08         0.38905E+06         0.00000E+00
    0.38905E+06        -0.59687E+08         0.00000E+00
    0.00000E+00         0.00000E+00        -0.52970E+08
 
   -0.47508E+08         0.43759E+06         0.00000E+00
    0.43759E+06        -0.59584E+08         0.00000E+00
    0.00000E+00         0.00000E+00        -0.53084E+08
 
   -0.48314E+08         0.49091E+06         0.00000E+00
    0.49091E+06        -0.59467E+08         0.00000E+00
    0.00000E+00         0.00000E+00        -0.53201E+08
 
   -0.49106E+08         0.55105E+06         0.00000E+00
    0.55105E+06        -0.59333E+08         0.00000E+00
    0.00000E+00         0.00000E+00        -0.53314E+08
 
   -0.49880E+08         0.61896E+06         0.00000E+00
    0.61896E+06        -0.59179E+08         0.00000E+00
    0.00000E+00         0.00000E+00        -0.53421E+08
 
   -0.50635E+08         0.69463E+06         0.00000E+00
    0.69463E+06        -0.59003E+08         0.00000E+00
    0.00000E+00         0.00000E+00        -0.53519E+08
 
   -0.51369E+08         0.77716E+06         0.00000E+00
    0.77716E+06        -0.58802E+08         0.00000E+00
    0.00000E+00         0.00000E+00        -0.53602E+08
 
   -0.52081E+08         0.86491E+06         0.00000E+00
    0.86491E+06        -0.58574E+08         0.00000E+00
    0.00000E+00         0.00000E+00        -0.53670E+08
 
   -0.52767E+08         0.95569E+06         0.00000E+00
    0.95569E+06        -0.58318E+08         0.00000E+00
    0.00000E+00         0.00000E+00        -0.53717E+08
 
   -0.53427E+08         0.10469E+07         0.00000E+00
    0.10469E+07        -0.58033E+08         0.00000E+00
    0.00000E+00         0.00000E+00        -0.53742E+08
 
   -0.42604E+08         0.75108E+05         0.00000E+00
    0.75108E+05        -0.59995E+08         0.00000E+00
    0.00000E+00         0.00000E+00        -0.52506E+08
 
   -0.43369E+08         0.19551E+06         0.00000E+00
    0.19551E+06        -0.59972E+08         0.00000E+00
    0.00000E+00         0.00000E+00        -0.52539E+08
 
   -0.44170E+08         0.28614E+06         0.00000E+00
    0.28614E+06        -0.59931E+08         0.00000E+00
    0.00000E+00         0.00000E+00        -0.52598E+08
 
   -0.44990E+08         0.35769E+06         0.00000E+00
    0.35769E+06        -0.59878E+08         0.00000E+00
    0.00000E+00         0.00000E+00        -0.52679E+08
 
   -0.45815E+08         0.41921E+06         0.00000E+00
    0.41921E+06        -0.59813E+08         0.00000E+00
    0.00000E+00         0.00000E+00        -0.52775E+08
 
   -0.46638E+08         0.47809E+06         0.00000E+00
    0.47809E+06        -0.59738E+08         0.00000E+00
    0.00000E+00         0.00000E+00        -0.52882E+08
 
   -0.47450E+08         0.54003E+06         0.00000E+00
    0.54003E+06        -0.59650E+08         0.00000E+00
    0.00000E+00         0.00000E+00        -0.52994E+08
 
   -0.48249E+08         0.60912E+06         0.00000E+00
    0.60912E+06        -0.59548E+08         0.00000E+00
    0.00000E+00         0.00000E+00        -0.53108E+08
 
   -0.49032E+08         0.68790E+06         0.00000E+00
    0.68790E+06        -0.59428E+08         0.00000E+00
    0.00000E+00         0.00000E+00        -0.53219E+08
 
   -0.49797E+08         0.77750E+06         0.00000E+00
    0.77750E+06        -0.59287E+08         0.00000E+00
    0.00000E+00         0.00000E+00        -0.53324E+08
 
   -0.50543E+08         0.87777E+06         0.00000E+00
    0.87777E+06        -0.59122E+08         0.00000E+00
    0.00000E+00         0.00000E+00        -0.53420E+08
 
   -0.51270E+08         0.98744E+06         0.00000E+00
    0.98744E+06        -0.58930E+08         0.00000E+00
    0.00000E+00         0.00000E+00        -0.53502E+08
 
   -0.51976E+08         0.11043E+07         0.00000E+00
    0.11043E+07        -0.58709E+08         0.00000E+00
    0.00000E+00         0.00000E+00        -0.53567E+08
 
   -0.52661E+08         0.12253E+07         0.00000E+00
    0.12253E+07        -0.58456E+08         0.00000E+00
    0.00000E+00         0.00000E+00        -0.53614E+08
 
   -0.53321E+08         0.13471E+07         0.00000E+00
    0.13471E+07        -0.58172E+08         0.00000E+00
    0.00000E+00         0.00000E+00        -0.53638E+08
 
   -0.42454E+08         0.86743E+05         0.00000E+00
    0.86743E+05        -0.59996E+08         0.00000E+00
    0.00000E+00         0.00000E+00        -0.52400E+08
 
   -0.43258E+08         0.22481E+06         0.00000E+00
    0.22481E+06        -0.59978E+08         0.00000E+00
    0.00000E+00         0.00000E+00        -0.52431E+08
 
   -0.44085E+08         0.32806E+06         0.00000E+00
    0.32806E+06        -0.59948E+08         0.00000E+00
    0.00000E+00         0.00000E+00        -0.52490E+08
 
   -0.44920E+08         0.40969E+06         0.00000E+00
    0.40969E+06        -0.59908E+08         0.00000E+00
    0.00000E+00         0.00000E+00        -0.52569E+08
 
   -0.45751E+08         0.48082E+06         0.00000E+00
    0.48082E+06        -0.59860E+08         0.00000E+00
    0.00000E+00         0.00000E+00        -0.52663E+08
 
   -0.46572E+08         0.55046E+06         0.00000E+00
    0.55046E+06        -0.59802E+08         0.00000E+00
    0.00000E+00         0.00000E+00        -0.52767E+08
 
   -0.47378E+08         0.62550E+06         0.00000E+00
    0.62550E+06        -0.59733E+08         0.00000E+00
    0.00000E+00         0.00000E+00        -0.52876E+08
 
   -0.48166E+08         0.71080E+06         0.00000E+00
    0.71080E+06        -0.59650E+08         0.00000E+00
    0.00000E+00         0.00000E+00        -0.52987E+08
 
   -0.48937E+08         0.80933E+06         0.00000E+00
    0.80933E+06        -0.59547E+08         0.00000E+00
    0.00000E+00         0.00000E+00        -0.53096E+08
 
   -0.49689E+08         0.92233E+06         0.00000E+00
    0.92233E+06        -0.59423E+08         0.00000E+00
    0.00000E+00         0.00000E+00        -0.53198E+08
 
   -0.50424E+08         0.10494E+07         0.00000E+00
    0.10494E+07        -0.59272E+08         0.00000E+00
    0.00000E+00         0.00000E+00        -0.53290E+08
 
   -0.51141E+08         0.11889E+07         0.00000E+00
    0.11889E+07        -0.59091E+08         0.00000E+00
    0.00000E+00         0.00000E+00        -0.53370E+08
 
   -0.51840E+08         0.13379E+07         0.00000E+00
    0.13379E+07        -0.58878E+08         0.00000E+00
    0.00000E+00         0.00000E+00        -0.53434E+08
 
   -0.52522E+08         0.14925E+07         0.00000E+00
    0.14925E+07        -0.58630E+08         0.00000E+00
    0.00000E+00         0.00000E+00        -0.53479E+08
 
   -0.53184E+08         0.16482E+07         0.00000E+00
    0.16482E+07        -0.58346E+08         0.00000E+00
    0.00000E+00         0.00000E+00        -0.53503E+08
 
   -0.42285E+08         0.95255E+05         0.00000E+00
    0.95255E+05        -0.59998E+08         0.00000E+00
    0.00000E+00         0.00000E+00        -0.52265E+08
 
   -0.43134E+08         0.24543E+06         0.00000E+00
    0.24543E+06        -0.59987E+08         0.00000E+00
    0.00000E+00         0.00000E+00        -0.52296E+08
 
   -0.43991E+08         0.35675E+06         0.00000E+00
    0.35675E+06        -0.59968E+08         0.00000E+00
    0.00000E+00         0.00000E+00        -0.52353E+08
 
   -0.44841E+08         0.44500E+06         0.00000E+00
    0.44500E+06        -0.59945E+08         0.00000E+00
    0.00000E+00         0.00000E+00        -0.52430E+08
 
   -0.45677E+08         0.52337E+06         0.00000E+00
    0.52337E+06        -0.59916E+08         0.00000E+00
    0.00000E+00         0.00000E+00        -0.52521E+08
 
   -0.46495E+08         0.60243E+06         0.00000E+00
    0.60243E+06        -0.59880E+08         0.00000E+00
    0.00000E+00         0.00000E+00        -0.52622E+08
 
   -0.47291E+08         0.69021E+06         0.00000E+00
    0.69021E+06        -0.59834E+08         0.00000E+00
    0.00000E+00         0.00000E+00        -0.52728E+08
 
   -0.48065E+08         0.79228E+06         0.00000E+00
    0.79228E+06        -0.59772E+08         0.00000E+00
    0.00000E+00         0.00000E+00        -0.52835E+08
 
   -0.48819E+08         0.91196E+06         0.00000E+00
    0.91196E+06        -0.59691E+08         0.00000E+00
    0.00000E+00         0.00000E+00        -0.52940E+08
 
   -0.49555E+08         0.10505E+07         0.00000E+00
    0.10505E+07        -0.59586E+08         0.00000E+00
    0.00000E+00         0.00000E+00        -0.53038E+08
 
   -0.50274E+08         0.12071E+07         0.00000E+00
    0.12071E+07        -0.59452E+08         0.00000E+00
    0.00000E+00         0.00000E+00        -0.53127E+08
 
   -0.50979E+08         0.13797E+07         0.00000E+00
    0.13797E+07        -0.59285E+08         0.00000E+00
    0.00000E+00         0.00000E+00        -0.53204E+08
 
   -0.51670E+08         0.15645E+07         0.00000E+00
    0.15645E+07        -0.59081E+08         0.00000E+00
    0.00000E+00         0.00000E+00        -0.53265E+08
 
   -0.52347E+08         0.17566E+07         0.00000E+00
    0.17566E+07        -0.58838E+08         0.00000E+00
    0.00000E+00         0.00000E+00        -0.53309E+08
 
   -0.53010E+08         0.19504E+07         0.00000E+00
    0.19504E+07        -0.58556E+08         0.00000E+00
    0.00000E+00         0.00000E+00        -0.53332E+08
 
   -0.42105E+08         0.10001E+06         0.00000E+00
    0.10001E+06        -0.60000E+08         0.00000E+00
    0.00000E+00         0.00000E+00        -0.52099E+08
 
   -0.43004E+08         0.25564E+06         0.00000E+00
    0.25564E+06        -0.59997E+08         0.00000E+00
    0.00000E+00         0.00000E+00        -0.52129E+08
 
   -0.43891E+08         0.36966E+06         0.00000E+00
    0.36966E+06        -0.59993E+08         0.00000E+00
    0.00000E+00         0.00000E+00        -0.52184E+08
 
   -0.44758E+08         0.46046E+06         0.00000E+00
    0.46046E+06        -0.59988E+08         0.00000E+00
    0.00000E+00         0.00000E+00        -0.52258E+08
 
   -0.45597E+08         0.54330E+06         0.00000E+00
    0.54330E+06        -0.59983E+08         0.00000E+00
    0.00000E+00         0.00000E+00        -0.52346E+08
 
   -0.46407E+08         0.63027E+06         0.00000E+00
    0.63027E+06        -0.59972E+08         0.00000E+00
    0.00000E+00         0.00000E+00        -0.52442E+08
 
   -0.47189E+08         0.73043E+06         0.00000E+00
    0.73043E+06        -0.59951E+08         0.00000E+00
    0.00000E+00         0.00000E+00        -0.52544E+08
 
   -0.47945E+08         0.84998E+06         0.00000E+00
    0.84998E+06        -0.59916E+08         0.00000E+00
    0.00000E+00         0.00000E+00        -0.52647E+08
 
   -0.48678E+08         0.99244E+06         0.00000E+00
    0.99244E+06        -0.59860E+08         0.00000E+00
    0.00000E+00         0.00000E+00        -0.52746E+08
 
   -0.49392E+08         0.11589E+07         0.00000E+00
    0.11589E+07        -0.59777E+08         0.00000E+00
    0.00000E+00         0.00000E+00        -0.52840E+08
 
   -0.50092E+08         0.13484E+07         0.00000E+00
    0.13484E+07        -0.59662E+08         0.00000E+00
    0.00000E+00         0.00000E+00        -0.52925E+08
 
   -0.50780E+08         0.15579E+07         0.00000E+00
    0.15579E+07        -0.59510E+08         0.00000E+00
    0.00000E+00         0.00000E+00        -0.52999E+08
 
   -0.51460E+08         0.17828E+07         0.00000E+00
    0.17828E+07        -0.59318E+08         0.00000E+00
    0.00000E+00         0.00000E+00        -0.53057E+08
 
   -0.52132E+08         0.20172E+07         0.00000E+00
    0.20172E+07        -0.59082E+08         0.00000E+00
    0.00000E+00         0.00000E+00        -0.53099E+08
 
   -0.52796E+08         0.22540E+07         0.00000E+00
    0.22540E+07        -0.58800E+08         0.00000E+00
    0.00000E+00         0.00000E+00        -0.53121E+08
 
   -0.41921E+08         0.10033E+06         0.00000E+00
    0.10033E+06        -0.60003E+08         0.00000E+00
    0.00000E+00         0.00000E+00        -0.51897E+08
 
   -0.42873E+08         0.25367E+06         0.00000E+00
    0.25367E+06        -0.60008E+08         0.00000E+00
    0.00000E+00         0.00000E+00        -0.51926E+08
 
   -0.43793E+08         0.36416E+06         0.00000E+00
    0.36416E+06        -0.60020E+08         0.00000E+00
    0.00000E+00         0.00000E+00        -0.51978E+08
 
   -0.44673E+08         0.45288E+06         0.00000E+00
    0.45288E+06        -0.60038E+08         0.00000E+00
    0.00000E+00         0.00000E+00        -0.52049E+08
 
   -0.45512E+08         0.53709E+06         0.00000E+00
    0.53709E+06        -0.60059E+08         0.00000E+00
    0.00000E+00         0.00000E+00        -0.52132E+08
 
   -0.46310E+08         0.63030E+06         0.00000E+00
    0.63030E+06        -0.60077E+08         0.00000E+00
    0.00000E+00         0.00000E+00        -0.52224E+08
 
   -0.47072E+08         0.74252E+06         0.00000E+00
    0.74252E+06        -0.60086E+08         0.00000E+00
    0.00000E+00         0.00000E+00        -0.52320E+08
 
   -0.47803E+08         0.88040E+06         0.00000E+00
    0.88040E+06        -0.60080E+08         0.00000E+00
    0.00000E+00         0.00000E+00        -0.52417E+08
 
   -0.48509E+08         0.10476E+07         0.00000E+00
    0.10476E+07        -0.60052E+08         0.00000E+00
    0.00000E+00         0.00000E+00        -0.52511E+08
 
   -0.49197E+08         0.12449E+07         0.00000E+00
    0.12449E+07        -0.59994E+08         0.00000E+00
    0.00000E+00         0.00000E+00        -0.52600E+08
 
   -0.49872E+08         0.14709E+07         0.00000E+00
    0.14709E+07        -0.59901E+08         0.00000E+00
    0.00000E+00         0.00000E+00        -0.52680E+08
 
   -0.50541E+08         0.17217E+07         0.00000E+00
    0.17217E+07        -0.59767E+08         0.00000E+00
    0.00000E+00         0.00000E+00        -0.52749E+08
 
   -0.51206E+08         0.19917E+07         0.00000E+00
    0.19917E+07        -0.59587E+08         0.00000E+00
    0.00000E+00         0.00000E+00        -0.52804E+08
 
   -0.51871E+08         0.22737E+07         0.00000E+00
    0.22737E+07        -0.59358E+08         0.00000E+00
    0.00000E+00         0.00000E+00        -0.52843E+08
 
   -0.52537E+08         0.25593E+07         0.00000E+00
    0.25593E+07        -0.59078E+08         0.00000E+00
    0.00000E+00         0.00000E+00        -0.52864E+08
 
   -0.41742E+08         0.95534E+05         0.00000E+00
    0.95534E+05        -0.60006E+08         0.00000E+00
    0.00000E+00         0.00000E+00        -0.51654E+08
 
   -0.42750E+08         0.23770E+06         0.00000E+00
    0.23770E+06        -0.60021E+08         0.00000E+00
    0.00000E+00         0.00000E+00        -0.51681E+08
 
   -0.43700E+08         0.33766E+06         0.00000E+00
    0.33766E+06        -0.60052E+08         0.00000E+00
    0.00000E+00         0.00000E+00        -0.51730E+08
 
   -0.44591E+08         0.41913E+06         0.00000E+00
    0.41913E+06        -0.60095E+08         0.00000E+00
    0.00000E+00         0.00000E+00        -0.51796E+08
 
   -0.45424E+08         0.50129E+06         0.00000E+00
    0.50129E+06        -0.60145E+08         0.00000E+00
    0.00000E+00         0.00000E+00        -0.51875E+08
 
   -0.46204E+08         0.59900E+06         0.00000E+00
    0.59900E+06        -0.60195E+08         0.00000E+00
    0.00000E+00         0.00000E+00        -0.51961E+08
 
   -0.46940E+08         0.72298E+06         0.00000E+00
    0.72298E+06        -0.60238E+08         0.00000E+00
    0.00000E+00         0.00000E+00        -0.52051E+08
 
   -0.47639E+08         0.88024E+06         0.00000E+00
    0.88024E+06        -0.60264E+08         0.00000E+00
    0.00000E+00         0.00000E+00        -0.52141E+08
 
   -0.48312E+08         0.10743E+07         0.00000E+00
    0.10743E+07        -0.60267E+08         0.00000E+00
    0.00000E+00         0.00000E+00        -0.52229E+08
 
   -0.48966E+08         0.13058E+07         0.00000E+00
    0.13058E+07        -0.60238E+08         0.00000E+00
    0.00000E+00         0.00000E+00        -0.52311E+08
 
   -0.49612E+08         0.15723E+07         0.00000E+00
    0.15723E+07        -0.60169E+08         0.00000E+00
    0.00000E+00         0.00000E+00        -0.52385E+08
 
   -0.50255E+08         0.18693E+07         0.00000E+00
    0.18693E+07        -0.60055E+08         0.00000E+00
    0.00000E+00         0.00000E+00        -0.52449E+08
 
   -0.50903E+08         0.21900E+07         0.00000E+00
    0.21900E+07        -0.59889E+08         0.00000E+00
    0.00000E+00         0.00000E+00        -0.52500E+08
 
   -0.51559E+08         0.25257E+07         0.00000E+00
    0.25257E+07        -0.59668E+08         0.00000E+00
    0.00000E+00         0.00000E+00        -0.52536E+08
 
   -0.52225E+08         0.28665E+07         0.00000E+00
    0.28665E+07        -0.59389E+08         0.00000E+00
    0.00000E+00         0.00000E+00        -0.52555E+08
 
   -0.41579E+08         0.84915E+05         0.00000E+00
    0.84915E+05        -0.60009E+08         0.00000E+00
    0.00000E+00         0.00000E+00        -0.51363E+08
 
   -0.42642E+08         0.20590E+06         0.00000E+00
    0.20590E+06        -0.60036E+08         0.00000E+00
    0.00000E+00         0.00000E+00        -0.51388E+08
 
   -0.43620E+08         0.28754E+06         0.00000E+00
    0.28754E+06        -0.60088E+08         0.00000E+00
    0.00000E+00         0.00000E+00        -0.51434E+08
 
   -0.44516E+08         0.35613E+06         0.00000E+00
    0.35613E+06        -0.60159E+08         0.00000E+00
    0.00000E+00         0.00000E+00        -0.51495E+08
 
   -0.45336E+08         0.43264E+06         0.00000E+00
    0.43264E+06        -0.60241E+08         0.00000E+00
    0.00000E+00         0.00000E+00        -0.51567E+08
 
   -0.46091E+08         0.53302E+06         0.00000E+00
    0.53302E+06        -0.60327E+08         0.00000E+00
    0.00000E+00         0.00000E+00        -0.51646E+08
 
   -0.46792E+08         0.66859E+06         0.00000E+00
    0.66859E+06        -0.60405E+08         0.00000E+00
    0.00000E+00         0.00000E+00        -0.51728E+08
 
   -0.47451E+08         0.84645E+06         0.00000E+00
    0.84645E+06        -0.60468E+08         0.00000E+00
    0.00000E+00         0.00000E+00        -0.51811E+08
 
   -0.48082E+08         0.10699E+07         0.00000E+00
    0.10699E+07        -0.60504E+08         0.00000E+00
    0.00000E+00         0.00000E+00        -0.51891E+08
 
   -0.48696E+08         0.13390E+07         0.00000E+00
    0.13390E+07        -0.60505E+08         0.00000E+00
    0.00000E+00         0.00000E+00        -0.51966E+08
 
   -0.49305E+08         0.16506E+07         0.00000E+00
    0.16506E+07        -0.60463E+08         0.00000E+00
    0.00000E+00         0.00000E+00        -0.52033E+08
 
   -0.49918E+08         0.19992E+07         0.00000E+00
    0.19992E+07        -0.60370E+08         0.00000E+00
    0.00000E+00         0.00000E+00        -0.52092E+08
 
   -0.50544E+08         0.23765E+07         0.00000E+00
    0.23765E+07        -0.60219E+08         0.00000E+00
    0.00000E+00         0.00000E+00        -0.52138E+08
 
   -0.51189E+08         0.27727E+07         0.00000E+00
    0.27727E+07        -0.60007E+08         0.00000E+00
    0.00000E+00         0.00000E+00        -0.52171E+08
 
   -0.51854E+08         0.31759E+07         0.00000E+00
    0.31759E+07        -0.59730E+08         0.00000E+00
    0.00000E+00         0.00000E+00        -0.52188E+08
 
   -0.41444E+08         0.67759E+05         0.00000E+00
    0.67759E+05        -0.60013E+08         0.00000E+00
    0.00000E+00         0.00000E+00        -0.51017E+08
 
   -0.42560E+08         0.15648E+06         0.00000E+00
    0.15648E+06        -0.60053E+08         0.00000E+00
    0.00000E+00         0.00000E+00        -0.51040E+08
 
   -0.43560E+08         0.21132E+06         0.00000E+00
    0.21132E+06        -0.60127E+08         0.00000E+00
    0.00000E+00         0.00000E+00        -0.51082E+08
 
   -0.44453E+08         0.26102E+06         0.00000E+00
    0.26102E+06        -0.60229E+08         0.00000E+00
    0.00000E+00         0.00000E+00        -0.51137E+08
 
   -0.45252E+08         0.32811E+06         0.00000E+00
    0.32811E+06        -0.60346E+08         0.00000E+00
    0.00000E+00         0.00000E+00        -0.51202E+08
 
   -0.45971E+08         0.42940E+06         0.00000E+00
    0.42940E+06        -0.60470E+08         0.00000E+00
    0.00000E+00         0.00000E+00        -0.51273E+08
 
   -0.46628E+08         0.57651E+06         0.00000E+00
    0.57651E+06        -0.60588E+08         0.00000E+00
    0.00000E+00         0.00000E+00        -0.51346E+08
 
   -0.47237E+08         0.77640E+06         0.00000E+00
    0.77640E+06        -0.60688E+08         0.00000E+00
    0.00000E+00         0.00000E+00        -0.51420E+08
 
   -0.47817E+08         0.10320E+07         0.00000E+00
    0.10320E+07        -0.60760E+08         0.00000E+00
    0.00000E+00         0.00000E+00        -0.51491E+08
 
   -0.48382E+08         0.13425E+07         0.00000E+00
    0.13425E+07        -0.60794E+08         0.00000E+00
    0.00000E+00         0.00000E+00        -0.51557E+08
 
   -0.48947E+08         0.17040E+07         0.00000E+00
    0.17040E+07        -0.60780E+08         0.00000E+00
    0.00000E+00         0.00000E+00        -0.51617E+08
 
   -0.49524E+08         0.21098E+07         0.00000E+00
    0.21098E+07        -0.60710E+08         0.00000E+00
    0.00000E+00         0.00000E+00        -0.51669E+08
 
   -0.50123E+08         0.25504E+07         0.00000E+00
    0.25504E+07        -0.60576E+08         0.00000E+00
    0.00000E+00         0.00000E+00        -0.51710E+08
 
   -0.50753E+08         0.30142E+07         0.00000E+00
    0.30142E+07        -0.60373E+08         0.00000E+00
    0.00000E+00         0.00000E+00        -0.51739E+08
 
   -0.51417E+08         0.34876E+07         0.00000E+00
    0.34876E+07        -0.60097E+08         0.00000E+00
    0.00000E+00         0.00000E+00        -0.51754E+08
 
   -0.41349E+08         0.43359E+05         0.00000E+00
    0.43359E+05        -0.60017E+08         0.00000E+00
    0.00000E+00         0.00000E+00        -0.50608E+08
 
   -0.42512E+08         0.87696E+05         0.00000E+00
    0.87696E+05        -0.60071E+08         0.00000E+00
    0.00000E+00         0.00000E+00        -0.50629E+08
 
   -0.43526E+08         0.10667E+06         0.00000E+00
    0.10667E+06        -0.60170E+08         0.00000E+00
    0.00000E+00         0.00000E+00        -0.50666E+08
 
   -0.44407E+08         0.13121E+06         0.00000E+00
    0.13121E+06        -0.60304E+08         0.00000E+00
    0.00000E+00         0.00000E+00        -0.50714E+08
 
   -0.45173E+08         0.18510E+06         0.00000E+00
    0.18510E+06        -0.60460E+08         0.00000E+00
    0.00000E+00         0.00000E+00        -0.50770E+08
 
   -0.45845E+08         0.28566E+06         0.00000E+00
    0.28566E+06        -0.60624E+08         0.00000E+00
    0.00000E+00         0.00000E+00        -0.50832E+08
 
   -0.46446E+08         0.44447E+06         0.00000E+00
    0.44447E+06        -0.60782E+08         0.00000E+00
    0.00000E+00         0.00000E+00        -0.50895E+08
 
   -0.46995E+08         0.66805E+06         0.00000E+00
    0.66805E+06        -0.60923E+08         0.00000E+00
    0.00000E+00         0.00000E+00        -0.50959E+08
 
   -0.47514E+08         0.95861E+06         0.00000E+00
    0.95861E+06        -0.61032E+08         0.00000E+00
    0.00000E+00         0.00000E+00        -0.51020E+08
 
   -0.48020E+08         0.13145E+07         0.00000E+00
    0.13145E+07        -0.61100E+08         0.00000E+00
    0.00000E+00         0.00000E+00        -0.51077E+08
 
   -0.48533E+08         0.17309E+07         0.00000E+00
    0.17309E+07        -0.61116E+08         0.00000E+00
    0.00000E+00         0.00000E+00        -0.51128E+08
 
   -0.49066E+08         0.21998E+07         0.00000E+00
    0.21998E+07        -0.61070E+08         0.00000E+00
    0.00000E+00         0.00000E+00        -0.51172E+08
 
   -0.49633E+08         0.27105E+07         0.00000E+00
    0.27105E+07        -0.60953E+08         0.00000E+00
    0.00000E+00         0.00000E+00        -0.51207E+08
 
   -0.50243E+08         0.32496E+07         0.00000E+00
    0.32496E+07        -0.60761E+08         0.00000E+00
    0.00000E+00         0.00000E+00        -0.51232E+08
 
   -0.50905E+08         0.38017E+07         0.00000E+00
    0.38017E+07        -0.60487E+08         0.00000E+00
    0.00000E+00         0.00000E+00        -0.51245E+08
 
   -0.41310E+08         0.11036E+05         0.00000E+00
    0.11036E+05        -0.60022E+08         0.00000E+00
    0.00000E+00         0.00000E+00        -0.50128E+08
 
   -0.42511E+08        -0.20584E+04         0.00000E+00
   -0.20584E+04        -0.60090E+08         0.00000E+00
    0.00000E+00         0.00000E+00        -0.50145E+08
 
   -0.43527E+08        -0.28479E+05         0.00000E+00
   -0.28479E+05        -0.60216E+08         0.00000E+00
    0.00000E+00         0.00000E+00        -0.50176E+08
 
   -0.44382E+08        -0.35458E+05         0.00000E+00
   -0.35458E+05        -0.60385E+08         0.00000E+00
    0.00000E+00         0.00000E+00        -0.50217E+08
 
   -0.45102E+08         0.16057E+04         0.00000E+00
    0.16057E+04        -0.60580E+08         0.00000E+00
    0.00000E+00         0.00000E+00        -0.50264E+08
 
   -0.45714E+08         0.10006E+06         0.00000E+00
    0.10006E+06        -0.60785E+08         0.00000E+00
    0.00000E+00         0.00000E+00        -0.50314E+08
 
   -0.46246E+08         0.27098E+06         0.00000E+00
    0.27098E+06        -0.60986E+08         0.00000E+00
    0.00000E+00         0.00000E+00        -0.50367E+08
 
   -0.46722E+08         0.52011E+06         0.00000E+00
    0.52011E+06        -0.61167E+08         0.00000E+00
    0.00000E+00         0.00000E+00        -0.50418E+08
 
   -0.47168E+08         0.84868E+06         0.00000E+00
    0.84868E+06        -0.61315E+08         0.00000E+00
    0.00000E+00         0.00000E+00        -0.50468E+08
 
   -0.47606E+08         0.12541E+07         0.00000E+00
    0.12541E+07        -0.61418E+08         0.00000E+00
    0.00000E+00         0.00000E+00        -0.50515E+08
 
   -0.48057E+08         0.17303E+07         0.00000E+00
    0.17303E+07        -0.61464E+08         0.00000E+00
    0.00000E+00         0.00000E+00        -0.50556E+08
 
   -0.48538E+08         0.22682E+07         0.00000E+00
    0.22682E+07        -0.61443E+08         0.00000E+00
    0.00000E+00         0.00000E+00        -0.50592E+08
 
   -0.49066E+08         0.28558E+07         0.00000E+00
    0.28558E+07        -0.61345E+08         0.00000E+00
    0.00000E+00         0.00000E+00        -0.50620E+08
 
   -0.49653E+08         0.34783E+07         0.00000E+00
    0.34783E+07        -0.61164E+08         0.00000E+00
    0.00000E+00         0.00000E+00        -0.50641E+08
 
   -0.50308E+08         0.41179E+07         0.00000E+00
    0.41179E+07        -0.60893E+08         0.00000E+00
    0.00000E+00         0.00000E+00        -0.50651E+08
 
   -0.41340E+08        -0.29845E+05         0.00000E+00
   -0.29845E+05        -0.60027E+08         0.00000E+00
    0.00000E+00         0.00000E+00        -0.49566E+08
 
   -0.42567E+08        -0.11420E+06         0.00000E+00
   -0.11420E+06        -0.60111E+08         0.00000E+00
    0.00000E+00         0.00000E+00        -0.49579E+08
 
   -0.43571E+08        -0.19577E+06         0.00000E+00
   -0.19577E+06        -0.60265E+08         0.00000E+00
    0.00000E+00         0.00000E+00        -0.49604E+08
 
   -0.44384E+08        -0.24049E+06         0.00000E+00
   -0.24049E+06        -0.60469E+08         0.00000E+00
    0.00000E+00         0.00000E+00        -0.49635E+08
 
   -0.45042E+08        -0.22354E+06         0.00000E+00
   -0.22354E+06        -0.60705E+08         0.00000E+00
    0.00000E+00         0.00000E+00        -0.49671E+08
 
   -0.45578E+08        -0.12816E+06         0.00000E+00
   -0.12816E+06        -0.60952E+08         0.00000E+00
    0.00000E+00         0.00000E+00        -0.49710E+08
 
   -0.46026E+08         0.55654E+05         0.00000E+00
    0.55654E+05        -0.61195E+08         0.00000E+00
    0.00000E+00         0.00000E+00        -0.49750E+08
 
   -0.46416E+08         0.33239E+06         0.00000E+00
    0.33239E+06        -0.61417E+08         0.00000E+00
    0.00000E+00         0.00000E+00        -0.49789E+08
 
   -0.46777E+08         0.70202E+06         0.00000E+00
    0.70202E+06        -0.61603E+08         0.00000E+00
    0.00000E+00         0.00000E+00        -0.49826E+08
 
   -0.47135E+08         0.11607E+07         0.00000E+00
    0.11607E+07        -0.61740E+08         0.00000E+00
    0.00000E+00         0.00000E+00        -0.49861E+08
 
   -0.47513E+08         0.17015E+07         0.00000E+00
    0.17015E+07        -0.61816E+08         0.00000E+00
    0.00000E+00         0.00000E+00        -0.49892E+08
 
   -0.47934E+08         0.23141E+07         0.00000E+00
    0.23141E+07        -0.61821E+08         0.00000E+00
    0.00000E+00         0.00000E+00        -0.49918E+08
 
   -0.48415E+08         0.29855E+07         0.00000E+00
    0.29855E+07        -0.61743E+08         0.00000E+00
    0.00000E+00         0.00000E+00        -0.49939E+08
 
   -0.48972E+08         0.36992E+07         0.00000E+00
    0.36992E+07        -0.61574E+08         0.00000E+00
    0.00000E+00         0.00000E+00        -0.49954E+08
 
   -0.49618E+08         0.44357E+07         0.00000E+00
    0.44357E+07        -0.61306E+08         0.00000E+00
    0.00000E+00         0.00000E+00        -0.49962E+08
 
   -0.41458E+08        -0.79843E+05         0.00000E+00
   -0.79843E+05        -0.60032E+08         0.00000E+00
    0.00000E+00         0.00000E+00        -0.48910E+08
 
   -0.42693E+08        -0.24984E+06         0.00000E+00
   -0.24984E+06        -0.60133E+08         0.00000E+00
    0.00000E+00         0.00000E+00        -0.48919E+08
 
   -0.43665E+08        -0.39631E+06         0.00000E+00
   -0.39631E+06        -0.60316E+08         0.00000E+00
    0.00000E+00         0.00000E+00        -0.48936E+08
 
   -0.44417E+08        -0.48455E+06         0.00000E+00
   -0.48455E+06        -0.60556E+08         0.00000E+00
    0.00000E+00         0.00000E+00        -0.48957E+08
 
   -0.44994E+08        -0.49038E+06         0.00000E+00
   -0.49038E+06        -0.60831E+08         0.00000E+00
    0.00000E+00         0.00000E+00        -0.48982E+08
 
   -0.45437E+08        -0.39844E+06         0.00000E+00
   -0.39844E+06        -0.61120E+08         0.00000E+00
    0.00000E+00         0.00000E+00        -0.49007E+08
 
   -0.45785E+08        -0.20052E+06         0.00000E+00
   -0.20052E+06        -0.61404E+08         0.00000E+00
    0.00000E+00         0.00000E+00        -0.49033E+08
 
   -0.46074E+08         0.10607E+06         0.00000E+00
    0.10607E+06        -0.61664E+08         0.00000E+00
    0.00000E+00         0.00000E+00        -0.49058E+08
 
   -0.46337E+08         0.51968E+06         0.00000E+00
    0.51968E+06        -0.61886E+08         0.00000E+00
    0.00000E+00         0.00000E+00        -0.49082E+08
 
   -0.46602E+08         0.10352E+07         0.00000E+00
    0.10352E+07        -0.62056E+08         0.00000E+00
    0.00000E+00         0.00000E+00        -0.49104E+08
 
   -0.46898E+08         0.16447E+07         0.00000E+00
    0.16447E+07        -0.62162E+08         0.00000E+00
    0.00000E+00         0.00000E+00        -0.49123E+08
 
   -0.47247E+08         0.23371E+07         0.00000E+00
    0.23371E+07        -0.62191E+08         0.00000E+00
    0.00000E+00         0.00000E+00        -0.49140E+08
 
   -0.47673E+08         0.30984E+07         0.00000E+00
    0.30984E+07        -0.62134E+08         0.00000E+00
    0.00000E+00         0.00000E+00        -0.49153E+08
 
   -0.48193E+08         0.39112E+07         0.00000E+00
    0.39112E+07        -0.61978E+08         0.00000E+00
    0.00000E+00         0.00000E+00        -0.49162E+08
 
   -0.48824E+08         0.47541E+07         0.00000E+00
    0.47541E+07        -0.61716E+08         0.00000E+00
    0.00000E+00         0.00000E+00        -0.49167E+08
 
   -0.41680E+08        -0.13942E+06         0.00000E+00
   -0.13942E+06        -0.60037E+08         0.00000E+00
    0.00000E+00         0.00000E+00        -0.48147E+08
 
   -0.42900E+08        -0.40974E+06         0.00000E+00
   -0.40974E+06        -0.60156E+08         0.00000E+00
    0.00000E+00         0.00000E+00        -0.48152E+08
 
   -0.43816E+08        -0.63043E+06         0.00000E+00
   -0.63043E+06        -0.60367E+08         0.00000E+00
    0.00000E+00         0.00000E+00        -0.48161E+08
 
   -0.44485E+08        -0.76716E+06         0.00000E+00
   -0.76716E+06        -0.60643E+08         0.00000E+00
    0.00000E+00         0.00000E+00        -0.48171E+08
 
   -0.44959E+08        -0.79745E+06         0.00000E+00
   -0.79745E+06        -0.60957E+08         0.00000E+00
    0.00000E+00         0.00000E+00        -0.48182E+08
 
   -0.45289E+08        -0.70846E+06         0.00000E+00
   -0.70846E+06        -0.61284E+08         0.00000E+00
    0.00000E+00         0.00000E+00        -0.48193E+08
 
   -0.45520E+08        -0.49466E+06         0.00000E+00
   -0.49466E+06        -0.61604E+08         0.00000E+00
    0.00000E+00         0.00000E+00        -0.48204E+08
 
   -0.45693E+08        -0.15587E+06         0.00000E+00
   -0.15587E+06        -0.61899E+08         0.00000E+00
    0.00000E+00         0.00000E+00        -0.48214E+08
 
   -0.45844E+08         0.30429E+06         0.00000E+00
    0.30429E+06        -0.62153E+08         0.00000E+00
    0.00000E+00         0.00000E+00        -0.48223E+08
 
   -0.46006E+08         0.87943E+06         0.00000E+00
    0.87943E+06        -0.62353E+08         0.00000E+00
    0.00000E+00         0.00000E+00        -0.48232E+08
 
   -0.46206E+08         0.15607E+07         0.00000E+00
    0.15607E+07        -0.62486E+08         0.00000E+00
    0.00000E+00         0.00000E+00        -0.48239E+08
 
   -0.46474E+08         0.23368E+07         0.00000E+00
    0.23368E+07        -0.62541E+08         0.00000E+00
    0.00000E+00         0.00000E+00        -0.48245E+08
 
   -0.46833E+08         0.31934E+07         0.00000E+00
    0.31934E+07        -0.62504E+08         0.00000E+00
    0.00000E+00         0.00000E+00        -0.48250E+08
 
   -0.47306E+08         0.41124E+07         0.00000E+00
    0.41124E+07        -0.62364E+08         0.00000E+00
    0.00000E+00         0.00000E+00        -0.48253E+08
 
   -0.47915E+08         0.50710E+07         0.00000E+00
    0.50710E+07        -0.62109E+08         0.00000E+00
    0.00000E+00         0.00000E+00        -0.48255E+08
 
   -0.42023E+08        -0.20890E+06         0.00000E+00
   -0.20890E+06        -0.60043E+08         0.00000E+00
    0.00000E+00         0.00000E+00        -0.47265E+08
 
   -0.43200E+08        -0.59412E+06         0.00000E+00
   -0.59412E+06        -0.60178E+08         0.00000E+00
    0.00000E+00         0.00000E+00        -0.47265E+08
 
   -0.44032E+08        -0.89748E+06         0.00000E+00
   -0.89748E+06        -0.60418E+08         0.00000E+00
    0.00000E+00         0.00000E+00        -0.47264E+08
 
   -0.44590E+08        -0.10863E+07         0.00000E+00
   -0.10863E+07        -0.60728E+08         0.00000E+00
    0.00000E+00         0.00000E+00        -0.47263E+08
 
   -0.44937E+08        -0.11413E+07         0.00000E+00
   -0.11413E+07        -0.61076E+08         0.00000E+00
    0.00000E+00         0.00000E+00        -0.47259E+08
 
   -0.45134E+08        -0.10536E+07         0.00000E+00
   -0.10536E+07        -0.61436E+08         0.00000E+00
    0.00000E+00         0.00000E+00        -0.47255E+08
 
   -0.45230E+08        -0.82151E+06         0.00000E+00
   -0.82151E+06        -0.61786E+08         0.00000E+00
    0.00000E+00         0.00000E+00        -0.47250E+08
 
   -0.45272E+08        -0.44817E+06         0.00000E+00
   -0.44817E+06        -0.62109E+08         0.00000E+00
    0.00000E+00         0.00000E+00        -0.47244E+08
 
   -0.45298E+08         0.60474E+05         0.00000E+00
    0.60474E+05        -0.62389E+08         0.00000E+00
    0.00000E+00         0.00000E+00        -0.47238E+08
 
   -0.45343E+08         0.69671E+06         0.00000E+00
    0.69671E+06        -0.62614E+08         0.00000E+00
    0.00000E+00         0.00000E+00        -0.47232E+08
 
   -0.45436E+08         0.14514E+07         0.00000E+00
    0.14514E+07        -0.62772E+08         0.00000E+00
    0.00000E+00         0.00000E+00        -0.47226E+08
 
   -0.45609E+08         0.23134E+07         0.00000E+00
    0.23134E+07        -0.62850E+08         0.00000E+00
    0.00000E+00         0.00000E+00        -0.47221E+08
 
   -0.45889E+08         0.32690E+07         0.00000E+00
    0.32690E+07        -0.62834E+08         0.00000E+00
    0.00000E+00         0.00000E+00        -0.47217E+08
 
   -0.46305E+08         0.43001E+07         0.00000E+00
    0.43001E+07        -0.62712E+08         0.00000E+00
    0.00000E+00         0.00000E+00        -0.47214E+08
 
   -0.46881E+08         0.53836E+07         0.00000E+00
    0.53836E+07        -0.62468E+08         0.00000E+00
    0.00000E+00         0.00000E+00        -0.47213E+08
 
   -0.42507E+08        -0.28847E+06         0.00000E+00
   -0.28847E+06        -0.60049E+08         0.00000E+00
    0.00000E+00         0.00000E+00        -0.46247E+08
 
   -0.43604E+08        -0.80258E+06         0.00000E+00
   -0.80258E+06        -0.60201E+08         0.00000E+00
    0.00000E+00         0.00000E+00        -0.46242E+08
 
   -0.44317E+08        -0.11955E+07         0.00000E+00
   -0.11955E+07        -0.60467E+08         0.00000E+00
    0.00000E+00         0.00000E+00        -0.46231E+08
 
   -0.44732E+08        -0.14380E+07         0.00000E+00
   -0.14380E+07        -0.60806E+08         0.00000E+00
    0.00000E+00         0.00000E+00        -0.46217E+08
 
   -0.44926E+08        -0.15160E+07         0.00000E+00
   -0.15160E+07        -0.61183E+08         0.00000E+00
    0.00000E+00         0.00000E+00        -0.46199E+08
 
   -0.44967E+08        -0.14264E+07         0.00000E+00
   -0.14264E+07        -0.61567E+08         0.00000E+00
    0.00000E+00         0.00000E+00        -0.46178E+08
 
   -0.44912E+08        -0.11728E+07         0.00000E+00
   -0.11728E+07        -0.61938E+08         0.00000E+00
    0.00000E+00         0.00000E+00        -0.46156E+08
 
   -0.44809E+08        -0.76272E+06         0.00000E+00
   -0.76272E+06        -0.62279E+08         0.00000E+00
    0.00000E+00         0.00000E+00        -0.46134E+08
 
   -0.44697E+08        -0.20476E+06         0.00000E+00
   -0.20476E+06        -0.62576E+08         0.00000E+00
    0.00000E+00         0.00000E+00        -0.46112E+08
 
   -0.44612E+08         0.49226E+06         0.00000E+00
    0.49226E+06        -0.62818E+08         0.00000E+00
    0.00000E+00         0.00000E+00        -0.46091E+08
 
   -0.44587E+08         0.13195E+07         0.00000E+00
    0.13195E+07        -0.62996E+08         0.00000E+00
    0.00000E+00         0.00000E+00        -0.46073E+08
 
   -0.44652E+08         0.22671E+07         0.00000E+00
    0.22671E+07        -0.63095E+08         0.00000E+00
    0.00000E+00         0.00000E+00        -0.46056E+08
 
   -0.44839E+08         0.33230E+07         0.00000E+00
    0.33230E+07        -0.63103E+08         0.00000E+00
    0.00000E+00         0.00000E+00        -0.46043E+08
 
   -0.45182E+08         0.44706E+07         0.00000E+00
    0.44706E+07        -0.63002E+08         0.00000E+00
    0.00000E+00         0.00000E+00        -0.46034E+08
 
   -0.45712E+08         0.56870E+07         0.00000E+00
    0.56870E+07        -0.62774E+08         0.00000E+00
    0.00000E+00         0.00000E+00        -0.46029E+08
 
   -0.43149E+08        -0.37810E+06         0.00000E+00
   -0.37810E+06        -0.60054E+08         0.00000E+00
    0.00000E+00         0.00000E+00        -0.45078E+08
 
   -0.44121E+08        -0.10339E+07         0.00000E+00
   -0.10339E+07        -0.60223E+08         0.00000E+00
    0.00000E+00         0.00000E+00        -0.45067E+08
 
   -0.44674E+08        -0.15209E+07         0.00000E+00
   -0.15209E+07        -0.60512E+08         0.00000E+00
    0.00000E+00         0.00000E+00        -0.45046E+08
 
   -0.44911E+08        -0.18157E+07         0.00000E+00
   -0.18157E+07        -0.60874E+08         0.00000E+00
    0.00000E+00         0.00000E+00        -0.45018E+08
 
   -0.44923E+08        -0.19122E+07         0.00000E+00
   -0.19122E+07        -0.61269E+08         0.00000E+00
    0.00000E+00         0.00000E+00        -0.44984E+08
 
   -0.44786E+08        -0.18155E+07         0.00000E+00
   -0.18155E+07        -0.61666E+08         0.00000E+00
    0.00000E+00         0.00000E+00        -0.44947E+08
 
   -0.44563E+08        -0.15365E+07         0.00000E+00
   -0.15365E+07        -0.62044E+08         0.00000E+00
    0.00000E+00         0.00000E+00        -0.44908E+08
 
   -0.44302E+08        -0.10880E+07         0.00000E+00
   -0.10880E+07        -0.62388E+08         0.00000E+00
    0.00000E+00         0.00000E+00        -0.44869E+08
 
   -0.44042E+08        -0.48153E+06         0.00000E+00
   -0.48153E+06        -0.62690E+08         0.00000E+00
    0.00000E+00         0.00000E+00        -0.44831E+08
 
   -0.43818E+08         0.27330E+06         0.00000E+00
    0.27330E+06        -0.62940E+08         0.00000E+00
    0.00000E+00         0.00000E+00        -0.44796E+08
 
   -0.43661E+08         0.11689E+07         0.00000E+00
    0.11689E+07        -0.63130E+08         0.00000E+00
    0.00000E+00         0.00000E+00        -0.44764E+08
 
   -0.43603E+08         0.21983E+07         0.00000E+00
    0.21983E+07        -0.63249E+08         0.00000E+00
    0.00000E+00         0.00000E+00        -0.44736E+08
 
   -0.43681E+08         0.33526E+07         0.00000E+00
    0.33526E+07        -0.63281E+08         0.00000E+00
    0.00000E+00         0.00000E+00        -0.44714E+08
 
   -0.43932E+08         0.46183E+07         0.00000E+00
    0.46183E+07        -0.63207E+08         0.00000E+00
    0.00000E+00         0.00000E+00        -0.44698E+08
 
   -0.44397E+08         0.59743E+07         0.00000E+00
    0.59743E+07        -0.63002E+08         0.00000E+00
    0.00000E+00         0.00000E+00        -0.44690E+08
 
   -0.43965E+08        -0.47759E+06         0.00000E+00
   -0.47759E+06        -0.60060E+08         0.00000E+00
    0.00000E+00         0.00000E+00        -0.43739E+08
 
   -0.44758E+08        -0.12858E+07         0.00000E+00
   -0.12858E+07        -0.60243E+08         0.00000E+00
    0.00000E+00         0.00000E+00        -0.43722E+08
 
   -0.45101E+08        -0.18678E+07         0.00000E+00
   -0.18678E+07        -0.60550E+08         0.00000E+00
    0.00000E+00         0.00000E+00        -0.43690E+08
 
   -0.45120E+08        -0.22095E+07         0.00000E+00
   -0.22095E+07        -0.60926E+08         0.00000E+00
    0.00000E+00         0.00000E+00        -0.43648E+08
 
   -0.44920E+08        -0.23163E+07         0.00000E+00
   -0.23163E+07        -0.61325E+08         0.00000E+00
    0.00000E+00         0.00000E+00        -0.43599E+08
 
   -0.44585E+08        -0.22050E+07         0.00000E+00
   -0.22050E+07        -0.61717E+08         0.00000E+00
    0.00000E+00         0.00000E+00        -0.43545E+08
 
   -0.44180E+08        -0.18959E+07         0.00000E+00
   -0.18959E+07        -0.62082E+08         0.00000E+00
    0.00000E+00         0.00000E+00        -0.43490E+08
 
   -0.43752E+08        -0.14083E+07         0.00000E+00
   -0.14083E+07        -0.62412E+08         0.00000E+00
    0.00000E+00         0.00000E+00        -0.43434E+08
 
   -0.43336E+08        -0.75669E+06         0.00000E+00
   -0.75669E+06        -0.62702E+08         0.00000E+00
    0.00000E+00         0.00000E+00        -0.43381E+08
 
   -0.42964E+08         0.49281E+05         0.00000E+00
    0.49281E+05        -0.62947E+08         0.00000E+00
    0.00000E+00         0.00000E+00        -0.43332E+08
 
   -0.42664E+08         0.10047E+07         0.00000E+00
    0.10047E+07        -0.63142E+08         0.00000E+00
    0.00000E+00         0.00000E+00        -0.43287E+08
 
   -0.42469E+08         0.21071E+07         0.00000E+00
    0.21071E+07        -0.63278E+08         0.00000E+00
    0.00000E+00         0.00000E+00        -0.43248E+08
 
   -0.42417E+08         0.33533E+07         0.00000E+00
    0.33533E+07        -0.63337E+08         0.00000E+00
    0.00000E+00         0.00000E+00        -0.43217E+08
 
   -0.42553E+08         0.47351E+07         0.00000E+00
    0.47351E+07        -0.63296E+08         0.00000E+00
    0.00000E+00         0.00000E+00        -0.43195E+08
 
   -0.42927E+08         0.62355E+07         0.00000E+00
    0.62355E+07        -0.63126E+08         0.00000E+00
    0.00000E+00         0.00000E+00        -0.43184E+08
 
   -0.44972E+08        -0.58648E+06         0.00000E+00
   -0.58648E+06        -0.60065E+08         0.00000E+00
    0.00000E+00         0.00000E+00        -0.42212E+08
 
   -0.45519E+08        -0.15547E+07         0.00000E+00
   -0.15547E+07        -0.60260E+08         0.00000E+00
    0.00000E+00         0.00000E+00        -0.42188E+08
 
   -0.45594E+08        -0.22273E+07         0.00000E+00
   -0.22273E+07        -0.60578E+08         0.00000E+00
    0.00000E+00         0.00000E+00        -0.42146E+08
 
   -0.45350E+08        -0.26047E+07         0.00000E+00
   -0.26047E+07        -0.60953E+08         0.00000E+00
    0.00000E+00         0.00000E+00        -0.42090E+08
 
   -0.44908E+08        -0.27092E+07         0.00000E+00
   -0.27092E+07        -0.61336E+08         0.00000E+00
    0.00000E+00         0.00000E+00        -0.42025E+08
 
   -0.44357E+08        -0.25732E+07         0.00000E+00
   -0.25732E+07        -0.61699E+08         0.00000E+00
    0.00000E+00         0.00000E+00        -0.41956E+08
 
   -0.43761E+08        -0.22291E+07         0.00000E+00
   -0.22291E+07        -0.62027E+08         0.00000E+00
    0.00000E+00         0.00000E+00        -0.41884E+08
 
   -0.43162E+08        -0.17034E+07         0.00000E+00
   -0.17034E+07        -0.62319E+08         0.00000E+00
    0.00000E+00         0.00000E+00        -0.41814E+08
 
   -0.42587E+08        -0.10135E+07         0.00000E+00
   -0.10135E+07        -0.62576E+08         0.00000E+00
    0.00000E+00         0.00000E+00        -0.41746E+08
 
   -0.42062E+08        -0.16799E+06         0.00000E+00
   -0.16799E+06        -0.62800E+08         0.00000E+00
    0.00000E+00         0.00000E+00        -0.41684E+08
 
   -0.41610E+08         0.83276E+06         0.00000E+00
    0.83276E+06        -0.62991E+08         0.00000E+00
    0.00000E+00         0.00000E+00        -0.41627E+08
 
   -0.41260E+08         0.19932E+07         0.00000E+00
    0.19932E+07        -0.63141E+08         0.00000E+00
    0.00000E+00         0.00000E+00        -0.41579E+08
 
   -0.41055E+08         0.33187E+07         0.00000E+00
    0.33187E+07        -0.63231E+08         0.00000E+00
    0.00000E+00         0.00000E+00        -0.41540E+08
 
   -0.41045E+08         0.48098E+07         0.00000E+00
    0.48098E+07        -0.63235E+08         0.00000E+00
    0.00000E+00         0.00000E+00        -0.41512E+08
 
   -0.41295E+08         0.64563E+07         0.00000E+00
    0.64563E+07        -0.63114E+08         0.00000E+00
    0.00000E+00         0.00000E+00        -0.41497E+08
 
   -0.46184E+08        -0.70406E+06         0.00000E+00
   -0.70406E+06        -0.60070E+08         0.00000E+00
    0.00000E+00         0.00000E+00        -0.40476E+08
 
   -0.46401E+08        -0.18350E+07         0.00000E+00
   -0.18350E+07        -0.60273E+08         0.00000E+00
    0.00000E+00         0.00000E+00        -0.40446E+08
 
   -0.46140E+08        -0.25863E+07         0.00000E+00
   -0.25863E+07        -0.60590E+08         0.00000E+00
    0.00000E+00         0.00000E+00        -0.40393E+08
 
   -0.45585E+08        -0.29805E+07         0.00000E+00
   -0.29805E+07        -0.60944E+08         0.00000E+00
    0.00000E+00         0.00000E+00        -0.40324E+08
 
   -0.44872E+08        -0.30645E+07         0.00000E+00
   -0.30645E+07        -0.61284E+08         0.00000E+00
    0.00000E+00         0.00000E+00        -0.40245E+08
 
   -0.44094E+08        -0.28914E+07         0.00000E+00
   -0.28914E+07        -0.61585E+08         0.00000E+00
    0.00000E+00         0.00000E+00        -0.40161E+08
 
   -0.43305E+08        -0.25080E+07         0.00000E+00
   -0.25080E+07        -0.61845E+08         0.00000E+00
    0.00000E+00         0.00000E+00        -0.40076E+08
 
   -0.42537E+08        -0.19483E+07         0.00000E+00
   -0.19483E+07        -0.62069E+08         0.00000E+00
    0.00000E+00         0.00000E+00        -0.39992E+08
 
   -0.41807E+08        -0.12320E+07         0.00000E+00
   -0.12320E+07        -0.62269E+08         0.00000E+00
    0.00000E+00         0.00000E+00        -0.39912E+08
 
   -0.41128E+08        -0.36459E+06         0.00000E+00
   -0.36459E+06        -0.62454E+08         0.00000E+00
    0.00000E+00         0.00000E+00        -0.39838E+08
 
   -0.40516E+08         0.65976E+06         0.00000E+00
    0.65976E+06        -0.62630E+08         0.00000E+00
    0.00000E+00         0.00000E+00        -0.39772E+08
 
   -0.39995E+08         0.18553E+07         0.00000E+00
    0.18553E+07        -0.62791E+08         0.00000E+00
    0.00000E+00         0.00000E+00        -0.39714E+08
 
   -0.39608E+08         0.32396E+07         0.00000E+00
    0.32396E+07        -0.62919E+08         0.00000E+00
    0.00000E+00         0.00000E+00        -0.39668E+08
 
   -0.39415E+08         0.48264E+07         0.00000E+00
    0.48264E+07        -0.62982E+08         0.00000E+00
    0.00000E+00         0.00000E+00        -0.39635E+08
 
   -0.39494E+08         0.66168E+07         0.00000E+00
    0.66168E+07        -0.62932E+08         0.00000E+00
    0.00000E+00         0.00000E+00        -0.39617E+08
 
   -0.47610E+08        -0.82928E+06         0.00000E+00
   -0.82928E+06        -0.60075E+08         0.00000E+00
    0.00000E+00         0.00000E+00        -0.38510E+08
 
   -0.47393E+08        -0.21182E+07         0.00000E+00
   -0.21182E+07        -0.60279E+08         0.00000E+00
    0.00000E+00         0.00000E+00        -0.38474E+08
 
   -0.46717E+08        -0.29251E+07         0.00000E+00
   -0.29251E+07        -0.60578E+08         0.00000E+00
    0.00000E+00         0.00000E+00        -0.38411E+08
 
   -0.45802E+08        -0.33071E+07         0.00000E+00
   -0.33071E+07        -0.60881E+08         0.00000E+00
    0.00000E+00         0.00000E+00        -0.38330E+08
 
   -0.44796E+08        -0.33465E+07         0.00000E+00
   -0.33465E+07        -0.61138E+08         0.00000E+00
    0.00000E+00         0.00000E+00        -0.38239E+08
 
   -0.43787E+08        -0.31228E+07         0.00000E+00
   -0.31228E+07        -0.61338E+08         0.00000E+00
    0.00000E+00         0.00000E+00        -0.38143E+08
 
   -0.42813E+08        -0.26986E+07         0.00000E+00
   -0.26986E+07        -0.61490E+08         0.00000E+00
    0.00000E+00         0.00000E+00        -0.38046E+08
 
   -0.41889E+08        -0.21142E+07         0.00000E+00
   -0.21142E+07        -0.61613E+08         0.00000E+00
    0.00000E+00         0.00000E+00        -0.37952E+08
 
   -0.41015E+08        -0.13892E+07         0.00000E+00
   -0.13892E+07        -0.61729E+08         0.00000E+00
    0.00000E+00         0.00000E+00        -0.37863E+08
 
   -0.40187E+08        -0.52494E+06         0.00000E+00
   -0.52494E+06        -0.61856E+08         0.00000E+00
    0.00000E+00         0.00000E+00        -0.37781E+08
 
   -0.39410E+08         0.49286E+06         0.00000E+00
    0.49286E+06        -0.62004E+08         0.00000E+00
    0.00000E+00         0.00000E+00        -0.37707E+08
 
   -0.38701E+08         0.16909E+07         0.00000E+00
    0.16909E+07        -0.62174E+08         0.00000E+00
    0.00000E+00         0.00000E+00        -0.37643E+08
 
   -0.38099E+08         0.31034E+07         0.00000E+00
    0.31034E+07        -0.62349E+08         0.00000E+00
    0.00000E+00         0.00000E+00        -0.37591E+08
 
   -0.37674E+08         0.47632E+07         0.00000E+00
    0.47632E+07        -0.62491E+08         0.00000E+00
    0.00000E+00         0.00000E+00        -0.37554E+08
 
   -0.37522E+08         0.66892E+07         0.00000E+00
    0.66892E+07        -0.62540E+08         0.00000E+00
    0.00000E+00         0.00000E+00        -0.37534E+08
 
   -0.49256E+08        -0.96055E+06         0.00000E+00
   -0.96055E+06        -0.60078E+08         0.00000E+00
    0.00000E+00         0.00000E+00        -0.36291E+08
 
   -0.48473E+08        -0.23906E+07         0.00000E+00
   -0.23906E+07        -0.60274E+08         0.00000E+00
    0.00000E+00         0.00000E+00        -0.36249E+08
 
   -0.47289E+08        -0.32131E+07         0.00000E+00
   -0.32131E+07        -0.60527E+08         0.00000E+00
    0.00000E+00         0.00000E+00        -0.36178E+08
 
   -0.45968E+08        -0.35415E+07         0.00000E+00
   -0.35415E+07        -0.60733E+08         0.00000E+00
    0.00000E+00         0.00000E+00        -0.36088E+08
 
   -0.44660E+08        -0.35078E+07         0.00000E+00
   -0.35078E+07        -0.60855E+08         0.00000E+00
    0.00000E+00         0.00000E+00        -0.35988E+08
 
   -0.43431E+08        -0.32229E+07         0.00000E+00
   -0.32229E+07        -0.60903E+08         0.00000E+00
    0.00000E+00         0.00000E+00        -0.35884E+08
 
   -0.42294E+08        -0.27626E+07         0.00000E+00
   -0.27626E+07        -0.60903E+08         0.00000E+00
    0.00000E+00         0.00000E+00        -0.35780E+08
 
   -0.41236E+08        -0.21700E+07         0.00000E+00
   -0.21700E+07        -0.60891E+08         0.00000E+00
    0.00000E+00         0.00000E+00        -0.35680E+08
 
   -0.40234E+08        -0.14616E+07         0.00000E+00
   -0.14616E+07        -0.60896E+08         0.00000E+00
    0.00000E+00         0.00000E+00        -0.35585E+08
 
   -0.39269E+08        -0.63291E+06         0.00000E+00
   -0.63291E+06        -0.60945E+08         0.00000E+00
    0.00000E+00         0.00000E+00        -0.35498E+08
 
   -0.38328E+08         0.33948E+06         0.00000E+00
    0.33948E+06        -0.61055E+08         0.00000E+00
    0.00000E+00         0.00000E+00        -0.35420E+08
 
   -0.37415E+08         0.14964E+07         0.00000E+00
    0.14964E+07        -0.61232E+08         0.00000E+00
    0.00000E+00         0.00000E+00        -0.35352E+08
 
   -0.36563E+08         0.28933E+07         0.00000E+00
    0.28933E+07        -0.61464E+08         0.00000E+00
    0.00000E+00         0.00000E+00        -0.35297E+08
 
   -0.35844E+08         0.45906E+07         0.00000E+00
    0.45906E+07        -0.61712E+08         0.00000E+00
    0.00000E+00         0.00000E+00        -0.35257E+08
 
   -0.35380E+08         0.66355E+07         0.00000E+00
    0.66355E+07        -0.61900E+08         0.00000E+00
    0.00000E+00         0.00000E+00        -0.35235E+08
 
   -0.51117E+08        -0.10952E+07         0.00000E+00
   -0.10952E+07        -0.60080E+08         0.00000E+00
    0.00000E+00         0.00000E+00        -0.33794E+08
 
   -0.49597E+08        -0.26284E+07         0.00000E+00
   -0.26284E+07        -0.60250E+08         0.00000E+00
    0.00000E+00         0.00000E+00        -0.33748E+08
 
   -0.47804E+08        -0.34011E+07         0.00000E+00
   -0.34011E+07        -0.60408E+08         0.00000E+00
    0.00000E+00         0.00000E+00        -0.33671E+08
 
   -0.46044E+08        -0.36213E+07         0.00000E+00
   -0.36213E+07        -0.60448E+08         0.00000E+00
    0.00000E+00         0.00000E+00        -0.33575E+08
 
   -0.44448E+08        -0.34882E+07         0.00000E+00
   -0.34882E+07        -0.60365E+08         0.00000E+00
    0.00000E+00         0.00000E+00        -0.33471E+08
 
   -0.43031E+08        -0.31416E+07         0.00000E+00
   -0.31416E+07        -0.60202E+08         0.00000E+00
    0.00000E+00         0.00000E+00        -0.33365E+08
 
   -0.41764E+08        -0.26618E+07         0.00000E+00
   -0.26618E+07        -0.60009E+08         0.00000E+00
    0.00000E+00         0.00000E+00        -0.33260E+08
 
   -0.40602E+08        -0.20872E+07         0.00000E+00
   -0.20872E+07        -0.59830E+08         0.00000E+00
    0.00000E+00         0.00000E+00        -0.33159E+08
 
   -0.39499E+08        -0.14281E+07         0.00000E+00
   -0.14281E+07        -0.59704E+08         0.00000E+00
    0.00000E+00         0.00000E+00        -0.33065E+08
 
   -0.38415E+08        -0.67356E+06         0.00000E+00
   -0.67356E+06        -0.59659E+08         0.00000E+00
    0.00000E+00         0.00000E+00        -0.32978E+08
 
   -0.37318E+08         0.20735E+06         0.00000E+00
    0.20735E+06        -0.59719E+08         0.00000E+00
    0.00000E+00         0.00000E+00        -0.32900E+08
 
   -0.36191E+08         0.12684E+07         0.00000E+00
    0.12684E+07        -0.59901E+08         0.00000E+00
    0.00000E+00         0.00000E+00        -0.32832E+08
 
   -0.35049E+08         0.25894E+07         0.00000E+00
    0.25894E+07        -0.60203E+08         0.00000E+00
    0.00000E+00         0.00000E+00        -0.32776E+08
 
   -0.33962E+08         0.42697E+07         0.00000E+00
    0.42697E+07        -0.60588E+08         0.00000E+00
    0.00000E+00         0.00000E+00        -0.32735E+08
 
   -0.33076E+08         0.64031E+07         0.00000E+00
    0.64031E+07        -0.60969E+08         0.00000E+00
    0.00000E+00         0.00000E+00        -0.32713E+08
 
   -0.53172E+08        -0.12277E+07         0.00000E+00
   -0.12277E+07        -0.60078E+08         0.00000E+00
    0.00000E+00         0.00000E+00        -0.30993E+08
 
   -0.50685E+08        -0.27850E+07         0.00000E+00
   -0.27850E+07        -0.60183E+08         0.00000E+00
    0.00000E+00         0.00000E+00        -0.30946E+08
 
   -0.48186E+08        -0.34058E+07         0.00000E+00
   -0.34058E+07        -0.60158E+08         0.00000E+00
    0.00000E+00         0.00000E+00        -0.30867E+08
 
   -0.45995E+08        -0.34587E+07         0.00000E+00
   -0.34587E+07        -0.59927E+08         0.00000E+00
    0.00000E+00         0.00000E+00        -0.30772E+08
 
   -0.44158E+08        -0.32185E+07         0.00000E+00
   -0.32185E+07        -0.59554E+08         0.00000E+00
    0.00000E+00         0.00000E+00        -0.30671E+08
 
   -0.42605E+08        -0.28322E+07         0.00000E+00
   -0.28322E+07        -0.59126E+08         0.00000E+00
    0.00000E+00         0.00000E+00        -0.30570E+08
 
   -0.41252E+08        -0.23666E+07         0.00000E+00
   -0.23666E+07        -0.58709E+08         0.00000E+00
    0.00000E+00         0.00000E+00        -0.30471E+08
 
   -0.40021E+08        -0.18471E+07         0.00000E+00
   -0.18471E+07        -0.58350E+08         0.00000E+00
    0.00000E+00         0.00000E+00        -0.30377E+08
 
   -0.38845E+08        -0.12755E+07         0.00000E+00
   -0.12755E+07        -0.58083E+08         0.00000E+00
    0.00000E+00         0.00000E+00        -0.30289E+08
 
   -0.37666E+08        -0.63616E+06         0.00000E+00
   -0.63616E+06        -0.57937E+08         0.00000E+00
    0.00000E+00         0.00000E+00        -0.30209E+08
 
   -0.36430E+08         0.10486E+06         0.00000E+00
    0.10486E+06        -0.57940E+08         0.00000E+00
    0.00000E+00         0.00000E+00        -0.30136E+08
 
   -0.35092E+08         0.10072E+07         0.00000E+00
    0.10072E+07        -0.58120E+08         0.00000E+00
    0.00000E+00         0.00000E+00        -0.30072E+08
 
   -0.33630E+08         0.21719E+07         0.00000E+00
    0.21719E+07        -0.58497E+08         0.00000E+00
    0.00000E+00         0.00000E+00        -0.30020E+08
 
   -0.32086E+08         0.37507E+07         0.00000E+00
    0.37507E+07        -0.59056E+08         0.00000E+00
    0.00000E+00         0.00000E+00        -0.29980E+08
 
   -0.30629E+08         0.59174E+07         0.00000E+00
    0.59174E+07        -0.59701E+08         0.00000E+00
    0.00000E+00         0.00000E+00        -0.29958E+08
 
   -0.55359E+08        -0.13434E+07         0.00000E+00
   -0.13434E+07        -0.60060E+08         0.00000E+00
    0.00000E+00         0.00000E+00        -0.27863E+08
 
   -0.51599E+08        -0.27574E+07         0.00000E+00
   -0.27574E+07        -0.60011E+08         0.00000E+00
    0.00000E+00         0.00000E+00        -0.27817E+08
 
   -0.48351E+08        -0.30835E+07         0.00000E+00
   -0.30835E+07        -0.59627E+08         0.00000E+00
    0.00000E+00         0.00000E+00        -0.27743E+08
 
   -0.45813E+08        -0.29462E+07         0.00000E+00
   -0.29462E+07        -0.58983E+08         0.00000E+00
    0.00000E+00         0.00000E+00        -0.27659E+08
 
   -0.43822E+08        -0.26397E+07         0.00000E+00
   -0.26397E+07        -0.58251E+08         0.00000E+00
    0.00000E+00         0.00000E+00        -0.27571E+08
 
   -0.42196E+08        -0.22682E+07         0.00000E+00
   -0.22682E+07        -0.57535E+08         0.00000E+00
    0.00000E+00         0.00000E+00        -0.27484E+08
 
   -0.40800E+08        -0.18683E+07         0.00000E+00
   -0.18683E+07        -0.56893E+08         0.00000E+00
    0.00000E+00         0.00000E+00        -0.27400E+08
 
   -0.39534E+08        -0.14490E+07         0.00000E+00
   -0.14490E+07        -0.56362E+08         0.00000E+00
    0.00000E+00         0.00000E+00        -0.27321E+08
 
   -0.38313E+08        -0.10047E+07         0.00000E+00
   -0.10047E+07        -0.55966E+08         0.00000E+00
    0.00000E+00         0.00000E+00        -0.27248E+08
 
   -0.37066E+08        -0.51877E+06         0.00000E+00
   -0.51877E+06        -0.55727E+08         0.00000E+00
    0.00000E+00         0.00000E+00        -0.27181E+08
 
   -0.35719E+08         0.39239E+05         0.00000E+00
    0.39239E+05        -0.55673E+08         0.00000E+00
    0.00000E+00         0.00000E+00        -0.27120E+08
 
   -0.34195E+08         0.72285E+06         0.00000E+00
    0.72285E+06        -0.55840E+08         0.00000E+00
    0.00000E+00         0.00000E+00        -0.27066E+08
 
   -0.32409E+08         0.16325E+07         0.00000E+00
    0.16325E+07        -0.56279E+08         0.00000E+00
    0.00000E+00         0.00000E+00        -0.27021E+08
 
   -0.30321E+08         0.29752E+07         0.00000E+00
    0.29752E+07        -0.57039E+08         0.00000E+00
    0.00000E+00         0.00000E+00        -0.26987E+08
 
   -0.28082E+08         0.50687E+07         0.00000E+00
    0.50687E+07        -0.58046E+08         0.00000E+00
    0.00000E+00         0.00000E+00        -0.26967E+08
 
   -0.57502E+08        -0.13820E+07         0.00000E+00
   -0.13820E+07        -0.59988E+08         0.00000E+00
    0.00000E+00         0.00000E+00        -0.24375E+08
 
   -0.52119E+08        -0.22798E+07         0.00000E+00
   -0.22798E+07        -0.59476E+08         0.00000E+00
    0.00000E+00         0.00000E+00        -0.24337E+08
 
   -0.48279E+08        -0.22383E+07         0.00000E+00
   -0.22383E+07        -0.58455E+08         0.00000E+00
    0.00000E+00         0.00000E+00        -0.24280E+08
 
   -0.45564E+08        -0.20111E+07         0.00000E+00
   -0.20111E+07        -0.57314E+08         0.00000E+00
    0.00000E+00         0.00000E+00        -0.24218E+08
 
   -0.43511E+08        -0.17417E+07         0.00000E+00
   -0.17417E+07        -0.56229E+08         0.00000E+00
    0.00000E+00         0.00000E+00        -0.24156E+08
 
   -0.41864E+08        -0.14663E+07         0.00000E+00
   -0.14663E+07        -0.55264E+08         0.00000E+00
    0.00000E+00         0.00000E+00        -0.24095E+08
 
   -0.40459E+08        -0.11928E+07         0.00000E+00
   -0.11928E+07        -0.54445E+08         0.00000E+00
    0.00000E+00         0.00000E+00        -0.24037E+08
 
   -0.39180E+08        -0.91884E+06         0.00000E+00
   -0.91884E+06        -0.53785E+08         0.00000E+00
    0.00000E+00         0.00000E+00        -0.23982E+08
 
   -0.37937E+08        -0.63683E+06         0.00000E+00
   -0.63683E+06        -0.53295E+08         0.00000E+00
    0.00000E+00         0.00000E+00        -0.23932E+08
 
   -0.36647E+08        -0.33388E+06         0.00000E+00
   -0.33388E+06        -0.52990E+08         0.00000E+00
    0.00000E+00         0.00000E+00        -0.23886E+08
 
   -0.35224E+08         0.10684E+05         0.00000E+00
    0.10684E+05        -0.52892E+08         0.00000E+00
    0.00000E+00         0.00000E+00        -0.23844E+08
 
   -0.33563E+08         0.43297E+06         0.00000E+00
    0.43297E+06        -0.53044E+08         0.00000E+00
    0.00000E+00         0.00000E+00        -0.23807E+08
 
   -0.31519E+08         0.10041E+07         0.00000E+00
    0.10041E+07        -0.53513E+08         0.00000E+00
    0.00000E+00         0.00000E+00        -0.23775E+08
 
   -0.28858E+08         0.18981E+07         0.00000E+00
    0.18981E+07        -0.54432E+08         0.00000E+00
    0.00000E+00         0.00000E+00        -0.23750E+08
 
   -0.25534E+08         0.36756E+07         0.00000E+00
    0.36756E+07        -0.55935E+08         0.00000E+00
    0.00000E+00         0.00000E+00        -0.23735E+08
 
   -0.59057E+08        -0.86198E+06         0.00000E+00
   -0.86198E+06        -0.59176E+08         0.00000E+00
    0.00000E+00         0.00000E+00        -0.20502E+08
 
   -0.52156E+08        -0.93789E+06         0.00000E+00
   -0.93789E+06        -0.57690E+08         0.00000E+00
    0.00000E+00         0.00000E+00        -0.20486E+08
 
   -0.48139E+08        -0.82710E+06         0.00000E+00
   -0.82710E+06        -0.56042E+08         0.00000E+00
    0.00000E+00         0.00000E+00        -0.20464E+08
 
   -0.45379E+08        -0.71462E+06         0.00000E+00
   -0.71462E+06        -0.54552E+08         0.00000E+00
    0.00000E+00         0.00000E+00        -0.20441E+08
 
   -0.43321E+08        -0.60592E+06         0.00000E+00
   -0.60592E+06        -0.53260E+08         0.00000E+00
    0.00000E+00         0.00000E+00        -0.20417E+08
 
   -0.41677E+08        -0.50364E+06         0.00000E+00
   -0.50364E+06        -0.52166E+08         0.00000E+00
    0.00000E+00         0.00000E+00        -0.20395E+08
 
   -0.40275E+08        -0.40625E+06         0.00000E+00
   -0.40625E+06        -0.51265E+08         0.00000E+00
    0.00000E+00         0.00000E+00        -0.20374E+08
 
   -0.38994E+08        -0.31110E+06         0.00000E+00
   -0.31110E+06        -0.50553E+08         0.00000E+00
    0.00000E+00         0.00000E+00        -0.20354E+08
 
   -0.37742E+08        -0.21467E+06         0.00000E+00
   -0.21467E+06        -0.50029E+08         0.00000E+00
    0.00000E+00         0.00000E+00        -0.20336E+08
 
   -0.36433E+08        -0.11211E+06         0.00000E+00
   -0.11211E+06        -0.49704E+08         0.00000E+00
    0.00000E+00         0.00000E+00        -0.20319E+08
 
   -0.34972E+08         0.38497E+04         0.00000E+00
    0.38497E+04        -0.49596E+08         0.00000E+00
    0.00000E+00         0.00000E+00        -0.20304E+08
 
   -0.33241E+08         0.14563E+06         0.00000E+00
    0.14563E+06        -0.49745E+08         0.00000E+00
    0.00000E+00         0.00000E+00        -0.20290E+08
 
   -0.31052E+08         0.33892E+06         0.00000E+00
    0.33892E+06        -0.50228E+08         0.00000E+00
    0.00000E+00         0.00000E+00        -0.20278E+08
 
   -0.28064E+08         0.64118E+06         0.00000E+00
    0.64118E+06        -0.51206E+08         0.00000E+00
    0.00000E+00         0.00000E+00        -0.20269E+08
 
   -0.23287E+08         0.14074E+07         0.00000E+00
    0.14074E+07        -0.53170E+08         0.00000E+00
    0.00000E+00         0.00000E+00        -0.20263E+08
 
SCALARS stresss double 
LOOKUP_TABLE default
  -51876048.7270200     
  -52103957.2189267     
  -52352621.3284793     
  -52615356.9092588     
  -52886167.2430414     
  -53159692.5544479     
  -53431152.5179768     
  -53696284.6405369     
  -53951281.0356501     
  -54192725.7843075     
  -54417534.8000389     
  -54622899.8796775     
  -54806238.4233739     
  -54965150.1433508     
  -55097381.9454225     
  -51858367.4142457     
  -52089383.9675402     
  -52340599.6891630     
  -52605377.1448187     
  -52877774.5966662     
  -53152492.3520060     
  -53424812.5775419     
  -53690535.4028594     
  -53945913.7708380     
  -54187589.1732536     
  -54412530.1352582     
  -54617975.0806962     
  -54801381.0182532     
  -54960379.3318700     
  -55092739.8320645     
  -51823165.8910442     
  -52060351.7548991     
  -52316615.4063635     
  -52585416.0846640     
  -52860924.7561060     
  -53137964.1907900     
  -53411943.4509347     
  -53678789.4951003     
  -53934878.2382985     
  -54176967.0915021     
  -54402130.7348657     
  -54607701.6557721     
  -54791216.8028856     
  -54950371.5661943     
  -55082982.1841583     
  -51770766.8461478     
  -52017087.3365833     
  -52280782.7694398     
  -52555465.4671702     
  -52835482.2599908     
  -53115845.3047164     
  -53392158.7336239     
  -53660543.6578093     
  -53917563.6863882     
  -54160152.8096164     
  -54385547.2318883     
  -54591222.5297160     
  -54774837.3481469     
  -54934184.7318218     
  -55067152.1064615     
  -51701655.3537447     
  -51959926.1411948     
  -52233263.8417906     
  -52515499.8174417     
  -52801227.9489178     
  -53085723.3911367     
  -53364859.0494340     
  -53635022.0605087     
  -53893032.1974477     
  -54136063.8064632     
  -54361572.6281923     
  -54567228.6610540     
  -54750856.0872864     
  -54910381.1987658     
  -55043789.2202557     
  -51616479.6445017     
  -51889306.2196654     
  -52174256.8901911     
  -52465460.5069259     
  -52757839.6527507     
  -53047014.7681530     
  -53329208.3634668     
  -53601151.2999811     
  -53859992.7508444     
  -54103215.1374951     
  -54328555.0877573     
  -54533931.2839056     
  -54717379.9637218     
  -54876998.7993049     
  -55010899.8953972     
  -51516051.3216733     
  -51805759.4894355     
  -52103980.4009261     
  -52405234.0842839     
  -52704866.1757985     
  -52998935.1453799     
  -53284102.4562776     
  -53557527.2805553     
  -53816767.0020161     
  -54059684.4094725     
  -54284362.2329447     
  -54489025.5153119     
  -54671972.2455061     
  -54831512.7003793     
  -54965918.0355859     
  -51401344.2982039     
  -51709899.6569306     
  -52022652.1782205     
  -52334624.4936553     
  -52641694.3278696     
  -52940462.8989411     
  -53228129.5998981     
  -53502374.1664787     
  -53761247.1070100     
  -54003068.8095247     
  -54226337.4785720     
  -54429645.9095975     
  -54611607.0891495     
  -54770788.7072153     
  -54905656.8631649     
  -51273491.5179317     
  -51602406.0140232     
  -51930462.8565034     
  -52253318.6604137     
  -52567508.6488133     
  -52870294.6856264     
  -53159523.4724928     
  -53433495.6488270     
  -53690846.0298140     
  -53930434.7935590     
  -54151249.1336595     
  -54352314.7586453     
  -54532616.6562883     
  -54691028.7389845     
  -54826252.3177911     
  -51133778.2960004     
  -51484002.0934795     
  -51827542.9630191     
  -52160844.7526080     
  -52481243.3386649     
  -52786793.1471650     
  -53076108.3290580     
  -53348218.8225514     
  -53602440.8963108     
  -53838261.2320196     
  -54055233.2459049     
  -54252884.2140231     
  -54430631.8710812     
  -54587709.4824402     
  -54723098.9028185     
  -50983630.8743826     
  -51355427.9290685     
  -51713922.4274267     
  -52056522.1998895     
  -52381525.7154129     
  -52687926.3269825     
  -52975236.4001622     
  -53243331.0206328     
  -53492310.1098152     
  -53722377.0536131     
  -53933731.4794648     
  -54126473.6685059     
  -54300518.2814389     
  -54455515.5829680     
  -54590779.1095945     
  -50824598.5469781     
  -51217404.3904107     
  -51589481.1293726     
  -51939402.2421873     
  -52266610.2478817     
  -52571198.2235852     
  -52853717.4034472     
  -53115009.9976436     
  -53356065.1266128     
  -53577894.7384075     
  -53781425.7296791     
  -53967404.3138545     
  -54136308.9895996     
  -54288269.2113145     
  -54422987.9580848     
  -50658327.4801875     
  -51070587.7385099     
  -51453888.6701205     
  -51808197.3428074     
  -52134301.8064391     
  -52433569.5992101     
  -52707739.9002497     
  -52958747.8883232     
  -53188578.0167282     
  -53399141.4163154     
  -53592171.7256654     
  -53769133.4327058     
  -53931137.2949292     
  -54078858.4969863     
  -54212454.7591998     
  -50486524.1608972     
  -50915512.1526094     
  -51306530.9948502     
  -51661197.1635181     
  -51981866.1686525     
  -52271367.6937661     
  -52532783.9794978     
  -52769269.3811026     
  -52983906.2223371     
  -53179589.8617450     
  -53358934.6031631     
  -53524191.8430364     
  -53677172.6056091     
  -53819168.2079241     
  -53950864.9904334     
  -50310906.2710652     
  -50752517.4681989     
  -51146420.6842569     
  -51496167.8475602     
  -51805924.9021765     
  -52080182.7809043     
  -52323524.3591010     
  -52540444.5367642     
  -52735216.3020624     
  -52911792.3930347     
  -53073730.4138448     
  -53224129.0694665     
  -53365564.4033307     
  -53500017.2565284     
  -53628786.2563158     
  -50133138.7416123     
  -50581658.6514723     
  -50972086.5156522     
  -51310229.9041121     
  -51602330.3571572     
  -51854748.4295161     
  -52073722.4072117     
  -52265196.6523039     
  -52434708.9627805     
  -52587321.6647537     
  -52727578.8674193     
  -52859472.3645681     
  -52986400.6808641     
  -53111109.2130911     
  -53235603.7636737     
  -49954752.7850667     
  -50402592.4431549     
  -50781435.9829488     
  -51099707.7315255     
  -51366014.3839973     
  -51588800.7420727     
  -51776104.7451586     
  -51935405.5475428     
  -52073548.4175173     
  -52196723.6999889     
  -52310474.4085175     
  -52419707.7713295     
  -52528689.4295191     
  -52641004.1060703     
  -52759472.6648925     
  -49777045.7993490     
  -50214434.7943498     
  -50571581.3666294     
  -50859940.2622085     
  -51090801.1751727     
  -51274909.5306977     
  -51422224.9651047     
  -51541806.7205615     
  -51641800.2181738     
  -51729490.4238317     
  -51811385.1880644     
  -51893294.1665949     
  -51980374.5660734     
  -52077122.4828914     
  -52187297.0787741     
  -49600959.9997652     
  -50015579.5288745     
  -50338614.7808524     
  -50585036.5503154     
  -50769169.7705501     
  -50904271.1461010     
  -51002303.6259368     
  -51073887.1763487     
  -51128383.4470223     
  -51174061.6793953     
  -51218292.8316207     
  -51267724.8621090     
  -51328401.3208488     
  -51405796.0911886     
  -51504748.6093597     
  -49426937.0228210     
  -49803462.8159865     
  -50077308.8108157     
  -50267551.0265963     
  -50391944.5221086     
  -50466448.3605879     
  -50505040.3535015     
  -50519779.8039469     
  -50521045.9090895     
  -50517870.5594677     
  -50518290.4179483     
  -50529656.1336809     
  -50558850.7872929     
  -50612383.7304917     
  -50696340.6867116     
  -49254743.5362804     
  -49574246.9735684     
  -49780703.9667587     
  -49898038.4218250     
  -49947881.2887340     
  -49949037.5634120     
  -49917391.3843306     
  -49866160.7887775     
  -49806375.3102949     
  -49747451.1941053     
  -49697762.0362119     
  -49665128.3557168     
  -49657169.4493637     
  -49681476.0356131     
  -49745578.8903720     
  -49083256.8195147     
  -49322375.6511851     
  -49439516.6042519     
  -49464424.4360193     
  -49423102.5788225     
  -49337238.9513961     
  -49224308.2828915     
  -49098160.2082611     
  -48969865.9288025     
  -48848634.9399787     
  -48742674.7580207     
  -48659913.7448531     
  -48608527.8721084     
  -48597219.8070934     
  -48635211.3977131     
  -48910184.5515012     
  -49039909.1245868     
  -49041250.1774910     
  -48951089.2448672     
  -48800317.0552412     
  -48613305.8105703     
  -48408443.4549715     
  -48199307.0826321     
  -47996069.1046149     
  -47806868.1282415     
  -47639022.2469053     
  -47500035.7741644     
  -47398355.3494977     
  -47343802.7872922     
  -47347607.9740670     
  -48731656.7999098     
  -48715458.1085271     
  -48568794.5739853     
  -48337499.2665349     
  -48057743.7322529     
  -47755866.8351086     
  -47449854.7190870     
  -47151549.9997315     
  -46868864.7967497     
  -46607688.2953272     
  -46373465.6788073     
  -46172520.5910031     
  -46013118.5881977     
  -45906158.8865350     
  -45865301.8324479     
  -48541546.2147507     
  -48332324.4529602     
  -47998107.3188789     
  -47596128.0428835     
  -47167676.9106648     
  -46739179.4180634     
  -46325801.4126357     
  -45935424.0091269     
  -45571893.5915758     
  -45237384.2441417     
  -44934216.0859432     
  -44666459.6716033     
  -44441455.8721378     
  -44270994.4270313     
  -44171742.9717204     
  -48330104.6548975     
  -47864978.1135163     
  -47294145.4585918     
  -46689326.0493996     
  -46094751.3980529     
  -45532549.0340935     
  -45010833.2708332     
  -44530466.6822107     
  -44089164.4659138     
  -43683822.0595686     
  -43312160.3653368     
  -42974495.8075395     
  -42675857.6837259     
  -42428349.2828242     
  -42252346.7509939     
  -48080963.8068182     
  -47271394.0671826     
  -46403538.5749160     
  -45564848.1384137     
  -44794514.5907345     
  -44100509.2423735     
  -43477488.1418164     
  -42915998.5857132     
  -42405805.9846056     
  -41937267.2551220     
  -41502147.5205860     
  -41094777.2016794     
  -40715354.5196681     
  -40374134.9650166     
  -40096088.7811039     
  -47760918.6052122     
  -46475479.9957630     
  -45240525.3849144     
  -44151743.6987428     
  -43214302.2910113     
  -42404606.2793310     
  -41697949.2084757     
  -41072341.9356872     
  -40508853.0922911     
  -39990930.6911128     
  -39503671.8555186     
  -39033600.9352716     
  -38569606.8243934     
  -38115442.3592532     
  -37698087.2522626     
  -47288425.4907500     
  -45310633.8420950     
  -43671628.6148275     
  -42365294.1844655     
  -41298497.4954368     
  -40407543.3048428     
  -39646785.6634658     
  -38982434.4195032     
  -38387943.6984016     
  -37840861.8022680     
  -37320340.3903136     
  -36804684.9199938     
  -36269051.9725846     
  -35680045.5551029     
  -35067872.8478637     
  -46244897.0921163     
  -43444106.5352744     
  -41548604.6062633     
  -40124126.6881049     
  -38999381.3743828     
  -38079320.8099703     
  -37304442.8862005     
  -36633624.8501164     
  -36035828.9059740     
  -35485185.3009051     
  -34957273.5062559     
  -34425122.2640374     
  -33852507.8595141     
  -33179635.1356768     
  -32239894.5606529     
SCALARS 2waySource double 
LOOKUP_TABLE default
 -4.717638818490317E-002
 -4.558527864631090E-002
 -4.410871646314474E-002
 -4.274740854292219E-002
 -4.149792760281865E-002
 -4.035384548122620E-002
 -3.930664588786925E-002
 -3.834644902842982E-002
 -3.746257962428768E-002
 -3.664400833079641E-002
 -3.587969460623526E-002
 -3.515885681136361E-002
 -3.447119279933978E-002
 -3.380707153092734E-002
 -3.315771334141158E-002
 -4.727229745577659E-002
 -4.567974320617359E-002
 -4.420621603317686E-002
 -4.285124517949596E-002
 -4.161042374675596E-002
 -4.047651628684139E-002
 -3.944034613895449E-002
 -3.849149567392610E-002
 -3.761885142920195E-002
 -3.681102441161376E-002
 -3.605667376215768E-002
 -3.534475961820676E-002
 -3.466474843729012E-002
 -3.400679129864738E-002
 -3.336189278941248E-002
 -4.743924973912177E-002
 -4.584427256584649E-002
 -4.437695912070527E-002
 -4.303454339847172E-002
 -4.181072034698007E-002
 -4.069669992491858E-002
 -3.968204201008968E-002
 -3.875530670074764E-002
 -3.790455283279537E-002
 -3.711771544404210E-002
 -3.638289056988292E-002
 -3.568855322606827E-002
 -3.502373176664211E-002
 -3.437815901908864E-002
 -3.374241769755326E-002
 -4.767780501091180E-002
 -4.608052277555720E-002
 -4.462340656666202E-002
 -4.330031930886458E-002
 -4.210218166461344E-002
 -4.101794289768489E-002
 -4.003533519914999E-002
 -3.914144786725123E-002
 -3.832315523048075E-002
 -3.756742956168114E-002
 -3.686156751289420E-002
 -3.619335583832557E-002
 -3.555119937891066E-002
 -3.492423145429707E-002
 -3.430242393261863E-002
 -4.798850491379845E-002
 -4.639065546232007E-002
 -4.494890235288360E-002
 -4.365272680518219E-002
 -4.248946414735111E-002
 -4.144515932995670E-002
 -4.050521103720582E-002
 -3.965484282717853E-002
 -3.887943626662370E-002
 -3.816475771719549E-002
 -3.749710727031234E-002
 -3.686341529667642E-002
 -3.625130914807381E-002
 -3.564916969295182E-002
 -3.504619454760078E-002
 -4.837182401971368E-002
 -4.677725824610508E-002
 -4.535756121216424E-002
 -4.409691323067473E-002
 -4.297834267728408E-002
 -4.198443117295650E-002
 -4.109781627322855E-002
 -4.030153197578876E-002
 -3.957922282432354E-002
 -3.891526335497862E-002
 -3.829481100736311E-002
 -3.770381732261798E-002
 -3.712901920718015E-002
 -3.655792919040953E-002
 -3.597884088664721E-002
 -4.882810637871168E-002
 -4.724323796737852E-002
 -4.585411755403392E-002
 -4.463882626282084E-002
 -4.357547950822144E-002
 -4.264274410667741E-002
 -4.182016697422072E-002
 -4.108835703164651E-002
 -4.042905633115648E-002
 -3.982513168109086E-002
 -3.926051398728063E-002
 -3.872010900262286E-002
 -3.818970006669057E-002
 -3.765586063078023E-002
 -3.710589181430164E-002
 -4.935748463047097E-002
 -4.779168238231744E-002
 -4.644373097230504E-002
 -4.528496772170663E-002
 -4.428813254954568E-002
 -4.342765705550807E-002
 -4.267978585771963E-002
 -4.202257210823230E-002
 -4.143578253116827E-002
 -4.090074198239464E-002
 -4.040014312521234E-002
 -3.991784314333315E-002
 -3.943866631737233E-002
 -3.894822865309396E-002
 -3.843279845774718E-002
 -4.995977908512429E-002
 -4.842568607355379E-002
 -4.713174380331722E-002
 -4.604209039328203E-002
 -4.512380026571299E-002
 -4.434690407123847E-002
 -4.368426943340940E-002
 -4.311138329584627E-002
 -4.260606932855740E-002
 -4.214816807081435E-002
 -4.171920287572244E-002
 -4.130205101831876E-002
 -4.088063635699876E-002
 -4.043965755912477E-002
 -3.996436398423097E-002
 -5.063437471161855E-002
 -4.914813704855277E-002
 -4.792338716301957E-002
 -4.691683514760107E-002
 -4.608980185059088E-002
 -4.540792889844165E-002
 -4.484078703461980E-002
 -4.436142059936052E-002
 -4.394585823672123E-002
 -4.357261394416438E-002
 -4.322219793324278E-002
 -4.287665317369220E-002
 -4.251913077204013E-002
 -4.213351535145016E-002
 -4.170411020603360E-002
 -5.138007493250293E-002
 -4.996146190771777E-002
 -4.882343365941947E-002
 -4.791530765477757E-002
 -4.719279352065599E-002
 -4.661735481593762E-002
 -4.615551614944494E-002
 -4.577814843212991E-002
 -4.545975733388855E-002
 -4.517779412716501E-002
 -4.491200359440092E-002
 -4.464382032044616E-002
 -4.435582235428492E-002
 -4.403124979304757E-002
 -4.365359516192037E-002
 -5.219493251776380E-002
 -5.086732956962189E-002
 -4.983579754502975E-002
 -4.904259681814056E-002
 -4.843822467871861E-002
 -4.798039524865925E-002
 -4.763302130663563E-002
 -4.736522364125629E-002
 -4.715038633142388E-002
 -4.696527079474333E-002
 -4.678919720404122E-002
 -4.660329884693006E-002
 -4.638985317174923E-002
 -4.613169256589866E-002
 -4.581169819175956E-002
 -5.307605967282954E-002
 -5.186631629438496E-002
 -5.096308634751285E-002
 -5.030224050649421E-002
 -4.982974113654098E-002
 -4.950021394659687E-002
 -4.927558690846066E-002
 -4.912381302372442E-002
 -4.901768721865850E-002
 -4.893376253121470E-002
 -4.885136675872801E-002
 -4.875171803344069E-002
 -4.861713655415700E-002
 -4.843034994931358E-002
 -4.817389130690281E-002
 -5.401942157126521E-002
 -5.295753802639322E-002
 -5.220611178419923E-002
 -5.169564797643158E-002
 -5.136854618842585E-002
 -5.117724684342991E-002
 -5.108251745467057E-002
 -5.105188515008117E-002
 -5.105821667807658E-002
 -5.107844222148809E-002
 -5.109241530264735E-002
 -5.108189851209983E-002
 -5.102966418985481E-002
 -5.091870064244252E-002
 -5.073151776205921E-002
 -5.501961999787475E-002
 -5.413825966102610E-002
 -5.356337164884323E-002
 -5.322149201560682E-002
 -5.305273349914270E-002
 -5.300850042087009E-002
 -5.304942099576190E-002
 -5.314349355290889E-002
 -5.326443867713097E-002
 -5.339024381077434E-002
 -5.350188200870325E-002
 -5.358218373635226E-002
 -5.361484064833184E-002
 -5.358352332206370E-002
 -5.347110055623051E-002
 -5.606967630043966E-002
 -5.540349435275822E-002
 -5.503051772480282E-002
 -5.487508647031198E-002
 -5.487660756784306E-002
 -5.498684258885603E-002
 -5.516749256864505E-002
 -5.538806929473349E-002
 -5.562403683442289E-002
 -5.585519914781650E-002
 -5.606430254477870E-002
 -5.623581803700903E-002
 -5.635486942164378E-002
 -5.640627816243501E-002
 -5.637370504190247E-002
 -5.716082527645164E-002
 -5.674560880402776E-002
 -5.659982658767152E-002
 -5.664776510591692E-002
 -5.683000651512792E-002
 -5.710030040137666E-002
 -5.742281268216275E-002
 -5.776973975237940E-002
 -5.811926572567695E-002
 -5.845382643616501E-002
 -5.875863221187233E-002
 -5.902039606609801E-002
 -5.922621589482429E-002
 -5.936256775542292E-002
 -5.941438082166817E-002
 -5.828233357782871E-002
 -5.815395155059785E-002
 -5.825968868047507E-002
 -5.852627354731059E-002
 -5.889763594105243E-002
 -5.933137247457344E-002
 -5.979567018999310E-002
 -6.026668614503729E-002
 -6.072635759313406E-002
 -6.116059054494186E-002
 -6.155775513113154E-002
 -6.190740887016796E-002
 -6.219917336446776E-002
 -6.242170354351857E-002
 -6.256170856612636E-002
 -5.942135705338674E-002
 -5.961451872829829E-002
 -5.999412333179794E-002
 -6.049217392121017E-002
 -6.105840839034967E-002
 -6.165635023012744E-002
 -6.225990742697120E-002
 -6.285054390018299E-002
 -6.341499539438655E-002
 -6.394345222458199E-002
 -6.442810117627795E-002
 -6.486191125001869E-002
 -6.523755811742839E-002
 -6.554640384104682E-002
 -6.577747714780229E-002
 -6.056284997043020E-002
 -6.110966227141945E-002
 -6.178230832141567E-002
 -6.252123622553735E-002
 -6.328475586482457E-002
 -6.404461795271463E-002
 -6.478226670244891E-002
 -6.548583678811959E-002
 -6.614785455699634E-002
 -6.676351792870297E-002
 -6.732938908275547E-002
 -6.784233307907814E-002
 -6.829855830301861E-002
 -6.869264846968214E-002
 -6.901651528796382E-002
 -6.168953303237724E-002
 -6.261782255652526E-002
 -6.359807308967098E-002
 -6.458274241710681E-002
 -6.554183643174327E-002
 -6.645786403342874E-002
 -6.732169059761556E-002
 -6.812941842445906E-002
 -6.888020470020860E-002
 -6.957479440986189E-002
 -7.021450867631926E-002
 -7.080045314761474E-002
 -7.133275824368999E-002
 -7.180971248754055E-002
 -7.222669933154166E-002
 -6.278191224070101E-002
 -6.411321880868892E-002
 -6.540922812842860E-002
 -6.663854442304498E-002
 -6.778648246590525E-002
 -6.884908359284278E-002
 -6.982849668522821E-002
 -7.072987637790989E-002
 -7.155955055115557E-002
 -7.232404234090438E-002
 -7.302954614944572E-002
 -7.368154637459852E-002
 -7.428435380961296E-002
 -7.484039679800773E-002
 -7.534915429122517E-002
 -6.381830903475291E-002
 -6.556533065030415E-002
 -6.717645862337931E-002
 -6.864157314735773E-002
 -6.996563122938798E-002
 -7.116119217559186E-002
 -7.224332075832401E-002
 -7.322684233202838E-002
 -7.412528086909509E-002
 -7.495070941724361E-002
 -7.571394052276134E-002
 -7.642470077092592E-002
 -7.709156371092973E-002
 -7.772146601915192E-002
 -7.831865879166203E-002
 -6.477479495570496E-002
 -6.693780031043206E-002
 -6.885123538235755E-002
 -7.053326108407576E-002
 -7.201384358183957E-002
 -7.332502906504321E-002
 -7.449572696363688E-002
 -7.555015981347070E-002
 -7.650828652948584E-002
 -7.738690025173119E-002
 -7.820072934268901E-002
 -7.896327339100272E-002
 -7.968722305049795E-002
 -8.038429431189745E-002
 -8.106425745888390E-002
 -6.562479583465257E-002
 -6.818593450793065E-002
 -7.037167418455079E-002
 -7.223897603748725E-002
 -7.384941356589474E-002
 -7.525658203476301E-002
 -7.650246783115613E-002
 -7.761890183711295E-002
 -7.863049715166207E-002
 -7.955729356569385E-002
 -8.041678313767951E-002
 -8.122540243121663E-002
 -8.199951529148708E-002
 -8.275571022780429E-002
 -8.351008343602967E-002
 -6.633775333703371E-002
 -6.925100170823789E-002
 -7.165417444735533E-002
 -7.366014837526269E-002
 -7.536869770839100E-002
 -7.685359568921195E-002
 -7.816559413765832E-002
 -7.934029123003228E-002
 -8.040424509073590E-002
 -8.137882356405429E-002
 -8.228281148200098E-002
 -8.313439854352453E-002
 -8.395274176228390E-002
 -8.475903500080897E-002
 -8.557641648930804E-002
 -6.687572889133506E-002
 -7.004632653813947E-002
 -7.257683112198621E-002
 -7.466161024474169E-002
 -7.643944485070589E-002
 -7.799254078675416E-002
 -7.937087619371171E-002
 -8.060859599730183E-002
 -8.173126253782048E-002
 -8.275975699560138E-002
 -8.371273183508310E-002
 -8.460862461899113E-002
 -8.546795051070084E-002
 -8.631531031185005E-002
 -8.718112331097086E-002
 -6.718016044656704E-002
 -7.042334806783518E-002
 -7.294574851840123E-002
 -7.505702956594301E-002
 -7.689716990113601E-002
 -7.852757919436160E-002
 -7.998706437085011E-002
 -8.130393255375033E-002
 -8.250093754851580E-002
 -8.359756650347597E-002
 -8.461153975257979E-002
 -8.556024847360963E-002
 -8.646278817506411E-002
 -8.734495725856423E-002
 -8.824189435779925E-002
 -6.713308158099263E-002
 -7.005563797767798E-002
 -7.245481376105312E-002
 -7.461130164167488E-002
 -7.654911431891467E-002
 -7.829287046349245E-002
 -7.986593518603122E-002
 -8.129055551004635E-002
 -8.258726355956383E-002
 -8.377484101988046E-002
 -8.487054277108094E-002
 -8.589051363177315E-002
 -8.685062373585281E-002
 -8.776851324391816E-002
 -8.868197346421292E-002
 -6.603810184515352E-002
 -6.828197417631945E-002
 -7.074577454286785E-002
 -7.306671954310660E-002
 -7.518729059291993E-002
 -7.710685058437866E-002
 -7.884193472238232E-002
 -8.041373008678149E-002
 -8.184382830306504E-002
 -8.315267709445109E-002
 -8.435901208679697E-002
 -8.547953425460238E-002
 -8.652831753934553E-002
 -8.751486011831847E-002
 -8.843917294079856E-002
SCALARS elementIsPlast double 
LOOKUP_TABLE default
  0.000000000000000E+000
  0.000000000000000E+000
  0.000000000000000E+000
  0.000000000000000E+000
  0.000000000000000E+000
  0.000000000000000E+000
  0.000000000000000E+000
  0.000000000000000E+000
  0.000000000000000E+000
  0.000000000000000E+000
  0.000000000000000E+000
  0.000000000000000E+000
  0.000000000000000E+000
  0.000000000000000E+000
  0.000000000000000E+000
  0.000000000000000E+000
  0.000000000000000E+000
  0.000000000000000E+000
  0.000000000000000E+000
  0.000000000000000E+000
  0.000000000000000E+000
  0.000000000000000E+000
  0.000000000000000E+000
  0.000000000000000E+000
  0.000000000000000E+000
  0.000000000000000E+000
  0.000000000000000E+000
  0.000000000000000E+000
  0.000000000000000E+000
  0.000000000000000E+000
  0.000000000000000E+000
  0.000000000000000E+000
  0.000000000000000E+000
  0.000000000000000E+000
  0.000000000000000E+000
  0.000000000000000E+000
  0.000000000000000E+000
  0.000000000000000E+000
  0.000000000000000E+000
  0.000000000000000E+000
  0.000000000000000E+000
  0.000000000000000E+000
  0.000000000000000E+000
  0.000000000000000E+000
  0.000000000000000E+000
  0.000000000000000E+000
  0.000000000000000E+000
  0.000000000000000E+000
  0.000000000000000E+000
  0.000000000000000E+000
  0.000000000000000E+000
  0.000000000000000E+000
  0.000000000000000E+000
  0.000000000000000E+000
  0.000000000000000E+000
  0.000000000000000E+000
  0.000000000000000E+000
  0.000000000000000E+000
  0.000000000000000E+000
  0.000000000000000E+000
  0.000000000000000E+000
  0.000000000000000E+000
  0.000000000000000E+000
  0.000000000000000E+000
  0.000000000000000E+000
  0.000000000000000E+000
  0.000000000000000E+000
  0.000000000000000E+000
  0.000000000000000E+000
  0.000000000000000E+000
  0.000000000000000E+000
  0.000000000000000E+000
  0.000000000000000E+000
  0.000000000000000E+000
  0.000000000000000E+000
  0.000000000000000E+000
  0.000000000000000E+000
  0.000000000000000E+000
  0.000000000000000E+000
  0.000000000000000E+000
  0.000000000000000E+000
  0.000000000000000E+000
  0.000000000000000E+000
  0.000000000000000E+000
  0.000000000000000E+000
  0.000000000000000E+000
  0.000000000000000E+000
  0.000000000000000E+000
  0.000000000000000E+000
  0.000000000000000E+000
  0.000000000000000E+000
  0.000000000000000E+000
  0.000000000000000E+000
  0.000000000000000E+000
  0.000000000000000E+000
  0.000000000000000E+000
  0.000000000000000E+000
  0.000000000000000E+000
  0.000000000000000E+000
  0.000000000000000E+000
  0.000000000000000E+000
  0.000000000000000E+000
  0.000000000000000E+000
  0.000000000000000E+000
  0.000000000000000E+000
  0.000000000000000E+000
  0.000000000000000E+000
  0.000000000000000E+000
  0.000000000000000E+000
  0.000000000000000E+000
  0.000000000000000E+000
  0.000000000000000E+000
  0.000000000000000E+000
  0.000000000000000E+000
  0.000000000000000E+000
  0.000000000000000E+000
  0.000000000000000E+000
  0.000000000000000E+000
  0.000000000000000E+000
  0.000000000000000E+000
  0.000000000000000E+000
  0.000000000000000E+000
  0.000000000000000E+000
  0.000000000000000E+000
  0.000000000000000E+000
  0.000000000000000E+000
  0.000000000000000E+000
  0.000000000000000E+000
  0.000000000000000E+000
  0.000000000000000E+000
  0.000000000000000E+000
  0.000000000000000E+000
  0.000000000000000E+000
  0.000000000000000E+000
  0.000000000000000E+000
  0.000000000000000E+000
  0.000000000000000E+000
  0.000000000000000E+000
  0.000000000000000E+000
  0.000000000000000E+000
  0.000000000000000E+000
  0.000000000000000E+000
  0.000000000000000E+000
  0.000000000000000E+000
  0.000000000000000E+000
  0.000000000000000E+000
  0.000000000000000E+000
  0.000000000000000E+000
  0.000000000000000E+000
  0.000000000000000E+000
  0.000000000000000E+000
  0.000000000000000E+000
  0.000000000000000E+000
  0.000000000000000E+000
  0.000000000000000E+000
  0.000000000000000E+000
  0.000000000000000E+000
  0.000000000000000E+000
  0.000000000000000E+000
  0.000000000000000E+000
  0.000000000000000E+000
  0.000000000000000E+000
  0.000000000000000E+000
  0.000000000000000E+000
  0.000000000000000E+000
  0.000000000000000E+000
  0.000000000000000E+000
  0.000000000000000E+000
  0.000000000000000E+000
  0.000000000000000E+000
  0.000000000000000E+000
  0.000000000000000E+000
  0.000000000000000E+000
  0.000000000000000E+000
  0.000000000000000E+000
  0.000000000000000E+000
  0.000000000000000E+000
  0.000000000000000E+000
  0.000000000000000E+000
  0.000000000000000E+000
  0.000000000000000E+000
  0.000000000000000E+000
  0.000000000000000E+000
  0.000000000000000E+000
  0.000000000000000E+000
  0.000000000000000E+000
  0.000000000000000E+000
  0.000000000000000E+000
  0.000000000000000E+000
  0.000000000000000E+000
  0.000000000000000E+000
  0.000000000000000E+000
  0.000000000000000E+000
  0.000000000000000E+000
  0.000000000000000E+000
  0.000000000000000E+000
  0.000000000000000E+000
  0.000000000000000E+000
  0.000000000000000E+000
  0.000000000000000E+000
  0.000000000000000E+000
  0.000000000000000E+000
  0.000000000000000E+000
  0.000000000000000E+000
  0.000000000000000E+000
  0.000000000000000E+000
  0.000000000000000E+000
  0.000000000000000E+000
  0.000000000000000E+000
  0.000000000000000E+000
  0.000000000000000E+000
  0.000000000000000E+000
  0.000000000000000E+000
  0.000000000000000E+000
  0.000000000000000E+000
  0.000000000000000E+000
  0.000000000000000E+000
  0.000000000000000E+000
  0.000000000000000E+000
  0.000000000000000E+000
  0.000000000000000E+000
  0.000000000000000E+000
  0.000000000000000E+000
  0.000000000000000E+000
  0.000000000000000E+000
  0.000000000000000E+000
  0.000000000000000E+000
  0.000000000000000E+000
  0.000000000000000E+000
  0.000000000000000E+000
  0.000000000000000E+000
  0.000000000000000E+000
  0.000000000000000E+000
  0.000000000000000E+000
  0.000000000000000E+000
  0.000000000000000E+000
  0.000000000000000E+000
  0.000000000000000E+000
  0.000000000000000E+000
  0.000000000000000E+000
  0.000000000000000E+000
  0.000000000000000E+000
  0.000000000000000E+000
  0.000000000000000E+000
  0.000000000000000E+000
  0.000000000000000E+000
  0.000000000000000E+000
  0.000000000000000E+000
  0.000000000000000E+000
  0.000000000000000E+000
  0.000000000000000E+000
  0.000000000000000E+000
  0.000000000000000E+000
  0.000000000000000E+000
  0.000000000000000E+000
  0.000000000000000E+000
  0.000000000000000E+000
  0.000000000000000E+000
  0.000000000000000E+000
  0.000000000000000E+000
  0.000000000000000E+000
  0.000000000000000E+000
  0.000000000000000E+000
  0.000000000000000E+000
  0.000000000000000E+000
  0.000000000000000E+000
  0.000000000000000E+000
  0.000000000000000E+000
  0.000000000000000E+000
  0.000000000000000E+000
  0.000000000000000E+000
  0.000000000000000E+000
  0.000000000000000E+000
  0.000000000000000E+000
  0.000000000000000E+000
  0.000000000000000E+000
  0.000000000000000E+000
  0.000000000000000E+000
  0.000000000000000E+000
  0.000000000000000E+000
  0.000000000000000E+000
  0.000000000000000E+000
  0.000000000000000E+000
  0.000000000000000E+000
  0.000000000000000E+000
  0.000000000000000E+000
  0.000000000000000E+000
  0.000000000000000E+000
  0.000000000000000E+000
  0.000000000000000E+000
  0.000000000000000E+000
  0.000000000000000E+000
  0.000000000000000E+000
  0.000000000000000E+000
  0.000000000000000E+000
  0.000000000000000E+000
  0.000000000000000E+000
  0.000000000000000E+000
  0.000000000000000E+000
  0.000000000000000E+000
  0.000000000000000E+000
  0.000000000000000E+000
  0.000000000000000E+000
  0.000000000000000E+000
  0.000000000000000E+000
  0.000000000000000E+000
  0.000000000000000E+000
  0.000000000000000E+000
  0.000000000000000E+000
  0.000000000000000E+000
  0.000000000000000E+000
  0.000000000000000E+000
  0.000000000000000E+000
  0.000000000000000E+000
  0.000000000000000E+000
  0.000000000000000E+000
  0.000000000000000E+000
  0.000000000000000E+000
  0.000000000000000E+000
  0.000000000000000E+000
  0.000000000000000E+000
  0.000000000000000E+000
  0.000000000000000E+000
  0.000000000000000E+000
  0.000000000000000E+000
  0.000000000000000E+000
  0.000000000000000E+000
  0.000000000000000E+000
  0.000000000000000E+000
  0.000000000000000E+000
  0.000000000000000E+000
  0.000000000000000E+000
  0.000000000000000E+000
  0.000000000000000E+000
  0.000000000000000E+000
  0.000000000000000E+000
  0.000000000000000E+000
  0.000000000000000E+000
  0.000000000000000E+000
  0.000000000000000E+000
  0.000000000000000E+000
  0.000000000000000E+000
  0.000000000000000E+000
  0.000000000000000E+000
  0.000000000000000E+000
  0.000000000000000E+000
  0.000000000000000E+000
  0.000000000000000E+000
  0.000000000000000E+000
  0.000000000000000E+000
  0.000000000000000E+000
  0.000000000000000E+000
  0.000000000000000E+000
  0.000000000000000E+000
  0.000000000000000E+000
  0.000000000000000E+000
  0.000000000000000E+000
  0.000000000000000E+000
  0.000000000000000E+000
  0.000000000000000E+000
  0.000000000000000E+000
  0.000000000000000E+000
  0.000000000000000E+000
  0.000000000000000E+000
  0.000000000000000E+000
  0.000000000000000E+000
  0.000000000000000E+000
  0.000000000000000E+000
  0.000000000000000E+000
  0.000000000000000E+000
  0.000000000000000E+000
  0.000000000000000E+000
  0.000000000000000E+000
  0.000000000000000E+000
  0.000000000000000E+000
  0.000000000000000E+000
  0.000000000000000E+000
  0.000000000000000E+000
  0.000000000000000E+000
  0.000000000000000E+000
  0.000000000000000E+000
  0.000000000000000E+000
  0.000000000000000E+000
  0.000000000000000E+000
  0.000000000000000E+000
  0.000000000000000E+000
  0.000000000000000E+000
  0.000000000000000E+000
  0.000000000000000E+000
  0.000000000000000E+000
  0.000000000000000E+000
  0.000000000000000E+000
  0.000000000000000E+000
  0.000000000000000E+000
  0.000000000000000E+000
  0.000000000000000E+000
  0.000000000000000E+000
  0.000000000000000E+000
  0.000000000000000E+000
  0.000000000000000E+000
  0.000000000000000E+000
  0.000000000000000E+000
  0.000000000000000E+000
  0.000000000000000E+000
  0.000000000000000E+000
  0.000000000000000E+000
  0.000000000000000E+000
  0.000000000000000E+000
  0.000000000000000E+000
  0.000000000000000E+000
  0.000000000000000E+000
  0.000000000000000E+000
  0.000000000000000E+000
  0.000000000000000E+000
  0.000000000000000E+000
  0.000000000000000E+000
  0.000000000000000E+000
  0.000000000000000E+000
  0.000000000000000E+000
  0.000000000000000E+000
  0.000000000000000E+000
  0.000000000000000E+000
  0.000000000000000E+000
  0.000000000000000E+000
  0.000000000000000E+000
  0.000000000000000E+000
  0.000000000000000E+000
  0.000000000000000E+000
  0.000000000000000E+000
  0.000000000000000E+000
  0.000000000000000E+000
  0.000000000000000E+000
  0.000000000000000E+000
  0.000000000000000E+000
  0.000000000000000E+000
  0.000000000000000E+000
  0.000000000000000E+000
  0.000000000000000E+000
  0.000000000000000E+000
  0.000000000000000E+000
  0.000000000000000E+000
  0.000000000000000E+000
  0.000000000000000E+000
  0.000000000000000E+000
  0.000000000000000E+000
  0.000000000000000E+000
  0.000000000000000E+000
  0.000000000000000E+000
  0.000000000000000E+000
  0.000000000000000E+000
SCALARS poroL double 
LOOKUP_TABLE default
  0.250621938867847     
  0.250476018570273     
  0.250335626004774     
  0.250201283608203     
  0.250073270595015     
  0.249951658875570     
  0.249836347743165     
  0.249727096635371     
  0.249623555401125     
  0.249525291612587     
  0.249431814549927     
  0.249342595559166     
  0.249257084540379     
  0.249174722369968     
  0.249094949101299     
  0.250620921388699     
  0.250472602824545     
  0.250330157705736     
  0.250194073745142     
  0.250064595182557     
  0.249941759577713     
  0.249825433250535     
  0.249715344687136     
  0.249611115356937     
  0.249512287494004     
  0.249418348483962     
  0.249328751567747     
  0.249242932627354     
  0.249160322860740     
  0.249080357188359     
  0.250618342944623     
  0.250465257786509     
  0.250318739934020     
  0.250179206487141     
  0.250046830715203     
  0.249921580587858     
  0.249803255708632     
  0.249691521996016     
  0.249585943586191     
  0.249486011539657     
  0.249391169020725     
  0.249300832684583     
  0.249214410053988     
  0.249131312700558     
  0.249050965070012     
  0.250613108527716     
  0.250452950199105     
  0.250300405846277     
  0.250155783750678     
  0.250019148188188     
  0.249890360537939     
  0.249769118422315     
  0.249654992264364     
  0.249547458781772     
  0.249445931046085     
  0.249349784820512     
  0.249258380949512     
  0.249171083610548     
  0.249087274257186     
  0.249006361089641     
  0.250603555868612     
  0.250434115080650     
  0.250273694229396     
  0.250122451130104     
  0.249980300039574     
  0.249846956146579     
  0.249721977589786     
  0.249604804446911     
  0.249494794278110     
  0.249391253919094     
  0.249293467302563     
  0.249200719138928     
  0.249112314310717     
  0.249027592833799     
  0.248945940220314     
  0.250587432662317     
  0.250406638488621     
  0.250236637181219     
  0.250077389914919     
  0.249928615970225     
  0.249789841359687     
  0.249660444337436     
  0.249539697310973     
  0.249426804823684     
  0.249320937395593     
  0.249221261092927     
  0.249126962741275     
  0.249037270702751     
  0.248951471109491     
  0.248868919392703     
  0.250561867764344     
  0.250367836005280     
  0.250186745050397     
  0.250018307703382     
  0.249861998513341     
  0.249717107228729     
  0.249582788337385     
  0.249458106305490     
  0.249342076294817     
  0.249233700269322     
  0.249131998489222     
  0.249036036426850     
  0.248944947122576     
  0.248857948935632     
  0.248774358544652     
  0.250523337700203     
  0.250314428205409     
  0.250120989808565     
  0.249942428692786     
  0.249777919334218     
  0.249626463401631     
  0.249486943773530     
  0.249358173397212     
  0.249238938909672     
  0.249128039095617     
  0.249024318356413     
  0.248926695393994     
  0.248834187271904     
  0.248745928906537     
  0.248661187878791     
  0.250467630166260     
  0.250242514681589     
  0.250035788324256     
  0.249846485001721     
  0.249673417490208     
  0.249515242319291     
  0.249370518604080     
  0.249237760675899     
  0.249115484606934     
  0.249002248921981     
  0.248896689913385     
  0.248797552004296     
  0.248703713533158     
  0.248614208164307     
  0.248528241883125     
  0.250389806524795     
  0.250147548513279     
  0.249926987306485     
  0.249726710661793     
  0.249545101138388     
  0.249380407434033     
  0.249230808248897     
  0.249094468662320     
  0.248969589336154     
  0.248854449128740     
  0.248747441871923     
  0.248647108099643     
  0.248552162408773     
  0.248461516888171     
  0.248374300694117     
  0.250284165599104     
  0.250024313368608     
  0.249789851989785     
  0.249578840213172     
  0.249389154453961     
  0.249218567003638     
  0.249064815014123     
  0.248925660373718     
  0.248798941061317     
  0.248682614956974     
  0.248574797333074     
  0.248473793305807     
  0.248378126375510     
  0.248286563838261     
  0.248198139344095     
  0.250144211339267     
  0.249866905718916     
  0.249619060949389     
  0.249398114165080     
  0.249201351833446     
  0.249025995281568     
  0.248869274764651     
  0.248728492314068     
  0.248601074300626     
  0.248484615236642     
  0.248376914711671     
  0.248276009447320     
  0.248180202248693     
  0.248088089145788     
  0.247998585309384     
  0.249962627134293     
  0.249668724925427     
  0.249408709782286     
  0.249179293966535     
  0.248977081833703     
  0.248798663247044     
  0.248640692584568     
  0.248499953666730     
  0.248373412007551     
  0.248258256689332     
  0.248151934722703     
  0.248052180895418     
  0.247957045822403     
  0.247864924230707     
  0.247774584528239     
  0.249731259665689     
  0.249422474233265     
  0.249152326801759     
  0.248916689623470     
  0.248711383792040     
  0.248532281440378     
  0.248375389453755     
  0.248236915083756     
  0.248113315531885     
  0.248001334943540     
  0.247898033088504     
  0.247800810203329     
  0.247707432044514     
  0.247616058238034     
  0.247525275642912     
  0.249441115202904     
  0.249120176006697     
  0.248842904435586     
  0.248604203780851     
  0.248399000767531     
  0.248222358055508     
  0.248069562355090     
  0.247936188600100     
  0.247818143270076     
  0.247711692030876     
  0.247613478064926     
  0.247520537695140     
  0.247430319241387     
  0.247340709656226     
  0.247250071579972     
  0.249082371108510     
  0.248753204923456     
  0.248472950812761     
  0.248235397106691     
  0.248034453472665     
  0.247864276292072     
  0.247719360765085     
  0.247594600361452     
  0.247485318393568     
  0.247387279575172     
  0.247296691068537     
  0.247210202690561     
  0.247124914850593     
  0.247038400742962     
  0.246948746646862     
  0.248644405043637     
  0.248312343447460     
  0.248034567288802     
  0.247803581410412     
  0.247612141436691     
  0.247453396226225     
  0.247320983237288     
  0.247209078039474     
  0.247112405679883     
  0.247026226058941     
  0.246946307515828     
  0.246868902665693     
  0.246790738655327     
  0.246709030949694     
  0.246621526012192     
  0.248115843981548     
  0.247787864982048     
  0.247519559785444     
  0.247301949502192     
  0.247126480078502     
  0.246985188316993     
  0.246870798828817     
  0.246776754983792     
  0.246697196865458     
  0.246626905321207     
  0.246561233315762     
  0.246496044729751     
  0.246427677518349     
  0.246352943608656     
  0.246269172676852     
  0.247484634790458     
  0.247169652185456     
  0.246919595503921     
  0.246723755019252     
  0.246572086148696     
  0.246455408362905     
  0.246365499475102     
  0.246295093218368     
  0.246237802916599     
  0.246188001608437     
  0.246140690086211     
  0.246091381147545     
  0.246036022924189     
  0.245970977613967     
  0.245893064778660     
  0.246738138192417     
  0.246447362008106     
  0.246226423073486     
  0.246062562416717     
  0.245944029820064     
  0.245860327495562     
  0.245802290985382     
  0.245762027069615     
  0.245732749882182     
  0.245708563786903     
  0.245684238822377     
  0.245655016989932     
  0.245616479022771     
  0.245564492550653     
  0.245495253297615     
  0.245863249136171     
  0.245610657069511     
  0.245432185847487     
  0.245312598895865     
  0.245238180481349     
  0.245197035691018     
  0.245179131658605     
  0.245176127961604     
  0.245181072106659     
  0.245188037403973     
  0.245191767112149     
  0.245187372971419     
  0.245170123937503     
  0.245135351461945     
  0.245078486995102     
  0.244846550783386     
  0.244649539052262     
  0.244529879332679     
  0.244469259292925     
  0.244451686020749     
  0.244463842629794     
  0.244495027320934     
  0.244536787659638     
  0.244582392012887     
  0.244626257950494     
  0.244663418816275     
  0.244689079575474     
  0.244698300109971     
  0.244685839637678     
  0.244646187800891     
  0.243674520064951     
  0.243554852672915     
  0.243514043411619     
  0.243529847020737     
  0.243583642279439     
  0.243660802835574     
  0.243750386697460     
  0.243844410178159     
  0.243936969106199     
  0.244023382415417     
  0.244099437511625     
  0.244160768857955     
  0.244202398728079     
  0.244218489020766     
  0.244202355698818     
  0.242333829874959     
  0.242319097857661     
  0.242381857268517     
  0.242494686236073     
  0.242636027325364     
  0.242790384413448     
  0.242947424779078     
  0.243100589048031     
  0.243245693495390     
  0.243379731371171     
  0.243499887524561     
  0.243602716303773     
  0.243683485241286     
  0.243735761940392     
  0.243751376469700     
  0.240811854761915     
  0.240937848685188     
  0.241134956316672     
  0.241368823189413     
  0.241614975512695     
  0.241858261779597     
  0.242090561392490     
  0.242308225231913     
  0.242509995528452     
  0.242695518564779     
  0.242864212808487     
  0.243014266506043     
  0.243141677118896     
  0.243239515352071     
  0.243297693533570     
  0.239097689000036     
  0.239412445314683     
  0.239782627998000     
  0.240164619771315     
  0.240532394450021     
  0.240874091841011     
  0.241186684321651     
  0.241471515561165     
  0.241731657024665     
  0.241970471022473     
  0.242190617456706     
  0.242392944114072     
  0.242575119832601     
  0.242730078917555     
  0.242845277638000     
  0.237184393573293     
  0.237755853562597     
  0.238347598605502     
  0.238905555311371     
  0.239407548313140     
  0.239851871470882     
  0.240245057203272     
  0.240595726964365     
  0.240912539859806     
  0.241203448988980     
  0.241475304249340     
  0.241733188286256     
  0.241978193780037     
  0.242204604747327     
  0.242396702356403     
  0.235076682622275     
  0.236006132736827     
  0.236877227921858     
  0.237630148711024     
  0.238267204163992     
  0.238809269507958     
  0.239276608833847     
  0.239686692263402     
  0.240054300533869     
  0.240392251151033     
  0.240712105398387     
  0.241024489904998     
  0.241338609318248     
  0.241653320224118     
  0.241951494280273     
  0.232814689465959     
  0.234269729509873     
  0.235456560030483     
  0.236389713527724     
  0.237142789858138     
  0.237765330782548     
  0.238292475606051     
  0.238750037221624     
  0.239158175060885     
  0.239533883476715     
  0.239892950617417     
  0.240251883575323     
  0.240629758170734     
  0.241052559555222     
  0.241500224116552     
  0.230692826955457     
  0.232781723135025     
  0.234186665815803     
  0.235237390779518     
  0.236063460808460     
  0.236736694302601     
  0.237301974375035     
  0.237790266478136     
  0.238224905358889     
  0.238625322192462     
  0.239009861930789     
  0.239398809210738     
  0.239819454572904     
  0.240316867924546     
  0.241017052895652     
