# vtk DataFile Version 3.0
vtk output
ASCII
DATASET UNSTRUCTURED_GRID
POINTS       496 double 
  0.00000000E+00  3.00000000E+02  0.00000000E+00
  0.00000000E+00  2.80000000E+02  0.00000000E+00
  0.00000000E+00  2.60000000E+02  0.00000000E+00
  0.00000000E+00  2.40000000E+02  0.00000000E+00
  0.00000000E+00  2.20000000E+02  0.00000000E+00
  0.00000000E+00  2.00000000E+02  0.00000000E+00
  0.00000000E+00  1.80000000E+02  0.00000000E+00
  0.00000000E+00  1.60000000E+02  0.00000000E+00
  0.00000000E+00  1.40000000E+02  0.00000000E+00
  0.00000000E+00  1.20000000E+02  0.00000000E+00
  0.00000000E+00  1.00000000E+02  0.00000000E+00
  0.00000000E+00  8.00000000E+01  0.00000000E+00
  0.00000000E+00  6.00000000E+01  0.00000000E+00
  0.00000000E+00  4.00000000E+01  0.00000000E+00
  0.00000000E+00  2.00000000E+01  0.00000000E+00
  0.00000000E+00  4.99600361E-14  0.00000000E+00
  2.00000000E+01  3.00000000E+02  0.00000000E+00
  2.00000000E+01  2.80000000E+02  0.00000000E+00
  2.00000000E+01  2.60000000E+02  0.00000000E+00
  2.00000000E+01  2.40000000E+02  0.00000000E+00
  2.00000000E+01  2.20000000E+02  0.00000000E+00
  2.00000000E+01  2.00000000E+02  0.00000000E+00
  2.00000000E+01  1.80000000E+02  0.00000000E+00
  2.00000000E+01  1.60000000E+02  0.00000000E+00
  2.00000000E+01  1.40000000E+02  0.00000000E+00
  2.00000000E+01  1.20000000E+02  0.00000000E+00
  2.00000000E+01  1.00000000E+02  0.00000000E+00
  2.00000000E+01  8.00000000E+01  0.00000000E+00
  2.00000000E+01  6.00000000E+01  0.00000000E+00
  2.00000000E+01  4.00000000E+01  0.00000000E+00
  2.00000000E+01  2.00000000E+01  0.00000000E+00
  2.00000000E+01  4.99600361E-14  0.00000000E+00
  4.00000000E+01  3.00000000E+02  0.00000000E+00
  4.00000000E+01  2.80000000E+02  0.00000000E+00
  4.00000000E+01  2.60000000E+02  0.00000000E+00
  4.00000000E+01  2.40000000E+02  0.00000000E+00
  4.00000000E+01  2.20000000E+02  0.00000000E+00
  4.00000000E+01  2.00000000E+02  0.00000000E+00
  4.00000000E+01  1.80000000E+02  0.00000000E+00
  4.00000000E+01  1.60000000E+02  0.00000000E+00
  4.00000000E+01  1.40000000E+02  0.00000000E+00
  4.00000000E+01  1.20000000E+02  0.00000000E+00
  4.00000000E+01  1.00000000E+02  0.00000000E+00
  4.00000000E+01  8.00000000E+01  0.00000000E+00
  4.00000000E+01  6.00000000E+01  0.00000000E+00
  4.00000000E+01  4.00000000E+01  0.00000000E+00
  4.00000000E+01  2.00000000E+01  0.00000000E+00
  4.00000000E+01  4.99600361E-14  0.00000000E+00
  6.00000000E+01  3.00000000E+02  0.00000000E+00
  6.00000000E+01  2.80000000E+02  0.00000000E+00
  6.00000000E+01  2.60000000E+02  0.00000000E+00
  6.00000000E+01  2.40000000E+02  0.00000000E+00
  6.00000000E+01  2.20000000E+02  0.00000000E+00
  6.00000000E+01  2.00000000E+02  0.00000000E+00
  6.00000000E+01  1.80000000E+02  0.00000000E+00
  6.00000000E+01  1.60000000E+02  0.00000000E+00
  6.00000000E+01  1.40000000E+02  0.00000000E+00
  6.00000000E+01  1.20000000E+02  0.00000000E+00
  6.00000000E+01  1.00000000E+02  0.00000000E+00
  6.00000000E+01  8.00000000E+01  0.00000000E+00
  6.00000000E+01  6.00000000E+01  0.00000000E+00
  6.00000000E+01  4.00000000E+01  0.00000000E+00
  6.00000000E+01  2.00000000E+01  0.00000000E+00
  6.00000000E+01  4.99600361E-14  0.00000000E+00
  8.00000000E+01  3.00000000E+02  0.00000000E+00
  8.00000000E+01  2.80000000E+02  0.00000000E+00
  8.00000000E+01  2.60000000E+02  0.00000000E+00
  8.00000000E+01  2.40000000E+02  0.00000000E+00
  8.00000000E+01  2.20000000E+02  0.00000000E+00
  8.00000000E+01  2.00000000E+02  0.00000000E+00
  8.00000000E+01  1.80000000E+02  0.00000000E+00
  8.00000000E+01  1.60000000E+02  0.00000000E+00
  8.00000000E+01  1.40000000E+02  0.00000000E+00
  8.00000000E+01  1.20000000E+02  0.00000000E+00
  8.00000000E+01  1.00000000E+02  0.00000000E+00
  8.00000000E+01  8.00000000E+01  0.00000000E+00
  8.00000000E+01  6.00000000E+01  0.00000000E+00
  8.00000000E+01  4.00000000E+01  0.00000000E+00
  8.00000000E+01  2.00000000E+01  0.00000000E+00
  8.00000000E+01  4.99600361E-14  0.00000000E+00
  1.00000000E+02  3.00000000E+02  0.00000000E+00
  1.00000000E+02  2.80000000E+02  0.00000000E+00
  1.00000000E+02  2.60000000E+02  0.00000000E+00
  1.00000000E+02  2.40000000E+02  0.00000000E+00
  1.00000000E+02  2.20000000E+02  0.00000000E+00
  1.00000000E+02  2.00000000E+02  0.00000000E+00
  1.00000000E+02  1.80000000E+02  0.00000000E+00
  1.00000000E+02  1.60000000E+02  0.00000000E+00
  1.00000000E+02  1.40000000E+02  0.00000000E+00
  1.00000000E+02  1.20000000E+02  0.00000000E+00
  1.00000000E+02  1.00000000E+02  0.00000000E+00
  1.00000000E+02  8.00000000E+01  0.00000000E+00
  1.00000000E+02  6.00000000E+01  0.00000000E+00
  1.00000000E+02  4.00000000E+01  0.00000000E+00
  1.00000000E+02  2.00000000E+01  0.00000000E+00
  1.00000000E+02  4.99600361E-14  0.00000000E+00
  1.20000000E+02  3.00000000E+02  0.00000000E+00
  1.20000000E+02  2.80000000E+02  0.00000000E+00
  1.20000000E+02  2.60000000E+02  0.00000000E+00
  1.20000000E+02  2.40000000E+02  0.00000000E+00
  1.20000000E+02  2.20000000E+02  0.00000000E+00
  1.20000000E+02  2.00000000E+02  0.00000000E+00
  1.20000000E+02  1.80000000E+02  0.00000000E+00
  1.20000000E+02  1.60000000E+02  0.00000000E+00
  1.20000000E+02  1.40000000E+02  0.00000000E+00
  1.20000000E+02  1.20000000E+02  0.00000000E+00
  1.20000000E+02  1.00000000E+02  0.00000000E+00
  1.20000000E+02  8.00000000E+01  0.00000000E+00
  1.20000000E+02  6.00000000E+01  0.00000000E+00
  1.20000000E+02  4.00000000E+01  0.00000000E+00
  1.20000000E+02  2.00000000E+01  0.00000000E+00
  1.20000000E+02  4.99600361E-14  0.00000000E+00
  1.40000000E+02  3.00000000E+02  0.00000000E+00
  1.40000000E+02  2.80000000E+02  0.00000000E+00
  1.40000000E+02  2.60000000E+02  0.00000000E+00
  1.40000000E+02  2.40000000E+02  0.00000000E+00
  1.40000000E+02  2.20000000E+02  0.00000000E+00
  1.40000000E+02  2.00000000E+02  0.00000000E+00
  1.40000000E+02  1.80000000E+02  0.00000000E+00
  1.40000000E+02  1.60000000E+02  0.00000000E+00
  1.40000000E+02  1.40000000E+02  0.00000000E+00
  1.40000000E+02  1.20000000E+02  0.00000000E+00
  1.40000000E+02  1.00000000E+02  0.00000000E+00
  1.40000000E+02  8.00000000E+01  0.00000000E+00
  1.40000000E+02  6.00000000E+01  0.00000000E+00
  1.40000000E+02  4.00000000E+01  0.00000000E+00
  1.40000000E+02  2.00000000E+01  0.00000000E+00
  1.40000000E+02  4.99600361E-14  0.00000000E+00
  1.60000000E+02  3.00000000E+02  0.00000000E+00
  1.60000000E+02  2.80000000E+02  0.00000000E+00
  1.60000000E+02  2.60000000E+02  0.00000000E+00
  1.60000000E+02  2.40000000E+02  0.00000000E+00
  1.60000000E+02  2.20000000E+02  0.00000000E+00
  1.60000000E+02  2.00000000E+02  0.00000000E+00
  1.60000000E+02  1.80000000E+02  0.00000000E+00
  1.60000000E+02  1.60000000E+02  0.00000000E+00
  1.60000000E+02  1.40000000E+02  0.00000000E+00
  1.60000000E+02  1.20000000E+02  0.00000000E+00
  1.60000000E+02  1.00000000E+02  0.00000000E+00
  1.60000000E+02  8.00000000E+01  0.00000000E+00
  1.60000000E+02  6.00000000E+01  0.00000000E+00
  1.60000000E+02  4.00000000E+01  0.00000000E+00
  1.60000000E+02  2.00000000E+01  0.00000000E+00
  1.60000000E+02  4.99600361E-14  0.00000000E+00
  1.80000000E+02  3.00000000E+02  0.00000000E+00
  1.80000000E+02  2.80000000E+02  0.00000000E+00
  1.80000000E+02  2.60000000E+02  0.00000000E+00
  1.80000000E+02  2.40000000E+02  0.00000000E+00
  1.80000000E+02  2.20000000E+02  0.00000000E+00
  1.80000000E+02  2.00000000E+02  0.00000000E+00
  1.80000000E+02  1.80000000E+02  0.00000000E+00
  1.80000000E+02  1.60000000E+02  0.00000000E+00
  1.80000000E+02  1.40000000E+02  0.00000000E+00
  1.80000000E+02  1.20000000E+02  0.00000000E+00
  1.80000000E+02  1.00000000E+02  0.00000000E+00
  1.80000000E+02  8.00000000E+01  0.00000000E+00
  1.80000000E+02  6.00000000E+01  0.00000000E+00
  1.80000000E+02  4.00000000E+01  0.00000000E+00
  1.80000000E+02  2.00000000E+01  0.00000000E+00
  1.80000000E+02  4.99600361E-14  0.00000000E+00
  2.00000000E+02  3.00000000E+02  0.00000000E+00
  2.00000000E+02  2.80000000E+02  0.00000000E+00
  2.00000000E+02  2.60000000E+02  0.00000000E+00
  2.00000000E+02  2.40000000E+02  0.00000000E+00
  2.00000000E+02  2.20000000E+02  0.00000000E+00
  2.00000000E+02  2.00000000E+02  0.00000000E+00
  2.00000000E+02  1.80000000E+02  0.00000000E+00
  2.00000000E+02  1.60000000E+02  0.00000000E+00
  2.00000000E+02  1.40000000E+02  0.00000000E+00
  2.00000000E+02  1.20000000E+02  0.00000000E+00
  2.00000000E+02  1.00000000E+02  0.00000000E+00
  2.00000000E+02  8.00000000E+01  0.00000000E+00
  2.00000000E+02  6.00000000E+01  0.00000000E+00
  2.00000000E+02  4.00000000E+01  0.00000000E+00
  2.00000000E+02  2.00000000E+01  0.00000000E+00
  2.00000000E+02  4.99600361E-14  0.00000000E+00
  2.20000000E+02  3.00000000E+02  0.00000000E+00
  2.20000000E+02  2.80000000E+02  0.00000000E+00
  2.20000000E+02  2.60000000E+02  0.00000000E+00
  2.20000000E+02  2.40000000E+02  0.00000000E+00
  2.20000000E+02  2.20000000E+02  0.00000000E+00
  2.20000000E+02  2.00000000E+02  0.00000000E+00
  2.20000000E+02  1.80000000E+02  0.00000000E+00
  2.20000000E+02  1.60000000E+02  0.00000000E+00
  2.20000000E+02  1.40000000E+02  0.00000000E+00
  2.20000000E+02  1.20000000E+02  0.00000000E+00
  2.20000000E+02  1.00000000E+02  0.00000000E+00
  2.20000000E+02  8.00000000E+01  0.00000000E+00
  2.20000000E+02  6.00000000E+01  0.00000000E+00
  2.20000000E+02  4.00000000E+01  0.00000000E+00
  2.20000000E+02  2.00000000E+01  0.00000000E+00
  2.20000000E+02  4.99600361E-14  0.00000000E+00
  2.40000000E+02  3.00000000E+02  0.00000000E+00
  2.40000000E+02  2.80000000E+02  0.00000000E+00
  2.40000000E+02  2.60000000E+02  0.00000000E+00
  2.40000000E+02  2.40000000E+02  0.00000000E+00
  2.40000000E+02  2.20000000E+02  0.00000000E+00
  2.40000000E+02  2.00000000E+02  0.00000000E+00
  2.40000000E+02  1.80000000E+02  0.00000000E+00
  2.40000000E+02  1.60000000E+02  0.00000000E+00
  2.40000000E+02  1.40000000E+02  0.00000000E+00
  2.40000000E+02  1.20000000E+02  0.00000000E+00
  2.40000000E+02  1.00000000E+02  0.00000000E+00
  2.40000000E+02  8.00000000E+01  0.00000000E+00
  2.40000000E+02  6.00000000E+01  0.00000000E+00
  2.40000000E+02  4.00000000E+01  0.00000000E+00
  2.40000000E+02  2.00000000E+01  0.00000000E+00
  2.40000000E+02  4.99600361E-14  0.00000000E+00
  2.60000000E+02  3.00000000E+02  0.00000000E+00
  2.60000000E+02  2.80000000E+02  0.00000000E+00
  2.60000000E+02  2.60000000E+02  0.00000000E+00
  2.60000000E+02  2.40000000E+02  0.00000000E+00
  2.60000000E+02  2.20000000E+02  0.00000000E+00
  2.60000000E+02  2.00000000E+02  0.00000000E+00
  2.60000000E+02  1.80000000E+02  0.00000000E+00
  2.60000000E+02  1.60000000E+02  0.00000000E+00
  2.60000000E+02  1.40000000E+02  0.00000000E+00
  2.60000000E+02  1.20000000E+02  0.00000000E+00
  2.60000000E+02  1.00000000E+02  0.00000000E+00
  2.60000000E+02  8.00000000E+01  0.00000000E+00
  2.60000000E+02  6.00000000E+01  0.00000000E+00
  2.60000000E+02  4.00000000E+01  0.00000000E+00
  2.60000000E+02  2.00000000E+01  0.00000000E+00
  2.60000000E+02  4.99600361E-14  0.00000000E+00
  2.80000000E+02  3.00000000E+02  0.00000000E+00
  2.80000000E+02  2.80000000E+02  0.00000000E+00
  2.80000000E+02  2.60000000E+02  0.00000000E+00
  2.80000000E+02  2.40000000E+02  0.00000000E+00
  2.80000000E+02  2.20000000E+02  0.00000000E+00
  2.80000000E+02  2.00000000E+02  0.00000000E+00
  2.80000000E+02  1.80000000E+02  0.00000000E+00
  2.80000000E+02  1.60000000E+02  0.00000000E+00
  2.80000000E+02  1.40000000E+02  0.00000000E+00
  2.80000000E+02  1.20000000E+02  0.00000000E+00
  2.80000000E+02  1.00000000E+02  0.00000000E+00
  2.80000000E+02  8.00000000E+01  0.00000000E+00
  2.80000000E+02  6.00000000E+01  0.00000000E+00
  2.80000000E+02  4.00000000E+01  0.00000000E+00
  2.80000000E+02  2.00000000E+01  0.00000000E+00
  2.80000000E+02  4.99600361E-14  0.00000000E+00
  3.00000000E+02  3.00000000E+02  0.00000000E+00
  3.00000000E+02  2.80000000E+02  0.00000000E+00
  3.00000000E+02  2.60000000E+02  0.00000000E+00
  3.00000000E+02  2.40000000E+02  0.00000000E+00
  3.00000000E+02  2.20000000E+02  0.00000000E+00
  3.00000000E+02  2.00000000E+02  0.00000000E+00
  3.00000000E+02  1.80000000E+02  0.00000000E+00
  3.00000000E+02  1.60000000E+02  0.00000000E+00
  3.00000000E+02  1.40000000E+02  0.00000000E+00
  3.00000000E+02  1.20000000E+02  0.00000000E+00
  3.00000000E+02  1.00000000E+02  0.00000000E+00
  3.00000000E+02  8.00000000E+01  0.00000000E+00
  3.00000000E+02  6.00000000E+01  0.00000000E+00
  3.00000000E+02  4.00000000E+01  0.00000000E+00
  3.00000000E+02  2.00000000E+01  0.00000000E+00
  3.00000000E+02  4.99600361E-14  0.00000000E+00
  3.20000000E+02  3.00000000E+02  0.00000000E+00
  3.20000000E+02  2.80000000E+02  0.00000000E+00
  3.20000000E+02  2.60000000E+02  0.00000000E+00
  3.20000000E+02  2.40000000E+02  0.00000000E+00
  3.20000000E+02  2.20000000E+02  0.00000000E+00
  3.20000000E+02  2.00000000E+02  0.00000000E+00
  3.20000000E+02  1.80000000E+02  0.00000000E+00
  3.20000000E+02  1.60000000E+02  0.00000000E+00
  3.20000000E+02  1.40000000E+02  0.00000000E+00
  3.20000000E+02  1.20000000E+02  0.00000000E+00
  3.20000000E+02  1.00000000E+02  0.00000000E+00
  3.20000000E+02  8.00000000E+01  0.00000000E+00
  3.20000000E+02  6.00000000E+01  0.00000000E+00
  3.20000000E+02  4.00000000E+01  0.00000000E+00
  3.20000000E+02  2.00000000E+01  0.00000000E+00
  3.20000000E+02  4.99600361E-14  0.00000000E+00
  3.40000000E+02  3.00000000E+02  0.00000000E+00
  3.40000000E+02  2.80000000E+02  0.00000000E+00
  3.40000000E+02  2.60000000E+02  0.00000000E+00
  3.40000000E+02  2.40000000E+02  0.00000000E+00
  3.40000000E+02  2.20000000E+02  0.00000000E+00
  3.40000000E+02  2.00000000E+02  0.00000000E+00
  3.40000000E+02  1.80000000E+02  0.00000000E+00
  3.40000000E+02  1.60000000E+02  0.00000000E+00
  3.40000000E+02  1.40000000E+02  0.00000000E+00
  3.40000000E+02  1.20000000E+02  0.00000000E+00
  3.40000000E+02  1.00000000E+02  0.00000000E+00
  3.40000000E+02  8.00000000E+01  0.00000000E+00
  3.40000000E+02  6.00000000E+01  0.00000000E+00
  3.40000000E+02  4.00000000E+01  0.00000000E+00
  3.40000000E+02  2.00000000E+01  0.00000000E+00
  3.40000000E+02  4.99600361E-14  0.00000000E+00
  3.60000000E+02  3.00000000E+02  0.00000000E+00
  3.60000000E+02  2.80000000E+02  0.00000000E+00
  3.60000000E+02  2.60000000E+02  0.00000000E+00
  3.60000000E+02  2.40000000E+02  0.00000000E+00
  3.60000000E+02  2.20000000E+02  0.00000000E+00
  3.60000000E+02  2.00000000E+02  0.00000000E+00
  3.60000000E+02  1.80000000E+02  0.00000000E+00
  3.60000000E+02  1.60000000E+02  0.00000000E+00
  3.60000000E+02  1.40000000E+02  0.00000000E+00
  3.60000000E+02  1.20000000E+02  0.00000000E+00
  3.60000000E+02  1.00000000E+02  0.00000000E+00
  3.60000000E+02  8.00000000E+01  0.00000000E+00
  3.60000000E+02  6.00000000E+01  0.00000000E+00
  3.60000000E+02  4.00000000E+01  0.00000000E+00
  3.60000000E+02  2.00000000E+01  0.00000000E+00
  3.60000000E+02  4.99600361E-14  0.00000000E+00
  3.80000000E+02  3.00000000E+02  0.00000000E+00
  3.80000000E+02  2.80000000E+02  0.00000000E+00
  3.80000000E+02  2.60000000E+02  0.00000000E+00
  3.80000000E+02  2.40000000E+02  0.00000000E+00
  3.80000000E+02  2.20000000E+02  0.00000000E+00
  3.80000000E+02  2.00000000E+02  0.00000000E+00
  3.80000000E+02  1.80000000E+02  0.00000000E+00
  3.80000000E+02  1.60000000E+02  0.00000000E+00
  3.80000000E+02  1.40000000E+02  0.00000000E+00
  3.80000000E+02  1.20000000E+02  0.00000000E+00
  3.80000000E+02  1.00000000E+02  0.00000000E+00
  3.80000000E+02  8.00000000E+01  0.00000000E+00
  3.80000000E+02  6.00000000E+01  0.00000000E+00
  3.80000000E+02  4.00000000E+01  0.00000000E+00
  3.80000000E+02  2.00000000E+01  0.00000000E+00
  3.80000000E+02  4.99600361E-14  0.00000000E+00
  4.00000000E+02  3.00000000E+02  0.00000000E+00
  4.00000000E+02  2.80000000E+02  0.00000000E+00
  4.00000000E+02  2.60000000E+02  0.00000000E+00
  4.00000000E+02  2.40000000E+02  0.00000000E+00
  4.00000000E+02  2.20000000E+02  0.00000000E+00
  4.00000000E+02  2.00000000E+02  0.00000000E+00
  4.00000000E+02  1.80000000E+02  0.00000000E+00
  4.00000000E+02  1.60000000E+02  0.00000000E+00
  4.00000000E+02  1.40000000E+02  0.00000000E+00
  4.00000000E+02  1.20000000E+02  0.00000000E+00
  4.00000000E+02  1.00000000E+02  0.00000000E+00
  4.00000000E+02  8.00000000E+01  0.00000000E+00
  4.00000000E+02  6.00000000E+01  0.00000000E+00
  4.00000000E+02  4.00000000E+01  0.00000000E+00
  4.00000000E+02  2.00000000E+01  0.00000000E+00
  4.00000000E+02  4.99600361E-14  0.00000000E+00
  4.20000000E+02  3.00000000E+02  0.00000000E+00
  4.20000000E+02  2.80000000E+02  0.00000000E+00
  4.20000000E+02  2.60000000E+02  0.00000000E+00
  4.20000000E+02  2.40000000E+02  0.00000000E+00
  4.20000000E+02  2.20000000E+02  0.00000000E+00
  4.20000000E+02  2.00000000E+02  0.00000000E+00
  4.20000000E+02  1.80000000E+02  0.00000000E+00
  4.20000000E+02  1.60000000E+02  0.00000000E+00
  4.20000000E+02  1.40000000E+02  0.00000000E+00
  4.20000000E+02  1.20000000E+02  0.00000000E+00
  4.20000000E+02  1.00000000E+02  0.00000000E+00
  4.20000000E+02  8.00000000E+01  0.00000000E+00
  4.20000000E+02  6.00000000E+01  0.00000000E+00
  4.20000000E+02  4.00000000E+01  0.00000000E+00
  4.20000000E+02  2.00000000E+01  0.00000000E+00
  4.20000000E+02  4.99600361E-14  0.00000000E+00
  4.40000000E+02  3.00000000E+02  0.00000000E+00
  4.40000000E+02  2.80000000E+02  0.00000000E+00
  4.40000000E+02  2.60000000E+02  0.00000000E+00
  4.40000000E+02  2.40000000E+02  0.00000000E+00
  4.40000000E+02  2.20000000E+02  0.00000000E+00
  4.40000000E+02  2.00000000E+02  0.00000000E+00
  4.40000000E+02  1.80000000E+02  0.00000000E+00
  4.40000000E+02  1.60000000E+02  0.00000000E+00
  4.40000000E+02  1.40000000E+02  0.00000000E+00
  4.40000000E+02  1.20000000E+02  0.00000000E+00
  4.40000000E+02  1.00000000E+02  0.00000000E+00
  4.40000000E+02  8.00000000E+01  0.00000000E+00
  4.40000000E+02  6.00000000E+01  0.00000000E+00
  4.40000000E+02  4.00000000E+01  0.00000000E+00
  4.40000000E+02  2.00000000E+01  0.00000000E+00
  4.40000000E+02  4.99600361E-14  0.00000000E+00
  4.60000000E+02  3.00000000E+02  0.00000000E+00
  4.60000000E+02  2.80000000E+02  0.00000000E+00
  4.60000000E+02  2.60000000E+02  0.00000000E+00
  4.60000000E+02  2.40000000E+02  0.00000000E+00
  4.60000000E+02  2.20000000E+02  0.00000000E+00
  4.60000000E+02  2.00000000E+02  0.00000000E+00
  4.60000000E+02  1.80000000E+02  0.00000000E+00
  4.60000000E+02  1.60000000E+02  0.00000000E+00
  4.60000000E+02  1.40000000E+02  0.00000000E+00
  4.60000000E+02  1.20000000E+02  0.00000000E+00
  4.60000000E+02  1.00000000E+02  0.00000000E+00
  4.60000000E+02  8.00000000E+01  0.00000000E+00
  4.60000000E+02  6.00000000E+01  0.00000000E+00
  4.60000000E+02  4.00000000E+01  0.00000000E+00
  4.60000000E+02  2.00000000E+01  0.00000000E+00
  4.60000000E+02  4.99600361E-14  0.00000000E+00
  4.80000000E+02  3.00000000E+02  0.00000000E+00
  4.80000000E+02  2.80000000E+02  0.00000000E+00
  4.80000000E+02  2.60000000E+02  0.00000000E+00
  4.80000000E+02  2.40000000E+02  0.00000000E+00
  4.80000000E+02  2.20000000E+02  0.00000000E+00
  4.80000000E+02  2.00000000E+02  0.00000000E+00
  4.80000000E+02  1.80000000E+02  0.00000000E+00
  4.80000000E+02  1.60000000E+02  0.00000000E+00
  4.80000000E+02  1.40000000E+02  0.00000000E+00
  4.80000000E+02  1.20000000E+02  0.00000000E+00
  4.80000000E+02  1.00000000E+02  0.00000000E+00
  4.80000000E+02  8.00000000E+01  0.00000000E+00
  4.80000000E+02  6.00000000E+01  0.00000000E+00
  4.80000000E+02  4.00000000E+01  0.00000000E+00
  4.80000000E+02  2.00000000E+01  0.00000000E+00
  4.80000000E+02  4.99600361E-14  0.00000000E+00
  5.00000000E+02  3.00000000E+02  0.00000000E+00
  5.00000000E+02  2.80000000E+02  0.00000000E+00
  5.00000000E+02  2.60000000E+02  0.00000000E+00
  5.00000000E+02  2.40000000E+02  0.00000000E+00
  5.00000000E+02  2.20000000E+02  0.00000000E+00
  5.00000000E+02  2.00000000E+02  0.00000000E+00
  5.00000000E+02  1.80000000E+02  0.00000000E+00
  5.00000000E+02  1.60000000E+02  0.00000000E+00
  5.00000000E+02  1.40000000E+02  0.00000000E+00
  5.00000000E+02  1.20000000E+02  0.00000000E+00
  5.00000000E+02  1.00000000E+02  0.00000000E+00
  5.00000000E+02  8.00000000E+01  0.00000000E+00
  5.00000000E+02  6.00000000E+01  0.00000000E+00
  5.00000000E+02  4.00000000E+01  0.00000000E+00
  5.00000000E+02  2.00000000E+01  0.00000000E+00
  5.00000000E+02  4.99600361E-14  0.00000000E+00
  5.20000000E+02  3.00000000E+02  0.00000000E+00
  5.20000000E+02  2.80000000E+02  0.00000000E+00
  5.20000000E+02  2.60000000E+02  0.00000000E+00
  5.20000000E+02  2.40000000E+02  0.00000000E+00
  5.20000000E+02  2.20000000E+02  0.00000000E+00
  5.20000000E+02  2.00000000E+02  0.00000000E+00
  5.20000000E+02  1.80000000E+02  0.00000000E+00
  5.20000000E+02  1.60000000E+02  0.00000000E+00
  5.20000000E+02  1.40000000E+02  0.00000000E+00
  5.20000000E+02  1.20000000E+02  0.00000000E+00
  5.20000000E+02  1.00000000E+02  0.00000000E+00
  5.20000000E+02  8.00000000E+01  0.00000000E+00
  5.20000000E+02  6.00000000E+01  0.00000000E+00
  5.20000000E+02  4.00000000E+01  0.00000000E+00
  5.20000000E+02  2.00000000E+01  0.00000000E+00
  5.20000000E+02  4.99600361E-14  0.00000000E+00
  5.40000000E+02  3.00000000E+02  0.00000000E+00
  5.40000000E+02  2.80000000E+02  0.00000000E+00
  5.40000000E+02  2.60000000E+02  0.00000000E+00
  5.40000000E+02  2.40000000E+02  0.00000000E+00
  5.40000000E+02  2.20000000E+02  0.00000000E+00
  5.40000000E+02  2.00000000E+02  0.00000000E+00
  5.40000000E+02  1.80000000E+02  0.00000000E+00
  5.40000000E+02  1.60000000E+02  0.00000000E+00
  5.40000000E+02  1.40000000E+02  0.00000000E+00
  5.40000000E+02  1.20000000E+02  0.00000000E+00
  5.40000000E+02  1.00000000E+02  0.00000000E+00
  5.40000000E+02  8.00000000E+01  0.00000000E+00
  5.40000000E+02  6.00000000E+01  0.00000000E+00
  5.40000000E+02  4.00000000E+01  0.00000000E+00
  5.40000000E+02  2.00000000E+01  0.00000000E+00
  5.40000000E+02  4.99600361E-14  0.00000000E+00
  5.60000000E+02  3.00000000E+02  0.00000000E+00
  5.60000000E+02  2.80000000E+02  0.00000000E+00
  5.60000000E+02  2.60000000E+02  0.00000000E+00
  5.60000000E+02  2.40000000E+02  0.00000000E+00
  5.60000000E+02  2.20000000E+02  0.00000000E+00
  5.60000000E+02  2.00000000E+02  0.00000000E+00
  5.60000000E+02  1.80000000E+02  0.00000000E+00
  5.60000000E+02  1.60000000E+02  0.00000000E+00
  5.60000000E+02  1.40000000E+02  0.00000000E+00
  5.60000000E+02  1.20000000E+02  0.00000000E+00
  5.60000000E+02  1.00000000E+02  0.00000000E+00
  5.60000000E+02  8.00000000E+01  0.00000000E+00
  5.60000000E+02  6.00000000E+01  0.00000000E+00
  5.60000000E+02  4.00000000E+01  0.00000000E+00
  5.60000000E+02  2.00000000E+01  0.00000000E+00
  5.60000000E+02  4.99600361E-14  0.00000000E+00
  5.80000000E+02  3.00000000E+02  0.00000000E+00
  5.80000000E+02  2.80000000E+02  0.00000000E+00
  5.80000000E+02  2.60000000E+02  0.00000000E+00
  5.80000000E+02  2.40000000E+02  0.00000000E+00
  5.80000000E+02  2.20000000E+02  0.00000000E+00
  5.80000000E+02  2.00000000E+02  0.00000000E+00
  5.80000000E+02  1.80000000E+02  0.00000000E+00
  5.80000000E+02  1.60000000E+02  0.00000000E+00
  5.80000000E+02  1.40000000E+02  0.00000000E+00
  5.80000000E+02  1.20000000E+02  0.00000000E+00
  5.80000000E+02  1.00000000E+02  0.00000000E+00
  5.80000000E+02  8.00000000E+01  0.00000000E+00
  5.80000000E+02  6.00000000E+01  0.00000000E+00
  5.80000000E+02  4.00000000E+01  0.00000000E+00
  5.80000000E+02  2.00000000E+01  0.00000000E+00
  5.80000000E+02  4.99600361E-14  0.00000000E+00
  6.00000000E+02  3.00000000E+02  0.00000000E+00
  6.00000000E+02  2.80000000E+02  0.00000000E+00
  6.00000000E+02  2.60000000E+02  0.00000000E+00
  6.00000000E+02  2.40000000E+02  0.00000000E+00
  6.00000000E+02  2.20000000E+02  0.00000000E+00
  6.00000000E+02  2.00000000E+02  0.00000000E+00
  6.00000000E+02  1.80000000E+02  0.00000000E+00
  6.00000000E+02  1.60000000E+02  0.00000000E+00
  6.00000000E+02  1.40000000E+02  0.00000000E+00
  6.00000000E+02  1.20000000E+02  0.00000000E+00
  6.00000000E+02  1.00000000E+02  0.00000000E+00
  6.00000000E+02  8.00000000E+01  0.00000000E+00
  6.00000000E+02  6.00000000E+01  0.00000000E+00
  6.00000000E+02  4.00000000E+01  0.00000000E+00
  6.00000000E+02  2.00000000E+01  0.00000000E+00
  6.00000000E+02  4.99600361E-14  0.00000000E+00
CELLS       450      2250
         4           0           1          17          16
         4           1           2          18          17
         4           2           3          19          18
         4           3           4          20          19
         4           4           5          21          20
         4           5           6          22          21
         4           6           7          23          22
         4           7           8          24          23
         4           8           9          25          24
         4           9          10          26          25
         4          10          11          27          26
         4          11          12          28          27
         4          12          13          29          28
         4          13          14          30          29
         4          14          15          31          30
         4          16          17          33          32
         4          17          18          34          33
         4          18          19          35          34
         4          19          20          36          35
         4          20          21          37          36
         4          21          22          38          37
         4          22          23          39          38
         4          23          24          40          39
         4          24          25          41          40
         4          25          26          42          41
         4          26          27          43          42
         4          27          28          44          43
         4          28          29          45          44
         4          29          30          46          45
         4          30          31          47          46
         4          32          33          49          48
         4          33          34          50          49
         4          34          35          51          50
         4          35          36          52          51
         4          36          37          53          52
         4          37          38          54          53
         4          38          39          55          54
         4          39          40          56          55
         4          40          41          57          56
         4          41          42          58          57
         4          42          43          59          58
         4          43          44          60          59
         4          44          45          61          60
         4          45          46          62          61
         4          46          47          63          62
         4          48          49          65          64
         4          49          50          66          65
         4          50          51          67          66
         4          51          52          68          67
         4          52          53          69          68
         4          53          54          70          69
         4          54          55          71          70
         4          55          56          72          71
         4          56          57          73          72
         4          57          58          74          73
         4          58          59          75          74
         4          59          60          76          75
         4          60          61          77          76
         4          61          62          78          77
         4          62          63          79          78
         4          64          65          81          80
         4          65          66          82          81
         4          66          67          83          82
         4          67          68          84          83
         4          68          69          85          84
         4          69          70          86          85
         4          70          71          87          86
         4          71          72          88          87
         4          72          73          89          88
         4          73          74          90          89
         4          74          75          91          90
         4          75          76          92          91
         4          76          77          93          92
         4          77          78          94          93
         4          78          79          95          94
         4          80          81          97          96
         4          81          82          98          97
         4          82          83          99          98
         4          83          84         100          99
         4          84          85         101         100
         4          85          86         102         101
         4          86          87         103         102
         4          87          88         104         103
         4          88          89         105         104
         4          89          90         106         105
         4          90          91         107         106
         4          91          92         108         107
         4          92          93         109         108
         4          93          94         110         109
         4          94          95         111         110
         4          96          97         113         112
         4          97          98         114         113
         4          98          99         115         114
         4          99         100         116         115
         4         100         101         117         116
         4         101         102         118         117
         4         102         103         119         118
         4         103         104         120         119
         4         104         105         121         120
         4         105         106         122         121
         4         106         107         123         122
         4         107         108         124         123
         4         108         109         125         124
         4         109         110         126         125
         4         110         111         127         126
         4         112         113         129         128
         4         113         114         130         129
         4         114         115         131         130
         4         115         116         132         131
         4         116         117         133         132
         4         117         118         134         133
         4         118         119         135         134
         4         119         120         136         135
         4         120         121         137         136
         4         121         122         138         137
         4         122         123         139         138
         4         123         124         140         139
         4         124         125         141         140
         4         125         126         142         141
         4         126         127         143         142
         4         128         129         145         144
         4         129         130         146         145
         4         130         131         147         146
         4         131         132         148         147
         4         132         133         149         148
         4         133         134         150         149
         4         134         135         151         150
         4         135         136         152         151
         4         136         137         153         152
         4         137         138         154         153
         4         138         139         155         154
         4         139         140         156         155
         4         140         141         157         156
         4         141         142         158         157
         4         142         143         159         158
         4         144         145         161         160
         4         145         146         162         161
         4         146         147         163         162
         4         147         148         164         163
         4         148         149         165         164
         4         149         150         166         165
         4         150         151         167         166
         4         151         152         168         167
         4         152         153         169         168
         4         153         154         170         169
         4         154         155         171         170
         4         155         156         172         171
         4         156         157         173         172
         4         157         158         174         173
         4         158         159         175         174
         4         160         161         177         176
         4         161         162         178         177
         4         162         163         179         178
         4         163         164         180         179
         4         164         165         181         180
         4         165         166         182         181
         4         166         167         183         182
         4         167         168         184         183
         4         168         169         185         184
         4         169         170         186         185
         4         170         171         187         186
         4         171         172         188         187
         4         172         173         189         188
         4         173         174         190         189
         4         174         175         191         190
         4         176         177         193         192
         4         177         178         194         193
         4         178         179         195         194
         4         179         180         196         195
         4         180         181         197         196
         4         181         182         198         197
         4         182         183         199         198
         4         183         184         200         199
         4         184         185         201         200
         4         185         186         202         201
         4         186         187         203         202
         4         187         188         204         203
         4         188         189         205         204
         4         189         190         206         205
         4         190         191         207         206
         4         192         193         209         208
         4         193         194         210         209
         4         194         195         211         210
         4         195         196         212         211
         4         196         197         213         212
         4         197         198         214         213
         4         198         199         215         214
         4         199         200         216         215
         4         200         201         217         216
         4         201         202         218         217
         4         202         203         219         218
         4         203         204         220         219
         4         204         205         221         220
         4         205         206         222         221
         4         206         207         223         222
         4         208         209         225         224
         4         209         210         226         225
         4         210         211         227         226
         4         211         212         228         227
         4         212         213         229         228
         4         213         214         230         229
         4         214         215         231         230
         4         215         216         232         231
         4         216         217         233         232
         4         217         218         234         233
         4         218         219         235         234
         4         219         220         236         235
         4         220         221         237         236
         4         221         222         238         237
         4         222         223         239         238
         4         224         225         241         240
         4         225         226         242         241
         4         226         227         243         242
         4         227         228         244         243
         4         228         229         245         244
         4         229         230         246         245
         4         230         231         247         246
         4         231         232         248         247
         4         232         233         249         248
         4         233         234         250         249
         4         234         235         251         250
         4         235         236         252         251
         4         236         237         253         252
         4         237         238         254         253
         4         238         239         255         254
         4         240         241         257         256
         4         241         242         258         257
         4         242         243         259         258
         4         243         244         260         259
         4         244         245         261         260
         4         245         246         262         261
         4         246         247         263         262
         4         247         248         264         263
         4         248         249         265         264
         4         249         250         266         265
         4         250         251         267         266
         4         251         252         268         267
         4         252         253         269         268
         4         253         254         270         269
         4         254         255         271         270
         4         256         257         273         272
         4         257         258         274         273
         4         258         259         275         274
         4         259         260         276         275
         4         260         261         277         276
         4         261         262         278         277
         4         262         263         279         278
         4         263         264         280         279
         4         264         265         281         280
         4         265         266         282         281
         4         266         267         283         282
         4         267         268         284         283
         4         268         269         285         284
         4         269         270         286         285
         4         270         271         287         286
         4         272         273         289         288
         4         273         274         290         289
         4         274         275         291         290
         4         275         276         292         291
         4         276         277         293         292
         4         277         278         294         293
         4         278         279         295         294
         4         279         280         296         295
         4         280         281         297         296
         4         281         282         298         297
         4         282         283         299         298
         4         283         284         300         299
         4         284         285         301         300
         4         285         286         302         301
         4         286         287         303         302
         4         288         289         305         304
         4         289         290         306         305
         4         290         291         307         306
         4         291         292         308         307
         4         292         293         309         308
         4         293         294         310         309
         4         294         295         311         310
         4         295         296         312         311
         4         296         297         313         312
         4         297         298         314         313
         4         298         299         315         314
         4         299         300         316         315
         4         300         301         317         316
         4         301         302         318         317
         4         302         303         319         318
         4         304         305         321         320
         4         305         306         322         321
         4         306         307         323         322
         4         307         308         324         323
         4         308         309         325         324
         4         309         310         326         325
         4         310         311         327         326
         4         311         312         328         327
         4         312         313         329         328
         4         313         314         330         329
         4         314         315         331         330
         4         315         316         332         331
         4         316         317         333         332
         4         317         318         334         333
         4         318         319         335         334
         4         320         321         337         336
         4         321         322         338         337
         4         322         323         339         338
         4         323         324         340         339
         4         324         325         341         340
         4         325         326         342         341
         4         326         327         343         342
         4         327         328         344         343
         4         328         329         345         344
         4         329         330         346         345
         4         330         331         347         346
         4         331         332         348         347
         4         332         333         349         348
         4         333         334         350         349
         4         334         335         351         350
         4         336         337         353         352
         4         337         338         354         353
         4         338         339         355         354
         4         339         340         356         355
         4         340         341         357         356
         4         341         342         358         357
         4         342         343         359         358
         4         343         344         360         359
         4         344         345         361         360
         4         345         346         362         361
         4         346         347         363         362
         4         347         348         364         363
         4         348         349         365         364
         4         349         350         366         365
         4         350         351         367         366
         4         352         353         369         368
         4         353         354         370         369
         4         354         355         371         370
         4         355         356         372         371
         4         356         357         373         372
         4         357         358         374         373
         4         358         359         375         374
         4         359         360         376         375
         4         360         361         377         376
         4         361         362         378         377
         4         362         363         379         378
         4         363         364         380         379
         4         364         365         381         380
         4         365         366         382         381
         4         366         367         383         382
         4         368         369         385         384
         4         369         370         386         385
         4         370         371         387         386
         4         371         372         388         387
         4         372         373         389         388
         4         373         374         390         389
         4         374         375         391         390
         4         375         376         392         391
         4         376         377         393         392
         4         377         378         394         393
         4         378         379         395         394
         4         379         380         396         395
         4         380         381         397         396
         4         381         382         398         397
         4         382         383         399         398
         4         384         385         401         400
         4         385         386         402         401
         4         386         387         403         402
         4         387         388         404         403
         4         388         389         405         404
         4         389         390         406         405
         4         390         391         407         406
         4         391         392         408         407
         4         392         393         409         408
         4         393         394         410         409
         4         394         395         411         410
         4         395         396         412         411
         4         396         397         413         412
         4         397         398         414         413
         4         398         399         415         414
         4         400         401         417         416
         4         401         402         418         417
         4         402         403         419         418
         4         403         404         420         419
         4         404         405         421         420
         4         405         406         422         421
         4         406         407         423         422
         4         407         408         424         423
         4         408         409         425         424
         4         409         410         426         425
         4         410         411         427         426
         4         411         412         428         427
         4         412         413         429         428
         4         413         414         430         429
         4         414         415         431         430
         4         416         417         433         432
         4         417         418         434         433
         4         418         419         435         434
         4         419         420         436         435
         4         420         421         437         436
         4         421         422         438         437
         4         422         423         439         438
         4         423         424         440         439
         4         424         425         441         440
         4         425         426         442         441
         4         426         427         443         442
         4         427         428         444         443
         4         428         429         445         444
         4         429         430         446         445
         4         430         431         447         446
         4         432         433         449         448
         4         433         434         450         449
         4         434         435         451         450
         4         435         436         452         451
         4         436         437         453         452
         4         437         438         454         453
         4         438         439         455         454
         4         439         440         456         455
         4         440         441         457         456
         4         441         442         458         457
         4         442         443         459         458
         4         443         444         460         459
         4         444         445         461         460
         4         445         446         462         461
         4         446         447         463         462
         4         448         449         465         464
         4         449         450         466         465
         4         450         451         467         466
         4         451         452         468         467
         4         452         453         469         468
         4         453         454         470         469
         4         454         455         471         470
         4         455         456         472         471
         4         456         457         473         472
         4         457         458         474         473
         4         458         459         475         474
         4         459         460         476         475
         4         460         461         477         476
         4         461         462         478         477
         4         462         463         479         478
         4         464         465         481         480
         4         465         466         482         481
         4         466         467         483         482
         4         467         468         484         483
         4         468         469         485         484
         4         469         470         486         485
         4         470         471         487         486
         4         471         472         488         487
         4         472         473         489         488
         4         473         474         490         489
         4         474         475         491         490
         4         475         476         492         491
         4         476         477         493         492
         4         477         478         494         493
         4         478         479         495         494
CELL_TYPES        450
9
9
9
9
9
9
9
9
9
9
9
9
9
9
9
9
9
9
9
9
9
9
9
9
9
9
9
9
9
9
9
9
9
9
9
9
9
9
9
9
9
9
9
9
9
9
9
9
9
9
9
9
9
9
9
9
9
9
9
9
9
9
9
9
9
9
9
9
9
9
9
9
9
9
9
9
9
9
9
9
9
9
9
9
9
9
9
9
9
9
9
9
9
9
9
9
9
9
9
9
9
9
9
9
9
9
9
9
9
9
9
9
9
9
9
9
9
9
9
9
9
9
9
9
9
9
9
9
9
9
9
9
9
9
9
9
9
9
9
9
9
9
9
9
9
9
9
9
9
9
9
9
9
9
9
9
9
9
9
9
9
9
9
9
9
9
9
9
9
9
9
9
9
9
9
9
9
9
9
9
9
9
9
9
9
9
9
9
9
9
9
9
9
9
9
9
9
9
9
9
9
9
9
9
9
9
9
9
9
9
9
9
9
9
9
9
9
9
9
9
9
9
9
9
9
9
9
9
9
9
9
9
9
9
9
9
9
9
9
9
9
9
9
9
9
9
9
9
9
9
9
9
9
9
9
9
9
9
9
9
9
9
9
9
9
9
9
9
9
9
9
9
9
9
9
9
9
9
9
9
9
9
9
9
9
9
9
9
9
9
9
9
9
9
9
9
9
9
9
9
9
9
9
9
9
9
9
9
9
9
9
9
9
9
9
9
9
9
9
9
9
9
9
9
9
9
9
9
9
9
9
9
9
9
9
9
9
9
9
9
9
9
9
9
9
9
9
9
9
9
9
9
9
9
9
9
9
9
9
9
9
9
9
9
9
9
9
9
9
9
9
9
9
9
9
9
9
9
9
9
9
9
9
9
9
9
9
9
9
9
9
9
9
9
9
9
9
9
9
9
9
9
9
9
9
9
9
9
9
9
9
9
9
9
9
9
9
9
9
9
9
9
9
9
9
9
9
9
9
9
9
9
9
9
9
9
9
9
9
9
9
9
9
9
9
9
9
9
9
9
POINT_DATA       496
SCALARS p double 
LOOKUP_TABLE default
   55347629.7180753     
   55363943.5903081     
   55434569.1558069     
   55560996.6757531     
   55731795.1952959     
   55929135.0670064     
   56134931.0495695     
   56330139.2199153     
   56510638.9706376     
   56674331.4565900     
   56819909.8130950     
   56945725.6312134     
   57049833.2825050     
   57129925.3504860     
   57183312.4357662     
   57203178.8813585     
   53636509.2906879     
   53661832.8068715     
   53730016.7484757     
   53829740.9484588     
   53955532.2099705     
   54100327.2399886     
   54257873.8417420     
   54421926.1384545     
   54582404.8358325     
   54731752.8522438     
   54866078.2898727     
   54982502.9762165     
   55078367.0087711     
   55150889.9432642     
   55196572.5962837     
   55212389.8387061     
   52030243.1462288     
   52055381.8391089     
   52112603.7920390     
   52192625.8934181     
   52288231.8963206     
   52393721.8157000     
   52507873.8374697     
   52634367.5702381     
   52765716.7523146     
   52893315.9836241     
   53010883.7430945     
   53114046.1156005     
   53199299.7266512     
   53263456.3782722     
   53303636.4278786     
   53317610.3813924     
   50491682.8815533     
   50509043.3408675     
   50550676.9002845     
   50608399.1243637     
   50677638.5320019     
   50756336.1776460     
   50844385.9524367     
   50941879.8428252     
   51045725.9543277     
   51149824.9193610     
   51248222.4349495     
   51336042.6891971     
   51409355.4795706     
   51464883.4948618     
   51499888.4584628     
   51512163.9291129     
   48996426.5432093     
   49007102.1757784     
   49035630.7571725     
   49076743.3072414     
   49127271.3706523     
   49186039.7813548     
   49253003.8094671     
   49327769.3840030     
   49408212.9457903     
   49490406.1874233     
   49569696.3679066     
   49641702.8264896     
   49702637.9387732     
   49749310.7693643     
   49779049.4351382     
   49789596.2670030     
   47544610.9488113     
   47551582.8899128     
   47570503.1313451     
   47598707.6012596     
   47634384.3176891     
   47676873.1900533     
   47726091.4445170     
   47781636.8886879     
   47842046.9998153     
   47904668.2116116     
   47966109.8788614     
   48022838.5239891     
   48071565.3347327     
   48109388.9443785     
   48133793.9624987     
   48142558.8563823     
   46137819.2035182     
   46141994.5424758     
   46153566.1392804     
   46171296.9419880     
   46194432.1672768     
   46222786.8140660     
   46256421.3059125     
   46295112.4422549     
   46337925.6772178     
   46383097.0886223     
   46428234.0698306     
   46470660.0724837     
   46507714.0202159     
   46536920.8383822     
   46556037.5543061     
   46563001.4121858     
   44773386.5795429     
   44775312.2973831     
   44780769.1182234     
   44789502.2907576     
   44801537.4787643     
   44817160.4703461     
   44836700.9644222     
   44860219.6349647     
   44887250.7018223     
   44916713.3841851     
   44947005.9647942     
   44976208.0608364     
   45002290.2891884     
   45023262.8238373     
   45037239.7058086     
   45042421.6849030     
   43446429.8392399     
   43446371.8868912     
   43446395.8470008     
   43447011.1711555     
   43448886.2488294     
   43452766.4760822     
   43459319.4238878     
   43468941.4429701     
   43481600.9053068     
   43496777.9584386     
   43513513.4555895     
   43530533.0197691     
   43546391.5607963     
   43559591.3958292     
   43568648.3701882     
   43572099.0090027     
   42150442.4426661     
   42148533.7352431     
   42143511.7116073     
   42136572.5123973     
   42128959.2160479     
   42121867.4987261     
   42116332.0130778     
   42113104.3843483     
   42112558.3661876     
   42114653.6472585     
   42118967.0082462     
   42124774.5421934     
   42131154.4581946     
   42137080.2017879     
   42141483.2505762     
   42143276.7144444     
   40877817.4287158     
   40874142.6529815     
   40864342.8579045     
   40850279.8961696     
   40833740.0683297     
   40816359.4096629     
   40799546.3622069     
   40784407.3926480     
   40771693.2492637     
   40761782.5226519     
   40754707.9793518     
   40750217.4901175     
   40747852.2325160     
   40747023.0642904     
   40747070.2450776     
   40747298.8890790     
   39620285.1884668     
   39614928.1607295     
   39600606.2939555     
   39579835.6358705     
   39554925.7853487     
   39527940.2451879     
   39500654.2891486     
   39474516.6484113     
   39450625.6283960     
   39429729.2678522     
   39412253.1464480     
   39398351.7610787     
   39387973.5970053     
   39380928.0499921     
   39376944.1473791     
   39375715.3597976     
   38369290.5192184     
   38362356.9174398     
   38343812.6184958     
   38316803.3847282     
   38284138.5539133     
   38248290.0282041     
   38211383.4329632     
   38175189.4088354     
   38141123.2005524     
   38110259.1533111     
   38083363.0263462     
   38060940.4726658     
   38043296.3198209     
   38030597.5414380     
   38022933.2930160     
   38020367.7998851     
   37116312.3961363     
   37107937.8353174     
   37085538.1765136     
   37052844.0663947     
   37013130.0814646     
   36969248.9497243     
   36923652.2763326     
   36878406.6592548     
   36835212.5087526     
   36795431.0137003     
   36760122.1421286     
   36730093.7510673     
   36705959.4873739     
   36688201.6364620     
   36677234.6047923     
   36673465.4981903     
   35853127.7418499     
   35843477.4328637     
   35817659.8955230     
   35779926.0439265     
   35733968.3263098     
   35682983.3952910     
   35629717.3110578     
   35576502.0881094     
   35525290.3218459     
   35477692.7753496     
   35435021.9940797     
   35398343.3952614     
   35368533.9545797     
   35346347.3598343     
   35332483.0260744     
   35327655.1207386     
   34572020.3676799     
   34561284.3149007     
   34532547.9463141     
   34490502.2794806     
   34439198.6279118     
   34382131.8747011     
   34322304.5041463     
   34262279.3245300     
   34204226.8266178     
   34149971.4653430     
   34101039.9045979     
   34058713.6628878     
   34024088.6139442     
   33998143.4081462     
   33981816.3899414     
   33976085.8935613     
   33265937.5057299     
   33254323.7487974     
   33223214.4649472     
   33177650.5399212     
   33121974.2788861     
   33059925.7372313     
   32994720.0774347     
   32929112.5079077     
   32865455.6475508     
   32805752.7079038     
   32751708.9387284     
   32704783.9294005     
   32666249.2737865     
   32637258.6410023     
   32618935.1762057     
   32612470.1027016     
   31928597.7775882     
   31916325.2618314     
   31883419.3205230     
   31835175.8034832     
   31776154.5472386     
   31710282.2103193     
   31640938.0685853     
   31571027.7397576     
   31503048.3605712     
   31439147.3790707     
   31381176.1772406     
   31330739.6818554     
   31289246.2202283     
   31257971.3389588     
   31238155.8721123     
   31231138.2943247     
   30554555.5915727     
   30541847.6389717     
   30507735.9159490     
   30457676.3657054     
   30396370.5004386     
   30327869.4301043     
   30255664.0588299     
   30182764.8450801     
   30111773.2724211     
   30044945.7937676     
   29984249.7121581     
   29931409.9627881     
   29887945.2303513     
   29855203.8394301     
   29834455.7520709     
   29827088.9969137     
   29139227.6239411     
   29126306.5518944     
   29091581.2338959     
   29040576.6589475     
   28978060.5696398     
   28908144.5845960     
   28834375.6746736     
   28759819.9286412     
   28687139.4236963     
   28618661.7206202     
   28556439.5837191     
   28502296.5806736     
   28457855.6640367     
   28424529.0660706     
   28403504.0490175     
   28396030.8359226     
   27678887.1941780     
   27665970.3313995     
   27631214.8989747     
   27580130.6204577     
   27517478.7292802     
   27447367.1349890     
   27373341.0084913     
   27298469.2698849     
   27225426.4236717     
   27156568.2336395     
   27093998.3227815     
   27039616.9388041     
   26995139.7121146     
   26962101.8616870     
   26941651.5342707     
   26934419.8274660     
   26170632.0546056     
   26157929.2083485     
   26123712.0886196     
   26073399.7898358     
   26011678.7071228     
   25942589.6049692     
   25869616.2786495     
   25795774.4525098     
   25723698.5461327     
   25655723.8505270     
   25593961.1687850     
   25540360.6754892     
   25496726.3127265     
   25464654.6377370     
   25445590.9107935     
   25439302.7318819     
   24612330.4799710     
   24600042.8173733     
   24566914.8721808     
   24518210.4404759     
   24458478.1085429     
   24391629.0615471     
   24321024.5097319     
   24249568.2630755     
   24179799.1581182     
   24113979.5520511     
   24054177.9439265     
   24002341.9344086     
   23960386.4507400     
   23930032.6750217     
   23912778.5577152     
   23907600.3917736     
   23002549.6595660     
   22990870.0023957     
   22959366.1690692     
   22913094.2119907     
   22856407.0664062     
   22793023.5624226     
   22726118.3873806     
   22658422.2567812     
   22592321.9114727     
   22529954.7859076     
   22473298.4753593     
   22424256.7866019     
   22384724.8361061     
   22356941.4281221     
   22341476.9447278     
   22336541.9357928     
   21340469.3522164     
   21329584.0876182     
   21300230.2023741     
   21257217.2400127     
   21204647.3344720     
   21145979.6912868     
   21084132.8159542     
   21021600.2671595     
   20960561.0152362     
   20902978.8546607     
   20850697.3465771     
   20805544.1921201     
   20769444.9991109     
   20744645.8920738     
   20730799.4084013     
   20726047.5711094     
   19625782.5392404     
   19615875.9584629     
   19589203.5170864     
   19550304.3317548     
   19502970.1000744     
   19450319.6201097     
   19394935.0950544     
   19339005.9414232     
   19284450.4839459     
   19233014.8411268     
   19186364.9955918     
   19146202.2629642     
   19114469.2113491     
   19092954.9118560     
   19080784.2474832     
   19076546.6418031     
   17858583.9888502     
   17849846.8230848     
   17826422.6755517     
   17792569.2962487     
   17751684.9142148     
   17706438.0228978     
   17658980.7329728     
   17611133.2167210     
   17564506.5184930     
   17520589.4850062     
   17480827.6203552     
   17446716.5240758     
   17419996.6519134     
   17401988.9083753     
   17391866.6069025     
   17388311.6962244     
   16039244.2873580     
   16031895.3692543     
   16012384.2608264     
   15984674.5410170     
   15951619.2131891     
   15915276.2107416     
   15877277.0382979     
   15839024.2916927     
   15801783.7915293     
   15766749.4491262     
   15735101.9772116     
   15708071.9568955     
   15686981.7974611     
   15672956.4459161     
   15665163.8570786     
   15662387.2837347     
   14168287.2085837     
   14162617.0590968     
   14147927.8195372     
   14127780.8849776     
   14104141.4427464     
   14078301.5684608     
   14051344.3239475     
   14024230.1500509     
   13997847.7664052     
   13973052.9275071     
   13950707.8918027     
   13931716.3015102     
   13916977.6906429     
   13907394.4884525     
   13902272.0095021     
   13900424.4445340     
   12246224.7778532     
   12242868.5799584     
   12234527.0063064     
   12223729.4434833     
   12211162.6073171     
   12197453.3162241     
   12183151.0355302     
   12168759.4446880     
   12154751.9277437     
   12141590.5806273     
   12129747.2677367     
   12119719.5892491     
   12112071.9134387     
   12107426.3767788     
   12105117.2711449     
   12104277.6550134     
   10275000.0000000     
   10275000.0000000     
   10275000.0000000     
   10275000.0000000     
   10275000.0000000     
   10275000.0000000     
   10275000.0000000     
   10275000.0000000     
   10275000.0000000     
   10275000.0000000     
   10275000.0000000     
   10275000.0000000     
   10275000.0000000     
   10275000.0000000     
   10275000.0000000     
   10275000.0000000     
VECTORS u double 
    0.00000E+00        -0.62199E+00         0.00000E+00
    0.00000E+00        -0.51938E+00         0.00000E+00
    0.00000E+00        -0.43419E+00         0.00000E+00
    0.00000E+00        -0.37229E+00         0.00000E+00
    0.00000E+00        -0.33188E+00         0.00000E+00
    0.00000E+00        -0.30700E+00         0.00000E+00
    0.00000E+00        -0.28630E+00         0.00000E+00
    0.00000E+00        -0.25956E+00         0.00000E+00
    0.00000E+00        -0.22756E+00         0.00000E+00
    0.00000E+00        -0.19264E+00         0.00000E+00
    0.00000E+00        -0.15635E+00         0.00000E+00
    0.00000E+00        -0.11991E+00         0.00000E+00
    0.00000E+00        -0.84471E-01         0.00000E+00
    0.00000E+00        -0.51302E-01         0.00000E+00
    0.00000E+00        -0.22028E-01         0.00000E+00
    0.00000E+00         0.00000E+00         0.00000E+00
    0.32749E+00        -0.60639E+00         0.00000E+00
    0.31787E+00        -0.52373E+00         0.00000E+00
    0.27669E+00        -0.45718E+00         0.00000E+00
    0.22189E+00        -0.40557E+00         0.00000E+00
    0.16524E+00        -0.36500E+00         0.00000E+00
    0.11980E+00        -0.33156E+00         0.00000E+00
    0.94919E-01        -0.30147E+00         0.00000E+00
    0.83187E-01        -0.26953E+00         0.00000E+00
    0.74530E-01        -0.23490E+00         0.00000E+00
    0.66822E-01        -0.19834E+00         0.00000E+00
    0.59287E-01        -0.16088E+00         0.00000E+00
    0.51430E-01        -0.12352E+00         0.00000E+00
    0.42763E-01        -0.87315E-01         0.00000E+00
    0.32609E-01        -0.53460E-01         0.00000E+00
    0.19733E-01        -0.23551E-01         0.00000E+00
    0.00000E+00         0.00000E+00         0.00000E+00
    0.52608E+00        -0.61530E+00         0.00000E+00
    0.46757E+00        -0.56306E+00         0.00000E+00
    0.39481E+00        -0.51488E+00         0.00000E+00
    0.32436E+00        -0.46905E+00         0.00000E+00
    0.26374E+00        -0.42469E+00         0.00000E+00
    0.21581E+00        -0.38068E+00         0.00000E+00
    0.18181E+00        -0.33771E+00         0.00000E+00
    0.15872E+00        -0.29631E+00         0.00000E+00
    0.14103E+00        -0.25553E+00         0.00000E+00
    0.12536E+00        -0.21470E+00         0.00000E+00
    0.11018E+00        -0.17400E+00         0.00000E+00
    0.94474E-01        -0.13400E+00         0.00000E+00
    0.77302E-01        -0.95514E-01         0.00000E+00
    0.57453E-01        -0.59534E-01         0.00000E+00
    0.32872E-01        -0.27331E-01         0.00000E+00
    0.00000E+00         0.00000E+00         0.00000E+00
    0.63897E+00        -0.68185E+00         0.00000E+00
    0.55963E+00        -0.63454E+00         0.00000E+00
    0.48481E+00        -0.58607E+00         0.00000E+00
    0.41427E+00        -0.53570E+00         0.00000E+00
    0.35208E+00        -0.48455E+00         0.00000E+00
    0.30040E+00        -0.43344E+00         0.00000E+00
    0.25936E+00        -0.38304E+00         0.00000E+00
    0.22714E+00        -0.33397E+00         0.00000E+00
    0.20062E+00        -0.28634E+00         0.00000E+00
    0.17693E+00        -0.23988E+00         0.00000E+00
    0.15408E+00        -0.19451E+00         0.00000E+00
    0.13066E+00        -0.15046E+00         0.00000E+00
    0.10536E+00        -0.10828E+00         0.00000E+00
    0.76650E-01        -0.68682E-01         0.00000E+00
    0.42452E-01        -0.32418E-01         0.00000E+00
    0.00000E+00         0.00000E+00         0.00000E+00
    0.73287E+00        -0.77087E+00         0.00000E+00
    0.64585E+00        -0.71596E+00         0.00000E+00
    0.56700E+00        -0.66090E+00         0.00000E+00
    0.49484E+00        -0.60493E+00         0.00000E+00
    0.43037E+00        -0.54799E+00         0.00000E+00
    0.37470E+00        -0.49076E+00         0.00000E+00
    0.32770E+00        -0.43403E+00         0.00000E+00
    0.28805E+00        -0.37845E+00         0.00000E+00
    0.25368E+00        -0.32435E+00         0.00000E+00
    0.22233E+00        -0.27183E+00         0.00000E+00
    0.19207E+00        -0.22092E+00         0.00000E+00
    0.16127E+00        -0.17176E+00         0.00000E+00
    0.12841E+00        -0.12469E+00         0.00000E+00
    0.91887E-01        -0.80138E-01         0.00000E+00
    0.49800E-01        -0.38514E-01         0.00000E+00
    0.00000E+00         0.00000E+00         0.00000E+00
    0.81681E+00        -0.86573E+00         0.00000E+00
    0.72487E+00        -0.80351E+00         0.00000E+00
    0.64196E+00        -0.74125E+00         0.00000E+00
    0.56689E+00        -0.67866E+00         0.00000E+00
    0.49949E+00        -0.61561E+00         0.00000E+00
    0.43985E+00        -0.55242E+00         0.00000E+00
    0.38759E+00        -0.48966E+00         0.00000E+00
    0.34164E+00        -0.42790E+00         0.00000E+00
    0.30042E+00        -0.36754E+00         0.00000E+00
    0.26210E+00        -0.30880E+00         0.00000E+00
    0.22494E+00        -0.25184E+00         0.00000E+00
    0.18729E+00        -0.19680E+00         0.00000E+00
    0.14759E+00        -0.14389E+00         0.00000E+00
    0.10426E+00        -0.93361E-01         0.00000E+00
    0.55636E-01        -0.45394E-01         0.00000E+00
    0.00000E+00         0.00000E+00         0.00000E+00
    0.89165E+00        -0.96467E+00         0.00000E+00
    0.79597E+00        -0.89539E+00         0.00000E+00
    0.70943E+00        -0.82614E+00         0.00000E+00
    0.63108E+00        -0.75681E+00         0.00000E+00
    0.56035E+00        -0.68740E+00         0.00000E+00
    0.49680E+00        -0.61809E+00         0.00000E+00
    0.43981E+00        -0.54925E+00         0.00000E+00
    0.38839E+00        -0.48131E+00         0.00000E+00
    0.34120E+00        -0.41465E+00         0.00000E+00
    0.29670E+00        -0.34953E+00         0.00000E+00
    0.25331E+00        -0.28614E+00         0.00000E+00
    0.20948E+00        -0.22465E+00         0.00000E+00
    0.16370E+00        -0.16520E+00         0.00000E+00
    0.11449E+00        -0.10793E+00         0.00000E+00
    0.60391E-01        -0.52883E-01         0.00000E+00
    0.00000E+00         0.00000E+00         0.00000E+00
    0.95784E+00        -0.10668E+01         0.00000E+00
    0.85906E+00        -0.99074E+00         0.00000E+00
    0.76931E+00        -0.91470E+00         0.00000E+00
    0.68773E+00        -0.83873E+00         0.00000E+00
    0.61363E+00        -0.76288E+00         0.00000E+00
    0.54634E+00        -0.68728E+00         0.00000E+00
    0.48507E+00        -0.61220E+00         0.00000E+00
    0.42885E+00        -0.53795E+00         0.00000E+00
    0.37646E+00        -0.46484E+00         0.00000E+00
    0.32654E+00        -0.39312E+00         0.00000E+00
    0.27766E+00        -0.32300E+00         0.00000E+00
    0.22838E+00        -0.25462E+00         0.00000E+00
    0.17729E+00        -0.18810E+00         0.00000E+00
    0.12304E+00        -0.12350E+00         0.00000E+00
    0.64335E-01        -0.60840E-01         0.00000E+00
    0.00000E+00         0.00000E+00         0.00000E+00
    0.10157E+01        -0.11717E+01         0.00000E+00
    0.91429E+00        -0.10890E+01         0.00000E+00
    0.82168E+00        -0.10063E+01         0.00000E+00
    0.73711E+00        -0.92379E+00         0.00000E+00
    0.65982E+00        -0.84147E+00         0.00000E+00
    0.58906E+00        -0.75947E+00         0.00000E+00
    0.52396E+00        -0.67798E+00         0.00000E+00
    0.46354E+00        -0.59724E+00         0.00000E+00
    0.40665E+00        -0.51749E+00         0.00000E+00
    0.35205E+00        -0.43895E+00         0.00000E+00
    0.29841E+00        -0.36180E+00         0.00000E+00
    0.24442E+00        -0.28618E+00         0.00000E+00
    0.18877E+00        -0.21218E+00         0.00000E+00
    0.13023E+00        -0.13985E+00         0.00000E+00
    0.67638E-01        -0.69154E-01         0.00000E+00
    0.00000E+00         0.00000E+00         0.00000E+00
    0.10655E+01        -0.12788E+01         0.00000E+00
    0.96184E+00        -0.11896E+01         0.00000E+00
    0.86673E+00        -0.11004E+01         0.00000E+00
    0.77945E+00        -0.10114E+01         0.00000E+00
    0.69928E+00        -0.92265E+00         0.00000E+00
    0.62541E+00        -0.83417E+00         0.00000E+00
    0.55695E+00        -0.74613E+00         0.00000E+00
    0.49290E+00        -0.65872E+00         0.00000E+00
    0.43217E+00        -0.57213E+00         0.00000E+00
    0.37359E+00        -0.48654E+00         0.00000E+00
    0.31591E+00        -0.40211E+00         0.00000E+00
    0.25792E+00        -0.31896E+00         0.00000E+00
    0.19841E+00        -0.23717E+00         0.00000E+00
    0.13625E+00        -0.15677E+00         0.00000E+00
    0.70411E-01        -0.77742E-01         0.00000E+00
    0.00000E+00         0.00000E+00         0.00000E+00
    0.11075E+01        -0.13878E+01         0.00000E+00
    0.10019E+01        -0.12922E+01         0.00000E+00
    0.90461E+00        -0.11967E+01         0.00000E+00
    0.81498E+00        -0.11013E+01         0.00000E+00
    0.73229E+00        -0.10060E+01         0.00000E+00
    0.65573E+00        -0.91094E+00         0.00000E+00
    0.58440E+00        -0.81623E+00         0.00000E+00
    0.51730E+00        -0.72199E+00         0.00000E+00
    0.45336E+00        -0.62838E+00         0.00000E+00
    0.39146E+00        -0.53553E+00         0.00000E+00
    0.33043E+00        -0.44360E+00         0.00000E+00
    0.26913E+00        -0.35268E+00         0.00000E+00
    0.20642E+00        -0.26285E+00         0.00000E+00
    0.14127E+00        -0.17414E+00         0.00000E+00
    0.72727E-01        -0.86541E-01         0.00000E+00
    0.00000E+00         0.00000E+00         0.00000E+00
    0.11419E+01        -0.14985E+01         0.00000E+00
    0.10347E+01        -0.13966E+01         0.00000E+00
    0.93549E+00        -0.12947E+01         0.00000E+00
    0.84386E+00        -0.11929E+01         0.00000E+00
    0.75906E+00        -0.10911E+01         0.00000E+00
    0.68027E+00        -0.98942E+00         0.00000E+00
    0.60659E+00        -0.88793E+00         0.00000E+00
    0.53701E+00        -0.78672E+00         0.00000E+00
    0.47049E+00        -0.68591E+00         0.00000E+00
    0.40592E+00        -0.58564E+00         0.00000E+00
    0.34220E+00        -0.48601E+00         0.00000E+00
    0.27823E+00        -0.38713E+00         0.00000E+00
    0.21294E+00        -0.28906E+00         0.00000E+00
    0.14537E+00        -0.19185E+00         0.00000E+00
    0.74636E-01        -0.95501E-01         0.00000E+00
    0.00000E+00         0.00000E+00         0.00000E+00
    0.11690E+01        -0.16107E+01         0.00000E+00
    0.10602E+01        -0.15025E+01         0.00000E+00
    0.95947E+00        -0.13943E+01         0.00000E+00
    0.86622E+00        -0.12860E+01         0.00000E+00
    0.77974E+00        -0.11777E+01         0.00000E+00
    0.69921E+00        -0.10693E+01         0.00000E+00
    0.62371E+00        -0.96093E+00         0.00000E+00
    0.55223E+00        -0.85262E+00         0.00000E+00
    0.48374E+00        -0.74449E+00         0.00000E+00
    0.41715E+00        -0.63663E+00         0.00000E+00
    0.35137E+00        -0.52915E+00         0.00000E+00
    0.28535E+00        -0.42214E+00         0.00000E+00
    0.21809E+00        -0.31568E+00         0.00000E+00
    0.14863E+00        -0.20982E+00         0.00000E+00
    0.76171E-01        -0.10459E+00         0.00000E+00
    0.00000E+00         0.00000E+00         0.00000E+00
    0.11887E+01        -0.17242E+01         0.00000E+00
    0.10786E+01        -0.16098E+01         0.00000E+00
    0.97660E+00        -0.14952E+01         0.00000E+00
    0.88210E+00        -0.13805E+01         0.00000E+00
    0.79440E+00        -0.12656E+01         0.00000E+00
    0.71265E+00        -0.11504E+01         0.00000E+00
    0.63589E+00        -0.10350E+01         0.00000E+00
    0.56311E+00        -0.91947E+00         0.00000E+00
    0.49327E+00        -0.80387E+00         0.00000E+00
    0.42527E+00        -0.68829E+00         0.00000E+00
    0.35807E+00        -0.57283E+00         0.00000E+00
    0.29061E+00        -0.45758E+00         0.00000E+00
    0.22192E+00        -0.34260E+00         0.00000E+00
    0.15110E+00        -0.22798E+00         0.00000E+00
    0.77350E-01        -0.11377E+00         0.00000E+00
    0.00000E+00         0.00000E+00         0.00000E+00
    0.12010E+01        -0.18391E+01         0.00000E+00
    0.10898E+01        -0.17183E+01         0.00000E+00
    0.98684E+00        -0.15973E+01         0.00000E+00
    0.89152E+00        -0.14761E+01         0.00000E+00
    0.80308E+00        -0.13544E+01         0.00000E+00
    0.72063E+00        -0.12324E+01         0.00000E+00
    0.64319E+00        -0.11099E+01         0.00000E+00
    0.56972E+00        -0.98703E+00         0.00000E+00
    0.49915E+00        -0.86386E+00         0.00000E+00
    0.43038E+00        -0.74046E+00         0.00000E+00
    0.36235E+00        -0.61692E+00         0.00000E+00
    0.29404E+00        -0.49332E+00         0.00000E+00
    0.22449E+00        -0.36975E+00         0.00000E+00
    0.15279E+00        -0.24628E+00         0.00000E+00
    0.78185E-01        -0.12301E+00         0.00000E+00
    0.00000E+00         0.00000E+00         0.00000E+00
    0.12059E+01        -0.19551E+01         0.00000E+00
    0.10937E+01        -0.18279E+01         0.00000E+00
    0.99012E+00        -0.17004E+01         0.00000E+00
    0.89439E+00        -0.15725E+01         0.00000E+00
    0.80572E+00        -0.14441E+01         0.00000E+00
    0.72315E+00        -0.13150E+01         0.00000E+00
    0.64563E+00        -0.11854E+01         0.00000E+00
    0.57209E+00        -0.10551E+01         0.00000E+00
    0.50141E+00        -0.92427E+00         0.00000E+00
    0.43250E+00        -0.79296E+00         0.00000E+00
    0.36427E+00        -0.66125E+00         0.00000E+00
    0.29569E+00        -0.52924E+00         0.00000E+00
    0.22580E+00        -0.39702E+00         0.00000E+00
    0.15372E+00        -0.26467E+00         0.00000E+00
    0.78676E-01        -0.13230E+00         0.00000E+00
    0.00000E+00         0.00000E+00         0.00000E+00
    0.12030E+01        -0.20722E+01         0.00000E+00
    0.10901E+01        -0.19384E+01         0.00000E+00
    0.98625E+00        -0.18043E+01         0.00000E+00
    0.89061E+00        -0.16697E+01         0.00000E+00
    0.80225E+00        -0.15343E+01         0.00000E+00
    0.72014E+00        -0.13982E+01         0.00000E+00
    0.64317E+00        -0.12612E+01         0.00000E+00
    0.57020E+00        -0.11234E+01         0.00000E+00
    0.50006E+00        -0.98487E+00         0.00000E+00
    0.43163E+00        -0.84559E+00         0.00000E+00
    0.36381E+00        -0.70568E+00         0.00000E+00
    0.29554E+00        -0.56523E+00         0.00000E+00
    0.22586E+00        -0.42433E+00         0.00000E+00
    0.15388E+00        -0.28308E+00         0.00000E+00
    0.78818E-01        -0.14160E+00         0.00000E+00
    0.00000E+00         0.00000E+00         0.00000E+00
    0.11920E+01        -0.21901E+01         0.00000E+00
    0.10787E+01        -0.20496E+01         0.00000E+00
    0.97501E+00        -0.19088E+01         0.00000E+00
    0.87997E+00        -0.17672E+01         0.00000E+00
    0.79252E+00        -0.16249E+01         0.00000E+00
    0.71151E+00        -0.14815E+01         0.00000E+00
    0.63574E+00        -0.13371E+01         0.00000E+00
    0.56398E+00        -0.11918E+01         0.00000E+00
    0.49505E+00        -0.10454E+01         0.00000E+00
    0.42774E+00        -0.89816E+00         0.00000E+00
    0.36094E+00        -0.75004E+00         0.00000E+00
    0.29357E+00        -0.60114E+00         0.00000E+00
    0.22463E+00        -0.45158E+00         0.00000E+00
    0.15324E+00        -0.30145E+00         0.00000E+00
    0.78593E-01        -0.15088E+00         0.00000E+00
    0.00000E+00         0.00000E+00         0.00000E+00
    0.11724E+01        -0.23087E+01         0.00000E+00
    0.10591E+01        -0.21613E+01         0.00000E+00
    0.95608E+00        -0.20135E+01         0.00000E+00
    0.86224E+00        -0.18649E+01         0.00000E+00
    0.77634E+00        -0.17154E+01         0.00000E+00
    0.69710E+00        -0.15647E+01         0.00000E+00
    0.62320E+00        -0.14128E+01         0.00000E+00
    0.55335E+00        -0.12598E+01         0.00000E+00
    0.48628E+00        -0.11057E+01         0.00000E+00
    0.42076E+00        -0.95043E+00         0.00000E+00
    0.35560E+00        -0.79412E+00         0.00000E+00
    0.28971E+00        -0.63683E+00         0.00000E+00
    0.22207E+00        -0.47866E+00         0.00000E+00
    0.15176E+00        -0.31971E+00         0.00000E+00
    0.77974E-01        -0.16011E+00         0.00000E+00
    0.00000E+00         0.00000E+00         0.00000E+00
    0.11437E+01        -0.24275E+01         0.00000E+00
    0.10309E+01        -0.22731E+01         0.00000E+00
    0.92913E+00        -0.21181E+01         0.00000E+00
    0.83714E+00        -0.19623E+01         0.00000E+00
    0.75350E+00        -0.18054E+01         0.00000E+00
    0.67673E+00        -0.16473E+01         0.00000E+00
    0.60542E+00        -0.14879E+01         0.00000E+00
    0.53817E+00        -0.13272E+01         0.00000E+00
    0.47364E+00        -0.11653E+01         0.00000E+00
    0.41056E+00        -0.10021E+01         0.00000E+00
    0.34769E+00        -0.83770E+00         0.00000E+00
    0.28390E+00        -0.67214E+00         0.00000E+00
    0.21811E+00        -0.50547E+00         0.00000E+00
    0.14938E+00        -0.33781E+00         0.00000E+00
    0.76913E-01        -0.16928E+00         0.00000E+00
    0.00000E+00         0.00000E+00         0.00000E+00
    0.11052E+01        -0.25461E+01         0.00000E+00
    0.99348E+00        -0.23844E+01         0.00000E+00
    0.89373E+00        -0.22220E+01         0.00000E+00
    0.80437E+00        -0.20588E+01         0.00000E+00
    0.72374E+00        -0.18944E+01         0.00000E+00
    0.65021E+00        -0.17288E+01         0.00000E+00
    0.58222E+00        -0.15618E+01         0.00000E+00
    0.51827E+00        -0.13935E+01         0.00000E+00
    0.45698E+00        -0.12238E+01         0.00000E+00
    0.39700E+00        -0.10528E+01         0.00000E+00
    0.33708E+00        -0.88051E+00         0.00000E+00
    0.27601E+00        -0.70687E+00         0.00000E+00
    0.21266E+00        -0.53193E+00         0.00000E+00
    0.14603E+00        -0.35572E+00         0.00000E+00
    0.75322E-01        -0.17837E+00         0.00000E+00
    0.00000E+00         0.00000E+00         0.00000E+00
    0.10563E+01        -0.26639E+01         0.00000E+00
    0.94637E+00        -0.24945E+01         0.00000E+00
    0.84946E+00        -0.23247E+01         0.00000E+00
    0.76359E+00        -0.21538E+01         0.00000E+00
    0.68682E+00        -0.19818E+01         0.00000E+00
    0.61732E+00        -0.18085E+01         0.00000E+00
    0.55340E+00        -0.16339E+01         0.00000E+00
    0.49347E+00        -0.14580E+01         0.00000E+00
    0.43608E+00        -0.12807E+01         0.00000E+00
    0.37988E+00        -0.11022E+01         0.00000E+00
    0.32355E+00        -0.92220E+00         0.00000E+00
    0.26586E+00        -0.74080E+00         0.00000E+00
    0.20559E+00        -0.55792E+00         0.00000E+00
    0.14164E+00        -0.37355E+00         0.00000E+00
    0.73014E-01        -0.18767E+00         0.00000E+00
    0.00000E+00         0.00000E+00         0.00000E+00
    0.99599E+00        -0.27799E+01         0.00000E+00
    0.88893E+00        -0.26028E+01         0.00000E+00
    0.79588E+00        -0.24251E+01         0.00000E+00
    0.71447E+00        -0.22464E+01         0.00000E+00
    0.64247E+00        -0.20666E+01         0.00000E+00
    0.57785E+00        -0.18856E+01         0.00000E+00
    0.51875E+00        -0.17034E+01         0.00000E+00
    0.46354E+00        -0.15200E+01         0.00000E+00
    0.41072E+00        -0.13354E+01         0.00000E+00
    0.35893E+00        -0.11496E+01         0.00000E+00
    0.30686E+00        -0.96234E+00         0.00000E+00
    0.25321E+00        -0.77363E+00         0.00000E+00
    0.19668E+00        -0.58332E+00         0.00000E+00
    0.13599E+00        -0.39132E+00         0.00000E+00
    0.70082E-01        -0.19774E+00         0.00000E+00
    0.00000E+00         0.00000E+00         0.00000E+00
    0.92355E+00        -0.28932E+01         0.00000E+00
    0.82055E+00        -0.27080E+01         0.00000E+00
    0.73254E+00        -0.25222E+01         0.00000E+00
    0.65670E+00        -0.23356E+01         0.00000E+00
    0.59047E+00        -0.21479E+01         0.00000E+00
    0.53157E+00        -0.19592E+01         0.00000E+00
    0.47805E+00        -0.17695E+01         0.00000E+00
    0.42822E+00        -0.15788E+01         0.00000E+00
    0.38060E+00        -0.13871E+01         0.00000E+00
    0.33383E+00        -0.11944E+01         0.00000E+00
    0.28664E+00        -0.10004E+01         0.00000E+00
    0.23773E+00        -0.80492E+00         0.00000E+00
    0.18570E+00        -0.60784E+00         0.00000E+00
    0.12886E+00        -0.40897E+00         0.00000E+00
    0.66769E-01        -0.20749E+00         0.00000E+00
    0.00000E+00         0.00000E+00         0.00000E+00
    0.83806E+00        -0.30023E+01         0.00000E+00
    0.74060E+00        -0.28089E+01         0.00000E+00
    0.65905E+00        -0.26148E+01         0.00000E+00
    0.59004E+00        -0.24200E+01         0.00000E+00
    0.53062E+00        -0.22244E+01         0.00000E+00
    0.47832E+00        -0.20280E+01         0.00000E+00
    0.43109E+00        -0.18309E+01         0.00000E+00
    0.38725E+00        -0.16333E+01         0.00000E+00
    0.34538E+00        -0.14349E+01         0.00000E+00
    0.30420E+00        -0.12357E+01         0.00000E+00
    0.26248E+00        -0.10355E+01         0.00000E+00
    0.21897E+00        -0.83402E+00         0.00000E+00
    0.17226E+00        -0.63091E+00         0.00000E+00
    0.12054E+00        -0.42591E+00         0.00000E+00
    0.63239E-01        -0.21616E+00         0.00000E+00
    0.00000E+00         0.00000E+00         0.00000E+00
    0.73860E+00        -0.31058E+01         0.00000E+00
    0.64850E+00        -0.29037E+01         0.00000E+00
    0.57508E+00        -0.27012E+01         0.00000E+00
    0.51430E+00        -0.24981E+01         0.00000E+00
    0.46278E+00        -0.22945E+01         0.00000E+00
    0.41790E+00        -0.20906E+01         0.00000E+00
    0.37760E+00        -0.18866E+01         0.00000E+00
    0.34031E+00        -0.16823E+01         0.00000E+00
    0.30468E+00        -0.14778E+01         0.00000E+00
    0.26957E+00        -0.12728E+01         0.00000E+00
    0.23387E+00        -0.10671E+01         0.00000E+00
    0.19644E+00        -0.86019E+00         0.00000E+00
    0.15591E+00        -0.65172E+00         0.00000E+00
    0.11072E+00        -0.44108E+00         0.00000E+00
    0.59204E-01        -0.22403E+00         0.00000E+00
    0.00000E+00         0.00000E+00         0.00000E+00
    0.62421E+00        -0.32014E+01         0.00000E+00
    0.54377E+00        -0.29905E+01         0.00000E+00
    0.48047E+00        -0.27793E+01         0.00000E+00
    0.42942E+00        -0.25678E+01         0.00000E+00
    0.38687E+00        -0.23565E+01         0.00000E+00
    0.35015E+00        -0.21455E+01         0.00000E+00
    0.31734E+00        -0.19349E+01         0.00000E+00
    0.28702E+00        -0.17247E+01         0.00000E+00
    0.25804E+00        -0.15148E+01         0.00000E+00
    0.22942E+00        -0.13047E+01         0.00000E+00
    0.20022E+00        -0.10942E+01         0.00000E+00
    0.16946E+00        -0.88263E+00         0.00000E+00
    0.13605E+00        -0.66957E+00         0.00000E+00
    0.98548E-01        -0.45401E+00         0.00000E+00
    0.54063E-01        -0.23106E+00         0.00000E+00
    0.00000E+00         0.00000E+00         0.00000E+00
    0.49392E+00        -0.32865E+01         0.00000E+00
    0.42609E+00        -0.30666E+01         0.00000E+00
    0.37525E+00        -0.28465E+01         0.00000E+00
    0.33547E+00        -0.26269E+01         0.00000E+00
    0.30283E+00        -0.24082E+01         0.00000E+00
    0.27487E+00        -0.21908E+01         0.00000E+00
    0.24996E+00        -0.19746E+01         0.00000E+00
    0.22695E+00        -0.17593E+01         0.00000E+00
    0.20493E+00        -0.15448E+01         0.00000E+00
    0.18314E+00        -0.13305E+01         0.00000E+00
    0.16083E+00        -0.11160E+01         0.00000E+00
    0.13727E+00        -0.90064E+00         0.00000E+00
    0.11168E+00        -0.68379E+00         0.00000E+00
    0.82959E-01        -0.46442E+00         0.00000E+00
    0.47088E-01        -0.23713E+00         0.00000E+00
    0.00000E+00         0.00000E+00         0.00000E+00
    0.34676E+00        -0.33576E+01         0.00000E+00
    0.29550E+00        -0.31284E+01         0.00000E+00
    0.25977E+00        -0.28996E+01         0.00000E+00
    0.23262E+00        -0.26725E+01         0.00000E+00
    0.21057E+00        -0.24475E+01         0.00000E+00
    0.19176E+00        -0.22248E+01         0.00000E+00
    0.17501E+00        -0.20041E+01         0.00000E+00
    0.15954E+00        -0.17849E+01         0.00000E+00
    0.14472E+00        -0.15669E+01         0.00000E+00
    0.13002E+00        -0.13495E+01         0.00000E+00
    0.11493E+00        -0.11319E+01         0.00000E+00
    0.98969E-01        -0.91371E+00         0.00000E+00
    0.81638E-01        -0.69397E+00         0.00000E+00
    0.62479E-01        -0.47183E+00         0.00000E+00
    0.37291E-01        -0.24211E+00         0.00000E+00
    0.00000E+00         0.00000E+00         0.00000E+00
    0.18182E+00        -0.34092E+01         0.00000E+00
    0.15289E+00        -0.31706E+01         0.00000E+00
    0.13463E+00        -0.29343E+01         0.00000E+00
    0.12090E+00        -0.27015E+01         0.00000E+00
    0.10981E+00        -0.24722E+01         0.00000E+00
    0.10035E+00        -0.22460E+01         0.00000E+00
    0.91931E-01        -0.20223E+01         0.00000E+00
    0.84146E-01        -0.18007E+01         0.00000E+00
    0.76679E-01        -0.15805E+01         0.00000E+00
    0.69261E-01        -0.13610E+01         0.00000E+00
    0.61641E-01        -0.11417E+01         0.00000E+00
    0.53569E-01        -0.92159E+00         0.00000E+00
    0.44799E-01        -0.69995E+00         0.00000E+00
    0.35404E-01        -0.47574E+00         0.00000E+00
    0.22882E-01        -0.24581E+00         0.00000E+00
    0.00000E+00         0.00000E+00         0.00000E+00
    0.00000E+00        -0.34310E+01         0.00000E+00
    0.00000E+00        -0.31861E+01         0.00000E+00
    0.00000E+00        -0.29464E+01         0.00000E+00
    0.00000E+00        -0.27115E+01         0.00000E+00
    0.00000E+00        -0.24806E+01         0.00000E+00
    0.00000E+00        -0.22532E+01         0.00000E+00
    0.00000E+00        -0.20285E+01         0.00000E+00
    0.00000E+00        -0.18060E+01         0.00000E+00
    0.00000E+00        -0.15850E+01         0.00000E+00
    0.00000E+00        -0.13649E+01         0.00000E+00
    0.00000E+00        -0.11449E+01         0.00000E+00
    0.00000E+00        -0.92420E+00         0.00000E+00
    0.00000E+00        -0.70186E+00         0.00000E+00
    0.00000E+00        -0.47681E+00         0.00000E+00
    0.00000E+00        -0.24735E+00         0.00000E+00
    0.00000E+00         0.00000E+00         0.00000E+00
CELL_DATA        450
VECTORS vDarcy double 
    0.10835E-05         0.13217E-07         0.00000E+00
    0.10772E-05         0.43893E-07         0.00000E+00
    0.10725E-05         0.70593E-07         0.00000E+00
    0.10755E-05         0.90945E-07         0.00000E+00
    0.10856E-05         0.10303E-06         0.00000E+00
    0.11000E-05         0.10785E-06         0.00000E+00
    0.11121E-05         0.10555E-06         0.00000E+00
    0.11197E-05         0.99519E-07         0.00000E+00
    0.11242E-05         0.90915E-07         0.00000E+00
    0.11270E-05         0.80959E-07         0.00000E+00
    0.11289E-05         0.69813E-07         0.00000E+00
    0.11302E-05         0.57438E-07         0.00000E+00
    0.11309E-05         0.43690E-07         0.00000E+00
    0.11313E-05         0.28260E-07         0.00000E+00
    0.11295E-05         0.10134E-07         0.00000E+00
    0.96452E-06         0.15150E-07         0.00000E+00
    0.95454E-06         0.37131E-07         0.00000E+00
    0.95697E-06         0.52853E-07         0.00000E+00
    0.97004E-06         0.64993E-07         0.00000E+00
    0.99067E-06         0.73490E-07         0.00000E+00
    0.10133E-05         0.79645E-07         0.00000E+00
    0.10320E-05         0.84760E-07         0.00000E+00
    0.10460E-05         0.84690E-07         0.00000E+00
    0.10561E-05         0.80016E-07         0.00000E+00
    0.10631E-05         0.72499E-07         0.00000E+00
    0.10681E-05         0.62984E-07         0.00000E+00
    0.10714E-05         0.51783E-07         0.00000E+00
    0.10735E-05         0.38955E-07         0.00000E+00
    0.10740E-05         0.24393E-07         0.00000E+00
    0.10726E-05         0.84364E-08         0.00000E+00
    0.90337E-06         0.12445E-07         0.00000E+00
    0.90599E-06         0.28814E-07         0.00000E+00
    0.91667E-06         0.40133E-07         0.00000E+00
    0.93064E-06         0.48019E-07         0.00000E+00
    0.94504E-06         0.53592E-07         0.00000E+00
    0.95841E-06         0.58709E-07         0.00000E+00
    0.97139E-06         0.64834E-07         0.00000E+00
    0.98409E-06         0.67825E-07         0.00000E+00
    0.99512E-06         0.66571E-07         0.00000E+00
    0.10040E-05         0.61840E-07         0.00000E+00
    0.10107E-05         0.54516E-07         0.00000E+00
    0.10155E-05         0.45130E-07         0.00000E+00
    0.10185E-05         0.33968E-07         0.00000E+00
    0.10197E-05         0.21282E-07         0.00000E+00
    0.10191E-05         0.74117E-08         0.00000E+00
    0.87209E-06         0.81576E-08         0.00000E+00
    0.87519E-06         0.20353E-07         0.00000E+00
    0.88207E-06         0.28614E-07         0.00000E+00
    0.89111E-06         0.34629E-07         0.00000E+00
    0.90091E-06         0.39685E-07         0.00000E+00
    0.91089E-06         0.44660E-07         0.00000E+00
    0.92116E-06         0.49502E-07         0.00000E+00
    0.93171E-06         0.52806E-07         0.00000E+00
    0.94187E-06         0.53220E-07         0.00000E+00
    0.95081E-06         0.50614E-07         0.00000E+00
    0.95811E-06         0.45401E-07         0.00000E+00
    0.96362E-06         0.38036E-07         0.00000E+00
    0.96729E-06         0.28886E-07         0.00000E+00
    0.96911E-06         0.18259E-07         0.00000E+00
    0.96918E-06         0.64236E-08         0.00000E+00
    0.83964E-06         0.50966E-08         0.00000E+00
    0.84167E-06         0.13674E-07         0.00000E+00
    0.84653E-06         0.19937E-07         0.00000E+00
    0.85306E-06         0.24753E-07         0.00000E+00
    0.86052E-06         0.29025E-07         0.00000E+00
    0.86858E-06         0.33238E-07         0.00000E+00
    0.87721E-06         0.37198E-07         0.00000E+00
    0.88628E-06         0.40110E-07         0.00000E+00
    0.89532E-06         0.41135E-07         0.00000E+00
    0.90371E-06         0.39877E-07         0.00000E+00
    0.91092E-06         0.36391E-07         0.00000E+00
    0.91664E-06         0.30930E-07         0.00000E+00
    0.92067E-06         0.23783E-07         0.00000E+00
    0.92294E-06         0.15211E-07         0.00000E+00
    0.92348E-06         0.54169E-08         0.00000E+00
    0.80741E-06         0.31958E-08         0.00000E+00
    0.80892E-06         0.87264E-08         0.00000E+00
    0.81262E-06         0.13124E-07         0.00000E+00
    0.81782E-06         0.16774E-07         0.00000E+00
    0.82402E-06         0.20171E-07         0.00000E+00
    0.83096E-06         0.23548E-07         0.00000E+00
    0.83854E-06         0.26731E-07         0.00000E+00
    0.84656E-06         0.29219E-07         0.00000E+00
    0.85466E-06         0.30448E-07         0.00000E+00
    0.86238E-06         0.30042E-07         0.00000E+00
    0.86924E-06         0.27892E-07         0.00000E+00
    0.87487E-06         0.24084E-07         0.00000E+00
    0.87902E-06         0.18787E-07         0.00000E+00
    0.88154E-06         0.12179E-07         0.00000E+00
    0.88237E-06         0.43957E-08         0.00000E+00
    0.77737E-06         0.17366E-08         0.00000E+00
    0.77861E-06         0.48398E-08         0.00000E+00
    0.78172E-06         0.75101E-08         0.00000E+00
    0.78620E-06         0.99654E-08         0.00000E+00
    0.79169E-06         0.12441E-07         0.00000E+00
    0.79795E-06         0.15018E-07         0.00000E+00
    0.80482E-06         0.17539E-07         0.00000E+00
    0.81209E-06         0.19656E-07         0.00000E+00
    0.81946E-06         0.20966E-07         0.00000E+00
    0.82655E-06         0.21151E-07         0.00000E+00
    0.83298E-06         0.20051E-07         0.00000E+00
    0.83838E-06         0.17645E-07         0.00000E+00
    0.84250E-06         0.14003E-07         0.00000E+00
    0.84513E-06         0.92230E-08         0.00000E+00
    0.84613E-06         0.33813E-08         0.00000E+00
    0.75069E-06         0.52792E-09         0.00000E+00
    0.75184E-06         0.15472E-08         0.00000E+00
    0.75466E-06         0.26355E-08         0.00000E+00
    0.75875E-06         0.39161E-08         0.00000E+00
    0.76382E-06         0.54828E-08         0.00000E+00
    0.76963E-06         0.73245E-08         0.00000E+00
    0.77598E-06         0.92885E-08         0.00000E+00
    0.78269E-06         0.11107E-07         0.00000E+00
    0.78947E-06         0.12472E-07         0.00000E+00
    0.79603E-06         0.13120E-07         0.00000E+00
    0.80202E-06         0.12876E-07         0.00000E+00
    0.80715E-06         0.11667E-07         0.00000E+00
    0.81114E-06         0.94941E-08         0.00000E+00
    0.81377E-06         0.63924E-08         0.00000E+00
    0.81488E-06         0.23936E-08         0.00000E+00
    0.72816E-06        -0.55209E-09         0.00000E+00
    0.72930E-06        -0.14016E-08         0.00000E+00
    0.73198E-06        -0.17713E-08         0.00000E+00
    0.73584E-06        -0.16053E-08         0.00000E+00
    0.74062E-06        -0.89727E-09         0.00000E+00
    0.74609E-06         0.28390E-09         0.00000E+00
    0.75204E-06         0.17818E-08         0.00000E+00
    0.75828E-06         0.33709E-08         0.00000E+00
    0.76457E-06         0.48001E-08         0.00000E+00
    0.77065E-06         0.58420E-08         0.00000E+00
    0.77624E-06         0.63277E-08         0.00000E+00
    0.78107E-06         0.61573E-08         0.00000E+00
    0.78488E-06         0.52898E-08         0.00000E+00
    0.78745E-06         0.37194E-08         0.00000E+00
    0.78859E-06         0.14480E-08         0.00000E+00
    0.71026E-06        -0.15570E-08         0.00000E+00
    0.71141E-06        -0.41293E-08         0.00000E+00
    0.71399E-06        -0.58451E-08         0.00000E+00
    0.71769E-06        -0.67148E-08         0.00000E+00
    0.72222E-06        -0.67960E-08         0.00000E+00
    0.72738E-06        -0.61991E-08         0.00000E+00
    0.73297E-06        -0.50887E-08         0.00000E+00
    0.73879E-06        -0.36697E-08         0.00000E+00
    0.74464E-06        -0.21604E-08         0.00000E+00
    0.75028E-06        -0.76244E-09         0.00000E+00
    0.75548E-06         0.36329E-09         0.00000E+00
    0.75999E-06         0.11063E-08         0.00000E+00
    0.76359E-06         0.14032E-08         0.00000E+00
    0.76606E-06         0.12243E-08         0.00000E+00
    0.76720E-06         0.55596E-09         0.00000E+00
    0.69722E-06        -0.25021E-08         0.00000E+00
    0.69836E-06        -0.66769E-08         0.00000E+00
    0.70084E-06        -0.96334E-08         0.00000E+00
    0.70436E-06        -0.11452E-07         0.00000E+00
    0.70864E-06        -0.12247E-07         0.00000E+00
    0.71349E-06        -0.12161E-07         0.00000E+00
    0.71871E-06        -0.11372E-07         0.00000E+00
    0.72412E-06        -0.10075E-07         0.00000E+00
    0.72953E-06        -0.84711E-08         0.00000E+00
    0.73474E-06        -0.67446E-08         0.00000E+00
    0.73955E-06        -0.50483E-08         0.00000E+00
    0.74373E-06        -0.34951E-08         0.00000E+00
    0.74709E-06        -0.21582E-08         0.00000E+00
    0.74943E-06        -0.10782E-08         0.00000E+00
    0.75054E-06        -0.27379E-09         0.00000E+00
    0.68908E-06        -0.33829E-08         0.00000E+00
    0.69017E-06        -0.90394E-08         0.00000E+00
    0.69251E-06        -0.13131E-07         0.00000E+00
    0.69580E-06        -0.15810E-07         0.00000E+00
    0.69980E-06        -0.17241E-07         0.00000E+00
    0.70430E-06        -0.17599E-07         0.00000E+00
    0.70912E-06        -0.17075E-07         0.00000E+00
    0.71410E-06        -0.15864E-07         0.00000E+00
    0.71907E-06        -0.14157E-07         0.00000E+00
    0.72384E-06        -0.12128E-07         0.00000E+00
    0.72824E-06        -0.99210E-08         0.00000E+00
    0.73208E-06        -0.76487E-08         0.00000E+00
    0.73518E-06        -0.53861E-08         0.00000E+00
    0.73735E-06        -0.31759E-08         0.00000E+00
    0.73840E-06        -0.10341E-08         0.00000E+00
    0.68567E-06        -0.41862E-08         0.00000E+00
    0.68667E-06        -0.11189E-07         0.00000E+00
    0.68882E-06        -0.16305E-07         0.00000E+00
    0.69184E-06        -0.19754E-07         0.00000E+00
    0.69550E-06        -0.21745E-07         0.00000E+00
    0.69961E-06        -0.22487E-07         0.00000E+00
    0.70400E-06        -0.22183E-07         0.00000E+00
    0.70852E-06        -0.21032E-07         0.00000E+00
    0.71301E-06        -0.19220E-07         0.00000E+00
    0.71732E-06        -0.16914E-07         0.00000E+00
    0.72129E-06        -0.14254E-07         0.00000E+00
    0.72477E-06        -0.11348E-07         0.00000E+00
    0.72758E-06        -0.82694E-08         0.00000E+00
    0.72957E-06        -0.50567E-08         0.00000E+00
    0.73055E-06        -0.17187E-08         0.00000E+00
    0.68670E-06        -0.48970E-08         0.00000E+00
    0.68759E-06        -0.13092E-07         0.00000E+00
    0.68950E-06        -0.19112E-07         0.00000E+00
    0.69220E-06        -0.23237E-07         0.00000E+00
    0.69547E-06        -0.25718E-07         0.00000E+00
    0.69914E-06        -0.26788E-07         0.00000E+00
    0.70306E-06        -0.26667E-07         0.00000E+00
    0.70708E-06        -0.25558E-07         0.00000E+00
    0.71107E-06        -0.23646E-07         0.00000E+00
    0.71490E-06        -0.21094E-07         0.00000E+00
    0.71843E-06        -0.18038E-07         0.00000E+00
    0.72151E-06        -0.14582E-07         0.00000E+00
    0.72402E-06        -0.10794E-07         0.00000E+00
    0.72580E-06        -0.67083E-08         0.00000E+00
    0.72670E-06        -0.23220E-08         0.00000E+00
    0.69177E-06        -0.55018E-08         0.00000E+00
    0.69252E-06        -0.14716E-07         0.00000E+00
    0.69417E-06        -0.21511E-07         0.00000E+00
    0.69652E-06        -0.26215E-07         0.00000E+00
    0.69936E-06        -0.29113E-07         0.00000E+00
    0.70256E-06        -0.30463E-07         0.00000E+00
    0.70596E-06        -0.30494E-07         0.00000E+00
    0.70946E-06        -0.29416E-07         0.00000E+00
    0.71293E-06        -0.27414E-07         0.00000E+00
    0.71625E-06        -0.24650E-07         0.00000E+00
    0.71931E-06        -0.21255E-07         0.00000E+00
    0.72199E-06        -0.17332E-07         0.00000E+00
    0.72417E-06        -0.12945E-07         0.00000E+00
    0.72572E-06        -0.81184E-08         0.00000E+00
    0.72652E-06        -0.28387E-08         0.00000E+00
    0.70039E-06        -0.59906E-08         0.00000E+00
    0.70100E-06        -0.16035E-07         0.00000E+00
    0.70238E-06        -0.23467E-07         0.00000E+00
    0.70435E-06        -0.28650E-07         0.00000E+00
    0.70674E-06        -0.31895E-07         0.00000E+00
    0.70944E-06        -0.33476E-07         0.00000E+00
    0.71232E-06        -0.33634E-07         0.00000E+00
    0.71528E-06        -0.32582E-07         0.00000E+00
    0.71821E-06        -0.30506E-07         0.00000E+00
    0.72101E-06        -0.27565E-07         0.00000E+00
    0.72359E-06        -0.23890E-07         0.00000E+00
    0.72584E-06        -0.19582E-07         0.00000E+00
    0.72767E-06        -0.14704E-07         0.00000E+00
    0.72899E-06        -0.92739E-08         0.00000E+00
    0.72969E-06        -0.32639E-08         0.00000E+00
    0.71202E-06        -0.63571E-08         0.00000E+00
    0.71251E-06        -0.17033E-07         0.00000E+00
    0.71362E-06        -0.24958E-07         0.00000E+00
    0.71522E-06        -0.30515E-07         0.00000E+00
    0.71717E-06        -0.34035E-07         0.00000E+00
    0.71936E-06        -0.35803E-07         0.00000E+00
    0.72172E-06        -0.36066E-07         0.00000E+00
    0.72413E-06        -0.35038E-07         0.00000E+00
    0.72652E-06        -0.32906E-07         0.00000E+00
    0.72880E-06        -0.29825E-07         0.00000E+00
    0.73089E-06        -0.25928E-07         0.00000E+00
    0.73270E-06        -0.21314E-07         0.00000E+00
    0.73417E-06        -0.16053E-07         0.00000E+00
    0.73524E-06        -0.10160E-07         0.00000E+00
    0.73582E-06        -0.35918E-08         0.00000E+00
    0.72610E-06        -0.65993E-08         0.00000E+00
    0.72650E-06        -0.17704E-07         0.00000E+00
    0.72738E-06        -0.25971E-07         0.00000E+00
    0.72862E-06        -0.31797E-07         0.00000E+00
    0.73014E-06        -0.35519E-07         0.00000E+00
    0.73185E-06        -0.37430E-07         0.00000E+00
    0.73369E-06        -0.37778E-07         0.00000E+00
    0.73557E-06        -0.36777E-07         0.00000E+00
    0.73743E-06        -0.34609E-07         0.00000E+00
    0.73920E-06        -0.31428E-07         0.00000E+00
    0.74081E-06        -0.27361E-07         0.00000E+00
    0.74219E-06        -0.22515E-07         0.00000E+00
    0.74329E-06        -0.16969E-07         0.00000E+00
    0.74408E-06        -0.10755E-07         0.00000E+00
    0.74454E-06        -0.38144E-08         0.00000E+00
    0.74207E-06        -0.67182E-08         0.00000E+00
    0.74243E-06        -0.18048E-07         0.00000E+00
    0.74311E-06        -0.26507E-07         0.00000E+00
    0.74405E-06        -0.32492E-07         0.00000E+00
    0.74518E-06        -0.36344E-07         0.00000E+00
    0.74644E-06        -0.38353E-07         0.00000E+00
    0.74778E-06        -0.38768E-07         0.00000E+00
    0.74916E-06        -0.37798E-07         0.00000E+00
    0.75053E-06        -0.35620E-07         0.00000E+00
    0.75182E-06        -0.32379E-07         0.00000E+00
    0.75298E-06        -0.28197E-07         0.00000E+00
    0.75394E-06        -0.23180E-07         0.00000E+00
    0.75466E-06        -0.17428E-07         0.00000E+00
    0.75514E-06        -0.11023E-07         0.00000E+00
    0.75545E-06        -0.39171E-08         0.00000E+00
    0.75936E-06        -0.67177E-08         0.00000E+00
    0.75975E-06        -0.18074E-07         0.00000E+00
    0.76030E-06        -0.26574E-07         0.00000E+00
    0.76100E-06        -0.32609E-07         0.00000E+00
    0.76179E-06        -0.36514E-07         0.00000E+00
    0.76265E-06        -0.38577E-07         0.00000E+00
    0.76355E-06        -0.39042E-07         0.00000E+00
    0.76446E-06        -0.38111E-07         0.00000E+00
    0.76537E-06        -0.35950E-07         0.00000E+00
    0.76622E-06        -0.32695E-07         0.00000E+00
    0.76697E-06        -0.28455E-07         0.00000E+00
    0.76756E-06        -0.23330E-07         0.00000E+00
    0.76792E-06        -0.17422E-07         0.00000E+00
    0.76804E-06        -0.10893E-07         0.00000E+00
    0.76813E-06        -0.38637E-08         0.00000E+00
    0.77745E-06        -0.66035E-08         0.00000E+00
    0.77795E-06        -0.17794E-07         0.00000E+00
    0.77847E-06        -0.26187E-07         0.00000E+00
    0.77899E-06        -0.32161E-07         0.00000E+00
    0.77952E-06        -0.36043E-07         0.00000E+00
    0.78003E-06        -0.38113E-07         0.00000E+00
    0.78054E-06        -0.38610E-07         0.00000E+00
    0.78103E-06        -0.37725E-07         0.00000E+00
    0.78152E-06        -0.35615E-07         0.00000E+00
    0.78197E-06        -0.32399E-07         0.00000E+00
    0.78237E-06        -0.28167E-07         0.00000E+00
    0.78265E-06        -0.23005E-07         0.00000E+00
    0.78275E-06        -0.17012E-07         0.00000E+00
    0.78254E-06        -0.10330E-07         0.00000E+00
    0.78224E-06        -0.35357E-08         0.00000E+00
    0.79587E-06        -0.63825E-08         0.00000E+00
    0.79658E-06        -0.17224E-07         0.00000E+00
    0.79716E-06        -0.25364E-07         0.00000E+00
    0.79761E-06        -0.31165E-07         0.00000E+00
    0.79794E-06        -0.34943E-07         0.00000E+00
    0.79817E-06        -0.36973E-07         0.00000E+00
    0.79833E-06        -0.37481E-07         0.00000E+00
    0.79846E-06        -0.36651E-07         0.00000E+00
    0.79856E-06        -0.34626E-07         0.00000E+00
    0.79866E-06        -0.31507E-07         0.00000E+00
    0.79876E-06        -0.27363E-07         0.00000E+00
    0.79879E-06        -0.22238E-07         0.00000E+00
    0.79866E-06        -0.16235E-07         0.00000E+00
    0.79831E-06        -0.94518E-08         0.00000E+00
    0.79749E-06        -0.29839E-08         0.00000E+00
    0.81417E-06        -0.60621E-08         0.00000E+00
    0.81522E-06        -0.16380E-07         0.00000E+00
    0.81598E-06        -0.24123E-07         0.00000E+00
    0.81645E-06        -0.29637E-07         0.00000E+00
    0.81667E-06        -0.33230E-07         0.00000E+00
    0.81669E-06        -0.35166E-07         0.00000E+00
    0.81656E-06        -0.35664E-07         0.00000E+00
    0.81635E-06        -0.34895E-07         0.00000E+00
    0.81611E-06        -0.32986E-07         0.00000E+00
    0.81588E-06        -0.30022E-07         0.00000E+00
    0.81570E-06        -0.26049E-07         0.00000E+00
    0.81556E-06        -0.21073E-07         0.00000E+00
    0.81525E-06        -0.15052E-07         0.00000E+00
    0.81482E-06        -0.84785E-08         0.00000E+00
    0.81368E-06        -0.26187E-08         0.00000E+00
    0.83200E-06        -0.56491E-08         0.00000E+00
    0.83354E-06        -0.15277E-07         0.00000E+00
    0.83460E-06        -0.22479E-07         0.00000E+00
    0.83520E-06        -0.27588E-07         0.00000E+00
    0.83539E-06        -0.30908E-07         0.00000E+00
    0.83525E-06        -0.32697E-07         0.00000E+00
    0.83488E-06        -0.33160E-07         0.00000E+00
    0.83436E-06        -0.32454E-07         0.00000E+00
    0.83380E-06        -0.30691E-07         0.00000E+00
    0.83327E-06        -0.27934E-07         0.00000E+00
    0.83283E-06        -0.24203E-07         0.00000E+00
    0.83249E-06        -0.19469E-07         0.00000E+00
    0.83223E-06        -0.13558E-07         0.00000E+00
    0.83157E-06        -0.75626E-08         0.00000E+00
    0.83026E-06        -0.24968E-08         0.00000E+00
    0.84906E-06        -0.51492E-08         0.00000E+00
    0.85125E-06        -0.13926E-07         0.00000E+00
    0.85277E-06        -0.20437E-07         0.00000E+00
    0.85361E-06        -0.25019E-07         0.00000E+00
    0.85385E-06        -0.27977E-07         0.00000E+00
    0.85360E-06        -0.29564E-07         0.00000E+00
    0.85300E-06        -0.29969E-07         0.00000E+00
    0.85220E-06        -0.29330E-07         0.00000E+00
    0.85133E-06        -0.27737E-07         0.00000E+00
    0.85050E-06        -0.25235E-07         0.00000E+00
    0.84983E-06        -0.21814E-07         0.00000E+00
    0.84935E-06        -0.17383E-07         0.00000E+00
    0.84921E-06        -0.11894E-07         0.00000E+00
    0.84818E-06        -0.66836E-08         0.00000E+00
    0.84687E-06        -0.23073E-08         0.00000E+00
    0.86512E-06        -0.45650E-08         0.00000E+00
    0.86820E-06        -0.12325E-07         0.00000E+00
    0.87033E-06        -0.17986E-07         0.00000E+00
    0.87151E-06        -0.21910E-07         0.00000E+00
    0.87184E-06        -0.24420E-07         0.00000E+00
    0.87150E-06        -0.25756E-07         0.00000E+00
    0.87069E-06        -0.26086E-07         0.00000E+00
    0.86961E-06        -0.25520E-07         0.00000E+00
    0.86843E-06        -0.24125E-07         0.00000E+00
    0.86731E-06        -0.21927E-07         0.00000E+00
    0.86642E-06        -0.18899E-07         0.00000E+00
    0.86590E-06        -0.14913E-07         0.00000E+00
    0.86591E-06        -0.10109E-07         0.00000E+00
    0.86469E-06        -0.57033E-08         0.00000E+00
    0.86336E-06        -0.19921E-08         0.00000E+00
    0.88007E-06        -0.38921E-08         0.00000E+00
    0.88432E-06        -0.10454E-07         0.00000E+00
    0.88724E-06        -0.15081E-07         0.00000E+00
    0.88881E-06        -0.18215E-07         0.00000E+00
    0.88923E-06        -0.20203E-07         0.00000E+00
    0.88878E-06        -0.21258E-07         0.00000E+00
    0.88774E-06        -0.21508E-07         0.00000E+00
    0.88636E-06        -0.21030E-07         0.00000E+00
    0.88487E-06        -0.19866E-07         0.00000E+00
    0.88346E-06        -0.18027E-07         0.00000E+00
    0.88233E-06        -0.15483E-07         0.00000E+00
    0.88175E-06        -0.12143E-07         0.00000E+00
    0.88184E-06        -0.81594E-08         0.00000E+00
    0.88069E-06        -0.45656E-08         0.00000E+00
    0.87938E-06        -0.16126E-08         0.00000E+00
    0.89389E-06        -0.31115E-08         0.00000E+00
    0.89970E-06        -0.82411E-08         0.00000E+00
    0.90355E-06        -0.11620E-07         0.00000E+00
    0.90549E-06        -0.13858E-07         0.00000E+00
    0.90593E-06        -0.15290E-07         0.00000E+00
    0.90532E-06        -0.16055E-07         0.00000E+00
    0.90400E-06        -0.16231E-07         0.00000E+00
    0.90229E-06        -0.15864E-07         0.00000E+00
    0.90044E-06        -0.14974E-07         0.00000E+00
    0.89871E-06        -0.13561E-07         0.00000E+00
    0.89733E-06        -0.11598E-07         0.00000E+00
    0.89658E-06        -0.90581E-08         0.00000E+00
    0.89673E-06        -0.59879E-08         0.00000E+00
    0.89599E-06        -0.32795E-08         0.00000E+00
    0.89468E-06        -0.11737E-08         0.00000E+00
    0.90680E-06        -0.21305E-08         0.00000E+00
    0.91470E-06        -0.54958E-08         0.00000E+00
    0.91942E-06        -0.74528E-08         0.00000E+00
    0.92155E-06        -0.87873E-08         0.00000E+00
    0.92191E-06        -0.96615E-08         0.00000E+00
    0.92103E-06        -0.10136E-07         0.00000E+00
    0.91935E-06        -0.10248E-07         0.00000E+00
    0.91721E-06        -0.10016E-07         0.00000E+00
    0.91494E-06        -0.94508E-08         0.00000E+00
    0.91281E-06        -0.85444E-08         0.00000E+00
    0.91113E-06        -0.72779E-08         0.00000E+00
    0.91015E-06        -0.56332E-08         0.00000E+00
    0.91016E-06        -0.35925E-08         0.00000E+00
    0.91028E-06        -0.18806E-08         0.00000E+00
    0.90903E-06        -0.67980E-09         0.00000E+00
    0.91950E-06        -0.78344E-09         0.00000E+00
    0.92981E-06        -0.19749E-08         0.00000E+00
    0.93492E-06        -0.25830E-08         0.00000E+00
    0.93707E-06        -0.30312E-08         0.00000E+00
    0.93718E-06        -0.33297E-08         0.00000E+00
    0.93590E-06        -0.34944E-08         0.00000E+00
    0.93370E-06        -0.35344E-08         0.00000E+00
    0.93101E-06        -0.34560E-08         0.00000E+00
    0.92817E-06        -0.32608E-08         0.00000E+00
    0.92552E-06        -0.29455E-08         0.00000E+00
    0.92340E-06        -0.25029E-08         0.00000E+00
    0.92214E-06        -0.19154E-08         0.00000E+00
    0.92203E-06        -0.11673E-08         0.00000E+00
    0.92301E-06        -0.58192E-09         0.00000E+00
    0.92259E-06        -0.21168E-09         0.00000E+00
POINT_DATA        496
VECTORS vDarcyNodal double 
    0.10863E-05         0.10357E-07         0.00000E+00
    0.10785E-05         0.27511E-07         0.00000E+00
    0.10711E-05         0.61797E-07         0.00000E+00
    0.10713E-05         0.91837E-07         0.00000E+00
    0.10796E-05         0.11180E-06         0.00000E+00
    0.10936E-05         0.12051E-06         0.00000E+00
    0.11086E-05         0.11844E-06         0.00000E+00
    0.11175E-05         0.11003E-06         0.00000E+00
    0.11228E-05         0.10022E-06         0.00000E+00
    0.11260E-05         0.89648E-07         0.00000E+00
    0.11282E-05         0.78367E-07         0.00000E+00
    0.11297E-05         0.66163E-07         0.00000E+00
    0.11306E-05         0.52831E-07         0.00000E+00
    0.11311E-05         0.38157E-07         0.00000E+00
    0.11309E-05         0.20871E-07         0.00000E+00
    0.11307E-05         0.11283E-07         0.00000E+00
    0.10254E-05         0.15641E-07         0.00000E+00
    0.10182E-05         0.28695E-07         0.00000E+00
    0.10128E-05         0.51100E-07         0.00000E+00
    0.10166E-05         0.67976E-07         0.00000E+00
    0.10293E-05         0.80809E-07         0.00000E+00
    0.10475E-05         0.89533E-07         0.00000E+00
    0.10661E-05         0.94501E-07         0.00000E+00
    0.10789E-05         0.94732E-07         0.00000E+00
    0.10874E-05         0.89967E-07         0.00000E+00
    0.10932E-05         0.82019E-07         0.00000E+00
    0.10971E-05         0.72230E-07         0.00000E+00
    0.10999E-05         0.60945E-07         0.00000E+00
    0.11017E-05         0.48187E-07         0.00000E+00
    0.11026E-05         0.33720E-07         0.00000E+00
    0.11024E-05         0.17490E-07         0.00000E+00
    0.11019E-05         0.89710E-08         0.00000E+00
    0.93278E-06         0.14909E-07         0.00000E+00
    0.93074E-06         0.24265E-07         0.00000E+00
    0.93242E-06         0.40233E-07         0.00000E+00
    0.94252E-06         0.51380E-07         0.00000E+00
    0.95840E-06         0.58792E-07         0.00000E+00
    0.97660E-06         0.64137E-07         0.00000E+00
    0.99400E-06         0.70061E-07         0.00000E+00
    0.10091E-05         0.74756E-07         0.00000E+00
    0.10211E-05         0.74762E-07         0.00000E+00
    0.10302E-05         0.70516E-07         0.00000E+00
    0.10370E-05         0.63270E-07         0.00000E+00
    0.10419E-05         0.53838E-07         0.00000E+00
    0.10451E-05         0.42567E-07         0.00000E+00
    0.10469E-05         0.29641E-07         0.00000E+00
    0.10468E-05         0.15346E-07         0.00000E+00
    0.10464E-05         0.79028E-08         0.00000E+00
    0.88562E-06         0.10135E-07         0.00000E+00
    0.88813E-06         0.17174E-07         0.00000E+00
    0.89424E-06         0.28871E-07         0.00000E+00
    0.90468E-06         0.36859E-07         0.00000E+00
    0.91681E-06         0.42903E-07         0.00000E+00
    0.92879E-06         0.48275E-07         0.00000E+00
    0.94014E-06         0.53585E-07         0.00000E+00
    0.95216E-06         0.57970E-07         0.00000E+00
    0.96360E-06         0.59676E-07         0.00000E+00
    0.97346E-06         0.57926E-07         0.00000E+00
    0.98141E-06         0.53109E-07         0.00000E+00
    0.98746E-06         0.45826E-07         0.00000E+00
    0.99170E-06         0.36546E-07         0.00000E+00
    0.99413E-06         0.25617E-07         0.00000E+00
    0.99475E-06         0.13351E-07         0.00000E+00
    0.99461E-06         0.69211E-08         0.00000E+00
    0.85436E-06         0.61894E-08         0.00000E+00
    0.85626E-06         0.11343E-07         0.00000E+00
    0.86088E-06         0.20112E-07         0.00000E+00
    0.86791E-06         0.26423E-07         0.00000E+00
    0.87622E-06         0.31465E-07         0.00000E+00
    0.88504E-06         0.36131E-07         0.00000E+00
    0.89424E-06         0.40639E-07         0.00000E+00
    0.90399E-06         0.44393E-07         0.00000E+00
    0.91394E-06         0.46393E-07         0.00000E+00
    0.92325E-06         0.45941E-07         0.00000E+00
    0.93131E-06         0.42931E-07         0.00000E+00
    0.93779E-06         0.37630E-07         0.00000E+00
    0.94254E-06         0.30390E-07         0.00000E+00
    0.94551E-06         0.21535E-07         0.00000E+00
    0.94668E-06         0.11334E-07         0.00000E+00
    0.94682E-06         0.59269E-08         0.00000E+00
    0.82259E-06         0.40122E-08         0.00000E+00
    0.82366E-06         0.74397E-08         0.00000E+00
    0.82698E-06         0.13519E-07         0.00000E+00
    0.83223E-06         0.18295E-07         0.00000E+00
    0.83864E-06         0.22348E-07         0.00000E+00
    0.84582E-06         0.26173E-07         0.00000E+00
    0.85363E-06         0.29840E-07         0.00000E+00
    0.86204E-06         0.32957E-07         0.00000E+00
    0.87075E-06         0.34890E-07         0.00000E+00
    0.87922E-06         0.35102E-07         0.00000E+00
    0.88689E-06         0.33361E-07         0.00000E+00
    0.89332E-06         0.29709E-07         0.00000E+00
    0.89825E-06         0.24335E-07         0.00000E+00
    0.90152E-06         0.17466E-07         0.00000E+00
    0.90308E-06         0.92969E-08         0.00000E+00
    0.90343E-06         0.49080E-08         0.00000E+00
    0.79167E-06         0.23854E-08         0.00000E+00
    0.79248E-06         0.44930E-08         0.00000E+00
    0.79504E-06         0.83489E-08         0.00000E+00
    0.79929E-06         0.11626E-07         0.00000E+00
    0.80470E-06         0.14624E-07         0.00000E+00
    0.81096E-06         0.17577E-07         0.00000E+00
    0.81791E-06         0.20471E-07         0.00000E+00
    0.82541E-06         0.23026E-07         0.00000E+00
    0.83321E-06         0.24808E-07         0.00000E+00
    0.84091E-06         0.25414E-07         0.00000E+00
    0.84804E-06         0.24595E-07         0.00000E+00
    0.85421E-06         0.22285E-07         0.00000E+00
    0.85910E-06         0.18548E-07         0.00000E+00
    0.86250E-06         0.13507E-07         0.00000E+00
    0.86427E-06         0.72810E-08         0.00000E+00
    0.86475E-06         0.38849E-08         0.00000E+00
    0.76343E-06         0.10924E-08         0.00000E+00
    0.76411E-06         0.20919E-08         0.00000E+00
    0.76631E-06         0.40159E-08         0.00000E+00
    0.77004E-06         0.58694E-08         0.00000E+00
    0.77489E-06         0.78050E-08         0.00000E+00
    0.78059E-06         0.99077E-08         0.00000E+00
    0.78696E-06         0.12113E-07         0.00000E+00
    0.79382E-06         0.14197E-07         0.00000E+00
    0.80094E-06         0.15840E-07         0.00000E+00
    0.80799E-06         0.16727E-07         0.00000E+00
    0.81461E-06         0.16627E-07         0.00000E+00
    0.82043E-06         0.15427E-07         0.00000E+00
    0.82516E-06         0.13112E-07         0.00000E+00
    0.82855E-06         0.97267E-08         0.00000E+00
    0.83043E-06         0.53268E-08         0.00000E+00
    0.83099E-06         0.28794E-08         0.00000E+00
    0.73888E-06        -0.32649E-10         0.00000E+00
    0.73953E-06        -0.95831E-11         0.00000E+00
    0.74158E-06         0.17965E-09         0.00000E+00
    0.74503E-06         0.69913E-09         0.00000E+00
    0.74955E-06         0.16137E-08         0.00000E+00
    0.75488E-06         0.29214E-08         0.00000E+00
    0.76082E-06         0.45230E-08         0.00000E+00
    0.76719E-06         0.62217E-08         0.00000E+00
    0.77377E-06         0.77619E-08         0.00000E+00
    0.78028E-06         0.88859E-08         0.00000E+00
    0.78642E-06         0.93862E-08         0.00000E+00
    0.79188E-06         0.91306E-08         0.00000E+00
    0.79638E-06         0.80603E-08         0.00000E+00
    0.79969E-06         0.61672E-08         0.00000E+00
    0.80160E-06         0.34629E-08         0.00000E+00
    0.80220E-06         0.19095E-08         0.00000E+00
    0.71870E-06        -0.10681E-08         0.00000E+00
    0.71935E-06        -0.19377E-08         0.00000E+00
    0.72133E-06        -0.33411E-08         0.00000E+00
    0.72461E-06        -0.40606E-08         0.00000E+00
    0.72890E-06        -0.40986E-08         0.00000E+00
    0.73393E-06        -0.35154E-08         0.00000E+00
    0.73953E-06        -0.24368E-08         0.00000E+00
    0.74548E-06        -0.10484E-08         0.00000E+00
    0.75159E-06         0.42922E-09         0.00000E+00
    0.75763E-06         0.17748E-08         0.00000E+00
    0.76332E-06         0.28000E-08         0.00000E+00
    0.76842E-06         0.33682E-08         0.00000E+00
    0.77267E-06         0.33975E-08         0.00000E+00
    0.77584E-06         0.28493E-08         0.00000E+00
    0.77772E-06         0.17082E-08         0.00000E+00
    0.77834E-06         0.98831E-09         0.00000E+00
    0.70326E-06        -0.20428E-08         0.00000E+00
    0.70391E-06        -0.37428E-08         0.00000E+00
    0.70584E-06        -0.66229E-08         0.00000E+00
    0.70898E-06        -0.84856E-08         0.00000E+00
    0.71305E-06        -0.93962E-08         0.00000E+00
    0.71781E-06        -0.94622E-08         0.00000E+00
    0.72306E-06        -0.88327E-08         0.00000E+00
    0.72862E-06        -0.76916E-08         0.00000E+00
    0.73430E-06        -0.62414E-08         0.00000E+00
    0.73988E-06        -0.46809E-08         0.00000E+00
    0.74516E-06        -0.31841E-08         0.00000E+00
    0.74989E-06        -0.18859E-08         0.00000E+00
    0.75386E-06        -0.87802E-09         0.00000E+00
    0.75686E-06        -0.21482E-09         0.00000E+00
    0.75867E-06         0.75679E-10         0.00000E+00
    0.75928E-06         0.12545E-09         0.00000E+00
    0.69270E-06        -0.29585E-08         0.00000E+00
    0.69333E-06        -0.54310E-08         0.00000E+00
    0.69518E-06        -0.96779E-08         0.00000E+00
    0.69816E-06        -0.12588E-07         0.00000E+00
    0.70199E-06        -0.14288E-07         0.00000E+00
    0.70645E-06        -0.14929E-07         0.00000E+00
    0.71134E-06        -0.14683E-07         0.00000E+00
    0.71650E-06        -0.13738E-07         0.00000E+00
    0.72173E-06        -0.12288E-07         0.00000E+00
    0.72687E-06        -0.10519E-07         0.00000E+00
    0.73172E-06        -0.85950E-08         0.00000E+00
    0.73608E-06        -0.66458E-08         0.00000E+00
    0.73975E-06        -0.47660E-08         0.00000E+00
    0.74255E-06        -0.30152E-08         0.00000E+00
    0.74427E-06        -0.14243E-08         0.00000E+00
    0.74485E-06        -0.67127E-09         0.00000E+00
    0.68696E-06        -0.38045E-08         0.00000E+00
    0.68755E-06        -0.69863E-08         0.00000E+00
    0.68928E-06        -0.12484E-07         0.00000E+00
    0.69205E-06        -0.16342E-07         0.00000E+00
    0.69559E-06        -0.18749E-07         0.00000E+00
    0.69971E-06        -0.19896E-07         0.00000E+00
    0.70420E-06        -0.19976E-07         0.00000E+00
    0.70892E-06        -0.19186E-07         0.00000E+00
    0.71370E-06        -0.17719E-07         0.00000E+00
    0.71838E-06        -0.15752E-07         0.00000E+00
    0.72279E-06        -0.13441E-07         0.00000E+00
    0.72676E-06        -0.10913E-07         0.00000E+00
    0.73011E-06        -0.82604E-08         0.00000E+00
    0.73267E-06        -0.55409E-08         0.00000E+00
    0.73427E-06        -0.27825E-08         0.00000E+00
    0.73482E-06        -0.13953E-08         0.00000E+00
    0.68582E-06        -0.45653E-08         0.00000E+00
    0.68635E-06        -0.83843E-08         0.00000E+00
    0.68791E-06        -0.15002E-07         0.00000E+00
    0.69042E-06        -0.19706E-07         0.00000E+00
    0.69363E-06        -0.22737E-07         0.00000E+00
    0.69735E-06        -0.24324E-07         0.00000E+00
    0.70141E-06        -0.24681E-07         0.00000E+00
    0.70566E-06        -0.24016E-07         0.00000E+00
    0.70995E-06        -0.22520E-07         0.00000E+00
    0.71414E-06        -0.20370E-07         0.00000E+00
    0.71809E-06        -0.17716E-07         0.00000E+00
    0.72164E-06        -0.14680E-07         0.00000E+00
    0.72465E-06        -0.11350E-07         0.00000E+00
    0.72697E-06        -0.77798E-08         0.00000E+00
    0.72842E-06        -0.39900E-08         0.00000E+00
    0.72893E-06        -0.20406E-08         0.00000E+00
    0.68892E-06        -0.52262E-08         0.00000E+00
    0.68938E-06        -0.96002E-08         0.00000E+00
    0.69074E-06        -0.17194E-07         0.00000E+00
    0.69295E-06        -0.22633E-07         0.00000E+00
    0.69578E-06        -0.26206E-07         0.00000E+00
    0.69906E-06        -0.28170E-07         0.00000E+00
    0.70264E-06        -0.28762E-07         0.00000E+00
    0.70639E-06        -0.28197E-07         0.00000E+00
    0.71016E-06        -0.26671E-07         0.00000E+00
    0.71385E-06        -0.24358E-07         0.00000E+00
    0.71731E-06        -0.21406E-07         0.00000E+00
    0.72043E-06        -0.17931E-07         0.00000E+00
    0.72308E-06        -0.14019E-07         0.00000E+00
    0.72512E-06        -0.97180E-08         0.00000E+00
    0.72642E-06        -0.50378E-08         0.00000E+00
    0.72687E-06        -0.26020E-08         0.00000E+00
    0.69582E-06        -0.57750E-08         0.00000E+00
    0.69620E-06        -0.10613E-07         0.00000E+00
    0.69735E-06        -0.19025E-07         0.00000E+00
    0.69923E-06        -0.25083E-07         0.00000E+00
    0.70165E-06        -0.29112E-07         0.00000E+00
    0.70447E-06        -0.31395E-07         0.00000E+00
    0.70754E-06        -0.32183E-07         0.00000E+00
    0.71075E-06        -0.31701E-07         0.00000E+00
    0.71399E-06        -0.30148E-07         0.00000E+00
    0.71715E-06        -0.27696E-07         0.00000E+00
    0.72012E-06        -0.24491E-07         0.00000E+00
    0.72278E-06        -0.20649E-07         0.00000E+00
    0.72505E-06        -0.16252E-07         0.00000E+00
    0.72680E-06        -0.11341E-07         0.00000E+00
    0.72792E-06        -0.59172E-08         0.00000E+00
    0.72833E-06        -0.30743E-08         0.00000E+00
    0.70600E-06        -0.62038E-08         0.00000E+00
    0.70630E-06        -0.11408E-07         0.00000E+00
    0.70724E-06        -0.20470E-07         0.00000E+00
    0.70879E-06        -0.27025E-07         0.00000E+00
    0.71080E-06        -0.31423E-07         0.00000E+00
    0.71313E-06        -0.33966E-07         0.00000E+00
    0.71569E-06        -0.34917E-07         0.00000E+00
    0.71836E-06        -0.34505E-07         0.00000E+00
    0.72105E-06        -0.32930E-07         0.00000E+00
    0.72368E-06        -0.30366E-07         0.00000E+00
    0.72613E-06        -0.26957E-07         0.00000E+00
    0.72834E-06        -0.22817E-07         0.00000E+00
    0.73020E-06        -0.18029E-07         0.00000E+00
    0.73164E-06        -0.12633E-07         0.00000E+00
    0.73258E-06        -0.66189E-08         0.00000E+00
    0.73293E-06        -0.34525E-08         0.00000E+00
    0.71892E-06        -0.65084E-08         0.00000E+00
    0.71916E-06        -0.11978E-07         0.00000E+00
    0.71990E-06        -0.21515E-07         0.00000E+00
    0.72113E-06        -0.28440E-07         0.00000E+00
    0.72273E-06        -0.33119E-07         0.00000E+00
    0.72460E-06        -0.35864E-07         0.00000E+00
    0.72664E-06        -0.36944E-07         0.00000E+00
    0.72877E-06        -0.36592E-07         0.00000E+00
    0.73093E-06        -0.35007E-07         0.00000E+00
    0.73302E-06        -0.32359E-07         0.00000E+00
    0.73497E-06        -0.28791E-07         0.00000E+00
    0.73671E-06        -0.24420E-07         0.00000E+00
    0.73817E-06        -0.19334E-07         0.00000E+00
    0.73928E-06        -0.13576E-07         0.00000E+00
    0.74002E-06        -0.71313E-08         0.00000E+00
    0.74030E-06        -0.37304E-08         0.00000E+00
    0.73400E-06        -0.66884E-08         0.00000E+00
    0.73420E-06        -0.12322E-07         0.00000E+00
    0.73479E-06        -0.22155E-07         0.00000E+00
    0.73574E-06        -0.29321E-07         0.00000E+00
    0.73696E-06        -0.34190E-07         0.00000E+00
    0.73838E-06        -0.37079E-07         0.00000E+00
    0.73993E-06        -0.38257E-07         0.00000E+00
    0.74155E-06        -0.37957E-07         0.00000E+00
    0.74318E-06        -0.36375E-07         0.00000E+00
    0.74477E-06        -0.33674E-07         0.00000E+00
    0.74624E-06        -0.29994E-07         0.00000E+00
    0.74753E-06        -0.25453E-07         0.00000E+00
    0.74858E-06        -0.20148E-07         0.00000E+00
    0.74935E-06        -0.14146E-07         0.00000E+00
    0.74985E-06        -0.74370E-08         0.00000E+00
    0.75005E-06        -0.38980E-08         0.00000E+00
    0.75068E-06        -0.67464E-08         0.00000E+00
    0.75087E-06        -0.12442E-07         0.00000E+00
    0.75137E-06        -0.22396E-07         0.00000E+00
    0.75209E-06        -0.29673E-07         0.00000E+00
    0.75298E-06        -0.34641E-07         0.00000E+00
    0.75400E-06        -0.37613E-07         0.00000E+00
    0.75509E-06        -0.38859E-07         0.00000E+00
    0.75624E-06        -0.38605E-07         0.00000E+00
    0.75738E-06        -0.37041E-07         0.00000E+00
    0.75849E-06        -0.34323E-07         0.00000E+00
    0.75952E-06        -0.30579E-07         0.00000E+00
    0.76039E-06        -0.25923E-07         0.00000E+00
    0.76107E-06        -0.20460E-07         0.00000E+00
    0.76148E-06        -0.14305E-07         0.00000E+00
    0.76168E-06        -0.75032E-08         0.00000E+00
    0.76177E-06        -0.39362E-08         0.00000E+00
    0.76843E-06        -0.66876E-08         0.00000E+00
    0.76865E-06        -0.12347E-07         0.00000E+00
    0.76913E-06        -0.22249E-07         0.00000E+00
    0.76970E-06        -0.29507E-07         0.00000E+00
    0.77033E-06        -0.34480E-07         0.00000E+00
    0.77099E-06        -0.37476E-07         0.00000E+00
    0.77169E-06        -0.38758E-07         0.00000E+00
    0.77239E-06        -0.38546E-07         0.00000E+00
    0.77309E-06        -0.37019E-07         0.00000E+00
    0.77377E-06        -0.34323E-07         0.00000E+00
    0.77439E-06        -0.30571E-07         0.00000E+00
    0.77490E-06        -0.25863E-07         0.00000E+00
    0.77525E-06        -0.20294E-07         0.00000E+00
    0.77536E-06        -0.14011E-07         0.00000E+00
    0.77519E-06        -0.72542E-08         0.00000E+00
    0.77503E-06        -0.37913E-08         0.00000E+00
    0.78674E-06        -0.65185E-08         0.00000E+00
    0.78703E-06        -0.12048E-07         0.00000E+00
    0.78759E-06        -0.21730E-07         0.00000E+00
    0.78809E-06        -0.28840E-07         0.00000E+00
    0.78854E-06        -0.33723E-07         0.00000E+00
    0.78892E-06        -0.36680E-07         0.00000E+00
    0.78927E-06        -0.37965E-07         0.00000E+00
    0.78958E-06        -0.37790E-07         0.00000E+00
    0.78988E-06        -0.36323E-07         0.00000E+00
    0.79016E-06        -0.33693E-07         0.00000E+00
    0.79043E-06        -0.29997E-07         0.00000E+00
    0.79064E-06        -0.25311E-07         0.00000E+00
    0.79072E-06        -0.19725E-07         0.00000E+00
    0.79060E-06        -0.13333E-07         0.00000E+00
    0.79007E-06        -0.66129E-08         0.00000E+00
    0.78960E-06        -0.32809E-08         0.00000E+00
    0.80515E-06        -0.62462E-08         0.00000E+00
    0.80557E-06        -0.11557E-07         0.00000E+00
    0.80632E-06        -0.20857E-07         0.00000E+00
    0.80686E-06        -0.27690E-07         0.00000E+00
    0.80721E-06        -0.32387E-07         0.00000E+00
    0.80739E-06        -0.35239E-07         0.00000E+00
    0.80744E-06        -0.36492E-07         0.00000E+00
    0.80741E-06        -0.36346E-07         0.00000E+00
    0.80734E-06        -0.34959E-07         0.00000E+00
    0.80727E-06        -0.32443E-07         0.00000E+00
    0.80722E-06        -0.28877E-07         0.00000E+00
    0.80717E-06        -0.24294E-07         0.00000E+00
    0.80708E-06        -0.18752E-07         0.00000E+00
    0.80671E-06        -0.12357E-07         0.00000E+00
    0.80593E-06        -0.58250E-08         0.00000E+00
    0.80541E-06        -0.26884E-08         0.00000E+00
    0.82326E-06        -0.58781E-08         0.00000E+00
    0.82388E-06        -0.10885E-07         0.00000E+00
    0.82495E-06        -0.19647E-07         0.00000E+00
    0.82565E-06        -0.26073E-07         0.00000E+00
    0.82599E-06        -0.30484E-07         0.00000E+00
    0.82604E-06        -0.33162E-07         0.00000E+00
    0.82586E-06        -0.34344E-07         0.00000E+00
    0.82552E-06        -0.34218E-07         0.00000E+00
    0.82512E-06        -0.32928E-07         0.00000E+00
    0.82472E-06        -0.30570E-07         0.00000E+00
    0.82437E-06        -0.27199E-07         0.00000E+00
    0.82409E-06        -0.22832E-07         0.00000E+00
    0.82386E-06        -0.17378E-07         0.00000E+00
    0.82333E-06        -0.11177E-07         0.00000E+00
    0.82239E-06        -0.52736E-08         0.00000E+00
    0.82192E-06        -0.25499E-08         0.00000E+00
    0.84075E-06        -0.54209E-08         0.00000E+00
    0.84165E-06        -0.10043E-07         0.00000E+00
    0.84320E-06        -0.18113E-07         0.00000E+00
    0.84417E-06        -0.24000E-07         0.00000E+00
    0.84460E-06        -0.28021E-07         0.00000E+00
    0.84458E-06        -0.30452E-07         0.00000E+00
    0.84420E-06        -0.31522E-07         0.00000E+00
    0.84360E-06        -0.31405E-07         0.00000E+00
    0.84288E-06        -0.30226E-07         0.00000E+00
    0.84217E-06        -0.28063E-07         0.00000E+00
    0.84154E-06        -0.24945E-07         0.00000E+00
    0.84106E-06        -0.20845E-07         0.00000E+00
    0.84072E-06        -0.15653E-07         0.00000E+00
    0.84011E-06        -0.99465E-08         0.00000E+00
    0.83905E-06        -0.47870E-08         0.00000E+00
    0.83848E-06        -0.24444E-08         0.00000E+00
    0.85735E-06        -0.48791E-08         0.00000E+00
    0.85864E-06        -0.90355E-08         0.00000E+00
    0.86084E-06        -0.16257E-07         0.00000E+00
    0.86222E-06        -0.21466E-07         0.00000E+00
    0.86281E-06        -0.24988E-07         0.00000E+00
    0.86276E-06        -0.27102E-07         0.00000E+00
    0.86222E-06        -0.28023E-07         0.00000E+00
    0.86136E-06        -0.27905E-07         0.00000E+00
    0.86035E-06        -0.26851E-07         0.00000E+00
    0.85932E-06        -0.24919E-07         0.00000E+00
    0.85842E-06        -0.22113E-07         0.00000E+00
    0.85777E-06        -0.18358E-07         0.00000E+00
    0.85743E-06        -0.13628E-07         0.00000E+00
    0.85680E-06        -0.86341E-08         0.00000E+00
    0.85561E-06        -0.42056E-08         0.00000E+00
    0.85496E-06        -0.21710E-08         0.00000E+00
    0.87290E-06        -0.42533E-08         0.00000E+00
    0.87471E-06        -0.78599E-08         0.00000E+00
    0.87777E-06        -0.14064E-07         0.00000E+00
    0.87967E-06        -0.18444E-07         0.00000E+00
    0.88048E-06        -0.21358E-07         0.00000E+00
    0.88041E-06        -0.23090E-07         0.00000E+00
    0.87970E-06        -0.23835E-07         0.00000E+00
    0.87858E-06        -0.23716E-07         0.00000E+00
    0.87726E-06        -0.22807E-07         0.00000E+00
    0.87593E-06        -0.21145E-07         0.00000E+00
    0.87477E-06        -0.18722E-07         0.00000E+00
    0.87394E-06        -0.15460E-07         0.00000E+00
    0.87365E-06        -0.11398E-07         0.00000E+00
    0.87308E-06        -0.71810E-08         0.00000E+00
    0.87184E-06        -0.34918E-08         0.00000E+00
    0.87118E-06        -0.18142E-08         0.00000E+00
    0.88735E-06        -0.35345E-08         0.00000E+00
    0.88984E-06        -0.64933E-08         0.00000E+00
    0.89401E-06        -0.11484E-07         0.00000E+00
    0.89649E-06        -0.14869E-07         0.00000E+00
    0.89750E-06        -0.17079E-07         0.00000E+00
    0.89739E-06        -0.18390E-07         0.00000E+00
    0.89648E-06        -0.18949E-07         0.00000E+00
    0.89507E-06        -0.18839E-07         0.00000E+00
    0.89342E-06        -0.18104E-07         0.00000E+00
    0.89177E-06        -0.16761E-07         0.00000E+00
    0.89032E-06        -0.14797E-07         0.00000E+00
    0.88930E-06        -0.12172E-07         0.00000E+00
    0.88900E-06        -0.89091E-08         0.00000E+00
    0.88860E-06        -0.55472E-08         0.00000E+00
    0.88748E-06        -0.26883E-08         0.00000E+00
    0.88681E-06        -0.14119E-08         0.00000E+00
    0.90082E-06        -0.26935E-08         0.00000E+00
    0.90421E-06        -0.48692E-08         0.00000E+00
    0.90970E-06        -0.83945E-08         0.00000E+00
    0.91273E-06        -0.10630E-07         0.00000E+00
    0.91386E-06        -0.12091E-07         0.00000E+00
    0.91362E-06        -0.12976E-07         0.00000E+00
    0.91244E-06        -0.13356E-07         0.00000E+00
    0.91068E-06        -0.13274E-07         0.00000E+00
    0.90864E-06        -0.12750E-07         0.00000E+00
    0.90660E-06        -0.11788E-07         0.00000E+00
    0.90482E-06        -0.10373E-07         0.00000E+00
    0.90358E-06        -0.84920E-08         0.00000E+00
    0.90315E-06        -0.61426E-08         0.00000E+00
    0.90304E-06        -0.37236E-08         0.00000E+00
    0.90227E-06        -0.17667E-08         0.00000E+00
    0.90161E-06        -0.93635E-09         0.00000E+00
    0.91381E-06        -0.15756E-08         0.00000E+00
    0.91824E-06        -0.27705E-08         0.00000E+00
    0.92505E-06        -0.45745E-08         0.00000E+00
    0.92846E-06        -0.56324E-08         0.00000E+00
    0.92957E-06        -0.63800E-08         0.00000E+00
    0.92908E-06        -0.68434E-08         0.00000E+00
    0.92751E-06        -0.70478E-08         0.00000E+00
    0.92528E-06        -0.70086E-08         0.00000E+00
    0.92274E-06        -0.67338E-08         0.00000E+00
    0.92021E-06        -0.62216E-08         0.00000E+00
    0.91801E-06        -0.54616E-08         0.00000E+00
    0.91644E-06        -0.44288E-08         0.00000E+00
    0.91580E-06        -0.30900E-08         0.00000E+00
    0.91609E-06        -0.17532E-08         0.00000E+00
    0.91602E-06        -0.79517E-09         0.00000E+00
    0.91558E-06        -0.42409E-09         0.00000E+00
    0.92029E-06         0.00000E+00         0.00000E+00
    0.92525E-06         0.00000E+00         0.00000E+00
    0.93267E-06        -0.27849E-20         0.00000E+00
    0.93622E-06         0.23189E-22         0.00000E+00
    0.93728E-06         0.28080E-20         0.00000E+00
    0.93662E-06         0.00000E+00         0.00000E+00
    0.93482E-06         0.00000E+00         0.00000E+00
    0.93232E-06        -0.25850E-20         0.00000E+00
    0.92949E-06        -0.25850E-20         0.00000E+00
    0.92669E-06         0.26058E-20         0.00000E+00
    0.92424E-06         0.26058E-20         0.00000E+00
    0.92247E-06        -0.26241E-20         0.00000E+00
    0.92171E-06        -0.28496E-21         0.00000E+00
    0.92223E-06         0.26344E-20         0.00000E+00
    0.92261E-06         0.58676E-21         0.00000E+00
    0.92237E-06         0.00000E+00         0.00000E+00
CELL_DATA        450
TENSORS stressef double 
    0.21488E+08         0.56518E+06         0.00000E+00
    0.56518E+06        -0.40702E+07         0.00000E+00
    0.00000E+00         0.00000E+00        -0.23664E+06
 
    0.21879E+08         0.44396E+06         0.00000E+00
    0.44396E+06        -0.30137E+07         0.00000E+00
    0.00000E+00         0.00000E+00         0.33900E+06
 
    0.22008E+08         0.69747E+05         0.00000E+00
    0.69747E+05        -0.25951E+07         0.00000E+00
    0.00000E+00         0.00000E+00         0.55376E+06
 
    0.21897E+08        -0.21574E+06         0.00000E+00
   -0.21574E+06        -0.29261E+07         0.00000E+00
    0.00000E+00         0.00000E+00         0.47068E+06
 
    0.21641E+08        -0.42538E+06         0.00000E+00
   -0.42538E+06        -0.37738E+07         0.00000E+00
    0.00000E+00         0.00000E+00         0.25413E+06
 
    0.20712E+08        -0.70765E+06         0.00000E+00
   -0.70765E+06        -0.48548E+07         0.00000E+00
    0.00000E+00         0.00000E+00         0.32722E+05
 
    0.17811E+08        -0.67019E+06         0.00000E+00
   -0.67019E+06        -0.58682E+07         0.00000E+00
    0.00000E+00         0.00000E+00         0.00000E+00
 
    0.15772E+08        -0.43272E+06         0.00000E+00
   -0.43272E+06        -0.66631E+07         0.00000E+00
    0.00000E+00         0.00000E+00         0.00000E+00
 
    0.14135E+08        -0.26696E+06         0.00000E+00
   -0.26696E+06        -0.71472E+07         0.00000E+00
    0.00000E+00         0.00000E+00         0.00000E+00
 
    0.12611E+08        -0.13503E+06         0.00000E+00
   -0.13503E+06        -0.73754E+07         0.00000E+00
    0.00000E+00         0.00000E+00         0.00000E+00
 
    0.11072E+08        -0.14386E+05         0.00000E+00
   -0.14386E+05        -0.73799E+07         0.00000E+00
    0.00000E+00         0.00000E+00         0.00000E+00
 
    0.94192E+07         0.11052E+06         0.00000E+00
    0.11052E+06        -0.71643E+07         0.00000E+00
    0.00000E+00         0.00000E+00         0.00000E+00
 
    0.75371E+07         0.25764E+06         0.00000E+00
    0.25764E+06        -0.67025E+07         0.00000E+00
    0.00000E+00         0.00000E+00         0.00000E+00
 
    0.52342E+07         0.45976E+06         0.00000E+00
    0.45976E+06        -0.59183E+07         0.00000E+00
    0.00000E+00         0.00000E+00         0.00000E+00
 
    0.19733E+07         0.91050E+06         0.00000E+00
    0.91050E+06        -0.45578E+07         0.00000E+00
    0.00000E+00         0.00000E+00         0.00000E+00
 
    0.20335E+08         0.70674E+06         0.00000E+00
    0.70674E+06        -0.79005E+07         0.00000E+00
    0.00000E+00         0.00000E+00        -0.98132E+06
 
    0.20067E+08         0.72439E+06         0.00000E+00
    0.72439E+06        -0.88208E+07         0.00000E+00
    0.00000E+00         0.00000E+00        -0.52545E+06
 
    0.20055E+08         0.20310E+06         0.00000E+00
    0.20310E+06        -0.89681E+07         0.00000E+00
    0.00000E+00         0.00000E+00        -0.13486E+06
 
    0.20041E+08        -0.29322E+06         0.00000E+00
   -0.29322E+06        -0.84713E+07         0.00000E+00
    0.00000E+00         0.00000E+00        -0.25951E+04
 
    0.19451E+08        -0.77149E+06         0.00000E+00
   -0.77149E+06        -0.77459E+07         0.00000E+00
    0.00000E+00         0.00000E+00         0.00000E+00
 
    0.18290E+08        -0.13246E+07         0.00000E+00
   -0.13246E+07        -0.73056E+07         0.00000E+00
    0.00000E+00         0.00000E+00         0.00000E+00
 
    0.16243E+08        -0.14102E+07         0.00000E+00
   -0.14102E+07        -0.73344E+07         0.00000E+00
    0.00000E+00         0.00000E+00         0.00000E+00
 
    0.14204E+08        -0.10530E+07         0.00000E+00
   -0.10530E+07        -0.75408E+07         0.00000E+00
    0.00000E+00         0.00000E+00         0.00000E+00
 
    0.12505E+08        -0.68024E+06         0.00000E+00
   -0.68024E+06        -0.77386E+07         0.00000E+00
    0.00000E+00         0.00000E+00         0.00000E+00
 
    0.10943E+08        -0.33766E+06         0.00000E+00
   -0.33766E+06        -0.78163E+07         0.00000E+00
    0.00000E+00         0.00000E+00         0.00000E+00
 
    0.93937E+07        -0.18643E+04         0.00000E+00
   -0.18643E+04        -0.77352E+07         0.00000E+00
    0.00000E+00         0.00000E+00         0.00000E+00
 
    0.77584E+07         0.35788E+06         0.00000E+00
    0.35788E+06        -0.74696E+07         0.00000E+00
    0.00000E+00         0.00000E+00         0.00000E+00
 
    0.59384E+07         0.78645E+06         0.00000E+00
    0.78645E+06        -0.69836E+07         0.00000E+00
    0.00000E+00         0.00000E+00         0.00000E+00
 
    0.37983E+07         0.13801E+07         0.00000E+00
    0.13801E+07        -0.62112E+07         0.00000E+00
    0.00000E+00         0.00000E+00         0.00000E+00
 
    0.13138E+07         0.24412E+07         0.00000E+00
    0.24412E+07        -0.50882E+07         0.00000E+00
    0.00000E+00         0.00000E+00         0.00000E+00
 
    0.19604E+08        -0.27169E+04         0.00000E+00
   -0.27169E+04        -0.95906E+07         0.00000E+00
    0.00000E+00         0.00000E+00        -0.84822E+05
 
    0.18207E+08         0.24510E+06         0.00000E+00
    0.24510E+06        -0.96648E+07         0.00000E+00
    0.00000E+00         0.00000E+00         0.00000E+00
 
    0.17991E+08         0.15716E+06         0.00000E+00
    0.15716E+06        -0.96202E+07         0.00000E+00
    0.00000E+00         0.00000E+00         0.00000E+00
 
    0.17824E+08        -0.18569E+06         0.00000E+00
   -0.18569E+06        -0.95513E+07         0.00000E+00
    0.00000E+00         0.00000E+00         0.00000E+00
 
    0.17294E+08        -0.65108E+06         0.00000E+00
   -0.65108E+06        -0.95119E+07         0.00000E+00
    0.00000E+00         0.00000E+00         0.00000E+00
 
    0.16215E+08        -0.11531E+07         0.00000E+00
   -0.11531E+07        -0.93366E+07         0.00000E+00
    0.00000E+00         0.00000E+00         0.00000E+00
 
    0.14596E+08        -0.13841E+07         0.00000E+00
   -0.13841E+07        -0.90481E+07         0.00000E+00
    0.00000E+00         0.00000E+00         0.00000E+00
 
    0.12800E+08        -0.12132E+07         0.00000E+00
   -0.12132E+07        -0.88406E+07         0.00000E+00
    0.00000E+00         0.00000E+00         0.00000E+00
 
    0.11115E+08        -0.83180E+06         0.00000E+00
   -0.83180E+06        -0.87284E+07         0.00000E+00
    0.00000E+00         0.00000E+00         0.00000E+00
 
    0.95462E+07        -0.38331E+06         0.00000E+00
   -0.38331E+06        -0.86080E+07         0.00000E+00
    0.00000E+00         0.00000E+00         0.00000E+00
 
    0.80086E+07         0.10788E+06         0.00000E+00
    0.10788E+06        -0.84037E+07         0.00000E+00
    0.00000E+00         0.00000E+00         0.00000E+00
 
    0.64245E+07         0.66225E+06         0.00000E+00
    0.66225E+06        -0.80669E+07         0.00000E+00
    0.00000E+00         0.00000E+00         0.00000E+00
 
    0.47256E+07         0.13322E+07         0.00000E+00
    0.13322E+07        -0.75581E+07         0.00000E+00
    0.00000E+00         0.00000E+00         0.00000E+00
 
    0.28777E+07         0.22272E+07         0.00000E+00
    0.22272E+07        -0.68467E+07         0.00000E+00
    0.00000E+00         0.00000E+00         0.00000E+00
 
    0.95803E+06         0.35118E+07         0.00000E+00
    0.35118E+07        -0.59749E+07         0.00000E+00
    0.00000E+00         0.00000E+00         0.00000E+00
 
    0.18012E+08        -0.20474E+06         0.00000E+00
   -0.20474E+06        -0.10221E+08         0.00000E+00
    0.00000E+00         0.00000E+00         0.00000E+00
 
    0.16840E+08        -0.12884E+06         0.00000E+00
   -0.12884E+06        -0.10353E+08         0.00000E+00
    0.00000E+00         0.00000E+00         0.00000E+00
 
    0.16276E+08        -0.67244E+05         0.00000E+00
   -0.67244E+05        -0.10634E+08         0.00000E+00
    0.00000E+00         0.00000E+00         0.00000E+00
 
    0.15886E+08        -0.30089E+06         0.00000E+00
   -0.30089E+06        -0.10810E+08         0.00000E+00
    0.00000E+00         0.00000E+00         0.00000E+00
 
    0.15259E+08        -0.66988E+06         0.00000E+00
   -0.66988E+06        -0.10834E+08         0.00000E+00
    0.00000E+00         0.00000E+00         0.00000E+00
 
    0.14263E+08        -0.10128E+07         0.00000E+00
   -0.10128E+07        -0.10713E+08         0.00000E+00
    0.00000E+00         0.00000E+00         0.00000E+00
 
    0.12926E+08        -0.11798E+07         0.00000E+00
   -0.11798E+07        -0.10466E+08         0.00000E+00
    0.00000E+00         0.00000E+00         0.00000E+00
 
    0.11397E+08        -0.10798E+07         0.00000E+00
   -0.10798E+07        -0.10172E+08         0.00000E+00
    0.00000E+00         0.00000E+00         0.00000E+00
 
    0.98459E+07        -0.74605E+06         0.00000E+00
   -0.74605E+06        -0.98973E+07         0.00000E+00
    0.00000E+00         0.00000E+00         0.00000E+00
 
    0.83390E+07        -0.26279E+06         0.00000E+00
   -0.26279E+06        -0.96296E+07         0.00000E+00
    0.00000E+00         0.00000E+00         0.00000E+00
 
    0.68593E+07         0.32538E+06         0.00000E+00
    0.32538E+06        -0.93201E+07         0.00000E+00
    0.00000E+00         0.00000E+00         0.00000E+00
 
    0.53658E+07         0.10223E+07         0.00000E+00
    0.10223E+07        -0.89251E+07         0.00000E+00
    0.00000E+00         0.00000E+00         0.00000E+00
 
    0.38289E+07         0.18687E+07         0.00000E+00
    0.18687E+07        -0.84152E+07         0.00000E+00
    0.00000E+00         0.00000E+00         0.00000E+00
 
    0.22584E+07         0.29367E+07         0.00000E+00
    0.29367E+07        -0.77888E+07         0.00000E+00
    0.00000E+00         0.00000E+00         0.00000E+00
 
    0.73479E+06         0.43078E+07         0.00000E+00
    0.43078E+07        -0.70932E+07         0.00000E+00
    0.00000E+00         0.00000E+00         0.00000E+00
 
    0.16297E+08        -0.17264E+06         0.00000E+00
   -0.17264E+06        -0.11713E+08         0.00000E+00
    0.00000E+00         0.00000E+00         0.00000E+00
 
    0.15397E+08        -0.30706E+06         0.00000E+00
   -0.30706E+06        -0.11732E+08         0.00000E+00
    0.00000E+00         0.00000E+00         0.00000E+00
 
    0.14701E+08        -0.34264E+06         0.00000E+00
   -0.34264E+06        -0.11856E+08         0.00000E+00
    0.00000E+00         0.00000E+00         0.00000E+00
 
    0.14117E+08        -0.47414E+06         0.00000E+00
   -0.47414E+06        -0.12000E+08         0.00000E+00
    0.00000E+00         0.00000E+00         0.00000E+00
 
    0.13426E+08        -0.69835E+06         0.00000E+00
   -0.69835E+06        -0.12042E+08         0.00000E+00
    0.00000E+00         0.00000E+00         0.00000E+00
 
    0.12503E+08        -0.90192E+06         0.00000E+00
   -0.90192E+06        -0.11948E+08         0.00000E+00
    0.00000E+00         0.00000E+00         0.00000E+00
 
    0.11348E+08        -0.97497E+06         0.00000E+00
   -0.97497E+06        -0.11734E+08         0.00000E+00
    0.00000E+00         0.00000E+00         0.00000E+00
 
    0.10033E+08        -0.85181E+06         0.00000E+00
   -0.85181E+06        -0.11446E+08         0.00000E+00
    0.00000E+00         0.00000E+00         0.00000E+00
 
    0.86516E+07        -0.52475E+06         0.00000E+00
   -0.52475E+06        -0.11125E+08         0.00000E+00
    0.00000E+00         0.00000E+00         0.00000E+00
 
    0.72648E+07        -0.23260E+05         0.00000E+00
   -0.23260E+05        -0.10788E+08         0.00000E+00
    0.00000E+00         0.00000E+00         0.00000E+00
 
    0.58896E+07         0.62471E+06         0.00000E+00
    0.62471E+06        -0.10420E+08         0.00000E+00
    0.00000E+00         0.00000E+00         0.00000E+00
 
    0.45201E+07         0.14156E+07         0.00000E+00
    0.14156E+07        -0.99978E+07         0.00000E+00
    0.00000E+00         0.00000E+00         0.00000E+00
 
    0.31555E+07         0.23716E+07         0.00000E+00
    0.23716E+07        -0.95081E+07         0.00000E+00
    0.00000E+00         0.00000E+00         0.00000E+00
 
    0.18212E+07         0.35306E+07         0.00000E+00
    0.35306E+07        -0.89591E+07         0.00000E+00
    0.00000E+00         0.00000E+00         0.00000E+00
 
    0.58360E+06         0.49278E+07         0.00000E+00
    0.49278E+07        -0.83907E+07         0.00000E+00
    0.00000E+00         0.00000E+00         0.00000E+00
 
    0.14593E+08        -0.15934E+06         0.00000E+00
   -0.15934E+06        -0.13150E+08         0.00000E+00
    0.00000E+00         0.00000E+00         0.00000E+00
 
    0.13857E+08        -0.36536E+06         0.00000E+00
   -0.36536E+06        -0.13152E+08         0.00000E+00
    0.00000E+00         0.00000E+00         0.00000E+00
 
    0.13166E+08        -0.48116E+06         0.00000E+00
   -0.48116E+06        -0.13192E+08         0.00000E+00
    0.00000E+00         0.00000E+00         0.00000E+00
 
    0.12505E+08        -0.59025E+06         0.00000E+00
   -0.59025E+06        -0.13246E+08         0.00000E+00
    0.00000E+00         0.00000E+00         0.00000E+00
 
    0.11781E+08        -0.71305E+06         0.00000E+00
   -0.71305E+06        -0.13250E+08         0.00000E+00
    0.00000E+00         0.00000E+00         0.00000E+00
 
    0.10918E+08        -0.80017E+06         0.00000E+00
   -0.80017E+06        -0.13160E+08         0.00000E+00
    0.00000E+00         0.00000E+00         0.00000E+00
 
    0.98971E+07        -0.78127E+06         0.00000E+00
   -0.78127E+06        -0.12970E+08         0.00000E+00
    0.00000E+00         0.00000E+00         0.00000E+00
 
    0.87528E+07        -0.60488E+06         0.00000E+00
   -0.60488E+06        -0.12703E+08         0.00000E+00
    0.00000E+00         0.00000E+00         0.00000E+00
 
    0.75373E+07        -0.25101E+06         0.00000E+00
   -0.25101E+06        -0.12385E+08         0.00000E+00
    0.00000E+00         0.00000E+00         0.00000E+00
 
    0.62959E+07         0.27624E+06         0.00000E+00
    0.27624E+06        -0.12035E+08         0.00000E+00
    0.00000E+00         0.00000E+00         0.00000E+00
 
    0.50553E+07         0.96611E+06         0.00000E+00
    0.96611E+06        -0.11653E+08         0.00000E+00
    0.00000E+00         0.00000E+00         0.00000E+00
 
    0.38294E+07         0.18154E+07         0.00000E+00
    0.18154E+07        -0.11236E+08         0.00000E+00
    0.00000E+00         0.00000E+00         0.00000E+00
 
    0.26337E+07         0.28330E+07         0.00000E+00
    0.28330E+07        -0.10781E+08         0.00000E+00
    0.00000E+00         0.00000E+00         0.00000E+00
 
    0.14985E+07         0.40337E+07         0.00000E+00
    0.40337E+07        -0.10301E+08         0.00000E+00
    0.00000E+00         0.00000E+00         0.00000E+00
 
    0.47556E+06         0.54269E+07         0.00000E+00
    0.54269E+07        -0.98277E+07         0.00000E+00
    0.00000E+00         0.00000E+00         0.00000E+00
 
    0.12928E+08        -0.15282E+06         0.00000E+00
   -0.15282E+06        -0.14538E+08         0.00000E+00
    0.00000E+00         0.00000E+00         0.00000E+00
 
    0.12298E+08        -0.38093E+06         0.00000E+00
   -0.38093E+06        -0.14530E+08         0.00000E+00
    0.00000E+00         0.00000E+00         0.00000E+00
 
    0.11653E+08        -0.52830E+06         0.00000E+00
   -0.52830E+06        -0.14529E+08         0.00000E+00
    0.00000E+00         0.00000E+00         0.00000E+00
 
    0.10994E+08        -0.62826E+06         0.00000E+00
   -0.62826E+06        -0.14527E+08         0.00000E+00
    0.00000E+00         0.00000E+00         0.00000E+00
 
    0.10282E+08        -0.69133E+06         0.00000E+00
   -0.69133E+06        -0.14491E+08         0.00000E+00
    0.00000E+00         0.00000E+00         0.00000E+00
 
    0.94801E+07        -0.69458E+06         0.00000E+00
   -0.69458E+06        -0.14392E+08         0.00000E+00
    0.00000E+00         0.00000E+00         0.00000E+00
 
    0.85721E+07        -0.59720E+06         0.00000E+00
   -0.59720E+06        -0.14218E+08         0.00000E+00
    0.00000E+00         0.00000E+00         0.00000E+00
 
    0.75723E+07        -0.36222E+06         0.00000E+00
   -0.36222E+06        -0.13977E+08         0.00000E+00
    0.00000E+00         0.00000E+00         0.00000E+00
 
    0.65108E+07         0.31756E+05         0.00000E+00
    0.31756E+05        -0.13684E+08         0.00000E+00
    0.00000E+00         0.00000E+00         0.00000E+00
 
    0.54198E+07         0.59108E+06         0.00000E+00
    0.59108E+06        -0.13351E+08         0.00000E+00
    0.00000E+00         0.00000E+00         0.00000E+00
 
    0.43258E+07         0.13144E+07         0.00000E+00
    0.13144E+07        -0.12987E+08         0.00000E+00
    0.00000E+00         0.00000E+00         0.00000E+00
 
    0.32500E+07         0.22000E+07         0.00000E+00
    0.22000E+07        -0.12597E+08         0.00000E+00
    0.00000E+00         0.00000E+00         0.00000E+00
 
    0.22147E+07         0.32493E+07         0.00000E+00
    0.32493E+07        -0.12187E+08         0.00000E+00
    0.00000E+00         0.00000E+00         0.00000E+00
 
    0.12495E+07         0.44637E+07         0.00000E+00
    0.44637E+07        -0.11771E+08         0.00000E+00
    0.00000E+00         0.00000E+00         0.00000E+00
 
    0.39437E+06         0.58385E+07         0.00000E+00
    0.58385E+07        -0.11372E+08         0.00000E+00
    0.00000E+00         0.00000E+00         0.00000E+00
 
    0.11307E+08        -0.14502E+06         0.00000E+00
   -0.14502E+06        -0.15884E+08         0.00000E+00
    0.00000E+00         0.00000E+00         0.00000E+00
 
    0.10761E+08        -0.37296E+06         0.00000E+00
   -0.37296E+06        -0.15869E+08         0.00000E+00
    0.00000E+00         0.00000E+00         0.00000E+00
 
    0.10176E+08        -0.52555E+06         0.00000E+00
   -0.52555E+06        -0.15849E+08         0.00000E+00
    0.00000E+00         0.00000E+00         0.00000E+00
 
    0.95569E+07        -0.61302E+06         0.00000E+00
   -0.61302E+06        -0.15817E+08         0.00000E+00
    0.00000E+00         0.00000E+00         0.00000E+00
 
    0.88914E+07        -0.63630E+06         0.00000E+00
   -0.63630E+06        -0.15760E+08         0.00000E+00
    0.00000E+00         0.00000E+00         0.00000E+00
 
    0.81612E+07        -0.58090E+06         0.00000E+00
   -0.58090E+06        -0.15657E+08         0.00000E+00
    0.00000E+00         0.00000E+00         0.00000E+00
 
    0.73579E+07        -0.42183E+06         0.00000E+00
   -0.42183E+06        -0.15499E+08         0.00000E+00
    0.00000E+00         0.00000E+00         0.00000E+00
 
    0.64882E+07        -0.13361E+06         0.00000E+00
   -0.13361E+06        -0.15286E+08         0.00000E+00
    0.00000E+00         0.00000E+00         0.00000E+00
 
    0.55700E+07         0.30203E+06         0.00000E+00
    0.30203E+06        -0.15026E+08         0.00000E+00
    0.00000E+00         0.00000E+00         0.00000E+00
 
    0.46262E+07         0.89423E+06         0.00000E+00
    0.89423E+06        -0.14727E+08         0.00000E+00
    0.00000E+00         0.00000E+00         0.00000E+00
 
    0.36795E+07         0.16453E+07         0.00000E+00
    0.16453E+07        -0.14400E+08         0.00000E+00
    0.00000E+00         0.00000E+00         0.00000E+00
 
    0.27519E+07         0.25543E+07         0.00000E+00
    0.25543E+07        -0.14052E+08         0.00000E+00
    0.00000E+00         0.00000E+00         0.00000E+00
 
    0.18661E+07         0.36185E+07         0.00000E+00
    0.36185E+07        -0.13693E+08         0.00000E+00
    0.00000E+00         0.00000E+00         0.00000E+00
 
    0.10486E+07         0.48320E+07         0.00000E+00
    0.48320E+07        -0.13336E+08         0.00000E+00
    0.00000E+00         0.00000E+00         0.00000E+00
 
    0.33027E+06         0.61829E+07         0.00000E+00
    0.61829E+07        -0.12999E+08         0.00000E+00
    0.00000E+00         0.00000E+00         0.00000E+00
 
    0.97341E+07        -0.13446E+06         0.00000E+00
   -0.13446E+06        -0.17195E+08         0.00000E+00
    0.00000E+00         0.00000E+00         0.00000E+00
 
    0.92591E+07        -0.35144E+06         0.00000E+00
   -0.35144E+06        -0.17179E+08         0.00000E+00
    0.00000E+00         0.00000E+00         0.00000E+00
 
    0.87387E+07        -0.49693E+06         0.00000E+00
   -0.49693E+06        -0.17151E+08         0.00000E+00
    0.00000E+00         0.00000E+00         0.00000E+00
 
    0.81805E+07        -0.56902E+06         0.00000E+00
   -0.56902E+06        -0.17111E+08         0.00000E+00
    0.00000E+00         0.00000E+00         0.00000E+00
 
    0.75814E+07        -0.56218E+06         0.00000E+00
   -0.56218E+06        -0.17048E+08         0.00000E+00
    0.00000E+00         0.00000E+00         0.00000E+00
 
    0.69341E+07        -0.46424E+06         0.00000E+00
   -0.46424E+06        -0.16952E+08         0.00000E+00
    0.00000E+00         0.00000E+00         0.00000E+00
 
    0.62352E+07        -0.25789E+06         0.00000E+00
   -0.25789E+06        -0.16815E+08         0.00000E+00
    0.00000E+00         0.00000E+00         0.00000E+00
 
    0.54886E+07         0.74818E+05         0.00000E+00
    0.74818E+05        -0.16634E+08         0.00000E+00
    0.00000E+00         0.00000E+00         0.00000E+00
 
    0.47060E+07         0.54811E+06         0.00000E+00
    0.54811E+06        -0.16413E+08         0.00000E+00
    0.00000E+00         0.00000E+00         0.00000E+00
 
    0.39036E+07         0.11704E+07         0.00000E+00
    0.11704E+07        -0.16158E+08         0.00000E+00
    0.00000E+00         0.00000E+00         0.00000E+00
 
    0.30998E+07         0.19447E+07         0.00000E+00
    0.19447E+07        -0.15877E+08         0.00000E+00
    0.00000E+00         0.00000E+00         0.00000E+00
 
    0.23140E+07         0.28695E+07         0.00000E+00
    0.28695E+07        -0.15579E+08         0.00000E+00
    0.00000E+00         0.00000E+00         0.00000E+00
 
    0.15667E+07         0.39397E+07         0.00000E+00
    0.39397E+07        -0.15273E+08         0.00000E+00
    0.00000E+00         0.00000E+00         0.00000E+00
 
    0.87991E+06         0.51460E+07         0.00000E+00
    0.51460E+07        -0.14972E+08         0.00000E+00
    0.00000E+00         0.00000E+00         0.00000E+00
 
    0.27729E+06         0.64730E+07         0.00000E+00
    0.64730E+07        -0.14690E+08         0.00000E+00
    0.00000E+00         0.00000E+00         0.00000E+00
 
    0.82073E+07        -0.12266E+06         0.00000E+00
   -0.12266E+06        -0.18481E+08         0.00000E+00
    0.00000E+00         0.00000E+00         0.00000E+00
 
    0.77952E+07        -0.32433E+06         0.00000E+00
   -0.32433E+06        -0.18466E+08         0.00000E+00
    0.00000E+00         0.00000E+00         0.00000E+00
 
    0.73412E+07        -0.45815E+06         0.00000E+00
   -0.45815E+06        -0.18442E+08         0.00000E+00
    0.00000E+00         0.00000E+00         0.00000E+00
 
    0.68536E+07        -0.51450E+06         0.00000E+00
   -0.51450E+06        -0.18406E+08         0.00000E+00
    0.00000E+00         0.00000E+00         0.00000E+00
 
    0.63331E+07        -0.48359E+06         0.00000E+00
   -0.48359E+06        -0.18353E+08         0.00000E+00
    0.00000E+00         0.00000E+00         0.00000E+00
 
    0.57773E+07        -0.35357E+06         0.00000E+00
   -0.35357E+06        -0.18275E+08         0.00000E+00
    0.00000E+00         0.00000E+00         0.00000E+00
 
    0.51848E+07        -0.11091E+06         0.00000E+00
   -0.11091E+06        -0.18165E+08         0.00000E+00
    0.00000E+00         0.00000E+00         0.00000E+00
 
    0.45587E+07         0.25766E+06         0.00000E+00
    0.25766E+06        -0.18021E+08         0.00000E+00
    0.00000E+00         0.00000E+00         0.00000E+00
 
    0.39064E+07         0.76282E+06         0.00000E+00
    0.76282E+06        -0.17843E+08         0.00000E+00
    0.00000E+00         0.00000E+00         0.00000E+00
 
    0.32398E+07         0.14111E+07         0.00000E+00
    0.14111E+07        -0.17637E+08         0.00000E+00
    0.00000E+00         0.00000E+00         0.00000E+00
 
    0.25728E+07         0.22046E+07         0.00000E+00
    0.22046E+07        -0.17407E+08         0.00000E+00
    0.00000E+00         0.00000E+00         0.00000E+00
 
    0.19213E+07         0.31409E+07         0.00000E+00
    0.31409E+07        -0.17162E+08         0.00000E+00
    0.00000E+00         0.00000E+00         0.00000E+00
 
    0.13022E+07         0.42134E+07         0.00000E+00
    0.42134E+07        -0.16911E+08         0.00000E+00
    0.00000E+00         0.00000E+00         0.00000E+00
 
    0.73311E+06         0.54109E+07         0.00000E+00
    0.54109E+07        -0.16662E+08         0.00000E+00
    0.00000E+00         0.00000E+00         0.00000E+00
 
    0.23165E+06         0.67170E+07         0.00000E+00
    0.67170E+07        -0.16428E+08         0.00000E+00
    0.00000E+00         0.00000E+00         0.00000E+00
 
    0.67195E+07        -0.11184E+06         0.00000E+00
   -0.11184E+06        -0.19748E+08         0.00000E+00
    0.00000E+00         0.00000E+00         0.00000E+00
 
    0.63631E+07        -0.29857E+06         0.00000E+00
   -0.29857E+06        -0.19740E+08         0.00000E+00
    0.00000E+00         0.00000E+00         0.00000E+00
 
    0.59761E+07        -0.42061E+06         0.00000E+00
   -0.42061E+06        -0.19727E+08         0.00000E+00
    0.00000E+00         0.00000E+00         0.00000E+00
 
    0.55650E+07        -0.46294E+06         0.00000E+00
   -0.46294E+06        -0.19706E+08         0.00000E+00
    0.00000E+00         0.00000E+00         0.00000E+00
 
    0.51310E+07        -0.41279E+06         0.00000E+00
   -0.41279E+06        -0.19673E+08         0.00000E+00
    0.00000E+00         0.00000E+00         0.00000E+00
 
    0.46728E+07        -0.25810E+06         0.00000E+00
   -0.25810E+06        -0.19621E+08         0.00000E+00
    0.00000E+00         0.00000E+00         0.00000E+00
 
    0.41897E+07         0.12685E+05         0.00000E+00
    0.12685E+05        -0.19545E+08         0.00000E+00
    0.00000E+00         0.00000E+00         0.00000E+00
 
    0.36832E+07         0.40985E+06         0.00000E+00
    0.40985E+06        -0.19442E+08         0.00000E+00
    0.00000E+00         0.00000E+00         0.00000E+00
 
    0.31581E+07         0.94129E+06         0.00000E+00
    0.94129E+06        -0.19312E+08         0.00000E+00
    0.00000E+00         0.00000E+00         0.00000E+00
 
    0.26224E+07         0.16115E+07         0.00000E+00
    0.16115E+07        -0.19156E+08         0.00000E+00
    0.00000E+00         0.00000E+00         0.00000E+00
 
    0.20864E+07         0.24210E+07         0.00000E+00
    0.24210E+07        -0.18981E+08         0.00000E+00
    0.00000E+00         0.00000E+00         0.00000E+00
 
    0.15621E+07         0.33665E+07         0.00000E+00
    0.33665E+07        -0.18790E+08         0.00000E+00
    0.00000E+00         0.00000E+00         0.00000E+00
 
    0.10627E+07         0.44403E+07         0.00000E+00
    0.44403E+07        -0.18592E+08         0.00000E+00
    0.00000E+00         0.00000E+00         0.00000E+00
 
    0.60131E+06         0.56303E+07         0.00000E+00
    0.56303E+07        -0.18394E+08         0.00000E+00
    0.00000E+00         0.00000E+00         0.00000E+00
 
    0.19092E+06         0.69201E+07         0.00000E+00
    0.69201E+07        -0.18204E+08         0.00000E+00
    0.00000E+00         0.00000E+00         0.00000E+00
 
    0.52590E+07        -0.10408E+06         0.00000E+00
   -0.10408E+06        -0.21005E+08         0.00000E+00
    0.00000E+00         0.00000E+00         0.00000E+00
 
    0.49531E+07        -0.27991E+06         0.00000E+00
   -0.27991E+06        -0.21007E+08         0.00000E+00
    0.00000E+00         0.00000E+00         0.00000E+00
 
    0.46334E+07        -0.39294E+06         0.00000E+00
   -0.39294E+06        -0.21011E+08         0.00000E+00
    0.00000E+00         0.00000E+00         0.00000E+00
 
    0.43029E+07        -0.42439E+06         0.00000E+00
   -0.42439E+06        -0.21012E+08         0.00000E+00
    0.00000E+00         0.00000E+00         0.00000E+00
 
    0.39610E+07        -0.35943E+06         0.00000E+00
   -0.35943E+06        -0.21007E+08         0.00000E+00
    0.00000E+00         0.00000E+00         0.00000E+00
 
    0.36054E+07        -0.18575E+06         0.00000E+00
   -0.18575E+06        -0.20989E+08         0.00000E+00
    0.00000E+00         0.00000E+00         0.00000E+00
 
    0.32345E+07         0.10697E+06         0.00000E+00
    0.10697E+06        -0.20952E+08         0.00000E+00
    0.00000E+00         0.00000E+00         0.00000E+00
 
    0.28480E+07         0.52700E+06         0.00000E+00
    0.52700E+06        -0.20894E+08         0.00000E+00
    0.00000E+00         0.00000E+00         0.00000E+00
 
    0.24482E+07         0.10800E+07         0.00000E+00
    0.10800E+07        -0.20813E+08         0.00000E+00
    0.00000E+00         0.00000E+00         0.00000E+00
 
    0.20399E+07         0.17687E+07         0.00000E+00
    0.17687E+07        -0.20711E+08         0.00000E+00
    0.00000E+00         0.00000E+00         0.00000E+00
 
    0.16301E+07         0.25922E+07         0.00000E+00
    0.25922E+07        -0.20589E+08         0.00000E+00
    0.00000E+00         0.00000E+00         0.00000E+00
 
    0.12272E+07         0.35460E+07         0.00000E+00
    0.35460E+07        -0.20453E+08         0.00000E+00
    0.00000E+00         0.00000E+00         0.00000E+00
 
    0.84052E+06         0.46217E+07         0.00000E+00
    0.46217E+07        -0.20307E+08         0.00000E+00
    0.00000E+00         0.00000E+00         0.00000E+00
 
    0.47966E+06         0.58071E+07         0.00000E+00
    0.58071E+07        -0.20157E+08         0.00000E+00
    0.00000E+00         0.00000E+00         0.00000E+00
 
    0.15343E+06         0.70861E+07         0.00000E+00
    0.70861E+07        -0.20009E+08         0.00000E+00
    0.00000E+00         0.00000E+00         0.00000E+00
 
    0.38104E+07        -0.10103E+06         0.00000E+00
   -0.10103E+06        -0.22261E+08         0.00000E+00
    0.00000E+00         0.00000E+00         0.00000E+00
 
    0.35523E+07        -0.27277E+06         0.00000E+00
   -0.27277E+06        -0.22275E+08         0.00000E+00
    0.00000E+00         0.00000E+00         0.00000E+00
 
    0.33011E+07        -0.38159E+06         0.00000E+00
   -0.38159E+06        -0.22299E+08         0.00000E+00
    0.00000E+00         0.00000E+00         0.00000E+00
 
    0.30550E+07        -0.40629E+06         0.00000E+00
   -0.40629E+06        -0.22329E+08         0.00000E+00
    0.00000E+00         0.00000E+00         0.00000E+00
 
    0.28100E+07        -0.33079E+06         0.00000E+00
   -0.33079E+06        -0.22357E+08         0.00000E+00
    0.00000E+00         0.00000E+00         0.00000E+00
 
    0.25615E+07        -0.14277E+06         0.00000E+00
   -0.14277E+06        -0.22377E+08         0.00000E+00
    0.00000E+00         0.00000E+00         0.00000E+00
 
    0.23057E+07         0.16714E+06         0.00000E+00
    0.16714E+06        -0.22384E+08         0.00000E+00
    0.00000E+00         0.00000E+00         0.00000E+00
 
    0.20404E+07         0.60565E+06         0.00000E+00
    0.60565E+06        -0.22373E+08         0.00000E+00
    0.00000E+00         0.00000E+00         0.00000E+00
 
    0.17651E+07         0.11767E+07         0.00000E+00
    0.11767E+07        -0.22344E+08         0.00000E+00
    0.00000E+00         0.00000E+00         0.00000E+00
 
    0.14820E+07         0.18814E+07         0.00000E+00
    0.18814E+07        -0.22294E+08         0.00000E+00
    0.00000E+00         0.00000E+00         0.00000E+00
 
    0.11948E+07         0.27175E+07         0.00000E+00
    0.27175E+07        -0.22227E+08         0.00000E+00
    0.00000E+00         0.00000E+00         0.00000E+00
 
    0.90871E+06         0.36796E+07         0.00000E+00
    0.36796E+07        -0.22143E+08         0.00000E+00
    0.00000E+00         0.00000E+00         0.00000E+00
 
    0.62990E+06         0.47590E+07         0.00000E+00
    0.47590E+07        -0.22048E+08         0.00000E+00
    0.00000E+00         0.00000E+00         0.00000E+00
 
    0.36449E+06         0.59434E+07         0.00000E+00
    0.59434E+07        -0.21944E+08         0.00000E+00
    0.00000E+00         0.00000E+00         0.00000E+00
 
    0.11794E+06         0.72171E+07         0.00000E+00
    0.72171E+07        -0.21835E+08         0.00000E+00
    0.00000E+00         0.00000E+00         0.00000E+00
 
    0.23557E+07        -0.10387E+06         0.00000E+00
   -0.10387E+06        -0.23523E+08         0.00000E+00
    0.00000E+00         0.00000E+00         0.00000E+00
 
    0.21458E+07        -0.28036E+06         0.00000E+00
   -0.28036E+06        -0.23551E+08         0.00000E+00
    0.00000E+00         0.00000E+00         0.00000E+00
 
    0.19662E+07        -0.39117E+06         0.00000E+00
   -0.39117E+06        -0.23599E+08         0.00000E+00
    0.00000E+00         0.00000E+00         0.00000E+00
 
    0.18089E+07        -0.41389E+06         0.00000E+00
   -0.41389E+06        -0.23660E+08         0.00000E+00
    0.00000E+00         0.00000E+00         0.00000E+00
 
    0.16657E+07        -0.33202E+06         0.00000E+00
   -0.33202E+06        -0.23724E+08         0.00000E+00
    0.00000E+00         0.00000E+00         0.00000E+00
 
    0.15287E+07        -0.13359E+06         0.00000E+00
   -0.13359E+06        -0.23786E+08         0.00000E+00
    0.00000E+00         0.00000E+00         0.00000E+00
 
    0.13914E+07         0.18980E+06         0.00000E+00
    0.18980E+06        -0.23838E+08         0.00000E+00
    0.00000E+00         0.00000E+00         0.00000E+00
 
    0.12489E+07         0.64347E+06         0.00000E+00
    0.64347E+06        -0.23876E+08         0.00000E+00
    0.00000E+00         0.00000E+00         0.00000E+00
 
    0.10985E+07         0.12299E+07         0.00000E+00
    0.12299E+07        -0.23897E+08         0.00000E+00
    0.00000E+00         0.00000E+00         0.00000E+00
 
    0.93925E+06         0.19488E+07         0.00000E+00
    0.19488E+07        -0.23901E+08         0.00000E+00
    0.00000E+00         0.00000E+00         0.00000E+00
 
    0.77237E+06         0.27969E+07         0.00000E+00
    0.27969E+07        -0.23886E+08         0.00000E+00
    0.00000E+00         0.00000E+00         0.00000E+00
 
    0.60020E+06         0.37681E+07         0.00000E+00
    0.37681E+07        -0.23854E+08         0.00000E+00
    0.00000E+00         0.00000E+00         0.00000E+00
 
    0.42593E+06         0.48533E+07         0.00000E+00
    0.48533E+07        -0.23808E+08         0.00000E+00
    0.00000E+00         0.00000E+00         0.00000E+00
 
    0.25282E+06         0.60404E+07         0.00000E+00
    0.60404E+07        -0.23749E+08         0.00000E+00
    0.00000E+00         0.00000E+00         0.00000E+00
 
    0.83469E+05         0.73145E+07         0.00000E+00
    0.73145E+07        -0.23678E+08         0.00000E+00
    0.00000E+00         0.00000E+00         0.00000E+00
 
    0.87542E+06        -0.11339E+06         0.00000E+00
   -0.11339E+06        -0.24800E+08         0.00000E+00
    0.00000E+00         0.00000E+00         0.00000E+00
 
    0.71795E+06        -0.30476E+06         0.00000E+00
   -0.30476E+06        -0.24842E+08         0.00000E+00
    0.00000E+00         0.00000E+00         0.00000E+00
 
    0.61511E+06        -0.42463E+06         0.00000E+00
   -0.42463E+06        -0.24915E+08         0.00000E+00
    0.00000E+00         0.00000E+00         0.00000E+00
 
    0.55246E+06        -0.45050E+06         0.00000E+00
   -0.45050E+06        -0.25008E+08         0.00000E+00
    0.00000E+00         0.00000E+00         0.00000E+00
 
    0.51671E+06        -0.36628E+06         0.00000E+00
   -0.36628E+06        -0.25111E+08         0.00000E+00
    0.00000E+00         0.00000E+00         0.00000E+00
 
    0.49612E+06        -0.16083E+06         0.00000E+00
   -0.16083E+06        -0.25215E+08         0.00000E+00
    0.00000E+00         0.00000E+00         0.00000E+00
 
    0.48096E+06         0.17306E+06         0.00000E+00
    0.17306E+06        -0.25313E+08         0.00000E+00
    0.00000E+00         0.00000E+00         0.00000E+00
 
    0.46368E+06         0.63937E+06         0.00000E+00
    0.63937E+06        -0.25399E+08         0.00000E+00
    0.00000E+00         0.00000E+00         0.00000E+00
 
    0.43896E+06         0.12393E+07         0.00000E+00
    0.12393E+07        -0.25471E+08         0.00000E+00
    0.00000E+00         0.00000E+00         0.00000E+00
 
    0.40353E+06         0.19713E+07         0.00000E+00
    0.19713E+07        -0.25525E+08         0.00000E+00
    0.00000E+00         0.00000E+00         0.00000E+00
 
    0.35589E+06         0.28313E+07         0.00000E+00
    0.28313E+07        -0.25561E+08         0.00000E+00
    0.00000E+00         0.00000E+00         0.00000E+00
 
    0.29594E+06         0.38125E+07         0.00000E+00
    0.38125E+07        -0.25580E+08         0.00000E+00
    0.00000E+00         0.00000E+00         0.00000E+00
 
    0.22438E+06         0.49057E+07         0.00000E+00
    0.49057E+07        -0.25581E+08         0.00000E+00
    0.00000E+00         0.00000E+00         0.00000E+00
 
    0.14206E+06         0.60992E+07         0.00000E+00
    0.60992E+07        -0.25565E+08         0.00000E+00
    0.00000E+00         0.00000E+00         0.00000E+00
 
    0.49151E+05         0.73788E+07         0.00000E+00
    0.73788E+07        -0.25531E+08         0.00000E+00
    0.00000E+00         0.00000E+00         0.00000E+00
 
   -0.65031E+06        -0.12997E+06         0.00000E+00
   -0.12997E+06        -0.26098E+08         0.00000E+00
    0.00000E+00         0.00000E+00         0.00000E+00
 
   -0.74743E+06        -0.34707E+06         0.00000E+00
   -0.34707E+06        -0.26154E+08         0.00000E+00
    0.00000E+00         0.00000E+00         0.00000E+00
 
   -0.76552E+06        -0.48346E+06         0.00000E+00
   -0.48346E+06        -0.26253E+08         0.00000E+00
    0.00000E+00         0.00000E+00         0.00000E+00
 
   -0.72600E+06        -0.51768E+06         0.00000E+00
   -0.51768E+06        -0.26378E+08         0.00000E+00
    0.00000E+00         0.00000E+00         0.00000E+00
 
   -0.64760E+06        -0.43486E+06         0.00000E+00
   -0.43486E+06        -0.26519E+08         0.00000E+00
    0.00000E+00         0.00000E+00         0.00000E+00
 
   -0.54629E+06        -0.22531E+06         0.00000E+00
   -0.22531E+06        -0.26664E+08         0.00000E+00
    0.00000E+00         0.00000E+00         0.00000E+00
 
   -0.43510E+06         0.11665E+06         0.00000E+00
    0.11665E+06        -0.26806E+08         0.00000E+00
    0.00000E+00         0.00000E+00         0.00000E+00
 
   -0.32428E+06         0.59359E+06         0.00000E+00
    0.59359E+06        -0.26939E+08         0.00000E+00
    0.00000E+00         0.00000E+00         0.00000E+00
 
   -0.22157E+06         0.12054E+07         0.00000E+00
    0.12054E+07        -0.27058E+08         0.00000E+00
    0.00000E+00         0.00000E+00         0.00000E+00
 
   -0.13254E+06         0.19497E+07         0.00000E+00
    0.19497E+07        -0.27161E+08         0.00000E+00
    0.00000E+00         0.00000E+00         0.00000E+00
 
   -0.60972E+05         0.28215E+07         0.00000E+00
    0.28215E+07        -0.27247E+08         0.00000E+00
    0.00000E+00         0.00000E+00         0.00000E+00
 
   -0.92189E+04         0.38137E+07         0.00000E+00
    0.38137E+07        -0.27313E+08         0.00000E+00
    0.00000E+00         0.00000E+00         0.00000E+00
 
    0.21387E+05         0.49169E+07         0.00000E+00
    0.49169E+07        -0.27360E+08         0.00000E+00
    0.00000E+00         0.00000E+00         0.00000E+00
 
    0.29791E+05         0.61200E+07         0.00000E+00
    0.61200E+07        -0.27386E+08         0.00000E+00
    0.00000E+00         0.00000E+00         0.00000E+00
 
    0.14149E+05         0.74098E+07         0.00000E+00
    0.74098E+07        -0.27389E+08         0.00000E+00
    0.00000E+00         0.00000E+00         0.00000E+00
 
   -0.22412E+07        -0.15371E+06         0.00000E+00
   -0.15371E+06        -0.27424E+08         0.00000E+00
    0.00000E+00         0.00000E+00         0.00000E+00
 
   -0.22659E+07        -0.40747E+06         0.00000E+00
   -0.40747E+06        -0.27494E+08         0.00000E+00
    0.00000E+00         0.00000E+00         0.00000E+00
 
   -0.21884E+07        -0.56781E+06         0.00000E+00
   -0.56781E+06        -0.27616E+08         0.00000E+00
    0.00000E+00         0.00000E+00         0.00000E+00
 
   -0.20372E+07        -0.61529E+06         0.00000E+00
   -0.61529E+06        -0.27773E+08         0.00000E+00
    0.00000E+00         0.00000E+00         0.00000E+00
 
   -0.18368E+07        -0.53721E+06         0.00000E+00
   -0.53721E+06        -0.27949E+08         0.00000E+00
    0.00000E+00         0.00000E+00         0.00000E+00
 
   -0.16073E+07        -0.32602E+06         0.00000E+00
   -0.32602E+06        -0.28133E+08         0.00000E+00
    0.00000E+00         0.00000E+00         0.00000E+00
 
   -0.13651E+07         0.22005E+05         0.00000E+00
    0.22005E+05        -0.28315E+08         0.00000E+00
    0.00000E+00         0.00000E+00         0.00000E+00
 
   -0.11230E+07         0.50776E+06         0.00000E+00
    0.50776E+06        -0.28491E+08         0.00000E+00
    0.00000E+00         0.00000E+00         0.00000E+00
 
   -0.89065E+06         0.11300E+07         0.00000E+00
    0.11300E+07        -0.28655E+08         0.00000E+00
    0.00000E+00         0.00000E+00         0.00000E+00
 
   -0.67570E+06         0.18854E+07         0.00000E+00
    0.18854E+07        -0.28803E+08         0.00000E+00
    0.00000E+00         0.00000E+00         0.00000E+00
 
   -0.48403E+06         0.27688E+07         0.00000E+00
    0.27688E+07        -0.28935E+08         0.00000E+00
    0.00000E+00         0.00000E+00         0.00000E+00
 
   -0.32004E+06         0.37727E+07         0.00000E+00
    0.37727E+07        -0.29047E+08         0.00000E+00
    0.00000E+00         0.00000E+00         0.00000E+00
 
   -0.18679E+06         0.48876E+07         0.00000E+00
    0.48876E+07        -0.29138E+08         0.00000E+00
    0.00000E+00         0.00000E+00         0.00000E+00
 
   -0.86539E+05         0.61027E+07         0.00000E+00
    0.61027E+07        -0.29205E+08         0.00000E+00
    0.00000E+00         0.00000E+00         0.00000E+00
 
   -0.22467E+05         0.74065E+07         0.00000E+00
    0.74065E+07        -0.29247E+08         0.00000E+00
    0.00000E+00         0.00000E+00         0.00000E+00
 
   -0.39162E+07        -0.18442E+06         0.00000E+00
   -0.18442E+06        -0.28783E+08         0.00000E+00
    0.00000E+00         0.00000E+00         0.00000E+00
 
   -0.38523E+07        -0.48539E+06         0.00000E+00
   -0.48539E+06        -0.28866E+08         0.00000E+00
    0.00000E+00         0.00000E+00         0.00000E+00
 
   -0.36651E+07        -0.67653E+06         0.00000E+00
   -0.67653E+06        -0.29011E+08         0.00000E+00
    0.00000E+00         0.00000E+00         0.00000E+00
 
   -0.33906E+07        -0.74154E+06         0.00000E+00
   -0.74154E+06        -0.29195E+08         0.00000E+00
    0.00000E+00         0.00000E+00         0.00000E+00
 
   -0.30590E+07        -0.67086E+06         0.00000E+00
   -0.67086E+06        -0.29402E+08         0.00000E+00
    0.00000E+00         0.00000E+00         0.00000E+00
 
   -0.26946E+07        -0.45992E+06         0.00000E+00
   -0.45992E+06        -0.29620E+08         0.00000E+00
    0.00000E+00         0.00000E+00         0.00000E+00
 
   -0.23167E+07        -0.10755E+06         0.00000E+00
   -0.10755E+06        -0.29838E+08         0.00000E+00
    0.00000E+00         0.00000E+00         0.00000E+00
 
   -0.19398E+07         0.38518E+06         0.00000E+00
    0.38518E+06        -0.30050E+08         0.00000E+00
    0.00000E+00         0.00000E+00         0.00000E+00
 
   -0.15755E+07         0.10158E+07         0.00000E+00
    0.10158E+07        -0.30253E+08         0.00000E+00
    0.00000E+00         0.00000E+00         0.00000E+00
 
   -0.12326E+07         0.17806E+07         0.00000E+00
    0.17806E+07        -0.30443E+08         0.00000E+00
    0.00000E+00         0.00000E+00         0.00000E+00
 
   -0.91895E+06         0.26745E+07         0.00000E+00
    0.26745E+07        -0.30618E+08         0.00000E+00
    0.00000E+00         0.00000E+00         0.00000E+00
 
   -0.64113E+06         0.36901E+07         0.00000E+00
    0.36901E+07        -0.30774E+08         0.00000E+00
    0.00000E+00         0.00000E+00         0.00000E+00
 
   -0.40393E+06         0.48177E+07         0.00000E+00
    0.48177E+07        -0.30908E+08         0.00000E+00
    0.00000E+00         0.00000E+00         0.00000E+00
 
   -0.20987E+06         0.60464E+07         0.00000E+00
    0.60464E+07        -0.31017E+08         0.00000E+00
    0.00000E+00         0.00000E+00         0.00000E+00
 
   -0.61909E+05         0.73666E+07         0.00000E+00
    0.73666E+07        -0.31099E+08         0.00000E+00
    0.00000E+00         0.00000E+00         0.00000E+00
 
   -0.56925E+07        -0.22167E+06         0.00000E+00
   -0.22167E+06        -0.30181E+08         0.00000E+00
    0.00000E+00         0.00000E+00         0.00000E+00
 
   -0.55194E+07        -0.57947E+06         0.00000E+00
   -0.57947E+06        -0.30276E+08         0.00000E+00
    0.00000E+00         0.00000E+00         0.00000E+00
 
   -0.52054E+07        -0.80723E+06         0.00000E+00
   -0.80723E+06        -0.30439E+08         0.00000E+00
    0.00000E+00         0.00000E+00         0.00000E+00
 
   -0.47940E+07        -0.89294E+06         0.00000E+00
   -0.89294E+06        -0.30647E+08         0.00000E+00
    0.00000E+00         0.00000E+00         0.00000E+00
 
   -0.43209E+07        -0.83132E+06         0.00000E+00
   -0.83132E+06        -0.30879E+08         0.00000E+00
    0.00000E+00         0.00000E+00         0.00000E+00
 
   -0.38146E+07        -0.62179E+06         0.00000E+00
   -0.62179E+06        -0.31122E+08         0.00000E+00
    0.00000E+00         0.00000E+00         0.00000E+00
 
   -0.32963E+07        -0.26650E+06         0.00000E+00
   -0.26650E+06        -0.31368E+08         0.00000E+00
    0.00000E+00         0.00000E+00         0.00000E+00
 
   -0.27819E+07         0.23111E+06         0.00000E+00
    0.23111E+06        -0.31609E+08         0.00000E+00
    0.00000E+00         0.00000E+00         0.00000E+00
 
   -0.22834E+07         0.86732E+06         0.00000E+00
    0.86732E+06        -0.31844E+08         0.00000E+00
    0.00000E+00         0.00000E+00         0.00000E+00
 
   -0.18104E+07         0.16383E+07         0.00000E+00
    0.16383E+07        -0.32070E+08         0.00000E+00
    0.00000E+00         0.00000E+00         0.00000E+00
 
   -0.13720E+07         0.25398E+07         0.00000E+00
    0.25398E+07        -0.32285E+08         0.00000E+00
    0.00000E+00         0.00000E+00         0.00000E+00
 
   -0.97713E+06         0.35659E+07         0.00000E+00
    0.35659E+07        -0.32484E+08         0.00000E+00
    0.00000E+00         0.00000E+00         0.00000E+00
 
   -0.63380E+06         0.47067E+07         0.00000E+00
    0.47067E+07        -0.32661E+08         0.00000E+00
    0.00000E+00         0.00000E+00         0.00000E+00
 
   -0.34403E+06         0.59494E+07         0.00000E+00
    0.59494E+07        -0.32814E+08         0.00000E+00
    0.00000E+00         0.00000E+00         0.00000E+00
 
   -0.10612E+06         0.72861E+07         0.00000E+00
    0.72861E+07        -0.32939E+08         0.00000E+00
    0.00000E+00         0.00000E+00         0.00000E+00
 
   -0.75856E+07        -0.26486E+06         0.00000E+00
   -0.26486E+06        -0.31622E+08         0.00000E+00
    0.00000E+00         0.00000E+00         0.00000E+00
 
   -0.72785E+07        -0.68767E+06         0.00000E+00
   -0.68767E+06        -0.31726E+08         0.00000E+00
    0.00000E+00         0.00000E+00         0.00000E+00
 
   -0.68171E+07        -0.95626E+06         0.00000E+00
   -0.95626E+06        -0.31904E+08         0.00000E+00
    0.00000E+00         0.00000E+00         0.00000E+00
 
   -0.62530E+07        -0.10642E+07         0.00000E+00
   -0.10642E+07        -0.32129E+08         0.00000E+00
    0.00000E+00         0.00000E+00         0.00000E+00
 
   -0.56275E+07        -0.10118E+07         0.00000E+00
   -0.10118E+07        -0.32378E+08         0.00000E+00
    0.00000E+00         0.00000E+00         0.00000E+00
 
   -0.49722E+07        -0.80388E+06         0.00000E+00
   -0.80388E+06        -0.32637E+08         0.00000E+00
    0.00000E+00         0.00000E+00         0.00000E+00
 
   -0.43098E+07        -0.44674E+06         0.00000E+00
   -0.44674E+06        -0.32899E+08         0.00000E+00
    0.00000E+00         0.00000E+00         0.00000E+00
 
   -0.36562E+07         0.53240E+05         0.00000E+00
    0.53240E+05        -0.33160E+08         0.00000E+00
    0.00000E+00         0.00000E+00         0.00000E+00
 
   -0.30224E+07         0.69096E+06         0.00000E+00
    0.69096E+06        -0.33417E+08         0.00000E+00
    0.00000E+00         0.00000E+00         0.00000E+00
 
   -0.24176E+07         0.14629E+07         0.00000E+00
    0.14629E+07        -0.33671E+08         0.00000E+00
    0.00000E+00         0.00000E+00         0.00000E+00
 
   -0.18512E+07         0.23663E+07         0.00000E+00
    0.23663E+07        -0.33920E+08         0.00000E+00
    0.00000E+00         0.00000E+00         0.00000E+00
 
   -0.13341E+07         0.33975E+07         0.00000E+00
    0.33975E+07        -0.34161E+08         0.00000E+00
    0.00000E+00         0.00000E+00         0.00000E+00
 
   -0.87973E+06         0.45504E+07         0.00000E+00
    0.45504E+07        -0.34387E+08         0.00000E+00
    0.00000E+00         0.00000E+00         0.00000E+00
 
   -0.49412E+06         0.58084E+07         0.00000E+00
    0.58084E+07        -0.34589E+08         0.00000E+00
    0.00000E+00         0.00000E+00         0.00000E+00
 
   -0.15904E+06         0.71571E+07         0.00000E+00
    0.71571E+07        -0.34764E+08         0.00000E+00
    0.00000E+00         0.00000E+00         0.00000E+00
 
   -0.96086E+07        -0.31316E+06         0.00000E+00
   -0.31316E+06        -0.33109E+08         0.00000E+00
    0.00000E+00         0.00000E+00         0.00000E+00
 
   -0.91376E+07        -0.80724E+06         0.00000E+00
   -0.80724E+06        -0.33220E+08         0.00000E+00
    0.00000E+00         0.00000E+00         0.00000E+00
 
   -0.85050E+07        -0.11186E+07         0.00000E+00
   -0.11186E+07        -0.33408E+08         0.00000E+00
    0.00000E+00         0.00000E+00         0.00000E+00
 
   -0.77706E+07        -0.12479E+07         0.00000E+00
   -0.12479E+07        -0.33641E+08         0.00000E+00
    0.00000E+00         0.00000E+00         0.00000E+00
 
   -0.69812E+07        -0.12031E+07         0.00000E+00
   -0.12031E+07        -0.33896E+08         0.00000E+00
    0.00000E+00         0.00000E+00         0.00000E+00
 
   -0.61709E+07        -0.99564E+06         0.00000E+00
   -0.99564E+06        -0.34159E+08         0.00000E+00
    0.00000E+00         0.00000E+00         0.00000E+00
 
   -0.53624E+07        -0.63724E+06         0.00000E+00
   -0.63724E+06        -0.34424E+08         0.00000E+00
    0.00000E+00         0.00000E+00         0.00000E+00
 
   -0.45697E+07        -0.13780E+06         0.00000E+00
   -0.13780E+06        -0.34689E+08         0.00000E+00
    0.00000E+00         0.00000E+00         0.00000E+00
 
   -0.38016E+07         0.49595E+06         0.00000E+00
    0.49595E+06        -0.34956E+08         0.00000E+00
    0.00000E+00         0.00000E+00         0.00000E+00
 
   -0.30647E+07         0.12609E+07         0.00000E+00
    0.12609E+07        -0.35227E+08         0.00000E+00
    0.00000E+00         0.00000E+00         0.00000E+00
 
   -0.23673E+07         0.21570E+07         0.00000E+00
    0.21570E+07        -0.35503E+08         0.00000E+00
    0.00000E+00         0.00000E+00         0.00000E+00
 
   -0.17228E+07         0.31842E+07         0.00000E+00
    0.31842E+07        -0.35782E+08         0.00000E+00
    0.00000E+00         0.00000E+00         0.00000E+00
 
   -0.11470E+07         0.43379E+07         0.00000E+00
    0.43379E+07        -0.36058E+08         0.00000E+00
    0.00000E+00         0.00000E+00         0.00000E+00
 
   -0.66994E+06         0.56101E+07         0.00000E+00
    0.56101E+07        -0.36324E+08         0.00000E+00
    0.00000E+00         0.00000E+00         0.00000E+00
 
   -0.23085E+06         0.69520E+07         0.00000E+00
    0.69520E+07        -0.36603E+08         0.00000E+00
    0.00000E+00         0.00000E+00         0.00000E+00
 
   -0.11772E+08        -0.36566E+06         0.00000E+00
   -0.36566E+06        -0.34644E+08         0.00000E+00
    0.00000E+00         0.00000E+00         0.00000E+00
 
   -0.11102E+08        -0.93469E+06         0.00000E+00
   -0.93469E+06        -0.34759E+08         0.00000E+00
    0.00000E+00         0.00000E+00         0.00000E+00
 
   -0.10270E+08        -0.12875E+07         0.00000E+00
   -0.12875E+07        -0.34950E+08         0.00000E+00
    0.00000E+00         0.00000E+00         0.00000E+00
 
   -0.93465E+07        -0.14344E+07         0.00000E+00
   -0.14344E+07        -0.35182E+08         0.00000E+00
    0.00000E+00         0.00000E+00         0.00000E+00
 
   -0.83821E+07        -0.13930E+07         0.00000E+00
   -0.13930E+07        -0.35429E+08         0.00000E+00
    0.00000E+00         0.00000E+00         0.00000E+00
 
   -0.74124E+07        -0.11833E+07         0.00000E+00
   -0.11833E+07        -0.35681E+08         0.00000E+00
    0.00000E+00         0.00000E+00         0.00000E+00
 
   -0.64582E+07        -0.82375E+06         0.00000E+00
   -0.82375E+06        -0.35932E+08         0.00000E+00
    0.00000E+00         0.00000E+00         0.00000E+00
 
   -0.55298E+07        -0.32821E+06         0.00000E+00
   -0.32821E+06        -0.36184E+08         0.00000E+00
    0.00000E+00         0.00000E+00         0.00000E+00
 
   -0.46312E+07         0.29483E+06         0.00000E+00
    0.29483E+06        -0.36445E+08         0.00000E+00
    0.00000E+00         0.00000E+00         0.00000E+00
 
   -0.37645E+07         0.10428E+07         0.00000E+00
    0.10428E+07        -0.36718E+08         0.00000E+00
    0.00000E+00         0.00000E+00         0.00000E+00
 
   -0.29344E+07         0.19184E+07         0.00000E+00
    0.19184E+07        -0.37010E+08         0.00000E+00
    0.00000E+00         0.00000E+00         0.00000E+00
 
   -0.21556E+07         0.29289E+07         0.00000E+00
    0.29289E+07        -0.37319E+08         0.00000E+00
    0.00000E+00         0.00000E+00         0.00000E+00
 
   -0.14553E+07         0.40735E+07         0.00000E+00
    0.40735E+07        -0.37637E+08         0.00000E+00
    0.00000E+00         0.00000E+00         0.00000E+00
 
   -0.85765E+06         0.53345E+07         0.00000E+00
    0.53345E+07        -0.37947E+08         0.00000E+00
    0.00000E+00         0.00000E+00         0.00000E+00
 
   -0.52481E+06         0.65753E+07         0.00000E+00
    0.65753E+07        -0.38331E+08         0.00000E+00
    0.00000E+00         0.00000E+00        -0.23382E+06
 
   -0.14082E+08        -0.42127E+06         0.00000E+00
   -0.42127E+06        -0.36229E+08         0.00000E+00
    0.00000E+00         0.00000E+00         0.00000E+00
 
   -0.13172E+08        -0.10656E+07         0.00000E+00
   -0.10656E+07        -0.36345E+08         0.00000E+00
    0.00000E+00         0.00000E+00         0.00000E+00
 
   -0.12110E+08        -0.14545E+07         0.00000E+00
   -0.14545E+07        -0.36531E+08         0.00000E+00
    0.00000E+00         0.00000E+00         0.00000E+00
 
   -0.10976E+08        -0.16111E+07         0.00000E+00
   -0.16111E+07        -0.36748E+08         0.00000E+00
    0.00000E+00         0.00000E+00         0.00000E+00
 
   -0.98272E+07        -0.15659E+07         0.00000E+00
   -0.15659E+07        -0.36971E+08         0.00000E+00
    0.00000E+00         0.00000E+00         0.00000E+00
 
   -0.86968E+07        -0.13499E+07         0.00000E+00
   -0.13499E+07        -0.37191E+08         0.00000E+00
    0.00000E+00         0.00000E+00         0.00000E+00
 
   -0.76009E+07        -0.98900E+06         0.00000E+00
   -0.98900E+06        -0.37408E+08         0.00000E+00
    0.00000E+00         0.00000E+00         0.00000E+00
 
   -0.65436E+07        -0.50131E+06         0.00000E+00
   -0.50131E+06        -0.37629E+08         0.00000E+00
    0.00000E+00         0.00000E+00         0.00000E+00
 
   -0.55219E+07         0.10318E+06         0.00000E+00
    0.10318E+06        -0.37864E+08         0.00000E+00
    0.00000E+00         0.00000E+00         0.00000E+00
 
   -0.45312E+07         0.82263E+06         0.00000E+00
    0.82263E+06        -0.38123E+08         0.00000E+00
    0.00000E+00         0.00000E+00         0.00000E+00
 
   -0.35701E+07         0.16630E+07         0.00000E+00
    0.16630E+07        -0.38414E+08         0.00000E+00
    0.00000E+00         0.00000E+00         0.00000E+00
 
   -0.26464E+07         0.26377E+07         0.00000E+00
    0.26377E+07        -0.38739E+08         0.00000E+00
    0.00000E+00         0.00000E+00         0.00000E+00
 
   -0.18115E+07         0.37675E+07         0.00000E+00
    0.37675E+07        -0.39087E+08         0.00000E+00
    0.00000E+00         0.00000E+00         0.00000E+00
 
   -0.10907E+07         0.50183E+07         0.00000E+00
    0.50183E+07        -0.39464E+08         0.00000E+00
    0.00000E+00         0.00000E+00        -0.47383E+05
 
   -0.10671E+07         0.61347E+07         0.00000E+00
    0.61347E+07        -0.39853E+08         0.00000E+00
    0.00000E+00         0.00000E+00        -0.74454E+06
 
   -0.16544E+08        -0.47881E+06         0.00000E+00
   -0.47881E+06        -0.37865E+08         0.00000E+00
    0.00000E+00         0.00000E+00         0.00000E+00
 
   -0.15344E+08        -0.11943E+07         0.00000E+00
   -0.11943E+07        -0.37978E+08         0.00000E+00
    0.00000E+00         0.00000E+00         0.00000E+00
 
   -0.14016E+08        -0.16080E+07         0.00000E+00
   -0.16080E+07        -0.38148E+08         0.00000E+00
    0.00000E+00         0.00000E+00         0.00000E+00
 
   -0.12651E+08        -0.17612E+07         0.00000E+00
   -0.17612E+07        -0.38333E+08         0.00000E+00
    0.00000E+00         0.00000E+00         0.00000E+00
 
   -0.11311E+08        -0.17021E+07         0.00000E+00
   -0.17021E+07        -0.38509E+08         0.00000E+00
    0.00000E+00         0.00000E+00         0.00000E+00
 
   -0.10023E+08        -0.14750E+07         0.00000E+00
   -0.14750E+07        -0.38674E+08         0.00000E+00
    0.00000E+00         0.00000E+00         0.00000E+00
 
   -0.87940E+07        -0.11133E+07         0.00000E+00
   -0.11133E+07        -0.38835E+08         0.00000E+00
    0.00000E+00         0.00000E+00         0.00000E+00
 
   -0.76188E+07        -0.63877E+06         0.00000E+00
   -0.63877E+06        -0.39004E+08         0.00000E+00
    0.00000E+00         0.00000E+00         0.00000E+00
 
   -0.64851E+07        -0.61986E+05         0.00000E+00
   -0.61986E+05        -0.39195E+08         0.00000E+00
    0.00000E+00         0.00000E+00         0.00000E+00
 
   -0.53794E+07         0.61654E+06         0.00000E+00
    0.61654E+06        -0.39421E+08         0.00000E+00
    0.00000E+00         0.00000E+00         0.00000E+00
 
   -0.42910E+07         0.14065E+07         0.00000E+00
    0.14065E+07        -0.39695E+08         0.00000E+00
    0.00000E+00         0.00000E+00         0.00000E+00
 
   -0.32194E+07         0.23288E+07         0.00000E+00
    0.23288E+07        -0.40019E+08         0.00000E+00
    0.00000E+00         0.00000E+00         0.00000E+00
 
   -0.21759E+07         0.34281E+07         0.00000E+00
    0.34281E+07        -0.40387E+08         0.00000E+00
    0.00000E+00         0.00000E+00         0.00000E+00
 
   -0.15322E+07         0.46120E+07         0.00000E+00
    0.46120E+07        -0.40798E+08         0.00000E+00
    0.00000E+00         0.00000E+00        -0.36438E+06
 
   -0.15835E+07         0.57213E+07         0.00000E+00
    0.57213E+07        -0.41239E+08         0.00000E+00
    0.00000E+00         0.00000E+00        -0.12468E+07
 
   -0.19156E+08        -0.53687E+06         0.00000E+00
   -0.53687E+06        -0.39553E+08         0.00000E+00
    0.00000E+00         0.00000E+00         0.00000E+00
 
   -0.17606E+08        -0.13129E+07         0.00000E+00
   -0.13129E+07        -0.39656E+08         0.00000E+00
    0.00000E+00         0.00000E+00         0.00000E+00
 
   -0.15970E+08        -0.17317E+07         0.00000E+00
   -0.17317E+07        -0.39795E+08         0.00000E+00
    0.00000E+00         0.00000E+00         0.00000E+00
 
   -0.14358E+08        -0.18624E+07         0.00000E+00
   -0.18624E+07        -0.39923E+08         0.00000E+00
    0.00000E+00         0.00000E+00         0.00000E+00
 
   -0.12826E+08        -0.17772E+07         0.00000E+00
   -0.17772E+07        -0.40026E+08         0.00000E+00
    0.00000E+00         0.00000E+00         0.00000E+00
 
   -0.11390E+08        -0.15351E+07         0.00000E+00
   -0.15351E+07        -0.40109E+08         0.00000E+00
    0.00000E+00         0.00000E+00         0.00000E+00
 
   -0.10043E+08        -0.11760E+07         0.00000E+00
   -0.11760E+07        -0.40189E+08         0.00000E+00
    0.00000E+00         0.00000E+00         0.00000E+00
 
   -0.87645E+07        -0.72279E+06         0.00000E+00
   -0.72279E+06        -0.40286E+08         0.00000E+00
    0.00000E+00         0.00000E+00         0.00000E+00
 
   -0.75328E+07        -0.18506E+06         0.00000E+00
   -0.18506E+06        -0.40416E+08         0.00000E+00
    0.00000E+00         0.00000E+00         0.00000E+00
 
   -0.63238E+07         0.43874E+06         0.00000E+00
    0.43874E+06        -0.40597E+08         0.00000E+00
    0.00000E+00         0.00000E+00         0.00000E+00
 
   -0.51150E+07         0.11614E+07         0.00000E+00
    0.11614E+07        -0.40841E+08         0.00000E+00
    0.00000E+00         0.00000E+00         0.00000E+00
 
   -0.38881E+07         0.20132E+07         0.00000E+00
    0.20132E+07        -0.41159E+08         0.00000E+00
    0.00000E+00         0.00000E+00         0.00000E+00
 
   -0.26266E+07         0.30451E+07         0.00000E+00
    0.30451E+07        -0.41554E+08         0.00000E+00
    0.00000E+00         0.00000E+00        -0.11048E+05
 
   -0.20858E+07         0.41494E+07         0.00000E+00
    0.41494E+07        -0.42018E+08         0.00000E+00
    0.00000E+00         0.00000E+00        -0.73998E+06
 
   -0.20623E+07         0.52874E+07         0.00000E+00
    0.52874E+07        -0.42497E+08         0.00000E+00
    0.00000E+00         0.00000E+00        -0.16854E+07
 
   -0.21912E+08        -0.59360E+06         0.00000E+00
   -0.59360E+06        -0.41292E+08         0.00000E+00
    0.00000E+00         0.00000E+00         0.00000E+00
 
   -0.19935E+08        -0.14086E+07         0.00000E+00
   -0.14086E+07        -0.41375E+08         0.00000E+00
    0.00000E+00         0.00000E+00         0.00000E+00
 
   -0.17949E+08        -0.18008E+07         0.00000E+00
   -0.18008E+07        -0.41459E+08         0.00000E+00
    0.00000E+00         0.00000E+00         0.00000E+00
 
   -0.16079E+08        -0.18838E+07         0.00000E+00
   -0.18838E+07        -0.41496E+08         0.00000E+00
    0.00000E+00         0.00000E+00         0.00000E+00
 
   -0.14366E+08        -0.17613E+07         0.00000E+00
   -0.17613E+07        -0.41489E+08         0.00000E+00
    0.00000E+00         0.00000E+00         0.00000E+00
 
   -0.12801E+08        -0.15054E+07         0.00000E+00
   -0.15054E+07        -0.41460E+08         0.00000E+00
    0.00000E+00         0.00000E+00         0.00000E+00
 
   -0.11355E+08        -0.11578E+07         0.00000E+00
   -0.11578E+07        -0.41438E+08         0.00000E+00
    0.00000E+00         0.00000E+00         0.00000E+00
 
   -0.99924E+07        -0.73891E+06         0.00000E+00
   -0.73891E+06        -0.41446E+08         0.00000E+00
    0.00000E+00         0.00000E+00         0.00000E+00
 
   -0.86788E+07        -0.25503E+06         0.00000E+00
   -0.25503E+06        -0.41505E+08         0.00000E+00
    0.00000E+00         0.00000E+00         0.00000E+00
 
   -0.73805E+07         0.29796E+06         0.00000E+00
    0.29796E+06        -0.41632E+08         0.00000E+00
    0.00000E+00         0.00000E+00         0.00000E+00
 
   -0.60631E+07         0.93407E+06         0.00000E+00
    0.93407E+06        -0.41842E+08         0.00000E+00
    0.00000E+00         0.00000E+00         0.00000E+00
 
   -0.46840E+07         0.16822E+07         0.00000E+00
    0.16822E+07        -0.42153E+08         0.00000E+00
    0.00000E+00         0.00000E+00         0.00000E+00
 
   -0.32409E+07         0.25911E+07         0.00000E+00
    0.25911E+07        -0.42583E+08         0.00000E+00
    0.00000E+00         0.00000E+00        -0.42533E+05
 
   -0.26597E+07         0.36398E+07         0.00000E+00
    0.36398E+07        -0.43112E+08         0.00000E+00
    0.00000E+00         0.00000E+00        -0.99680E+06
 
   -0.25261E+07         0.48118E+07         0.00000E+00
    0.48118E+07        -0.43653E+08         0.00000E+00
    0.00000E+00         0.00000E+00        -0.20553E+07
 
   -0.24797E+08        -0.64581E+06         0.00000E+00
   -0.64581E+06        -0.43081E+08         0.00000E+00
    0.00000E+00         0.00000E+00         0.00000E+00
 
   -0.22291E+08        -0.14587E+07         0.00000E+00
   -0.14587E+07        -0.43126E+08         0.00000E+00
    0.00000E+00         0.00000E+00         0.00000E+00
 
   -0.19917E+08        -0.17750E+07         0.00000E+00
   -0.17750E+07        -0.43110E+08         0.00000E+00
    0.00000E+00         0.00000E+00         0.00000E+00
 
   -0.17798E+08        -0.17831E+07         0.00000E+00
   -0.17831E+07        -0.43005E+08         0.00000E+00
    0.00000E+00         0.00000E+00         0.00000E+00
 
   -0.15932E+08        -0.16210E+07         0.00000E+00
   -0.16210E+07        -0.42846E+08         0.00000E+00
    0.00000E+00         0.00000E+00         0.00000E+00
 
   -0.14266E+08        -0.13634E+07         0.00000E+00
   -0.13634E+07        -0.42678E+08         0.00000E+00
    0.00000E+00         0.00000E+00         0.00000E+00
 
   -0.12746E+08        -0.10449E+07         0.00000E+00
   -0.10449E+07        -0.42538E+08         0.00000E+00
    0.00000E+00         0.00000E+00         0.00000E+00
 
   -0.11318E+08        -0.67927E+06         0.00000E+00
   -0.67927E+06        -0.42450E+08         0.00000E+00
    0.00000E+00         0.00000E+00         0.00000E+00
 
   -0.99394E+07        -0.26809E+06         0.00000E+00
   -0.26809E+06        -0.42435E+08         0.00000E+00
    0.00000E+00         0.00000E+00         0.00000E+00
 
   -0.85669E+07         0.19517E+06         0.00000E+00
    0.19517E+06        -0.42509E+08         0.00000E+00
    0.00000E+00         0.00000E+00         0.00000E+00
 
   -0.71576E+07         0.72409E+06         0.00000E+00
    0.72409E+06        -0.42687E+08         0.00000E+00
    0.00000E+00         0.00000E+00         0.00000E+00
 
   -0.56559E+07         0.13382E+07         0.00000E+00
    0.13382E+07        -0.42990E+08         0.00000E+00
    0.00000E+00         0.00000E+00         0.00000E+00
 
   -0.40333E+07         0.20755E+07         0.00000E+00
    0.20755E+07        -0.43456E+08         0.00000E+00
    0.00000E+00         0.00000E+00        -0.44181E+05
 
   -0.32596E+07         0.30464E+07         0.00000E+00
    0.30464E+07        -0.44051E+08         0.00000E+00
    0.00000E+00         0.00000E+00        -0.11023E+07
 
   -0.29708E+07         0.42451E+07         0.00000E+00
    0.42451E+07        -0.44705E+08         0.00000E+00
    0.00000E+00         0.00000E+00        -0.23424E+07
 
   -0.27775E+08        -0.68591E+06         0.00000E+00
   -0.68591E+06        -0.44915E+08         0.00000E+00
    0.00000E+00         0.00000E+00         0.00000E+00
 
   -0.24607E+08        -0.14137E+07         0.00000E+00
   -0.14137E+07        -0.44877E+08         0.00000E+00
    0.00000E+00         0.00000E+00         0.00000E+00
 
   -0.21833E+08        -0.15862E+07         0.00000E+00
   -0.15862E+07        -0.44678E+08         0.00000E+00
    0.00000E+00         0.00000E+00         0.00000E+00
 
   -0.19511E+08        -0.15092E+07         0.00000E+00
   -0.15092E+07        -0.44362E+08         0.00000E+00
    0.00000E+00         0.00000E+00         0.00000E+00
 
   -0.17537E+08        -0.13282E+07         0.00000E+00
   -0.13282E+07        -0.44016E+08         0.00000E+00
    0.00000E+00         0.00000E+00         0.00000E+00
 
   -0.15806E+08        -0.10965E+07         0.00000E+00
   -0.10965E+07        -0.43697E+08         0.00000E+00
    0.00000E+00         0.00000E+00         0.00000E+00
 
   -0.14235E+08        -0.83391E+06         0.00000E+00
   -0.83391E+06        -0.43437E+08         0.00000E+00
    0.00000E+00         0.00000E+00         0.00000E+00
 
   -0.12762E+08        -0.54555E+06         0.00000E+00
   -0.54555E+06        -0.43258E+08         0.00000E+00
    0.00000E+00         0.00000E+00         0.00000E+00
 
   -0.11333E+08        -0.22895E+06         0.00000E+00
   -0.22895E+06        -0.43175E+08         0.00000E+00
    0.00000E+00         0.00000E+00         0.00000E+00
 
   -0.99020E+07         0.12366E+06         0.00000E+00
    0.12366E+06        -0.43203E+08         0.00000E+00
    0.00000E+00         0.00000E+00         0.00000E+00
 
   -0.84199E+07         0.52398E+06         0.00000E+00
    0.52398E+06        -0.43357E+08         0.00000E+00
    0.00000E+00         0.00000E+00         0.00000E+00
 
   -0.68343E+07         0.98337E+06         0.00000E+00
    0.98337E+06        -0.43658E+08         0.00000E+00
    0.00000E+00         0.00000E+00         0.00000E+00
 
   -0.50523E+07         0.15143E+07         0.00000E+00
    0.15143E+07        -0.44152E+08         0.00000E+00
    0.00000E+00         0.00000E+00         0.00000E+00
 
   -0.39227E+07         0.23316E+07         0.00000E+00
    0.23316E+07        -0.44816E+08         0.00000E+00
    0.00000E+00         0.00000E+00        -0.10169E+07
 
   -0.34022E+07         0.35161E+07         0.00000E+00
    0.35161E+07        -0.45647E+08         0.00000E+00
    0.00000E+00         0.00000E+00        -0.25281E+07
 
   -0.30754E+08        -0.68482E+06         0.00000E+00
   -0.68482E+06        -0.46773E+08         0.00000E+00
    0.00000E+00         0.00000E+00         0.00000E+00
 
   -0.26775E+08        -0.11484E+07         0.00000E+00
   -0.11484E+07        -0.46507E+08         0.00000E+00
    0.00000E+00         0.00000E+00         0.00000E+00
 
   -0.23686E+08        -0.11420E+07         0.00000E+00
   -0.11420E+07        -0.45993E+08         0.00000E+00
    0.00000E+00         0.00000E+00         0.00000E+00
 
   -0.21248E+08        -0.10275E+07         0.00000E+00
   -0.10275E+07        -0.45424E+08         0.00000E+00
    0.00000E+00         0.00000E+00         0.00000E+00
 
   -0.19217E+08        -0.87756E+06         0.00000E+00
   -0.87756E+06        -0.44893E+08         0.00000E+00
    0.00000E+00         0.00000E+00         0.00000E+00
 
   -0.17449E+08        -0.71227E+06         0.00000E+00
   -0.71227E+06        -0.44438E+08         0.00000E+00
    0.00000E+00         0.00000E+00         0.00000E+00
 
   -0.15848E+08        -0.53690E+06         0.00000E+00
   -0.53690E+06        -0.44079E+08         0.00000E+00
    0.00000E+00         0.00000E+00         0.00000E+00
 
   -0.14344E+08        -0.35088E+06         0.00000E+00
   -0.35088E+06        -0.43826E+08         0.00000E+00
    0.00000E+00         0.00000E+00         0.00000E+00
 
   -0.12880E+08        -0.15030E+06         0.00000E+00
   -0.15030E+06        -0.43691E+08         0.00000E+00
    0.00000E+00         0.00000E+00         0.00000E+00
 
   -0.11405E+08         0.71338E+05         0.00000E+00
    0.71338E+05        -0.43687E+08         0.00000E+00
    0.00000E+00         0.00000E+00         0.00000E+00
 
   -0.98691E+07         0.32266E+06         0.00000E+00
    0.32266E+06        -0.43830E+08         0.00000E+00
    0.00000E+00         0.00000E+00         0.00000E+00
 
   -0.82239E+07         0.61262E+06         0.00000E+00
    0.61262E+06        -0.44138E+08         0.00000E+00
    0.00000E+00         0.00000E+00         0.00000E+00
 
   -0.63913E+07         0.93381E+06         0.00000E+00
    0.93381E+06        -0.44635E+08         0.00000E+00
    0.00000E+00         0.00000E+00         0.00000E+00
 
   -0.47234E+07         0.14635E+07         0.00000E+00
    0.14635E+07        -0.45381E+08         0.00000E+00
    0.00000E+00         0.00000E+00        -0.68374E+06
 
   -0.38657E+07         0.25006E+07         0.00000E+00
    0.25006E+07        -0.46480E+08         0.00000E+00
    0.00000E+00         0.00000E+00        -0.25777E+07
 
   -0.33471E+08        -0.41696E+06         0.00000E+00
   -0.41696E+06        -0.48336E+08         0.00000E+00
    0.00000E+00         0.00000E+00         0.00000E+00
 
   -0.28751E+08        -0.46862E+06         0.00000E+00
   -0.46862E+06        -0.47601E+08         0.00000E+00
    0.00000E+00         0.00000E+00         0.00000E+00
 
   -0.25553E+08        -0.42140E+06         0.00000E+00
   -0.42140E+06        -0.46773E+08         0.00000E+00
    0.00000E+00         0.00000E+00         0.00000E+00
 
   -0.23071E+08        -0.36578E+06         0.00000E+00
   -0.36578E+06        -0.46019E+08         0.00000E+00
    0.00000E+00         0.00000E+00         0.00000E+00
 
   -0.21016E+08        -0.30653E+06         0.00000E+00
   -0.30653E+06        -0.45368E+08         0.00000E+00
    0.00000E+00         0.00000E+00         0.00000E+00
 
   -0.19228E+08        -0.24604E+06         0.00000E+00
   -0.24604E+06        -0.44831E+08         0.00000E+00
    0.00000E+00         0.00000E+00         0.00000E+00
 
   -0.17608E+08        -0.18414E+06         0.00000E+00
   -0.18414E+06        -0.44414E+08         0.00000E+00
    0.00000E+00         0.00000E+00         0.00000E+00
 
   -0.16082E+08        -0.11973E+06         0.00000E+00
   -0.11973E+06        -0.44120E+08         0.00000E+00
    0.00000E+00         0.00000E+00         0.00000E+00
 
   -0.14594E+08        -0.50994E+05         0.00000E+00
   -0.50994E+05        -0.43957E+08         0.00000E+00
    0.00000E+00         0.00000E+00         0.00000E+00
 
   -0.13090E+08         0.24637E+05         0.00000E+00
    0.24637E+05        -0.43937E+08         0.00000E+00
    0.00000E+00         0.00000E+00         0.00000E+00
 
   -0.11521E+08         0.11058E+06         0.00000E+00
    0.11058E+06        -0.44076E+08         0.00000E+00
    0.00000E+00         0.00000E+00         0.00000E+00
 
   -0.98368E+07         0.21206E+06         0.00000E+00
    0.21206E+06        -0.44398E+08         0.00000E+00
    0.00000E+00         0.00000E+00         0.00000E+00
 
   -0.80204E+07         0.32050E+06         0.00000E+00
    0.32050E+06        -0.44926E+08         0.00000E+00
    0.00000E+00         0.00000E+00         0.00000E+00
 
   -0.59572E+07         0.49228E+06         0.00000E+00
    0.49228E+06        -0.45804E+08         0.00000E+00
    0.00000E+00         0.00000E+00        -0.16143E+06
 
   -0.44920E+07         0.95580E+06         0.00000E+00
    0.95580E+06        -0.47176E+08         0.00000E+00
    0.00000E+00         0.00000E+00        -0.24100E+07
 
TENSORS stresstot double 
   -0.33014E+08         0.56518E+06         0.00000E+00
    0.56518E+06        -0.58573E+08         0.00000E+00
    0.00000E+00         0.00000E+00        -0.54739E+08
 
   -0.32669E+08         0.44396E+06         0.00000E+00
    0.44396E+06        -0.57561E+08         0.00000E+00
    0.00000E+00         0.00000E+00        -0.54209E+08
 
   -0.32631E+08         0.69747E+05         0.00000E+00
    0.69747E+05        -0.57234E+08         0.00000E+00
    0.00000E+00         0.00000E+00        -0.54085E+08
 
   -0.32872E+08        -0.21574E+06         0.00000E+00
   -0.21574E+06        -0.57696E+08         0.00000E+00
    0.00000E+00         0.00000E+00        -0.54299E+08
 
   -0.33289E+08        -0.42538E+06         0.00000E+00
   -0.42538E+06        -0.58703E+08         0.00000E+00
    0.00000E+00         0.00000E+00        -0.54675E+08
 
   -0.34394E+08        -0.70765E+06         0.00000E+00
   -0.70765E+06        -0.59960E+08         0.00000E+00
    0.00000E+00         0.00000E+00        -0.55073E+08
 
   -0.37476E+08        -0.67019E+06         0.00000E+00
   -0.67019E+06        -0.61154E+08         0.00000E+00
    0.00000E+00         0.00000E+00        -0.55286E+08
 
   -0.39690E+08        -0.43272E+06         0.00000E+00
   -0.43272E+06        -0.62124E+08         0.00000E+00
    0.00000E+00         0.00000E+00        -0.55461E+08
 
   -0.41490E+08        -0.26696E+06         0.00000E+00
   -0.26696E+06        -0.62772E+08         0.00000E+00
    0.00000E+00         0.00000E+00        -0.55625E+08
 
   -0.43162E+08        -0.13503E+06         0.00000E+00
   -0.13503E+06        -0.63148E+08         0.00000E+00
    0.00000E+00         0.00000E+00        -0.55773E+08
 
   -0.44832E+08        -0.14386E+05         0.00000E+00
   -0.14386E+05        -0.63283E+08         0.00000E+00
    0.00000E+00         0.00000E+00        -0.55904E+08
 
   -0.46595E+08         0.11052E+06         0.00000E+00
    0.11052E+06        -0.63178E+08         0.00000E+00
    0.00000E+00         0.00000E+00        -0.56014E+08
 
   -0.48565E+08         0.25764E+06         0.00000E+00
    0.25764E+06        -0.62805E+08         0.00000E+00
    0.00000E+00         0.00000E+00        -0.56102E+08
 
   -0.50931E+08         0.45976E+06         0.00000E+00
    0.45976E+06        -0.62083E+08         0.00000E+00
    0.00000E+00         0.00000E+00        -0.56165E+08
 
   -0.54226E+08         0.91050E+06         0.00000E+00
    0.91050E+06        -0.60757E+08         0.00000E+00
    0.00000E+00         0.00000E+00        -0.56199E+08
 
   -0.32511E+08         0.70674E+06         0.00000E+00
    0.70674E+06        -0.60746E+08         0.00000E+00
    0.00000E+00         0.00000E+00        -0.53827E+08
 
   -0.32823E+08         0.72439E+06         0.00000E+00
    0.72439E+06        -0.61711E+08         0.00000E+00
    0.00000E+00         0.00000E+00        -0.53415E+08
 
   -0.32911E+08         0.20310E+06         0.00000E+00
    0.20310E+06        -0.61934E+08         0.00000E+00
    0.00000E+00         0.00000E+00        -0.53101E+08
 
   -0.33026E+08        -0.29322E+06         0.00000E+00
   -0.29322E+06        -0.61538E+08         0.00000E+00
    0.00000E+00         0.00000E+00        -0.53069E+08
 
   -0.33733E+08        -0.77149E+06         0.00000E+00
   -0.77149E+06        -0.60930E+08         0.00000E+00
    0.00000E+00         0.00000E+00        -0.53184E+08
 
   -0.35025E+08        -0.13246E+07         0.00000E+00
   -0.13246E+07        -0.60621E+08         0.00000E+00
    0.00000E+00         0.00000E+00        -0.53315E+08
 
   -0.37213E+08        -0.14102E+07         0.00000E+00
   -0.14102E+07        -0.60790E+08         0.00000E+00
    0.00000E+00         0.00000E+00        -0.53456E+08
 
   -0.39397E+08        -0.10530E+07         0.00000E+00
   -0.10530E+07        -0.61142E+08         0.00000E+00
    0.00000E+00         0.00000E+00        -0.53601E+08
 
   -0.41239E+08        -0.68024E+06         0.00000E+00
   -0.68024E+06        -0.61482E+08         0.00000E+00
    0.00000E+00         0.00000E+00        -0.53743E+08
 
   -0.42932E+08        -0.33766E+06         0.00000E+00
   -0.33766E+06        -0.61692E+08         0.00000E+00
    0.00000E+00         0.00000E+00        -0.53876E+08
 
   -0.44600E+08        -0.18643E+04         0.00000E+00
   -0.18643E+04        -0.61729E+08         0.00000E+00
    0.00000E+00         0.00000E+00        -0.53993E+08
 
   -0.46335E+08         0.35788E+06         0.00000E+00
    0.35788E+06        -0.61563E+08         0.00000E+00
    0.00000E+00         0.00000E+00        -0.54094E+08
 
   -0.48235E+08         0.78645E+06         0.00000E+00
    0.78645E+06        -0.61157E+08         0.00000E+00
    0.00000E+00         0.00000E+00        -0.54173E+08
 
   -0.50430E+08         0.13801E+07         0.00000E+00
    0.13801E+07        -0.60440E+08         0.00000E+00
    0.00000E+00         0.00000E+00        -0.54229E+08
 
   -0.52944E+08         0.24412E+07         0.00000E+00
    0.24412E+07        -0.59346E+08         0.00000E+00
    0.00000E+00         0.00000E+00        -0.54258E+08
 
   -0.31667E+08        -0.27169E+04         0.00000E+00
   -0.27169E+04        -0.60862E+08         0.00000E+00
    0.00000E+00         0.00000E+00        -0.51356E+08
 
   -0.33100E+08         0.24510E+06         0.00000E+00
    0.24510E+06        -0.60972E+08         0.00000E+00
    0.00000E+00         0.00000E+00        -0.51307E+08
 
   -0.33375E+08         0.15716E+06         0.00000E+00
    0.15716E+06        -0.60986E+08         0.00000E+00
    0.00000E+00         0.00000E+00        -0.51366E+08
 
   -0.33617E+08        -0.18569E+06         0.00000E+00
   -0.18569E+06        -0.60993E+08         0.00000E+00
    0.00000E+00         0.00000E+00        -0.51442E+08
 
   -0.34235E+08        -0.65108E+06         0.00000E+00
   -0.65108E+06        -0.61041E+08         0.00000E+00
    0.00000E+00         0.00000E+00        -0.51529E+08
 
   -0.35411E+08        -0.11531E+07         0.00000E+00
   -0.11531E+07        -0.60962E+08         0.00000E+00
    0.00000E+00         0.00000E+00        -0.51626E+08
 
   -0.37136E+08        -0.13841E+07         0.00000E+00
   -0.13841E+07        -0.60780E+08         0.00000E+00
    0.00000E+00         0.00000E+00        -0.51732E+08
 
   -0.39047E+08        -0.12132E+07         0.00000E+00
   -0.12132E+07        -0.60688E+08         0.00000E+00
    0.00000E+00         0.00000E+00        -0.51847E+08
 
   -0.40849E+08        -0.83180E+06         0.00000E+00
   -0.83180E+06        -0.60692E+08         0.00000E+00
    0.00000E+00         0.00000E+00        -0.51964E+08
 
   -0.42529E+08        -0.38331E+06         0.00000E+00
   -0.38331E+06        -0.60684E+08         0.00000E+00
    0.00000E+00         0.00000E+00        -0.52076E+08
 
   -0.44169E+08         0.10788E+06         0.00000E+00
    0.10788E+06        -0.60581E+08         0.00000E+00
    0.00000E+00         0.00000E+00        -0.52177E+08
 
   -0.45840E+08         0.66225E+06         0.00000E+00
    0.66225E+06        -0.60332E+08         0.00000E+00
    0.00000E+00         0.00000E+00        -0.52265E+08
 
   -0.47609E+08         0.13322E+07         0.00000E+00
    0.13322E+07        -0.59892E+08         0.00000E+00
    0.00000E+00         0.00000E+00        -0.52334E+08
 
   -0.49505E+08         0.22272E+07         0.00000E+00
    0.22272E+07        -0.59230E+08         0.00000E+00
    0.00000E+00         0.00000E+00        -0.52383E+08
 
   -0.51450E+08         0.35118E+07         0.00000E+00
    0.35118E+07        -0.58383E+08         0.00000E+00
    0.00000E+00         0.00000E+00        -0.52408E+08
 
   -0.31739E+08        -0.20474E+06         0.00000E+00
   -0.20474E+06        -0.59973E+08         0.00000E+00
    0.00000E+00         0.00000E+00        -0.49751E+08
 
   -0.32935E+08        -0.12884E+06         0.00000E+00
   -0.12884E+06        -0.60129E+08         0.00000E+00
    0.00000E+00         0.00000E+00        -0.49776E+08
 
   -0.33542E+08        -0.67244E+05         0.00000E+00
   -0.67244E+05        -0.60451E+08         0.00000E+00
    0.00000E+00         0.00000E+00        -0.49818E+08
 
   -0.33986E+08        -0.30089E+06         0.00000E+00
   -0.30089E+06        -0.60682E+08         0.00000E+00
    0.00000E+00         0.00000E+00        -0.49873E+08
 
   -0.34678E+08        -0.66988E+06         0.00000E+00
   -0.66988E+06        -0.60771E+08         0.00000E+00
    0.00000E+00         0.00000E+00        -0.49937E+08
 
   -0.35747E+08        -0.10128E+07         0.00000E+00
   -0.10128E+07        -0.60722E+08         0.00000E+00
    0.00000E+00         0.00000E+00        -0.50010E+08
 
   -0.37166E+08        -0.11798E+07         0.00000E+00
   -0.11798E+07        -0.60558E+08         0.00000E+00
    0.00000E+00         0.00000E+00        -0.50092E+08
 
   -0.38783E+08        -0.10798E+07         0.00000E+00
   -0.10798E+07        -0.60353E+08         0.00000E+00
    0.00000E+00         0.00000E+00        -0.50181E+08
 
   -0.40428E+08        -0.74605E+06         0.00000E+00
   -0.74605E+06        -0.60171E+08         0.00000E+00
    0.00000E+00         0.00000E+00        -0.50274E+08
 
   -0.42026E+08        -0.26279E+06         0.00000E+00
   -0.26279E+06        -0.59994E+08         0.00000E+00
    0.00000E+00         0.00000E+00        -0.50365E+08
 
   -0.43590E+08         0.32538E+06         0.00000E+00
    0.32538E+06        -0.59769E+08         0.00000E+00
    0.00000E+00         0.00000E+00        -0.50449E+08
 
   -0.45157E+08         0.10223E+07         0.00000E+00
    0.10223E+07        -0.59448E+08         0.00000E+00
    0.00000E+00         0.00000E+00        -0.50522E+08
 
   -0.46753E+08         0.18687E+07         0.00000E+00
    0.18687E+07        -0.58997E+08         0.00000E+00
    0.00000E+00         0.00000E+00        -0.50582E+08
 
   -0.48365E+08         0.29367E+07         0.00000E+00
    0.29367E+07        -0.58412E+08         0.00000E+00
    0.00000E+00         0.00000E+00        -0.50623E+08
 
   -0.49910E+08         0.43078E+07         0.00000E+00
    0.43078E+07        -0.57738E+08         0.00000E+00
    0.00000E+00         0.00000E+00        -0.50645E+08
 
   -0.31978E+08        -0.17264E+06         0.00000E+00
   -0.17264E+06        -0.59988E+08         0.00000E+00
    0.00000E+00         0.00000E+00        -0.48275E+08
 
   -0.32894E+08        -0.30706E+06         0.00000E+00
   -0.30706E+06        -0.60023E+08         0.00000E+00
    0.00000E+00         0.00000E+00        -0.48291E+08
 
   -0.33620E+08        -0.34264E+06         0.00000E+00
   -0.34264E+06        -0.60176E+08         0.00000E+00
    0.00000E+00         0.00000E+00        -0.48320E+08
 
   -0.34242E+08        -0.47414E+06         0.00000E+00
   -0.47414E+06        -0.60359E+08         0.00000E+00
    0.00000E+00         0.00000E+00        -0.48359E+08
 
   -0.34980E+08        -0.69835E+06         0.00000E+00
   -0.69835E+06        -0.60449E+08         0.00000E+00
    0.00000E+00         0.00000E+00        -0.48406E+08
 
   -0.35957E+08        -0.90192E+06         0.00000E+00
   -0.90192E+06        -0.60409E+08         0.00000E+00
    0.00000E+00         0.00000E+00        -0.48461E+08
 
   -0.37175E+08        -0.97497E+06         0.00000E+00
   -0.97497E+06        -0.60257E+08         0.00000E+00
    0.00000E+00         0.00000E+00        -0.48522E+08
 
   -0.38557E+08        -0.85181E+06         0.00000E+00
   -0.85181E+06        -0.60036E+08         0.00000E+00
    0.00000E+00         0.00000E+00        -0.48590E+08
 
   -0.40010E+08        -0.52475E+06         0.00000E+00
   -0.52475E+06        -0.59787E+08         0.00000E+00
    0.00000E+00         0.00000E+00        -0.48661E+08
 
   -0.41468E+08        -0.23260E+05         0.00000E+00
   -0.23260E+05        -0.59521E+08         0.00000E+00
    0.00000E+00         0.00000E+00        -0.48733E+08
 
   -0.42911E+08         0.62471E+06         0.00000E+00
    0.62471E+06        -0.59220E+08         0.00000E+00
    0.00000E+00         0.00000E+00        -0.48800E+08
 
   -0.44340E+08         0.14156E+07         0.00000E+00
    0.14156E+07        -0.58858E+08         0.00000E+00
    0.00000E+00         0.00000E+00        -0.48860E+08
 
   -0.45753E+08         0.23716E+07         0.00000E+00
    0.23716E+07        -0.58416E+08         0.00000E+00
    0.00000E+00         0.00000E+00        -0.48908E+08
 
   -0.47122E+08         0.35306E+07         0.00000E+00
    0.35306E+07        -0.57902E+08         0.00000E+00
    0.00000E+00         0.00000E+00        -0.48943E+08
 
   -0.48378E+08         0.49278E+07         0.00000E+00
    0.49278E+07        -0.57352E+08         0.00000E+00
    0.00000E+00         0.00000E+00        -0.48961E+08
 
   -0.32251E+08        -0.15934E+06         0.00000E+00
   -0.15934E+06        -0.59994E+08         0.00000E+00
    0.00000E+00         0.00000E+00        -0.46844E+08
 
   -0.32998E+08        -0.36536E+06         0.00000E+00
   -0.36536E+06        -0.60006E+08         0.00000E+00
    0.00000E+00         0.00000E+00        -0.46854E+08
 
   -0.33708E+08        -0.48116E+06         0.00000E+00
   -0.48116E+06        -0.60065E+08         0.00000E+00
    0.00000E+00         0.00000E+00        -0.46874E+08
 
   -0.34395E+08        -0.59025E+06         0.00000E+00
   -0.59025E+06        -0.60146E+08         0.00000E+00
    0.00000E+00         0.00000E+00        -0.46900E+08
 
   -0.35151E+08        -0.71305E+06         0.00000E+00
   -0.71305E+06        -0.60183E+08         0.00000E+00
    0.00000E+00         0.00000E+00        -0.46932E+08
 
   -0.36053E+08        -0.80017E+06         0.00000E+00
   -0.80017E+06        -0.60130E+08         0.00000E+00
    0.00000E+00         0.00000E+00        -0.46971E+08
 
   -0.37118E+08        -0.78127E+06         0.00000E+00
   -0.78127E+06        -0.59984E+08         0.00000E+00
    0.00000E+00         0.00000E+00        -0.47015E+08
 
   -0.38311E+08        -0.60488E+06         0.00000E+00
   -0.60488E+06        -0.59767E+08         0.00000E+00
    0.00000E+00         0.00000E+00        -0.47064E+08
 
   -0.39580E+08        -0.25101E+06         0.00000E+00
   -0.25101E+06        -0.59502E+08         0.00000E+00
    0.00000E+00         0.00000E+00        -0.47117E+08
 
   -0.40875E+08         0.27624E+06         0.00000E+00
    0.27624E+06        -0.59206E+08         0.00000E+00
    0.00000E+00         0.00000E+00        -0.47171E+08
 
   -0.42167E+08         0.96611E+06         0.00000E+00
    0.96611E+06        -0.58875E+08         0.00000E+00
    0.00000E+00         0.00000E+00        -0.47222E+08
 
   -0.43439E+08         0.18154E+07         0.00000E+00
    0.18154E+07        -0.58504E+08         0.00000E+00
    0.00000E+00         0.00000E+00        -0.47268E+08
 
   -0.44673E+08         0.28330E+07         0.00000E+00
    0.28330E+07        -0.58087E+08         0.00000E+00
    0.00000E+00         0.00000E+00        -0.47306E+08
 
   -0.45835E+08         0.40337E+07         0.00000E+00
    0.40337E+07        -0.57635E+08         0.00000E+00
    0.00000E+00         0.00000E+00        -0.47334E+08
 
   -0.46873E+08         0.54269E+07         0.00000E+00
    0.54269E+07        -0.57177E+08         0.00000E+00
    0.00000E+00         0.00000E+00        -0.47349E+08
 
   -0.32529E+08        -0.15282E+06         0.00000E+00
   -0.15282E+06        -0.59995E+08         0.00000E+00
    0.00000E+00         0.00000E+00        -0.45457E+08
 
   -0.33165E+08        -0.38093E+06         0.00000E+00
   -0.38093E+06        -0.59993E+08         0.00000E+00
    0.00000E+00         0.00000E+00        -0.45463E+08
 
   -0.33820E+08        -0.52830E+06         0.00000E+00
   -0.52830E+06        -0.60003E+08         0.00000E+00
    0.00000E+00         0.00000E+00        -0.45474E+08
 
   -0.34495E+08        -0.62826E+06         0.00000E+00
   -0.62826E+06        -0.60016E+08         0.00000E+00
    0.00000E+00         0.00000E+00        -0.45489E+08
 
   -0.35227E+08        -0.69133E+06         0.00000E+00
   -0.69133E+06        -0.60000E+08         0.00000E+00
    0.00000E+00         0.00000E+00        -0.45509E+08
 
   -0.36053E+08        -0.69458E+06         0.00000E+00
   -0.69458E+06        -0.59925E+08         0.00000E+00
    0.00000E+00         0.00000E+00        -0.45533E+08
 
   -0.36990E+08        -0.59720E+06         0.00000E+00
   -0.59720E+06        -0.59781E+08         0.00000E+00
    0.00000E+00         0.00000E+00        -0.45562E+08
 
   -0.38023E+08        -0.36222E+06         0.00000E+00
   -0.36222E+06        -0.59572E+08         0.00000E+00
    0.00000E+00         0.00000E+00        -0.45595E+08
 
   -0.39120E+08         0.31756E+05         0.00000E+00
    0.31756E+05        -0.59315E+08         0.00000E+00
    0.00000E+00         0.00000E+00        -0.45631E+08
 
   -0.40249E+08         0.59108E+06         0.00000E+00
    0.59108E+06        -0.59020E+08         0.00000E+00
    0.00000E+00         0.00000E+00        -0.45669E+08
 
   -0.41380E+08         0.13144E+07         0.00000E+00
    0.13144E+07        -0.58693E+08         0.00000E+00
    0.00000E+00         0.00000E+00        -0.45706E+08
 
   -0.42489E+08         0.22000E+07         0.00000E+00
    0.22000E+07        -0.58336E+08         0.00000E+00
    0.00000E+00         0.00000E+00        -0.45739E+08
 
   -0.43553E+08         0.32493E+07         0.00000E+00
    0.32493E+07        -0.57954E+08         0.00000E+00
    0.00000E+00         0.00000E+00        -0.45768E+08
 
   -0.44539E+08         0.44637E+07         0.00000E+00
    0.44637E+07        -0.57559E+08         0.00000E+00
    0.00000E+00         0.00000E+00        -0.45788E+08
 
   -0.45405E+08         0.58385E+07         0.00000E+00
    0.58385E+07        -0.57172E+08         0.00000E+00
    0.00000E+00         0.00000E+00        -0.45800E+08
 
   -0.32803E+08        -0.14502E+06         0.00000E+00
   -0.14502E+06        -0.59994E+08         0.00000E+00
    0.00000E+00         0.00000E+00        -0.44110E+08
 
   -0.33352E+08        -0.37296E+06         0.00000E+00
   -0.37296E+06        -0.59981E+08         0.00000E+00
    0.00000E+00         0.00000E+00        -0.44112E+08
 
   -0.33940E+08        -0.52555E+06         0.00000E+00
   -0.52555E+06        -0.59964E+08         0.00000E+00
    0.00000E+00         0.00000E+00        -0.44116E+08
 
   -0.34565E+08        -0.61302E+06         0.00000E+00
   -0.61302E+06        -0.59939E+08         0.00000E+00
    0.00000E+00         0.00000E+00        -0.44122E+08
 
   -0.35239E+08        -0.63630E+06         0.00000E+00
   -0.63630E+06        -0.59890E+08         0.00000E+00
    0.00000E+00         0.00000E+00        -0.44130E+08
 
   -0.35980E+08        -0.58090E+06         0.00000E+00
   -0.58090E+06        -0.59798E+08         0.00000E+00
    0.00000E+00         0.00000E+00        -0.44141E+08
 
   -0.36798E+08        -0.42183E+06         0.00000E+00
   -0.42183E+06        -0.59655E+08         0.00000E+00
    0.00000E+00         0.00000E+00        -0.44156E+08
 
   -0.37686E+08        -0.13361E+06         0.00000E+00
   -0.13361E+06        -0.59461E+08         0.00000E+00
    0.00000E+00         0.00000E+00        -0.44175E+08
 
   -0.38626E+08         0.30203E+06         0.00000E+00
    0.30203E+06        -0.59221E+08         0.00000E+00
    0.00000E+00         0.00000E+00        -0.44196E+08
 
   -0.39592E+08         0.89423E+06         0.00000E+00
    0.89423E+06        -0.58946E+08         0.00000E+00
    0.00000E+00         0.00000E+00        -0.44219E+08
 
   -0.40562E+08         0.16453E+07         0.00000E+00
    0.16453E+07        -0.58642E+08         0.00000E+00
    0.00000E+00         0.00000E+00        -0.44242E+08
 
   -0.41512E+08         0.25543E+07         0.00000E+00
    0.25543E+07        -0.58316E+08         0.00000E+00
    0.00000E+00         0.00000E+00        -0.44264E+08
 
   -0.42417E+08         0.36185E+07         0.00000E+00
    0.36185E+07        -0.57976E+08         0.00000E+00
    0.00000E+00         0.00000E+00        -0.44283E+08
 
   -0.43249E+08         0.48320E+07         0.00000E+00
    0.48320E+07        -0.57633E+08         0.00000E+00
    0.00000E+00         0.00000E+00        -0.44297E+08
 
   -0.43975E+08         0.61829E+07         0.00000E+00
    0.61829E+07        -0.57305E+08         0.00000E+00
    0.00000E+00         0.00000E+00        -0.44305E+08
 
   -0.33064E+08        -0.13446E+06         0.00000E+00
   -0.13446E+06        -0.59993E+08         0.00000E+00
    0.00000E+00         0.00000E+00        -0.42798E+08
 
   -0.33537E+08        -0.35144E+06         0.00000E+00
   -0.35144E+06        -0.59975E+08         0.00000E+00
    0.00000E+00         0.00000E+00        -0.42796E+08
 
   -0.34055E+08        -0.49693E+06         0.00000E+00
   -0.49693E+06        -0.59944E+08         0.00000E+00
    0.00000E+00         0.00000E+00        -0.42793E+08
 
   -0.34610E+08        -0.56902E+06         0.00000E+00
   -0.56902E+06        -0.59901E+08         0.00000E+00
    0.00000E+00         0.00000E+00        -0.42790E+08
 
   -0.35207E+08        -0.56218E+06         0.00000E+00
   -0.56218E+06        -0.59836E+08         0.00000E+00
    0.00000E+00         0.00000E+00        -0.42788E+08
 
   -0.35853E+08        -0.46424E+06         0.00000E+00
   -0.46424E+06        -0.59740E+08         0.00000E+00
    0.00000E+00         0.00000E+00        -0.42788E+08
 
   -0.36554E+08        -0.25789E+06         0.00000E+00
   -0.25789E+06        -0.59604E+08         0.00000E+00
    0.00000E+00         0.00000E+00        -0.42789E+08
 
   -0.37305E+08         0.74818E+05         0.00000E+00
    0.74818E+05        -0.59428E+08         0.00000E+00
    0.00000E+00         0.00000E+00        -0.42794E+08
 
   -0.38095E+08         0.54811E+06         0.00000E+00
    0.54811E+06        -0.59214E+08         0.00000E+00
    0.00000E+00         0.00000E+00        -0.42801E+08
 
   -0.38907E+08         0.11704E+07         0.00000E+00
    0.11704E+07        -0.58969E+08         0.00000E+00
    0.00000E+00         0.00000E+00        -0.42811E+08
 
   -0.39722E+08         0.19447E+07         0.00000E+00
    0.19447E+07        -0.58699E+08         0.00000E+00
    0.00000E+00         0.00000E+00        -0.42822E+08
 
   -0.40519E+08         0.28695E+07         0.00000E+00
    0.28695E+07        -0.58412E+08         0.00000E+00
    0.00000E+00         0.00000E+00        -0.42833E+08
 
   -0.41277E+08         0.39397E+07         0.00000E+00
    0.39397E+07        -0.58117E+08         0.00000E+00
    0.00000E+00         0.00000E+00        -0.42844E+08
 
   -0.41972E+08         0.51460E+07         0.00000E+00
    0.51460E+07        -0.57824E+08         0.00000E+00
    0.00000E+00         0.00000E+00        -0.42852E+08
 
   -0.42579E+08         0.64730E+07         0.00000E+00
    0.64730E+07        -0.57546E+08         0.00000E+00
    0.00000E+00         0.00000E+00        -0.42856E+08
 
   -0.33305E+08        -0.12266E+06         0.00000E+00
   -0.12266E+06        -0.59993E+08         0.00000E+00
    0.00000E+00         0.00000E+00        -0.41513E+08
 
   -0.33712E+08        -0.32433E+06         0.00000E+00
   -0.32433E+06        -0.59974E+08         0.00000E+00
    0.00000E+00         0.00000E+00        -0.41508E+08
 
   -0.34158E+08        -0.45815E+06         0.00000E+00
   -0.45815E+06        -0.59941E+08         0.00000E+00
    0.00000E+00         0.00000E+00        -0.41499E+08
 
   -0.34634E+08        -0.51450E+06         0.00000E+00
   -0.51450E+06        -0.59894E+08         0.00000E+00
    0.00000E+00         0.00000E+00        -0.41487E+08
 
   -0.35142E+08        -0.48359E+06         0.00000E+00
   -0.48359E+06        -0.59828E+08         0.00000E+00
    0.00000E+00         0.00000E+00        -0.41475E+08
 
   -0.35686E+08        -0.35357E+06         0.00000E+00
   -0.35357E+06        -0.59738E+08         0.00000E+00
    0.00000E+00         0.00000E+00        -0.41464E+08
 
   -0.36269E+08        -0.11091E+06         0.00000E+00
   -0.11091E+06        -0.59618E+08         0.00000E+00
    0.00000E+00         0.00000E+00        -0.41453E+08
 
   -0.36887E+08         0.25766E+06         0.00000E+00
    0.25766E+06        -0.59466E+08         0.00000E+00
    0.00000E+00         0.00000E+00        -0.41445E+08
 
   -0.37534E+08         0.76282E+06         0.00000E+00
    0.76282E+06        -0.59283E+08         0.00000E+00
    0.00000E+00         0.00000E+00        -0.41440E+08
 
   -0.38198E+08         0.14111E+07         0.00000E+00
    0.14111E+07        -0.59074E+08         0.00000E+00
    0.00000E+00         0.00000E+00        -0.41438E+08
 
   -0.38864E+08         0.22046E+07         0.00000E+00
    0.22046E+07        -0.58844E+08         0.00000E+00
    0.00000E+00         0.00000E+00        -0.41437E+08
 
   -0.39517E+08         0.31409E+07         0.00000E+00
    0.31409E+07        -0.58601E+08         0.00000E+00
    0.00000E+00         0.00000E+00        -0.41438E+08
 
   -0.40139E+08         0.42134E+07         0.00000E+00
    0.42134E+07        -0.58351E+08         0.00000E+00
    0.00000E+00         0.00000E+00        -0.41441E+08
 
   -0.40710E+08         0.54109E+07         0.00000E+00
    0.54109E+07        -0.58105E+08         0.00000E+00
    0.00000E+00         0.00000E+00        -0.41443E+08
 
   -0.41213E+08         0.67170E+07         0.00000E+00
    0.67170E+07        -0.57873E+08         0.00000E+00
    0.00000E+00         0.00000E+00        -0.41445E+08
 
   -0.33527E+08        -0.11184E+06         0.00000E+00
   -0.11184E+06        -0.59995E+08         0.00000E+00
    0.00000E+00         0.00000E+00        -0.40247E+08
 
   -0.33875E+08        -0.29857E+06         0.00000E+00
   -0.29857E+06        -0.59979E+08         0.00000E+00
    0.00000E+00         0.00000E+00        -0.40239E+08
 
   -0.34248E+08        -0.42061E+06         0.00000E+00
   -0.42061E+06        -0.59950E+08         0.00000E+00
    0.00000E+00         0.00000E+00        -0.40224E+08
 
   -0.34640E+08        -0.46294E+06         0.00000E+00
   -0.46294E+06        -0.59911E+08         0.00000E+00
    0.00000E+00         0.00000E+00        -0.40205E+08
 
   -0.35052E+08        -0.41279E+06         0.00000E+00
   -0.41279E+06        -0.59856E+08         0.00000E+00
    0.00000E+00         0.00000E+00        -0.40183E+08
 
   -0.35488E+08        -0.25810E+06         0.00000E+00
   -0.25810E+06        -0.59782E+08         0.00000E+00
    0.00000E+00         0.00000E+00        -0.40161E+08
 
   -0.35950E+08         0.12685E+05         0.00000E+00
    0.12685E+05        -0.59685E+08         0.00000E+00
    0.00000E+00         0.00000E+00        -0.40140E+08
 
   -0.36437E+08         0.40985E+06         0.00000E+00
    0.40985E+06        -0.59562E+08         0.00000E+00
    0.00000E+00         0.00000E+00        -0.40120E+08
 
   -0.36945E+08         0.94129E+06         0.00000E+00
    0.94129E+06        -0.59415E+08         0.00000E+00
    0.00000E+00         0.00000E+00        -0.40103E+08
 
   -0.37467E+08         0.16115E+07         0.00000E+00
    0.16115E+07        -0.59246E+08         0.00000E+00
    0.00000E+00         0.00000E+00        -0.40090E+08
 
   -0.37992E+08         0.24210E+07         0.00000E+00
    0.24210E+07        -0.59059E+08         0.00000E+00
    0.00000E+00         0.00000E+00        -0.40079E+08
 
   -0.38509E+08         0.33665E+07         0.00000E+00
    0.33665E+07        -0.58861E+08         0.00000E+00
    0.00000E+00         0.00000E+00        -0.40071E+08
 
   -0.39003E+08         0.44403E+07         0.00000E+00
    0.44403E+07        -0.58658E+08         0.00000E+00
    0.00000E+00         0.00000E+00        -0.40066E+08
 
   -0.39462E+08         0.56303E+07         0.00000E+00
    0.56303E+07        -0.58457E+08         0.00000E+00
    0.00000E+00         0.00000E+00        -0.40063E+08
 
   -0.39871E+08         0.69201E+07         0.00000E+00
    0.69201E+07        -0.58266E+08         0.00000E+00
    0.00000E+00         0.00000E+00        -0.40062E+08
 
   -0.33733E+08        -0.10408E+06         0.00000E+00
   -0.10408E+06        -0.59997E+08         0.00000E+00
    0.00000E+00         0.00000E+00        -0.38992E+08
 
   -0.34027E+08        -0.27991E+06         0.00000E+00
   -0.27991E+06        -0.59988E+08         0.00000E+00
    0.00000E+00         0.00000E+00        -0.38980E+08
 
   -0.34327E+08        -0.39294E+06         0.00000E+00
   -0.39294E+06        -0.59971E+08         0.00000E+00
    0.00000E+00         0.00000E+00        -0.38960E+08
 
   -0.34631E+08        -0.42439E+06         0.00000E+00
   -0.42439E+06        -0.59946E+08         0.00000E+00
    0.00000E+00         0.00000E+00        -0.38934E+08
 
   -0.34943E+08        -0.35943E+06         0.00000E+00
   -0.35943E+06        -0.59911E+08         0.00000E+00
    0.00000E+00         0.00000E+00        -0.38904E+08
 
   -0.35267E+08        -0.18575E+06         0.00000E+00
   -0.18575E+06        -0.59861E+08         0.00000E+00
    0.00000E+00         0.00000E+00        -0.38872E+08
 
   -0.35606E+08         0.10697E+06         0.00000E+00
    0.10697E+06        -0.59793E+08         0.00000E+00
    0.00000E+00         0.00000E+00        -0.38840E+08
 
   -0.35962E+08         0.52700E+06         0.00000E+00
    0.52700E+06        -0.59704E+08         0.00000E+00
    0.00000E+00         0.00000E+00        -0.38810E+08
 
   -0.36335E+08         0.10800E+07         0.00000E+00
    0.10800E+07        -0.59596E+08         0.00000E+00
    0.00000E+00         0.00000E+00        -0.38783E+08
 
   -0.36719E+08         0.17687E+07         0.00000E+00
    0.17687E+07        -0.59470E+08         0.00000E+00
    0.00000E+00         0.00000E+00        -0.38759E+08
 
   -0.37109E+08         0.25922E+07         0.00000E+00
    0.25922E+07        -0.59328E+08         0.00000E+00
    0.00000E+00         0.00000E+00        -0.38739E+08
 
   -0.37495E+08         0.35460E+07         0.00000E+00
    0.35460E+07        -0.59176E+08         0.00000E+00
    0.00000E+00         0.00000E+00        -0.38723E+08
 
   -0.37870E+08         0.46217E+07         0.00000E+00
    0.46217E+07        -0.59018E+08         0.00000E+00
    0.00000E+00         0.00000E+00        -0.38711E+08
 
   -0.38223E+08         0.58071E+07         0.00000E+00
    0.58071E+07        -0.58860E+08         0.00000E+00
    0.00000E+00         0.00000E+00        -0.38703E+08
 
   -0.38546E+08         0.70861E+07         0.00000E+00
    0.70861E+07        -0.58708E+08         0.00000E+00
    0.00000E+00         0.00000E+00        -0.38699E+08
 
   -0.33929E+08        -0.10103E+06         0.00000E+00
   -0.10103E+06        -0.60000E+08         0.00000E+00
    0.00000E+00         0.00000E+00        -0.37739E+08
 
   -0.34173E+08        -0.27277E+06         0.00000E+00
   -0.27277E+06        -0.60000E+08         0.00000E+00
    0.00000E+00         0.00000E+00        -0.37725E+08
 
   -0.34399E+08        -0.38159E+06         0.00000E+00
   -0.38159E+06        -0.59999E+08         0.00000E+00
    0.00000E+00         0.00000E+00        -0.37700E+08
 
   -0.34612E+08        -0.40629E+06         0.00000E+00
   -0.40629E+06        -0.59996E+08         0.00000E+00
    0.00000E+00         0.00000E+00        -0.37667E+08
 
   -0.34819E+08        -0.33079E+06         0.00000E+00
   -0.33079E+06        -0.59986E+08         0.00000E+00
    0.00000E+00         0.00000E+00        -0.37629E+08
 
   -0.35027E+08        -0.14277E+06         0.00000E+00
   -0.14277E+06        -0.59965E+08         0.00000E+00
    0.00000E+00         0.00000E+00        -0.37588E+08
 
   -0.35241E+08         0.16714E+06         0.00000E+00
    0.16714E+06        -0.59931E+08         0.00000E+00
    0.00000E+00         0.00000E+00        -0.37547E+08
 
   -0.35467E+08         0.60565E+06         0.00000E+00
    0.60565E+06        -0.59881E+08         0.00000E+00
    0.00000E+00         0.00000E+00        -0.37507E+08
 
   -0.35705E+08         0.11767E+07         0.00000E+00
    0.11767E+07        -0.59814E+08         0.00000E+00
    0.00000E+00         0.00000E+00        -0.37471E+08
 
   -0.35955E+08         0.18814E+07         0.00000E+00
    0.18814E+07        -0.59731E+08         0.00000E+00
    0.00000E+00         0.00000E+00        -0.37437E+08
 
   -0.36214E+08         0.27175E+07         0.00000E+00
    0.27175E+07        -0.59635E+08         0.00000E+00
    0.00000E+00         0.00000E+00        -0.37409E+08
 
   -0.36476E+08         0.36796E+07         0.00000E+00
    0.36796E+07        -0.59529E+08         0.00000E+00
    0.00000E+00         0.00000E+00        -0.37385E+08
 
   -0.36737E+08         0.47590E+07         0.00000E+00
    0.47590E+07        -0.59415E+08         0.00000E+00
    0.00000E+00         0.00000E+00        -0.37367E+08
 
   -0.36990E+08         0.59434E+07         0.00000E+00
    0.59434E+07        -0.59299E+08         0.00000E+00
    0.00000E+00         0.00000E+00        -0.37355E+08
 
   -0.37231E+08         0.72171E+07         0.00000E+00
    0.72171E+07        -0.59184E+08         0.00000E+00
    0.00000E+00         0.00000E+00        -0.37349E+08
 
   -0.34125E+08        -0.10387E+06         0.00000E+00
   -0.10387E+06        -0.60004E+08         0.00000E+00
    0.00000E+00         0.00000E+00        -0.36480E+08
 
   -0.34318E+08        -0.28036E+06         0.00000E+00
   -0.28036E+06        -0.60015E+08         0.00000E+00
    0.00000E+00         0.00000E+00        -0.36464E+08
 
   -0.34468E+08        -0.39117E+06         0.00000E+00
   -0.39117E+06        -0.60033E+08         0.00000E+00
    0.00000E+00         0.00000E+00        -0.36434E+08
 
   -0.34586E+08        -0.41389E+06         0.00000E+00
   -0.41389E+06        -0.60055E+08         0.00000E+00
    0.00000E+00         0.00000E+00        -0.36395E+08
 
   -0.34684E+08        -0.33202E+06         0.00000E+00
   -0.33202E+06        -0.60074E+08         0.00000E+00
    0.00000E+00         0.00000E+00        -0.36350E+08
 
   -0.34773E+08        -0.13359E+06         0.00000E+00
   -0.13359E+06        -0.60087E+08         0.00000E+00
    0.00000E+00         0.00000E+00        -0.36301E+08
 
   -0.34861E+08         0.18980E+06         0.00000E+00
    0.18980E+06        -0.60090E+08         0.00000E+00
    0.00000E+00         0.00000E+00        -0.36252E+08
 
   -0.34955E+08         0.64347E+06         0.00000E+00
    0.64347E+06        -0.60080E+08         0.00000E+00
    0.00000E+00         0.00000E+00        -0.36204E+08
 
   -0.35060E+08         0.12299E+07         0.00000E+00
    0.12299E+07        -0.60056E+08         0.00000E+00
    0.00000E+00         0.00000E+00        -0.36158E+08
 
   -0.35178E+08         0.19488E+07         0.00000E+00
    0.19488E+07        -0.60018E+08         0.00000E+00
    0.00000E+00         0.00000E+00        -0.36117E+08
 
   -0.35309E+08         0.27969E+07         0.00000E+00
    0.27969E+07        -0.59967E+08         0.00000E+00
    0.00000E+00         0.00000E+00        -0.36081E+08
 
   -0.35451E+08         0.37681E+07         0.00000E+00
    0.37681E+07        -0.59905E+08         0.00000E+00
    0.00000E+00         0.00000E+00        -0.36051E+08
 
   -0.35601E+08         0.48533E+07         0.00000E+00
    0.48533E+07        -0.59835E+08         0.00000E+00
    0.00000E+00         0.00000E+00        -0.36027E+08
 
   -0.35758E+08         0.60404E+07         0.00000E+00
    0.60404E+07        -0.59760E+08         0.00000E+00
    0.00000E+00         0.00000E+00        -0.36011E+08
 
   -0.35919E+08         0.73145E+07         0.00000E+00
    0.73145E+07        -0.59681E+08         0.00000E+00
    0.00000E+00         0.00000E+00        -0.36003E+08
 
   -0.34332E+08        -0.11339E+06         0.00000E+00
   -0.11339E+06        -0.60007E+08         0.00000E+00
    0.00000E+00         0.00000E+00        -0.35207E+08
 
   -0.34471E+08        -0.30476E+06         0.00000E+00
   -0.30476E+06        -0.60031E+08         0.00000E+00
    0.00000E+00         0.00000E+00        -0.35189E+08
 
   -0.34540E+08        -0.42463E+06         0.00000E+00
   -0.42463E+06        -0.60070E+08         0.00000E+00
    0.00000E+00         0.00000E+00        -0.35155E+08
 
   -0.34558E+08        -0.45050E+06         0.00000E+00
   -0.45050E+06        -0.60119E+08         0.00000E+00
    0.00000E+00         0.00000E+00        -0.35111E+08
 
   -0.34543E+08        -0.36628E+06         0.00000E+00
   -0.36628E+06        -0.60171E+08         0.00000E+00
    0.00000E+00         0.00000E+00        -0.35060E+08
 
   -0.34508E+08        -0.16083E+06         0.00000E+00
   -0.16083E+06        -0.60219E+08         0.00000E+00
    0.00000E+00         0.00000E+00        -0.35004E+08
 
   -0.34467E+08         0.17306E+06         0.00000E+00
    0.17306E+06        -0.60260E+08         0.00000E+00
    0.00000E+00         0.00000E+00        -0.34948E+08
 
   -0.34428E+08         0.63937E+06         0.00000E+00
    0.63937E+06        -0.60291E+08         0.00000E+00
    0.00000E+00         0.00000E+00        -0.34892E+08
 
   -0.34400E+08         0.12393E+07         0.00000E+00
    0.12393E+07        -0.60310E+08         0.00000E+00
    0.00000E+00         0.00000E+00        -0.34839E+08
 
   -0.34387E+08         0.19713E+07         0.00000E+00
    0.19713E+07        -0.60316E+08         0.00000E+00
    0.00000E+00         0.00000E+00        -0.34791E+08
 
   -0.34392E+08         0.28313E+07         0.00000E+00
    0.28313E+07        -0.60310E+08         0.00000E+00
    0.00000E+00         0.00000E+00        -0.34748E+08
 
   -0.34416E+08         0.38125E+07         0.00000E+00
    0.38125E+07        -0.60292E+08         0.00000E+00
    0.00000E+00         0.00000E+00        -0.34712E+08
 
   -0.34460E+08         0.49057E+07         0.00000E+00
    0.49057E+07        -0.60265E+08         0.00000E+00
    0.00000E+00         0.00000E+00        -0.34684E+08
 
   -0.34523E+08         0.60992E+07         0.00000E+00
    0.60992E+07        -0.60229E+08         0.00000E+00
    0.00000E+00         0.00000E+00        -0.34665E+08
 
   -0.34605E+08         0.73788E+07         0.00000E+00
    0.73788E+07        -0.60185E+08         0.00000E+00
    0.00000E+00         0.00000E+00        -0.34655E+08
 
   -0.34564E+08        -0.12997E+06         0.00000E+00
   -0.12997E+06        -0.60011E+08         0.00000E+00
    0.00000E+00         0.00000E+00        -0.33913E+08
 
   -0.34640E+08        -0.34707E+06         0.00000E+00
   -0.34707E+06        -0.60047E+08         0.00000E+00
    0.00000E+00         0.00000E+00        -0.33893E+08
 
   -0.34622E+08        -0.48346E+06         0.00000E+00
   -0.48346E+06        -0.60109E+08         0.00000E+00
    0.00000E+00         0.00000E+00        -0.33856E+08
 
   -0.34533E+08        -0.51768E+06         0.00000E+00
   -0.51768E+06        -0.60186E+08         0.00000E+00
    0.00000E+00         0.00000E+00        -0.33807E+08
 
   -0.34398E+08        -0.43486E+06         0.00000E+00
   -0.43486E+06        -0.60270E+08         0.00000E+00
    0.00000E+00         0.00000E+00        -0.33751E+08
 
   -0.34236E+08        -0.22531E+06         0.00000E+00
   -0.22531E+06        -0.60354E+08         0.00000E+00
    0.00000E+00         0.00000E+00        -0.33690E+08
 
   -0.34062E+08         0.11665E+06         0.00000E+00
    0.11665E+06        -0.60433E+08         0.00000E+00
    0.00000E+00         0.00000E+00        -0.33627E+08
 
   -0.33890E+08         0.59359E+06         0.00000E+00
    0.59359E+06        -0.60504E+08         0.00000E+00
    0.00000E+00         0.00000E+00        -0.33565E+08
 
   -0.33728E+08         0.12054E+07         0.00000E+00
    0.12054E+07        -0.60564E+08         0.00000E+00
    0.00000E+00         0.00000E+00        -0.33506E+08
 
   -0.33585E+08         0.19497E+07         0.00000E+00
    0.19497E+07        -0.60613E+08         0.00000E+00
    0.00000E+00         0.00000E+00        -0.33452E+08
 
   -0.33465E+08         0.28215E+07         0.00000E+00
    0.28215E+07        -0.60651E+08         0.00000E+00
    0.00000E+00         0.00000E+00        -0.33404E+08
 
   -0.33373E+08         0.38137E+07         0.00000E+00
    0.38137E+07        -0.60676E+08         0.00000E+00
    0.00000E+00         0.00000E+00        -0.33363E+08
 
   -0.33310E+08         0.49169E+07         0.00000E+00
    0.49169E+07        -0.60691E+08         0.00000E+00
    0.00000E+00         0.00000E+00        -0.33331E+08
 
   -0.33279E+08         0.61200E+07         0.00000E+00
    0.61200E+07        -0.60695E+08         0.00000E+00
    0.00000E+00         0.00000E+00        -0.33309E+08
 
   -0.33283E+08         0.74098E+07         0.00000E+00
    0.74098E+07        -0.60687E+08         0.00000E+00
    0.00000E+00         0.00000E+00        -0.33297E+08
 
   -0.34833E+08        -0.15371E+06         0.00000E+00
   -0.15371E+06        -0.60015E+08         0.00000E+00
    0.00000E+00         0.00000E+00        -0.32591E+08
 
   -0.34835E+08        -0.40747E+06         0.00000E+00
   -0.40747E+06        -0.60063E+08         0.00000E+00
    0.00000E+00         0.00000E+00        -0.32569E+08
 
   -0.34718E+08        -0.56781E+06         0.00000E+00
   -0.56781E+06        -0.60146E+08         0.00000E+00
    0.00000E+00         0.00000E+00        -0.32530E+08
 
   -0.34515E+08        -0.61529E+06         0.00000E+00
   -0.61529E+06        -0.60251E+08         0.00000E+00
    0.00000E+00         0.00000E+00        -0.32478E+08
 
   -0.34254E+08        -0.53721E+06         0.00000E+00
   -0.53721E+06        -0.60366E+08         0.00000E+00
    0.00000E+00         0.00000E+00        -0.32417E+08
 
   -0.33959E+08        -0.32602E+06         0.00000E+00
   -0.32602E+06        -0.60484E+08         0.00000E+00
    0.00000E+00         0.00000E+00        -0.32351E+08
 
   -0.33649E+08         0.22005E+05         0.00000E+00
    0.22005E+05        -0.60599E+08         0.00000E+00
    0.00000E+00         0.00000E+00        -0.32284E+08
 
   -0.33340E+08         0.50776E+06         0.00000E+00
    0.50776E+06        -0.60708E+08         0.00000E+00
    0.00000E+00         0.00000E+00        -0.32217E+08
 
   -0.33044E+08         0.11300E+07         0.00000E+00
    0.11300E+07        -0.60808E+08         0.00000E+00
    0.00000E+00         0.00000E+00        -0.32153E+08
 
   -0.32770E+08         0.18854E+07         0.00000E+00
    0.18854E+07        -0.60898E+08         0.00000E+00
    0.00000E+00         0.00000E+00        -0.32094E+08
 
   -0.32526E+08         0.27688E+07         0.00000E+00
    0.27688E+07        -0.60977E+08         0.00000E+00
    0.00000E+00         0.00000E+00        -0.32042E+08
 
   -0.32318E+08         0.37727E+07         0.00000E+00
    0.37727E+07        -0.61045E+08         0.00000E+00
    0.00000E+00         0.00000E+00        -0.31998E+08
 
   -0.32149E+08         0.48876E+07         0.00000E+00
    0.48876E+07        -0.61100E+08         0.00000E+00
    0.00000E+00         0.00000E+00        -0.31963E+08
 
   -0.32025E+08         0.61027E+07         0.00000E+00
    0.61027E+07        -0.61143E+08         0.00000E+00
    0.00000E+00         0.00000E+00        -0.31938E+08
 
   -0.31948E+08         0.74065E+07         0.00000E+00
    0.74065E+07        -0.61172E+08         0.00000E+00
    0.00000E+00         0.00000E+00        -0.31925E+08
 
   -0.35152E+08        -0.18442E+06         0.00000E+00
   -0.18442E+06        -0.60019E+08         0.00000E+00
    0.00000E+00         0.00000E+00        -0.31235E+08
 
   -0.35065E+08        -0.48539E+06         0.00000E+00
   -0.48539E+06        -0.60079E+08         0.00000E+00
    0.00000E+00         0.00000E+00        -0.31212E+08
 
   -0.34836E+08        -0.67653E+06         0.00000E+00
   -0.67653E+06        -0.60182E+08         0.00000E+00
    0.00000E+00         0.00000E+00        -0.31171E+08
 
   -0.34507E+08        -0.74154E+06         0.00000E+00
   -0.74154E+06        -0.60312E+08         0.00000E+00
    0.00000E+00         0.00000E+00        -0.31116E+08
 
   -0.34112E+08        -0.67086E+06         0.00000E+00
   -0.67086E+06        -0.60455E+08         0.00000E+00
    0.00000E+00         0.00000E+00        -0.31053E+08
 
   -0.33678E+08        -0.45992E+06         0.00000E+00
   -0.45992E+06        -0.60603E+08         0.00000E+00
    0.00000E+00         0.00000E+00        -0.30984E+08
 
   -0.33229E+08        -0.10755E+06         0.00000E+00
   -0.10755E+06        -0.60750E+08         0.00000E+00
    0.00000E+00         0.00000E+00        -0.30913E+08
 
   -0.32782E+08         0.38518E+06         0.00000E+00
    0.38518E+06        -0.60892E+08         0.00000E+00
    0.00000E+00         0.00000E+00        -0.30842E+08
 
   -0.32350E+08         0.10158E+07         0.00000E+00
    0.10158E+07        -0.61028E+08         0.00000E+00
    0.00000E+00         0.00000E+00        -0.30775E+08
 
   -0.31945E+08         0.17806E+07         0.00000E+00
    0.17806E+07        -0.61156E+08         0.00000E+00
    0.00000E+00         0.00000E+00        -0.30712E+08
 
   -0.31576E+08         0.26745E+07         0.00000E+00
    0.26745E+07        -0.61275E+08         0.00000E+00
    0.00000E+00         0.00000E+00        -0.30657E+08
 
   -0.31251E+08         0.36901E+07         0.00000E+00
    0.36901E+07        -0.61384E+08         0.00000E+00
    0.00000E+00         0.00000E+00        -0.30610E+08
 
   -0.30977E+08         0.48177E+07         0.00000E+00
    0.48177E+07        -0.61480E+08         0.00000E+00
    0.00000E+00         0.00000E+00        -0.30573E+08
 
   -0.30756E+08         0.60464E+07         0.00000E+00
    0.60464E+07        -0.61564E+08         0.00000E+00
    0.00000E+00         0.00000E+00        -0.30546E+08
 
   -0.30595E+08         0.73666E+07         0.00000E+00
    0.73666E+07        -0.61632E+08         0.00000E+00
    0.00000E+00         0.00000E+00        -0.30533E+08
 
   -0.35533E+08        -0.22167E+06         0.00000E+00
   -0.22167E+06        -0.60022E+08         0.00000E+00
    0.00000E+00         0.00000E+00        -0.29840E+08
 
   -0.35336E+08        -0.57947E+06         0.00000E+00
   -0.57947E+06        -0.60093E+08         0.00000E+00
    0.00000E+00         0.00000E+00        -0.29817E+08
 
   -0.34980E+08        -0.80723E+06         0.00000E+00
   -0.80723E+06        -0.60214E+08         0.00000E+00
    0.00000E+00         0.00000E+00        -0.29774E+08
 
   -0.34512E+08        -0.89294E+06         0.00000E+00
   -0.89294E+06        -0.60365E+08         0.00000E+00
    0.00000E+00         0.00000E+00        -0.29718E+08
 
   -0.33974E+08        -0.83132E+06         0.00000E+00
   -0.83132E+06        -0.60532E+08         0.00000E+00
    0.00000E+00         0.00000E+00        -0.29653E+08
 
   -0.33396E+08        -0.62179E+06         0.00000E+00
   -0.62179E+06        -0.60704E+08         0.00000E+00
    0.00000E+00         0.00000E+00        -0.29582E+08
 
   -0.32804E+08        -0.26650E+06         0.00000E+00
   -0.26650E+06        -0.60876E+08         0.00000E+00
    0.00000E+00         0.00000E+00        -0.29508E+08
 
   -0.32217E+08         0.23111E+06         0.00000E+00
    0.23111E+06        -0.61045E+08         0.00000E+00
    0.00000E+00         0.00000E+00        -0.29435E+08
 
   -0.31649E+08         0.86732E+06         0.00000E+00
    0.86732E+06        -0.61210E+08         0.00000E+00
    0.00000E+00         0.00000E+00        -0.29366E+08
 
   -0.31111E+08         0.16383E+07         0.00000E+00
    0.16383E+07        -0.61371E+08         0.00000E+00
    0.00000E+00         0.00000E+00        -0.29301E+08
 
   -0.30616E+08         0.25398E+07         0.00000E+00
    0.25398E+07        -0.61528E+08         0.00000E+00
    0.00000E+00         0.00000E+00        -0.29244E+08
 
   -0.30172E+08         0.35659E+07         0.00000E+00
    0.35659E+07        -0.61678E+08         0.00000E+00
    0.00000E+00         0.00000E+00        -0.29195E+08
 
   -0.29790E+08         0.47067E+07         0.00000E+00
    0.47067E+07        -0.61818E+08         0.00000E+00
    0.00000E+00         0.00000E+00        -0.29156E+08
 
   -0.29473E+08         0.59494E+07         0.00000E+00
    0.59494E+07        -0.61943E+08         0.00000E+00
    0.00000E+00         0.00000E+00        -0.29129E+08
 
   -0.29221E+08         0.72861E+07         0.00000E+00
    0.72861E+07        -0.62054E+08         0.00000E+00
    0.00000E+00         0.00000E+00        -0.29115E+08
 
   -0.35988E+08        -0.26486E+06         0.00000E+00
   -0.26486E+06        -0.60025E+08         0.00000E+00
    0.00000E+00         0.00000E+00        -0.28403E+08
 
   -0.35657E+08        -0.68767E+06         0.00000E+00
   -0.68767E+06        -0.60105E+08         0.00000E+00
    0.00000E+00         0.00000E+00        -0.28379E+08
 
   -0.35153E+08        -0.95626E+06         0.00000E+00
   -0.95626E+06        -0.60240E+08         0.00000E+00
    0.00000E+00         0.00000E+00        -0.28336E+08
 
   -0.34532E+08        -0.10642E+07         0.00000E+00
   -0.10642E+07        -0.60408E+08         0.00000E+00
    0.00000E+00         0.00000E+00        -0.28279E+08
 
   -0.33840E+08        -0.10118E+07         0.00000E+00
   -0.10118E+07        -0.60590E+08         0.00000E+00
    0.00000E+00         0.00000E+00        -0.28213E+08
 
   -0.33113E+08        -0.80388E+06         0.00000E+00
   -0.80388E+06        -0.60778E+08         0.00000E+00
    0.00000E+00         0.00000E+00        -0.28141E+08
 
   -0.32376E+08        -0.44674E+06         0.00000E+00
   -0.44674E+06        -0.60966E+08         0.00000E+00
    0.00000E+00         0.00000E+00        -0.28067E+08
 
   -0.31649E+08         0.53240E+05         0.00000E+00
    0.53240E+05        -0.61152E+08         0.00000E+00
    0.00000E+00         0.00000E+00        -0.27993E+08
 
   -0.30944E+08         0.69096E+06         0.00000E+00
    0.69096E+06        -0.61339E+08         0.00000E+00
    0.00000E+00         0.00000E+00        -0.27922E+08
 
   -0.30274E+08         0.14629E+07         0.00000E+00
    0.14629E+07        -0.61527E+08         0.00000E+00
    0.00000E+00         0.00000E+00        -0.27856E+08
 
   -0.29649E+08         0.23663E+07         0.00000E+00
    0.23663E+07        -0.61718E+08         0.00000E+00
    0.00000E+00         0.00000E+00        -0.27798E+08
 
   -0.29083E+08         0.33975E+07         0.00000E+00
    0.33975E+07        -0.61909E+08         0.00000E+00
    0.00000E+00         0.00000E+00        -0.27749E+08
 
   -0.28590E+08         0.45504E+07         0.00000E+00
    0.45504E+07        -0.62097E+08         0.00000E+00
    0.00000E+00         0.00000E+00        -0.27710E+08
 
   -0.28177E+08         0.58084E+07         0.00000E+00
    0.58084E+07        -0.62272E+08         0.00000E+00
    0.00000E+00         0.00000E+00        -0.27683E+08
 
   -0.27828E+08         0.71571E+07         0.00000E+00
    0.71571E+07        -0.62433E+08         0.00000E+00
    0.00000E+00         0.00000E+00        -0.27669E+08
 
   -0.36527E+08        -0.31316E+06         0.00000E+00
   -0.31316E+06        -0.60027E+08         0.00000E+00
    0.00000E+00         0.00000E+00        -0.26918E+08
 
   -0.36032E+08        -0.80724E+06         0.00000E+00
   -0.80724E+06        -0.60115E+08         0.00000E+00
    0.00000E+00         0.00000E+00        -0.26895E+08
 
   -0.35357E+08        -0.11186E+07         0.00000E+00
   -0.11186E+07        -0.60260E+08         0.00000E+00
    0.00000E+00         0.00000E+00        -0.26852E+08
 
   -0.34566E+08        -0.12479E+07         0.00000E+00
   -0.12479E+07        -0.60436E+08         0.00000E+00
    0.00000E+00         0.00000E+00        -0.26796E+08
 
   -0.33711E+08        -0.12031E+07         0.00000E+00
   -0.12031E+07        -0.60626E+08         0.00000E+00
    0.00000E+00         0.00000E+00        -0.26730E+08
 
   -0.32829E+08        -0.99564E+06         0.00000E+00
   -0.99564E+06        -0.60818E+08         0.00000E+00
    0.00000E+00         0.00000E+00        -0.26658E+08
 
   -0.31947E+08        -0.63724E+06         0.00000E+00
   -0.63724E+06        -0.61009E+08         0.00000E+00
    0.00000E+00         0.00000E+00        -0.26584E+08
 
   -0.31081E+08        -0.13780E+06         0.00000E+00
   -0.13780E+06        -0.61200E+08         0.00000E+00
    0.00000E+00         0.00000E+00        -0.26511E+08
 
   -0.30242E+08         0.49595E+06         0.00000E+00
    0.49595E+06        -0.61396E+08         0.00000E+00
    0.00000E+00         0.00000E+00        -0.26440E+08
 
   -0.29440E+08         0.12609E+07         0.00000E+00
    0.12609E+07        -0.61602E+08         0.00000E+00
    0.00000E+00         0.00000E+00        -0.26375E+08
 
   -0.28684E+08         0.21570E+07         0.00000E+00
    0.21570E+07        -0.61820E+08         0.00000E+00
    0.00000E+00         0.00000E+00        -0.26317E+08
 
   -0.27991E+08         0.31842E+07         0.00000E+00
    0.31842E+07        -0.62050E+08         0.00000E+00
    0.00000E+00         0.00000E+00        -0.26268E+08
 
   -0.27377E+08         0.43379E+07         0.00000E+00
    0.43379E+07        -0.62287E+08         0.00000E+00
    0.00000E+00         0.00000E+00        -0.26230E+08
 
   -0.26873E+08         0.56101E+07         0.00000E+00
    0.56101E+07        -0.62527E+08         0.00000E+00
    0.00000E+00         0.00000E+00        -0.26203E+08
 
   -0.26421E+08         0.69520E+07         0.00000E+00
    0.69520E+07        -0.62794E+08         0.00000E+00
    0.00000E+00         0.00000E+00        -0.26190E+08
 
   -0.37157E+08        -0.36566E+06         0.00000E+00
   -0.36566E+06        -0.60029E+08         0.00000E+00
    0.00000E+00         0.00000E+00        -0.25385E+08
 
   -0.36464E+08        -0.93469E+06         0.00000E+00
   -0.93469E+06        -0.60121E+08         0.00000E+00
    0.00000E+00         0.00000E+00        -0.25362E+08
 
   -0.35591E+08        -0.12875E+07         0.00000E+00
   -0.12875E+07        -0.60271E+08         0.00000E+00
    0.00000E+00         0.00000E+00        -0.25321E+08
 
   -0.34612E+08        -0.14344E+07         0.00000E+00
   -0.14344E+07        -0.60447E+08         0.00000E+00
    0.00000E+00         0.00000E+00        -0.25265E+08
 
   -0.33583E+08        -0.13930E+07         0.00000E+00
   -0.13930E+07        -0.60630E+08         0.00000E+00
    0.00000E+00         0.00000E+00        -0.25201E+08
 
   -0.32544E+08        -0.11833E+07         0.00000E+00
   -0.11833E+07        -0.60812E+08         0.00000E+00
    0.00000E+00         0.00000E+00        -0.25131E+08
 
   -0.31517E+08        -0.82375E+06         0.00000E+00
   -0.82375E+06        -0.60991E+08         0.00000E+00
    0.00000E+00         0.00000E+00        -0.25059E+08
 
   -0.30517E+08        -0.32821E+06         0.00000E+00
   -0.32821E+06        -0.61172E+08         0.00000E+00
    0.00000E+00         0.00000E+00        -0.24987E+08
 
   -0.29549E+08         0.29483E+06         0.00000E+00
    0.29483E+06        -0.61363E+08         0.00000E+00
    0.00000E+00         0.00000E+00        -0.24918E+08
 
   -0.28619E+08         0.10428E+07         0.00000E+00
    0.10428E+07        -0.61573E+08         0.00000E+00
    0.00000E+00         0.00000E+00        -0.24854E+08
 
   -0.27732E+08         0.19184E+07         0.00000E+00
    0.19184E+07        -0.61807E+08         0.00000E+00
    0.00000E+00         0.00000E+00        -0.24798E+08
 
   -0.26906E+08         0.29289E+07         0.00000E+00
    0.29289E+07        -0.62069E+08         0.00000E+00
    0.00000E+00         0.00000E+00        -0.24750E+08
 
   -0.26168E+08         0.40735E+07         0.00000E+00
    0.40735E+07        -0.62350E+08         0.00000E+00
    0.00000E+00         0.00000E+00        -0.24713E+08
 
   -0.25546E+08         0.53345E+07         0.00000E+00
    0.53345E+07        -0.62635E+08         0.00000E+00
    0.00000E+00         0.00000E+00        -0.24688E+08
 
   -0.25201E+08         0.65753E+07         0.00000E+00
    0.65753E+07        -0.63007E+08         0.00000E+00
    0.00000E+00         0.00000E+00        -0.24910E+08
 
   -0.37884E+08        -0.42127E+06         0.00000E+00
   -0.42127E+06        -0.60031E+08         0.00000E+00
    0.00000E+00         0.00000E+00        -0.23801E+08
 
   -0.36952E+08        -0.10656E+07         0.00000E+00
   -0.10656E+07        -0.60124E+08         0.00000E+00
    0.00000E+00         0.00000E+00        -0.23779E+08
 
   -0.35850E+08        -0.14545E+07         0.00000E+00
   -0.14545E+07        -0.60270E+08         0.00000E+00
    0.00000E+00         0.00000E+00        -0.23739E+08
 
   -0.34663E+08        -0.16111E+07         0.00000E+00
   -0.16111E+07        -0.60434E+08         0.00000E+00
    0.00000E+00         0.00000E+00        -0.23687E+08
 
   -0.33452E+08        -0.15659E+07         0.00000E+00
   -0.15659E+07        -0.60596E+08         0.00000E+00
    0.00000E+00         0.00000E+00        -0.23625E+08
 
   -0.32255E+08        -0.13499E+07         0.00000E+00
   -0.13499E+07        -0.60749E+08         0.00000E+00
    0.00000E+00         0.00000E+00        -0.23558E+08
 
   -0.31090E+08        -0.98900E+06         0.00000E+00
   -0.98900E+06        -0.60897E+08         0.00000E+00
    0.00000E+00         0.00000E+00        -0.23489E+08
 
   -0.29964E+08        -0.50131E+06         0.00000E+00
   -0.50131E+06        -0.61049E+08         0.00000E+00
    0.00000E+00         0.00000E+00        -0.23420E+08
 
   -0.28876E+08         0.10318E+06         0.00000E+00
    0.10318E+06        -0.61218E+08         0.00000E+00
    0.00000E+00         0.00000E+00        -0.23354E+08
 
   -0.27824E+08         0.82263E+06         0.00000E+00
    0.82263E+06        -0.61416E+08         0.00000E+00
    0.00000E+00         0.00000E+00        -0.23293E+08
 
   -0.26809E+08         0.16630E+07         0.00000E+00
    0.16630E+07        -0.61652E+08         0.00000E+00
    0.00000E+00         0.00000E+00        -0.23239E+08
 
   -0.25839E+08         0.26377E+07         0.00000E+00
    0.26377E+07        -0.61932E+08         0.00000E+00
    0.00000E+00         0.00000E+00        -0.23193E+08
 
   -0.24970E+08         0.37675E+07         0.00000E+00
    0.37675E+07        -0.62245E+08         0.00000E+00
    0.00000E+00         0.00000E+00        -0.23158E+08
 
   -0.24226E+08         0.50183E+07         0.00000E+00
    0.50183E+07        -0.62600E+08         0.00000E+00
    0.00000E+00         0.00000E+00        -0.23183E+08
 
   -0.24192E+08         0.61347E+07         0.00000E+00
    0.61347E+07        -0.62977E+08         0.00000E+00
    0.00000E+00         0.00000E+00        -0.23869E+08
 
   -0.38710E+08        -0.47881E+06         0.00000E+00
   -0.47881E+06        -0.60031E+08         0.00000E+00
    0.00000E+00         0.00000E+00        -0.22166E+08
 
   -0.37489E+08        -0.11943E+07         0.00000E+00
   -0.11943E+07        -0.60123E+08         0.00000E+00
    0.00000E+00         0.00000E+00        -0.22145E+08
 
   -0.36123E+08        -0.16080E+07         0.00000E+00
   -0.16080E+07        -0.60256E+08         0.00000E+00
    0.00000E+00         0.00000E+00        -0.22107E+08
 
   -0.34709E+08        -0.17612E+07         0.00000E+00
   -0.17612E+07        -0.60390E+08         0.00000E+00
    0.00000E+00         0.00000E+00        -0.22058E+08
 
   -0.33311E+08        -0.17021E+07         0.00000E+00
   -0.17021E+07        -0.60509E+08         0.00000E+00
    0.00000E+00         0.00000E+00        -0.22000E+08
 
   -0.31960E+08        -0.14750E+07         0.00000E+00
   -0.14750E+07        -0.60612E+08         0.00000E+00
    0.00000E+00         0.00000E+00        -0.21937E+08
 
   -0.30667E+08        -0.11133E+07         0.00000E+00
   -0.11133E+07        -0.60707E+08         0.00000E+00
    0.00000E+00         0.00000E+00        -0.21873E+08
 
   -0.29427E+08        -0.63877E+06         0.00000E+00
   -0.63877E+06        -0.60812E+08         0.00000E+00
    0.00000E+00         0.00000E+00        -0.21808E+08
 
   -0.28232E+08        -0.61986E+05         0.00000E+00
   -0.61986E+05        -0.60941E+08         0.00000E+00
    0.00000E+00         0.00000E+00        -0.21746E+08
 
   -0.27069E+08         0.61654E+06         0.00000E+00
    0.61654E+06        -0.61111E+08         0.00000E+00
    0.00000E+00         0.00000E+00        -0.21689E+08
 
   -0.25929E+08         0.14065E+07         0.00000E+00
    0.14065E+07        -0.61333E+08         0.00000E+00
    0.00000E+00         0.00000E+00        -0.21638E+08
 
   -0.24815E+08         0.23288E+07         0.00000E+00
    0.23288E+07        -0.61615E+08         0.00000E+00
    0.00000E+00         0.00000E+00        -0.21596E+08
 
   -0.23740E+08         0.34281E+07         0.00000E+00
    0.34281E+07        -0.61951E+08         0.00000E+00
    0.00000E+00         0.00000E+00        -0.21564E+08
 
   -0.23076E+08         0.46120E+07         0.00000E+00
    0.46120E+07        -0.62341E+08         0.00000E+00
    0.00000E+00         0.00000E+00        -0.21908E+08
 
   -0.23117E+08         0.57213E+07         0.00000E+00
    0.57213E+07        -0.62773E+08         0.00000E+00
    0.00000E+00         0.00000E+00        -0.22781E+08
 
   -0.39634E+08        -0.53687E+06         0.00000E+00
   -0.53687E+06        -0.60031E+08         0.00000E+00
    0.00000E+00         0.00000E+00        -0.20478E+08
 
   -0.38064E+08        -0.13129E+07         0.00000E+00
   -0.13129E+07        -0.60114E+08         0.00000E+00
    0.00000E+00         0.00000E+00        -0.20459E+08
 
   -0.36395E+08        -0.17317E+07         0.00000E+00
   -0.17317E+07        -0.60219E+08         0.00000E+00
    0.00000E+00         0.00000E+00        -0.20424E+08
 
   -0.34737E+08        -0.18624E+07         0.00000E+00
   -0.18624E+07        -0.60302E+08         0.00000E+00
    0.00000E+00         0.00000E+00        -0.20379E+08
 
   -0.33152E+08        -0.17772E+07         0.00000E+00
   -0.17772E+07        -0.60352E+08         0.00000E+00
    0.00000E+00         0.00000E+00        -0.20326E+08
 
   -0.31659E+08        -0.15351E+07         0.00000E+00
   -0.15351E+07        -0.60378E+08         0.00000E+00
    0.00000E+00         0.00000E+00        -0.20269E+08
 
   -0.30253E+08        -0.11760E+07         0.00000E+00
   -0.11760E+07        -0.60399E+08         0.00000E+00
    0.00000E+00         0.00000E+00        -0.20210E+08
 
   -0.28916E+08        -0.72279E+06         0.00000E+00
   -0.72279E+06        -0.60437E+08         0.00000E+00
    0.00000E+00         0.00000E+00        -0.20151E+08
 
   -0.27628E+08        -0.18506E+06         0.00000E+00
   -0.18506E+06        -0.60511E+08         0.00000E+00
    0.00000E+00         0.00000E+00        -0.20095E+08
 
   -0.26367E+08         0.43874E+06         0.00000E+00
    0.43874E+06        -0.60640E+08         0.00000E+00
    0.00000E+00         0.00000E+00        -0.20043E+08
 
   -0.25112E+08         0.11614E+07         0.00000E+00
    0.11614E+07        -0.60838E+08         0.00000E+00
    0.00000E+00         0.00000E+00        -0.19997E+08
 
   -0.23847E+08         0.20132E+07         0.00000E+00
    0.20132E+07        -0.61118E+08         0.00000E+00
    0.00000E+00         0.00000E+00        -0.19959E+08
 
   -0.22557E+08         0.30451E+07         0.00000E+00
    0.30451E+07        -0.61485E+08         0.00000E+00
    0.00000E+00         0.00000E+00        -0.19941E+08
 
   -0.21998E+08         0.41494E+07         0.00000E+00
    0.41494E+07        -0.61930E+08         0.00000E+00
    0.00000E+00         0.00000E+00        -0.20652E+08
 
   -0.21966E+08         0.52874E+07         0.00000E+00
    0.52874E+07        -0.62400E+08         0.00000E+00
    0.00000E+00         0.00000E+00        -0.21589E+08
 
   -0.40650E+08        -0.59360E+06         0.00000E+00
   -0.59360E+06        -0.60030E+08         0.00000E+00
    0.00000E+00         0.00000E+00        -0.18738E+08
 
   -0.38655E+08        -0.14086E+07         0.00000E+00
   -0.14086E+07        -0.60096E+08         0.00000E+00
    0.00000E+00         0.00000E+00        -0.18720E+08
 
   -0.36639E+08        -0.18008E+07         0.00000E+00
   -0.18008E+07        -0.60148E+08         0.00000E+00
    0.00000E+00         0.00000E+00        -0.18690E+08
 
   -0.34729E+08        -0.18838E+07         0.00000E+00
   -0.18838E+07        -0.60146E+08         0.00000E+00
    0.00000E+00         0.00000E+00        -0.18649E+08
 
   -0.32969E+08        -0.17613E+07         0.00000E+00
   -0.17613E+07        -0.60092E+08         0.00000E+00
    0.00000E+00         0.00000E+00        -0.18603E+08
 
   -0.31354E+08        -0.15054E+07         0.00000E+00
   -0.15054E+07        -0.60013E+08         0.00000E+00
    0.00000E+00         0.00000E+00        -0.18553E+08
 
   -0.29856E+08        -0.11578E+07         0.00000E+00
   -0.11578E+07        -0.59939E+08         0.00000E+00
    0.00000E+00         0.00000E+00        -0.18501E+08
 
   -0.28442E+08        -0.73891E+06         0.00000E+00
   -0.73891E+06        -0.59896E+08         0.00000E+00
    0.00000E+00         0.00000E+00        -0.18450E+08
 
   -0.27079E+08        -0.25503E+06         0.00000E+00
   -0.25503E+06        -0.59906E+08         0.00000E+00
    0.00000E+00         0.00000E+00        -0.18401E+08
 
   -0.25736E+08         0.29796E+06         0.00000E+00
    0.29796E+06        -0.59987E+08         0.00000E+00
    0.00000E+00         0.00000E+00        -0.18355E+08
 
   -0.24378E+08         0.93407E+06         0.00000E+00
    0.93407E+06        -0.60157E+08         0.00000E+00
    0.00000E+00         0.00000E+00        -0.18315E+08
 
   -0.22966E+08         0.16822E+07         0.00000E+00
    0.16822E+07        -0.60435E+08         0.00000E+00
    0.00000E+00         0.00000E+00        -0.18282E+08
 
   -0.21498E+08         0.25911E+07         0.00000E+00
    0.25911E+07        -0.60840E+08         0.00000E+00
    0.00000E+00         0.00000E+00        -0.18300E+08
 
   -0.20902E+08         0.36398E+07         0.00000E+00
    0.36398E+07        -0.61354E+08         0.00000E+00
    0.00000E+00         0.00000E+00        -0.19239E+08
 
   -0.20760E+08         0.48118E+07         0.00000E+00
    0.48118E+07        -0.61888E+08         0.00000E+00
    0.00000E+00         0.00000E+00        -0.20290E+08
 
   -0.41742E+08        -0.64581E+06         0.00000E+00
   -0.64581E+06        -0.60026E+08         0.00000E+00
    0.00000E+00         0.00000E+00        -0.16945E+08
 
   -0.39221E+08        -0.14587E+07         0.00000E+00
   -0.14587E+07        -0.60056E+08         0.00000E+00
    0.00000E+00         0.00000E+00        -0.16930E+08
 
   -0.36821E+08        -0.17750E+07         0.00000E+00
   -0.17750E+07        -0.60014E+08         0.00000E+00
    0.00000E+00         0.00000E+00        -0.16904E+08
 
   -0.34668E+08        -0.17831E+07         0.00000E+00
   -0.17831E+07        -0.59875E+08         0.00000E+00
    0.00000E+00         0.00000E+00        -0.16870E+08
 
   -0.32763E+08        -0.16210E+07         0.00000E+00
   -0.16210E+07        -0.59677E+08         0.00000E+00
    0.00000E+00         0.00000E+00        -0.16831E+08
 
   -0.31056E+08        -0.13634E+07         0.00000E+00
   -0.13634E+07        -0.59468E+08         0.00000E+00
    0.00000E+00         0.00000E+00        -0.16789E+08
 
   -0.29492E+08        -0.10449E+07         0.00000E+00
   -0.10449E+07        -0.59285E+08         0.00000E+00
    0.00000E+00         0.00000E+00        -0.16747E+08
 
   -0.28022E+08        -0.67927E+06         0.00000E+00
   -0.67927E+06        -0.59155E+08         0.00000E+00
    0.00000E+00         0.00000E+00        -0.16704E+08
 
   -0.26603E+08        -0.26809E+06         0.00000E+00
   -0.26809E+06        -0.59099E+08         0.00000E+00
    0.00000E+00         0.00000E+00        -0.16663E+08
 
   -0.25193E+08         0.19517E+06         0.00000E+00
    0.19517E+06        -0.59134E+08         0.00000E+00
    0.00000E+00         0.00000E+00        -0.16626E+08
 
   -0.23750E+08         0.72409E+06         0.00000E+00
    0.72409E+06        -0.59279E+08         0.00000E+00
    0.00000E+00         0.00000E+00        -0.16593E+08
 
   -0.22221E+08         0.13382E+07         0.00000E+00
    0.13382E+07        -0.59556E+08         0.00000E+00
    0.00000E+00         0.00000E+00        -0.16565E+08
 
   -0.20579E+08         0.20755E+07         0.00000E+00
    0.20755E+07        -0.60001E+08         0.00000E+00
    0.00000E+00         0.00000E+00        -0.16590E+08
 
   -0.19793E+08         0.30464E+07         0.00000E+00
    0.30464E+07        -0.60584E+08         0.00000E+00
    0.00000E+00         0.00000E+00        -0.17635E+08
 
   -0.19498E+08         0.42451E+07         0.00000E+00
    0.42451E+07        -0.61232E+08         0.00000E+00
    0.00000E+00         0.00000E+00        -0.18869E+08
 
   -0.42876E+08        -0.68591E+06         0.00000E+00
   -0.68591E+06        -0.60015E+08         0.00000E+00
    0.00000E+00         0.00000E+00        -0.15101E+08
 
   -0.39695E+08        -0.14137E+07         0.00000E+00
   -0.14137E+07        -0.59965E+08         0.00000E+00
    0.00000E+00         0.00000E+00        -0.15089E+08
 
   -0.36901E+08        -0.15862E+07         0.00000E+00
   -0.15862E+07        -0.59746E+08         0.00000E+00
    0.00000E+00         0.00000E+00        -0.15068E+08
 
   -0.34553E+08        -0.15092E+07         0.00000E+00
   -0.15092E+07        -0.59404E+08         0.00000E+00
    0.00000E+00         0.00000E+00        -0.15042E+08
 
   -0.32549E+08        -0.13282E+07         0.00000E+00
   -0.13282E+07        -0.59028E+08         0.00000E+00
    0.00000E+00         0.00000E+00        -0.15012E+08
 
   -0.30786E+08        -0.10965E+07         0.00000E+00
   -0.10965E+07        -0.58677E+08         0.00000E+00
    0.00000E+00         0.00000E+00        -0.14981E+08
 
   -0.29183E+08        -0.83391E+06         0.00000E+00
   -0.83391E+06        -0.58385E+08         0.00000E+00
    0.00000E+00         0.00000E+00        -0.14948E+08
 
   -0.27677E+08        -0.54555E+06         0.00000E+00
   -0.54555E+06        -0.58173E+08         0.00000E+00
    0.00000E+00         0.00000E+00        -0.14916E+08
 
   -0.26218E+08        -0.22895E+06         0.00000E+00
   -0.22895E+06        -0.58059E+08         0.00000E+00
    0.00000E+00         0.00000E+00        -0.14885E+08
 
   -0.24758E+08         0.12366E+06         0.00000E+00
    0.12366E+06        -0.58059E+08         0.00000E+00
    0.00000E+00         0.00000E+00        -0.14856E+08
 
   -0.23251E+08         0.52398E+06         0.00000E+00
    0.52398E+06        -0.58189E+08         0.00000E+00
    0.00000E+00         0.00000E+00        -0.14831E+08
 
   -0.21645E+08         0.98337E+06         0.00000E+00
    0.98337E+06        -0.58469E+08         0.00000E+00
    0.00000E+00         0.00000E+00        -0.14811E+08
 
   -0.19848E+08         0.15143E+07         0.00000E+00
    0.15143E+07        -0.58948E+08         0.00000E+00
    0.00000E+00         0.00000E+00        -0.14796E+08
 
   -0.18710E+08         0.23316E+07         0.00000E+00
    0.23316E+07        -0.59603E+08         0.00000E+00
    0.00000E+00         0.00000E+00        -0.15804E+08
 
   -0.18185E+08         0.35161E+07         0.00000E+00
    0.35161E+07        -0.60430E+08         0.00000E+00
    0.00000E+00         0.00000E+00        -0.17311E+08
 
   -0.43959E+08        -0.68482E+06         0.00000E+00
   -0.68482E+06        -0.59978E+08         0.00000E+00
    0.00000E+00         0.00000E+00        -0.13205E+08
 
   -0.39972E+08        -0.11484E+07         0.00000E+00
   -0.11484E+07        -0.59704E+08         0.00000E+00
    0.00000E+00         0.00000E+00        -0.13197E+08
 
   -0.36869E+08        -0.11420E+07         0.00000E+00
   -0.11420E+07        -0.59176E+08         0.00000E+00
    0.00000E+00         0.00000E+00        -0.13183E+08
 
   -0.34415E+08        -0.10275E+07         0.00000E+00
   -0.10275E+07        -0.58591E+08         0.00000E+00
    0.00000E+00         0.00000E+00        -0.13167E+08
 
   -0.32365E+08        -0.87756E+06         0.00000E+00
   -0.87756E+06        -0.58041E+08         0.00000E+00
    0.00000E+00         0.00000E+00        -0.13148E+08
 
   -0.30577E+08        -0.71227E+06         0.00000E+00
   -0.71227E+06        -0.57566E+08         0.00000E+00
    0.00000E+00         0.00000E+00        -0.13128E+08
 
   -0.28955E+08        -0.53690E+06         0.00000E+00
   -0.53690E+06        -0.57185E+08         0.00000E+00
    0.00000E+00         0.00000E+00        -0.13107E+08
 
   -0.27430E+08        -0.35088E+06         0.00000E+00
   -0.35088E+06        -0.56912E+08         0.00000E+00
    0.00000E+00         0.00000E+00        -0.13086E+08
 
   -0.25946E+08        -0.15030E+06         0.00000E+00
   -0.15030E+06        -0.56758E+08         0.00000E+00
    0.00000E+00         0.00000E+00        -0.13067E+08
 
   -0.24453E+08         0.71338E+05         0.00000E+00
    0.71338E+05        -0.56736E+08         0.00000E+00
    0.00000E+00         0.00000E+00        -0.13049E+08
 
   -0.22902E+08         0.32266E+06         0.00000E+00
    0.32266E+06        -0.56863E+08         0.00000E+00
    0.00000E+00         0.00000E+00        -0.13033E+08
 
   -0.21244E+08         0.61262E+06         0.00000E+00
    0.61262E+06        -0.57158E+08         0.00000E+00
    0.00000E+00         0.00000E+00        -0.13020E+08
 
   -0.19402E+08         0.93381E+06         0.00000E+00
    0.93381E+06        -0.57646E+08         0.00000E+00
    0.00000E+00         0.00000E+00        -0.13011E+08
 
   -0.17729E+08         0.14635E+07         0.00000E+00
    0.14635E+07        -0.58387E+08         0.00000E+00
    0.00000E+00         0.00000E+00        -0.13689E+08
 
   -0.16869E+08         0.25006E+07         0.00000E+00
    0.25006E+07        -0.59483E+08         0.00000E+00
    0.00000E+00         0.00000E+00        -0.15581E+08
 
   -0.44731E+08        -0.41696E+06         0.00000E+00
   -0.41696E+06        -0.59596E+08         0.00000E+00
    0.00000E+00         0.00000E+00        -0.11260E+08
 
   -0.40008E+08        -0.46862E+06         0.00000E+00
   -0.46862E+06        -0.58858E+08         0.00000E+00
    0.00000E+00         0.00000E+00        -0.11257E+08
 
   -0.36805E+08        -0.42140E+06         0.00000E+00
   -0.42140E+06        -0.58025E+08         0.00000E+00
    0.00000E+00         0.00000E+00        -0.11252E+08
 
   -0.34317E+08        -0.36578E+06         0.00000E+00
   -0.36578E+06        -0.57265E+08         0.00000E+00
    0.00000E+00         0.00000E+00        -0.11246E+08
 
   -0.32255E+08        -0.30653E+06         0.00000E+00
   -0.30653E+06        -0.56608E+08         0.00000E+00
    0.00000E+00         0.00000E+00        -0.11240E+08
 
   -0.30461E+08        -0.24604E+06         0.00000E+00
   -0.24604E+06        -0.56064E+08         0.00000E+00
    0.00000E+00         0.00000E+00        -0.11233E+08
 
   -0.28833E+08        -0.18414E+06         0.00000E+00
   -0.18414E+06        -0.55639E+08         0.00000E+00
    0.00000E+00         0.00000E+00        -0.11225E+08
 
   -0.27301E+08        -0.11973E+06         0.00000E+00
   -0.11973E+06        -0.55338E+08         0.00000E+00
    0.00000E+00         0.00000E+00        -0.11218E+08
 
   -0.25806E+08        -0.50994E+05         0.00000E+00
   -0.50994E+05        -0.55169E+08         0.00000E+00
    0.00000E+00         0.00000E+00        -0.11212E+08
 
   -0.24296E+08         0.24637E+05         0.00000E+00
    0.24637E+05        -0.55143E+08         0.00000E+00
    0.00000E+00         0.00000E+00        -0.11205E+08
 
   -0.22721E+08         0.11058E+06         0.00000E+00
    0.11058E+06        -0.55276E+08         0.00000E+00
    0.00000E+00         0.00000E+00        -0.11200E+08
 
   -0.21032E+08         0.21206E+06         0.00000E+00
    0.21206E+06        -0.55594E+08         0.00000E+00
    0.00000E+00         0.00000E+00        -0.11195E+08
 
   -0.19213E+08         0.32050E+06         0.00000E+00
    0.32050E+06        -0.56118E+08         0.00000E+00
    0.00000E+00         0.00000E+00        -0.11192E+08
 
   -0.17148E+08         0.49228E+06         0.00000E+00
    0.49228E+06        -0.56994E+08         0.00000E+00
    0.00000E+00         0.00000E+00        -0.11352E+08
 
   -0.15682E+08         0.95580E+06         0.00000E+00
    0.95580E+06        -0.58366E+08         0.00000E+00
    0.00000E+00         0.00000E+00        -0.13600E+08
 
SCALARS stresss double 
LOOKUP_TABLE default
  -48775415.0324420     
  -48146256.8175504     
  -47983228.9242518     
  -48288926.5876009     
  -48888892.9898654     
  -49809091.1065931     
  -51305391.4607553     
  -52425085.4128430     
  -53295462.0736483     
  -54027853.9936698     
  -54672960.3648424     
  -55262459.0518064     
  -55824038.4370902     
  -56393216.2357486     
  -57060373.1031240     
  -49028207.0108524     
  -49316313.8169052     
  -49315495.3806215     
  -49210970.3928942     
  -49282667.3093798     
  -49653382.1418250     
  -50485997.5470888     
  -51380002.1288750     
  -52154645.9395503     
  -52833154.2580929     
  -53440550.4011623     
  -53997268.9319472     
  -54521391.3502494     
  -55032944.5551815     
  -55515656.6958236     
  -47961939.5747643     
  -48459512.7223050     
  -48575772.4649414     
  -48684004.7022744     
  -48935072.1609998     
  -49332929.0586475     
  -49882734.6623034     
  -50527201.7497704     
  -51168202.1454146     
  -51762828.6523509     
  -52309002.7620086     
  -52812174.2566857     
  -53278416.8290088     
  -53705955.5262979     
  -54080618.0748834     
  -47154352.2381719     
  -47613265.0930946     
  -47937124.0426574     
  -48180296.0843290     
  -48461874.4603116     
  -48826333.9798186     
  -49271940.2826858     
  -49772465.2112615     
  -50290670.1659588     
  -50794724.4535470     
  -51269167.9659289     
  -51708886.4246011     
  -52110328.7921003     
  -52466722.2289040     
  -52764641.8330756     
  -46747022.1256992     
  -47069447.4001945     
  -47372127.1897994     
  -47653460.0931968     
  -47944903.1525375     
  -48275441.7812991     
  -48651080.7544651     
  -49060888.7013667     
  -49485903.9649366     
  -49907148.1189061     
  -50310214.4117572     
  -50685592.3043954     
  -51025776.4512779     
  -51322184.8116679     
  -51563626.9919884     
  -46362773.5766155     
  -46619478.7367278     
  -46882146.7856975     
  -47146922.0036977     
  -47421963.2473896     
  -47717903.9694527     
  -48039022.4388070     
  -48380790.6742468     
  -48732984.6329345     
  -49083553.3577511     
  -49421346.2933080     
  -49736944.8771851     
  -50022017.6117235     
  -50268169.3122526     
  -50466215.8507953     
  -45993813.6321623     
  -46206960.7620743     
  -46432422.0386003     
  -46666918.6865649     
  -46911923.1683433     
  -47170625.7889910     
  -47444227.5111491     
  -47730097.8768434     
  -48022158.1528894     
  -48312472.9216285     
  -48592714.9715836     
  -48854931.5926720     
  -49091609.1904766     
  -49295404.7692963     
  -49458979.1386124     
  -45635874.4000831     
  -45815108.5109160     
  -46006921.8401768     
  -46208587.6474026     
  -46419522.0125768     
  -46640091.1953406     
  -46869983.5615139     
  -47107112.5331662     
  -47347457.6593293     
  -47585590.5740460     
  -47815397.1780072     
  -48030614.2840024     
  -48225083.8347997     
  -48392831.5359596     
  -48528153.5810844     
  -45284968.0578663     
  -45436022.9281477     
  -45597511.3040935     
  -45767118.3345257     
  -45943786.6413932     
  -46127017.7798728     
  -46316047.0703027     
  -46509213.1294342     
  -46703730.4994265     
  -46895836.2956081     
  -47081126.1694797     
  -47254896.4160174     
  -47412400.9164806     
  -47549034.5507774     
  -47660507.2073098     
  -44937197.4485164     
  -45064698.0072931     
  -45198948.0848546     
  -45338292.2926278     
  -45481911.6799328     
  -45629343.1561894     
  -45779988.3722281     
  -45932728.7613695     
  -46085738.8366725     
  -46236505.6547035     
  -46381989.0967329     
  -46518836.9283290     
  -46643595.9740203     
  -46752903.0133955     
  -46843668.1374848     
  -44589629.3596493     
  -44697488.3478514     
  -44807271.7013342     
  -44918306.9575238     
  -45030452.4261364     
  -45143760.2063416     
  -45258159.5344903     
  -45373209.4772518     
  -45487963.3960648     
  -45600955.2540643     
  -45710283.9281757     
  -45813755.5941682     
  -45909048.8875619     
  -45993883.0261908     
  -46066182.4506644     
  -44240516.7560929     
  -44331774.8949253     
  -44419307.8670449     
  -44503701.5065491     
  -44585788.4702229     
  -44666426.6048231     
  -44746294.8469990     
  -44825734.8357113     
  -44904661.0165766     
  -44982547.3486598     
  -45058482.1406691     
  -45131271.9618269     
  -45199573.6635390     
  -45262037.4686160     
  -45317448.9927996     
  -43889239.8167034     
  -43965826.1874828     
  -44032522.3713721     
  -44091360.6314771     
  -44144344.9589800     
  -44193322.2913686     
  -44239860.9083061     
  -44285156.6680957     
  -44329982.2240853     
  -44374686.0566362     
  -44419239.2987875     
  -44463321.6365154     
  -44506434.0620055     
  -44548025.0647027     
  -44587616.7513895     
  -43536137.1386314     
  -43598681.1681216     
  -43644950.2165446     
  -43678528.0814859     
  -43702708.6870737     
  -43720438.9669101     
  -43734260.1971450     
  -43746264.3775596     
  -43758076.9099790     
  -43770871.4316483     
  -43785418.0395156     
  -43802162.6764654     
  -43821332.2211554     
  -43843055.6364035     
  -43867486.4299951     
  -43182312.8501389     
  -43230022.6820506     
  -43255125.6049433     
  -43262796.9130406     
  -43257678.8242121     
  -43243875.6267969     
  -43224943.1127277     
  -43203885.3217024     
  -43183166.2538919     
  -43164740.3866119     
  -43150104.5531003     
  -43140374.7600444     
  -43136391.3455480     
  -43138848.8658089     
  -43148434.0638871     
  -42829448.8558843     
  -42860042.0513589     
  -42861994.4080224     
  -42842067.9815148     
  -42806267.6614413     
  -42759871.6445341     
  -42707457.5848278     
  -42652933.6433123     
  -42599577.5668904     
  -42550082.1928854     
  -42506607.6569578     
  -42470849.5005696     
  -42444141.9386430     
  -42427612.2139274     
  -42422367.0304640     
  -42479629.1731281     
  -42489296.5788702     
  -42464806.0207904     
  -42414476.2924882     
  -42345659.6904770     
  -42264793.1861976     
  -42177453.2821584     
  -42088419.8562950     
  -42001745.8111491     
  -41920823.1878992     
  -41848429.5848618     
  -41786762.9602006     
  -41737515.7426709     
  -41702054.8708675     
  -41681731.4589064     
  -42135175.1722740     
  -42118559.5104105     
  -42062983.4008990     
  -41978285.5179171     
  -41873133.3558582     
  -41755081.8890843     
  -41630652.4939268     
  -41505433.7929119     
  -41384193.8532232     
  -41270981.0018851     
  -41169187.6567820     
  -41081502.9592490     
  -41009835.1956058     
  -40955476.3642360     
  -40919623.9168121     
  -41798488.7329527     
  -41748659.4250327     
  -41655967.7418032     
  -41531747.9613844     
  -41385945.5064981     
  -41227170.0076904     
  -41062797.0280525     
  -40899116.3592012     
  -40741509.8645529     
  -40594622.1694097     
  -40462464.2560394     
  -40348433.8954360     
  -40254753.7929564     
  -40181980.0421822     
  -40130212.5686143     
  -41471900.7428184     
  -41380302.9642791     
  -41243029.3921670     
  -41072921.6137968     
  -40881172.6692040     
  -40677360.7580138     
  -40469576.6014099     
  -40264636.5178706     
  -40068356.3673733     
  -39885851.3219610     
  -39721767.7846141     
  -39580295.5685728     
  -39465418.8320570     
  -39377255.5727514     
  -39310059.0017244     
  -41157522.6106049     
  -41013869.5892407     
  -40823028.5725586     
  -40599427.2866533     
  -40355495.2729326     
  -40101665.2427067     
  -39846537.4061583     
  -39597182.8540650     
  -39359549.7913532     
  -39138933.5242765     
  -38940518.8768976     
  -38769620.2685753     
  -38631176.2727803     
  -38534786.0721458     
  -38468322.8576834     
  -40857096.3137415     
  -40649156.8071346     
  -40394095.6871987     
  -40108115.9295636     
  -39804900.9842009     
  -39495579.4652591     
  -39188959.2906588     
  -38891965.5952001     
  -38610210.8067644     
  -38348670.0695323     
  -38112449.5489808     
  -37908263.6683854     
  -37743743.6994754     
  -37623020.5429498     
  -37706173.1568358     
  -40571830.9872049     
  -40285033.4360434     
  -39953176.5348103     
  -39594596.8201856     
  -39224272.8202923     
  -38853780.3128357     
  -38491684.5506784     
  -38144198.6954671     
  -37815959.7430984     
  -37510863.2760181     
  -37233074.0342509     
  -36988119.2429656     
  -36790709.8597147     
  -36669422.1611363     
  -37012726.8984800     
  -40302194.9411451     
  -39918915.1843936     
  -39495341.2335103     
  -39052547.9999507     
  -38606820.2696381     
  -38169727.3120770     
  -37748888.8479894     
  -37349031.5610139     
  -36973029.0371127     
  -36622833.6666085     
  -36300400.4490670     
  -36008925.6064048     
  -35751449.0098150     
  -35774870.7186669     
  -36223624.2286663     
  -40047590.2969173     
  -39545877.3231654     
  -39012665.6742905     
  -38472685.7355866     
  -37943320.2203471     
  -37435191.5140794     
  -36953824.6352725     
  -36501417.8216292     
  -36078224.6381409     
  -35683458.1142143     
  -35315872.2057929     
  -34974595.0293495     
  -34661030.8037590     
  -34860130.3316497     
  -35318368.0715429     
  -39805708.6052268     
  -39156994.1098585     
  -38492294.0577303     
  -37841229.5516510     
  -37221192.4321546     
  -36639824.1276484     
  -36098640.3806882     
  -35595985.1526950     
  -35128688.5974879     
  -34692758.4019901     
  -34283405.8051060     
  -33894288.7660300     
  -33546110.5445707     
  -33831377.2541199     
  -34312637.1760656     
  -39571109.7916435     
  -38735744.2731690     
  -37912968.7984188     
  -37137713.6029005     
  -36423684.6754115     
  -35771051.1425399     
  -35174460.7448243     
  -34627035.4548409     
  -34121623.3550704     
  -33651003.1636449     
  -33207433.8116860     
  -32780871.5020596     
  -32389865.6370868     
  -32670721.7371770     
  -33199819.1222072     
  -39330405.7357222     
  -38249783.6209803     
  -37238379.3842298     
  -36332902.7208431     
  -35530079.9130125     
  -34814697.3582747     
  -34171939.7844885     
  -33588838.7664110     
  -33054185.5431921     
  -32557960.7938425     
  -32090508.8155322     
  -31641778.6929301     
  -31197426.3858122     
  -31372257.2646242     
  -31974997.5015551     
  -39047477.9449136     
  -37624565.9326472     
  -36409784.2733579     
  -35390793.2293762     
  -34517875.0886980     
  -33756699.4569002     
  -33082382.0291792     
  -32476293.1344708     
  -31923780.1969914     
  -31412723.9817342     
  -30932667.6855104     
  -30474103.9232401     
  -30019749.3921511     
  -29935075.9527473     
  -30644222.1420488     
  -38528802.2266086     
  -36707727.1498713     
  -35360797.9741372     
  -34276133.8580502     
  -33367506.2442984     
  -32585748.1128304     
  -31899275.3570439     
  -31285853.9491911     
  -30728711.2652961     
  -30214494.3946510     
  -29732294.6618338     
  -29273837.4259329     
  -28841174.9989930     
  -28498019.2018573     
  -29215891.7114275     
SCALARS 2waySource double 
LOOKUP_TABLE default
  5.311394177074441E-003
  3.666016404919520E-003
  2.570370665597417E-003
  2.078407270834593E-003
  2.369326432776899E-003
  1.508420597277970E-003
  1.308723411060041E-003
  3.027873097349941E-003
  3.854666048365933E-003
  4.362825107742149E-003
  4.708374559329401E-003
  4.961496063334294E-003
  5.158830904064740E-003
  5.321270460248816E-003
  5.459761639122070E-003
  5.487783652740639E-003
  6.146973918811883E-003
  6.690773968298780E-003
  6.412007586909289E-003
  6.053036637099077E-003
  4.448496421912166E-003
  3.078953073828604E-003
  3.589529712650238E-003
  4.103197883162174E-003
  4.479598111985748E-003
  4.761678507575856E-003
  4.981339162462830E-003
  5.160631999184716E-003
  5.314424511758569E-003
  5.452893194076995E-003
  6.178638134594638E-003
  6.712672633000460E-003
  6.660669612554162E-003
  6.144455928222643E-003
  5.583016024343239E-003
  4.930897598607976E-003
  4.309524827908467E-003
  4.160175115374715E-003
  4.357372039165406E-003
  4.583147629572789E-003
  4.785433908021859E-003
  4.960739782130419E-003
  5.115411209943145E-003
  5.257320806946877E-003
  5.394007727589953E-003
  5.531476338499142E-003
  5.875597907872298E-003
  5.978310681244464E-003
  5.764452873987335E-003
  5.407465679739439E-003
  5.012845761900025E-003
  4.676910529592685E-003
  4.508208273383905E-003
  4.518592234719412E-003
  4.625026217063119E-003
  4.754608780700638E-003
  4.885882383084976E-003
  5.014503753880828E-003
  5.142667950214084E-003
  5.275359909167150E-003
  5.202025067184202E-003
  5.385042584483657E-003
  5.442470707597950E-003
  5.352788210456096E-003
  5.153132278437994E-003
  4.915479293502865E-003
  4.705896483188997E-003
  4.575261707087431E-003
  4.539088570568997E-003
  4.575531950647532E-003
  4.652113540229691E-003
  4.746921438023612E-003
  4.851790716475775E-003
  4.965728392537549E-003
  5.091858713233092E-003
  4.860541087290319E-003
  4.955109692636477E-003
  4.987766047999962E-003
  4.940507021651453E-003
  4.828543053474501E-003
  4.686182533432550E-003
  4.552859229211635E-003
  4.459066698939872E-003
  4.418338476629373E-003
  4.426858844795330E-003
  4.471592302979683E-003
  4.540157429501922E-003
  4.625377382694230E-003
  4.725376194641981E-003
  4.842177825078260E-003
  4.490623239398255E-003
  4.540327694903822E-003
  4.553308728177165E-003
  4.523069786634810E-003
  4.455809928443568E-003
  4.369027720530337E-003
  4.284361385315020E-003
  4.220424702233105E-003
  4.187760469406190E-003
  4.188003325719510E-003
  4.216829549215090E-003
  4.268296042020155E-003
  4.338060556783532E-003
  4.424615305318993E-003
  4.529374272861059E-003
  4.112536825281089E-003
  4.127992897685406E-003
  4.123071444605633E-003
  4.096360625812485E-003
  4.050907310318036E-003
  3.995298128420301E-003
  3.941123643245651E-003
  3.899252343533598E-003
  3.876984080063907E-003
  3.877076777639606E-003
  3.898698501033266E-003
  3.939387846295933E-003
  3.996900940491693E-003
  4.070353474717806E-003
  4.160691216255685E-003
  3.742796252944970E-003
  3.721892358268298E-003
  3.696278441286206E-003
  3.664545201479043E-003
  3.627202519042084E-003
  3.587710924875337E-003
  3.551585229770098E-003
  3.524601608050006E-003
  3.511156324352705E-003
  3.513468140755308E-003
  3.531753341387725E-003
  3.565052357245272E-003
  3.612207502940768E-003
  3.672622984990653E-003
  3.746697323232151E-003
  3.391079716887910E-003
  3.329237593445903E-003
  3.278754036302533E-003
  3.235579222360415E-003
  3.197435802925129E-003
  3.164168514766145E-003
  3.137298473891155E-003
  3.119066429446624E-003
  3.111455164971905E-003
  3.115571861706197E-003
  3.131529213217095E-003
  3.158724188907791E-003
  3.196290912758227E-003
  3.243518297640424E-003
  3.300115156915548E-003
  3.062512528136838E-003
  2.956761648865664E-003
  2.877949238426292E-003
  2.818572143617859E-003
  2.773463008878285E-003
  2.739568749735892E-003
  2.715507673071205E-003
  2.700923830832182E-003
  2.695822019660126E-003
  2.700072259968756E-003
  2.713176722345427E-003
  2.734276125061352E-003
  2.762295120728396E-003
  2.796109693014517E-003
  2.834646675255715E-003
  2.759678802876844E-003
  2.609763354856015E-003
  2.500840795007329E-003
  2.422132099564018E-003
  2.365811014519900E-003
  2.326422773550530E-003
  2.300345218627721E-003
  2.285228578815821E-003
  2.279459755023287E-003
  2.281728543991376E-003
  2.290745107931617E-003
  2.305105533233193E-003
  2.323258449175929E-003
  2.343506632630892E-003
  2.363980975942378E-003
  2.483722806488962E-003
  2.292041492521635E-003
  2.153117831042120E-003
  2.053548199575745E-003
  1.983318454551733E-003
  1.935045555699794E-003
  1.903361397610144E-003
  1.884364578222261E-003
  1.875131099212181E-003
  1.873305660461218E-003
  1.876792952360905E-003
  1.883547417436515E-003
  1.891437144356248E-003
  1.898143254193425E-003
  1.901052999482041E-003
  2.234903632387202E-003
  2.006025611195674E-003
  1.838944509683645E-003
  1.718459445813413E-003
  1.632961434220533E-003
  1.573628126123437E-003
  1.533779685971369E-003
  1.508333997696570E-003
  1.493335860900564E-003
  1.485557585613828E-003
  1.482174479357878E-003
  1.480512923616110E-003
  1.477856857396939E-003
  1.471290447078525E-003
  1.457549131708182E-003
  2.012871557834995E-003
  1.752945132785897E-003
  1.560974007747985E-003
  1.420799021183091E-003
  1.319838492936018E-003
  1.248321564326096E-003
  1.198663822160466E-003
  1.164941147671398E-003
  1.142435653100091E-003
  1.127242328863185E-003
  1.115934392045706E-003
  1.105285893959437E-003
  1.092048721156768E-003
  1.072768248723871E-003
  1.043628107044162E-003
  1.816819827055116E-003
  1.533004937364150E-003
  1.320481011147661E-003
  1.162892423111057E-003
  1.047273426747746E-003
  9.633717391042317E-004
  9.030806029027845E-004
  8.599518135416668E-004
  8.287690687590824E-004
  8.051646336610068E-004
  7.852726133696543E-004
  7.654306583302393E-004
  7.419294094705839E-004
  7.108318253541624E-004
  6.678297914971548E-004
  1.645585240305902E-003
  1.345563204783059E-003
  1.117552780372595E-003
  9.456421950100576E-004
  8.169984790566073E-004
  7.213082582243217E-004
  6.502904680165667E-004
  5.972676252123676E-004
  5.567807970000003E-004
  5.242362088454410E-004
  4.955446297943765E-004
  4.667557500317622E-004
  4.337940885842174E-004
  3.922134710115653E-004
  3.371833748092963E-004
  1.497729105580204E-003
  1.189308694173452E-003
  9.513073990955077E-004
  7.687590118466495E-004
  6.293882312851302E-004
  5.231778323912462E-004
  4.419746578535720E-004
  3.791330938899816E-004
  3.291896940617730E-004
  2.875520319139318E-004
  2.502154008462952E-004
  2.132764964803672E-004
  1.723095025757812E-004
  1.223925049392311E-004
  5.760148154087145E-005
  1.371610703114165E-003
  1.062433363850705E-003
  8.201199794628108E-004
  6.310129871973033E-004
  4.837207822587450E-004
  3.688078187450022E-004
  2.784960868826954E-004
  2.063865568657594E-004
  1.472068261659912E-004
  9.657996581766354E-005
  5.075921656942458E-005
  6.677561809152958E-006
 -3.938768179223902E-005
 -9.420187403029299E-005
 -1.647138890585305E-004
  1.265457825159125E-003
  9.627966164821476E-004
  7.218445615360918E-004
  5.304875171433651E-004
  3.784474310780543E-004
  2.570836784967787E-004
  1.591826686891978E-004
  7.875292194297522E-005
  1.084121627282554E-005
 -4.859420020465844E-005
 -1.027805852394582E-004
 -1.545982487236679E-004
 -2.035807645801772E-004
 -2.510258570779265E-004
 -3.201712765679021E-004
  1.177436604300586E-003
  8.880794489288354E-004
  6.540249997051632E-004
  4.648243701136917E-004
  3.114560735023740E-004
  1.862225049195063E-004
  8.261297997183919E-005
 -4.845656791615972E-006
 -8.071975623902881E-005
 -1.487644917993398E-004
 -2.117254665149334E-004
 -2.711552213832057E-004
 -3.316473849964956E-004
 -3.769809258372579E-004
 -3.465066540434725E-004
  1.105722128955236E-003
  8.359296968474627E-004
  6.140937215555900E-004
  4.314550169390830E-004
  2.803180135948313E-004
  1.540256659568222E-004
  4.687473552778148E-005
 -4.600252137603334E-005
 -1.287631877753075E-004
 -2.049162505189187E-004
 -2.775225890498444E-004
 -3.473221742559012E-004
 -4.096629809433968E-004
 -5.012747797440434E-004
  3.736729149558170E-005
  1.048570670047164E-003
  8.041034556100300E-004
  5.995640174301406E-004
  4.278206266503918E-004
  2.825143115816891E-004
  1.580969090527684E-004
  4.977166989876701E-005
 -4.663142580794119E-005
 -1.347955674054734E-004
 -2.180806013464178E-004
 -2.994831208149684E-004
 -3.844241326302799E-004
 -4.722504763515929E-004
 -3.763351668027571E-004
  1.457501759894037E-004
  1.004393962387514E-003
  7.906142003509389E-004
  6.082315888030964E-004
  4.515928773551533E-004
  3.156454810942475E-004
  1.960208268247512E-004
  8.895816243893143E-005
 -8.870280954810467E-006
 -1.005736526010606E-004
 -1.891971625541722E-004
 -2.780264508006466E-004
 -3.691621607885673E-004
 -4.824590075694348E-004
 -3.280935375152374E-005
  1.189981125715550E-004
  9.718374052168731E-004
  7.939159873955144E-004
  6.384186223648048E-004
  5.009207181249621E-004
  3.776349587618974E-004
  2.655014920812752E-004
  1.620051832337816E-004
  6.488278536918751E-005
 -2.817388334483563E-005
 -1.198449074464698E-004
 -2.131963614100807E-004
 -3.116341863299513E-004
 -3.493430626462506E-004
  9.858925754338072E-005
  1.941341526355373E-004
  9.498778147883176E-004
  8.131822811090078E-004
  6.893330204269587E-004
  5.747401466365410E-004
  4.669321107206380E-004
  3.644593561453878E-004
  2.664020608632967E-004
  1.718717934386079E-004
  7.965655157290570E-005
 -1.209274057932509E-005
 -1.066236288987731E-004
 -2.093417790041196E-004
 -1.925793879293955E-004
  2.335098137404906E-004
  3.184809227475961E-004
  9.379773892996586E-004
  8.488776024820497E-004
  7.616814034116851E-004
  6.731838788241412E-004
  5.826700259503463E-004
  4.910582749053022E-004
  3.995256016815661E-004
  3.088519364684768E-004
  2.192433830593654E-004
  1.301564287153704E-004
  3.996125041534364E-005
 -5.630524205404220E-005
 -5.437821200730776E-005
  3.981352220984008E-004
  4.841315335877092E-004
  9.366741966228318E-004
  9.041107305551004E-004
  8.588898029126730E-004
  7.979123933744834E-004
  7.245989987196209E-004
  6.436257395349055E-004
  5.585979250949259E-004
  4.720832212624714E-004
  3.858271240856502E-004
  3.009677433561228E-004
  2.181328876487628E-004
  1.378981372079796E-004
  7.337062304311639E-005
  6.633198413554612E-004
  6.802271473503078E-004
  9.494219849332916E-004
  9.896973068708294E-004
  9.882595972921107E-004
  9.514865839972660E-004
  8.926764772904159E-004
  8.204476344120596E-004
  7.406642917520303E-004
  6.574632837731411E-004
  5.739781473613112E-004
  4.928806883582614E-004
  4.169651418825148E-004
  3.498659939947508E-004
  2.708831852492562E-004
  8.225018049172715E-004
  9.532804701566356E-004
  1.008581947051271E-003
  1.130127813019332E-003
  1.156905106236449E-003
  1.135873718007277E-003
  1.086362550738652E-003
  1.019519344905391E-003
  9.425945367569906E-004
  8.607697313346250E-004
  7.781604261019884E-004
  6.985566421998134E-004
  6.261695574008228E-004
  5.678740603789647E-004
  5.414034237746210E-004
  7.736795810965385E-004
  1.303173984958602E-003
SCALARS elementIsPlast double 
LOOKUP_TABLE default
   1.00000000000000     
   1.00000000000000     
   1.00000000000000     
   1.00000000000000     
   1.00000000000000     
   1.00000000000000     
  0.000000000000000E+000
  0.000000000000000E+000
  0.000000000000000E+000
  0.000000000000000E+000
  0.000000000000000E+000
  0.000000000000000E+000
  0.000000000000000E+000
  0.000000000000000E+000
  0.000000000000000E+000
   1.00000000000000     
   1.00000000000000     
   1.00000000000000     
   1.00000000000000     
  0.000000000000000E+000
  0.000000000000000E+000
  0.000000000000000E+000
  0.000000000000000E+000
  0.000000000000000E+000
  0.000000000000000E+000
  0.000000000000000E+000
  0.000000000000000E+000
  0.000000000000000E+000
  0.000000000000000E+000
  0.000000000000000E+000
   1.00000000000000     
  0.000000000000000E+000
  0.000000000000000E+000
  0.000000000000000E+000
  0.000000000000000E+000
  0.000000000000000E+000
  0.000000000000000E+000
  0.000000000000000E+000
  0.000000000000000E+000
  0.000000000000000E+000
  0.000000000000000E+000
  0.000000000000000E+000
  0.000000000000000E+000
  0.000000000000000E+000
  0.000000000000000E+000
  0.000000000000000E+000
  0.000000000000000E+000
  0.000000000000000E+000
  0.000000000000000E+000
  0.000000000000000E+000
  0.000000000000000E+000
  0.000000000000000E+000
  0.000000000000000E+000
  0.000000000000000E+000
  0.000000000000000E+000
  0.000000000000000E+000
  0.000000000000000E+000
  0.000000000000000E+000
  0.000000000000000E+000
  0.000000000000000E+000
  0.000000000000000E+000
  0.000000000000000E+000
  0.000000000000000E+000
  0.000000000000000E+000
  0.000000000000000E+000
  0.000000000000000E+000
  0.000000000000000E+000
  0.000000000000000E+000
  0.000000000000000E+000
  0.000000000000000E+000
  0.000000000000000E+000
  0.000000000000000E+000
  0.000000000000000E+000
  0.000000000000000E+000
  0.000000000000000E+000
  0.000000000000000E+000
  0.000000000000000E+000
  0.000000000000000E+000
  0.000000000000000E+000
  0.000000000000000E+000
  0.000000000000000E+000
  0.000000000000000E+000
  0.000000000000000E+000
  0.000000000000000E+000
  0.000000000000000E+000
  0.000000000000000E+000
  0.000000000000000E+000
  0.000000000000000E+000
  0.000000000000000E+000
  0.000000000000000E+000
  0.000000000000000E+000
  0.000000000000000E+000
  0.000000000000000E+000
  0.000000000000000E+000
  0.000000000000000E+000
  0.000000000000000E+000
  0.000000000000000E+000
  0.000000000000000E+000
  0.000000000000000E+000
  0.000000000000000E+000
  0.000000000000000E+000
  0.000000000000000E+000
  0.000000000000000E+000
  0.000000000000000E+000
  0.000000000000000E+000
  0.000000000000000E+000
  0.000000000000000E+000
  0.000000000000000E+000
  0.000000000000000E+000
  0.000000000000000E+000
  0.000000000000000E+000
  0.000000000000000E+000
  0.000000000000000E+000
  0.000000000000000E+000
  0.000000000000000E+000
  0.000000000000000E+000
  0.000000000000000E+000
  0.000000000000000E+000
  0.000000000000000E+000
  0.000000000000000E+000
  0.000000000000000E+000
  0.000000000000000E+000
  0.000000000000000E+000
  0.000000000000000E+000
  0.000000000000000E+000
  0.000000000000000E+000
  0.000000000000000E+000
  0.000000000000000E+000
  0.000000000000000E+000
  0.000000000000000E+000
  0.000000000000000E+000
  0.000000000000000E+000
  0.000000000000000E+000
  0.000000000000000E+000
  0.000000000000000E+000
  0.000000000000000E+000
  0.000000000000000E+000
  0.000000000000000E+000
  0.000000000000000E+000
  0.000000000000000E+000
  0.000000000000000E+000
  0.000000000000000E+000
  0.000000000000000E+000
  0.000000000000000E+000
  0.000000000000000E+000
  0.000000000000000E+000
  0.000000000000000E+000
  0.000000000000000E+000
  0.000000000000000E+000
  0.000000000000000E+000
  0.000000000000000E+000
  0.000000000000000E+000
  0.000000000000000E+000
  0.000000000000000E+000
  0.000000000000000E+000
  0.000000000000000E+000
  0.000000000000000E+000
  0.000000000000000E+000
  0.000000000000000E+000
  0.000000000000000E+000
  0.000000000000000E+000
  0.000000000000000E+000
  0.000000000000000E+000
  0.000000000000000E+000
  0.000000000000000E+000
  0.000000000000000E+000
  0.000000000000000E+000
  0.000000000000000E+000
  0.000000000000000E+000
  0.000000000000000E+000
  0.000000000000000E+000
  0.000000000000000E+000
  0.000000000000000E+000
  0.000000000000000E+000
  0.000000000000000E+000
  0.000000000000000E+000
  0.000000000000000E+000
  0.000000000000000E+000
  0.000000000000000E+000
  0.000000000000000E+000
  0.000000000000000E+000
  0.000000000000000E+000
  0.000000000000000E+000
  0.000000000000000E+000
  0.000000000000000E+000
  0.000000000000000E+000
  0.000000000000000E+000
  0.000000000000000E+000
  0.000000000000000E+000
  0.000000000000000E+000
  0.000000000000000E+000
  0.000000000000000E+000
  0.000000000000000E+000
  0.000000000000000E+000
  0.000000000000000E+000
  0.000000000000000E+000
  0.000000000000000E+000
  0.000000000000000E+000
  0.000000000000000E+000
  0.000000000000000E+000
  0.000000000000000E+000
  0.000000000000000E+000
  0.000000000000000E+000
  0.000000000000000E+000
  0.000000000000000E+000
  0.000000000000000E+000
  0.000000000000000E+000
  0.000000000000000E+000
  0.000000000000000E+000
  0.000000000000000E+000
  0.000000000000000E+000
  0.000000000000000E+000
  0.000000000000000E+000
  0.000000000000000E+000
  0.000000000000000E+000
  0.000000000000000E+000
  0.000000000000000E+000
  0.000000000000000E+000
  0.000000000000000E+000
  0.000000000000000E+000
  0.000000000000000E+000
  0.000000000000000E+000
  0.000000000000000E+000
  0.000000000000000E+000
  0.000000000000000E+000
  0.000000000000000E+000
  0.000000000000000E+000
  0.000000000000000E+000
  0.000000000000000E+000
  0.000000000000000E+000
  0.000000000000000E+000
  0.000000000000000E+000
  0.000000000000000E+000
  0.000000000000000E+000
  0.000000000000000E+000
  0.000000000000000E+000
  0.000000000000000E+000
  0.000000000000000E+000
  0.000000000000000E+000
  0.000000000000000E+000
  0.000000000000000E+000
  0.000000000000000E+000
  0.000000000000000E+000
  0.000000000000000E+000
  0.000000000000000E+000
  0.000000000000000E+000
  0.000000000000000E+000
  0.000000000000000E+000
  0.000000000000000E+000
  0.000000000000000E+000
  0.000000000000000E+000
  0.000000000000000E+000
  0.000000000000000E+000
  0.000000000000000E+000
  0.000000000000000E+000
  0.000000000000000E+000
  0.000000000000000E+000
  0.000000000000000E+000
  0.000000000000000E+000
  0.000000000000000E+000
  0.000000000000000E+000
  0.000000000000000E+000
  0.000000000000000E+000
  0.000000000000000E+000
  0.000000000000000E+000
  0.000000000000000E+000
  0.000000000000000E+000
  0.000000000000000E+000
  0.000000000000000E+000
  0.000000000000000E+000
  0.000000000000000E+000
  0.000000000000000E+000
  0.000000000000000E+000
  0.000000000000000E+000
  0.000000000000000E+000
  0.000000000000000E+000
  0.000000000000000E+000
  0.000000000000000E+000
  0.000000000000000E+000
  0.000000000000000E+000
  0.000000000000000E+000
  0.000000000000000E+000
  0.000000000000000E+000
  0.000000000000000E+000
  0.000000000000000E+000
  0.000000000000000E+000
  0.000000000000000E+000
  0.000000000000000E+000
  0.000000000000000E+000
  0.000000000000000E+000
  0.000000000000000E+000
  0.000000000000000E+000
  0.000000000000000E+000
  0.000000000000000E+000
  0.000000000000000E+000
  0.000000000000000E+000
  0.000000000000000E+000
  0.000000000000000E+000
  0.000000000000000E+000
  0.000000000000000E+000
  0.000000000000000E+000
  0.000000000000000E+000
  0.000000000000000E+000
  0.000000000000000E+000
  0.000000000000000E+000
  0.000000000000000E+000
  0.000000000000000E+000
  0.000000000000000E+000
  0.000000000000000E+000
  0.000000000000000E+000
  0.000000000000000E+000
  0.000000000000000E+000
  0.000000000000000E+000
  0.000000000000000E+000
  0.000000000000000E+000
  0.000000000000000E+000
  0.000000000000000E+000
  0.000000000000000E+000
  0.000000000000000E+000
  0.000000000000000E+000
  0.000000000000000E+000
  0.000000000000000E+000
  0.000000000000000E+000
  0.000000000000000E+000
  0.000000000000000E+000
  0.000000000000000E+000
  0.000000000000000E+000
  0.000000000000000E+000
  0.000000000000000E+000
   1.00000000000000     
  0.000000000000000E+000
  0.000000000000000E+000
  0.000000000000000E+000
  0.000000000000000E+000
  0.000000000000000E+000
  0.000000000000000E+000
  0.000000000000000E+000
  0.000000000000000E+000
  0.000000000000000E+000
  0.000000000000000E+000
  0.000000000000000E+000
  0.000000000000000E+000
  0.000000000000000E+000
   1.00000000000000     
   1.00000000000000     
  0.000000000000000E+000
  0.000000000000000E+000
  0.000000000000000E+000
  0.000000000000000E+000
  0.000000000000000E+000
  0.000000000000000E+000
  0.000000000000000E+000
  0.000000000000000E+000
  0.000000000000000E+000
  0.000000000000000E+000
  0.000000000000000E+000
  0.000000000000000E+000
  0.000000000000000E+000
   1.00000000000000     
   1.00000000000000     
  0.000000000000000E+000
  0.000000000000000E+000
  0.000000000000000E+000
  0.000000000000000E+000
  0.000000000000000E+000
  0.000000000000000E+000
  0.000000000000000E+000
  0.000000000000000E+000
  0.000000000000000E+000
  0.000000000000000E+000
  0.000000000000000E+000
  0.000000000000000E+000
   1.00000000000000     
   1.00000000000000     
   1.00000000000000     
  0.000000000000000E+000
  0.000000000000000E+000
  0.000000000000000E+000
  0.000000000000000E+000
  0.000000000000000E+000
  0.000000000000000E+000
  0.000000000000000E+000
  0.000000000000000E+000
  0.000000000000000E+000
  0.000000000000000E+000
  0.000000000000000E+000
  0.000000000000000E+000
   1.00000000000000     
   1.00000000000000     
   1.00000000000000     
  0.000000000000000E+000
  0.000000000000000E+000
  0.000000000000000E+000
  0.000000000000000E+000
  0.000000000000000E+000
  0.000000000000000E+000
  0.000000000000000E+000
  0.000000000000000E+000
  0.000000000000000E+000
  0.000000000000000E+000
  0.000000000000000E+000
  0.000000000000000E+000
   1.00000000000000     
   1.00000000000000     
   1.00000000000000     
  0.000000000000000E+000
  0.000000000000000E+000
  0.000000000000000E+000
  0.000000000000000E+000
  0.000000000000000E+000
  0.000000000000000E+000
  0.000000000000000E+000
  0.000000000000000E+000
  0.000000000000000E+000
  0.000000000000000E+000
  0.000000000000000E+000
  0.000000000000000E+000
  0.000000000000000E+000
   1.00000000000000     
   1.00000000000000     
  0.000000000000000E+000
  0.000000000000000E+000
  0.000000000000000E+000
  0.000000000000000E+000
  0.000000000000000E+000
  0.000000000000000E+000
  0.000000000000000E+000
  0.000000000000000E+000
  0.000000000000000E+000
  0.000000000000000E+000
  0.000000000000000E+000
  0.000000000000000E+000
  0.000000000000000E+000
   1.00000000000000     
   1.00000000000000     
  0.000000000000000E+000
  0.000000000000000E+000
  0.000000000000000E+000
  0.000000000000000E+000
  0.000000000000000E+000
  0.000000000000000E+000
  0.000000000000000E+000
  0.000000000000000E+000
  0.000000000000000E+000
  0.000000000000000E+000
  0.000000000000000E+000
  0.000000000000000E+000
  0.000000000000000E+000
   1.00000000000000     
   1.00000000000000     
SCALARS poroL double 
LOOKUP_TABLE default
  0.261502610031328     
  0.261070470479550     
  0.259626647048387     
  0.257653771811912     
  0.255667729843367     
  0.254098138153096     
  0.252985619576249     
  0.252277143908775     
  0.251746989966383     
  0.251308873081960     
  0.250922945359568     
  0.250563736129653     
  0.250208661594375     
  0.249828969134276     
  0.249353867751178     
  0.255334605759442     
  0.253827152140731     
  0.253078666931894     
  0.252901291419545     
  0.252926339485836     
  0.252746175281425     
  0.252227134599915     
  0.251665826271501     
  0.251191488749840     
  0.250781765094337     
  0.250414620535025     
  0.250072213768647     
  0.249738708935493     
  0.249396770710932     
  0.249056421711431     
  0.252635095227327     
  0.252135560309327     
  0.252092727971939     
  0.252068289369439     
  0.251945432458313     
  0.251719487790374     
  0.251387044103829     
  0.250989790585117     
  0.250596582817744     
  0.250234549838430     
  0.249901221987776     
  0.249589383809552     
  0.249291873955623     
  0.249007757997678     
  0.248745780043246     
  0.251947533622885     
  0.251621761150323     
  0.251410553859706     
  0.251269162749427     
  0.251106210253827     
  0.250887705587806     
  0.250614864598373     
  0.250306323865356     
  0.249987154251825     
  0.249677359767897     
  0.249384811085280     
  0.249110161231680     
  0.248853413596407     
  0.248617420607915     
  0.248410399517015     
  0.251145931385297     
  0.250916318003768     
  0.250711201757091     
  0.250529362417010     
  0.250345929259300     
  0.250138795206287     
  0.249903283470403     
  0.249646770889906     
  0.249381572215918     
  0.249119179031908     
  0.248867404365666     
  0.248630570388701     
  0.248411836971651     
  0.248215525724633     
  0.248048216978700     
  0.250360921239673     
  0.250176199704269     
  0.249993528750828     
  0.249814587440017     
  0.249632616906161     
  0.249439479414388     
  0.249231844811152     
  0.249012542370810     
  0.248787962396037     
  0.248565230465860     
  0.248350460757237     
  0.248148437208003     
  0.247963284754528     
  0.247799399509479     
  0.247661974071661     
  0.249597485892676     
  0.249441962321700     
  0.249281021187972     
  0.249116705149849     
  0.248947792048203     
  0.248771981199772     
  0.248588414556805     
  0.248398771927916     
  0.248206816420054     
  0.248017217278922     
  0.247834609052802     
  0.247663214888507     
  0.247506953351822     
  0.247369720345965     
  0.247255521963016     
  0.248855875563011     
  0.248722827832344     
  0.248581748324956     
  0.248434859987481     
  0.248282924241947     
  0.248126046728758     
  0.247964733853785     
  0.247800542978575     
  0.247636096058582     
  0.247474684087529     
  0.247319813460430     
  0.247174931086484     
  0.247043350136960     
  0.246928265528467     
  0.246832711458543     
  0.248134732313608     
  0.248020135275278     
  0.247896896129835     
  0.247767429214436     
  0.247633249913896     
  0.247495415179803     
  0.247355032934326     
  0.247213628608952     
  0.247073250414904     
  0.246936356291331     
  0.246805615627727     
  0.246683737734416     
  0.246573365115754     
  0.246476999690363     
  0.246396902221557     
  0.247431652462289     
  0.247332201049106     
  0.247224796494749     
  0.247111821722956     
  0.246994989901194     
  0.246875637373547     
  0.246755019374382     
  0.246634534065057     
  0.246515824832251     
  0.246400766601005     
  0.246291383243683     
  0.246189747064320     
  0.246097886136383     
  0.246017695882778     
  0.245950835602982     
  0.246742872998556     
  0.246655762482656     
  0.246562370852231     
  0.246464791291679     
  0.246364591713247     
  0.246263023652657     
  0.246161216228960     
  0.246060325939321     
  0.245961620703232     
  0.245866497231259     
  0.245776448999555     
  0.245693007382008     
  0.245617671511292     
  0.245551831262871     
  0.245496681032252     
  0.246063398830278     
  0.245986488327047     
  0.245905717462163     
  0.245822668250062     
  0.245738526387205     
  0.245654230295540     
  0.245570605823380     
  0.245488471664378     
  0.245408704971964     
  0.245332265349872     
  0.245260183720724     
  0.245193526431862     
  0.245133343910144     
  0.245080609967005     
  0.245036155867915     
  0.245387300950243     
  0.245319313899594     
  0.245250420392621     
  0.245181526292611     
  0.245113267708260     
  0.245046116035328     
  0.244980472777030     
  0.244916744707190     
  0.244855393183745     
  0.244796955832926     
  0.244742042911948     
  0.244691313153412     
  0.244645434763201     
  0.244605037528168     
  0.244570662660686     
  0.244708057534683     
  0.244648729125200     
  0.244591781371784     
  0.244537329286028     
  0.244485343000843     
  0.244435721137144     
  0.244388357039908     
  0.244343191387698     
  0.244300247308700     
  0.244259646662250     
  0.244221607960839     
  0.244186427477954     
  0.244154446291305     
  0.244126008265290     
  0.244101417349340     
  0.244018873460638     
  0.243969039786512     
  0.243925025077276     
  0.243886076429775     
  0.243851418798881     
  0.243820306483377     
  0.243792068270675     
  0.243766141988930     
  0.243742096820048     
  0.243719643361173     
  0.243698631389580     
  0.243679033859968     
  0.243660915241434     
  0.243644386510143     
  0.243629557032769     
  0.243312956971295     
  0.243274600425536     
  0.243245488299733     
  0.243223947587526     
  0.243208404976181     
  0.243197424177883     
  0.243189734889008     
  0.243184251200004     
  0.243180080571223     
  0.243176527045943     
  0.243173090463959     
  0.243169457027076     
  0.243165469784183     
  0.243161069642422     
  0.243156219895104     
  0.242583750175269     
  0.242560018090116     
  0.242548794258571     
  0.242547446874921     
  0.242553568377206     
  0.242565005002896     
  0.242579872237197     
  0.242596555905739     
  0.242613703909469     
  0.242630217334628     
  0.242645254447708     
  0.242658243862088     
  0.242668874219367     
  0.242677019039652     
  0.242682582551822     
  0.241825117296413     
  0.241820329392931     
  0.241831013837887     
  0.241853544089725     
  0.241884651862125     
  0.241921454914657     
  0.241961459638102     
  0.242002539821159     
  0.242042901136176     
  0.242081049072756     
  0.242115779670046     
  0.242146249235918     
  0.242172067346227     
  0.242193227752305     
  0.242209814359032     
  0.241031496713982     
  0.241051156307609     
  0.241088818601366     
  0.241139817296724     
  0.241199999323522     
  0.241265757572020     
  0.241334019324065     
  0.241402193506194     
  0.241468090141055     
  0.241529839024867     
  0.241585851027846     
  0.241634832223020     
  0.241676222242762     
  0.241710582350849     
  0.241738793004900     
  0.240198022886901     
  0.240248848967322     
  0.240319634845676     
  0.240404605023088     
  0.240498692564067     
  0.240597584757005     
  0.240697693651760     
  0.240796057932702     
  0.240890194437275     
  0.240977924232422     
  0.241057240053910     
  0.241126323741501     
  0.241183365807940     
  0.241229268291258     
  0.241269131919959     
  0.239320624064896     
  0.239410627781946     
  0.239521814332685     
  0.239647183506266     
  0.239780712453368     
  0.239917422448051     
  0.240053322134669     
  0.240185244489239     
  0.240310603354105     
  0.240427097027243     
  0.240532349049675     
  0.240623755480906     
  0.240698859518714     
  0.240751535247982     
  0.240791438795065     
  0.238396102994750     
  0.238534744704622     
  0.238694847707934     
  0.238867994373948     
  0.239047144664759     
  0.239226726548849     
  0.239402527439000     
  0.239571433382319     
  0.239731067102457     
  0.239879342919468     
  0.240013945661254     
  0.240131267631217     
  0.240226904739686     
  0.240298932739275     
  0.240291589980030     
  0.237422212939466     
  0.237620698771909     
  0.237839664916464     
  0.238068962977501     
  0.238300458722078     
  0.238528126425576     
  0.238747824102673     
  0.238956871901421     
  0.239153540581592     
  0.239336492059970     
  0.239504083563117     
  0.239653606194249     
  0.239775483615837     
  0.239862058288330     
  0.239786512994279     
  0.236397755000728     
  0.236669573073228     
  0.236959101791764     
  0.237253970097452     
  0.237544895608007     
  0.237825689726638     
  0.238092759687872     
  0.238344396101236     
  0.238580068828530     
  0.238799799024263     
  0.239003536563323     
  0.239190300322810     
  0.239359367709279     
  0.239422900929852     
  0.239320715581280     
  0.235322753265600     
  0.235684634588665     
  0.236058679861387     
  0.236429574261994     
  0.236786994224604     
  0.237125237718641     
  0.237442070420969     
  0.237737489953984     
  0.238012769995451     
  0.238269854421456     
  0.238510997495140     
  0.238738240102777     
  0.238954837493960     
  0.238983672344164     
  0.238894417327989     
  0.234198860291637     
  0.234672507350266     
  0.235147998173073     
  0.235606114456692     
  0.236036245549127     
  0.236434633180083     
  0.236801780024391     
  0.237140341665588     
  0.237453963800991     
  0.237746830625147     
  0.238023716534231     
  0.238290668047409     
  0.238544194410144     
  0.238567504190047     
  0.238494107653532     
  0.233030337119120     
  0.233645794756758     
  0.234243282921244     
  0.234799317541200     
  0.235305677436137     
  0.235763831394016     
  0.236179107306323     
  0.236557807374826     
  0.236906337966976     
  0.237231110476960     
  0.237538934280961     
  0.237838427672895     
  0.238127708205370     
  0.238180035571439     
  0.238120831899986     
  0.231827578934013     
  0.232629191879649     
  0.233372359369270     
  0.234031863474730     
  0.234611691021829     
  0.235124389320315     
  0.235582021874882     
  0.235995162050131     
  0.236373004705337     
  0.236723831700677     
  0.237055668037242     
  0.237376868682773     
  0.237698988414854     
  0.237817856941085     
  0.237774029500008     
  0.230618141096095     
  0.231679314387683     
  0.232580280261414     
  0.233331932773941     
  0.233972417233742     
  0.234528147328105     
  0.235018366907031     
  0.235457578140813     
  0.235857272952685     
  0.236227038013888     
  0.236575228807798     
  0.236909513087853     
  0.237243413668883     
  0.237471822570829     
  0.237441648992045     
  0.229548228334633     
  0.230911841310021     
  0.231918449603733     
  0.232727566865987     
  0.233404110802440     
  0.233985177231331     
  0.234494651697258     
  0.234949392920438     
  0.235362155771347     
  0.235743130050580     
  0.236100679039310     
  0.236441207837304     
  0.236763399680171     
  0.237058394349216     
  0.237098736910090     
