# vtk DataFile Version 3.0
vtk output
ASCII
DATASET UNSTRUCTURED_GRID
POINTS       496 double 
  0.00000000E+00  3.00000000E+02  0.00000000E+00
  0.00000000E+00  2.80000000E+02  0.00000000E+00
  0.00000000E+00  2.60000000E+02  0.00000000E+00
  0.00000000E+00  2.40000000E+02  0.00000000E+00
  0.00000000E+00  2.20000000E+02  0.00000000E+00
  0.00000000E+00  2.00000000E+02  0.00000000E+00
  0.00000000E+00  1.80000000E+02  0.00000000E+00
  0.00000000E+00  1.60000000E+02  0.00000000E+00
  0.00000000E+00  1.40000000E+02  0.00000000E+00
  0.00000000E+00  1.20000000E+02  0.00000000E+00
  0.00000000E+00  1.00000000E+02  0.00000000E+00
  0.00000000E+00  8.00000000E+01  0.00000000E+00
  0.00000000E+00  6.00000000E+01  0.00000000E+00
  0.00000000E+00  4.00000000E+01  0.00000000E+00
  0.00000000E+00  2.00000000E+01  0.00000000E+00
  0.00000000E+00  4.99600361E-14  0.00000000E+00
  2.00000000E+01  3.00000000E+02  0.00000000E+00
  2.00000000E+01  2.80000000E+02  0.00000000E+00
  2.00000000E+01  2.60000000E+02  0.00000000E+00
  2.00000000E+01  2.40000000E+02  0.00000000E+00
  2.00000000E+01  2.20000000E+02  0.00000000E+00
  2.00000000E+01  2.00000000E+02  0.00000000E+00
  2.00000000E+01  1.80000000E+02  0.00000000E+00
  2.00000000E+01  1.60000000E+02  0.00000000E+00
  2.00000000E+01  1.40000000E+02  0.00000000E+00
  2.00000000E+01  1.20000000E+02  0.00000000E+00
  2.00000000E+01  1.00000000E+02  0.00000000E+00
  2.00000000E+01  8.00000000E+01  0.00000000E+00
  2.00000000E+01  6.00000000E+01  0.00000000E+00
  2.00000000E+01  4.00000000E+01  0.00000000E+00
  2.00000000E+01  2.00000000E+01  0.00000000E+00
  2.00000000E+01  4.99600361E-14  0.00000000E+00
  4.00000000E+01  3.00000000E+02  0.00000000E+00
  4.00000000E+01  2.80000000E+02  0.00000000E+00
  4.00000000E+01  2.60000000E+02  0.00000000E+00
  4.00000000E+01  2.40000000E+02  0.00000000E+00
  4.00000000E+01  2.20000000E+02  0.00000000E+00
  4.00000000E+01  2.00000000E+02  0.00000000E+00
  4.00000000E+01  1.80000000E+02  0.00000000E+00
  4.00000000E+01  1.60000000E+02  0.00000000E+00
  4.00000000E+01  1.40000000E+02  0.00000000E+00
  4.00000000E+01  1.20000000E+02  0.00000000E+00
  4.00000000E+01  1.00000000E+02  0.00000000E+00
  4.00000000E+01  8.00000000E+01  0.00000000E+00
  4.00000000E+01  6.00000000E+01  0.00000000E+00
  4.00000000E+01  4.00000000E+01  0.00000000E+00
  4.00000000E+01  2.00000000E+01  0.00000000E+00
  4.00000000E+01  4.99600361E-14  0.00000000E+00
  6.00000000E+01  3.00000000E+02  0.00000000E+00
  6.00000000E+01  2.80000000E+02  0.00000000E+00
  6.00000000E+01  2.60000000E+02  0.00000000E+00
  6.00000000E+01  2.40000000E+02  0.00000000E+00
  6.00000000E+01  2.20000000E+02  0.00000000E+00
  6.00000000E+01  2.00000000E+02  0.00000000E+00
  6.00000000E+01  1.80000000E+02  0.00000000E+00
  6.00000000E+01  1.60000000E+02  0.00000000E+00
  6.00000000E+01  1.40000000E+02  0.00000000E+00
  6.00000000E+01  1.20000000E+02  0.00000000E+00
  6.00000000E+01  1.00000000E+02  0.00000000E+00
  6.00000000E+01  8.00000000E+01  0.00000000E+00
  6.00000000E+01  6.00000000E+01  0.00000000E+00
  6.00000000E+01  4.00000000E+01  0.00000000E+00
  6.00000000E+01  2.00000000E+01  0.00000000E+00
  6.00000000E+01  4.99600361E-14  0.00000000E+00
  8.00000000E+01  3.00000000E+02  0.00000000E+00
  8.00000000E+01  2.80000000E+02  0.00000000E+00
  8.00000000E+01  2.60000000E+02  0.00000000E+00
  8.00000000E+01  2.40000000E+02  0.00000000E+00
  8.00000000E+01  2.20000000E+02  0.00000000E+00
  8.00000000E+01  2.00000000E+02  0.00000000E+00
  8.00000000E+01  1.80000000E+02  0.00000000E+00
  8.00000000E+01  1.60000000E+02  0.00000000E+00
  8.00000000E+01  1.40000000E+02  0.00000000E+00
  8.00000000E+01  1.20000000E+02  0.00000000E+00
  8.00000000E+01  1.00000000E+02  0.00000000E+00
  8.00000000E+01  8.00000000E+01  0.00000000E+00
  8.00000000E+01  6.00000000E+01  0.00000000E+00
  8.00000000E+01  4.00000000E+01  0.00000000E+00
  8.00000000E+01  2.00000000E+01  0.00000000E+00
  8.00000000E+01  4.99600361E-14  0.00000000E+00
  1.00000000E+02  3.00000000E+02  0.00000000E+00
  1.00000000E+02  2.80000000E+02  0.00000000E+00
  1.00000000E+02  2.60000000E+02  0.00000000E+00
  1.00000000E+02  2.40000000E+02  0.00000000E+00
  1.00000000E+02  2.20000000E+02  0.00000000E+00
  1.00000000E+02  2.00000000E+02  0.00000000E+00
  1.00000000E+02  1.80000000E+02  0.00000000E+00
  1.00000000E+02  1.60000000E+02  0.00000000E+00
  1.00000000E+02  1.40000000E+02  0.00000000E+00
  1.00000000E+02  1.20000000E+02  0.00000000E+00
  1.00000000E+02  1.00000000E+02  0.00000000E+00
  1.00000000E+02  8.00000000E+01  0.00000000E+00
  1.00000000E+02  6.00000000E+01  0.00000000E+00
  1.00000000E+02  4.00000000E+01  0.00000000E+00
  1.00000000E+02  2.00000000E+01  0.00000000E+00
  1.00000000E+02  4.99600361E-14  0.00000000E+00
  1.20000000E+02  3.00000000E+02  0.00000000E+00
  1.20000000E+02  2.80000000E+02  0.00000000E+00
  1.20000000E+02  2.60000000E+02  0.00000000E+00
  1.20000000E+02  2.40000000E+02  0.00000000E+00
  1.20000000E+02  2.20000000E+02  0.00000000E+00
  1.20000000E+02  2.00000000E+02  0.00000000E+00
  1.20000000E+02  1.80000000E+02  0.00000000E+00
  1.20000000E+02  1.60000000E+02  0.00000000E+00
  1.20000000E+02  1.40000000E+02  0.00000000E+00
  1.20000000E+02  1.20000000E+02  0.00000000E+00
  1.20000000E+02  1.00000000E+02  0.00000000E+00
  1.20000000E+02  8.00000000E+01  0.00000000E+00
  1.20000000E+02  6.00000000E+01  0.00000000E+00
  1.20000000E+02  4.00000000E+01  0.00000000E+00
  1.20000000E+02  2.00000000E+01  0.00000000E+00
  1.20000000E+02  4.99600361E-14  0.00000000E+00
  1.40000000E+02  3.00000000E+02  0.00000000E+00
  1.40000000E+02  2.80000000E+02  0.00000000E+00
  1.40000000E+02  2.60000000E+02  0.00000000E+00
  1.40000000E+02  2.40000000E+02  0.00000000E+00
  1.40000000E+02  2.20000000E+02  0.00000000E+00
  1.40000000E+02  2.00000000E+02  0.00000000E+00
  1.40000000E+02  1.80000000E+02  0.00000000E+00
  1.40000000E+02  1.60000000E+02  0.00000000E+00
  1.40000000E+02  1.40000000E+02  0.00000000E+00
  1.40000000E+02  1.20000000E+02  0.00000000E+00
  1.40000000E+02  1.00000000E+02  0.00000000E+00
  1.40000000E+02  8.00000000E+01  0.00000000E+00
  1.40000000E+02  6.00000000E+01  0.00000000E+00
  1.40000000E+02  4.00000000E+01  0.00000000E+00
  1.40000000E+02  2.00000000E+01  0.00000000E+00
  1.40000000E+02  4.99600361E-14  0.00000000E+00
  1.60000000E+02  3.00000000E+02  0.00000000E+00
  1.60000000E+02  2.80000000E+02  0.00000000E+00
  1.60000000E+02  2.60000000E+02  0.00000000E+00
  1.60000000E+02  2.40000000E+02  0.00000000E+00
  1.60000000E+02  2.20000000E+02  0.00000000E+00
  1.60000000E+02  2.00000000E+02  0.00000000E+00
  1.60000000E+02  1.80000000E+02  0.00000000E+00
  1.60000000E+02  1.60000000E+02  0.00000000E+00
  1.60000000E+02  1.40000000E+02  0.00000000E+00
  1.60000000E+02  1.20000000E+02  0.00000000E+00
  1.60000000E+02  1.00000000E+02  0.00000000E+00
  1.60000000E+02  8.00000000E+01  0.00000000E+00
  1.60000000E+02  6.00000000E+01  0.00000000E+00
  1.60000000E+02  4.00000000E+01  0.00000000E+00
  1.60000000E+02  2.00000000E+01  0.00000000E+00
  1.60000000E+02  4.99600361E-14  0.00000000E+00
  1.80000000E+02  3.00000000E+02  0.00000000E+00
  1.80000000E+02  2.80000000E+02  0.00000000E+00
  1.80000000E+02  2.60000000E+02  0.00000000E+00
  1.80000000E+02  2.40000000E+02  0.00000000E+00
  1.80000000E+02  2.20000000E+02  0.00000000E+00
  1.80000000E+02  2.00000000E+02  0.00000000E+00
  1.80000000E+02  1.80000000E+02  0.00000000E+00
  1.80000000E+02  1.60000000E+02  0.00000000E+00
  1.80000000E+02  1.40000000E+02  0.00000000E+00
  1.80000000E+02  1.20000000E+02  0.00000000E+00
  1.80000000E+02  1.00000000E+02  0.00000000E+00
  1.80000000E+02  8.00000000E+01  0.00000000E+00
  1.80000000E+02  6.00000000E+01  0.00000000E+00
  1.80000000E+02  4.00000000E+01  0.00000000E+00
  1.80000000E+02  2.00000000E+01  0.00000000E+00
  1.80000000E+02  4.99600361E-14  0.00000000E+00
  2.00000000E+02  3.00000000E+02  0.00000000E+00
  2.00000000E+02  2.80000000E+02  0.00000000E+00
  2.00000000E+02  2.60000000E+02  0.00000000E+00
  2.00000000E+02  2.40000000E+02  0.00000000E+00
  2.00000000E+02  2.20000000E+02  0.00000000E+00
  2.00000000E+02  2.00000000E+02  0.00000000E+00
  2.00000000E+02  1.80000000E+02  0.00000000E+00
  2.00000000E+02  1.60000000E+02  0.00000000E+00
  2.00000000E+02  1.40000000E+02  0.00000000E+00
  2.00000000E+02  1.20000000E+02  0.00000000E+00
  2.00000000E+02  1.00000000E+02  0.00000000E+00
  2.00000000E+02  8.00000000E+01  0.00000000E+00
  2.00000000E+02  6.00000000E+01  0.00000000E+00
  2.00000000E+02  4.00000000E+01  0.00000000E+00
  2.00000000E+02  2.00000000E+01  0.00000000E+00
  2.00000000E+02  4.99600361E-14  0.00000000E+00
  2.20000000E+02  3.00000000E+02  0.00000000E+00
  2.20000000E+02  2.80000000E+02  0.00000000E+00
  2.20000000E+02  2.60000000E+02  0.00000000E+00
  2.20000000E+02  2.40000000E+02  0.00000000E+00
  2.20000000E+02  2.20000000E+02  0.00000000E+00
  2.20000000E+02  2.00000000E+02  0.00000000E+00
  2.20000000E+02  1.80000000E+02  0.00000000E+00
  2.20000000E+02  1.60000000E+02  0.00000000E+00
  2.20000000E+02  1.40000000E+02  0.00000000E+00
  2.20000000E+02  1.20000000E+02  0.00000000E+00
  2.20000000E+02  1.00000000E+02  0.00000000E+00
  2.20000000E+02  8.00000000E+01  0.00000000E+00
  2.20000000E+02  6.00000000E+01  0.00000000E+00
  2.20000000E+02  4.00000000E+01  0.00000000E+00
  2.20000000E+02  2.00000000E+01  0.00000000E+00
  2.20000000E+02  4.99600361E-14  0.00000000E+00
  2.40000000E+02  3.00000000E+02  0.00000000E+00
  2.40000000E+02  2.80000000E+02  0.00000000E+00
  2.40000000E+02  2.60000000E+02  0.00000000E+00
  2.40000000E+02  2.40000000E+02  0.00000000E+00
  2.40000000E+02  2.20000000E+02  0.00000000E+00
  2.40000000E+02  2.00000000E+02  0.00000000E+00
  2.40000000E+02  1.80000000E+02  0.00000000E+00
  2.40000000E+02  1.60000000E+02  0.00000000E+00
  2.40000000E+02  1.40000000E+02  0.00000000E+00
  2.40000000E+02  1.20000000E+02  0.00000000E+00
  2.40000000E+02  1.00000000E+02  0.00000000E+00
  2.40000000E+02  8.00000000E+01  0.00000000E+00
  2.40000000E+02  6.00000000E+01  0.00000000E+00
  2.40000000E+02  4.00000000E+01  0.00000000E+00
  2.40000000E+02  2.00000000E+01  0.00000000E+00
  2.40000000E+02  4.99600361E-14  0.00000000E+00
  2.60000000E+02  3.00000000E+02  0.00000000E+00
  2.60000000E+02  2.80000000E+02  0.00000000E+00
  2.60000000E+02  2.60000000E+02  0.00000000E+00
  2.60000000E+02  2.40000000E+02  0.00000000E+00
  2.60000000E+02  2.20000000E+02  0.00000000E+00
  2.60000000E+02  2.00000000E+02  0.00000000E+00
  2.60000000E+02  1.80000000E+02  0.00000000E+00
  2.60000000E+02  1.60000000E+02  0.00000000E+00
  2.60000000E+02  1.40000000E+02  0.00000000E+00
  2.60000000E+02  1.20000000E+02  0.00000000E+00
  2.60000000E+02  1.00000000E+02  0.00000000E+00
  2.60000000E+02  8.00000000E+01  0.00000000E+00
  2.60000000E+02  6.00000000E+01  0.00000000E+00
  2.60000000E+02  4.00000000E+01  0.00000000E+00
  2.60000000E+02  2.00000000E+01  0.00000000E+00
  2.60000000E+02  4.99600361E-14  0.00000000E+00
  2.80000000E+02  3.00000000E+02  0.00000000E+00
  2.80000000E+02  2.80000000E+02  0.00000000E+00
  2.80000000E+02  2.60000000E+02  0.00000000E+00
  2.80000000E+02  2.40000000E+02  0.00000000E+00
  2.80000000E+02  2.20000000E+02  0.00000000E+00
  2.80000000E+02  2.00000000E+02  0.00000000E+00
  2.80000000E+02  1.80000000E+02  0.00000000E+00
  2.80000000E+02  1.60000000E+02  0.00000000E+00
  2.80000000E+02  1.40000000E+02  0.00000000E+00
  2.80000000E+02  1.20000000E+02  0.00000000E+00
  2.80000000E+02  1.00000000E+02  0.00000000E+00
  2.80000000E+02  8.00000000E+01  0.00000000E+00
  2.80000000E+02  6.00000000E+01  0.00000000E+00
  2.80000000E+02  4.00000000E+01  0.00000000E+00
  2.80000000E+02  2.00000000E+01  0.00000000E+00
  2.80000000E+02  4.99600361E-14  0.00000000E+00
  3.00000000E+02  3.00000000E+02  0.00000000E+00
  3.00000000E+02  2.80000000E+02  0.00000000E+00
  3.00000000E+02  2.60000000E+02  0.00000000E+00
  3.00000000E+02  2.40000000E+02  0.00000000E+00
  3.00000000E+02  2.20000000E+02  0.00000000E+00
  3.00000000E+02  2.00000000E+02  0.00000000E+00
  3.00000000E+02  1.80000000E+02  0.00000000E+00
  3.00000000E+02  1.60000000E+02  0.00000000E+00
  3.00000000E+02  1.40000000E+02  0.00000000E+00
  3.00000000E+02  1.20000000E+02  0.00000000E+00
  3.00000000E+02  1.00000000E+02  0.00000000E+00
  3.00000000E+02  8.00000000E+01  0.00000000E+00
  3.00000000E+02  6.00000000E+01  0.00000000E+00
  3.00000000E+02  4.00000000E+01  0.00000000E+00
  3.00000000E+02  2.00000000E+01  0.00000000E+00
  3.00000000E+02  4.99600361E-14  0.00000000E+00
  3.20000000E+02  3.00000000E+02  0.00000000E+00
  3.20000000E+02  2.80000000E+02  0.00000000E+00
  3.20000000E+02  2.60000000E+02  0.00000000E+00
  3.20000000E+02  2.40000000E+02  0.00000000E+00
  3.20000000E+02  2.20000000E+02  0.00000000E+00
  3.20000000E+02  2.00000000E+02  0.00000000E+00
  3.20000000E+02  1.80000000E+02  0.00000000E+00
  3.20000000E+02  1.60000000E+02  0.00000000E+00
  3.20000000E+02  1.40000000E+02  0.00000000E+00
  3.20000000E+02  1.20000000E+02  0.00000000E+00
  3.20000000E+02  1.00000000E+02  0.00000000E+00
  3.20000000E+02  8.00000000E+01  0.00000000E+00
  3.20000000E+02  6.00000000E+01  0.00000000E+00
  3.20000000E+02  4.00000000E+01  0.00000000E+00
  3.20000000E+02  2.00000000E+01  0.00000000E+00
  3.20000000E+02  4.99600361E-14  0.00000000E+00
  3.40000000E+02  3.00000000E+02  0.00000000E+00
  3.40000000E+02  2.80000000E+02  0.00000000E+00
  3.40000000E+02  2.60000000E+02  0.00000000E+00
  3.40000000E+02  2.40000000E+02  0.00000000E+00
  3.40000000E+02  2.20000000E+02  0.00000000E+00
  3.40000000E+02  2.00000000E+02  0.00000000E+00
  3.40000000E+02  1.80000000E+02  0.00000000E+00
  3.40000000E+02  1.60000000E+02  0.00000000E+00
  3.40000000E+02  1.40000000E+02  0.00000000E+00
  3.40000000E+02  1.20000000E+02  0.00000000E+00
  3.40000000E+02  1.00000000E+02  0.00000000E+00
  3.40000000E+02  8.00000000E+01  0.00000000E+00
  3.40000000E+02  6.00000000E+01  0.00000000E+00
  3.40000000E+02  4.00000000E+01  0.00000000E+00
  3.40000000E+02  2.00000000E+01  0.00000000E+00
  3.40000000E+02  4.99600361E-14  0.00000000E+00
  3.60000000E+02  3.00000000E+02  0.00000000E+00
  3.60000000E+02  2.80000000E+02  0.00000000E+00
  3.60000000E+02  2.60000000E+02  0.00000000E+00
  3.60000000E+02  2.40000000E+02  0.00000000E+00
  3.60000000E+02  2.20000000E+02  0.00000000E+00
  3.60000000E+02  2.00000000E+02  0.00000000E+00
  3.60000000E+02  1.80000000E+02  0.00000000E+00
  3.60000000E+02  1.60000000E+02  0.00000000E+00
  3.60000000E+02  1.40000000E+02  0.00000000E+00
  3.60000000E+02  1.20000000E+02  0.00000000E+00
  3.60000000E+02  1.00000000E+02  0.00000000E+00
  3.60000000E+02  8.00000000E+01  0.00000000E+00
  3.60000000E+02  6.00000000E+01  0.00000000E+00
  3.60000000E+02  4.00000000E+01  0.00000000E+00
  3.60000000E+02  2.00000000E+01  0.00000000E+00
  3.60000000E+02  4.99600361E-14  0.00000000E+00
  3.80000000E+02  3.00000000E+02  0.00000000E+00
  3.80000000E+02  2.80000000E+02  0.00000000E+00
  3.80000000E+02  2.60000000E+02  0.00000000E+00
  3.80000000E+02  2.40000000E+02  0.00000000E+00
  3.80000000E+02  2.20000000E+02  0.00000000E+00
  3.80000000E+02  2.00000000E+02  0.00000000E+00
  3.80000000E+02  1.80000000E+02  0.00000000E+00
  3.80000000E+02  1.60000000E+02  0.00000000E+00
  3.80000000E+02  1.40000000E+02  0.00000000E+00
  3.80000000E+02  1.20000000E+02  0.00000000E+00
  3.80000000E+02  1.00000000E+02  0.00000000E+00
  3.80000000E+02  8.00000000E+01  0.00000000E+00
  3.80000000E+02  6.00000000E+01  0.00000000E+00
  3.80000000E+02  4.00000000E+01  0.00000000E+00
  3.80000000E+02  2.00000000E+01  0.00000000E+00
  3.80000000E+02  4.99600361E-14  0.00000000E+00
  4.00000000E+02  3.00000000E+02  0.00000000E+00
  4.00000000E+02  2.80000000E+02  0.00000000E+00
  4.00000000E+02  2.60000000E+02  0.00000000E+00
  4.00000000E+02  2.40000000E+02  0.00000000E+00
  4.00000000E+02  2.20000000E+02  0.00000000E+00
  4.00000000E+02  2.00000000E+02  0.00000000E+00
  4.00000000E+02  1.80000000E+02  0.00000000E+00
  4.00000000E+02  1.60000000E+02  0.00000000E+00
  4.00000000E+02  1.40000000E+02  0.00000000E+00
  4.00000000E+02  1.20000000E+02  0.00000000E+00
  4.00000000E+02  1.00000000E+02  0.00000000E+00
  4.00000000E+02  8.00000000E+01  0.00000000E+00
  4.00000000E+02  6.00000000E+01  0.00000000E+00
  4.00000000E+02  4.00000000E+01  0.00000000E+00
  4.00000000E+02  2.00000000E+01  0.00000000E+00
  4.00000000E+02  4.99600361E-14  0.00000000E+00
  4.20000000E+02  3.00000000E+02  0.00000000E+00
  4.20000000E+02  2.80000000E+02  0.00000000E+00
  4.20000000E+02  2.60000000E+02  0.00000000E+00
  4.20000000E+02  2.40000000E+02  0.00000000E+00
  4.20000000E+02  2.20000000E+02  0.00000000E+00
  4.20000000E+02  2.00000000E+02  0.00000000E+00
  4.20000000E+02  1.80000000E+02  0.00000000E+00
  4.20000000E+02  1.60000000E+02  0.00000000E+00
  4.20000000E+02  1.40000000E+02  0.00000000E+00
  4.20000000E+02  1.20000000E+02  0.00000000E+00
  4.20000000E+02  1.00000000E+02  0.00000000E+00
  4.20000000E+02  8.00000000E+01  0.00000000E+00
  4.20000000E+02  6.00000000E+01  0.00000000E+00
  4.20000000E+02  4.00000000E+01  0.00000000E+00
  4.20000000E+02  2.00000000E+01  0.00000000E+00
  4.20000000E+02  4.99600361E-14  0.00000000E+00
  4.40000000E+02  3.00000000E+02  0.00000000E+00
  4.40000000E+02  2.80000000E+02  0.00000000E+00
  4.40000000E+02  2.60000000E+02  0.00000000E+00
  4.40000000E+02  2.40000000E+02  0.00000000E+00
  4.40000000E+02  2.20000000E+02  0.00000000E+00
  4.40000000E+02  2.00000000E+02  0.00000000E+00
  4.40000000E+02  1.80000000E+02  0.00000000E+00
  4.40000000E+02  1.60000000E+02  0.00000000E+00
  4.40000000E+02  1.40000000E+02  0.00000000E+00
  4.40000000E+02  1.20000000E+02  0.00000000E+00
  4.40000000E+02  1.00000000E+02  0.00000000E+00
  4.40000000E+02  8.00000000E+01  0.00000000E+00
  4.40000000E+02  6.00000000E+01  0.00000000E+00
  4.40000000E+02  4.00000000E+01  0.00000000E+00
  4.40000000E+02  2.00000000E+01  0.00000000E+00
  4.40000000E+02  4.99600361E-14  0.00000000E+00
  4.60000000E+02  3.00000000E+02  0.00000000E+00
  4.60000000E+02  2.80000000E+02  0.00000000E+00
  4.60000000E+02  2.60000000E+02  0.00000000E+00
  4.60000000E+02  2.40000000E+02  0.00000000E+00
  4.60000000E+02  2.20000000E+02  0.00000000E+00
  4.60000000E+02  2.00000000E+02  0.00000000E+00
  4.60000000E+02  1.80000000E+02  0.00000000E+00
  4.60000000E+02  1.60000000E+02  0.00000000E+00
  4.60000000E+02  1.40000000E+02  0.00000000E+00
  4.60000000E+02  1.20000000E+02  0.00000000E+00
  4.60000000E+02  1.00000000E+02  0.00000000E+00
  4.60000000E+02  8.00000000E+01  0.00000000E+00
  4.60000000E+02  6.00000000E+01  0.00000000E+00
  4.60000000E+02  4.00000000E+01  0.00000000E+00
  4.60000000E+02  2.00000000E+01  0.00000000E+00
  4.60000000E+02  4.99600361E-14  0.00000000E+00
  4.80000000E+02  3.00000000E+02  0.00000000E+00
  4.80000000E+02  2.80000000E+02  0.00000000E+00
  4.80000000E+02  2.60000000E+02  0.00000000E+00
  4.80000000E+02  2.40000000E+02  0.00000000E+00
  4.80000000E+02  2.20000000E+02  0.00000000E+00
  4.80000000E+02  2.00000000E+02  0.00000000E+00
  4.80000000E+02  1.80000000E+02  0.00000000E+00
  4.80000000E+02  1.60000000E+02  0.00000000E+00
  4.80000000E+02  1.40000000E+02  0.00000000E+00
  4.80000000E+02  1.20000000E+02  0.00000000E+00
  4.80000000E+02  1.00000000E+02  0.00000000E+00
  4.80000000E+02  8.00000000E+01  0.00000000E+00
  4.80000000E+02  6.00000000E+01  0.00000000E+00
  4.80000000E+02  4.00000000E+01  0.00000000E+00
  4.80000000E+02  2.00000000E+01  0.00000000E+00
  4.80000000E+02  4.99600361E-14  0.00000000E+00
  5.00000000E+02  3.00000000E+02  0.00000000E+00
  5.00000000E+02  2.80000000E+02  0.00000000E+00
  5.00000000E+02  2.60000000E+02  0.00000000E+00
  5.00000000E+02  2.40000000E+02  0.00000000E+00
  5.00000000E+02  2.20000000E+02  0.00000000E+00
  5.00000000E+02  2.00000000E+02  0.00000000E+00
  5.00000000E+02  1.80000000E+02  0.00000000E+00
  5.00000000E+02  1.60000000E+02  0.00000000E+00
  5.00000000E+02  1.40000000E+02  0.00000000E+00
  5.00000000E+02  1.20000000E+02  0.00000000E+00
  5.00000000E+02  1.00000000E+02  0.00000000E+00
  5.00000000E+02  8.00000000E+01  0.00000000E+00
  5.00000000E+02  6.00000000E+01  0.00000000E+00
  5.00000000E+02  4.00000000E+01  0.00000000E+00
  5.00000000E+02  2.00000000E+01  0.00000000E+00
  5.00000000E+02  4.99600361E-14  0.00000000E+00
  5.20000000E+02  3.00000000E+02  0.00000000E+00
  5.20000000E+02  2.80000000E+02  0.00000000E+00
  5.20000000E+02  2.60000000E+02  0.00000000E+00
  5.20000000E+02  2.40000000E+02  0.00000000E+00
  5.20000000E+02  2.20000000E+02  0.00000000E+00
  5.20000000E+02  2.00000000E+02  0.00000000E+00
  5.20000000E+02  1.80000000E+02  0.00000000E+00
  5.20000000E+02  1.60000000E+02  0.00000000E+00
  5.20000000E+02  1.40000000E+02  0.00000000E+00
  5.20000000E+02  1.20000000E+02  0.00000000E+00
  5.20000000E+02  1.00000000E+02  0.00000000E+00
  5.20000000E+02  8.00000000E+01  0.00000000E+00
  5.20000000E+02  6.00000000E+01  0.00000000E+00
  5.20000000E+02  4.00000000E+01  0.00000000E+00
  5.20000000E+02  2.00000000E+01  0.00000000E+00
  5.20000000E+02  4.99600361E-14  0.00000000E+00
  5.40000000E+02  3.00000000E+02  0.00000000E+00
  5.40000000E+02  2.80000000E+02  0.00000000E+00
  5.40000000E+02  2.60000000E+02  0.00000000E+00
  5.40000000E+02  2.40000000E+02  0.00000000E+00
  5.40000000E+02  2.20000000E+02  0.00000000E+00
  5.40000000E+02  2.00000000E+02  0.00000000E+00
  5.40000000E+02  1.80000000E+02  0.00000000E+00
  5.40000000E+02  1.60000000E+02  0.00000000E+00
  5.40000000E+02  1.40000000E+02  0.00000000E+00
  5.40000000E+02  1.20000000E+02  0.00000000E+00
  5.40000000E+02  1.00000000E+02  0.00000000E+00
  5.40000000E+02  8.00000000E+01  0.00000000E+00
  5.40000000E+02  6.00000000E+01  0.00000000E+00
  5.40000000E+02  4.00000000E+01  0.00000000E+00
  5.40000000E+02  2.00000000E+01  0.00000000E+00
  5.40000000E+02  4.99600361E-14  0.00000000E+00
  5.60000000E+02  3.00000000E+02  0.00000000E+00
  5.60000000E+02  2.80000000E+02  0.00000000E+00
  5.60000000E+02  2.60000000E+02  0.00000000E+00
  5.60000000E+02  2.40000000E+02  0.00000000E+00
  5.60000000E+02  2.20000000E+02  0.00000000E+00
  5.60000000E+02  2.00000000E+02  0.00000000E+00
  5.60000000E+02  1.80000000E+02  0.00000000E+00
  5.60000000E+02  1.60000000E+02  0.00000000E+00
  5.60000000E+02  1.40000000E+02  0.00000000E+00
  5.60000000E+02  1.20000000E+02  0.00000000E+00
  5.60000000E+02  1.00000000E+02  0.00000000E+00
  5.60000000E+02  8.00000000E+01  0.00000000E+00
  5.60000000E+02  6.00000000E+01  0.00000000E+00
  5.60000000E+02  4.00000000E+01  0.00000000E+00
  5.60000000E+02  2.00000000E+01  0.00000000E+00
  5.60000000E+02  4.99600361E-14  0.00000000E+00
  5.80000000E+02  3.00000000E+02  0.00000000E+00
  5.80000000E+02  2.80000000E+02  0.00000000E+00
  5.80000000E+02  2.60000000E+02  0.00000000E+00
  5.80000000E+02  2.40000000E+02  0.00000000E+00
  5.80000000E+02  2.20000000E+02  0.00000000E+00
  5.80000000E+02  2.00000000E+02  0.00000000E+00
  5.80000000E+02  1.80000000E+02  0.00000000E+00
  5.80000000E+02  1.60000000E+02  0.00000000E+00
  5.80000000E+02  1.40000000E+02  0.00000000E+00
  5.80000000E+02  1.20000000E+02  0.00000000E+00
  5.80000000E+02  1.00000000E+02  0.00000000E+00
  5.80000000E+02  8.00000000E+01  0.00000000E+00
  5.80000000E+02  6.00000000E+01  0.00000000E+00
  5.80000000E+02  4.00000000E+01  0.00000000E+00
  5.80000000E+02  2.00000000E+01  0.00000000E+00
  5.80000000E+02  4.99600361E-14  0.00000000E+00
  6.00000000E+02  3.00000000E+02  0.00000000E+00
  6.00000000E+02  2.80000000E+02  0.00000000E+00
  6.00000000E+02  2.60000000E+02  0.00000000E+00
  6.00000000E+02  2.40000000E+02  0.00000000E+00
  6.00000000E+02  2.20000000E+02  0.00000000E+00
  6.00000000E+02  2.00000000E+02  0.00000000E+00
  6.00000000E+02  1.80000000E+02  0.00000000E+00
  6.00000000E+02  1.60000000E+02  0.00000000E+00
  6.00000000E+02  1.40000000E+02  0.00000000E+00
  6.00000000E+02  1.20000000E+02  0.00000000E+00
  6.00000000E+02  1.00000000E+02  0.00000000E+00
  6.00000000E+02  8.00000000E+01  0.00000000E+00
  6.00000000E+02  6.00000000E+01  0.00000000E+00
  6.00000000E+02  4.00000000E+01  0.00000000E+00
  6.00000000E+02  2.00000000E+01  0.00000000E+00
  6.00000000E+02  4.99600361E-14  0.00000000E+00
CELLS       450      2250
         4           0           1          17          16
         4           1           2          18          17
         4           2           3          19          18
         4           3           4          20          19
         4           4           5          21          20
         4           5           6          22          21
         4           6           7          23          22
         4           7           8          24          23
         4           8           9          25          24
         4           9          10          26          25
         4          10          11          27          26
         4          11          12          28          27
         4          12          13          29          28
         4          13          14          30          29
         4          14          15          31          30
         4          16          17          33          32
         4          17          18          34          33
         4          18          19          35          34
         4          19          20          36          35
         4          20          21          37          36
         4          21          22          38          37
         4          22          23          39          38
         4          23          24          40          39
         4          24          25          41          40
         4          25          26          42          41
         4          26          27          43          42
         4          27          28          44          43
         4          28          29          45          44
         4          29          30          46          45
         4          30          31          47          46
         4          32          33          49          48
         4          33          34          50          49
         4          34          35          51          50
         4          35          36          52          51
         4          36          37          53          52
         4          37          38          54          53
         4          38          39          55          54
         4          39          40          56          55
         4          40          41          57          56
         4          41          42          58          57
         4          42          43          59          58
         4          43          44          60          59
         4          44          45          61          60
         4          45          46          62          61
         4          46          47          63          62
         4          48          49          65          64
         4          49          50          66          65
         4          50          51          67          66
         4          51          52          68          67
         4          52          53          69          68
         4          53          54          70          69
         4          54          55          71          70
         4          55          56          72          71
         4          56          57          73          72
         4          57          58          74          73
         4          58          59          75          74
         4          59          60          76          75
         4          60          61          77          76
         4          61          62          78          77
         4          62          63          79          78
         4          64          65          81          80
         4          65          66          82          81
         4          66          67          83          82
         4          67          68          84          83
         4          68          69          85          84
         4          69          70          86          85
         4          70          71          87          86
         4          71          72          88          87
         4          72          73          89          88
         4          73          74          90          89
         4          74          75          91          90
         4          75          76          92          91
         4          76          77          93          92
         4          77          78          94          93
         4          78          79          95          94
         4          80          81          97          96
         4          81          82          98          97
         4          82          83          99          98
         4          83          84         100          99
         4          84          85         101         100
         4          85          86         102         101
         4          86          87         103         102
         4          87          88         104         103
         4          88          89         105         104
         4          89          90         106         105
         4          90          91         107         106
         4          91          92         108         107
         4          92          93         109         108
         4          93          94         110         109
         4          94          95         111         110
         4          96          97         113         112
         4          97          98         114         113
         4          98          99         115         114
         4          99         100         116         115
         4         100         101         117         116
         4         101         102         118         117
         4         102         103         119         118
         4         103         104         120         119
         4         104         105         121         120
         4         105         106         122         121
         4         106         107         123         122
         4         107         108         124         123
         4         108         109         125         124
         4         109         110         126         125
         4         110         111         127         126
         4         112         113         129         128
         4         113         114         130         129
         4         114         115         131         130
         4         115         116         132         131
         4         116         117         133         132
         4         117         118         134         133
         4         118         119         135         134
         4         119         120         136         135
         4         120         121         137         136
         4         121         122         138         137
         4         122         123         139         138
         4         123         124         140         139
         4         124         125         141         140
         4         125         126         142         141
         4         126         127         143         142
         4         128         129         145         144
         4         129         130         146         145
         4         130         131         147         146
         4         131         132         148         147
         4         132         133         149         148
         4         133         134         150         149
         4         134         135         151         150
         4         135         136         152         151
         4         136         137         153         152
         4         137         138         154         153
         4         138         139         155         154
         4         139         140         156         155
         4         140         141         157         156
         4         141         142         158         157
         4         142         143         159         158
         4         144         145         161         160
         4         145         146         162         161
         4         146         147         163         162
         4         147         148         164         163
         4         148         149         165         164
         4         149         150         166         165
         4         150         151         167         166
         4         151         152         168         167
         4         152         153         169         168
         4         153         154         170         169
         4         154         155         171         170
         4         155         156         172         171
         4         156         157         173         172
         4         157         158         174         173
         4         158         159         175         174
         4         160         161         177         176
         4         161         162         178         177
         4         162         163         179         178
         4         163         164         180         179
         4         164         165         181         180
         4         165         166         182         181
         4         166         167         183         182
         4         167         168         184         183
         4         168         169         185         184
         4         169         170         186         185
         4         170         171         187         186
         4         171         172         188         187
         4         172         173         189         188
         4         173         174         190         189
         4         174         175         191         190
         4         176         177         193         192
         4         177         178         194         193
         4         178         179         195         194
         4         179         180         196         195
         4         180         181         197         196
         4         181         182         198         197
         4         182         183         199         198
         4         183         184         200         199
         4         184         185         201         200
         4         185         186         202         201
         4         186         187         203         202
         4         187         188         204         203
         4         188         189         205         204
         4         189         190         206         205
         4         190         191         207         206
         4         192         193         209         208
         4         193         194         210         209
         4         194         195         211         210
         4         195         196         212         211
         4         196         197         213         212
         4         197         198         214         213
         4         198         199         215         214
         4         199         200         216         215
         4         200         201         217         216
         4         201         202         218         217
         4         202         203         219         218
         4         203         204         220         219
         4         204         205         221         220
         4         205         206         222         221
         4         206         207         223         222
         4         208         209         225         224
         4         209         210         226         225
         4         210         211         227         226
         4         211         212         228         227
         4         212         213         229         228
         4         213         214         230         229
         4         214         215         231         230
         4         215         216         232         231
         4         216         217         233         232
         4         217         218         234         233
         4         218         219         235         234
         4         219         220         236         235
         4         220         221         237         236
         4         221         222         238         237
         4         222         223         239         238
         4         224         225         241         240
         4         225         226         242         241
         4         226         227         243         242
         4         227         228         244         243
         4         228         229         245         244
         4         229         230         246         245
         4         230         231         247         246
         4         231         232         248         247
         4         232         233         249         248
         4         233         234         250         249
         4         234         235         251         250
         4         235         236         252         251
         4         236         237         253         252
         4         237         238         254         253
         4         238         239         255         254
         4         240         241         257         256
         4         241         242         258         257
         4         242         243         259         258
         4         243         244         260         259
         4         244         245         261         260
         4         245         246         262         261
         4         246         247         263         262
         4         247         248         264         263
         4         248         249         265         264
         4         249         250         266         265
         4         250         251         267         266
         4         251         252         268         267
         4         252         253         269         268
         4         253         254         270         269
         4         254         255         271         270
         4         256         257         273         272
         4         257         258         274         273
         4         258         259         275         274
         4         259         260         276         275
         4         260         261         277         276
         4         261         262         278         277
         4         262         263         279         278
         4         263         264         280         279
         4         264         265         281         280
         4         265         266         282         281
         4         266         267         283         282
         4         267         268         284         283
         4         268         269         285         284
         4         269         270         286         285
         4         270         271         287         286
         4         272         273         289         288
         4         273         274         290         289
         4         274         275         291         290
         4         275         276         292         291
         4         276         277         293         292
         4         277         278         294         293
         4         278         279         295         294
         4         279         280         296         295
         4         280         281         297         296
         4         281         282         298         297
         4         282         283         299         298
         4         283         284         300         299
         4         284         285         301         300
         4         285         286         302         301
         4         286         287         303         302
         4         288         289         305         304
         4         289         290         306         305
         4         290         291         307         306
         4         291         292         308         307
         4         292         293         309         308
         4         293         294         310         309
         4         294         295         311         310
         4         295         296         312         311
         4         296         297         313         312
         4         297         298         314         313
         4         298         299         315         314
         4         299         300         316         315
         4         300         301         317         316
         4         301         302         318         317
         4         302         303         319         318
         4         304         305         321         320
         4         305         306         322         321
         4         306         307         323         322
         4         307         308         324         323
         4         308         309         325         324
         4         309         310         326         325
         4         310         311         327         326
         4         311         312         328         327
         4         312         313         329         328
         4         313         314         330         329
         4         314         315         331         330
         4         315         316         332         331
         4         316         317         333         332
         4         317         318         334         333
         4         318         319         335         334
         4         320         321         337         336
         4         321         322         338         337
         4         322         323         339         338
         4         323         324         340         339
         4         324         325         341         340
         4         325         326         342         341
         4         326         327         343         342
         4         327         328         344         343
         4         328         329         345         344
         4         329         330         346         345
         4         330         331         347         346
         4         331         332         348         347
         4         332         333         349         348
         4         333         334         350         349
         4         334         335         351         350
         4         336         337         353         352
         4         337         338         354         353
         4         338         339         355         354
         4         339         340         356         355
         4         340         341         357         356
         4         341         342         358         357
         4         342         343         359         358
         4         343         344         360         359
         4         344         345         361         360
         4         345         346         362         361
         4         346         347         363         362
         4         347         348         364         363
         4         348         349         365         364
         4         349         350         366         365
         4         350         351         367         366
         4         352         353         369         368
         4         353         354         370         369
         4         354         355         371         370
         4         355         356         372         371
         4         356         357         373         372
         4         357         358         374         373
         4         358         359         375         374
         4         359         360         376         375
         4         360         361         377         376
         4         361         362         378         377
         4         362         363         379         378
         4         363         364         380         379
         4         364         365         381         380
         4         365         366         382         381
         4         366         367         383         382
         4         368         369         385         384
         4         369         370         386         385
         4         370         371         387         386
         4         371         372         388         387
         4         372         373         389         388
         4         373         374         390         389
         4         374         375         391         390
         4         375         376         392         391
         4         376         377         393         392
         4         377         378         394         393
         4         378         379         395         394
         4         379         380         396         395
         4         380         381         397         396
         4         381         382         398         397
         4         382         383         399         398
         4         384         385         401         400
         4         385         386         402         401
         4         386         387         403         402
         4         387         388         404         403
         4         388         389         405         404
         4         389         390         406         405
         4         390         391         407         406
         4         391         392         408         407
         4         392         393         409         408
         4         393         394         410         409
         4         394         395         411         410
         4         395         396         412         411
         4         396         397         413         412
         4         397         398         414         413
         4         398         399         415         414
         4         400         401         417         416
         4         401         402         418         417
         4         402         403         419         418
         4         403         404         420         419
         4         404         405         421         420
         4         405         406         422         421
         4         406         407         423         422
         4         407         408         424         423
         4         408         409         425         424
         4         409         410         426         425
         4         410         411         427         426
         4         411         412         428         427
         4         412         413         429         428
         4         413         414         430         429
         4         414         415         431         430
         4         416         417         433         432
         4         417         418         434         433
         4         418         419         435         434
         4         419         420         436         435
         4         420         421         437         436
         4         421         422         438         437
         4         422         423         439         438
         4         423         424         440         439
         4         424         425         441         440
         4         425         426         442         441
         4         426         427         443         442
         4         427         428         444         443
         4         428         429         445         444
         4         429         430         446         445
         4         430         431         447         446
         4         432         433         449         448
         4         433         434         450         449
         4         434         435         451         450
         4         435         436         452         451
         4         436         437         453         452
         4         437         438         454         453
         4         438         439         455         454
         4         439         440         456         455
         4         440         441         457         456
         4         441         442         458         457
         4         442         443         459         458
         4         443         444         460         459
         4         444         445         461         460
         4         445         446         462         461
         4         446         447         463         462
         4         448         449         465         464
         4         449         450         466         465
         4         450         451         467         466
         4         451         452         468         467
         4         452         453         469         468
         4         453         454         470         469
         4         454         455         471         470
         4         455         456         472         471
         4         456         457         473         472
         4         457         458         474         473
         4         458         459         475         474
         4         459         460         476         475
         4         460         461         477         476
         4         461         462         478         477
         4         462         463         479         478
         4         464         465         481         480
         4         465         466         482         481
         4         466         467         483         482
         4         467         468         484         483
         4         468         469         485         484
         4         469         470         486         485
         4         470         471         487         486
         4         471         472         488         487
         4         472         473         489         488
         4         473         474         490         489
         4         474         475         491         490
         4         475         476         492         491
         4         476         477         493         492
         4         477         478         494         493
         4         478         479         495         494
CELL_TYPES        450
9
9
9
9
9
9
9
9
9
9
9
9
9
9
9
9
9
9
9
9
9
9
9
9
9
9
9
9
9
9
9
9
9
9
9
9
9
9
9
9
9
9
9
9
9
9
9
9
9
9
9
9
9
9
9
9
9
9
9
9
9
9
9
9
9
9
9
9
9
9
9
9
9
9
9
9
9
9
9
9
9
9
9
9
9
9
9
9
9
9
9
9
9
9
9
9
9
9
9
9
9
9
9
9
9
9
9
9
9
9
9
9
9
9
9
9
9
9
9
9
9
9
9
9
9
9
9
9
9
9
9
9
9
9
9
9
9
9
9
9
9
9
9
9
9
9
9
9
9
9
9
9
9
9
9
9
9
9
9
9
9
9
9
9
9
9
9
9
9
9
9
9
9
9
9
9
9
9
9
9
9
9
9
9
9
9
9
9
9
9
9
9
9
9
9
9
9
9
9
9
9
9
9
9
9
9
9
9
9
9
9
9
9
9
9
9
9
9
9
9
9
9
9
9
9
9
9
9
9
9
9
9
9
9
9
9
9
9
9
9
9
9
9
9
9
9
9
9
9
9
9
9
9
9
9
9
9
9
9
9
9
9
9
9
9
9
9
9
9
9
9
9
9
9
9
9
9
9
9
9
9
9
9
9
9
9
9
9
9
9
9
9
9
9
9
9
9
9
9
9
9
9
9
9
9
9
9
9
9
9
9
9
9
9
9
9
9
9
9
9
9
9
9
9
9
9
9
9
9
9
9
9
9
9
9
9
9
9
9
9
9
9
9
9
9
9
9
9
9
9
9
9
9
9
9
9
9
9
9
9
9
9
9
9
9
9
9
9
9
9
9
9
9
9
9
9
9
9
9
9
9
9
9
9
9
9
9
9
9
9
9
9
9
9
9
9
9
9
9
9
9
9
9
9
9
9
9
9
9
9
9
9
9
9
9
9
9
9
9
9
9
9
9
9
9
9
9
9
9
9
9
9
9
9
9
9
9
9
9
9
9
9
9
9
9
9
9
9
9
9
POINT_DATA       496
SCALARS p double 
LOOKUP_TABLE default
   73195161.2132051     
   73203301.0366483     
   73231751.3016048     
   73278329.2495794     
   73333809.1440444     
   73393895.0180655     
   73455695.5376350     
   73516999.9847537     
   73575552.1699872     
   73627261.2924049     
   73670487.4203502     
   73707591.8686129     
   73739617.4661417     
   73766172.4772994     
   73786286.3007955     
   73794598.5689826     
   71575279.5990955     
   71588105.5573913     
   71612359.3131053     
   71633795.1926227     
   71652782.3713068     
   71670152.8168184     
   71687511.9369248     
   71706080.2454131     
   71726476.2682998     
   71749834.3327620     
   71775220.7197700     
   71799529.4465764     
   71820861.3960571     
   71838018.4818292     
   71849160.3658160     
   71852931.8935675     
   69831729.4824407     
   69830084.8948735     
   69826462.2817146     
   69822792.7075084     
   69820914.5985340     
   69822245.6636929     
   69826761.1413305     
   69834409.1053804     
   69845047.7332219     
   69857703.4470574     
   69871330.9011429     
   69884987.8148800     
   69897344.2287213     
   69907019.6708657     
   69912998.2718793     
   69914971.1173905     
   67944382.3352353     
   67938931.2736423     
   67930526.2359236     
   67926963.5110685     
   67926760.8855267     
   67928572.2735636     
   67932038.9476457     
   67936704.4578106     
   67942129.6508343     
   67948118.2722079     
   67954486.9346754     
   67960850.1700128     
   67966598.8722718     
   67971034.4336573     
   67973672.3892576     
   67974507.1221720     
   66025575.5776404     
   66023455.8211945     
   66019227.7554313     
   66016118.5683234     
   66015140.4081457     
   66015738.8978079     
   66017141.6141624     
   66018836.7835838     
   66020524.8166674     
   66022124.4651500     
   66023675.1324352     
   66025162.9879473     
   66026444.3428483     
   66027325.9423675     
   66027726.7011841     
   66027809.8988860     
   64094166.5826600     
   64093224.3537955     
   64090866.9171505     
   64088308.1510596     
   64086452.0421250     
   64085291.7603095     
   64084419.1838583     
   64083433.2233091     
   64082131.4328805     
   64080513.0337690     
   64078709.1085159     
   64076882.3956398     
   64075164.5530912     
   64073671.4874446     
   64072572.3205469     
   64072148.6420622     
   62148985.5292280     
   62148241.8459335     
   62146283.3144549     
   62143666.2603256     
   62140855.7864746     
   62138008.2861451     
   62134996.8924561     
   62131641.8754728     
   62127864.7602618     
   62123739.3504589     
   62119462.0328259     
   62115293.6772190     
   62111513.7748194     
   62108409.6297937     
   62106294.1282860     
   62105525.3540404     
   60188596.9160879     
   60187835.2399084     
   60185710.0710715     
   60182563.3603030     
   60178698.4384104     
   60174285.4644686     
   60169368.4805408     
   60163948.3202529     
   60158079.8109952     
   60151919.1296340     
   60145721.4597106     
   60139810.5063645     
   60134546.1388710     
   60130305.5015480     
   60127478.4503209     
   60126468.0683466     
   58212466.9498153     
   58211582.2694671     
   58209061.9736838     
   58205182.8207606     
   58200204.8568922     
   58194332.1333464     
   58187714.1836530     
   58180485.8944202     
   58172817.0913017     
   58164945.7239516     
   58157183.2084708     
   58149899.4583128     
   58143500.7451319     
   58138410.7431176     
   58135058.2758623     
   58133870.2124223     
   56220275.8321057     
   56219228.1741426     
   56216220.7440489     
   56211533.2305024     
   56205439.9792626     
   56198194.7778609     
   56190033.1831208     
   56181192.2559451     
   56171936.8266103     
   56162578.7058350     
   56153481.7511714     
   56145053.7000446     
   56137730.8796006     
   56131962.0364816     
   56128195.0293267     
   56126867.6706116     
   54211795.5207235     
   54210569.6053886     
   54207042.7311573     
   54201527.2186673     
   54194339.2125003     
   54185792.6915982     
   54176200.9533125     
   54165886.3953738     
   54155193.6908831     
   54144499.8034927     
   54134216.4109316     
   54124784.2856266     
   54116662.2182983     
   54110314.0968559     
   54106197.1001061     
   54104752.8798608     
   52186817.3824832     
   52185407.9970968     
   52181351.7778117     
   52175007.6103658     
   52166747.2237906     
   52156950.5971878     
   52146005.1710783     
   52134309.3283098     
   52122277.8287073     
   52110345.7706715     
   52098968.4987771     
   52088616.7766770     
   52079768.3475675     
   52072897.9142864     
   52068467.5684740     
   52066919.2143776     
   50145121.9180344     
   50143525.8724283     
   50138934.3854159     
   50131761.0102493     
   50122440.9528642     
   50111423.9297308     
   50099170.0294330     
   50086148.5110461     
   50072838.1673555     
   50059727.2894741     
   50047311.6406800     
   50036089.8684440     
   50026556.8579611     
   50019196.1803568     
   50014472.8654732     
   50012827.4157584     
   48086461.8569266     
   48084674.3122171     
   48079536.8577874     
   48071524.9918639     
   48061143.5507422     
   48048915.2616620     
   48035372.7490828     
   48021053.4943208     
   48006496.6533279     
   47992240.3519177     
   47978818.3241466     
   47966755.4318528     
   47956562.3600291     
   47948730.2262891     
   47943725.7617896     
   47941987.2496021     
   46010552.2949234     
   46008565.3016931     
   46002863.0619088     
   45993991.7828111     
   45982532.4967493     
   45969084.7217675     
   45954254.5706166     
   45938646.5352415     
   45922857.8347714     
   45907474.0452535     
   45893064.9359223     
   45880180.0497247     
   45869344.3590201     
   45861054.8003832     
   45855778.1466653     
   45853949.6059580     
   43917064.2156832     
   43914866.4916305     
   43908572.2755185     
   43898809.7554607     
   43886244.1813693     
   43871556.6042821     
   43855428.3712895     
   43838530.4580973     
   43821516.3648693     
   43805017.0850119     
   43789636.7423738     
   43775948.1390209     
   43764488.6929569     
   43755758.3593500     
   43750220.7396078     
   43748306.0442224     
   41805619.7388393     
   41803197.1354074     
   41796276.9538592     
   41785583.5779940     
   41771876.4012104     
   41755923.8072913     
   41738484.5358838     
   41720295.4546029     
   41702064.1988532     
   41684464.7351400     
   41668133.8295199     
   41653666.6351696     
   41641611.4698846     
   41632467.2427166     
   41626688.0183099     
   41624694.0984467     
   39675788.1800261     
   39673124.5509165     
   39665540.3502065     
   39653873.5593308     
   39638989.7101328     
   39621751.2311138     
   39602996.2849352     
   39583526.0961682     
   39564098.8682892     
   39545427.6591438     
   39528179.2501650     
   39512971.2871879     
   39500364.2038301     
   39490851.9593322     
   39484867.1645648     
   39482807.6429642     
   37527082.4099505     
   37524160.7285706     
   37515873.9415689     
   37503194.5066817     
   37487108.2275435     
   37468578.8951370     
   37448525.2882127     
   37427809.4625705     
   37407233.8933658     
   37387544.0252295     
   37369431.8644949     
   37353536.3962654     
   37340438.0217627     
   37330631.9603233     
   37324509.4157874     
   37322411.9045929     
   35358955.2114149     
   35355758.8553304     
   35346734.6213723     
   35333014.3041167     
   35315720.3241287     
   35295925.3046744     
   35274628.0942766     
   35252744.8598077     
   35231111.9093918     
   35210495.7131918     
   35191604.9449510     
   35175096.5311704     
   35161571.8584728     
   35151565.7828094     
   35145435.2241443     
   35143366.1821664     
   33170795.4563436     
   33167309.6198305     
   33157521.6691228     
   33142752.4496526     
   33124279.6373502     
   33103291.6036837     
   33080863.7824114     
   33057955.1927750     
   33035420.0942771     
   33014028.6377812     
   32994490.3768014     
   32977474.9978061     
   32963605.7136418     
   32953445.5726789     
   32947477.9658331     
   32945596.3550390     
   30961923.9998398     
   30958137.2436546     
   30947573.6329899     
   30931779.0235128     
   30912207.2250870     
   30890167.4448307     
   30866803.4986822     
   30843099.9205909     
   30819906.6297792     
   30797973.7760952     
   30777989.2121887     
   30760613.8515697     
   30746516.1392270     
   30736279.4245291     
   30730513.1068068     
   30728837.4732156     
   28731589.2353473     
   28727495.2738948     
   28716165.5239746     
   28699415.1239363     
   28678896.5313097     
   28656040.5173177     
   28632043.4512873     
   28607890.0242496     
   28584396.7990333     
   28562264.4834867     
   28542132.6742684     
   28524627.8938435     
   28510417.4333847     
   28500281.7489567     
   28494589.5852787     
   28492837.1414953     
   26478962.2765200     
   26474562.3028912     
   26462507.2388123     
   26444936.9449327     
   26423724.5215001     
   26400413.5651687     
   26376224.6722093     
   26352106.9102798     
   26328808.1501009     
   26306947.6481464     
   26287085.3449990     
   26269797.2775810     
   26255715.5866416     
   26245750.0203970     
   26239975.3550952     
   26238009.3204751     
   24203131.7431168     
   24198438.0100967     
   24185745.2053684     
   24167587.9553614     
   24146075.4229136     
   24122835.7640881     
   24099065.3290566     
   24075629.0653677     
   24053166.9664841     
   24032186.2540607     
   24013141.2134930     
   23996512.9046391     
   23982943.6000691     
   23973200.7239928     
   23967319.2589094     
   23965259.3635263     
   21903097.9739512     
   21898140.4973396     
   21884971.7636588     
   21866608.5082371     
   21845389.1614292     
   21822959.5863685     
   21800413.6351648     
   21778471.7716760     
   21757629.2123745     
   21738260.4049449     
   21720695.2317578     
   21705294.7808355     
   21692586.6914667     
   21683160.2024970     
   21677292.3727983     
   21675255.4762262     
   19577766.9999173     
   19572607.3166956     
   19559253.5597752     
   19541303.7994194     
   19521256.6710446     
   19500638.8393579     
   19480328.8351540     
   19460843.1373645     
   19442510.2743505     
   19425568.4168834     
   19410225.0767578     
   19396702.4750544     
   19385296.2561935     
   19376472.7244697     
   19370786.6005428     
   19368797.0196465     
   17225940.3119708     
   17220709.9077491     
   17207712.2709448     
   17191198.4840359     
   17173601.1077641     
   17156080.9964217     
   17139188.5962496     
   17123212.4564452     
   17108322.1355565     
   17094638.4107426     
   17082268.6919639     
   17071313.2746486     
   17061811.9638154     
   17054024.0169610     
   17048768.4002334     
   17046914.4160947     
   14846327.6089220     
   14841316.6171279     
   14829764.1612230     
   14816402.2397112     
   14802978.9173130     
   14790036.3353949     
   14777801.2886455     
   14766374.0084070     
   14755808.9065099     
   14746147.4222827     
   14737430.1697031     
   14729690.7234136     
   14722864.6115292     
   14716766.5356631     
   14712331.6222264     
   14710790.1353090     
   12437489.8392729     
   12433670.5169428     
   12425993.2907843     
   12418296.4208786     
   12410906.2113443     
   12403955.3882161     
   12397476.5282250     
   12391477.9880073     
   12385962.5859864     
   12380935.8714853     
   12376407.5610935     
   12372380.1030212     
   12368859.1261122     
   12365557.2196433     
   12362681.2422829     
   12361472.0373159     
   10000000.0000000     
   10000000.0000000     
   10000000.0000000     
   10000000.0000000     
   10000000.0000000     
   10000000.0000000     
   10000000.0000000     
   10000000.0000000     
   10000000.0000000     
   10000000.0000000     
   10000000.0000000     
   10000000.0000000     
   10000000.0000000     
  10000000.00000000     
   10000000.0000000     
   10000000.0000000     
VECTORS u double 
    0.00000E+00         0.69553E+00         0.00000E+00
    0.00000E+00         0.74281E+00         0.00000E+00
    0.00000E+00         0.77666E+00         0.00000E+00
    0.00000E+00         0.78210E+00         0.00000E+00
    0.00000E+00         0.75785E+00         0.00000E+00
    0.00000E+00         0.70846E+00         0.00000E+00
    0.00000E+00         0.64083E+00         0.00000E+00
    0.00000E+00         0.56328E+00         0.00000E+00
    0.00000E+00         0.48431E+00         0.00000E+00
    0.00000E+00         0.41240E+00         0.00000E+00
    0.00000E+00         0.34532E+00         0.00000E+00
    0.00000E+00         0.28070E+00         0.00000E+00
    0.00000E+00         0.21627E+00         0.00000E+00
    0.00000E+00         0.14986E+00         0.00000E+00
    0.00000E+00         0.79076E-01         0.00000E+00
    0.00000E+00         0.00000E+00         0.00000E+00
    0.55601E+00         0.73321E+00         0.00000E+00
    0.56751E+00         0.76004E+00         0.00000E+00
    0.52440E+00         0.76493E+00         0.00000E+00
    0.45654E+00         0.74727E+00         0.00000E+00
    0.38005E+00         0.71065E+00         0.00000E+00
    0.30326E+00         0.65983E+00         0.00000E+00
    0.23226E+00         0.59883E+00         0.00000E+00
    0.17311E+00         0.53175E+00         0.00000E+00
    0.12685E+00         0.46379E+00         0.00000E+00
    0.98341E-01         0.39875E+00         0.00000E+00
    0.81804E-01         0.33585E+00         0.00000E+00
    0.67876E-01         0.27384E+00         0.00000E+00
    0.54297E-01         0.21130E+00         0.00000E+00
    0.39825E-01         0.14641E+00         0.00000E+00
    0.23052E-01         0.76965E-01         0.00000E+00
    0.00000E+00         0.00000E+00         0.00000E+00
    0.96796E+00         0.75561E+00         0.00000E+00
    0.89499E+00         0.73132E+00         0.00000E+00
    0.78919E+00         0.69773E+00         0.00000E+00
    0.67133E+00         0.65944E+00         0.00000E+00
    0.55752E+00         0.61684E+00         0.00000E+00
    0.45343E+00         0.57005E+00         0.00000E+00
    0.36233E+00         0.52005E+00         0.00000E+00
    0.28667E+00         0.46840E+00         0.00000E+00
    0.22970E+00         0.41636E+00         0.00000E+00
    0.18795E+00         0.36364E+00         0.00000E+00
    0.15585E+00         0.30981E+00         0.00000E+00
    0.12806E+00         0.25446E+00         0.00000E+00
    0.10100E+00         0.19712E+00         0.00000E+00
    0.72430E-01         0.13666E+00         0.00000E+00
    0.39935E-01         0.71473E-01         0.00000E+00
    0.00000E+00         0.00000E+00         0.00000E+00
    0.11569E+01         0.66392E+00         0.00000E+00
    0.10284E+01         0.62517E+00         0.00000E+00
    0.90210E+00         0.58538E+00         0.00000E+00
    0.78188E+00         0.54783E+00         0.00000E+00
    0.66724E+00         0.51121E+00         0.00000E+00
    0.56167E+00         0.47415E+00         0.00000E+00
    0.46790E+00         0.43627E+00         0.00000E+00
    0.38785E+00         0.39761E+00         0.00000E+00
    0.32198E+00         0.35778E+00         0.00000E+00
    0.26826E+00         0.31611E+00         0.00000E+00
    0.22287E+00         0.27207E+00         0.00000E+00
    0.18182E+00         0.22533E+00         0.00000E+00
    0.14174E+00         0.17551E+00         0.00000E+00
    0.99867E-01         0.12194E+00         0.00000E+00
    0.53583E-01         0.63725E-01         0.00000E+00
    0.00000E+00         0.00000E+00         0.00000E+00
    0.12764E+01         0.52481E+00         0.00000E+00
    0.11366E+01         0.49492E+00         0.00000E+00
    0.10062E+01         0.46466E+00         0.00000E+00
    0.88291E+00         0.43512E+00         0.00000E+00
    0.76691E+00         0.40642E+00         0.00000E+00
    0.65963E+00         0.37838E+00         0.00000E+00
    0.56288E+00         0.35049E+00         0.00000E+00
    0.47769E+00         0.32214E+00         0.00000E+00
    0.40391E+00         0.29257E+00         0.00000E+00
    0.33989E+00         0.26099E+00         0.00000E+00
    0.28291E+00         0.22674E+00         0.00000E+00
    0.22983E+00         0.18936E+00         0.00000E+00
    0.17764E+00         0.14847E+00         0.00000E+00
    0.12362E+00         0.10362E+00         0.00000E+00
    0.65214E-01         0.54279E-01         0.00000E+00
    0.00000E+00         0.00000E+00         0.00000E+00
    0.13798E+01         0.37904E+00         0.00000E+00
    0.12364E+01         0.35861E+00         0.00000E+00
    0.11017E+01         0.33838E+00         0.00000E+00
    0.97526E+00         0.31838E+00         0.00000E+00
    0.85696E+00         0.29895E+00         0.00000E+00
    0.74735E+00         0.28013E+00         0.00000E+00
    0.64722E+00         0.26159E+00         0.00000E+00
    0.55696E+00         0.24270E+00         0.00000E+00
    0.47609E+00         0.22271E+00         0.00000E+00
    0.40322E+00         0.20081E+00         0.00000E+00
    0.33620E+00         0.17633E+00         0.00000E+00
    0.27246E+00         0.14875E+00         0.00000E+00
    0.20939E+00         0.11768E+00         0.00000E+00
    0.14448E+00         0.82739E-01         0.00000E+00
    0.75395E-01         0.43600E-01         0.00000E+00
    0.00000E+00         0.00000E+00         0.00000E+00
    0.14741E+01         0.22906E+00         0.00000E+00
    0.13267E+01         0.21837E+00         0.00000E+00
    0.11884E+01         0.20782E+00         0.00000E+00
    0.10588E+01         0.19759E+00         0.00000E+00
    0.93769E+00         0.18779E+00         0.00000E+00
    0.82523E+00         0.17841E+00         0.00000E+00
    0.72151E+00         0.16921E+00         0.00000E+00
    0.62640E+00         0.15967E+00         0.00000E+00
    0.53924E+00         0.14914E+00         0.00000E+00
    0.45873E+00         0.13691E+00         0.00000E+00
    0.38304E+00         0.12236E+00         0.00000E+00
    0.31003E+00         0.10495E+00         0.00000E+00
    0.23739E+00         0.84303E-01         0.00000E+00
    0.16289E+00         0.60082E-01         0.00000E+00
    0.84394E-01         0.32041E-01         0.00000E+00
    0.00000E+00         0.00000E+00         0.00000E+00
    0.15588E+01         0.75011E-01         0.00000E+00
    0.14076E+01         0.74115E-01         0.00000E+00
    0.12659E+01         0.73382E-01         0.00000E+00
    0.11332E+01         0.72941E-01         0.00000E+00
    0.10092E+01         0.72860E-01         0.00000E+00
    0.89364E+00         0.73087E-01         0.00000E+00
    0.78632E+00         0.73395E-01         0.00000E+00
    0.68672E+00         0.73371E-01         0.00000E+00
    0.59400E+00         0.72472E-01         0.00000E+00
    0.50691E+00         0.70112E-01         0.00000E+00
    0.42381E+00         0.65732E-01         0.00000E+00
    0.34281E+00         0.58856E-01         0.00000E+00
    0.26190E+00         0.49101E-01         0.00000E+00
    0.17905E+00         0.36173E-01         0.00000E+00
    0.92332E-01         0.19856E-01         0.00000E+00
    0.00000E+00         0.00000E+00         0.00000E+00
    0.16336E+01        -0.82921E-01         0.00000E+00
    0.14789E+01        -0.73935E-01         0.00000E+00
    0.13339E+01        -0.64788E-01         0.00000E+00
    0.11983E+01        -0.55366E-01         0.00000E+00
    0.10714E+01        -0.45629E-01         0.00000E+00
    0.95289E+00        -0.35644E-01         0.00000E+00
    0.84216E+00        -0.25614E-01         0.00000E+00
    0.73850E+00        -0.15875E-01         0.00000E+00
    0.64094E+00        -0.68662E-02         0.00000E+00
    0.54824E+00         0.92824E-03         0.00000E+00
    0.45886E+00         0.70333E-02         0.00000E+00
    0.37109E+00         0.11026E-01         0.00000E+00
    0.28311E+00         0.12557E-01         0.00000E+00
    0.19310E+00         0.11354E-01         0.00000E+00
    0.99270E-01         0.72159E-02         0.00000E+00
    0.00000E+00         0.00000E+00         0.00000E+00
    0.16984E+01        -0.24450E+00         0.00000E+00
    0.15403E+01        -0.22556E+00         0.00000E+00
    0.13924E+01        -0.20645E+00         0.00000E+00
    0.12540E+01        -0.18708E+00         0.00000E+00
    0.11245E+01        -0.16740E+00         0.00000E+00
    0.10032E+01        -0.14749E+00         0.00000E+00
    0.88941E+00        -0.12751E+00         0.00000E+00
    0.78221E+00        -0.10774E+00         0.00000E+00
    0.68054E+00        -0.88520E-01         0.00000E+00
    0.58313E+00        -0.70260E-01         0.00000E+00
    0.48852E+00        -0.53354E-01         0.00000E+00
    0.39510E+00        -0.38168E-01         0.00000E+00
    0.30120E+00        -0.25017E-01         0.00000E+00
    0.20513E+00        -0.14152E-01         0.00000E+00
    0.10524E+00        -0.57659E-02         0.00000E+00
    0.00000E+00         0.00000E+00         0.00000E+00
    0.17527E+01        -0.40946E+00         0.00000E+00
    0.15917E+01        -0.38047E+00         0.00000E+00
    0.14411E+01        -0.35131E+00         0.00000E+00
    0.13002E+01        -0.32189E+00         0.00000E+00
    0.11684E+01        -0.29214E+00         0.00000E+00
    0.10447E+01        -0.26213E+00         0.00000E+00
    0.92835E+00        -0.23197E+00         0.00000E+00
    0.81821E+00        -0.20189E+00         0.00000E+00
    0.71317E+00        -0.17218E+00         0.00000E+00
    0.61194E+00        -0.14315E+00         0.00000E+00
    0.51308E+00        -0.11514E+00         0.00000E+00
    0.41507E+00        -0.88469E-01         0.00000E+00
    0.31631E+00        -0.63409E-01         0.00000E+00
    0.21523E+00        -0.40195E-01         0.00000E+00
    0.11029E+00        -0.19011E-01         0.00000E+00
    0.00000E+00         0.00000E+00         0.00000E+00
    0.17965E+01        -0.57747E+00         0.00000E+00
    0.16328E+01        -0.53835E+00         0.00000E+00
    0.14799E+01        -0.49906E+00         0.00000E+00
    0.13370E+01        -0.45946E+00         0.00000E+00
    0.12032E+01        -0.41950E+00         0.00000E+00
    0.10776E+01        -0.37920E+00         0.00000E+00
    0.95921E+00        -0.33865E+00         0.00000E+00
    0.84678E+00        -0.29802E+00         0.00000E+00
    0.73914E+00        -0.25754E+00         0.00000E+00
    0.63495E+00        -0.21748E+00         0.00000E+00
    0.53279E+00        -0.17810E+00         0.00000E+00
    0.43116E+00        -0.13968E+00         0.00000E+00
    0.32856E+00        -0.10246E+00         0.00000E+00
    0.22348E+00        -0.66664E-01         0.00000E+00
    0.11442E+00        -0.32463E-01         0.00000E+00
    0.00000E+00         0.00000E+00         0.00000E+00
    0.18293E+01        -0.74818E+00         0.00000E+00
    0.16633E+01        -0.69885E+00         0.00000E+00
    0.15085E+01        -0.64932E+00         0.00000E+00
    0.13641E+01        -0.59944E+00         0.00000E+00
    0.12289E+01        -0.54912E+00         0.00000E+00
    0.11020E+01        -0.49837E+00         0.00000E+00
    0.98214E+00        -0.44722E+00         0.00000E+00
    0.86813E+00        -0.39582E+00         0.00000E+00
    0.75867E+00        -0.34434E+00         0.00000E+00
    0.65238E+00        -0.29299E+00         0.00000E+00
    0.54783E+00        -0.24200E+00         0.00000E+00
    0.44356E+00        -0.19161E+00         0.00000E+00
    0.33808E+00        -0.14204E+00         0.00000E+00
    0.22993E+00        -0.93467E-01         0.00000E+00
    0.11769E+00        -0.46075E-01         0.00000E+00
    0.00000E+00         0.00000E+00         0.00000E+00
    0.18510E+01        -0.92120E+00         0.00000E+00
    0.16831E+01        -0.86156E+00         0.00000E+00
    0.15270E+01        -0.80170E+00         0.00000E+00
    0.13815E+01        -0.74142E+00         0.00000E+00
    0.12455E+01        -0.68062E+00         0.00000E+00
    0.11178E+01        -0.61925E+00         0.00000E+00
    0.99724E+00        -0.55733E+00         0.00000E+00
    0.88240E+00        -0.49497E+00         0.00000E+00
    0.77193E+00        -0.43228E+00         0.00000E+00
    0.66441E+00        -0.36945E+00         0.00000E+00
    0.55838E+00        -0.30666E+00         0.00000E+00
    0.45237E+00        -0.24412E+00         0.00000E+00
    0.34494E+00        -0.18201E+00         0.00000E+00
    0.23464E+00        -0.12052E+00         0.00000E+00
    0.12010E+00        -0.59806E-01         0.00000E+00
    0.00000E+00         0.00000E+00         0.00000E+00
    0.18612E+01        -0.10961E+01         0.00000E+00
    0.16919E+01        -0.10261E+01         0.00000E+00
    0.15349E+01        -0.95578E+00         0.00000E+00
    0.13890E+01        -0.88500E+00         0.00000E+00
    0.12528E+01        -0.81358E+00         0.00000E+00
    0.11251E+01        -0.74145E+00         0.00000E+00
    0.10046E+01        -0.66861E+00         0.00000E+00
    0.88969E+00        -0.59512E+00         0.00000E+00
    0.77905E+00        -0.52106E+00         0.00000E+00
    0.67116E+00        -0.44659E+00         0.00000E+00
    0.56454E+00        -0.37185E+00         0.00000E+00
    0.45772E+00        -0.29702E+00         0.00000E+00
    0.34924E+00        -0.22226E+00         0.00000E+00
    0.23768E+00        -0.14775E+00         0.00000E+00
    0.12170E+00        -0.73614E-01         0.00000E+00
    0.00000E+00         0.00000E+00         0.00000E+00
    0.18595E+01        -0.12724E+01         0.00000E+00
    0.16894E+01        -0.11919E+01         0.00000E+00
    0.15322E+01        -0.11111E+01         0.00000E+00
    0.13864E+01        -0.10297E+01         0.00000E+00
    0.12508E+01        -0.94755E+00         0.00000E+00
    0.11239E+01        -0.86455E+00         0.00000E+00
    0.10041E+01        -0.78066E+00         0.00000E+00
    0.89006E+00        -0.69590E+00         0.00000E+00
    0.78010E+00        -0.61036E+00         0.00000E+00
    0.67273E+00        -0.52413E+00         0.00000E+00
    0.56642E+00        -0.43733E+00         0.00000E+00
    0.45967E+00        -0.35013E+00         0.00000E+00
    0.35103E+00        -0.26265E+00         0.00000E+00
    0.23908E+00        -0.17505E+00         0.00000E+00
    0.12250E+00        -0.87457E-01         0.00000E+00
    0.00000E+00         0.00000E+00         0.00000E+00
    0.18455E+01        -0.14497E+01         0.00000E+00
    0.16752E+01        -0.13586E+01         0.00000E+00
    0.15184E+01        -0.12671E+01         0.00000E+00
    0.13736E+01        -0.11750E+01         0.00000E+00
    0.12394E+01        -0.10820E+01         0.00000E+00
    0.11140E+01        -0.98806E+00         0.00000E+00
    0.99594E+00        -0.89302E+00         0.00000E+00
    0.88352E+00        -0.79692E+00         0.00000E+00
    0.77514E+00        -0.69981E+00         0.00000E+00
    0.66918E+00        -0.60175E+00         0.00000E+00
    0.56408E+00        -0.50286E+00         0.00000E+00
    0.45830E+00        -0.40324E+00         0.00000E+00
    0.35037E+00        -0.30303E+00         0.00000E+00
    0.23888E+00        -0.20233E+00         0.00000E+00
    0.12251E+00        -0.10129E+00         0.00000E+00
    0.00000E+00         0.00000E+00         0.00000E+00
    0.18188E+01        -0.16272E+01         0.00000E+00
    0.16490E+01        -0.15255E+01         0.00000E+00
    0.14934E+01        -0.14233E+01         0.00000E+00
    0.13504E+01        -0.13204E+01         0.00000E+00
    0.12183E+01        -0.12165E+01         0.00000E+00
    0.10954E+01        -0.11115E+01         0.00000E+00
    0.97992E+00        -0.10052E+01         0.00000E+00
    0.87007E+00        -0.89770E+00         0.00000E+00
    0.76417E+00        -0.78899E+00         0.00000E+00
    0.66053E+00        -0.67912E+00         0.00000E+00
    0.55754E+00        -0.56814E+00         0.00000E+00
    0.45362E+00        -0.45615E+00         0.00000E+00
    0.34727E+00        -0.34323E+00         0.00000E+00
    0.23708E+00        -0.22950E+00         0.00000E+00
    0.12174E+00        -0.11505E+00         0.00000E+00
    0.00000E+00         0.00000E+00         0.00000E+00
    0.17789E+01        -0.18044E+01         0.00000E+00
    0.16103E+01        -0.16919E+01         0.00000E+00
    0.14567E+01        -0.15790E+01         0.00000E+00
    0.13164E+01        -0.14652E+01         0.00000E+00
    0.11875E+01        -0.13503E+01         0.00000E+00
    0.10680E+01        -0.12341E+01         0.00000E+00
    0.95599E+00        -0.11166E+01         0.00000E+00
    0.84965E+00        -0.99771E+00         0.00000E+00
    0.74716E+00        -0.87745E+00         0.00000E+00
    0.64678E+00        -0.75581E+00         0.00000E+00
    0.54682E+00        -0.63285E+00         0.00000E+00
    0.44566E+00        -0.50859E+00         0.00000E+00
    0.34176E+00        -0.38309E+00         0.00000E+00
    0.23370E+00        -0.25644E+00         0.00000E+00
    0.12018E+00        -0.12871E+00         0.00000E+00
    0.00000E+00         0.00000E+00         0.00000E+00
    0.17251E+01        -0.19805E+01         0.00000E+00
    0.15586E+01        -0.18572E+01         0.00000E+00
    0.14081E+01        -0.17333E+01         0.00000E+00
    0.12715E+01        -0.16085E+01         0.00000E+00
    0.11467E+01        -0.14826E+01         0.00000E+00
    0.10316E+01        -0.13553E+01         0.00000E+00
    0.92408E+00        -0.12265E+01         0.00000E+00
    0.82220E+00        -0.10963E+01         0.00000E+00
    0.72408E+00        -0.96460E+00         0.00000E+00
    0.62788E+00        -0.83137E+00         0.00000E+00
    0.53187E+00        -0.69660E+00         0.00000E+00
    0.43438E+00        -0.56029E+00         0.00000E+00
    0.33382E+00        -0.42244E+00         0.00000E+00
    0.22871E+00        -0.28307E+00         0.00000E+00
    0.11780E+00        -0.14224E+00         0.00000E+00
    0.00000E+00         0.00000E+00         0.00000E+00
    0.16569E+01        -0.21546E+01         0.00000E+00
    0.14935E+01        -0.20203E+01         0.00000E+00
    0.13471E+01        -0.18854E+01         0.00000E+00
    0.12153E+01        -0.17496E+01         0.00000E+00
    0.10957E+01        -0.16126E+01         0.00000E+00
    0.98606E+00        -0.14741E+01         0.00000E+00
    0.88405E+00        -0.13342E+01         0.00000E+00
    0.78762E+00        -0.11928E+01         0.00000E+00
    0.69481E+00        -0.10498E+01         0.00000E+00
    0.60373E+00        -0.90522E+00         0.00000E+00
    0.51261E+00        -0.75897E+00         0.00000E+00
    0.41971E+00        -0.61096E+00         0.00000E+00
    0.32339E+00        -0.46114E+00         0.00000E+00
    0.22210E+00        -0.30943E+00         0.00000E+00
    0.11447E+00        -0.15577E+00         0.00000E+00
    0.00000E+00         0.00000E+00         0.00000E+00
    0.15734E+01        -0.23256E+01         0.00000E+00
    0.14143E+01        -0.21802E+01         0.00000E+00
    0.12733E+01        -0.20343E+01         0.00000E+00
    0.11476E+01        -0.18873E+01         0.00000E+00
    0.10344E+01        -0.17392E+01         0.00000E+00
    0.93126E+00        -0.15896E+01         0.00000E+00
    0.83578E+00        -0.14387E+01         0.00000E+00
    0.74577E+00        -0.12862E+01         0.00000E+00
    0.65921E+00        -0.11323E+01         0.00000E+00
    0.57419E+00        -0.97671E+00         0.00000E+00
    0.48888E+00        -0.81941E+00         0.00000E+00
    0.40152E+00        -0.66021E+00         0.00000E+00
    0.31034E+00        -0.49896E+00         0.00000E+00
    0.21374E+00        -0.33554E+00         0.00000E+00
    0.11018E+00        -0.16992E+00         0.00000E+00
    0.00000E+00         0.00000E+00         0.00000E+00
    0.14739E+01        -0.24922E+01         0.00000E+00
    0.13206E+01        -0.23357E+01         0.00000E+00
    0.11863E+01        -0.21786E+01         0.00000E+00
    0.10680E+01        -0.20205E+01         0.00000E+00
    0.96249E+00        -0.18612E+01         0.00000E+00
    0.86704E+00        -0.17006E+01         0.00000E+00
    0.77913E+00        -0.15388E+01         0.00000E+00
    0.69650E+00        -0.13756E+01         0.00000E+00
    0.61710E+00        -0.12111E+01         0.00000E+00
    0.53902E+00        -0.10450E+01         0.00000E+00
    0.46044E+00        -0.87727E+00         0.00000E+00
    0.37956E+00        -0.70755E+00         0.00000E+00
    0.29453E+00        -0.53562E+00         0.00000E+00
    0.20340E+00        -0.36124E+00         0.00000E+00
    0.10513E+00        -0.18411E+00         0.00000E+00
    0.00000E+00         0.00000E+00         0.00000E+00
    0.13577E+01        -0.26530E+01         0.00000E+00
    0.12117E+01        -0.24852E+01         0.00000E+00
    0.10859E+01        -0.23168E+01         0.00000E+00
    0.97640E+00        -0.21475E+01         0.00000E+00
    0.87989E+00        -0.19771E+01         0.00000E+00
    0.79328E+00        -0.18057E+01         0.00000E+00
    0.71396E+00        -0.16333E+01         0.00000E+00
    0.63962E+00        -0.14598E+01         0.00000E+00
    0.56823E+00        -0.12852E+01         0.00000E+00
    0.49794E+00        -0.11093E+01         0.00000E+00
    0.42697E+00        -0.93174E+00         0.00000E+00
    0.35351E+00        -0.75231E+00         0.00000E+00
    0.27567E+00        -0.57060E+00         0.00000E+00
    0.19119E+00        -0.38631E+00         0.00000E+00
    0.99416E-01        -0.19713E+00         0.00000E+00
    0.00000E+00         0.00000E+00         0.00000E+00
    0.12237E+01        -0.28062E+01         0.00000E+00
    0.10872E+01        -0.26270E+01         0.00000E+00
    0.97157E+00        -0.24473E+01         0.00000E+00
    0.87264E+00        -0.22667E+01         0.00000E+00
    0.78650E+00        -0.20854E+01         0.00000E+00
    0.70989E+00        -0.19033E+01         0.00000E+00
    0.64011E+00        -0.17207E+01         0.00000E+00
    0.57489E+00        -0.15374E+01         0.00000E+00
    0.51230E+00        -0.13533E+01         0.00000E+00
    0.45057E+00        -0.11683E+01         0.00000E+00
    0.38803E+00        -0.98188E+00         0.00000E+00
    0.32294E+00        -0.79365E+00         0.00000E+00
    0.25337E+00        -0.60308E+00         0.00000E+00
    0.17721E+00        -0.40966E+00         0.00000E+00
    0.93157E-01        -0.20900E+00         0.00000E+00
    0.00000E+00         0.00000E+00         0.00000E+00
    0.10713E+01        -0.29495E+01         0.00000E+00
    0.94640E+00        -0.27589E+01         0.00000E+00
    0.84324E+00        -0.25677E+01         0.00000E+00
    0.75665E+00        -0.23760E+01         0.00000E+00
    0.68231E+00        -0.21838E+01         0.00000E+00
    0.61679E+00        -0.19916E+01         0.00000E+00
    0.55742E+00        -0.17993E+01         0.00000E+00
    0.50206E+00        -0.16069E+01         0.00000E+00
    0.44892E+00        -0.14142E+01         0.00000E+00
    0.39643E+00        -0.12210E+01         0.00000E+00
    0.34307E+00        -0.10266E+01         0.00000E+00
    0.28728E+00        -0.83064E+00         0.00000E+00
    0.22722E+00        -0.63230E+00         0.00000E+00
    0.16086E+00        -0.43039E+00         0.00000E+00
    0.85930E-01        -0.21977E+00         0.00000E+00
    0.00000E+00         0.00000E+00         0.00000E+00
    0.89933E+00        -0.30804E+01         0.00000E+00
    0.78906E+00        -0.28781E+01         0.00000E+00
    0.70085E+00        -0.26755E+01         0.00000E+00
    0.62853E+00        -0.24727E+01         0.00000E+00
    0.56736E+00        -0.22703E+01         0.00000E+00
    0.51391E+00        -0.20684E+01         0.00000E+00
    0.46567E+00        -0.18673E+01         0.00000E+00
    0.42076E+00        -0.16667E+01         0.00000E+00
    0.37764E+00        -0.14665E+01         0.00000E+00
    0.33496E+00        -0.12661E+01         0.00000E+00
    0.29143E+00        -0.10649E+01         0.00000E+00
    0.24575E+00        -0.86227E+00         0.00000E+00
    0.19641E+00        -0.65727E+00         0.00000E+00
    0.14142E+00        -0.44820E+00         0.00000E+00
    0.77103E-01        -0.22930E+00         0.00000E+00
    0.00000E+00         0.00000E+00         0.00000E+00
    0.70695E+00        -0.31955E+01         0.00000E+00
    0.61497E+00        -0.29815E+01         0.00000E+00
    0.54463E+00        -0.27675E+01         0.00000E+00
    0.48854E+00        -0.25541E+01         0.00000E+00
    0.44175E+00        -0.23420E+01         0.00000E+00
    0.40113E+00        -0.21316E+01         0.00000E+00
    0.36457E+00        -0.19228E+01         0.00000E+00
    0.33056E+00        -0.17154E+01         0.00000E+00
    0.29787E+00        -0.15088E+01         0.00000E+00
    0.26545E+00        -0.13025E+01         0.00000E+00
    0.23231E+00        -0.10957E+01         0.00000E+00
    0.19742E+00        -0.88766E+00         0.00000E+00
    0.15973E+00        -0.67723E+00         0.00000E+00
    0.11757E+00        -0.46269E+00         0.00000E+00
    0.65906E-01        -0.23751E+00         0.00000E+00
    0.00000E+00         0.00000E+00         0.00000E+00
    0.49315E+00        -0.32904E+01         0.00000E+00
    0.42439E+00        -0.30646E+01         0.00000E+00
    0.37522E+00        -0.28394E+01         0.00000E+00
    0.33705E+00        -0.26164E+01         0.00000E+00
    0.30550E+00        -0.23961E+01         0.00000E+00
    0.27822E+00        -0.21788E+01         0.00000E+00
    0.25369E+00        -0.19640E+01         0.00000E+00
    0.23087E+00        -0.17513E+01         0.00000E+00
    0.20892E+00        -0.15400E+01         0.00000E+00
    0.18711E+00        -0.13293E+01         0.00000E+00
    0.16476E+00        -0.11183E+01         0.00000E+00
    0.14119E+00        -0.90613E+00         0.00000E+00
    0.11574E+00        -0.69162E+00         0.00000E+00
    0.87523E-01        -0.47328E+00         0.00000E+00
    0.51178E-01        -0.24421E+00         0.00000E+00
    0.00000E+00         0.00000E+00         0.00000E+00
    0.25706E+00        -0.33583E+01         0.00000E+00
    0.21861E+00        -0.31208E+01         0.00000E+00
    0.19354E+00        -0.28861E+01         0.00000E+00
    0.17428E+00        -0.26558E+01         0.00000E+00
    0.15842E+00        -0.24300E+01         0.00000E+00
    0.14473E+00        -0.22081E+01         0.00000E+00
    0.13243E+00        -0.19895E+01         0.00000E+00
    0.12097E+00        -0.17734E+01         0.00000E+00
    0.10994E+00        -0.15590E+01         0.00000E+00
    0.98971E-01        -0.13456E+01         0.00000E+00
    0.87715E-01        -0.11320E+01         0.00000E+00
    0.75832E-01        -0.91730E+00         0.00000E+00
    0.62968E-01        -0.70013E+00         0.00000E+00
    0.49102E-01        -0.47916E+00         0.00000E+00
    0.30793E-01        -0.24922E+00         0.00000E+00
    0.00000E+00         0.00000E+00         0.00000E+00
    0.00000E+00        -0.33866E+01         0.00000E+00
    0.00000E+00        -0.31413E+01         0.00000E+00
    0.00000E+00        -0.29024E+01         0.00000E+00
    0.00000E+00        -0.26694E+01         0.00000E+00
    0.00000E+00        -0.24415E+01         0.00000E+00
    0.00000E+00        -0.22180E+01         0.00000E+00
    0.00000E+00        -0.19980E+01         0.00000E+00
    0.00000E+00        -0.17808E+01         0.00000E+00
    0.00000E+00        -0.15655E+01         0.00000E+00
    0.00000E+00        -0.13511E+01         0.00000E+00
    0.00000E+00        -0.11366E+01         0.00000E+00
    0.00000E+00        -0.92103E+00         0.00000E+00
    0.00000E+00        -0.70292E+00         0.00000E+00
    0.00000E+00        -0.48081E+00         0.00000E+00
    0.00000E+00        -0.25134E+00         0.00000E+00
    0.00000E+00         0.00000E+00         0.00000E+00
CELL_DATA        450
VECTORS vDarcy double 
    0.11661E-05         0.75571E-08         0.00000E+00
    0.11668E-05         0.19012E-07         0.00000E+00
    0.11627E-05         0.24228E-07         0.00000E+00
    0.11610E-05         0.25997E-07         0.00000E+00
    0.11600E-05         0.26390E-07         0.00000E+00
    0.11594E-05         0.26283E-07         0.00000E+00
    0.11590E-05         0.25865E-07         0.00000E+00
    0.11584E-05         0.24987E-07         0.00000E+00
    0.11572E-05         0.23312E-07         0.00000E+00
    0.11579E-05         0.21058E-07         0.00000E+00
    0.11584E-05         0.18704E-07         0.00000E+00
    0.11583E-05         0.16151E-07         0.00000E+00
    0.11581E-05         0.13159E-07         0.00000E+00
    0.11577E-05         0.93615E-08         0.00000E+00
    0.11554E-05         0.35993E-08         0.00000E+00
    0.11811E-05         0.37715E-08         0.00000E+00
    0.11656E-05         0.67858E-08         0.00000E+00
    0.11610E-05         0.57348E-08         0.00000E+00
    0.11593E-05         0.54448E-08         0.00000E+00
    0.11590E-05         0.58905E-08         0.00000E+00
    0.11593E-05         0.68376E-08         0.00000E+00
    0.11591E-05         0.81416E-08         0.00000E+00
    0.11587E-05         0.95818E-08         0.00000E+00
    0.11582E-05         0.11053E-07         0.00000E+00
    0.11572E-05         0.11893E-07         0.00000E+00
    0.11564E-05         0.11498E-07         0.00000E+00
    0.11558E-05         0.10145E-07         0.00000E+00
    0.11549E-05         0.80395E-08         0.00000E+00
    0.11532E-05         0.51055E-08         0.00000E+00
    0.11503E-05         0.17056E-08         0.00000E+00
    0.11795E-05        -0.22151E-08         0.00000E+00
    0.11648E-05        -0.36995E-08         0.00000E+00
    0.11609E-05        -0.22142E-08         0.00000E+00
    0.11604E-05        -0.63707E-09         0.00000E+00
    0.11603E-05         0.96264E-09         0.00000E+00
    0.11605E-05         0.24452E-08         0.00000E+00
    0.11605E-05         0.37680E-08         0.00000E+00
    0.11599E-05         0.49025E-08         0.00000E+00
    0.11587E-05         0.56664E-08         0.00000E+00
    0.11572E-05         0.60471E-08         0.00000E+00
    0.11556E-05         0.60235E-08         0.00000E+00
    0.11542E-05         0.54209E-08         0.00000E+00
    0.11526E-05         0.42062E-08         0.00000E+00
    0.11504E-05         0.25580E-08         0.00000E+00
    0.11476E-05         0.83047E-09         0.00000E+00
    0.11731E-05        -0.23163E-08         0.00000E+00
    0.11671E-05        -0.38528E-08         0.00000E+00
    0.11630E-05        -0.20301E-08         0.00000E+00
    0.11615E-05        -0.35878E-09         0.00000E+00
    0.11612E-05         0.73170E-09         0.00000E+00
    0.11611E-05         0.14771E-08         0.00000E+00
    0.11608E-05         0.19265E-08         0.00000E+00
    0.11600E-05         0.21491E-08         0.00000E+00
    0.11587E-05         0.22852E-08         0.00000E+00
    0.11570E-05         0.23757E-08         0.00000E+00
    0.11552E-05         0.23456E-08         0.00000E+00
    0.11533E-05         0.20919E-08         0.00000E+00
    0.11513E-05         0.15761E-08         0.00000E+00
    0.11490E-05         0.89761E-09         0.00000E+00
    0.11463E-05         0.27032E-09         0.00000E+00
    0.11700E-05        -0.92774E-09         0.00000E+00
    0.11670E-05        -0.19918E-08         0.00000E+00
    0.11641E-05        -0.17110E-08         0.00000E+00
    0.11624E-05        -0.85425E-09         0.00000E+00
    0.11616E-05        -0.16910E-09         0.00000E+00
    0.11612E-05         0.15935E-09         0.00000E+00
    0.11606E-05         0.21279E-09         0.00000E+00
    0.11597E-05         0.11563E-09         0.00000E+00
    0.11584E-05        -0.55979E-11         0.00000E+00
    0.11567E-05        -0.75372E-10         0.00000E+00
    0.11548E-05        -0.10051E-09         0.00000E+00
    0.11528E-05        -0.12904E-09         0.00000E+00
    0.11507E-05        -0.18018E-09         0.00000E+00
    0.11484E-05        -0.20519E-09         0.00000E+00
    0.11459E-05        -0.99766E-10         0.00000E+00
    0.11685E-05        -0.50642E-09         0.00000E+00
    0.11662E-05        -0.12941E-08         0.00000E+00
    0.11642E-05        -0.15493E-08         0.00000E+00
    0.11626E-05        -0.13946E-08         0.00000E+00
    0.11616E-05        -0.11959E-08         0.00000E+00
    0.11609E-05        -0.11571E-08         0.00000E+00
    0.11602E-05        -0.12910E-08         0.00000E+00
    0.11592E-05        -0.15073E-08         0.00000E+00
    0.11579E-05        -0.17005E-08         0.00000E+00
    0.11563E-05        -0.17957E-08         0.00000E+00
    0.11546E-05        -0.17654E-08         0.00000E+00
    0.11526E-05        -0.16144E-08         0.00000E+00
    0.11506E-05        -0.13463E-08         0.00000E+00
    0.11484E-05        -0.93900E-09         0.00000E+00
    0.11461E-05        -0.34751E-09         0.00000E+00
    0.11674E-05        -0.44820E-09         0.00000E+00
    0.11654E-05        -0.12138E-08         0.00000E+00
    0.11637E-05        -0.17103E-08         0.00000E+00
    0.11623E-05        -0.19777E-08         0.00000E+00
    0.11613E-05        -0.21477E-08         0.00000E+00
    0.11605E-05        -0.23415E-08         0.00000E+00
    0.11597E-05        -0.25872E-08         0.00000E+00
    0.11587E-05        -0.28384E-08         0.00000E+00
    0.11575E-05        -0.30206E-08         0.00000E+00
    0.11561E-05        -0.30692E-08         0.00000E+00
    0.11544E-05        -0.29464E-08         0.00000E+00
    0.11527E-05        -0.26376E-08         0.00000E+00
    0.11508E-05        -0.21371E-08         0.00000E+00
    0.11488E-05        -0.14350E-08         0.00000E+00
    0.11468E-05        -0.51550E-09         0.00000E+00
    0.11662E-05        -0.48577E-09         0.00000E+00
    0.11644E-05        -0.13684E-08         0.00000E+00
    0.11629E-05        -0.20664E-08         0.00000E+00
    0.11617E-05        -0.25969E-08         0.00000E+00
    0.11608E-05        -0.30161E-08         0.00000E+00
    0.11599E-05        -0.33773E-08         0.00000E+00
    0.11591E-05        -0.36975E-08         0.00000E+00
    0.11582E-05        -0.39506E-08         0.00000E+00
    0.11571E-05        -0.40876E-08         0.00000E+00
    0.11559E-05        -0.40589E-08         0.00000E+00
    0.11545E-05        -0.38288E-08         0.00000E+00
    0.11529E-05        -0.33777E-08         0.00000E+00
    0.11512E-05        -0.26969E-08         0.00000E+00
    0.11495E-05        -0.17828E-08         0.00000E+00
    0.11477E-05        -0.63316E-09         0.00000E+00
    0.11649E-05        -0.56491E-09         0.00000E+00
    0.11633E-05        -0.16135E-08         0.00000E+00
    0.11620E-05        -0.24970E-08         0.00000E+00
    0.11609E-05        -0.32225E-08         0.00000E+00
    0.11600E-05        -0.38130E-08         0.00000E+00
    0.11593E-05        -0.42900E-08         0.00000E+00
    0.11585E-05        -0.46577E-08         0.00000E+00
    0.11577E-05        -0.48983E-08         0.00000E+00
    0.11568E-05        -0.49789E-08         0.00000E+00
    0.11558E-05        -0.48641E-08         0.00000E+00
    0.11546E-05        -0.45255E-08         0.00000E+00
    0.11533E-05        -0.39457E-08         0.00000E+00
    0.11519E-05        -0.31175E-08         0.00000E+00
    0.11504E-05        -0.20407E-08         0.00000E+00
    0.11488E-05        -0.71995E-09         0.00000E+00
    0.11634E-05        -0.65845E-09         0.00000E+00
    0.11620E-05        -0.18897E-08         0.00000E+00
    0.11608E-05        -0.29469E-08         0.00000E+00
    0.11599E-05        -0.38311E-08         0.00000E+00
    0.11592E-05        -0.45497E-08         0.00000E+00
    0.11586E-05        -0.51086E-08         0.00000E+00
    0.11580E-05        -0.55053E-08         0.00000E+00
    0.11574E-05        -0.57259E-08         0.00000E+00
    0.11566E-05        -0.57482E-08         0.00000E+00
    0.11558E-05        -0.55483E-08         0.00000E+00
    0.11549E-05        -0.51061E-08         0.00000E+00
    0.11538E-05        -0.44096E-08         0.00000E+00
    0.11527E-05        -0.34548E-08         0.00000E+00
    0.11514E-05        -0.22449E-08         0.00000E+00
    0.11501E-05        -0.78821E-09         0.00000E+00
    0.11617E-05        -0.75590E-09         0.00000E+00
    0.11605E-05        -0.21724E-08         0.00000E+00
    0.11595E-05        -0.33936E-08         0.00000E+00
    0.11588E-05        -0.44157E-08         0.00000E+00
    0.11583E-05        -0.52377E-08         0.00000E+00
    0.11578E-05        -0.58582E-08         0.00000E+00
    0.11574E-05        -0.62720E-08         0.00000E+00
    0.11570E-05        -0.64688E-08         0.00000E+00
    0.11565E-05        -0.64340E-08         0.00000E+00
    0.11560E-05        -0.61529E-08         0.00000E+00
    0.11553E-05        -0.56137E-08         0.00000E+00
    0.11545E-05        -0.48101E-08         0.00000E+00
    0.11536E-05        -0.37426E-08         0.00000E+00
    0.11526E-05        -0.24175E-08         0.00000E+00
    0.11515E-05        -0.84554E-09         0.00000E+00
    0.11599E-05        -0.85365E-09         0.00000E+00
    0.11588E-05        -0.24536E-08         0.00000E+00
    0.11581E-05        -0.38316E-08         0.00000E+00
    0.11576E-05        -0.49789E-08         0.00000E+00
    0.11573E-05        -0.58896E-08         0.00000E+00
    0.11571E-05        -0.65594E-08         0.00000E+00
    0.11569E-05        -0.69831E-08         0.00000E+00
    0.11567E-05        -0.71539E-08         0.00000E+00
    0.11565E-05        -0.70638E-08         0.00000E+00
    0.11562E-05        -0.67058E-08         0.00000E+00
    0.11558E-05        -0.60753E-08         0.00000E+00
    0.11552E-05        -0.51721E-08         0.00000E+00
    0.11546E-05        -0.40009E-08         0.00000E+00
    0.11539E-05        -0.25713E-08         0.00000E+00
    0.11531E-05        -0.89644E-09         0.00000E+00
    0.11578E-05        -0.95147E-09         0.00000E+00
    0.11570E-05        -0.27334E-08         0.00000E+00
    0.11566E-05        -0.42632E-08         0.00000E+00
    0.11563E-05        -0.55273E-08         0.00000E+00
    0.11563E-05        -0.65176E-08         0.00000E+00
    0.11563E-05        -0.72288E-08         0.00000E+00
    0.11564E-05        -0.76575E-08         0.00000E+00
    0.11565E-05        -0.78008E-08         0.00000E+00
    0.11565E-05        -0.76567E-08         0.00000E+00
    0.11565E-05        -0.72248E-08         0.00000E+00
    0.11564E-05        -0.65073E-08         0.00000E+00
    0.11561E-05        -0.55096E-08         0.00000E+00
    0.11558E-05        -0.42409E-08         0.00000E+00
    0.11553E-05        -0.27138E-08         0.00000E+00
    0.11547E-05        -0.94348E-09         0.00000E+00
    0.11556E-05        -0.10506E-08         0.00000E+00
    0.11551E-05        -0.30151E-08         0.00000E+00
    0.11549E-05        -0.46936E-08         0.00000E+00
    0.11549E-05        -0.60692E-08         0.00000E+00
    0.11552E-05        -0.71325E-08         0.00000E+00
    0.11555E-05        -0.78793E-08         0.00000E+00
    0.11559E-05        -0.83088E-08         0.00000E+00
    0.11563E-05        -0.84227E-08         0.00000E+00
    0.11567E-05        -0.82247E-08         0.00000E+00
    0.11569E-05        -0.77206E-08         0.00000E+00
    0.11571E-05        -0.69187E-08         0.00000E+00
    0.11571E-05        -0.58299E-08         0.00000E+00
    0.11570E-05        -0.44680E-08         0.00000E+00
    0.11568E-05        -0.28483E-08         0.00000E+00
    0.11565E-05        -0.98783E-09         0.00000E+00
    0.11532E-05        -0.11525E-08         0.00000E+00
    0.11530E-05        -0.33027E-08         0.00000E+00
    0.11531E-05        -0.51287E-08         0.00000E+00
    0.11535E-05        -0.66116E-08         0.00000E+00
    0.11541E-05        -0.77423E-08         0.00000E+00
    0.11547E-05        -0.85190E-08         0.00000E+00
    0.11555E-05        -0.89451E-08         0.00000E+00
    0.11562E-05        -0.90271E-08         0.00000E+00
    0.11569E-05        -0.87742E-08         0.00000E+00
    0.11575E-05        -0.81980E-08         0.00000E+00
    0.11579E-05        -0.73128E-08         0.00000E+00
    0.11582E-05        -0.61350E-08         0.00000E+00
    0.11584E-05        -0.46829E-08         0.00000E+00
    0.11584E-05        -0.29750E-08         0.00000E+00
    0.11583E-05        -0.10296E-08         0.00000E+00
    0.11506E-05        -0.12589E-08         0.00000E+00
    0.11507E-05        -0.36000E-08         0.00000E+00
    0.11512E-05        -0.55730E-08         0.00000E+00
    0.11520E-05        -0.71589E-08         0.00000E+00
    0.11529E-05        -0.83511E-08         0.00000E+00
    0.11540E-05        -0.91518E-08         0.00000E+00
    0.11551E-05        -0.95693E-08         0.00000E+00
    0.11562E-05        -0.96158E-08         0.00000E+00
    0.11572E-05        -0.93061E-08         0.00000E+00
    0.11581E-05        -0.86570E-08         0.00000E+00
    0.11588E-05        -0.76883E-08         0.00000E+00
    0.11594E-05        -0.64222E-08         0.00000E+00
    0.11599E-05        -0.48825E-08         0.00000E+00
    0.11601E-05        -0.30915E-08         0.00000E+00
    0.11602E-05        -0.10678E-08         0.00000E+00
    0.11478E-05        -0.13705E-08         0.00000E+00
    0.11483E-05        -0.39090E-08         0.00000E+00
    0.11492E-05        -0.60285E-08         0.00000E+00
    0.11504E-05        -0.77124E-08         0.00000E+00
    0.11517E-05        -0.89587E-08         0.00000E+00
    0.11532E-05        -0.97758E-08         0.00000E+00
    0.11547E-05        -0.10179E-07         0.00000E+00
    0.11562E-05        -0.10185E-07         0.00000E+00
    0.11575E-05        -0.98163E-08         0.00000E+00
    0.11588E-05        -0.90934E-08         0.00000E+00
    0.11598E-05        -0.80404E-08         0.00000E+00
    0.11607E-05        -0.66853E-08         0.00000E+00
    0.11614E-05        -0.50592E-08         0.00000E+00
    0.11619E-05        -0.31911E-08         0.00000E+00
    0.11623E-05        -0.10998E-08         0.00000E+00
    0.11448E-05        -0.14878E-08         0.00000E+00
    0.11458E-05        -0.42303E-08         0.00000E+00
    0.11471E-05        -0.64943E-08         0.00000E+00
    0.11487E-05        -0.82687E-08         0.00000E+00
    0.11506E-05        -0.95592E-08         0.00000E+00
    0.11525E-05        -0.10383E-07         0.00000E+00
    0.11544E-05        -0.10763E-07         0.00000E+00
    0.11562E-05        -0.10725E-07         0.00000E+00
    0.11580E-05        -0.10295E-07         0.00000E+00
    0.11596E-05        -0.94988E-08         0.00000E+00
    0.11610E-05        -0.83622E-08         0.00000E+00
    0.11621E-05        -0.69161E-08         0.00000E+00
    0.11631E-05        -0.52009E-08         0.00000E+00
    0.11638E-05        -0.32613E-08         0.00000E+00
    0.11644E-05        -0.11202E-08         0.00000E+00
    0.11416E-05        -0.16106E-08         0.00000E+00
    0.11430E-05        -0.45619E-08         0.00000E+00
    0.11449E-05        -0.69654E-08         0.00000E+00
    0.11471E-05        -0.88192E-08         0.00000E+00
    0.11494E-05        -0.10140E-07         0.00000E+00
    0.11518E-05        -0.10957E-07         0.00000E+00
    0.11541E-05        -0.11305E-07         0.00000E+00
    0.11564E-05        -0.11217E-07         0.00000E+00
    0.11585E-05        -0.10727E-07         0.00000E+00
    0.11604E-05        -0.98602E-08         0.00000E+00
    0.11622E-05        -0.86448E-08         0.00000E+00
    0.11636E-05        -0.71098E-08         0.00000E+00
    0.11648E-05        -0.52956E-08         0.00000E+00
    0.11657E-05        -0.32775E-08         0.00000E+00
    0.11665E-05        -0.11152E-08         0.00000E+00
    0.11382E-05        -0.17378E-08         0.00000E+00
    0.11402E-05        -0.48997E-08         0.00000E+00
    0.11426E-05        -0.74331E-08         0.00000E+00
    0.11454E-05        -0.93493E-08         0.00000E+00
    0.11482E-05        -0.10681E-07         0.00000E+00
    0.11511E-05        -0.11475E-07         0.00000E+00
    0.11539E-05        -0.11777E-07         0.00000E+00
    0.11566E-05        -0.11635E-07         0.00000E+00
    0.11591E-05        -0.11086E-07         0.00000E+00
    0.11614E-05        -0.10159E-07         0.00000E+00
    0.11635E-05        -0.88753E-08         0.00000E+00
    0.11653E-05        -0.72621E-08         0.00000E+00
    0.11667E-05        -0.53521E-08         0.00000E+00
    0.11678E-05        -0.32137E-08         0.00000E+00
    0.11686E-05        -0.10502E-08         0.00000E+00
    0.11345E-05        -0.18675E-08         0.00000E+00
    0.11372E-05        -0.52371E-08         0.00000E+00
    0.11403E-05        -0.78834E-08         0.00000E+00
    0.11437E-05        -0.98372E-08         0.00000E+00
    0.11471E-05        -0.11154E-07         0.00000E+00
    0.11505E-05        -0.11900E-07         0.00000E+00
    0.11538E-05        -0.12143E-07         0.00000E+00
    0.11569E-05        -0.11941E-07         0.00000E+00
    0.11598E-05        -0.11339E-07         0.00000E+00
    0.11625E-05        -0.10365E-07         0.00000E+00
    0.11649E-05        -0.90362E-08         0.00000E+00
    0.11670E-05        -0.73607E-08         0.00000E+00
    0.11687E-05        -0.53759E-08         0.00000E+00
    0.11700E-05        -0.30961E-08         0.00000E+00
    0.11704E-05        -0.93907E-09         0.00000E+00
    0.11306E-05        -0.19973E-08         0.00000E+00
    0.11341E-05        -0.55643E-08         0.00000E+00
    0.11379E-05        -0.82966E-08         0.00000E+00
    0.11420E-05        -0.10252E-07         0.00000E+00
    0.11461E-05        -0.11517E-07         0.00000E+00
    0.11500E-05        -0.12188E-07         0.00000E+00
    0.11538E-05        -0.12352E-07         0.00000E+00
    0.11573E-05        -0.12085E-07         0.00000E+00
    0.11605E-05        -0.11437E-07         0.00000E+00
    0.11636E-05        -0.10439E-07         0.00000E+00
    0.11663E-05        -0.90972E-08         0.00000E+00
    0.11688E-05        -0.73983E-08         0.00000E+00
    0.11708E-05        -0.53335E-08         0.00000E+00
    0.11724E-05        -0.30041E-08         0.00000E+00
    0.11721E-05        -0.89854E-09         0.00000E+00
    0.11264E-05        -0.21236E-08         0.00000E+00
    0.11308E-05        -0.58680E-08         0.00000E+00
    0.11356E-05        -0.86453E-08         0.00000E+00
    0.11404E-05        -0.10553E-07         0.00000E+00
    0.11451E-05        -0.11720E-07         0.00000E+00
    0.11496E-05        -0.12279E-07         0.00000E+00
    0.11538E-05        -0.12345E-07         0.00000E+00
    0.11577E-05        -0.12008E-07         0.00000E+00
    0.11613E-05        -0.11326E-07         0.00000E+00
    0.11647E-05        -0.10327E-07         0.00000E+00
    0.11678E-05        -0.90090E-08         0.00000E+00
    0.11706E-05        -0.73441E-08         0.00000E+00
    0.11731E-05        -0.52292E-08         0.00000E+00
    0.11746E-05        -0.29871E-08         0.00000E+00
    0.11739E-05        -0.96800E-09         0.00000E+00
    0.11221E-05        -0.22417E-08         0.00000E+00
    0.11276E-05        -0.61291E-08         0.00000E+00
    0.11333E-05        -0.88909E-08         0.00000E+00
    0.11390E-05        -0.10683E-07         0.00000E+00
    0.11444E-05        -0.11694E-07         0.00000E+00
    0.11494E-05        -0.12102E-07         0.00000E+00
    0.11540E-05        -0.12051E-07         0.00000E+00
    0.11582E-05        -0.11643E-07         0.00000E+00
    0.11621E-05        -0.10941E-07         0.00000E+00
    0.11658E-05        -0.99713E-08         0.00000E+00
    0.11692E-05        -0.87204E-08         0.00000E+00
    0.11723E-05        -0.71306E-08         0.00000E+00
    0.11754E-05        -0.50965E-08         0.00000E+00
    0.11765E-05        -0.30171E-08         0.00000E+00
    0.11759E-05        -0.10415E-08         0.00000E+00
    0.11176E-05        -0.23446E-08         0.00000E+00
    0.11243E-05        -0.63195E-08         0.00000E+00
    0.11312E-05        -0.89772E-08         0.00000E+00
    0.11377E-05        -0.10565E-07         0.00000E+00
    0.11438E-05        -0.11354E-07         0.00000E+00
    0.11493E-05        -0.11576E-07         0.00000E+00
    0.11543E-05        -0.11397E-07         0.00000E+00
    0.11588E-05        -0.10926E-07         0.00000E+00
    0.11629E-05        -0.10224E-07         0.00000E+00
    0.11668E-05        -0.93138E-08         0.00000E+00
    0.11705E-05        -0.81787E-08         0.00000E+00
    0.11740E-05        -0.67336E-08         0.00000E+00
    0.11775E-05        -0.49279E-08         0.00000E+00
    0.11783E-05        -0.30226E-08         0.00000E+00
    0.11779E-05        -0.10536E-08         0.00000E+00
    0.11129E-05        -0.24208E-08         0.00000E+00
    0.11212E-05        -0.63932E-08         0.00000E+00
    0.11293E-05        -0.88171E-08         0.00000E+00
    0.11368E-05        -0.10090E-07         0.00000E+00
    0.11435E-05        -0.10594E-07         0.00000E+00
    0.11494E-05        -0.10611E-07         0.00000E+00
    0.11547E-05        -0.10315E-07         0.00000E+00
    0.11594E-05        -0.98041E-08         0.00000E+00
    0.11637E-05        -0.91307E-08         0.00000E+00
    0.11677E-05        -0.83121E-08         0.00000E+00
    0.11716E-05        -0.73362E-08         0.00000E+00
    0.11755E-05        -0.61411E-08         0.00000E+00
    0.11793E-05        -0.46644E-08         0.00000E+00
    0.11801E-05        -0.29555E-08         0.00000E+00
    0.11800E-05        -0.10300E-08         0.00000E+00
    0.11081E-05        -0.24477E-08         0.00000E+00
    0.11183E-05        -0.62654E-08         0.00000E+00
    0.11278E-05        -0.82672E-08         0.00000E+00
    0.11363E-05        -0.91051E-08         0.00000E+00
    0.11435E-05        -0.92941E-08         0.00000E+00
    0.11497E-05        -0.91282E-08         0.00000E+00
    0.11552E-05        -0.87553E-08         0.00000E+00
    0.11600E-05        -0.82493E-08         0.00000E+00
    0.11644E-05        -0.76442E-08         0.00000E+00
    0.11686E-05        -0.69511E-08         0.00000E+00
    0.11725E-05        -0.61680E-08         0.00000E+00
    0.11766E-05        -0.52917E-08         0.00000E+00
    0.11807E-05        -0.42215E-08         0.00000E+00
    0.11818E-05        -0.27841E-08         0.00000E+00
    0.11820E-05        -0.97826E-09         0.00000E+00
    0.11034E-05        -0.23745E-08         0.00000E+00
    0.11160E-05        -0.57589E-08         0.00000E+00
    0.11270E-05        -0.70843E-08         0.00000E+00
    0.11361E-05        -0.74268E-08         0.00000E+00
    0.11437E-05        -0.73554E-08         0.00000E+00
    0.11501E-05        -0.70862E-08         0.00000E+00
    0.11557E-05        -0.67120E-08         0.00000E+00
    0.11606E-05        -0.62732E-08         0.00000E+00
    0.11650E-05        -0.57856E-08         0.00000E+00
    0.11692E-05        -0.52533E-08         0.00000E+00
    0.11733E-05        -0.46803E-08         0.00000E+00
    0.11774E-05        -0.41070E-08         0.00000E+00
    0.11816E-05        -0.35089E-08         0.00000E+00
    0.11833E-05        -0.24535E-08         0.00000E+00
    0.11838E-05        -0.86025E-09         0.00000E+00
    0.10990E-05        -0.20149E-08         0.00000E+00
    0.11146E-05        -0.44547E-08         0.00000E+00
    0.11268E-05        -0.49417E-08         0.00000E+00
    0.11363E-05        -0.49373E-08         0.00000E+00
    0.11440E-05        -0.47631E-08         0.00000E+00
    0.11505E-05        -0.45171E-08         0.00000E+00
    0.11561E-05        -0.42366E-08         0.00000E+00
    0.11610E-05        -0.39349E-08         0.00000E+00
    0.11655E-05        -0.36154E-08         0.00000E+00
    0.11697E-05        -0.32782E-08         0.00000E+00
    0.11738E-05        -0.29272E-08         0.00000E+00
    0.11778E-05        -0.25867E-08         0.00000E+00
    0.11820E-05        -0.23613E-08         0.00000E+00
    0.11846E-05        -0.18424E-08         0.00000E+00
    0.11853E-05        -0.69388E-09         0.00000E+00
    0.10960E-05        -0.85932E-09         0.00000E+00
    0.11145E-05        -0.17607E-08         0.00000E+00
    0.11270E-05        -0.17906E-08         0.00000E+00
    0.11366E-05        -0.17393E-08         0.00000E+00
    0.11443E-05        -0.16520E-08         0.00000E+00
    0.11508E-05        -0.15528E-08         0.00000E+00
    0.11564E-05        -0.14485E-08         0.00000E+00
    0.11613E-05        -0.13407E-08         0.00000E+00
    0.11658E-05        -0.12293E-08         0.00000E+00
    0.11700E-05        -0.11137E-08         0.00000E+00
    0.11740E-05        -0.99570E-09         0.00000E+00
    0.11780E-05        -0.87485E-09         0.00000E+00
    0.11820E-05        -0.82433E-09         0.00000E+00
    0.11851E-05        -0.72086E-09         0.00000E+00
    0.11865E-05        -0.30369E-09         0.00000E+00
POINT_DATA        496
VECTORS vDarcyNodal double 
    0.11678E-05         0.58680E-08         0.00000E+00
    0.11648E-05         0.13197E-07         0.00000E+00
    0.11610E-05         0.26855E-07         0.00000E+00
    0.11599E-05         0.35961E-07         0.00000E+00
    0.11596E-05         0.39840E-07         0.00000E+00
    0.11596E-05         0.40991E-07         0.00000E+00
    0.11597E-05         0.40371E-07         0.00000E+00
    0.11596E-05         0.38384E-07         0.00000E+00
    0.11594E-05         0.34590E-07         0.00000E+00
    0.11592E-05         0.29325E-07         0.00000E+00
    0.11589E-05         0.24567E-07         0.00000E+00
    0.11587E-05         0.20994E-07         0.00000E+00
    0.11584E-05         0.17688E-07         0.00000E+00
    0.11580E-05         0.14019E-07         0.00000E+00
    0.11572E-05         0.85003E-08         0.00000E+00
    0.11567E-05         0.49519E-08         0.00000E+00
    0.11720E-05         0.89494E-08         0.00000E+00
    0.11680E-05         0.12838E-07         0.00000E+00
    0.11625E-05         0.15641E-07         0.00000E+00
    0.11604E-05         0.13613E-07         0.00000E+00
    0.11598E-05         0.12030E-07         0.00000E+00
    0.11596E-05         0.11290E-07         0.00000E+00
    0.11596E-05         0.11485E-07         0.00000E+00
    0.11594E-05         0.12266E-07         0.00000E+00
    0.11589E-05         0.13588E-07         0.00000E+00
    0.11584E-05         0.14977E-07         0.00000E+00
    0.11580E-05         0.15148E-07         0.00000E+00
    0.11575E-05         0.13823E-07         0.00000E+00
    0.11570E-05         0.11593E-07         0.00000E+00
    0.11562E-05         0.84827E-08         0.00000E+00
    0.11547E-05         0.44515E-08         0.00000E+00
    0.11538E-05         0.22433E-08         0.00000E+00
    0.11773E-05        -0.10681E-08         0.00000E+00
    0.11716E-05        -0.16869E-08         0.00000E+00
    0.11637E-05        -0.23069E-08         0.00000E+00
    0.11609E-05        -0.17403E-08         0.00000E+00
    0.11601E-05        -0.17286E-09         0.00000E+00
    0.11599E-05         0.18108E-08         0.00000E+00
    0.11599E-05         0.37551E-08         0.00000E+00
    0.11595E-05         0.56234E-08         0.00000E+00
    0.11587E-05         0.71310E-08         0.00000E+00
    0.11577E-05         0.80030E-08         0.00000E+00
    0.11567E-05         0.82602E-08         0.00000E+00
    0.11557E-05         0.78329E-08         0.00000E+00
    0.11546E-05         0.66018E-08         0.00000E+00
    0.11531E-05         0.46703E-08         0.00000E+00
    0.11508E-05         0.23635E-08         0.00000E+00
    0.11494E-05         0.11693E-08         0.00000E+00
    0.11762E-05        -0.33694E-08         0.00000E+00
    0.11711E-05        -0.42590E-08         0.00000E+00
    0.11640E-05        -0.36617E-08         0.00000E+00
    0.11615E-05        -0.11492E-08         0.00000E+00
    0.11607E-05         0.49063E-09         0.00000E+00
    0.11606E-05         0.16092E-08         0.00000E+00
    0.11605E-05         0.24771E-08         0.00000E+00
    0.11601E-05         0.30678E-08         0.00000E+00
    0.11592E-05         0.34592E-08         0.00000E+00
    0.11578E-05         0.37300E-08         0.00000E+00
    0.11562E-05         0.38260E-08         0.00000E+00
    0.11547E-05         0.36237E-08         0.00000E+00
    0.11530E-05         0.30344E-08         0.00000E+00
    0.11511E-05         0.20996E-08         0.00000E+00
    0.11486E-05         0.10275E-08         0.00000E+00
    0.11473E-05         0.49273E-09         0.00000E+00
    0.11723E-05        -0.12908E-08         0.00000E+00
    0.11694E-05        -0.19295E-08         0.00000E+00
    0.11649E-05        -0.22264E-08         0.00000E+00
    0.11625E-05        -0.12383E-08         0.00000E+00
    0.11615E-05        -0.11509E-09         0.00000E+00
    0.11612E-05         0.60449E-09         0.00000E+00
    0.11608E-05         0.93459E-09         0.00000E+00
    0.11602E-05         0.10187E-08         0.00000E+00
    0.11591E-05         0.98732E-09         0.00000E+00
    0.11576E-05         0.94298E-09         0.00000E+00
    0.11559E-05         0.90625E-09         0.00000E+00
    0.11541E-05         0.82296E-09         0.00000E+00
    0.11521E-05         0.64059E-09         0.00000E+00
    0.11500E-05         0.37862E-09         0.00000E+00
    0.11476E-05         0.14250E-09         0.00000E+00
    0.11463E-05         0.48879E-10         0.00000E+00
    0.11695E-05        -0.56851E-09         0.00000E+00
    0.11680E-05        -0.99418E-09         0.00000E+00
    0.11652E-05        -0.14791E-08         0.00000E+00
    0.11631E-05        -0.13262E-08         0.00000E+00
    0.11619E-05        -0.90480E-09         0.00000E+00
    0.11612E-05        -0.60884E-09         0.00000E+00
    0.11607E-05        -0.55564E-09         0.00000E+00
    0.11599E-05        -0.68255E-09         0.00000E+00
    0.11588E-05        -0.86918E-09         0.00000E+00
    0.11573E-05        -0.10159E-08         0.00000E+00
    0.11556E-05        -0.10746E-08         0.00000E+00
    0.11537E-05        -0.10460E-08         0.00000E+00
    0.11517E-05        -0.94474E-09         0.00000E+00
    0.11496E-05        -0.76060E-09         0.00000E+00
    0.11473E-05        -0.44581E-09         0.00000E+00
    0.11462E-05        -0.24762E-09         0.00000E+00
    0.11680E-05        -0.44481E-09         0.00000E+00
    0.11669E-05        -0.80708E-09         0.00000E+00
    0.11648E-05        -0.13646E-08         0.00000E+00
    0.11631E-05        -0.16162E-08         0.00000E+00
    0.11619E-05        -0.16823E-08         0.00000E+00
    0.11610E-05        -0.17393E-08         0.00000E+00
    0.11603E-05        -0.18867E-08         0.00000E+00
    0.11594E-05        -0.21097E-08         0.00000E+00
    0.11583E-05        -0.23326E-08         0.00000E+00
    0.11570E-05        -0.24746E-08         0.00000E+00
    0.11554E-05        -0.24811E-08         0.00000E+00
    0.11536E-05        -0.23291E-08         0.00000E+00
    0.11517E-05        -0.20123E-08         0.00000E+00
    0.11497E-05        -0.15222E-08         0.00000E+00
    0.11476E-05        -0.83946E-09         0.00000E+00
    0.11465E-05        -0.44679E-09         0.00000E+00
    0.11667E-05        -0.45151E-09         0.00000E+00
    0.11658E-05        -0.85459E-09         0.00000E+00
    0.11641E-05        -0.15584E-08         0.00000E+00
    0.11626E-05        -0.20696E-08         0.00000E+00
    0.11615E-05        -0.24397E-08         0.00000E+00
    0.11606E-05        -0.27456E-08         0.00000E+00
    0.11598E-05        -0.30371E-08         0.00000E+00
    0.11589E-05        -0.33110E-08         0.00000E+00
    0.11579E-05        -0.35217E-08         0.00000E+00
    0.11567E-05        -0.36108E-08         0.00000E+00
    0.11552E-05        -0.35305E-08         0.00000E+00
    0.11536E-05        -0.32515E-08         0.00000E+00
    0.11519E-05        -0.27597E-08         0.00000E+00
    0.11501E-05        -0.20480E-08         0.00000E+00
    0.11483E-05        -0.11101E-08         0.00000E+00
    0.11473E-05        -0.58375E-09         0.00000E+00
    0.11655E-05        -0.51967E-09         0.00000E+00
    0.11646E-05        -0.99887E-09         0.00000E+00
    0.11631E-05        -0.18748E-08         0.00000E+00
    0.11618E-05        -0.25912E-08         0.00000E+00
    0.11608E-05        -0.31700E-08         0.00000E+00
    0.11600E-05        -0.36439E-08         0.00000E+00
    0.11592E-05        -0.40334E-08         0.00000E+00
    0.11584E-05        -0.43328E-08         0.00000E+00
    0.11575E-05        -0.45126E-08         0.00000E+00
    0.11564E-05        -0.45320E-08         0.00000E+00
    0.11552E-05        -0.43540E-08         0.00000E+00
    0.11538E-05        -0.39523E-08         0.00000E+00
    0.11524E-05        -0.33128E-08         0.00000E+00
    0.11508E-05        -0.24303E-08         0.00000E+00
    0.11491E-05        -0.13052E-08         0.00000E+00
    0.11483E-05        -0.68220E-09         0.00000E+00
    0.11641E-05        -0.60969E-09         0.00000E+00
    0.11633E-05        -0.11787E-08         0.00000E+00
    0.11620E-05        -0.22339E-08         0.00000E+00
    0.11609E-05        -0.31257E-08         0.00000E+00
    0.11600E-05        -0.38623E-08         0.00000E+00
    0.11592E-05        -0.44555E-08         0.00000E+00
    0.11586E-05        -0.49105E-08         0.00000E+00
    0.11579E-05        -0.52194E-08         0.00000E+00
    0.11572E-05        -0.53612E-08         0.00000E+00
    0.11563E-05        -0.53079E-08         0.00000E+00
    0.11553E-05        -0.50330E-08         0.00000E+00
    0.11542E-05        -0.45168E-08         0.00000E+00
    0.11529E-05        -0.37487E-08         0.00000E+00
    0.11516E-05        -0.27267E-08         0.00000E+00
    0.11502E-05        -0.14549E-08         0.00000E+00
    0.11495E-05        -0.75740E-09         0.00000E+00
    0.11625E-05        -0.70667E-09         0.00000E+00
    0.11618E-05        -0.13685E-08         0.00000E+00
    0.11607E-05        -0.26008E-08         0.00000E+00
    0.11597E-05        -0.36497E-08         0.00000E+00
    0.11590E-05        -0.45154E-08         0.00000E+00
    0.11585E-05        -0.51994E-08         0.00000E+00
    0.11579E-05        -0.56999E-08         0.00000E+00
    0.11575E-05        -0.60083E-08         0.00000E+00
    0.11569E-05        -0.61098E-08         0.00000E+00
    0.11563E-05        -0.59858E-08         0.00000E+00
    0.11555E-05        -0.56190E-08         0.00000E+00
    0.11546E-05        -0.49970E-08         0.00000E+00
    0.11537E-05        -0.41142E-08         0.00000E+00
    0.11526E-05        -0.29720E-08         0.00000E+00
    0.11514E-05        -0.15778E-08         0.00000E+00
    0.11508E-05        -0.81878E-09         0.00000E+00
    0.11608E-05        -0.80458E-09         0.00000E+00
    0.11602E-05        -0.15587E-08         0.00000E+00
    0.11592E-05        -0.29633E-08         0.00000E+00
    0.11585E-05        -0.41571E-08         0.00000E+00
    0.11580E-05        -0.51350E-08         0.00000E+00
    0.11576E-05        -0.58932E-08         0.00000E+00
    0.11573E-05        -0.64270E-08         0.00000E+00
    0.11570E-05        -0.67292E-08         0.00000E+00
    0.11567E-05        -0.67900E-08         0.00000E+00
    0.11563E-05        -0.65986E-08         0.00000E+00
    0.11558E-05        -0.61454E-08         0.00000E+00
    0.11552E-05        -0.54251E-08         0.00000E+00
    0.11545E-05        -0.44373E-08         0.00000E+00
    0.11537E-05        -0.31872E-08         0.00000E+00
    0.11528E-05        -0.16848E-08         0.00000E+00
    0.11523E-05        -0.87208E-09         0.00000E+00
    0.11588E-05        -0.90214E-09         0.00000E+00
    0.11584E-05        -0.17475E-08         0.00000E+00
    0.11576E-05        -0.33200E-08         0.00000E+00
    0.11571E-05        -0.46507E-08         0.00000E+00
    0.11568E-05        -0.57304E-08         0.00000E+00
    0.11567E-05        -0.65525E-08         0.00000E+00
    0.11567E-05        -0.71122E-08         0.00000E+00
    0.11566E-05        -0.74046E-08         0.00000E+00
    0.11566E-05        -0.74248E-08         0.00000E+00
    0.11565E-05        -0.71686E-08         0.00000E+00
    0.11562E-05        -0.66336E-08         0.00000E+00
    0.11559E-05        -0.58206E-08         0.00000E+00
    0.11555E-05        -0.47345E-08         0.00000E+00
    0.11549E-05        -0.33843E-08         0.00000E+00
    0.11543E-05        -0.17826E-08         0.00000E+00
    0.11539E-05        -0.92062E-09         0.00000E+00
    0.11567E-05        -0.10002E-08         0.00000E+00
    0.11564E-05        -0.19363E-08         0.00000E+00
    0.11559E-05        -0.36745E-08         0.00000E+00
    0.11556E-05        -0.51370E-08         0.00000E+00
    0.11556E-05        -0.63115E-08         0.00000E+00
    0.11558E-05        -0.71907E-08         0.00000E+00
    0.11560E-05        -0.77709E-08         0.00000E+00
    0.11563E-05        -0.80506E-08         0.00000E+00
    0.11565E-05        -0.80299E-08         0.00000E+00
    0.11567E-05        -0.77105E-08         0.00000E+00
    0.11568E-05        -0.70965E-08         0.00000E+00
    0.11567E-05        -0.61947E-08         0.00000E+00
    0.11565E-05        -0.50149E-08         0.00000E+00
    0.11563E-05        -0.35697E-08         0.00000E+00
    0.11558E-05        -0.18744E-08         0.00000E+00
    0.11556E-05        -0.96616E-09         0.00000E+00
    0.11544E-05        -0.11003E-08         0.00000E+00
    0.11542E-05        -0.21281E-08         0.00000E+00
    0.11540E-05        -0.40320E-08         0.00000E+00
    0.11541E-05        -0.56230E-08         0.00000E+00
    0.11544E-05        -0.68871E-08         0.00000E+00
    0.11549E-05        -0.78178E-08         0.00000E+00
    0.11554E-05        -0.84138E-08         0.00000E+00
    0.11560E-05        -0.86778E-08         0.00000E+00
    0.11565E-05        -0.86148E-08         0.00000E+00
    0.11570E-05        -0.82325E-08         0.00000E+00
    0.11574E-05        -0.75408E-08         0.00000E+00
    0.11576E-05        -0.65524E-08         0.00000E+00
    0.11577E-05        -0.52820E-08         0.00000E+00
    0.11577E-05        -0.37458E-08         0.00000E+00
    0.11575E-05        -0.19614E-08         0.00000E+00
    0.11574E-05        -0.10093E-08         0.00000E+00
    0.11519E-05        -0.12041E-08         0.00000E+00
    0.11518E-05        -0.23258E-08         0.00000E+00
    0.11520E-05        -0.43971E-08         0.00000E+00
    0.11524E-05        -0.61143E-08         0.00000E+00
    0.11531E-05        -0.74634E-08         0.00000E+00
    0.11539E-05        -0.84401E-08         0.00000E+00
    0.11548E-05        -0.90470E-08         0.00000E+00
    0.11557E-05        -0.92913E-08         0.00000E+00
    0.11566E-05        -0.91838E-08         0.00000E+00
    0.11574E-05        -0.87374E-08         0.00000E+00
    0.11581E-05        -0.79681E-08         0.00000E+00
    0.11586E-05        -0.68940E-08         0.00000E+00
    0.11590E-05        -0.55349E-08         0.00000E+00
    0.11592E-05        -0.39115E-08         0.00000E+00
    0.11593E-05        -0.20429E-08         0.00000E+00
    0.11593E-05        -0.10497E-08         0.00000E+00
    0.11492E-05        -0.13128E-08         0.00000E+00
    0.11493E-05        -0.25316E-08         0.00000E+00
    0.11498E-05        -0.47733E-08         0.00000E+00
    0.11507E-05        -0.66144E-08         0.00000E+00
    0.11517E-05        -0.80431E-08         0.00000E+00
    0.11529E-05        -0.90593E-08         0.00000E+00
    0.11542E-05        -0.96709E-08         0.00000E+00
    0.11555E-05        -0.98909E-08         0.00000E+00
    0.11568E-05        -0.97356E-08         0.00000E+00
    0.11579E-05        -0.92235E-08         0.00000E+00
    0.11589E-05        -0.83755E-08         0.00000E+00
    0.11597E-05        -0.72153E-08         0.00000E+00
    0.11604E-05        -0.57689E-08         0.00000E+00
    0.11609E-05        -0.40620E-08         0.00000E+00
    0.11612E-05        -0.21161E-08         0.00000E+00
    0.11613E-05        -0.10857E-08         0.00000E+00
    0.11463E-05        -0.14273E-08         0.00000E+00
    0.11466E-05        -0.27464E-08         0.00000E+00
    0.11476E-05        -0.51615E-08         0.00000E+00
    0.11488E-05        -0.71232E-08         0.00000E+00
    0.11503E-05        -0.86244E-08         0.00000E+00
    0.11520E-05        -0.96717E-08         0.00000E+00
    0.11537E-05        -0.10280E-07         0.00000E+00
    0.11554E-05        -0.10470E-07         0.00000E+00
    0.11570E-05        -0.10263E-07         0.00000E+00
    0.11585E-05        -0.96842E-08         0.00000E+00
    0.11598E-05        -0.87568E-08         0.00000E+00
    0.11609E-05        -0.75093E-08         0.00000E+00
    0.11619E-05        -0.59749E-08         0.00000E+00
    0.11626E-05        -0.41880E-08         0.00000E+00
    0.11631E-05        -0.21747E-08         0.00000E+00
    0.11633E-05        -0.11138E-08         0.00000E+00
    0.11432E-05        -0.15474E-08         0.00000E+00
    0.11438E-05        -0.29700E-08         0.00000E+00
    0.11452E-05        -0.55601E-08         0.00000E+00
    0.11469E-05        -0.76363E-08         0.00000E+00
    0.11489E-05        -0.91998E-08         0.00000E+00
    0.11510E-05        -0.10267E-07         0.00000E+00
    0.11532E-05        -0.10862E-07         0.00000E+00
    0.11553E-05        -0.11015E-07         0.00000E+00
    0.11573E-05        -0.10754E-07         0.00000E+00
    0.11591E-05        -0.10108E-07         0.00000E+00
    0.11608E-05        -0.91030E-08         0.00000E+00
    0.11623E-05        -0.77681E-08         0.00000E+00
    0.11634E-05        -0.61416E-08         0.00000E+00
    0.11644E-05        -0.42740E-08         0.00000E+00
    0.11651E-05        -0.22068E-08         0.00000E+00
    0.11654E-05        -0.11266E-08         0.00000E+00
    0.11398E-05        -0.16727E-08         0.00000E+00
    0.11407E-05        -0.32006E-08         0.00000E+00
    0.11427E-05        -0.59641E-08         0.00000E+00
    0.11450E-05        -0.81447E-08         0.00000E+00
    0.11475E-05        -0.97559E-08         0.00000E+00
    0.11501E-05        -0.10827E-07         0.00000E+00
    0.11527E-05        -0.11397E-07         0.00000E+00
    0.11553E-05        -0.11505E-07         0.00000E+00
    0.11577E-05        -0.11188E-07         0.00000E+00
    0.11599E-05        -0.10477E-07         0.00000E+00
    0.11619E-05        -0.94011E-08         0.00000E+00
    0.11637E-05        -0.79859E-08         0.00000E+00
    0.11651E-05        -0.62637E-08         0.00000E+00
    0.11663E-05        -0.42992E-08         0.00000E+00
    0.11671E-05        -0.21861E-08         0.00000E+00
    0.11675E-05        -0.11038E-08         0.00000E+00
    0.11363E-05        -0.18016E-08         0.00000E+00
    0.11374E-05        -0.34349E-08         0.00000E+00
    0.11400E-05        -0.63655E-08         0.00000E+00
    0.11430E-05        -0.86341E-08         0.00000E+00
    0.11461E-05        -0.10271E-07         0.00000E+00
    0.11492E-05        -0.11326E-07         0.00000E+00
    0.11523E-05        -0.11853E-07         0.00000E+00
    0.11553E-05        -0.11906E-07         0.00000E+00
    0.11581E-05        -0.11532E-07         0.00000E+00
    0.11607E-05        -0.10766E-07         0.00000E+00
    0.11631E-05        -0.96322E-08         0.00000E+00
    0.11652E-05        -0.81513E-08         0.00000E+00
    0.11669E-05        -0.63507E-08         0.00000E+00
    0.11683E-05        -0.42671E-08         0.00000E+00
    0.11692E-05        -0.20784E-08         0.00000E+00
    0.11694E-05        -0.99693E-09         0.00000E+00
    0.11325E-05        -0.19321E-08         0.00000E+00
    0.11340E-05        -0.36676E-08         0.00000E+00
    0.11373E-05        -0.67518E-08         0.00000E+00
    0.11410E-05        -0.90831E-08         0.00000E+00
    0.11447E-05        -0.10716E-07         0.00000E+00
    0.11484E-05        -0.11726E-07         0.00000E+00
    0.11520E-05        -0.12189E-07         0.00000E+00
    0.11554E-05        -0.12177E-07         0.00000E+00
    0.11586E-05        -0.11747E-07         0.00000E+00
    0.11616E-05        -0.10937E-07         0.00000E+00
    0.11643E-05        -0.97692E-08         0.00000E+00
    0.11667E-05        -0.82460E-08         0.00000E+00
    0.11688E-05        -0.63864E-08         0.00000E+00
    0.11705E-05        -0.42056E-08         0.00000E+00
    0.11712E-05        -0.19574E-08         0.00000E+00
    0.11713E-05        -0.88155E-09         0.00000E+00
    0.11284E-05        -0.20611E-08         0.00000E+00
    0.11304E-05        -0.38918E-08         0.00000E+00
    0.11346E-05        -0.71060E-08         0.00000E+00
    0.11390E-05        -0.94628E-08         0.00000E+00
    0.11434E-05        -0.11051E-07         0.00000E+00
    0.11477E-05        -0.11978E-07         0.00000E+00
    0.11518E-05        -0.12351E-07         0.00000E+00
    0.11557E-05        -0.12261E-07         0.00000E+00
    0.11592E-05        -0.11776E-07         0.00000E+00
    0.11625E-05        -0.10940E-07         0.00000E+00
    0.11656E-05        -0.97675E-08         0.00000E+00
    0.11683E-05        -0.82503E-08         0.00000E+00
    0.11708E-05        -0.63464E-08         0.00000E+00
    0.11727E-05        -0.41327E-08         0.00000E+00
    0.11733E-05        -0.19453E-08         0.00000E+00
    0.11731E-05        -0.91554E-09         0.00000E+00
    0.11242E-05        -0.21847E-08         0.00000E+00
    0.11267E-05        -0.40976E-08         0.00000E+00
    0.11318E-05        -0.74044E-08         0.00000E+00
    0.11371E-05        -0.97334E-08         0.00000E+00
    0.11423E-05        -0.11221E-07         0.00000E+00
    0.11472E-05        -0.12021E-07         0.00000E+00
    0.11517E-05        -0.12274E-07         0.00000E+00
    0.11560E-05        -0.12093E-07         0.00000E+00
    0.11599E-05        -0.11559E-07         0.00000E+00
    0.11635E-05        -0.10715E-07         0.00000E+00
    0.11668E-05        -0.95703E-08         0.00000E+00
    0.11699E-05        -0.81041E-08         0.00000E+00
    0.11728E-05        -0.62281E-08         0.00000E+00
    0.11748E-05        -0.40843E-08         0.00000E+00
    0.11752E-05        -0.20097E-08         0.00000E+00
    0.11749E-05        -0.10204E-08         0.00000E+00
    0.11198E-05        -0.22973E-08         0.00000E+00
    0.11228E-05        -0.42712E-08         0.00000E+00
    0.11291E-05        -0.76134E-08         0.00000E+00
    0.11353E-05        -0.98399E-08         0.00000E+00
    0.11413E-05        -0.11157E-07         0.00000E+00
    0.11468E-05        -0.11778E-07         0.00000E+00
    0.11518E-05        -0.11882E-07         0.00000E+00
    0.11563E-05        -0.11604E-07         0.00000E+00
    0.11605E-05        -0.11029E-07         0.00000E+00
    0.11644E-05        -0.10200E-07         0.00000E+00
    0.11680E-05        -0.91238E-08         0.00000E+00
    0.11715E-05        -0.77489E-08         0.00000E+00
    0.11748E-05        -0.60002E-08         0.00000E+00
    0.11769E-05        -0.40297E-08         0.00000E+00
    0.11771E-05        -0.20491E-08         0.00000E+00
    0.11769E-05        -0.10627E-08         0.00000E+00
    0.11151E-05        -0.23905E-08         0.00000E+00
    0.11190E-05        -0.43914E-08         0.00000E+00
    0.11265E-05        -0.76824E-08         0.00000E+00
    0.11338E-05        -0.97036E-08         0.00000E+00
    0.11405E-05        -0.10766E-07         0.00000E+00
    0.11466E-05        -0.11157E-07         0.00000E+00
    0.11520E-05        -0.11096E-07         0.00000E+00
    0.11568E-05        -0.10724E-07         0.00000E+00
    0.11612E-05        -0.10127E-07         0.00000E+00
    0.11653E-05        -0.93418E-08         0.00000E+00
    0.11691E-05        -0.83721E-08         0.00000E+00
    0.11728E-05        -0.71658E-08         0.00000E+00
    0.11765E-05        -0.56627E-08         0.00000E+00
    0.11787E-05        -0.39216E-08         0.00000E+00
    0.11791E-05        -0.20277E-08         0.00000E+00
    0.11789E-05        -0.10449E-08         0.00000E+00
    0.11104E-05        -0.24501E-08         0.00000E+00
    0.11151E-05        -0.44220E-08         0.00000E+00
    0.11243E-05        -0.75290E-08         0.00000E+00
    0.11327E-05        -0.92073E-08         0.00000E+00
    0.11401E-05        -0.99245E-08         0.00000E+00
    0.11466E-05        -0.10055E-07         0.00000E+00
    0.11523E-05        -0.98372E-08         0.00000E+00
    0.11573E-05        -0.94012E-08         0.00000E+00
    0.11619E-05        -0.88145E-08         0.00000E+00
    0.11661E-05        -0.81064E-08         0.00000E+00
    0.11701E-05        -0.72807E-08         0.00000E+00
    0.11740E-05        -0.63145E-08         0.00000E+00
    0.11779E-05        -0.51446E-08         0.00000E+00
    0.11804E-05        -0.36994E-08         0.00000E+00
    0.11809E-05        -0.19583E-08         0.00000E+00
    0.11809E-05        -0.10153E-08         0.00000E+00
    0.11057E-05        -0.24448E-08         0.00000E+00
    0.11115E-05        -0.42921E-08         0.00000E+00
    0.11224E-05        -0.70083E-08         0.00000E+00
    0.11319E-05        -0.81733E-08         0.00000E+00
    0.11400E-05        -0.84846E-08         0.00000E+00
    0.11468E-05        -0.83772E-08         0.00000E+00
    0.11527E-05        -0.80560E-08         0.00000E+00
    0.11578E-05        -0.76122E-08         0.00000E+00
    0.11625E-05        -0.70868E-08         0.00000E+00
    0.11668E-05        -0.64955E-08         0.00000E+00
    0.11708E-05        -0.58437E-08         0.00000E+00
    0.11749E-05        -0.51490E-08         0.00000E+00
    0.11790E-05        -0.43709E-08         0.00000E+00
    0.11818E-05        -0.33075E-08         0.00000E+00
    0.11827E-05        -0.18048E-08         0.00000E+00
    0.11828E-05        -0.94159E-09         0.00000E+00
    0.11014E-05        -0.23052E-08         0.00000E+00
    0.11085E-05        -0.38457E-08         0.00000E+00
    0.11213E-05        -0.58451E-08         0.00000E+00
    0.11316E-05        -0.63510E-08         0.00000E+00
    0.11401E-05        -0.63109E-08         0.00000E+00
    0.11471E-05        -0.60769E-08         0.00000E+00
    0.11531E-05        -0.57535E-08         0.00000E+00
    0.11583E-05        -0.53830E-08         0.00000E+00
    0.11630E-05        -0.49807E-08         0.00000E+00
    0.11673E-05        -0.45508E-08         0.00000E+00
    0.11714E-05        -0.40960E-08         0.00000E+00
    0.11755E-05        -0.36432E-08         0.00000E+00
    0.11796E-05        -0.32481E-08         0.00000E+00
    0.11828E-05        -0.26566E-08         0.00000E+00
    0.11842E-05        -0.15099E-08         0.00000E+00
    0.11845E-05        -0.77939E-09         0.00000E+00
    0.10981E-05        -0.17308E-08         0.00000E+00
    0.11064E-05        -0.26350E-08         0.00000E+00
    0.11208E-05        -0.35680E-08         0.00000E+00
    0.11317E-05        -0.35446E-08         0.00000E+00
    0.11403E-05        -0.34043E-08         0.00000E+00
    0.11474E-05        -0.32164E-08         0.00000E+00
    0.11534E-05        -0.30118E-08         0.00000E+00
    0.11587E-05        -0.27986E-08         0.00000E+00
    0.11634E-05        -0.25785E-08         0.00000E+00
    0.11677E-05        -0.23505E-08         0.00000E+00
    0.11718E-05        -0.21160E-08         0.00000E+00
    0.11759E-05        -0.18763E-08         0.00000E+00
    0.11799E-05        -0.17044E-08         0.00000E+00
    0.11833E-05        -0.15497E-08         0.00000E+00
    0.11852E-05        -0.10272E-08         0.00000E+00
    0.11857E-05        -0.60872E-09         0.00000E+00
    0.10968E-05         0.00000E+00         0.00000E+00
    0.11057E-05         0.00000E+00         0.00000E+00
    0.11208E-05        -0.32500E-20         0.00000E+00
    0.11318E-05         0.37899E-22         0.00000E+00
    0.11404E-05         0.35619E-20         0.00000E+00
    0.11475E-05         0.00000E+00         0.00000E+00
    0.11535E-05         0.00000E+00         0.00000E+00
    0.11588E-05        -0.33958E-20         0.00000E+00
    0.11635E-05        -0.31128E-20         0.00000E+00
    0.11678E-05         0.31493E-20         0.00000E+00
    0.11720E-05         0.34356E-20         0.00000E+00
    0.11760E-05        -0.34711E-20         0.00000E+00
    0.11800E-05        -0.27545E-21         0.00000E+00
    0.11835E-05         0.34899E-20         0.00000E+00
    0.11856E-05         0.58359E-21         0.00000E+00
    0.11862E-05         0.00000E+00         0.00000E+00
CELL_DATA        450
TENSORS stressef double 
    0.25847E+08         0.41141E+06         0.00000E+00
    0.41141E+06         0.13428E+08         0.00000E+00
    0.00000E+00         0.00000E+00         0.83434E+07
 
    0.26255E+08         0.56842E+06         0.00000E+00
    0.56842E+06         0.14611E+08         0.00000E+00
    0.00000E+00         0.00000E+00         0.96222E+07
 
    0.26406E+08         0.36371E+06         0.00000E+00
    0.36371E+06         0.15482E+08         0.00000E+00
    0.00000E+00         0.00000E+00         0.10115E+08
 
    0.26256E+08         0.96034E+05         0.00000E+00
    0.96034E+05         0.15825E+08         0.00000E+00
    0.00000E+00         0.00000E+00         0.97946E+07
 
    0.25857E+08        -0.15892E+06         0.00000E+00
   -0.15892E+06         0.15619E+08         0.00000E+00
    0.00000E+00         0.00000E+00         0.88166E+07
 
    0.25278E+08        -0.32827E+06         0.00000E+00
   -0.32827E+06         0.15003E+08         0.00000E+00
    0.00000E+00         0.00000E+00         0.73590E+07
 
    0.24481E+08        -0.32680E+06         0.00000E+00
   -0.32680E+06         0.14243E+08         0.00000E+00
    0.00000E+00         0.00000E+00         0.54241E+07
 
    0.23325E+08        -0.12103E+06         0.00000E+00
   -0.12103E+06         0.13699E+08         0.00000E+00
    0.00000E+00         0.00000E+00         0.29643E+07
 
    0.21637E+08        -0.24695E+06         0.00000E+00
   -0.24695E+06         0.13438E+08         0.00000E+00
    0.00000E+00         0.00000E+00         0.48113E+06
 
    0.18015E+08        -0.32868E+06         0.00000E+00
   -0.32868E+06         0.12997E+08         0.00000E+00
    0.00000E+00         0.00000E+00         0.00000E+00
 
    0.14968E+08        -0.11984E+06         0.00000E+00
   -0.11984E+06         0.12663E+08         0.00000E+00
    0.00000E+00         0.00000E+00         0.00000E+00
 
    0.12217E+08         0.87096E+05         0.00000E+00
    0.87096E+05         0.12697E+08         0.00000E+00
    0.00000E+00         0.00000E+00         0.00000E+00
 
    0.94122E+07         0.30242E+06         0.00000E+00
    0.30242E+06         0.13130E+08         0.00000E+00
    0.00000E+00         0.00000E+00         0.00000E+00
 
    0.62878E+07         0.56067E+06         0.00000E+00
    0.56067E+06         0.14023E+08         0.00000E+00
    0.00000E+00         0.00000E+00         0.00000E+00
 
    0.23052E+07         0.10471E+07         0.00000E+00
    0.10471E+07         0.15604E+08         0.00000E+00
    0.00000E+00         0.00000E+00         0.00000E+00
 
    0.24819E+08         0.76254E+06         0.00000E+00
    0.76254E+06         0.10757E+08         0.00000E+00
    0.00000E+00         0.00000E+00         0.54087E+07
 
    0.24527E+08         0.89557E+06         0.00000E+00
    0.89557E+06         0.99448E+07         0.00000E+00
    0.00000E+00         0.00000E+00         0.45615E+07
 
    0.24366E+08         0.71985E+06         0.00000E+00
    0.71985E+06         0.95577E+07         0.00000E+00
    0.00000E+00         0.00000E+00         0.40260E+07
 
    0.24194E+08         0.28876E+06         0.00000E+00
    0.28876E+06         0.95909E+07         0.00000E+00
    0.00000E+00         0.00000E+00         0.34444E+07
 
    0.23901E+08        -0.47738E+05         0.00000E+00
   -0.47738E+05         0.10003E+08         0.00000E+00
    0.00000E+00         0.00000E+00         0.27149E+07
 
    0.23426E+08        -0.22448E+06         0.00000E+00
   -0.22448E+06         0.10740E+08         0.00000E+00
    0.00000E+00         0.00000E+00         0.18141E+07
 
    0.22748E+08        -0.30559E+06         0.00000E+00
   -0.30559E+06         0.11570E+08         0.00000E+00
    0.00000E+00         0.00000E+00         0.76666E+06
 
    0.21578E+08        -0.37270E+06         0.00000E+00
   -0.37270E+06         0.11980E+08         0.00000E+00
    0.00000E+00         0.00000E+00         0.35542E+05
 
    0.19246E+08        -0.61386E+06         0.00000E+00
   -0.61386E+06         0.11775E+08         0.00000E+00
    0.00000E+00         0.00000E+00         0.00000E+00
 
    0.16365E+08        -0.62534E+06         0.00000E+00
   -0.62534E+06         0.11672E+08         0.00000E+00
    0.00000E+00         0.00000E+00         0.00000E+00
 
    0.13423E+08        -0.18535E+06         0.00000E+00
   -0.18535E+06         0.11737E+08         0.00000E+00
    0.00000E+00         0.00000E+00         0.00000E+00
 
    0.10688E+08         0.35409E+06         0.00000E+00
    0.35409E+06         0.11988E+08         0.00000E+00
    0.00000E+00         0.00000E+00         0.00000E+00
 
    0.79304E+07         0.95538E+06         0.00000E+00
    0.95538E+06         0.12534E+08         0.00000E+00
    0.00000E+00         0.00000E+00         0.00000E+00
 
    0.49487E+07         0.17013E+07         0.00000E+00
    0.17013E+07         0.13464E+08         0.00000E+00
    0.00000E+00         0.00000E+00         0.00000E+00
 
    0.16882E+07         0.28748E+07         0.00000E+00
    0.28748E+07         0.14844E+08         0.00000E+00
    0.00000E+00         0.00000E+00         0.00000E+00
 
    0.23500E+08         0.10875E+06         0.00000E+00
    0.10875E+06         0.76946E+07         0.00000E+00
    0.00000E+00         0.00000E+00         0.15403E+07
 
    0.23139E+08         0.62950E+06         0.00000E+00
    0.62950E+06         0.74565E+07         0.00000E+00
    0.00000E+00         0.00000E+00         0.37952E+06
 
    0.22332E+08         0.70608E+06         0.00000E+00
    0.70608E+06         0.75877E+07         0.00000E+00
    0.00000E+00         0.00000E+00         0.46669E+03
 
    0.22027E+08         0.56044E+06         0.00000E+00
    0.56044E+06         0.79226E+07         0.00000E+00
    0.00000E+00         0.00000E+00         0.00000E+00
 
    0.21796E+08         0.40604E+06         0.00000E+00
    0.40604E+06         0.83841E+07         0.00000E+00
    0.00000E+00         0.00000E+00         0.00000E+00
 
    0.21382E+08         0.25967E+06         0.00000E+00
    0.25967E+06         0.87891E+07         0.00000E+00
    0.00000E+00         0.00000E+00         0.00000E+00
 
    0.20675E+08         0.57199E+05         0.00000E+00
    0.57199E+05         0.90312E+07         0.00000E+00
    0.00000E+00         0.00000E+00         0.00000E+00
 
    0.19346E+08        -0.32615E+06         0.00000E+00
   -0.32615E+06         0.91863E+07         0.00000E+00
    0.00000E+00         0.00000E+00         0.00000E+00
 
    0.17259E+08        -0.53133E+06         0.00000E+00
   -0.53133E+06         0.94386E+07         0.00000E+00
    0.00000E+00         0.00000E+00         0.00000E+00
 
    0.14733E+08        -0.38920E+06         0.00000E+00
   -0.38920E+06         0.97872E+07         0.00000E+00
    0.00000E+00         0.00000E+00         0.00000E+00
 
    0.12078E+08         0.98063E+05         0.00000E+00
    0.98063E+05         0.10209E+08         0.00000E+00
    0.00000E+00         0.00000E+00         0.00000E+00
 
    0.94498E+07         0.82025E+06         0.00000E+00
    0.82025E+06         0.10716E+08         0.00000E+00
    0.00000E+00         0.00000E+00         0.00000E+00
 
    0.68176E+07         0.17052E+07         0.00000E+00
    0.17052E+07         0.11402E+08         0.00000E+00
    0.00000E+00         0.00000E+00         0.00000E+00
 
    0.41086E+07         0.28157E+07         0.00000E+00
    0.28157E+07         0.12341E+08         0.00000E+00
    0.00000E+00         0.00000E+00         0.00000E+00
 
    0.13649E+07         0.42885E+07         0.00000E+00
    0.42885E+07         0.13520E+08         0.00000E+00
    0.00000E+00         0.00000E+00         0.00000E+00
 
    0.22151E+08        -0.44978E+05         0.00000E+00
   -0.44978E+05         0.70532E+07         0.00000E+00
    0.00000E+00         0.00000E+00         0.16973E+05
 
    0.21224E+08         0.29087E+06         0.00000E+00
    0.29087E+06         0.70052E+07         0.00000E+00
    0.00000E+00         0.00000E+00         0.00000E+00
 
    0.20509E+08         0.50181E+06         0.00000E+00
    0.50181E+06         0.67091E+07         0.00000E+00
    0.00000E+00         0.00000E+00         0.00000E+00
 
    0.20070E+08         0.65729E+06         0.00000E+00
    0.65729E+06         0.65323E+07         0.00000E+00
    0.00000E+00         0.00000E+00         0.00000E+00
 
    0.19763E+08         0.61407E+06         0.00000E+00
    0.61407E+06         0.65090E+07         0.00000E+00
    0.00000E+00         0.00000E+00         0.00000E+00
 
    0.19293E+08         0.44881E+06         0.00000E+00
    0.44881E+06         0.65771E+07         0.00000E+00
    0.00000E+00         0.00000E+00         0.00000E+00
 
    0.18481E+08         0.19956E+06         0.00000E+00
    0.19956E+06         0.67017E+07         0.00000E+00
    0.00000E+00         0.00000E+00         0.00000E+00
 
    0.17176E+08        -0.50832E+05         0.00000E+00
   -0.50832E+05         0.69389E+07         0.00000E+00
    0.00000E+00         0.00000E+00         0.00000E+00
 
    0.15355E+08        -0.12921E+06         0.00000E+00
   -0.12921E+06         0.73256E+07         0.00000E+00
    0.00000E+00         0.00000E+00         0.00000E+00
 
    0.13167E+08         0.95791E+05         0.00000E+00
    0.95791E+05         0.78297E+07         0.00000E+00
    0.00000E+00         0.00000E+00         0.00000E+00
 
    0.10805E+08         0.64147E+06         0.00000E+00
    0.64147E+06         0.84120E+07         0.00000E+00
    0.00000E+00         0.00000E+00         0.00000E+00
 
    0.83913E+07         0.14635E+07         0.00000E+00
    0.14635E+07         0.90711E+07         0.00000E+00
    0.00000E+00         0.00000E+00         0.00000E+00
 
    0.59652E+07         0.25265E+07         0.00000E+00
    0.25265E+07         0.98412E+07         0.00000E+00
    0.00000E+00         0.00000E+00         0.00000E+00
 
    0.35379E+07         0.38457E+07         0.00000E+00
    0.38457E+07         0.10756E+08         0.00000E+00
    0.00000E+00         0.00000E+00         0.00000E+00
 
    0.11630E+07         0.54676E+07         0.00000E+00
    0.54676E+07         0.11800E+08         0.00000E+00
    0.00000E+00         0.00000E+00         0.00000E+00
 
    0.20321E+08         0.57449E+05         0.00000E+00
    0.57449E+05         0.50311E+07         0.00000E+00
    0.00000E+00         0.00000E+00         0.00000E+00
 
    0.19525E+08         0.12848E+06         0.00000E+00
    0.12848E+06         0.50495E+07         0.00000E+00
    0.00000E+00         0.00000E+00         0.00000E+00
 
    0.18785E+08         0.33168E+06         0.00000E+00
    0.33168E+06         0.49543E+07         0.00000E+00
    0.00000E+00         0.00000E+00         0.00000E+00
 
    0.18241E+08         0.50469E+06         0.00000E+00
    0.50469E+06         0.48126E+07         0.00000E+00
    0.00000E+00         0.00000E+00         0.00000E+00
 
    0.17778E+08         0.55860E+06         0.00000E+00
    0.55860E+06         0.46856E+07         0.00000E+00
    0.00000E+00         0.00000E+00         0.00000E+00
 
    0.17207E+08         0.48591E+06         0.00000E+00
    0.48591E+06         0.46431E+07         0.00000E+00
    0.00000E+00         0.00000E+00         0.00000E+00
 
    0.16361E+08         0.35513E+06         0.00000E+00
    0.35513E+06         0.47238E+07         0.00000E+00
    0.00000E+00         0.00000E+00         0.00000E+00
 
    0.15145E+08         0.26744E+06         0.00000E+00
    0.26744E+06         0.49565E+07         0.00000E+00
    0.00000E+00         0.00000E+00         0.00000E+00
 
    0.13552E+08         0.34144E+06         0.00000E+00
    0.34144E+06         0.53483E+07         0.00000E+00
    0.00000E+00         0.00000E+00         0.00000E+00
 
    0.11662E+08         0.67043E+06         0.00000E+00
    0.67043E+06         0.58732E+07         0.00000E+00
    0.00000E+00         0.00000E+00         0.00000E+00
 
    0.95919E+07         0.12903E+07         0.00000E+00
    0.12903E+07         0.64952E+07         0.00000E+00
    0.00000E+00         0.00000E+00         0.00000E+00
 
    0.74383E+07         0.21933E+07         0.00000E+00
    0.21933E+07         0.71964E+07         0.00000E+00
    0.00000E+00         0.00000E+00         0.00000E+00
 
    0.52619E+07         0.33631E+07         0.00000E+00
    0.33631E+07         0.79792E+07         0.00000E+00
    0.00000E+00         0.00000E+00         0.00000E+00
 
    0.31048E+07         0.47965E+07         0.00000E+00
    0.47965E+07         0.88478E+07         0.00000E+00
    0.00000E+00         0.00000E+00         0.00000E+00
 
    0.10181E+07         0.64965E+07         0.00000E+00
    0.64965E+07         0.97879E+07         0.00000E+00
    0.00000E+00         0.00000E+00         0.00000E+00
 
    0.18460E+08         0.31336E+05         0.00000E+00
    0.31336E+05         0.31119E+07         0.00000E+00
    0.00000E+00         0.00000E+00         0.00000E+00
 
    0.17705E+08         0.11181E+06         0.00000E+00
    0.11181E+06         0.30775E+07         0.00000E+00
    0.00000E+00         0.00000E+00         0.00000E+00
 
    0.17021E+08         0.23325E+06         0.00000E+00
    0.23325E+06         0.30235E+07         0.00000E+00
    0.00000E+00         0.00000E+00         0.00000E+00
 
    0.16423E+08         0.37091E+06         0.00000E+00
    0.37091E+06         0.29232E+07         0.00000E+00
    0.00000E+00         0.00000E+00         0.00000E+00
 
    0.15861E+08         0.45946E+06         0.00000E+00
    0.45946E+06         0.28197E+07         0.00000E+00
    0.00000E+00         0.00000E+00         0.00000E+00
 
    0.15216E+08         0.48726E+06         0.00000E+00
    0.48726E+06         0.27744E+07         0.00000E+00
    0.00000E+00         0.00000E+00         0.00000E+00
 
    0.14373E+08         0.49800E+06         0.00000E+00
    0.49800E+06         0.28419E+07         0.00000E+00
    0.00000E+00         0.00000E+00         0.00000E+00
 
    0.13259E+08         0.57160E+06         0.00000E+00
    0.57160E+06         0.30531E+07         0.00000E+00
    0.00000E+00         0.00000E+00         0.00000E+00
 
    0.11865E+08         0.79600E+06         0.00000E+00
    0.79600E+06         0.34128E+07         0.00000E+00
    0.00000E+00         0.00000E+00         0.00000E+00
 
    0.10235E+08         0.12422E+07         0.00000E+00
    0.12422E+07         0.39034E+07         0.00000E+00
    0.00000E+00         0.00000E+00         0.00000E+00
 
    0.84411E+07         0.19491E+07         0.00000E+00
    0.19491E+07         0.44975E+07         0.00000E+00
    0.00000E+00         0.00000E+00         0.00000E+00
 
    0.65564E+07         0.29264E+07         0.00000E+00
    0.29264E+07         0.51726E+07         0.00000E+00
    0.00000E+00         0.00000E+00         0.00000E+00
 
    0.46402E+07         0.41689E+07         0.00000E+00
    0.41689E+07         0.59161E+07         0.00000E+00
    0.00000E+00         0.00000E+00         0.00000E+00
 
    0.27402E+07         0.56682E+07         0.00000E+00
    0.56682E+07         0.67180E+07         0.00000E+00
    0.00000E+00         0.00000E+00         0.00000E+00
 
    0.89986E+06         0.74115E+07         0.00000E+00
    0.74115E+07         0.75641E+07         0.00000E+00
    0.00000E+00         0.00000E+00         0.00000E+00
 
    0.16560E+08         0.13309E+05         0.00000E+00
    0.13309E+05         0.11590E+07         0.00000E+00
    0.00000E+00         0.00000E+00         0.00000E+00
 
    0.15840E+08         0.69361E+05         0.00000E+00
    0.69361E+05         0.11274E+07         0.00000E+00
    0.00000E+00         0.00000E+00         0.00000E+00
 
    0.15189E+08         0.16131E+06         0.00000E+00
    0.16131E+06         0.10672E+07         0.00000E+00
    0.00000E+00         0.00000E+00         0.00000E+00
 
    0.14586E+08         0.27418E+06         0.00000E+00
    0.27418E+06         0.98878E+06         0.00000E+00
    0.00000E+00         0.00000E+00         0.00000E+00
 
    0.13989E+08         0.38689E+06         0.00000E+00
    0.38689E+06         0.91490E+06         0.00000E+00
    0.00000E+00         0.00000E+00         0.00000E+00
 
    0.13323E+08         0.49538E+06         0.00000E+00
    0.49538E+06         0.88942E+06         0.00000E+00
    0.00000E+00         0.00000E+00         0.00000E+00
 
    0.12513E+08         0.62974E+06         0.00000E+00
    0.62974E+06         0.95590E+06         0.00000E+00
    0.00000E+00         0.00000E+00         0.00000E+00
 
    0.11508E+08         0.84560E+06         0.00000E+00
    0.84560E+06         0.11431E+07         0.00000E+00
    0.00000E+00         0.00000E+00         0.00000E+00
 
    0.10294E+08         0.12068E+07         0.00000E+00
    0.12068E+07         0.14589E+07         0.00000E+00
    0.00000E+00         0.00000E+00         0.00000E+00
 
    0.88944E+07         0.17679E+07         0.00000E+00
    0.17679E+07         0.18936E+07         0.00000E+00
    0.00000E+00         0.00000E+00         0.00000E+00
 
    0.73553E+07         0.25647E+07         0.00000E+00
    0.25647E+07         0.24277E+07         0.00000E+00
    0.00000E+00         0.00000E+00         0.00000E+00
 
    0.57296E+07         0.36125E+07         0.00000E+00
    0.36125E+07         0.30406E+07         0.00000E+00
    0.00000E+00         0.00000E+00         0.00000E+00
 
    0.40669E+07         0.49122E+07         0.00000E+00
    0.49122E+07         0.37148E+07         0.00000E+00
    0.00000E+00         0.00000E+00         0.00000E+00
 
    0.24099E+07         0.64556E+07         0.00000E+00
    0.64556E+07         0.44358E+07         0.00000E+00
    0.00000E+00         0.00000E+00         0.00000E+00
 
    0.79384E+06         0.82270E+07         0.00000E+00
    0.82270E+07         0.51898E+07         0.00000E+00
    0.00000E+00         0.00000E+00         0.00000E+00
 
    0.14612E+08        -0.34517E+04         0.00000E+00
   -0.34517E+04        -0.80891E+06         0.00000E+00
    0.00000E+00         0.00000E+00         0.00000E+00
 
    0.13934E+08         0.24201E+05         0.00000E+00
    0.24201E+05        -0.84142E+06         0.00000E+00
    0.00000E+00         0.00000E+00         0.00000E+00
 
    0.13317E+08         0.95032E+05         0.00000E+00
    0.95032E+05        -0.89813E+06         0.00000E+00
    0.00000E+00         0.00000E+00         0.00000E+00
 
    0.12735E+08         0.20241E+06         0.00000E+00
    0.20241E+06        -0.96566E+06         0.00000E+00
    0.00000E+00         0.00000E+00         0.00000E+00
 
    0.12150E+08         0.34076E+06         0.00000E+00
    0.34076E+06        -0.10212E+07         0.00000E+00
    0.00000E+00         0.00000E+00         0.00000E+00
 
    0.11509E+08         0.51564E+06         0.00000E+00
    0.51564E+06        -0.10338E+07         0.00000E+00
    0.00000E+00         0.00000E+00         0.00000E+00
 
    0.10762E+08         0.75047E+06         0.00000E+00
    0.75047E+06        -0.97147E+06         0.00000E+00
    0.00000E+00         0.00000E+00         0.00000E+00
 
    0.98724E+07         0.10846E+07         0.00000E+00
    0.10846E+07        -0.81109E+06         0.00000E+00
    0.00000E+00         0.00000E+00         0.00000E+00
 
    0.88272E+07         0.15639E+07         0.00000E+00
    0.15639E+07        -0.54339E+06         0.00000E+00
    0.00000E+00         0.00000E+00         0.00000E+00
 
    0.76376E+07         0.22297E+07         0.00000E+00
    0.22297E+07        -0.17254E+06         0.00000E+00
    0.00000E+00         0.00000E+00         0.00000E+00
 
    0.63325E+07         0.31117E+07         0.00000E+00
    0.31117E+07         0.28831E+06         0.00000E+00
    0.00000E+00         0.00000E+00         0.00000E+00
 
    0.49494E+07         0.42258E+07         0.00000E+00
    0.42258E+07         0.82238E+06         0.00000E+00
    0.00000E+00         0.00000E+00         0.00000E+00
 
    0.35266E+07         0.55754E+07         0.00000E+00
    0.55754E+07         0.14131E+07         0.00000E+00
    0.00000E+00         0.00000E+00         0.00000E+00
 
    0.20988E+07         0.71540E+07         0.00000E+00
    0.71540E+07         0.20455E+07         0.00000E+00
    0.00000E+00         0.00000E+00         0.00000E+00
 
    0.69379E+06         0.89481E+07         0.00000E+00
    0.89481E+07         0.27072E+07         0.00000E+00
    0.00000E+00         0.00000E+00         0.00000E+00
 
    0.12617E+08        -0.20388E+05         0.00000E+00
   -0.20388E+05        -0.27933E+07         0.00000E+00
    0.00000E+00         0.00000E+00         0.00000E+00
 
    0.11989E+08        -0.19926E+05         0.00000E+00
   -0.19926E+05        -0.28253E+07         0.00000E+00
    0.00000E+00         0.00000E+00         0.00000E+00
 
    0.11418E+08         0.35028E+05         0.00000E+00
    0.35028E+05        -0.28795E+07         0.00000E+00
    0.00000E+00         0.00000E+00         0.00000E+00
 
    0.10879E+08         0.14382E+06         0.00000E+00
    0.14382E+06        -0.29410E+07         0.00000E+00
    0.00000E+00         0.00000E+00         0.00000E+00
 
    0.10338E+08         0.30865E+06         0.00000E+00
    0.30865E+06        -0.29896E+07         0.00000E+00
    0.00000E+00         0.00000E+00         0.00000E+00
 
    0.97553E+07         0.53908E+06         0.00000E+00
    0.53908E+06        -0.30010E+07         0.00000E+00
    0.00000E+00         0.00000E+00         0.00000E+00
 
    0.90955E+07         0.85501E+06         0.00000E+00
    0.85501E+06        -0.29514E+07         0.00000E+00
    0.00000E+00         0.00000E+00         0.00000E+00
 
    0.83308E+07         0.12855E+07         0.00000E+00
    0.12855E+07        -0.28225E+07         0.00000E+00
    0.00000E+00         0.00000E+00         0.00000E+00
 
    0.74494E+07         0.18638E+07         0.00000E+00
    0.18638E+07        -0.26055E+07         0.00000E+00
    0.00000E+00         0.00000E+00         0.00000E+00
 
    0.64556E+07         0.26208E+07         0.00000E+00
    0.26208E+07        -0.23011E+07         0.00000E+00
    0.00000E+00         0.00000E+00         0.00000E+00
 
    0.53673E+07         0.35801E+07         0.00000E+00
    0.35801E+07        -0.19178E+07         0.00000E+00
    0.00000E+00         0.00000E+00         0.00000E+00
 
    0.42102E+07         0.47553E+07         0.00000E+00
    0.47553E+07        -0.14682E+07         0.00000E+00
    0.00000E+00         0.00000E+00         0.00000E+00
 
    0.30125E+07         0.61505E+07         0.00000E+00
    0.61505E+07        -0.96618E+06         0.00000E+00
    0.00000E+00         0.00000E+00         0.00000E+00
 
    0.18010E+07         0.77613E+07         0.00000E+00
    0.77613E+07        -0.42479E+06         0.00000E+00
    0.00000E+00         0.00000E+00         0.00000E+00
 
    0.59742E+06         0.95766E+07         0.00000E+00
    0.95766E+07         0.14500E+06         0.00000E+00
    0.00000E+00         0.00000E+00         0.00000E+00
 
    0.10574E+08        -0.37250E+05         0.00000E+00
   -0.37250E+05        -0.47937E+07         0.00000E+00
    0.00000E+00         0.00000E+00         0.00000E+00
 
    0.10005E+08        -0.63024E+05         0.00000E+00
   -0.63024E+05        -0.48259E+07         0.00000E+00
    0.00000E+00         0.00000E+00         0.00000E+00
 
    0.94955E+07        -0.21835E+05         0.00000E+00
   -0.21835E+05        -0.48801E+07         0.00000E+00
    0.00000E+00         0.00000E+00         0.00000E+00
 
    0.90192E+07         0.89891E+05         0.00000E+00
    0.89891E+05        -0.49418E+07         0.00000E+00
    0.00000E+00         0.00000E+00         0.00000E+00
 
    0.85472E+07         0.27843E+06         0.00000E+00
    0.27843E+06        -0.49929E+07         0.00000E+00
    0.00000E+00         0.00000E+00         0.00000E+00
 
    0.80486E+07         0.55484E+06         0.00000E+00
    0.55484E+06        -0.50137E+07         0.00000E+00
    0.00000E+00         0.00000E+00         0.00000E+00
 
    0.74946E+07         0.93619E+06         0.00000E+00
    0.93619E+06        -0.49853E+07         0.00000E+00
    0.00000E+00         0.00000E+00         0.00000E+00
 
    0.68636E+07         0.14447E+07         0.00000E+00
    0.14447E+07        -0.48931E+07         0.00000E+00
    0.00000E+00         0.00000E+00         0.00000E+00
 
    0.61444E+07         0.21050E+07         0.00000E+00
    0.21050E+07        -0.47288E+07         0.00000E+00
    0.00000E+00         0.00000E+00         0.00000E+00
 
    0.53373E+07         0.29398E+07         0.00000E+00
    0.29398E+07        -0.44914E+07         0.00000E+00
    0.00000E+00         0.00000E+00         0.00000E+00
 
    0.44525E+07         0.39671E+07         0.00000E+00
    0.39671E+07        -0.41858E+07         0.00000E+00
    0.00000E+00         0.00000E+00         0.00000E+00
 
    0.35070E+07         0.51980E+07         0.00000E+00
    0.51980E+07        -0.38211E+07         0.00000E+00
    0.00000E+00         0.00000E+00         0.00000E+00
 
    0.25210E+07         0.66358E+07         0.00000E+00
    0.66358E+07        -0.34079E+07         0.00000E+00
    0.00000E+00         0.00000E+00         0.00000E+00
 
    0.15143E+07         0.82774E+07         0.00000E+00
    0.82774E+07        -0.29570E+07         0.00000E+00
    0.00000E+00         0.00000E+00         0.00000E+00
 
    0.50411E+06         0.10114E+08         0.00000E+00
    0.10114E+08        -0.24777E+07         0.00000E+00
    0.00000E+00         0.00000E+00         0.00000E+00
 
    0.84824E+07        -0.54285E+05         0.00000E+00
   -0.54285E+05        -0.68108E+07         0.00000E+00
    0.00000E+00         0.00000E+00         0.00000E+00
 
    0.79850E+07        -0.10686E+06         0.00000E+00
   -0.10686E+06        -0.68446E+07         0.00000E+00
    0.00000E+00         0.00000E+00         0.00000E+00
 
    0.75501E+07        -0.80049E+05         0.00000E+00
   -0.80049E+05        -0.69024E+07         0.00000E+00
    0.00000E+00         0.00000E+00         0.00000E+00
 
    0.71544E+07         0.32821E+05         0.00000E+00
    0.32821E+05        -0.69702E+07         0.00000E+00
    0.00000E+00         0.00000E+00         0.00000E+00
 
    0.67719E+07         0.24024E+06         0.00000E+00
    0.24024E+06        -0.70319E+07         0.00000E+00
    0.00000E+00         0.00000E+00         0.00000E+00
 
    0.63762E+07         0.55354E+06         0.00000E+00
    0.55354E+06        -0.70706E+07         0.00000E+00
    0.00000E+00         0.00000E+00         0.00000E+00
 
    0.59431E+07         0.98733E+06         0.00000E+00
    0.98733E+06        -0.70706E+07         0.00000E+00
    0.00000E+00         0.00000E+00         0.00000E+00
 
    0.54539E+07         0.15589E+07         0.00000E+00
    0.15589E+07        -0.70194E+07         0.00000E+00
    0.00000E+00         0.00000E+00         0.00000E+00
 
    0.48975E+07         0.22866E+07         0.00000E+00
    0.22866E+07        -0.69096E+07         0.00000E+00
    0.00000E+00         0.00000E+00         0.00000E+00
 
    0.42714E+07         0.31872E+07         0.00000E+00
    0.31872E+07        -0.67387E+07         0.00000E+00
    0.00000E+00         0.00000E+00         0.00000E+00
 
    0.35804E+07         0.42738E+07         0.00000E+00
    0.42738E+07        -0.65093E+07         0.00000E+00
    0.00000E+00         0.00000E+00         0.00000E+00
 
    0.28352E+07         0.55547E+07         0.00000E+00
    0.55547E+07        -0.62275E+07         0.00000E+00
    0.00000E+00         0.00000E+00         0.00000E+00
 
    0.20496E+07         0.70324E+07         0.00000E+00
    0.70324E+07        -0.59011E+07         0.00000E+00
    0.00000E+00         0.00000E+00         0.00000E+00
 
    0.12380E+07         0.87040E+07         0.00000E+00
    0.87040E+07        -0.55385E+07         0.00000E+00
    0.00000E+00         0.00000E+00         0.00000E+00
 
    0.41376E+06         0.10563E+08         0.00000E+00
    0.10563E+08        -0.51474E+07         0.00000E+00
    0.00000E+00         0.00000E+00         0.00000E+00
 
    0.63419E+07        -0.72350E+05         0.00000E+00
   -0.72350E+05        -0.88450E+07         0.00000E+00
    0.00000E+00         0.00000E+00         0.00000E+00
 
    0.59258E+07        -0.15410E+06         0.00000E+00
   -0.15410E+06        -0.88824E+07         0.00000E+00
    0.00000E+00         0.00000E+00         0.00000E+00
 
    0.55794E+07        -0.14442E+06         0.00000E+00
   -0.14442E+06        -0.89476E+07         0.00000E+00
    0.00000E+00         0.00000E+00         0.00000E+00
 
    0.52804E+07        -0.34213E+05         0.00000E+00
   -0.34213E+05        -0.90271E+07         0.00000E+00
    0.00000E+00         0.00000E+00         0.00000E+00
 
    0.50045E+07         0.18623E+06         0.00000E+00
    0.18623E+06        -0.91059E+07         0.00000E+00
    0.00000E+00         0.00000E+00         0.00000E+00
 
    0.47275E+07         0.52784E+06         0.00000E+00
    0.52784E+06        -0.91691E+07         0.00000E+00
    0.00000E+00         0.00000E+00         0.00000E+00
 
    0.44276E+07         0.10031E+07         0.00000E+00
    0.10031E+07        -0.92029E+07         0.00000E+00
    0.00000E+00         0.00000E+00         0.00000E+00
 
    0.40876E+07         0.16254E+07         0.00000E+00
    0.16254E+07        -0.91962E+07         0.00000E+00
    0.00000E+00         0.00000E+00         0.00000E+00
 
    0.36959E+07         0.24085E+07         0.00000E+00
    0.24085E+07        -0.91418E+07         0.00000E+00
    0.00000E+00         0.00000E+00         0.00000E+00
 
    0.32476E+07         0.33644E+07         0.00000E+00
    0.33644E+07        -0.90365E+07         0.00000E+00
    0.00000E+00         0.00000E+00         0.00000E+00
 
    0.27439E+07         0.45025E+07         0.00000E+00
    0.45025E+07        -0.88811E+07         0.00000E+00
    0.00000E+00         0.00000E+00         0.00000E+00
 
    0.21904E+07         0.58282E+07         0.00000E+00
    0.58282E+07        -0.86793E+07         0.00000E+00
    0.00000E+00         0.00000E+00         0.00000E+00
 
    0.15961E+07         0.73429E+07         0.00000E+00
    0.73429E+07        -0.84366E+07         0.00000E+00
    0.00000E+00         0.00000E+00         0.00000E+00
 
    0.97136E+06         0.90438E+07         0.00000E+00
    0.90438E+07        -0.81593E+07         0.00000E+00
    0.00000E+00         0.00000E+00         0.00000E+00
 
    0.32634E+06         0.10925E+08         0.00000E+00
    0.10925E+08        -0.78538E+07         0.00000E+00
    0.00000E+00         0.00000E+00         0.00000E+00
 
    0.41484E+07        -0.92564E+05         0.00000E+00
   -0.92564E+05        -0.10897E+08         0.00000E+00
    0.00000E+00         0.00000E+00         0.00000E+00
 
    0.38241E+07        -0.20770E+06         0.00000E+00
   -0.20770E+06        -0.10940E+08         0.00000E+00
    0.00000E+00         0.00000E+00         0.00000E+00
 
    0.35795E+07        -0.21947E+06         0.00000E+00
   -0.21947E+06        -0.11016E+08         0.00000E+00
    0.00000E+00         0.00000E+00         0.00000E+00
 
    0.33920E+07        -0.11692E+06         0.00000E+00
   -0.11692E+06        -0.11112E+08         0.00000E+00
    0.00000E+00         0.00000E+00         0.00000E+00
 
    0.32375E+07         0.11026E+06         0.00000E+00
    0.11026E+06        -0.11213E+08         0.00000E+00
    0.00000E+00         0.00000E+00         0.00000E+00
 
    0.30929E+07         0.47227E+06         0.00000E+00
    0.47227E+06        -0.11305E+08         0.00000E+00
    0.00000E+00         0.00000E+00         0.00000E+00
 
    0.29371E+07         0.97952E+06         0.00000E+00
    0.97952E+06        -0.11377E+08         0.00000E+00
    0.00000E+00         0.00000E+00         0.00000E+00
 
    0.27531E+07         0.16424E+07         0.00000E+00
    0.16424E+07        -0.11417E+08         0.00000E+00
    0.00000E+00         0.00000E+00         0.00000E+00
 
    0.25288E+07         0.24709E+07         0.00000E+00
    0.24709E+07        -0.11418E+08         0.00000E+00
    0.00000E+00         0.00000E+00         0.00000E+00
 
    0.22571E+07         0.34733E+07         0.00000E+00
    0.34733E+07        -0.11377E+08         0.00000E+00
    0.00000E+00         0.00000E+00         0.00000E+00
 
    0.19361E+07         0.46559E+07         0.00000E+00
    0.46559E+07        -0.11293E+08         0.00000E+00
    0.00000E+00         0.00000E+00         0.00000E+00
 
    0.15681E+07         0.60217E+07         0.00000E+00
    0.60217E+07        -0.11168E+08         0.00000E+00
    0.00000E+00         0.00000E+00         0.00000E+00
 
    0.11582E+07         0.75707E+07         0.00000E+00
    0.75707E+07        -0.11006E+08         0.00000E+00
    0.00000E+00         0.00000E+00         0.00000E+00
 
    0.71357E+06         0.92997E+07         0.00000E+00
    0.92997E+07        -0.10811E+08         0.00000E+00
    0.00000E+00         0.00000E+00         0.00000E+00
 
    0.24174E+06         0.11203E+08         0.00000E+00
    0.11203E+08        -0.10588E+08         0.00000E+00
    0.00000E+00         0.00000E+00         0.00000E+00
 
    0.18964E+07        -0.11604E+06         0.00000E+00
   -0.11604E+06        -0.12966E+08         0.00000E+00
    0.00000E+00         0.00000E+00         0.00000E+00
 
    0.16748E+07        -0.27043E+06         0.00000E+00
   -0.27043E+06        -0.13016E+08         0.00000E+00
    0.00000E+00         0.00000E+00         0.00000E+00
 
    0.15451E+07        -0.30909E+06         0.00000E+00
   -0.30909E+06        -0.13106E+08         0.00000E+00
    0.00000E+00         0.00000E+00         0.00000E+00
 
    0.14830E+07        -0.21978E+06         0.00000E+00
   -0.21978E+06        -0.13222E+08         0.00000E+00
    0.00000E+00         0.00000E+00         0.00000E+00
 
    0.14638E+07         0.78761E+04         0.00000E+00
    0.78761E+04        -0.13350E+08         0.00000E+00
    0.00000E+00         0.00000E+00         0.00000E+00
 
    0.14638E+07         0.38308E+06         0.00000E+00
    0.38308E+06        -0.13475E+08         0.00000E+00
    0.00000E+00         0.00000E+00         0.00000E+00
 
    0.14620E+07         0.91426E+06         0.00000E+00
    0.91426E+06        -0.13586E+08         0.00000E+00
    0.00000E+00         0.00000E+00         0.00000E+00
 
    0.14407E+07         0.16092E+07         0.00000E+00
    0.16092E+07        -0.13674E+08         0.00000E+00
    0.00000E+00         0.00000E+00         0.00000E+00
 
    0.13869E+07         0.24746E+07         0.00000E+00
    0.24746E+07        -0.13731E+08         0.00000E+00
    0.00000E+00         0.00000E+00         0.00000E+00
 
    0.12918E+07         0.35161E+07         0.00000E+00
    0.35161E+07        -0.13752E+08         0.00000E+00
    0.00000E+00         0.00000E+00         0.00000E+00
 
    0.11511E+07         0.47369E+07         0.00000E+00
    0.47369E+07        -0.13737E+08         0.00000E+00
    0.00000E+00         0.00000E+00         0.00000E+00
 
    0.96423E+06         0.61383E+07         0.00000E+00
    0.61383E+07        -0.13686E+08         0.00000E+00
    0.00000E+00         0.00000E+00         0.00000E+00
 
    0.73357E+06         0.77188E+07         0.00000E+00
    0.77188E+07        -0.13601E+08         0.00000E+00
    0.00000E+00         0.00000E+00         0.00000E+00
 
    0.46355E+06         0.94746E+07         0.00000E+00
    0.94746E+07        -0.13485E+08         0.00000E+00
    0.00000E+00         0.00000E+00         0.00000E+00
 
    0.15967E+06         0.11400E+08         0.00000E+00
    0.11400E+08        -0.13342E+08         0.00000E+00
    0.00000E+00         0.00000E+00         0.00000E+00
 
   -0.42145E+06        -0.14375E+06         0.00000E+00
   -0.14375E+06        -0.15053E+08         0.00000E+00
    0.00000E+00         0.00000E+00         0.00000E+00
 
   -0.52860E+06        -0.34458E+06         0.00000E+00
   -0.34458E+06        -0.15112E+08         0.00000E+00
    0.00000E+00         0.00000E+00         0.00000E+00
 
   -0.52999E+06        -0.41630E+06         0.00000E+00
   -0.41630E+06        -0.15219E+08         0.00000E+00
    0.00000E+00         0.00000E+00         0.00000E+00
 
   -0.45272E+06        -0.34603E+06         0.00000E+00
   -0.34603E+06        -0.15357E+08         0.00000E+00
    0.00000E+00         0.00000E+00         0.00000E+00
 
   -0.32352E+06        -0.12384E+06         0.00000E+00
   -0.12384E+06        -0.15513E+08         0.00000E+00
    0.00000E+00         0.00000E+00         0.00000E+00
 
   -0.16727E+06         0.25811E+06         0.00000E+00
    0.25811E+06        -0.15673E+08         0.00000E+00
    0.00000E+00         0.00000E+00         0.00000E+00
 
   -0.59598E+04         0.80623E+06         0.00000E+00
    0.80623E+06        -0.15825E+08         0.00000E+00
    0.00000E+00         0.00000E+00         0.00000E+00
 
    0.14207E+06         0.15258E+07         0.00000E+00
    0.15258E+07        -0.15960E+08         0.00000E+00
    0.00000E+00         0.00000E+00         0.00000E+00
 
    0.26249E+06         0.24211E+07         0.00000E+00
    0.24211E+07        -0.16071E+08         0.00000E+00
    0.00000E+00         0.00000E+00         0.00000E+00
 
    0.34505E+06         0.34950E+07         0.00000E+00
    0.34950E+07        -0.16153E+08         0.00000E+00
    0.00000E+00         0.00000E+00         0.00000E+00
 
    0.38341E+06         0.47487E+07         0.00000E+00
    0.47487E+07        -0.16204E+08         0.00000E+00
    0.00000E+00         0.00000E+00         0.00000E+00
 
    0.37480E+06         0.61814E+07         0.00000E+00
    0.61814E+07        -0.16223E+08         0.00000E+00
    0.00000E+00         0.00000E+00         0.00000E+00
 
    0.31947E+06         0.77905E+07         0.00000E+00
    0.77905E+07        -0.16212E+08         0.00000E+00
    0.00000E+00         0.00000E+00         0.00000E+00
 
    0.21987E+06         0.95713E+07         0.00000E+00
    0.95713E+07        -0.16172E+08         0.00000E+00
    0.00000E+00         0.00000E+00         0.00000E+00
 
    0.79710E+05         0.11518E+08         0.00000E+00
    0.11518E+08        -0.16107E+08         0.00000E+00
    0.00000E+00         0.00000E+00         0.00000E+00
 
   -0.28142E+07        -0.17641E+06         0.00000E+00
   -0.17641E+06        -0.17158E+08         0.00000E+00
    0.00000E+00         0.00000E+00         0.00000E+00
 
   -0.27933E+07        -0.43181E+06         0.00000E+00
   -0.43181E+06        -0.17227E+08         0.00000E+00
    0.00000E+00         0.00000E+00         0.00000E+00
 
   -0.26519E+07        -0.54309E+06         0.00000E+00
   -0.54309E+06        -0.17351E+08         0.00000E+00
    0.00000E+00         0.00000E+00         0.00000E+00
 
   -0.24212E+07        -0.49748E+06         0.00000E+00
   -0.49748E+06        -0.17514E+08         0.00000E+00
    0.00000E+00         0.00000E+00         0.00000E+00
 
   -0.21306E+07        -0.28616E+06         0.00000E+00
   -0.28616E+06        -0.17699E+08         0.00000E+00
    0.00000E+00         0.00000E+00         0.00000E+00
 
   -0.18071E+07         0.96909E+05         0.00000E+00
    0.96909E+05        -0.17893E+08         0.00000E+00
    0.00000E+00         0.00000E+00         0.00000E+00
 
   -0.14738E+07         0.65593E+06         0.00000E+00
    0.65593E+06        -0.18085E+08         0.00000E+00
    0.00000E+00         0.00000E+00         0.00000E+00
 
   -0.11501E+07         0.13938E+07         0.00000E+00
    0.13938E+07        -0.18266E+08         0.00000E+00
    0.00000E+00         0.00000E+00         0.00000E+00
 
   -0.85154E+06         0.23125E+07         0.00000E+00
    0.23125E+07        -0.18428E+08         0.00000E+00
    0.00000E+00         0.00000E+00         0.00000E+00
 
   -0.58955E+06         0.34128E+07         0.00000E+00
    0.34128E+07        -0.18568E+08         0.00000E+00
    0.00000E+00         0.00000E+00         0.00000E+00
 
   -0.37222E+06         0.46941E+07         0.00000E+00
    0.46941E+07        -0.18682E+08         0.00000E+00
    0.00000E+00         0.00000E+00         0.00000E+00
 
   -0.20420E+06         0.61541E+07         0.00000E+00
    0.61541E+07        -0.18769E+08         0.00000E+00
    0.00000E+00         0.00000E+00         0.00000E+00
 
   -0.86945E+05         0.77885E+07         0.00000E+00
    0.77885E+07        -0.18830E+08         0.00000E+00
    0.00000E+00         0.00000E+00         0.00000E+00
 
   -0.19274E+05         0.95921E+07         0.00000E+00
    0.95921E+07        -0.18864E+08         0.00000E+00
    0.00000E+00         0.00000E+00         0.00000E+00
 
    0.12218E+04         0.11559E+08         0.00000E+00
    0.11559E+08        -0.18874E+08         0.00000E+00
    0.00000E+00         0.00000E+00         0.00000E+00
 
   -0.52920E+07        -0.21450E+06         0.00000E+00
   -0.21450E+06        -0.19282E+08         0.00000E+00
    0.00000E+00         0.00000E+00         0.00000E+00
 
   -0.51270E+07        -0.53306E+06         0.00000E+00
   -0.53306E+06        -0.19361E+08         0.00000E+00
    0.00000E+00         0.00000E+00         0.00000E+00
 
   -0.48269E+07        -0.69028E+06         0.00000E+00
   -0.69028E+06        -0.19503E+08         0.00000E+00
    0.00000E+00         0.00000E+00         0.00000E+00
 
   -0.44278E+07        -0.67445E+06         0.00000E+00
   -0.67445E+06        -0.19689E+08         0.00000E+00
    0.00000E+00         0.00000E+00         0.00000E+00
 
   -0.39629E+07        -0.47864E+06         0.00000E+00
   -0.47864E+06        -0.19903E+08         0.00000E+00
    0.00000E+00         0.00000E+00         0.00000E+00
 
   -0.34613E+07        -0.99192E+05         0.00000E+00
   -0.99192E+05        -0.20130E+08         0.00000E+00
    0.00000E+00         0.00000E+00         0.00000E+00
 
   -0.29478E+07         0.46549E+06         0.00000E+00
    0.46549E+06        -0.20359E+08         0.00000E+00
    0.00000E+00         0.00000E+00         0.00000E+00
 
   -0.24426E+07         0.12159E+07         0.00000E+00
    0.12159E+07        -0.20582E+08         0.00000E+00
    0.00000E+00         0.00000E+00         0.00000E+00
 
   -0.19618E+07         0.21519E+07         0.00000E+00
    0.21519E+07        -0.20793E+08         0.00000E+00
    0.00000E+00         0.00000E+00         0.00000E+00
 
   -0.15181E+07         0.32725E+07         0.00000E+00
    0.32725E+07        -0.20987E+08         0.00000E+00
    0.00000E+00         0.00000E+00         0.00000E+00
 
   -0.11209E+07         0.45760E+07         0.00000E+00
    0.45760E+07        -0.21161E+08         0.00000E+00
    0.00000E+00         0.00000E+00         0.00000E+00
 
   -0.77688E+06         0.60588E+07         0.00000E+00
    0.60588E+07        -0.21313E+08         0.00000E+00
    0.00000E+00         0.00000E+00         0.00000E+00
 
   -0.48889E+06         0.77153E+07         0.00000E+00
    0.77153E+07        -0.21443E+08         0.00000E+00
    0.00000E+00         0.00000E+00         0.00000E+00
 
   -0.25626E+06         0.95390E+07         0.00000E+00
    0.95390E+07        -0.21549E+08         0.00000E+00
    0.00000E+00         0.00000E+00         0.00000E+00
 
   -0.76745E+05         0.11524E+08         0.00000E+00
    0.11524E+08        -0.21634E+08         0.00000E+00
    0.00000E+00         0.00000E+00         0.00000E+00
 
   -0.78654E+07        -0.25822E+06         0.00000E+00
   -0.25822E+06        -0.21424E+08         0.00000E+00
    0.00000E+00         0.00000E+00         0.00000E+00
 
   -0.75373E+07        -0.64848E+06         0.00000E+00
   -0.64848E+06        -0.21514E+08         0.00000E+00
    0.00000E+00         0.00000E+00         0.00000E+00
 
   -0.70607E+07        -0.85747E+06         0.00000E+00
   -0.85747E+06        -0.21673E+08         0.00000E+00
    0.00000E+00         0.00000E+00         0.00000E+00
 
   -0.64775E+07        -0.87560E+06         0.00000E+00
   -0.87560E+06        -0.21882E+08         0.00000E+00
    0.00000E+00         0.00000E+00         0.00000E+00
 
   -0.58250E+07        -0.69884E+06         0.00000E+00
   -0.69884E+06        -0.22121E+08         0.00000E+00
    0.00000E+00         0.00000E+00         0.00000E+00
 
   -0.51351E+07        -0.32675E+06         0.00000E+00
   -0.32675E+06        -0.22376E+08         0.00000E+00
    0.00000E+00         0.00000E+00         0.00000E+00
 
   -0.44337E+07         0.23913E+06         0.00000E+00
    0.23913E+06        -0.22637E+08         0.00000E+00
    0.00000E+00         0.00000E+00         0.00000E+00
 
   -0.37416E+07         0.99658E+06         0.00000E+00
    0.99658E+06        -0.22897E+08         0.00000E+00
    0.00000E+00         0.00000E+00         0.00000E+00
 
   -0.30751E+07         0.19434E+07         0.00000E+00
    0.19434E+07        -0.23151E+08         0.00000E+00
    0.00000E+00         0.00000E+00         0.00000E+00
 
   -0.24472E+07         0.30777E+07         0.00000E+00
    0.30777E+07        -0.23394E+08         0.00000E+00
    0.00000E+00         0.00000E+00         0.00000E+00
 
   -0.18685E+07         0.43970E+07         0.00000E+00
    0.43970E+07        -0.23626E+08         0.00000E+00
    0.00000E+00         0.00000E+00         0.00000E+00
 
   -0.13476E+07         0.58975E+07         0.00000E+00
    0.58975E+07        -0.23841E+08         0.00000E+00
    0.00000E+00         0.00000E+00         0.00000E+00
 
   -0.88983E+06         0.75725E+07         0.00000E+00
    0.75725E+07        -0.24039E+08         0.00000E+00
    0.00000E+00         0.00000E+00         0.00000E+00
 
   -0.49434E+06         0.94130E+07         0.00000E+00
    0.94130E+07        -0.24216E+08         0.00000E+00
    0.00000E+00         0.00000E+00         0.00000E+00
 
   -0.15576E+06         0.11413E+08         0.00000E+00
    0.11413E+08        -0.24377E+08         0.00000E+00
    0.00000E+00         0.00000E+00         0.00000E+00
 
   -0.10545E+08        -0.30750E+06         0.00000E+00
   -0.30750E+06        -0.23585E+08         0.00000E+00
    0.00000E+00         0.00000E+00         0.00000E+00
 
   -0.10032E+08        -0.77742E+06         0.00000E+00
   -0.77742E+06        -0.23685E+08         0.00000E+00
    0.00000E+00         0.00000E+00         0.00000E+00
 
   -0.93581E+07        -0.10429E+07         0.00000E+00
   -0.10429E+07        -0.23860E+08         0.00000E+00
    0.00000E+00         0.00000E+00         0.00000E+00
 
   -0.85737E+07        -0.10977E+07         0.00000E+00
   -0.10977E+07        -0.24087E+08         0.00000E+00
    0.00000E+00         0.00000E+00         0.00000E+00
 
   -0.77203E+07        -0.94208E+06         0.00000E+00
   -0.94208E+06        -0.24346E+08         0.00000E+00
    0.00000E+00         0.00000E+00         0.00000E+00
 
   -0.68323E+07        -0.57985E+06         0.00000E+00
   -0.57985E+06        -0.24624E+08         0.00000E+00
    0.00000E+00         0.00000E+00         0.00000E+00
 
   -0.59366E+07        -0.16509E+05         0.00000E+00
   -0.16509E+05        -0.24910E+08         0.00000E+00
    0.00000E+00         0.00000E+00         0.00000E+00
 
   -0.50536E+07         0.74262E+06         0.00000E+00
    0.74262E+06        -0.25198E+08         0.00000E+00
    0.00000E+00         0.00000E+00         0.00000E+00
 
   -0.41989E+07         0.16934E+07         0.00000E+00
    0.16934E+07        -0.25487E+08         0.00000E+00
    0.00000E+00         0.00000E+00         0.00000E+00
 
   -0.33848E+07         0.28331E+07         0.00000E+00
    0.28331E+07        -0.25773E+08         0.00000E+00
    0.00000E+00         0.00000E+00         0.00000E+00
 
   -0.26224E+07         0.41596E+07         0.00000E+00
    0.41596E+07        -0.26057E+08         0.00000E+00
    0.00000E+00         0.00000E+00         0.00000E+00
 
   -0.19219E+07         0.56699E+07         0.00000E+00
    0.56699E+07        -0.26335E+08         0.00000E+00
    0.00000E+00         0.00000E+00         0.00000E+00
 
   -0.12932E+07         0.73590E+07         0.00000E+00
    0.73590E+07        -0.26603E+08         0.00000E+00
    0.00000E+00         0.00000E+00         0.00000E+00
 
   -0.73789E+06         0.92134E+07         0.00000E+00
    0.92134E+07        -0.26856E+08         0.00000E+00
    0.00000E+00         0.00000E+00         0.00000E+00
 
   -0.23886E+06         0.11223E+08         0.00000E+00
    0.11223E+08        -0.27095E+08         0.00000E+00
    0.00000E+00         0.00000E+00         0.00000E+00
 
   -0.13341E+08        -0.36202E+06         0.00000E+00
   -0.36202E+06        -0.25766E+08         0.00000E+00
    0.00000E+00         0.00000E+00         0.00000E+00
 
   -0.12615E+08        -0.91837E+06         0.00000E+00
   -0.91837E+06        -0.25874E+08         0.00000E+00
    0.00000E+00         0.00000E+00         0.00000E+00
 
   -0.11722E+08        -0.12433E+07         0.00000E+00
   -0.12433E+07        -0.26062E+08         0.00000E+00
    0.00000E+00         0.00000E+00         0.00000E+00
 
   -0.10718E+08        -0.13355E+07         0.00000E+00
   -0.13355E+07        -0.26303E+08         0.00000E+00
    0.00000E+00         0.00000E+00         0.00000E+00
 
   -0.96504E+07        -0.12011E+07         0.00000E+00
   -0.12011E+07        -0.26575E+08         0.00000E+00
    0.00000E+00         0.00000E+00         0.00000E+00
 
   -0.85558E+07        -0.84968E+06         0.00000E+00
   -0.84968E+06        -0.26864E+08         0.00000E+00
    0.00000E+00         0.00000E+00         0.00000E+00
 
   -0.74612E+07        -0.29174E+06         0.00000E+00
   -0.29174E+06        -0.27164E+08         0.00000E+00
    0.00000E+00         0.00000E+00         0.00000E+00
 
   -0.63855E+07         0.46372E+06         0.00000E+00
    0.46372E+06        -0.27469E+08         0.00000E+00
    0.00000E+00         0.00000E+00         0.00000E+00
 
   -0.53419E+07         0.14105E+07         0.00000E+00
    0.14105E+07        -0.27782E+08         0.00000E+00
    0.00000E+00         0.00000E+00         0.00000E+00
 
   -0.43409E+07         0.25455E+07         0.00000E+00
    0.25455E+07        -0.28102E+08         0.00000E+00
    0.00000E+00         0.00000E+00         0.00000E+00
 
   -0.33928E+07         0.38679E+07         0.00000E+00
    0.38679E+07        -0.28431E+08         0.00000E+00
    0.00000E+00         0.00000E+00         0.00000E+00
 
   -0.25098E+07         0.53764E+07         0.00000E+00
    0.53764E+07        -0.28767E+08         0.00000E+00
    0.00000E+00         0.00000E+00         0.00000E+00
 
   -0.17041E+07         0.70670E+07         0.00000E+00
    0.70670E+07        -0.29108E+08         0.00000E+00
    0.00000E+00         0.00000E+00         0.00000E+00
 
   -0.99404E+06         0.89321E+07         0.00000E+00
    0.89321E+07        -0.29449E+08         0.00000E+00
    0.00000E+00         0.00000E+00         0.00000E+00
 
   -0.33300E+06         0.10936E+08         0.00000E+00
    0.10936E+08        -0.29801E+08         0.00000E+00
    0.00000E+00         0.00000E+00         0.00000E+00
 
   -0.16263E+08        -0.42123E+06         0.00000E+00
   -0.42123E+06        -0.27967E+08         0.00000E+00
    0.00000E+00         0.00000E+00         0.00000E+00
 
   -0.15293E+08        -0.10689E+07         0.00000E+00
   -0.10689E+07        -0.28082E+08         0.00000E+00
    0.00000E+00         0.00000E+00         0.00000E+00
 
   -0.14154E+08        -0.14536E+07         0.00000E+00
   -0.14536E+07        -0.28278E+08         0.00000E+00
    0.00000E+00         0.00000E+00         0.00000E+00
 
   -0.12910E+08        -0.15812E+07         0.00000E+00
   -0.15812E+07        -0.28524E+08         0.00000E+00
    0.00000E+00         0.00000E+00         0.00000E+00
 
   -0.11615E+08        -0.14655E+07         0.00000E+00
   -0.14655E+07        -0.28799E+08         0.00000E+00
    0.00000E+00         0.00000E+00         0.00000E+00
 
   -0.10307E+08        -0.11240E+07         0.00000E+00
   -0.11240E+07        -0.29087E+08         0.00000E+00
    0.00000E+00         0.00000E+00         0.00000E+00
 
   -0.90118E+07        -0.57341E+06         0.00000E+00
   -0.57341E+06        -0.29385E+08         0.00000E+00
    0.00000E+00         0.00000E+00         0.00000E+00
 
   -0.77444E+07         0.17299E+06         0.00000E+00
    0.17299E+06        -0.29693E+08         0.00000E+00
    0.00000E+00         0.00000E+00         0.00000E+00
 
   -0.65143E+07         0.11068E+07         0.00000E+00
    0.11068E+07        -0.30015E+08         0.00000E+00
    0.00000E+00         0.00000E+00         0.00000E+00
 
   -0.53278E+07         0.22248E+07         0.00000E+00
    0.22248E+07        -0.30356E+08         0.00000E+00
    0.00000E+00         0.00000E+00         0.00000E+00
 
   -0.41928E+07         0.35285E+07         0.00000E+00
    0.35285E+07        -0.30720E+08         0.00000E+00
    0.00000E+00         0.00000E+00         0.00000E+00
 
   -0.31241E+07         0.50213E+07         0.00000E+00
    0.50213E+07        -0.31108E+08         0.00000E+00
    0.00000E+00         0.00000E+00         0.00000E+00
 
   -0.21398E+07         0.66978E+07         0.00000E+00
    0.66978E+07        -0.31512E+08         0.00000E+00
    0.00000E+00         0.00000E+00         0.00000E+00
 
   -0.12636E+07         0.85467E+07         0.00000E+00
    0.85467E+07        -0.31928E+08         0.00000E+00
    0.00000E+00         0.00000E+00         0.00000E+00
 
   -0.57616E+06         0.10466E+08         0.00000E+00
    0.10466E+08        -0.32438E+08         0.00000E+00
    0.00000E+00         0.00000E+00        -0.14946E+06
 
   -0.19318E+08        -0.48437E+06         0.00000E+00
   -0.48437E+06        -0.30188E+08         0.00000E+00
    0.00000E+00         0.00000E+00         0.00000E+00
 
   -0.18067E+08        -0.12258E+07         0.00000E+00
   -0.12258E+07        -0.30307E+08         0.00000E+00
    0.00000E+00         0.00000E+00         0.00000E+00
 
   -0.16651E+08        -0.16670E+07         0.00000E+00
   -0.16670E+07        -0.30506E+08         0.00000E+00
    0.00000E+00         0.00000E+00         0.00000E+00
 
   -0.15146E+08        -0.18239E+07         0.00000E+00
   -0.18239E+07        -0.30748E+08         0.00000E+00
    0.00000E+00         0.00000E+00         0.00000E+00
 
   -0.13612E+08        -0.17215E+07         0.00000E+00
   -0.17215E+07        -0.31010E+08         0.00000E+00
    0.00000E+00         0.00000E+00         0.00000E+00
 
   -0.12087E+08        -0.13869E+07         0.00000E+00
   -0.13869E+07        -0.31280E+08         0.00000E+00
    0.00000E+00         0.00000E+00         0.00000E+00
 
   -0.10592E+08        -0.84461E+06         0.00000E+00
   -0.84461E+06        -0.31558E+08         0.00000E+00
    0.00000E+00         0.00000E+00         0.00000E+00
 
   -0.91382E+07        -0.11279E+06         0.00000E+00
   -0.11279E+06        -0.31849E+08         0.00000E+00
    0.00000E+00         0.00000E+00         0.00000E+00
 
   -0.77276E+07         0.79793E+06         0.00000E+00
    0.79793E+06        -0.32162E+08         0.00000E+00
    0.00000E+00         0.00000E+00         0.00000E+00
 
   -0.63605E+07         0.18849E+07         0.00000E+00
    0.18849E+07        -0.32507E+08         0.00000E+00
    0.00000E+00         0.00000E+00         0.00000E+00
 
   -0.50396E+07         0.31523E+07         0.00000E+00
    0.31523E+07        -0.32891E+08         0.00000E+00
    0.00000E+00         0.00000E+00         0.00000E+00
 
   -0.37772E+07         0.46103E+07         0.00000E+00
    0.46103E+07        -0.33319E+08         0.00000E+00
    0.00000E+00         0.00000E+00         0.00000E+00
 
   -0.26157E+07         0.62684E+07         0.00000E+00
    0.62684E+07        -0.33779E+08         0.00000E+00
    0.00000E+00         0.00000E+00         0.00000E+00
 
   -0.15445E+07         0.80960E+07         0.00000E+00
    0.80960E+07        -0.34271E+08         0.00000E+00
    0.00000E+00         0.00000E+00        -0.51952E+04
 
   -0.11367E+07         0.98374E+07         0.00000E+00
    0.98374E+07        -0.34833E+08         0.00000E+00
    0.00000E+00         0.00000E+00        -0.64062E+06
 
   -0.22512E+08        -0.55046E+06         0.00000E+00
   -0.55046E+06        -0.32431E+08         0.00000E+00
    0.00000E+00         0.00000E+00         0.00000E+00
 
   -0.20934E+08        -0.13842E+07         0.00000E+00
   -0.13842E+07        -0.32551E+08         0.00000E+00
    0.00000E+00         0.00000E+00         0.00000E+00
 
   -0.19206E+08        -0.18737E+07         0.00000E+00
   -0.18737E+07        -0.32744E+08         0.00000E+00
    0.00000E+00         0.00000E+00         0.00000E+00
 
   -0.17419E+08        -0.20492E+07         0.00000E+00
   -0.20492E+07        -0.32967E+08         0.00000E+00
    0.00000E+00         0.00000E+00         0.00000E+00
 
   -0.15636E+08        -0.19508E+07         0.00000E+00
   -0.19508E+07        -0.33198E+08         0.00000E+00
    0.00000E+00         0.00000E+00         0.00000E+00
 
   -0.13893E+08        -0.16182E+07         0.00000E+00
   -0.16182E+07        -0.33428E+08         0.00000E+00
    0.00000E+00         0.00000E+00         0.00000E+00
 
   -0.12206E+08        -0.10848E+07         0.00000E+00
   -0.10848E+07        -0.33664E+08         0.00000E+00
    0.00000E+00         0.00000E+00         0.00000E+00
 
   -0.10575E+08        -0.37363E+06         0.00000E+00
   -0.37363E+06        -0.33915E+08         0.00000E+00
    0.00000E+00         0.00000E+00         0.00000E+00
 
   -0.89949E+07         0.50281E+06         0.00000E+00
    0.50281E+06        -0.34198E+08         0.00000E+00
    0.00000E+00         0.00000E+00         0.00000E+00
 
   -0.74554E+07         0.15429E+07         0.00000E+00
    0.15429E+07        -0.34528E+08         0.00000E+00
    0.00000E+00         0.00000E+00         0.00000E+00
 
   -0.59523E+07         0.27554E+07         0.00000E+00
    0.27554E+07        -0.34915E+08         0.00000E+00
    0.00000E+00         0.00000E+00         0.00000E+00
 
   -0.44909E+07         0.41566E+07         0.00000E+00
    0.41566E+07        -0.35365E+08         0.00000E+00
    0.00000E+00         0.00000E+00         0.00000E+00
 
   -0.31073E+07         0.57776E+07         0.00000E+00
    0.57776E+07        -0.35866E+08         0.00000E+00
    0.00000E+00         0.00000E+00         0.00000E+00
 
   -0.19986E+07         0.75419E+07         0.00000E+00
    0.75419E+07        -0.36439E+08         0.00000E+00
    0.00000E+00         0.00000E+00        -0.21713E+06
 
   -0.17426E+07         0.92146E+07         0.00000E+00
    0.92146E+07        -0.37058E+08         0.00000E+00
    0.00000E+00         0.00000E+00        -0.11881E+07
 
   -0.25847E+08        -0.61831E+06         0.00000E+00
   -0.61831E+06        -0.34696E+08         0.00000E+00
    0.00000E+00         0.00000E+00         0.00000E+00
 
   -0.23886E+08        -0.15379E+07         0.00000E+00
   -0.15379E+07        -0.34813E+08         0.00000E+00
    0.00000E+00         0.00000E+00         0.00000E+00
 
   -0.21807E+08        -0.20605E+07         0.00000E+00
   -0.20605E+07        -0.34987E+08         0.00000E+00
    0.00000E+00         0.00000E+00         0.00000E+00
 
   -0.19715E+08        -0.22376E+07         0.00000E+00
   -0.22376E+07        -0.35172E+08         0.00000E+00
    0.00000E+00         0.00000E+00         0.00000E+00
 
   -0.17678E+08        -0.21301E+07         0.00000E+00
   -0.21301E+07        -0.35346E+08         0.00000E+00
    0.00000E+00         0.00000E+00         0.00000E+00
 
   -0.15724E+08        -0.17935E+07         0.00000E+00
   -0.17935E+07        -0.35510E+08         0.00000E+00
    0.00000E+00         0.00000E+00         0.00000E+00
 
   -0.13857E+08        -0.12703E+07         0.00000E+00
   -0.12703E+07        -0.35677E+08         0.00000E+00
    0.00000E+00         0.00000E+00         0.00000E+00
 
   -0.12066E+08        -0.58763E+06         0.00000E+00
   -0.58763E+06        -0.35866E+08         0.00000E+00
    0.00000E+00         0.00000E+00         0.00000E+00
 
   -0.10331E+08         0.24146E+06         0.00000E+00
    0.24146E+06        -0.36097E+08         0.00000E+00
    0.00000E+00         0.00000E+00         0.00000E+00
 
   -0.86314E+07         0.12171E+07         0.00000E+00
    0.12171E+07        -0.36392E+08         0.00000E+00
    0.00000E+00         0.00000E+00         0.00000E+00
 
   -0.69508E+07         0.23530E+07         0.00000E+00
    0.23530E+07        -0.36766E+08         0.00000E+00
    0.00000E+00         0.00000E+00         0.00000E+00
 
   -0.52864E+07         0.36795E+07         0.00000E+00
    0.36795E+07        -0.37228E+08         0.00000E+00
    0.00000E+00         0.00000E+00         0.00000E+00
 
   -0.36275E+07         0.52406E+07         0.00000E+00
    0.52406E+07        -0.37771E+08         0.00000E+00
    0.00000E+00         0.00000E+00         0.00000E+00
 
   -0.26410E+07         0.68871E+07         0.00000E+00
    0.68871E+07        -0.38403E+08         0.00000E+00
    0.00000E+00         0.00000E+00        -0.65235E+06
 
   -0.22918E+07         0.85617E+07         0.00000E+00
    0.85617E+07        -0.39090E+08         0.00000E+00
    0.00000E+00         0.00000E+00        -0.16905E+07
 
   -0.29322E+08        -0.68639E+06         0.00000E+00
   -0.68639E+06        -0.36984E+08         0.00000E+00
    0.00000E+00         0.00000E+00         0.00000E+00
 
   -0.26908E+08        -0.16775E+07         0.00000E+00
   -0.16775E+07        -0.37090E+08         0.00000E+00
    0.00000E+00         0.00000E+00         0.00000E+00
 
   -0.24432E+08        -0.22077E+07         0.00000E+00
   -0.22077E+07        -0.37228E+08         0.00000E+00
    0.00000E+00         0.00000E+00         0.00000E+00
 
   -0.22018E+08        -0.23619E+07         0.00000E+00
   -0.23619E+07        -0.37346E+08         0.00000E+00
    0.00000E+00         0.00000E+00         0.00000E+00
 
   -0.19730E+08        -0.22298E+07         0.00000E+00
   -0.22298E+07        -0.37431E+08         0.00000E+00
    0.00000E+00         0.00000E+00         0.00000E+00
 
   -0.17579E+08        -0.18846E+07         0.00000E+00
   -0.18846E+07        -0.37496E+08         0.00000E+00
    0.00000E+00         0.00000E+00         0.00000E+00
 
   -0.15553E+08        -0.13762E+07         0.00000E+00
   -0.13762E+07        -0.37566E+08         0.00000E+00
    0.00000E+00         0.00000E+00         0.00000E+00
 
   -0.13621E+08        -0.73330E+06         0.00000E+00
   -0.73330E+06        -0.37669E+08         0.00000E+00
    0.00000E+00         0.00000E+00         0.00000E+00
 
   -0.11751E+08         0.32494E+05         0.00000E+00
    0.32494E+05        -0.37831E+08         0.00000E+00
    0.00000E+00         0.00000E+00         0.00000E+00
 
   -0.99090E+07         0.92374E+06         0.00000E+00
    0.92374E+06        -0.38075E+08         0.00000E+00
    0.00000E+00         0.00000E+00         0.00000E+00
 
   -0.80623E+07         0.19573E+07         0.00000E+00
    0.19573E+07        -0.38422E+08         0.00000E+00
    0.00000E+00         0.00000E+00         0.00000E+00
 
   -0.61819E+07         0.31714E+07         0.00000E+00
    0.31714E+07        -0.38891E+08         0.00000E+00
    0.00000E+00         0.00000E+00         0.00000E+00
 
   -0.42931E+07         0.46219E+07         0.00000E+00
    0.46219E+07        -0.39492E+08         0.00000E+00
    0.00000E+00         0.00000E+00        -0.47945E+05
 
   -0.33342E+07         0.61753E+07         0.00000E+00
    0.61753E+07        -0.40203E+08         0.00000E+00
    0.00000E+00         0.00000E+00        -0.10371E+07
 
   -0.28189E+07         0.78594E+07         0.00000E+00
    0.78594E+07        -0.40952E+08         0.00000E+00
    0.00000E+00         0.00000E+00        -0.21320E+07
 
   -0.32929E+08        -0.75248E+06         0.00000E+00
   -0.75248E+06        -0.39295E+08         0.00000E+00
    0.00000E+00         0.00000E+00         0.00000E+00
 
   -0.29973E+08        -0.17877E+07         0.00000E+00
   -0.17877E+07        -0.39379E+08         0.00000E+00
    0.00000E+00         0.00000E+00         0.00000E+00
 
   -0.27051E+08        -0.22853E+07         0.00000E+00
   -0.22853E+07        -0.39451E+08         0.00000E+00
    0.00000E+00         0.00000E+00         0.00000E+00
 
   -0.24307E+08        -0.23846E+07         0.00000E+00
   -0.23846E+07        -0.39460E+08         0.00000E+00
    0.00000E+00         0.00000E+00         0.00000E+00
 
   -0.21783E+08        -0.22135E+07         0.00000E+00
   -0.22135E+07        -0.39413E+08         0.00000E+00
    0.00000E+00         0.00000E+00         0.00000E+00
 
   -0.19463E+08        -0.18610E+07         0.00000E+00
   -0.18610E+07        -0.39344E+08         0.00000E+00
    0.00000E+00         0.00000E+00         0.00000E+00
 
   -0.17304E+08        -0.13790E+07         0.00000E+00
   -0.13790E+07        -0.39291E+08         0.00000E+00
    0.00000E+00         0.00000E+00         0.00000E+00
 
   -0.15258E+08        -0.79279E+06         0.00000E+00
   -0.79279E+06        -0.39289E+08         0.00000E+00
    0.00000E+00         0.00000E+00         0.00000E+00
 
   -0.13276E+08        -0.11027E+06         0.00000E+00
   -0.11027E+06        -0.39367E+08         0.00000E+00
    0.00000E+00         0.00000E+00         0.00000E+00
 
   -0.11311E+08         0.67404E+06         0.00000E+00
    0.67404E+06        -0.39551E+08         0.00000E+00
    0.00000E+00         0.00000E+00         0.00000E+00
 
   -0.93165E+07         0.15783E+07         0.00000E+00
    0.15783E+07        -0.39864E+08         0.00000E+00
    0.00000E+00         0.00000E+00         0.00000E+00
 
   -0.72340E+07         0.26393E+07         0.00000E+00
    0.26393E+07        -0.40334E+08         0.00000E+00
    0.00000E+00         0.00000E+00         0.00000E+00
 
   -0.51383E+07         0.39127E+07         0.00000E+00
    0.39127E+07        -0.40986E+08         0.00000E+00
    0.00000E+00         0.00000E+00        -0.12970E+06
 
   -0.40404E+07         0.53799E+07         0.00000E+00
    0.53799E+07        -0.41790E+08         0.00000E+00
    0.00000E+00         0.00000E+00        -0.13075E+07
 
   -0.33312E+07         0.70724E+07         0.00000E+00
    0.70724E+07        -0.42647E+08         0.00000E+00
    0.00000E+00         0.00000E+00        -0.25025E+07
 
   -0.36648E+08        -0.81269E+06         0.00000E+00
   -0.81269E+06        -0.41629E+08         0.00000E+00
    0.00000E+00         0.00000E+00         0.00000E+00
 
   -0.33031E+08        -0.18403E+07         0.00000E+00
   -0.18403E+07        -0.41668E+08         0.00000E+00
    0.00000E+00         0.00000E+00         0.00000E+00
 
   -0.29620E+08        -0.22437E+07         0.00000E+00
   -0.22437E+07        -0.41621E+08         0.00000E+00
    0.00000E+00         0.00000E+00         0.00000E+00
 
   -0.26560E+08        -0.22536E+07         0.00000E+00
   -0.22536E+07        -0.41458E+08         0.00000E+00
    0.00000E+00         0.00000E+00         0.00000E+00
 
   -0.23839E+08        -0.20401E+07         0.00000E+00
   -0.20401E+07        -0.41227E+08         0.00000E+00
    0.00000E+00         0.00000E+00         0.00000E+00
 
   -0.21387E+08        -0.16949E+07         0.00000E+00
   -0.16949E+07        -0.40990E+08         0.00000E+00
    0.00000E+00         0.00000E+00         0.00000E+00
 
   -0.19130E+08        -0.12611E+07         0.00000E+00
   -0.12611E+07        -0.40796E+08         0.00000E+00
    0.00000E+00         0.00000E+00         0.00000E+00
 
   -0.16997E+08        -0.75574E+06         0.00000E+00
   -0.75574E+06        -0.40679E+08         0.00000E+00
    0.00000E+00         0.00000E+00         0.00000E+00
 
   -0.14927E+08        -0.18104E+06         0.00000E+00
   -0.18104E+06        -0.40670E+08         0.00000E+00
    0.00000E+00         0.00000E+00         0.00000E+00
 
   -0.12863E+08         0.47120E+06         0.00000E+00
    0.47120E+06        -0.40793E+08         0.00000E+00
    0.00000E+00         0.00000E+00         0.00000E+00
 
   -0.10745E+08         0.12179E+07         0.00000E+00
    0.12179E+07        -0.41073E+08         0.00000E+00
    0.00000E+00         0.00000E+00         0.00000E+00
 
   -0.85000E+07         0.20838E+07         0.00000E+00
    0.20838E+07        -0.41543E+08         0.00000E+00
    0.00000E+00         0.00000E+00         0.00000E+00
 
   -0.61715E+07         0.31215E+07         0.00000E+00
    0.31215E+07        -0.42241E+08         0.00000E+00
    0.00000E+00         0.00000E+00        -0.14070E+06
 
   -0.48032E+07         0.44705E+07         0.00000E+00
    0.44705E+07        -0.43148E+08         0.00000E+00
    0.00000E+00         0.00000E+00        -0.14305E+07
 
   -0.38275E+07         0.61431E+07         0.00000E+00
    0.61431E+07        -0.44162E+08         0.00000E+00
    0.00000E+00         0.00000E+00        -0.27905E+07
 
   -0.40438E+08        -0.85748E+06         0.00000E+00
   -0.85748E+06        -0.43981E+08         0.00000E+00
    0.00000E+00         0.00000E+00         0.00000E+00
 
   -0.35998E+08        -0.17742E+07         0.00000E+00
   -0.17742E+07        -0.43920E+08         0.00000E+00
    0.00000E+00         0.00000E+00         0.00000E+00
 
   -0.32090E+08        -0.19986E+07         0.00000E+00
   -0.19986E+07        -0.43651E+08         0.00000E+00
    0.00000E+00         0.00000E+00         0.00000E+00
 
   -0.28774E+08        -0.19057E+07         0.00000E+00
   -0.19057E+07        -0.43231E+08         0.00000E+00
    0.00000E+00         0.00000E+00         0.00000E+00
 
   -0.25916E+08        -0.16744E+07         0.00000E+00
   -0.16744E+07        -0.42775E+08         0.00000E+00
    0.00000E+00         0.00000E+00         0.00000E+00
 
   -0.23379E+08        -0.13701E+07         0.00000E+00
   -0.13701E+07        -0.42354E+08         0.00000E+00
    0.00000E+00         0.00000E+00         0.00000E+00
 
   -0.21057E+08        -0.10175E+07         0.00000E+00
   -0.10175E+07        -0.42015E+08         0.00000E+00
    0.00000E+00         0.00000E+00         0.00000E+00
 
   -0.18864E+08        -0.62301E+06         0.00000E+00
   -0.62301E+06        -0.41789E+08         0.00000E+00
    0.00000E+00         0.00000E+00         0.00000E+00
 
   -0.16730E+08        -0.18388E+06         0.00000E+00
   -0.18388E+06        -0.41700E+08         0.00000E+00
    0.00000E+00         0.00000E+00         0.00000E+00
 
   -0.14590E+08         0.30934E+06         0.00000E+00
    0.30934E+06        -0.41771E+08         0.00000E+00
    0.00000E+00         0.00000E+00         0.00000E+00
 
   -0.12378E+08         0.87094E+06         0.00000E+00
    0.87094E+06        -0.42026E+08         0.00000E+00
    0.00000E+00         0.00000E+00         0.00000E+00
 
   -0.10022E+08         0.15137E+07         0.00000E+00
    0.15137E+07        -0.42494E+08         0.00000E+00
    0.00000E+00         0.00000E+00         0.00000E+00
 
   -0.74580E+07         0.22661E+07         0.00000E+00
    0.22661E+07        -0.43231E+08         0.00000E+00
    0.00000E+00         0.00000E+00        -0.67875E+05
 
   -0.56747E+07         0.33986E+07         0.00000E+00
    0.33986E+07        -0.44240E+08         0.00000E+00
    0.00000E+00         0.00000E+00        -0.13641E+07
 
   -0.43279E+07         0.49942E+07         0.00000E+00
    0.49942E+07        -0.45488E+08         0.00000E+00
    0.00000E+00         0.00000E+00        -0.29787E+07
 
   -0.44186E+08        -0.85090E+06         0.00000E+00
   -0.85090E+06        -0.46329E+08         0.00000E+00
    0.00000E+00         0.00000E+00         0.00000E+00
 
   -0.38746E+08        -0.14353E+07         0.00000E+00
   -0.14353E+07        -0.45990E+08         0.00000E+00
    0.00000E+00         0.00000E+00         0.00000E+00
 
   -0.34446E+08        -0.14361E+07         0.00000E+00
   -0.14361E+07        -0.45335E+08         0.00000E+00
    0.00000E+00         0.00000E+00         0.00000E+00
 
   -0.30985E+08        -0.12976E+07         0.00000E+00
   -0.12976E+07        -0.44607E+08         0.00000E+00
    0.00000E+00         0.00000E+00         0.00000E+00
 
   -0.28057E+08        -0.11091E+07         0.00000E+00
   -0.11091E+07        -0.43925E+08         0.00000E+00
    0.00000E+00         0.00000E+00         0.00000E+00
 
   -0.25476E+08        -0.89487E+06         0.00000E+00
   -0.89487E+06        -0.43340E+08         0.00000E+00
    0.00000E+00         0.00000E+00         0.00000E+00
 
   -0.23117E+08        -0.66175E+06         0.00000E+00
   -0.66175E+06        -0.42880E+08         0.00000E+00
    0.00000E+00         0.00000E+00         0.00000E+00
 
   -0.20888E+08        -0.40912E+06         0.00000E+00
   -0.40912E+06        -0.42567E+08         0.00000E+00
    0.00000E+00         0.00000E+00         0.00000E+00
 
   -0.18711E+08        -0.13236E+06         0.00000E+00
   -0.13236E+06        -0.42416E+08         0.00000E+00
    0.00000E+00         0.00000E+00         0.00000E+00
 
   -0.16518E+08         0.17627E+06         0.00000E+00
    0.17627E+06        -0.42450E+08         0.00000E+00
    0.00000E+00         0.00000E+00         0.00000E+00
 
   -0.14240E+08         0.52710E+06         0.00000E+00
    0.52710E+06        -0.42691E+08         0.00000E+00
    0.00000E+00         0.00000E+00         0.00000E+00
 
   -0.11813E+08         0.93136E+06         0.00000E+00
    0.93136E+06        -0.43168E+08         0.00000E+00
    0.00000E+00         0.00000E+00         0.00000E+00
 
   -0.91196E+07         0.13849E+07         0.00000E+00
    0.13849E+07        -0.43932E+08         0.00000E+00
    0.00000E+00         0.00000E+00         0.00000E+00
 
   -0.67562E+07         0.21243E+07         0.00000E+00
    0.21243E+07        -0.45012E+08         0.00000E+00
    0.00000E+00         0.00000E+00        -0.10455E+07
 
   -0.48960E+07         0.34754E+07         0.00000E+00
    0.34754E+07        -0.46618E+08         0.00000E+00
    0.00000E+00         0.00000E+00        -0.30359E+07
 
   -0.47568E+08        -0.51561E+06         0.00000E+00
   -0.51561E+06        -0.48281E+08         0.00000E+00
    0.00000E+00         0.00000E+00         0.00000E+00
 
   -0.41216E+08        -0.58442E+06         0.00000E+00
   -0.58442E+06        -0.47366E+08         0.00000E+00
    0.00000E+00         0.00000E+00         0.00000E+00
 
   -0.36782E+08        -0.52981E+06         0.00000E+00
   -0.52981E+06        -0.46326E+08         0.00000E+00
    0.00000E+00         0.00000E+00         0.00000E+00
 
   -0.33270E+08        -0.46270E+06         0.00000E+00
   -0.46270E+06        -0.45371E+08         0.00000E+00
    0.00000E+00         0.00000E+00         0.00000E+00
 
   -0.30315E+08        -0.38879E+06         0.00000E+00
   -0.38879E+06        -0.44543E+08         0.00000E+00
    0.00000E+00         0.00000E+00         0.00000E+00
 
   -0.27716E+08        -0.31101E+06         0.00000E+00
   -0.31101E+06        -0.43859E+08         0.00000E+00
    0.00000E+00         0.00000E+00         0.00000E+00
 
   -0.25340E+08        -0.22920E+06         0.00000E+00
   -0.22920E+06        -0.43331E+08         0.00000E+00
    0.00000E+00         0.00000E+00         0.00000E+00
 
   -0.23091E+08        -0.14206E+06         0.00000E+00
   -0.14206E+06        -0.42968E+08         0.00000E+00
    0.00000E+00         0.00000E+00         0.00000E+00
 
   -0.20891E+08        -0.47413E+05         0.00000E+00
   -0.47413E+05        -0.42784E+08         0.00000E+00
    0.00000E+00         0.00000E+00         0.00000E+00
 
   -0.18669E+08         0.57776E+05         0.00000E+00
    0.57776E+05        -0.42799E+08         0.00000E+00
    0.00000E+00         0.00000E+00         0.00000E+00
 
   -0.16355E+08         0.17732E+06         0.00000E+00
    0.17732E+06        -0.43035E+08         0.00000E+00
    0.00000E+00         0.00000E+00         0.00000E+00
 
   -0.13880E+08         0.31751E+06         0.00000E+00
    0.31751E+06        -0.43528E+08         0.00000E+00
    0.00000E+00         0.00000E+00         0.00000E+00
 
   -0.11207E+08         0.47148E+06         0.00000E+00
    0.47148E+06        -0.44309E+08         0.00000E+00
    0.00000E+00         0.00000E+00         0.00000E+00
 
   -0.83393E+07         0.71746E+06         0.00000E+00
    0.71746E+06        -0.45572E+08         0.00000E+00
    0.00000E+00         0.00000E+00        -0.44627E+06
 
   -0.57156E+07         0.13030E+07         0.00000E+00
    0.13030E+07        -0.47495E+08         0.00000E+00
    0.00000E+00         0.00000E+00        -0.28832E+07
 
TENSORS stresstot double 
   -0.46543E+08         0.41141E+06         0.00000E+00
    0.41141E+06        -0.58962E+08         0.00000E+00
    0.00000E+00         0.00000E+00        -0.64047E+08
 
   -0.46154E+08         0.56842E+06         0.00000E+00
    0.56842E+06        -0.57797E+08         0.00000E+00
    0.00000E+00         0.00000E+00        -0.62787E+08
 
   -0.46033E+08         0.36371E+06         0.00000E+00
    0.36371E+06        -0.56957E+08         0.00000E+00
    0.00000E+00         0.00000E+00        -0.62324E+08
 
   -0.46218E+08         0.96034E+05         0.00000E+00
    0.96034E+05        -0.56650E+08         0.00000E+00
    0.00000E+00         0.00000E+00        -0.62680E+08
 
   -0.46655E+08        -0.15892E+06         0.00000E+00
   -0.15892E+06        -0.56894E+08         0.00000E+00
    0.00000E+00         0.00000E+00        -0.63696E+08
 
   -0.47274E+08        -0.32827E+06         0.00000E+00
   -0.32827E+06        -0.57549E+08         0.00000E+00
    0.00000E+00         0.00000E+00        -0.65193E+08
 
   -0.48111E+08        -0.32680E+06         0.00000E+00
   -0.32680E+06        -0.58348E+08         0.00000E+00
    0.00000E+00         0.00000E+00        -0.67167E+08
 
   -0.49306E+08        -0.12103E+06         0.00000E+00
   -0.12103E+06        -0.58933E+08         0.00000E+00
    0.00000E+00         0.00000E+00        -0.69667E+08
 
   -0.51032E+08        -0.24695E+06         0.00000E+00
   -0.24695E+06        -0.59232E+08         0.00000E+00
    0.00000E+00         0.00000E+00        -0.72189E+08
 
   -0.54691E+08        -0.32868E+06         0.00000E+00
   -0.32868E+06        -0.59708E+08         0.00000E+00
    0.00000E+00         0.00000E+00        -0.72706E+08
 
   -0.57770E+08        -0.11984E+06         0.00000E+00
   -0.11984E+06        -0.60075E+08         0.00000E+00
    0.00000E+00         0.00000E+00        -0.72738E+08
 
   -0.60550E+08         0.87096E+05         0.00000E+00
    0.87096E+05        -0.60070E+08         0.00000E+00
    0.00000E+00         0.00000E+00        -0.72767E+08
 
   -0.63379E+08         0.30242E+06         0.00000E+00
    0.30242E+06        -0.59661E+08         0.00000E+00
    0.00000E+00         0.00000E+00        -0.72791E+08
 
   -0.66522E+08         0.56067E+06         0.00000E+00
    0.56067E+06        -0.58787E+08         0.00000E+00
    0.00000E+00         0.00000E+00        -0.72810E+08
 
   -0.70515E+08         0.10471E+07         0.00000E+00
    0.10471E+07        -0.57217E+08         0.00000E+00
    0.00000E+00         0.00000E+00        -0.72821E+08
 
   -0.45887E+08         0.76254E+06         0.00000E+00
    0.76254E+06        -0.59949E+08         0.00000E+00
    0.00000E+00         0.00000E+00        -0.65298E+08
 
   -0.46187E+08         0.89557E+06         0.00000E+00
    0.89557E+06        -0.60769E+08         0.00000E+00
    0.00000E+00         0.00000E+00        -0.66153E+08
 
   -0.46357E+08         0.71985E+06         0.00000E+00
    0.71985E+06        -0.61166E+08         0.00000E+00
    0.00000E+00         0.00000E+00        -0.66698E+08
 
   -0.46538E+08         0.28876E+06         0.00000E+00
    0.28876E+06        -0.61142E+08         0.00000E+00
    0.00000E+00         0.00000E+00        -0.67288E+08
 
   -0.46840E+08        -0.47738E+05         0.00000E+00
   -0.47738E+05        -0.60739E+08         0.00000E+00
    0.00000E+00         0.00000E+00        -0.68027E+08
 
   -0.47325E+08        -0.22448E+06         0.00000E+00
   -0.22448E+06        -0.60012E+08         0.00000E+00
    0.00000E+00         0.00000E+00        -0.68938E+08
 
   -0.48016E+08        -0.30559E+06         0.00000E+00
   -0.30559E+06        -0.59193E+08         0.00000E+00
    0.00000E+00         0.00000E+00        -0.69997E+08
 
   -0.49200E+08        -0.37270E+06         0.00000E+00
   -0.37270E+06        -0.58798E+08         0.00000E+00
    0.00000E+00         0.00000E+00        -0.70742E+08
 
   -0.51549E+08        -0.61386E+06         0.00000E+00
   -0.61386E+06        -0.59020E+08         0.00000E+00
    0.00000E+00         0.00000E+00        -0.70795E+08
 
   -0.54448E+08        -0.62534E+06         0.00000E+00
   -0.62534E+06        -0.59141E+08         0.00000E+00
    0.00000E+00         0.00000E+00        -0.70814E+08
 
   -0.57410E+08        -0.18535E+06         0.00000E+00
   -0.18535E+06        -0.59096E+08         0.00000E+00
    0.00000E+00         0.00000E+00        -0.70833E+08
 
   -0.60162E+08         0.35409E+06         0.00000E+00
    0.35409E+06        -0.58862E+08         0.00000E+00
    0.00000E+00         0.00000E+00        -0.70851E+08
 
   -0.62935E+08         0.95538E+06         0.00000E+00
    0.95538E+06        -0.58331E+08         0.00000E+00
    0.00000E+00         0.00000E+00        -0.70866E+08
 
   -0.65928E+08         0.17013E+07         0.00000E+00
    0.17013E+07        -0.57413E+08         0.00000E+00
    0.00000E+00         0.00000E+00        -0.70877E+08
 
   -0.69194E+08         0.28748E+07         0.00000E+00
    0.28748E+07        -0.56039E+08         0.00000E+00
    0.00000E+00         0.00000E+00        -0.70883E+08
 
   -0.45386E+08         0.10875E+06         0.00000E+00
    0.10875E+06        -0.61192E+08         0.00000E+00
    0.00000E+00         0.00000E+00        -0.67346E+08
 
   -0.45743E+08         0.62950E+06         0.00000E+00
    0.62950E+06        -0.61425E+08         0.00000E+00
    0.00000E+00         0.00000E+00        -0.68502E+08
 
   -0.46545E+08         0.70608E+06         0.00000E+00
    0.70608E+06        -0.61289E+08         0.00000E+00
    0.00000E+00         0.00000E+00        -0.68876E+08
 
   -0.46848E+08         0.56044E+06         0.00000E+00
    0.56044E+06        -0.60952E+08         0.00000E+00
    0.00000E+00         0.00000E+00        -0.68874E+08
 
   -0.47079E+08         0.40604E+06         0.00000E+00
    0.40604E+06        -0.60491E+08         0.00000E+00
    0.00000E+00         0.00000E+00        -0.68875E+08
 
   -0.47496E+08         0.25967E+06         0.00000E+00
    0.25967E+06        -0.60088E+08         0.00000E+00
    0.00000E+00         0.00000E+00        -0.68877E+08
 
   -0.48207E+08         0.57199E+05         0.00000E+00
    0.57199E+05        -0.59851E+08         0.00000E+00
    0.00000E+00         0.00000E+00        -0.68882E+08
 
   -0.49543E+08        -0.32615E+06         0.00000E+00
   -0.32615E+06        -0.59703E+08         0.00000E+00
    0.00000E+00         0.00000E+00        -0.68890E+08
 
   -0.51640E+08        -0.53133E+06         0.00000E+00
   -0.53133E+06        -0.59460E+08         0.00000E+00
    0.00000E+00         0.00000E+00        -0.68898E+08
 
   -0.54175E+08        -0.38920E+06         0.00000E+00
   -0.38920E+06        -0.59121E+08         0.00000E+00
    0.00000E+00         0.00000E+00        -0.68908E+08
 
   -0.56840E+08         0.98063E+05         0.00000E+00
    0.98063E+05        -0.58708E+08         0.00000E+00
    0.00000E+00         0.00000E+00        -0.68918E+08
 
   -0.59478E+08         0.82025E+06         0.00000E+00
    0.82025E+06        -0.58211E+08         0.00000E+00
    0.00000E+00         0.00000E+00        -0.68927E+08
 
   -0.62118E+08         0.17052E+07         0.00000E+00
    0.17052E+07        -0.57534E+08         0.00000E+00
    0.00000E+00         0.00000E+00        -0.68935E+08
 
   -0.64833E+08         0.28157E+07         0.00000E+00
    0.28157E+07        -0.56600E+08         0.00000E+00
    0.00000E+00         0.00000E+00        -0.68941E+08
 
   -0.67579E+08         0.42885E+07         0.00000E+00
    0.42885E+07        -0.55424E+08         0.00000E+00
    0.00000E+00         0.00000E+00        -0.68944E+08
 
   -0.44832E+08        -0.44978E+05         0.00000E+00
   -0.44978E+05        -0.59930E+08         0.00000E+00
    0.00000E+00         0.00000E+00        -0.66966E+08
 
   -0.45754E+08         0.29087E+06         0.00000E+00
    0.29087E+06        -0.59973E+08         0.00000E+00
    0.00000E+00         0.00000E+00        -0.66978E+08
 
   -0.46464E+08         0.50181E+06         0.00000E+00
    0.50181E+06        -0.60264E+08         0.00000E+00
    0.00000E+00         0.00000E+00        -0.66973E+08
 
   -0.46902E+08         0.65729E+06         0.00000E+00
    0.65729E+06        -0.60439E+08         0.00000E+00
    0.00000E+00         0.00000E+00        -0.66971E+08
 
   -0.47209E+08         0.61407E+06         0.00000E+00
    0.61407E+06        -0.60463E+08         0.00000E+00
    0.00000E+00         0.00000E+00        -0.66972E+08
 
   -0.47681E+08         0.44881E+06         0.00000E+00
    0.44881E+06        -0.60396E+08         0.00000E+00
    0.00000E+00         0.00000E+00        -0.66973E+08
 
   -0.48495E+08         0.19956E+06         0.00000E+00
    0.19956E+06        -0.60274E+08         0.00000E+00
    0.00000E+00         0.00000E+00        -0.66976E+08
 
   -0.49803E+08        -0.50832E+05         0.00000E+00
   -0.50832E+05        -0.60041E+08         0.00000E+00
    0.00000E+00         0.00000E+00        -0.66980E+08
 
   -0.51628E+08        -0.12921E+06         0.00000E+00
   -0.12921E+06        -0.59658E+08         0.00000E+00
    0.00000E+00         0.00000E+00        -0.66983E+08
 
   -0.53820E+08         0.95791E+05         0.00000E+00
    0.95791E+05        -0.59157E+08         0.00000E+00
    0.00000E+00         0.00000E+00        -0.66987E+08
 
   -0.56186E+08         0.64147E+06         0.00000E+00
    0.64147E+06        -0.58579E+08         0.00000E+00
    0.00000E+00         0.00000E+00        -0.66991E+08
 
   -0.58603E+08         0.14635E+07         0.00000E+00
    0.14635E+07        -0.57924E+08         0.00000E+00
    0.00000E+00         0.00000E+00        -0.66995E+08
 
   -0.61033E+08         0.25265E+07         0.00000E+00
    0.25265E+07        -0.57157E+08         0.00000E+00
    0.00000E+00         0.00000E+00        -0.66998E+08
 
   -0.63462E+08         0.38457E+07         0.00000E+00
    0.38457E+07        -0.56244E+08         0.00000E+00
    0.00000E+00         0.00000E+00        -0.67000E+08
 
   -0.65838E+08         0.54676E+07         0.00000E+00
    0.54676E+07        -0.55201E+08         0.00000E+00
    0.00000E+00         0.00000E+00        -0.67001E+08
 
   -0.44738E+08         0.57449E+05         0.00000E+00
    0.57449E+05        -0.60028E+08         0.00000E+00
    0.00000E+00         0.00000E+00        -0.65059E+08
 
   -0.45532E+08         0.12848E+06         0.00000E+00
    0.12848E+06        -0.60007E+08         0.00000E+00
    0.00000E+00         0.00000E+00        -0.65057E+08
 
   -0.46269E+08         0.33168E+06         0.00000E+00
    0.33168E+06        -0.60099E+08         0.00000E+00
    0.00000E+00         0.00000E+00        -0.65054E+08
 
   -0.46810E+08         0.50469E+06         0.00000E+00
    0.50469E+06        -0.60239E+08         0.00000E+00
    0.00000E+00         0.00000E+00        -0.65052E+08
 
   -0.47273E+08         0.55860E+06         0.00000E+00
    0.55860E+06        -0.60365E+08         0.00000E+00
    0.00000E+00         0.00000E+00        -0.65051E+08
 
   -0.47844E+08         0.48591E+06         0.00000E+00
    0.48591E+06        -0.60408E+08         0.00000E+00
    0.00000E+00         0.00000E+00        -0.65051E+08
 
   -0.48690E+08         0.35513E+06         0.00000E+00
    0.35513E+06        -0.60327E+08         0.00000E+00
    0.00000E+00         0.00000E+00        -0.65051E+08
 
   -0.49906E+08         0.26744E+06         0.00000E+00
    0.26744E+06        -0.60095E+08         0.00000E+00
    0.00000E+00         0.00000E+00        -0.65051E+08
 
   -0.51499E+08         0.34144E+06         0.00000E+00
    0.34144E+06        -0.59703E+08         0.00000E+00
    0.00000E+00         0.00000E+00        -0.65051E+08
 
   -0.53389E+08         0.67043E+06         0.00000E+00
    0.67043E+06        -0.59178E+08         0.00000E+00
    0.00000E+00         0.00000E+00        -0.65051E+08
 
   -0.55459E+08         0.12903E+07         0.00000E+00
    0.12903E+07        -0.58556E+08         0.00000E+00
    0.00000E+00         0.00000E+00        -0.65051E+08
 
   -0.57613E+08         0.21933E+07         0.00000E+00
    0.21933E+07        -0.57855E+08         0.00000E+00
    0.00000E+00         0.00000E+00        -0.65051E+08
 
   -0.59789E+08         0.33631E+07         0.00000E+00
    0.33631E+07        -0.57071E+08         0.00000E+00
    0.00000E+00         0.00000E+00        -0.65051E+08
 
   -0.61945E+08         0.47965E+07         0.00000E+00
    0.47965E+07        -0.56203E+08         0.00000E+00
    0.00000E+00         0.00000E+00        -0.65050E+08
 
   -0.64032E+08         0.64965E+07         0.00000E+00
    0.64965E+07        -0.55262E+08         0.00000E+00
    0.00000E+00         0.00000E+00        -0.65050E+08
 
   -0.44661E+08         0.31336E+05         0.00000E+00
    0.31336E+05        -0.60009E+08         0.00000E+00
    0.00000E+00         0.00000E+00        -0.63121E+08
 
   -0.45415E+08         0.11181E+06         0.00000E+00
    0.11181E+06        -0.60042E+08         0.00000E+00
    0.00000E+00         0.00000E+00        -0.63120E+08
 
   -0.46096E+08         0.23325E+06         0.00000E+00
    0.23325E+06        -0.60094E+08         0.00000E+00
    0.00000E+00         0.00000E+00        -0.63117E+08
 
   -0.46692E+08         0.37091E+06         0.00000E+00
    0.37091E+06        -0.60192E+08         0.00000E+00
    0.00000E+00         0.00000E+00        -0.63115E+08
 
   -0.47252E+08         0.45946E+06         0.00000E+00
    0.45946E+06        -0.60293E+08         0.00000E+00
    0.00000E+00         0.00000E+00        -0.63113E+08
 
   -0.47894E+08         0.48726E+06         0.00000E+00
    0.48726E+06        -0.60336E+08         0.00000E+00
    0.00000E+00         0.00000E+00        -0.63111E+08
 
   -0.48736E+08         0.49800E+06         0.00000E+00
    0.49800E+06        -0.60267E+08         0.00000E+00
    0.00000E+00         0.00000E+00        -0.63109E+08
 
   -0.49847E+08         0.57160E+06         0.00000E+00
    0.57160E+06        -0.60053E+08         0.00000E+00
    0.00000E+00         0.00000E+00        -0.63106E+08
 
   -0.51238E+08         0.79600E+06         0.00000E+00
    0.79600E+06        -0.59691E+08         0.00000E+00
    0.00000E+00         0.00000E+00        -0.63104E+08
 
   -0.52866E+08         0.12422E+07         0.00000E+00
    0.12422E+07        -0.59197E+08         0.00000E+00
    0.00000E+00         0.00000E+00        -0.63101E+08
 
   -0.54656E+08         0.19491E+07         0.00000E+00
    0.19491E+07        -0.58600E+08         0.00000E+00
    0.00000E+00         0.00000E+00        -0.63098E+08
 
   -0.56538E+08         0.29264E+07         0.00000E+00
    0.29264E+07        -0.57922E+08         0.00000E+00
    0.00000E+00         0.00000E+00        -0.63095E+08
 
   -0.58452E+08         0.41689E+07         0.00000E+00
    0.41689E+07        -0.57176E+08         0.00000E+00
    0.00000E+00         0.00000E+00        -0.63092E+08
 
   -0.60350E+08         0.56682E+07         0.00000E+00
    0.56682E+07        -0.56372E+08         0.00000E+00
    0.00000E+00         0.00000E+00        -0.63090E+08
 
   -0.62189E+08         0.74115E+07         0.00000E+00
    0.74115E+07        -0.55525E+08         0.00000E+00
    0.00000E+00         0.00000E+00        -0.63089E+08
 
   -0.44609E+08         0.13309E+05         0.00000E+00
    0.13309E+05        -0.60009E+08         0.00000E+00
    0.00000E+00         0.00000E+00        -0.61168E+08
 
   -0.45327E+08         0.69361E+05         0.00000E+00
    0.69361E+05        -0.60040E+08         0.00000E+00
    0.00000E+00         0.00000E+00        -0.61167E+08
 
   -0.45976E+08         0.16131E+06         0.00000E+00
    0.16131E+06        -0.60097E+08         0.00000E+00
    0.00000E+00         0.00000E+00        -0.61165E+08
 
   -0.46575E+08         0.27418E+06         0.00000E+00
    0.27418E+06        -0.60173E+08         0.00000E+00
    0.00000E+00         0.00000E+00        -0.61161E+08
 
   -0.47169E+08         0.38689E+06         0.00000E+00
    0.38689E+06        -0.60243E+08         0.00000E+00
    0.00000E+00         0.00000E+00        -0.61158E+08
 
   -0.47831E+08         0.49538E+06         0.00000E+00
    0.49538E+06        -0.60265E+08         0.00000E+00
    0.00000E+00         0.00000E+00        -0.61154E+08
 
   -0.48637E+08         0.62974E+06         0.00000E+00
    0.62974E+06        -0.60194E+08         0.00000E+00
    0.00000E+00         0.00000E+00        -0.61150E+08
 
   -0.49637E+08         0.84560E+06         0.00000E+00
    0.84560E+06        -0.60002E+08         0.00000E+00
    0.00000E+00         0.00000E+00        -0.61145E+08
 
   -0.50847E+08         0.12068E+07         0.00000E+00
    0.12068E+07        -0.59682E+08         0.00000E+00
    0.00000E+00         0.00000E+00        -0.61140E+08
 
   -0.52241E+08         0.17679E+07         0.00000E+00
    0.17679E+07        -0.59242E+08         0.00000E+00
    0.00000E+00         0.00000E+00        -0.61135E+08
 
   -0.53775E+08         0.25647E+07         0.00000E+00
    0.25647E+07        -0.58702E+08         0.00000E+00
    0.00000E+00         0.00000E+00        -0.61130E+08
 
   -0.55396E+08         0.36125E+07         0.00000E+00
    0.36125E+07        -0.58085E+08         0.00000E+00
    0.00000E+00         0.00000E+00        -0.61125E+08
 
   -0.57054E+08         0.49122E+07         0.00000E+00
    0.49122E+07        -0.57406E+08         0.00000E+00
    0.00000E+00         0.00000E+00        -0.61121E+08
 
   -0.58708E+08         0.64556E+07         0.00000E+00
    0.64556E+07        -0.56682E+08         0.00000E+00
    0.00000E+00         0.00000E+00        -0.61118E+08
 
   -0.60323E+08         0.82270E+07         0.00000E+00
    0.82270E+07        -0.55927E+08         0.00000E+00
    0.00000E+00         0.00000E+00        -0.61116E+08
 
   -0.44588E+08        -0.34517E+04         0.00000E+00
   -0.34517E+04        -0.60009E+08         0.00000E+00
    0.00000E+00         0.00000E+00        -0.59200E+08
 
   -0.45264E+08         0.24201E+05         0.00000E+00
    0.24201E+05        -0.60040E+08         0.00000E+00
    0.00000E+00         0.00000E+00        -0.59199E+08
 
   -0.45878E+08         0.95032E+05         0.00000E+00
    0.95032E+05        -0.60094E+08         0.00000E+00
    0.00000E+00         0.00000E+00        -0.59196E+08
 
   -0.46456E+08         0.20241E+06         0.00000E+00
    0.20241E+06        -0.60157E+08         0.00000E+00
    0.00000E+00         0.00000E+00        -0.59192E+08
 
   -0.47037E+08         0.34076E+06         0.00000E+00
    0.34076E+06        -0.60208E+08         0.00000E+00
    0.00000E+00         0.00000E+00        -0.59187E+08
 
   -0.47673E+08         0.51564E+06         0.00000E+00
    0.51564E+06        -0.60215E+08         0.00000E+00
    0.00000E+00         0.00000E+00        -0.59181E+08
 
   -0.48413E+08         0.75047E+06         0.00000E+00
    0.75047E+06        -0.60147E+08         0.00000E+00
    0.00000E+00         0.00000E+00        -0.59175E+08
 
   -0.49296E+08         0.10846E+07         0.00000E+00
    0.10846E+07        -0.59980E+08         0.00000E+00
    0.00000E+00         0.00000E+00        -0.59169E+08
 
   -0.50335E+08         0.15639E+07         0.00000E+00
    0.15639E+07        -0.59705E+08         0.00000E+00
    0.00000E+00         0.00000E+00        -0.59162E+08
 
   -0.51517E+08         0.22297E+07         0.00000E+00
    0.22297E+07        -0.59327E+08         0.00000E+00
    0.00000E+00         0.00000E+00        -0.59155E+08
 
   -0.52816E+08         0.31117E+07         0.00000E+00
    0.31117E+07        -0.58860E+08         0.00000E+00
    0.00000E+00         0.00000E+00        -0.59148E+08
 
   -0.54193E+08         0.42258E+07         0.00000E+00
    0.42258E+07        -0.58320E+08         0.00000E+00
    0.00000E+00         0.00000E+00        -0.59142E+08
 
   -0.55610E+08         0.55754E+07         0.00000E+00
    0.55754E+07        -0.57724E+08         0.00000E+00
    0.00000E+00         0.00000E+00        -0.59137E+08
 
   -0.57034E+08         0.71540E+07         0.00000E+00
    0.71540E+07        -0.57087E+08         0.00000E+00
    0.00000E+00         0.00000E+00        -0.59133E+08
 
   -0.58437E+08         0.89481E+07         0.00000E+00
    0.89481E+07        -0.56424E+08         0.00000E+00
    0.00000E+00         0.00000E+00        -0.59131E+08
 
   -0.44599E+08        -0.20388E+05         0.00000E+00
   -0.20388E+05        -0.60009E+08         0.00000E+00
    0.00000E+00         0.00000E+00        -0.57216E+08
 
   -0.45226E+08        -0.19926E+05         0.00000E+00
   -0.19926E+05        -0.60039E+08         0.00000E+00
    0.00000E+00         0.00000E+00        -0.57214E+08
 
   -0.45792E+08         0.35028E+05         0.00000E+00
    0.35028E+05        -0.60090E+08         0.00000E+00
    0.00000E+00         0.00000E+00        -0.57210E+08
 
   -0.46327E+08         0.14382E+06         0.00000E+00
    0.14382E+06        -0.60147E+08         0.00000E+00
    0.00000E+00         0.00000E+00        -0.57206E+08
 
   -0.46862E+08         0.30865E+06         0.00000E+00
    0.30865E+06        -0.60189E+08         0.00000E+00
    0.00000E+00         0.00000E+00        -0.57200E+08
 
   -0.47437E+08         0.53908E+06         0.00000E+00
    0.53908E+06        -0.60194E+08         0.00000E+00
    0.00000E+00         0.00000E+00        -0.57193E+08
 
   -0.48089E+08         0.85501E+06         0.00000E+00
    0.85501E+06        -0.60136E+08         0.00000E+00
    0.00000E+00         0.00000E+00        -0.57185E+08
 
   -0.48846E+08         0.12855E+07         0.00000E+00
    0.12855E+07        -0.59999E+08         0.00000E+00
    0.00000E+00         0.00000E+00        -0.57177E+08
 
   -0.49719E+08         0.18638E+07         0.00000E+00
    0.18638E+07        -0.59774E+08         0.00000E+00
    0.00000E+00         0.00000E+00        -0.57168E+08
 
   -0.50704E+08         0.26208E+07         0.00000E+00
    0.26208E+07        -0.59461E+08         0.00000E+00
    0.00000E+00         0.00000E+00        -0.57160E+08
 
   -0.51784E+08         0.35801E+07         0.00000E+00
    0.35801E+07        -0.59069E+08         0.00000E+00
    0.00000E+00         0.00000E+00        -0.57151E+08
 
   -0.52934E+08         0.47553E+07         0.00000E+00
    0.47553E+07        -0.58612E+08         0.00000E+00
    0.00000E+00         0.00000E+00        -0.57144E+08
 
   -0.54125E+08         0.61505E+07         0.00000E+00
    0.61505E+07        -0.58104E+08         0.00000E+00
    0.00000E+00         0.00000E+00        -0.57138E+08
 
   -0.55332E+08         0.77613E+07         0.00000E+00
    0.77613E+07        -0.57558E+08         0.00000E+00
    0.00000E+00         0.00000E+00        -0.57133E+08
 
   -0.56534E+08         0.95766E+07         0.00000E+00
    0.95766E+07        -0.56986E+08         0.00000E+00
    0.00000E+00         0.00000E+00        -0.57131E+08
 
   -0.44642E+08        -0.37250E+05         0.00000E+00
   -0.37250E+05        -0.60009E+08         0.00000E+00
    0.00000E+00         0.00000E+00        -0.55215E+08
 
   -0.45208E+08        -0.63024E+05         0.00000E+00
   -0.63024E+05        -0.60039E+08         0.00000E+00
    0.00000E+00         0.00000E+00        -0.55213E+08
 
   -0.45714E+08        -0.21835E+05         0.00000E+00
   -0.21835E+05        -0.60089E+08         0.00000E+00
    0.00000E+00         0.00000E+00        -0.55209E+08
 
   -0.46184E+08         0.89891E+05         0.00000E+00
    0.89891E+05        -0.60145E+08         0.00000E+00
    0.00000E+00         0.00000E+00        -0.55203E+08
 
   -0.46649E+08         0.27843E+06         0.00000E+00
    0.27843E+06        -0.60189E+08         0.00000E+00
    0.00000E+00         0.00000E+00        -0.55196E+08
 
   -0.47139E+08         0.55484E+06         0.00000E+00
    0.55484E+06        -0.60201E+08         0.00000E+00
    0.00000E+00         0.00000E+00        -0.55188E+08
 
   -0.47684E+08         0.93619E+06         0.00000E+00
    0.93619E+06        -0.60164E+08         0.00000E+00
    0.00000E+00         0.00000E+00        -0.55178E+08
 
   -0.48305E+08         0.14447E+07         0.00000E+00
    0.14447E+07        -0.60062E+08         0.00000E+00
    0.00000E+00         0.00000E+00        -0.55169E+08
 
   -0.49014E+08         0.21050E+07         0.00000E+00
    0.21050E+07        -0.59887E+08         0.00000E+00
    0.00000E+00         0.00000E+00        -0.55159E+08
 
   -0.49811E+08         0.29398E+07         0.00000E+00
    0.29398E+07        -0.59640E+08         0.00000E+00
    0.00000E+00         0.00000E+00        -0.55149E+08
 
   -0.50687E+08         0.39671E+07         0.00000E+00
    0.39671E+07        -0.59325E+08         0.00000E+00
    0.00000E+00         0.00000E+00        -0.55139E+08
 
   -0.51624E+08         0.51980E+07         0.00000E+00
    0.51980E+07        -0.58952E+08         0.00000E+00
    0.00000E+00         0.00000E+00        -0.55131E+08
 
   -0.52603E+08         0.66358E+07         0.00000E+00
    0.66358E+07        -0.58532E+08         0.00000E+00
    0.00000E+00         0.00000E+00        -0.55124E+08
 
   -0.53605E+08         0.82774E+07         0.00000E+00
    0.82774E+07        -0.58076E+08         0.00000E+00
    0.00000E+00         0.00000E+00        -0.55119E+08
 
   -0.54612E+08         0.10114E+08         0.00000E+00
    0.10114E+08        -0.57594E+08         0.00000E+00
    0.00000E+00         0.00000E+00        -0.55117E+08
 
   -0.44716E+08        -0.54285E+05         0.00000E+00
   -0.54285E+05        -0.60009E+08         0.00000E+00
    0.00000E+00         0.00000E+00        -0.53199E+08
 
   -0.45211E+08        -0.10686E+06         0.00000E+00
   -0.10686E+06        -0.60041E+08         0.00000E+00
    0.00000E+00         0.00000E+00        -0.53196E+08
 
   -0.45641E+08        -0.80049E+05         0.00000E+00
   -0.80049E+05        -0.60094E+08         0.00000E+00
    0.00000E+00         0.00000E+00        -0.53191E+08
 
   -0.46030E+08         0.32821E+05         0.00000E+00
    0.32821E+05        -0.60155E+08         0.00000E+00
    0.00000E+00         0.00000E+00        -0.53184E+08
 
   -0.46404E+08         0.24024E+06         0.00000E+00
    0.24024E+06        -0.60208E+08         0.00000E+00
    0.00000E+00         0.00000E+00        -0.53176E+08
 
   -0.46790E+08         0.55354E+06         0.00000E+00
    0.55354E+06        -0.60237E+08         0.00000E+00
    0.00000E+00         0.00000E+00        -0.53166E+08
 
   -0.47213E+08         0.98733E+06         0.00000E+00
    0.98733E+06        -0.60226E+08         0.00000E+00
    0.00000E+00         0.00000E+00        -0.53156E+08
 
   -0.47691E+08         0.15589E+07         0.00000E+00
    0.15589E+07        -0.60164E+08         0.00000E+00
    0.00000E+00         0.00000E+00        -0.53144E+08
 
   -0.48236E+08         0.22866E+07         0.00000E+00
    0.22866E+07        -0.60043E+08         0.00000E+00
    0.00000E+00         0.00000E+00        -0.53133E+08
 
   -0.48851E+08         0.31872E+07         0.00000E+00
    0.31872E+07        -0.59861E+08         0.00000E+00
    0.00000E+00         0.00000E+00        -0.53122E+08
 
   -0.49531E+08         0.42738E+07         0.00000E+00
    0.42738E+07        -0.59621E+08         0.00000E+00
    0.00000E+00         0.00000E+00        -0.53112E+08
 
   -0.50267E+08         0.55547E+07         0.00000E+00
    0.55547E+07        -0.59330E+08         0.00000E+00
    0.00000E+00         0.00000E+00        -0.53102E+08
 
   -0.51045E+08         0.70324E+07         0.00000E+00
    0.70324E+07        -0.58996E+08         0.00000E+00
    0.00000E+00         0.00000E+00        -0.53095E+08
 
   -0.51851E+08         0.87040E+07         0.00000E+00
    0.87040E+07        -0.58628E+08         0.00000E+00
    0.00000E+00         0.00000E+00        -0.53089E+08
 
   -0.52673E+08         0.10563E+08         0.00000E+00
    0.10563E+08        -0.58234E+08         0.00000E+00
    0.00000E+00         0.00000E+00        -0.53087E+08
 
   -0.44823E+08        -0.72350E+05         0.00000E+00
   -0.72350E+05        -0.60010E+08         0.00000E+00
    0.00000E+00         0.00000E+00        -0.51165E+08
 
   -0.45237E+08        -0.15410E+06         0.00000E+00
   -0.15410E+06        -0.60045E+08         0.00000E+00
    0.00000E+00         0.00000E+00        -0.51162E+08
 
   -0.45577E+08        -0.14442E+06         0.00000E+00
   -0.14442E+06        -0.60104E+08         0.00000E+00
    0.00000E+00         0.00000E+00        -0.51157E+08
 
   -0.45869E+08        -0.34213E+05         0.00000E+00
   -0.34213E+05        -0.60176E+08         0.00000E+00
    0.00000E+00         0.00000E+00        -0.51149E+08
 
   -0.46135E+08         0.18623E+06         0.00000E+00
    0.18623E+06        -0.60245E+08         0.00000E+00
    0.00000E+00         0.00000E+00        -0.51139E+08
 
   -0.46401E+08         0.52784E+06         0.00000E+00
    0.52784E+06        -0.60298E+08         0.00000E+00
    0.00000E+00         0.00000E+00        -0.51128E+08
 
   -0.46689E+08         0.10031E+07         0.00000E+00
    0.10031E+07        -0.60319E+08         0.00000E+00
    0.00000E+00         0.00000E+00        -0.51116E+08
 
   -0.47016E+08         0.16254E+07         0.00000E+00
    0.16254E+07        -0.60300E+08         0.00000E+00
    0.00000E+00         0.00000E+00        -0.51104E+08
 
   -0.47395E+08         0.24085E+07         0.00000E+00
    0.24085E+07        -0.60233E+08         0.00000E+00
    0.00000E+00         0.00000E+00        -0.51091E+08
 
   -0.47831E+08         0.33644E+07         0.00000E+00
    0.33644E+07        -0.60116E+08         0.00000E+00
    0.00000E+00         0.00000E+00        -0.51079E+08
 
   -0.48324E+08         0.45025E+07         0.00000E+00
    0.45025E+07        -0.59949E+08         0.00000E+00
    0.00000E+00         0.00000E+00        -0.51068E+08
 
   -0.48867E+08         0.58282E+07         0.00000E+00
    0.58282E+07        -0.59737E+08         0.00000E+00
    0.00000E+00         0.00000E+00        -0.51058E+08
 
   -0.49454E+08         0.73429E+07         0.00000E+00
    0.73429E+07        -0.59486E+08         0.00000E+00
    0.00000E+00         0.00000E+00        -0.51050E+08
 
   -0.50072E+08         0.90438E+07         0.00000E+00
    0.90438E+07        -0.59203E+08         0.00000E+00
    0.00000E+00         0.00000E+00        -0.51044E+08
 
   -0.50714E+08         0.10925E+08         0.00000E+00
    0.10925E+08        -0.58894E+08         0.00000E+00
    0.00000E+00         0.00000E+00        -0.51041E+08
 
   -0.44967E+08        -0.92564E+05         0.00000E+00
   -0.92564E+05        -0.60012E+08         0.00000E+00
    0.00000E+00         0.00000E+00        -0.49115E+08
 
   -0.45288E+08        -0.20770E+06         0.00000E+00
   -0.20770E+06        -0.60051E+08         0.00000E+00
    0.00000E+00         0.00000E+00        -0.49112E+08
 
   -0.45526E+08        -0.21947E+06         0.00000E+00
   -0.21947E+06        -0.60121E+08         0.00000E+00
    0.00000E+00         0.00000E+00        -0.49105E+08
 
   -0.45705E+08        -0.11692E+06         0.00000E+00
   -0.11692E+06        -0.60208E+08         0.00000E+00
    0.00000E+00         0.00000E+00        -0.49097E+08
 
   -0.45848E+08         0.11026E+06         0.00000E+00
    0.11026E+06        -0.60299E+08         0.00000E+00
    0.00000E+00         0.00000E+00        -0.49086E+08
 
   -0.45981E+08         0.47227E+06         0.00000E+00
    0.47227E+06        -0.60379E+08         0.00000E+00
    0.00000E+00         0.00000E+00        -0.49074E+08
 
   -0.46123E+08         0.97952E+06         0.00000E+00
    0.97952E+06        -0.60437E+08         0.00000E+00
    0.00000E+00         0.00000E+00        -0.49060E+08
 
   -0.46294E+08         0.16424E+07         0.00000E+00
    0.16424E+07        -0.60463E+08         0.00000E+00
    0.00000E+00         0.00000E+00        -0.49047E+08
 
   -0.46504E+08         0.24709E+07         0.00000E+00
    0.24709E+07        -0.60451E+08         0.00000E+00
    0.00000E+00         0.00000E+00        -0.49033E+08
 
   -0.46762E+08         0.34733E+07         0.00000E+00
    0.34733E+07        -0.60397E+08         0.00000E+00
    0.00000E+00         0.00000E+00        -0.49020E+08
 
   -0.47071E+08         0.46559E+07         0.00000E+00
    0.46559E+07        -0.60301E+08         0.00000E+00
    0.00000E+00         0.00000E+00        -0.49007E+08
 
   -0.47428E+08         0.60217E+07         0.00000E+00
    0.60217E+07        -0.60165E+08         0.00000E+00
    0.00000E+00         0.00000E+00        -0.48996E+08
 
   -0.47830E+08         0.75707E+07         0.00000E+00
    0.75707E+07        -0.59994E+08         0.00000E+00
    0.00000E+00         0.00000E+00        -0.48988E+08
 
   -0.48268E+08         0.92997E+07         0.00000E+00
    0.92997E+07        -0.59792E+08         0.00000E+00
    0.00000E+00         0.00000E+00        -0.48982E+08
 
   -0.48737E+08         0.11203E+08         0.00000E+00
    0.11203E+08        -0.59566E+08         0.00000E+00
    0.00000E+00         0.00000E+00        -0.48978E+08
 
   -0.45151E+08        -0.11604E+06         0.00000E+00
   -0.11604E+06        -0.60013E+08         0.00000E+00
    0.00000E+00         0.00000E+00        -0.47048E+08
 
   -0.45369E+08        -0.27043E+06         0.00000E+00
   -0.27043E+06        -0.60060E+08         0.00000E+00
    0.00000E+00         0.00000E+00        -0.47044E+08
 
   -0.45492E+08        -0.30909E+06         0.00000E+00
   -0.30909E+06        -0.60143E+08         0.00000E+00
    0.00000E+00         0.00000E+00        -0.47037E+08
 
   -0.45544E+08        -0.21978E+06         0.00000E+00
   -0.21978E+06        -0.60250E+08         0.00000E+00
    0.00000E+00         0.00000E+00        -0.47027E+08
 
   -0.45552E+08         0.78761E+04         0.00000E+00
    0.78761E+04        -0.60365E+08         0.00000E+00
    0.00000E+00         0.00000E+00        -0.47015E+08
 
   -0.45538E+08         0.38308E+06         0.00000E+00
    0.38308E+06        -0.60477E+08         0.00000E+00
    0.00000E+00         0.00000E+00        -0.47002E+08
 
   -0.45525E+08         0.91426E+06         0.00000E+00
    0.91426E+06        -0.60574E+08         0.00000E+00
    0.00000E+00         0.00000E+00        -0.46987E+08
 
   -0.45532E+08         0.16092E+07         0.00000E+00
    0.16092E+07        -0.60646E+08         0.00000E+00
    0.00000E+00         0.00000E+00        -0.46972E+08
 
   -0.45570E+08         0.24746E+07         0.00000E+00
    0.24746E+07        -0.60688E+08         0.00000E+00
    0.00000E+00         0.00000E+00        -0.46957E+08
 
   -0.45651E+08         0.35161E+07         0.00000E+00
    0.35161E+07        -0.60695E+08         0.00000E+00
    0.00000E+00         0.00000E+00        -0.46943E+08
 
   -0.45779E+08         0.47369E+07         0.00000E+00
    0.47369E+07        -0.60667E+08         0.00000E+00
    0.00000E+00         0.00000E+00        -0.46930E+08
 
   -0.45954E+08         0.61383E+07         0.00000E+00
    0.61383E+07        -0.60604E+08         0.00000E+00
    0.00000E+00         0.00000E+00        -0.46918E+08
 
   -0.46175E+08         0.77188E+07         0.00000E+00
    0.77188E+07        -0.60510E+08         0.00000E+00
    0.00000E+00         0.00000E+00        -0.46909E+08
 
   -0.46439E+08         0.94746E+07         0.00000E+00
    0.94746E+07        -0.60387E+08         0.00000E+00
    0.00000E+00         0.00000E+00        -0.46902E+08
 
   -0.46739E+08         0.11400E+08         0.00000E+00
    0.11400E+08        -0.60241E+08         0.00000E+00
    0.00000E+00         0.00000E+00        -0.46899E+08
 
   -0.45384E+08        -0.14375E+06         0.00000E+00
   -0.14375E+06        -0.60016E+08         0.00000E+00
    0.00000E+00         0.00000E+00        -0.44963E+08
 
   -0.45487E+08        -0.34458E+06         0.00000E+00
   -0.34458E+06        -0.60071E+08         0.00000E+00
    0.00000E+00         0.00000E+00        -0.44959E+08
 
   -0.45481E+08        -0.41630E+06         0.00000E+00
   -0.41630E+06        -0.60170E+08         0.00000E+00
    0.00000E+00         0.00000E+00        -0.44951E+08
 
   -0.45393E+08        -0.34603E+06         0.00000E+00
   -0.34603E+06        -0.60298E+08         0.00000E+00
    0.00000E+00         0.00000E+00        -0.44940E+08
 
   -0.45251E+08        -0.12384E+06         0.00000E+00
   -0.12384E+06        -0.60440E+08         0.00000E+00
    0.00000E+00         0.00000E+00        -0.44927E+08
 
   -0.45080E+08         0.25811E+06         0.00000E+00
    0.25811E+06        -0.60585E+08         0.00000E+00
    0.00000E+00         0.00000E+00        -0.44913E+08
 
   -0.44903E+08         0.80623E+06         0.00000E+00
    0.80623E+06        -0.60722E+08         0.00000E+00
    0.00000E+00         0.00000E+00        -0.44897E+08
 
   -0.44738E+08         0.15258E+07         0.00000E+00
    0.15258E+07        -0.60840E+08         0.00000E+00
    0.00000E+00         0.00000E+00        -0.44880E+08
 
   -0.44602E+08         0.24211E+07         0.00000E+00
    0.24211E+07        -0.60935E+08         0.00000E+00
    0.00000E+00         0.00000E+00        -0.44864E+08
 
   -0.44504E+08         0.34950E+07         0.00000E+00
    0.34950E+07        -0.61002E+08         0.00000E+00
    0.00000E+00         0.00000E+00        -0.44849E+08
 
   -0.44451E+08         0.47487E+07         0.00000E+00
    0.47487E+07        -0.61038E+08         0.00000E+00
    0.00000E+00         0.00000E+00        -0.44835E+08
 
   -0.44448E+08         0.61814E+07         0.00000E+00
    0.61814E+07        -0.61046E+08         0.00000E+00
    0.00000E+00         0.00000E+00        -0.44822E+08
 
   -0.44493E+08         0.77905E+07         0.00000E+00
    0.77905E+07        -0.61025E+08         0.00000E+00
    0.00000E+00         0.00000E+00        -0.44813E+08
 
   -0.44586E+08         0.95713E+07         0.00000E+00
    0.95713E+07        -0.60978E+08         0.00000E+00
    0.00000E+00         0.00000E+00        -0.44806E+08
 
   -0.44722E+08         0.11518E+08         0.00000E+00
    0.11518E+08        -0.60909E+08         0.00000E+00
    0.00000E+00         0.00000E+00        -0.44802E+08
 
   -0.45674E+08        -0.17641E+06         0.00000E+00
   -0.17641E+06        -0.60018E+08         0.00000E+00
    0.00000E+00         0.00000E+00        -0.42860E+08
 
   -0.45649E+08        -0.43181E+06         0.00000E+00
   -0.43181E+06        -0.60083E+08         0.00000E+00
    0.00000E+00         0.00000E+00        -0.42856E+08
 
   -0.45499E+08        -0.54309E+06         0.00000E+00
   -0.54309E+06        -0.60199E+08         0.00000E+00
    0.00000E+00         0.00000E+00        -0.42847E+08
 
   -0.45257E+08        -0.49748E+06         0.00000E+00
   -0.49748E+06        -0.60349E+08         0.00000E+00
    0.00000E+00         0.00000E+00        -0.42836E+08
 
   -0.44952E+08        -0.28616E+06         0.00000E+00
   -0.28616E+06        -0.60520E+08         0.00000E+00
    0.00000E+00         0.00000E+00        -0.42821E+08
 
   -0.44612E+08         0.96909E+05         0.00000E+00
    0.96909E+05        -0.60699E+08         0.00000E+00
    0.00000E+00         0.00000E+00        -0.42805E+08
 
   -0.44262E+08         0.65593E+06         0.00000E+00
    0.65593E+06        -0.60873E+08         0.00000E+00
    0.00000E+00         0.00000E+00        -0.42788E+08
 
   -0.43921E+08         0.13938E+07         0.00000E+00
    0.13938E+07        -0.61036E+08         0.00000E+00
    0.00000E+00         0.00000E+00        -0.42771E+08
 
   -0.43605E+08         0.23125E+07         0.00000E+00
    0.23125E+07        -0.61182E+08         0.00000E+00
    0.00000E+00         0.00000E+00        -0.42753E+08
 
   -0.43326E+08         0.34128E+07         0.00000E+00
    0.34128E+07        -0.61305E+08         0.00000E+00
    0.00000E+00         0.00000E+00        -0.42737E+08
 
   -0.43094E+08         0.46941E+07         0.00000E+00
    0.46941E+07        -0.61404E+08         0.00000E+00
    0.00000E+00         0.00000E+00        -0.42722E+08
 
   -0.42913E+08         0.61541E+07         0.00000E+00
    0.61541E+07        -0.61478E+08         0.00000E+00
    0.00000E+00         0.00000E+00        -0.42709E+08
 
   -0.42786E+08         0.77885E+07         0.00000E+00
    0.77885E+07        -0.61528E+08         0.00000E+00
    0.00000E+00         0.00000E+00        -0.42699E+08
 
   -0.42711E+08         0.95921E+07         0.00000E+00
    0.95921E+07        -0.61555E+08         0.00000E+00
    0.00000E+00         0.00000E+00        -0.42691E+08
 
   -0.42686E+08         0.11559E+08         0.00000E+00
    0.11559E+08        -0.61562E+08         0.00000E+00
    0.00000E+00         0.00000E+00        -0.42687E+08
 
   -0.46031E+08        -0.21450E+06         0.00000E+00
   -0.21450E+06        -0.60021E+08         0.00000E+00
    0.00000E+00         0.00000E+00        -0.40739E+08
 
   -0.45862E+08        -0.53306E+06         0.00000E+00
   -0.53306E+06        -0.60096E+08         0.00000E+00
    0.00000E+00         0.00000E+00        -0.40735E+08
 
   -0.45552E+08        -0.69028E+06         0.00000E+00
   -0.69028E+06        -0.60229E+08         0.00000E+00
    0.00000E+00         0.00000E+00        -0.40725E+08
 
   -0.45140E+08        -0.67445E+06         0.00000E+00
   -0.67445E+06        -0.60402E+08         0.00000E+00
    0.00000E+00         0.00000E+00        -0.40713E+08
 
   -0.44660E+08        -0.47864E+06         0.00000E+00
   -0.47864E+06        -0.60600E+08         0.00000E+00
    0.00000E+00         0.00000E+00        -0.40697E+08
 
   -0.44141E+08        -0.99192E+05         0.00000E+00
   -0.99192E+05        -0.60810E+08         0.00000E+00
    0.00000E+00         0.00000E+00        -0.40680E+08
 
   -0.43609E+08         0.46549E+06         0.00000E+00
    0.46549E+06        -0.61020E+08         0.00000E+00
    0.00000E+00         0.00000E+00        -0.40661E+08
 
   -0.43085E+08         0.12159E+07         0.00000E+00
    0.12159E+07        -0.61225E+08         0.00000E+00
    0.00000E+00         0.00000E+00        -0.40642E+08
 
   -0.42586E+08         0.21519E+07         0.00000E+00
    0.21519E+07        -0.61417E+08         0.00000E+00
    0.00000E+00         0.00000E+00        -0.40624E+08
 
   -0.42125E+08         0.32725E+07         0.00000E+00
    0.32725E+07        -0.61594E+08         0.00000E+00
    0.00000E+00         0.00000E+00        -0.40607E+08
 
   -0.41712E+08         0.45760E+07         0.00000E+00
    0.45760E+07        -0.61752E+08         0.00000E+00
    0.00000E+00         0.00000E+00        -0.40591E+08
 
   -0.41354E+08         0.60588E+07         0.00000E+00
    0.60588E+07        -0.61891E+08         0.00000E+00
    0.00000E+00         0.00000E+00        -0.40577E+08
 
   -0.41055E+08         0.77153E+07         0.00000E+00
    0.77153E+07        -0.62009E+08         0.00000E+00
    0.00000E+00         0.00000E+00        -0.40566E+08
 
   -0.40815E+08         0.95390E+07         0.00000E+00
    0.95390E+07        -0.62108E+08         0.00000E+00
    0.00000E+00         0.00000E+00        -0.40559E+08
 
   -0.40632E+08         0.11524E+08         0.00000E+00
    0.11524E+08        -0.62189E+08         0.00000E+00
    0.00000E+00         0.00000E+00        -0.40555E+08
 
   -0.46465E+08        -0.25822E+06         0.00000E+00
   -0.25822E+06        -0.60024E+08         0.00000E+00
    0.00000E+00         0.00000E+00        -0.38600E+08
 
   -0.46132E+08        -0.64848E+06         0.00000E+00
   -0.64848E+06        -0.60108E+08         0.00000E+00
    0.00000E+00         0.00000E+00        -0.38595E+08
 
   -0.45645E+08        -0.85747E+06         0.00000E+00
   -0.85747E+06        -0.60258E+08         0.00000E+00
    0.00000E+00         0.00000E+00        -0.38585E+08
 
   -0.45048E+08        -0.87560E+06         0.00000E+00
   -0.87560E+06        -0.60452E+08         0.00000E+00
    0.00000E+00         0.00000E+00        -0.38571E+08
 
   -0.44379E+08        -0.69884E+06         0.00000E+00
   -0.69884E+06        -0.60675E+08         0.00000E+00
    0.00000E+00         0.00000E+00        -0.38554E+08
 
   -0.43671E+08        -0.32675E+06         0.00000E+00
   -0.32675E+06        -0.60912E+08         0.00000E+00
    0.00000E+00         0.00000E+00        -0.38535E+08
 
   -0.42949E+08         0.23913E+06         0.00000E+00
    0.23913E+06        -0.61153E+08         0.00000E+00
    0.00000E+00         0.00000E+00        -0.38516E+08
 
   -0.42237E+08         0.99658E+06         0.00000E+00
    0.99658E+06        -0.61393E+08         0.00000E+00
    0.00000E+00         0.00000E+00        -0.38496E+08
 
   -0.41551E+08         0.19434E+07         0.00000E+00
    0.19434E+07        -0.61627E+08         0.00000E+00
    0.00000E+00         0.00000E+00        -0.38476E+08
 
   -0.40905E+08         0.30777E+07         0.00000E+00
    0.30777E+07        -0.61852E+08         0.00000E+00
    0.00000E+00         0.00000E+00        -0.38458E+08
 
   -0.40310E+08         0.43970E+07         0.00000E+00
    0.43970E+07        -0.62067E+08         0.00000E+00
    0.00000E+00         0.00000E+00        -0.38441E+08
 
   -0.39774E+08         0.58975E+07         0.00000E+00
    0.58975E+07        -0.62268E+08         0.00000E+00
    0.00000E+00         0.00000E+00        -0.38427E+08
 
   -0.39305E+08         0.75725E+07         0.00000E+00
    0.75725E+07        -0.62454E+08         0.00000E+00
    0.00000E+00         0.00000E+00        -0.38416E+08
 
   -0.38902E+08         0.94130E+07         0.00000E+00
    0.94130E+07        -0.62624E+08         0.00000E+00
    0.00000E+00         0.00000E+00        -0.38408E+08
 
   -0.38559E+08         0.11413E+08         0.00000E+00
    0.11413E+08        -0.62780E+08         0.00000E+00
    0.00000E+00         0.00000E+00        -0.38404E+08
 
   -0.46987E+08        -0.30750E+06         0.00000E+00
   -0.30750E+06        -0.60027E+08         0.00000E+00
    0.00000E+00         0.00000E+00        -0.36441E+08
 
   -0.46467E+08        -0.77742E+06         0.00000E+00
   -0.77742E+06        -0.60120E+08         0.00000E+00
    0.00000E+00         0.00000E+00        -0.36436E+08
 
   -0.45783E+08        -0.10429E+07         0.00000E+00
   -0.10429E+07        -0.60285E+08         0.00000E+00
    0.00000E+00         0.00000E+00        -0.36425E+08
 
   -0.44983E+08        -0.10977E+07         0.00000E+00
   -0.10977E+07        -0.60497E+08         0.00000E+00
    0.00000E+00         0.00000E+00        -0.36410E+08
 
   -0.44112E+08        -0.94208E+06         0.00000E+00
   -0.94208E+06        -0.60738E+08         0.00000E+00
    0.00000E+00         0.00000E+00        -0.36392E+08
 
   -0.43204E+08        -0.57985E+06         0.00000E+00
   -0.57985E+06        -0.60996E+08         0.00000E+00
    0.00000E+00         0.00000E+00        -0.36372E+08
 
   -0.42287E+08        -0.16509E+05         0.00000E+00
   -0.16509E+05        -0.61261E+08         0.00000E+00
    0.00000E+00         0.00000E+00        -0.36351E+08
 
   -0.41383E+08         0.74262E+06         0.00000E+00
    0.74262E+06        -0.61528E+08         0.00000E+00
    0.00000E+00         0.00000E+00        -0.36330E+08
 
   -0.40508E+08         0.16934E+07         0.00000E+00
    0.16934E+07        -0.61796E+08         0.00000E+00
    0.00000E+00         0.00000E+00        -0.36309E+08
 
   -0.39675E+08         0.28331E+07         0.00000E+00
    0.28331E+07        -0.62063E+08         0.00000E+00
    0.00000E+00         0.00000E+00        -0.36290E+08
 
   -0.38895E+08         0.41596E+07         0.00000E+00
    0.41596E+07        -0.62329E+08         0.00000E+00
    0.00000E+00         0.00000E+00        -0.36272E+08
 
   -0.38180E+08         0.56699E+07         0.00000E+00
    0.56699E+07        -0.62592E+08         0.00000E+00
    0.00000E+00         0.00000E+00        -0.36258E+08
 
   -0.37539E+08         0.73590E+07         0.00000E+00
    0.73590E+07        -0.62849E+08         0.00000E+00
    0.00000E+00         0.00000E+00        -0.36246E+08
 
   -0.36976E+08         0.92134E+07         0.00000E+00
    0.92134E+07        -0.63094E+08         0.00000E+00
    0.00000E+00         0.00000E+00        -0.36238E+08
 
   -0.36473E+08         0.11223E+08         0.00000E+00
    0.11223E+08        -0.63329E+08         0.00000E+00
    0.00000E+00         0.00000E+00        -0.36234E+08
 
   -0.47605E+08        -0.36202E+06         0.00000E+00
   -0.36202E+06        -0.60029E+08         0.00000E+00
    0.00000E+00         0.00000E+00        -0.34263E+08
 
   -0.46872E+08        -0.91837E+06         0.00000E+00
   -0.91837E+06        -0.60131E+08         0.00000E+00
    0.00000E+00         0.00000E+00        -0.34257E+08
 
   -0.45967E+08        -0.12433E+07         0.00000E+00
   -0.12433E+07        -0.60307E+08         0.00000E+00
    0.00000E+00         0.00000E+00        -0.34245E+08
 
   -0.44947E+08        -0.13355E+07         0.00000E+00
   -0.13355E+07        -0.60531E+08         0.00000E+00
    0.00000E+00         0.00000E+00        -0.34229E+08
 
   -0.43860E+08        -0.12011E+07         0.00000E+00
   -0.12011E+07        -0.60784E+08         0.00000E+00
    0.00000E+00         0.00000E+00        -0.34210E+08
 
   -0.42744E+08        -0.84968E+06         0.00000E+00
   -0.84968E+06        -0.61053E+08         0.00000E+00
    0.00000E+00         0.00000E+00        -0.34189E+08
 
   -0.41628E+08        -0.29174E+06         0.00000E+00
   -0.29174E+06        -0.61330E+08         0.00000E+00
    0.00000E+00         0.00000E+00        -0.34167E+08
 
   -0.40530E+08         0.46372E+06         0.00000E+00
    0.46372E+06        -0.61614E+08         0.00000E+00
    0.00000E+00         0.00000E+00        -0.34144E+08
 
   -0.39465E+08         0.14105E+07         0.00000E+00
    0.14105E+07        -0.61904E+08         0.00000E+00
    0.00000E+00         0.00000E+00        -0.34123E+08
 
   -0.38444E+08         0.25455E+07         0.00000E+00
    0.25455E+07        -0.62205E+08         0.00000E+00
    0.00000E+00         0.00000E+00        -0.34103E+08
 
   -0.37478E+08         0.38679E+07         0.00000E+00
    0.38679E+07        -0.62516E+08         0.00000E+00
    0.00000E+00         0.00000E+00        -0.34085E+08
 
   -0.36579E+08         0.53764E+07         0.00000E+00
    0.53764E+07        -0.62837E+08         0.00000E+00
    0.00000E+00         0.00000E+00        -0.34069E+08
 
   -0.35762E+08         0.70670E+07         0.00000E+00
    0.70670E+07        -0.63165E+08         0.00000E+00
    0.00000E+00         0.00000E+00        -0.34058E+08
 
   -0.35044E+08         0.89321E+07         0.00000E+00
    0.89321E+07        -0.63499E+08         0.00000E+00
    0.00000E+00         0.00000E+00        -0.34049E+08
 
   -0.34378E+08         0.10936E+08         0.00000E+00
    0.10936E+08        -0.63846E+08         0.00000E+00
    0.00000E+00         0.00000E+00        -0.34045E+08
 
   -0.48328E+08        -0.42123E+06         0.00000E+00
   -0.42123E+06        -0.60032E+08         0.00000E+00
    0.00000E+00         0.00000E+00        -0.32065E+08
 
   -0.47351E+08        -0.10689E+07         0.00000E+00
   -0.10689E+07        -0.60139E+08         0.00000E+00
    0.00000E+00         0.00000E+00        -0.32058E+08
 
   -0.46199E+08        -0.14536E+07         0.00000E+00
   -0.14536E+07        -0.60323E+08         0.00000E+00
    0.00000E+00         0.00000E+00        -0.32045E+08
 
   -0.44938E+08        -0.15812E+07         0.00000E+00
   -0.15812E+07        -0.60552E+08         0.00000E+00
    0.00000E+00         0.00000E+00        -0.32028E+08
 
   -0.43623E+08        -0.14655E+07         0.00000E+00
   -0.14655E+07        -0.60806E+08         0.00000E+00
    0.00000E+00         0.00000E+00        -0.32007E+08
 
   -0.42293E+08        -0.11240E+07         0.00000E+00
   -0.11240E+07        -0.61073E+08         0.00000E+00
    0.00000E+00         0.00000E+00        -0.31985E+08
 
   -0.40974E+08        -0.57341E+06         0.00000E+00
   -0.57341E+06        -0.61347E+08         0.00000E+00
    0.00000E+00         0.00000E+00        -0.31962E+08
 
   -0.39684E+08         0.17299E+06         0.00000E+00
    0.17299E+06        -0.61632E+08         0.00000E+00
    0.00000E+00         0.00000E+00        -0.31939E+08
 
   -0.38431E+08         0.11068E+07         0.00000E+00
    0.11068E+07        -0.61932E+08         0.00000E+00
    0.00000E+00         0.00000E+00        -0.31917E+08
 
   -0.37224E+08         0.22248E+07         0.00000E+00
    0.22248E+07        -0.62252E+08         0.00000E+00
    0.00000E+00         0.00000E+00        -0.31896E+08
 
   -0.36070E+08         0.35285E+07         0.00000E+00
    0.35285E+07        -0.62598E+08         0.00000E+00
    0.00000E+00         0.00000E+00        -0.31878E+08
 
   -0.34986E+08         0.50213E+07         0.00000E+00
    0.50213E+07        -0.62970E+08         0.00000E+00
    0.00000E+00         0.00000E+00        -0.31862E+08
 
   -0.33990E+08         0.66978E+07         0.00000E+00
    0.66978E+07        -0.63362E+08         0.00000E+00
    0.00000E+00         0.00000E+00        -0.31850E+08
 
   -0.33106E+08         0.85467E+07         0.00000E+00
    0.85467E+07        -0.63770E+08         0.00000E+00
    0.00000E+00         0.00000E+00        -0.31842E+08
 
   -0.32414E+08         0.10466E+08         0.00000E+00
    0.10466E+08        -0.64276E+08         0.00000E+00
    0.00000E+00         0.00000E+00        -0.31988E+08
 
   -0.49163E+08        -0.48437E+06         0.00000E+00
   -0.48437E+06        -0.60033E+08         0.00000E+00
    0.00000E+00         0.00000E+00        -0.29845E+08
 
   -0.47904E+08        -0.12258E+07         0.00000E+00
   -0.12258E+07        -0.60145E+08         0.00000E+00
    0.00000E+00         0.00000E+00        -0.29837E+08
 
   -0.46474E+08        -0.16670E+07         0.00000E+00
   -0.16670E+07        -0.60330E+08         0.00000E+00
    0.00000E+00         0.00000E+00        -0.29824E+08
 
   -0.44952E+08        -0.18239E+07         0.00000E+00
   -0.18239E+07        -0.60553E+08         0.00000E+00
    0.00000E+00         0.00000E+00        -0.29806E+08
 
   -0.43396E+08        -0.17215E+07         0.00000E+00
   -0.17215E+07        -0.60794E+08         0.00000E+00
    0.00000E+00         0.00000E+00        -0.29784E+08
 
   -0.41848E+08        -0.13869E+07         0.00000E+00
   -0.13869E+07        -0.61042E+08         0.00000E+00
    0.00000E+00         0.00000E+00        -0.29761E+08
 
   -0.40330E+08        -0.84461E+06         0.00000E+00
   -0.84461E+06        -0.61296E+08         0.00000E+00
    0.00000E+00         0.00000E+00        -0.29737E+08
 
   -0.38852E+08        -0.11279E+06         0.00000E+00
   -0.11279E+06        -0.61563E+08         0.00000E+00
    0.00000E+00         0.00000E+00        -0.29714E+08
 
   -0.37419E+08         0.79793E+06         0.00000E+00
    0.79793E+06        -0.61853E+08         0.00000E+00
    0.00000E+00         0.00000E+00        -0.29691E+08
 
   -0.36031E+08         0.18849E+07         0.00000E+00
    0.18849E+07        -0.62177E+08         0.00000E+00
    0.00000E+00         0.00000E+00        -0.29670E+08
 
   -0.34691E+08         0.31523E+07         0.00000E+00
    0.31523E+07        -0.62543E+08         0.00000E+00
    0.00000E+00         0.00000E+00        -0.29651E+08
 
   -0.33413E+08         0.46103E+07         0.00000E+00
    0.46103E+07        -0.62954E+08         0.00000E+00
    0.00000E+00         0.00000E+00        -0.29636E+08
 
   -0.32239E+08         0.62684E+07         0.00000E+00
    0.62684E+07        -0.63402E+08         0.00000E+00
    0.00000E+00         0.00000E+00        -0.29623E+08
 
   -0.31160E+08         0.80960E+07         0.00000E+00
    0.80960E+07        -0.63886E+08         0.00000E+00
    0.00000E+00         0.00000E+00        -0.29621E+08
 
   -0.30748E+08         0.98374E+07         0.00000E+00
    0.98374E+07        -0.64445E+08         0.00000E+00
    0.00000E+00         0.00000E+00        -0.30252E+08
 
   -0.50115E+08        -0.55046E+06         0.00000E+00
   -0.55046E+06        -0.60035E+08         0.00000E+00
    0.00000E+00         0.00000E+00        -0.27603E+08
 
   -0.48529E+08        -0.13842E+07         0.00000E+00
   -0.13842E+07        -0.60147E+08         0.00000E+00
    0.00000E+00         0.00000E+00        -0.27595E+08
 
   -0.46786E+08        -0.18737E+07         0.00000E+00
   -0.18737E+07        -0.60324E+08         0.00000E+00
    0.00000E+00         0.00000E+00        -0.27581E+08
 
   -0.44981E+08        -0.20492E+07         0.00000E+00
   -0.20492E+07        -0.60529E+08         0.00000E+00
    0.00000E+00         0.00000E+00        -0.27562E+08
 
   -0.43175E+08        -0.19508E+07         0.00000E+00
   -0.19508E+07        -0.60737E+08         0.00000E+00
    0.00000E+00         0.00000E+00        -0.27540E+08
 
   -0.41409E+08        -0.16182E+07         0.00000E+00
   -0.16182E+07        -0.60944E+08         0.00000E+00
    0.00000E+00         0.00000E+00        -0.27516E+08
 
   -0.39698E+08        -0.10848E+07         0.00000E+00
   -0.10848E+07        -0.61156E+08         0.00000E+00
    0.00000E+00         0.00000E+00        -0.27492E+08
 
   -0.38044E+08        -0.37363E+06         0.00000E+00
   -0.37363E+06        -0.61384E+08         0.00000E+00
    0.00000E+00         0.00000E+00        -0.27468E+08
 
   -0.36441E+08         0.50281E+06         0.00000E+00
    0.50281E+06        -0.61644E+08         0.00000E+00
    0.00000E+00         0.00000E+00        -0.27446E+08
 
   -0.34880E+08         0.15429E+07         0.00000E+00
    0.15429E+07        -0.61952E+08         0.00000E+00
    0.00000E+00         0.00000E+00        -0.27425E+08
 
   -0.33358E+08         0.27554E+07         0.00000E+00
    0.27554E+07        -0.62321E+08         0.00000E+00
    0.00000E+00         0.00000E+00        -0.27406E+08
 
   -0.31881E+08         0.41566E+07         0.00000E+00
    0.41566E+07        -0.62755E+08         0.00000E+00
    0.00000E+00         0.00000E+00        -0.27390E+08
 
   -0.30485E+08         0.57776E+07         0.00000E+00
    0.57776E+07        -0.63244E+08         0.00000E+00
    0.00000E+00         0.00000E+00        -0.27378E+08
 
   -0.29369E+08         0.75419E+07         0.00000E+00
    0.75419E+07        -0.63809E+08         0.00000E+00
    0.00000E+00         0.00000E+00        -0.27587E+08
 
   -0.29109E+08         0.92146E+07         0.00000E+00
    0.92146E+07        -0.64425E+08         0.00000E+00
    0.00000E+00         0.00000E+00        -0.28554E+08
 
   -0.51186E+08        -0.61831E+06         0.00000E+00
   -0.61831E+06        -0.60035E+08         0.00000E+00
    0.00000E+00         0.00000E+00        -0.25339E+08
 
   -0.49216E+08        -0.15379E+07         0.00000E+00
   -0.15379E+07        -0.60143E+08         0.00000E+00
    0.00000E+00         0.00000E+00        -0.25330E+08
 
   -0.47122E+08        -0.20605E+07         0.00000E+00
   -0.20605E+07        -0.60302E+08         0.00000E+00
    0.00000E+00         0.00000E+00        -0.25315E+08
 
   -0.45011E+08        -0.22376E+07         0.00000E+00
   -0.22376E+07        -0.60467E+08         0.00000E+00
    0.00000E+00         0.00000E+00        -0.25296E+08
 
   -0.42951E+08        -0.21301E+07         0.00000E+00
   -0.21301E+07        -0.60619E+08         0.00000E+00
    0.00000E+00         0.00000E+00        -0.25273E+08
 
   -0.40974E+08        -0.17935E+07         0.00000E+00
   -0.17935E+07        -0.60760E+08         0.00000E+00
    0.00000E+00         0.00000E+00        -0.25250E+08
 
   -0.39083E+08        -0.12703E+07         0.00000E+00
   -0.12703E+07        -0.60902E+08         0.00000E+00
    0.00000E+00         0.00000E+00        -0.25226E+08
 
   -0.37268E+08        -0.58763E+06         0.00000E+00
   -0.58763E+06        -0.61068E+08         0.00000E+00
    0.00000E+00         0.00000E+00        -0.25202E+08
 
   -0.35511E+08         0.24146E+06         0.00000E+00
    0.24146E+06        -0.61278E+08         0.00000E+00
    0.00000E+00         0.00000E+00        -0.25180E+08
 
   -0.33791E+08         0.12171E+07         0.00000E+00
    0.12171E+07        -0.61552E+08         0.00000E+00
    0.00000E+00         0.00000E+00        -0.25160E+08
 
   -0.32092E+08         0.23530E+07         0.00000E+00
    0.23530E+07        -0.61908E+08         0.00000E+00
    0.00000E+00         0.00000E+00        -0.25142E+08
 
   -0.30413E+08         0.36795E+07         0.00000E+00
    0.36795E+07        -0.62354E+08         0.00000E+00
    0.00000E+00         0.00000E+00        -0.25126E+08
 
   -0.28742E+08         0.52406E+07         0.00000E+00
    0.52406E+07        -0.62886E+08         0.00000E+00
    0.00000E+00         0.00000E+00        -0.25114E+08
 
   -0.27748E+08         0.68871E+07         0.00000E+00
    0.68871E+07        -0.63509E+08         0.00000E+00
    0.00000E+00         0.00000E+00        -0.25759E+08
 
   -0.27394E+08         0.85617E+07         0.00000E+00
    0.85617E+07        -0.64193E+08         0.00000E+00
    0.00000E+00         0.00000E+00        -0.26793E+08
 
   -0.52373E+08        -0.68639E+06         0.00000E+00
   -0.68639E+06        -0.60035E+08         0.00000E+00
    0.00000E+00         0.00000E+00        -0.23051E+08
 
   -0.49950E+08        -0.16775E+07         0.00000E+00
   -0.16775E+07        -0.60132E+08         0.00000E+00
    0.00000E+00         0.00000E+00        -0.23042E+08
 
   -0.47458E+08        -0.22077E+07         0.00000E+00
   -0.22077E+07        -0.60255E+08         0.00000E+00
    0.00000E+00         0.00000E+00        -0.23026E+08
 
   -0.45025E+08        -0.23619E+07         0.00000E+00
   -0.23619E+07        -0.60353E+08         0.00000E+00
    0.00000E+00         0.00000E+00        -0.23006E+08
 
   -0.42714E+08        -0.22298E+07         0.00000E+00
   -0.22298E+07        -0.60415E+08         0.00000E+00
    0.00000E+00         0.00000E+00        -0.22984E+08
 
   -0.40541E+08        -0.18846E+07         0.00000E+00
   -0.18846E+07        -0.60458E+08         0.00000E+00
    0.00000E+00         0.00000E+00        -0.22961E+08
 
   -0.38491E+08        -0.13762E+07         0.00000E+00
   -0.13762E+07        -0.60505E+08         0.00000E+00
    0.00000E+00         0.00000E+00        -0.22938E+08
 
   -0.36537E+08        -0.73330E+06         0.00000E+00
   -0.73330E+06        -0.60585E+08         0.00000E+00
    0.00000E+00         0.00000E+00        -0.22916E+08
 
   -0.34646E+08         0.32494E+05         0.00000E+00
    0.32494E+05        -0.60726E+08         0.00000E+00
    0.00000E+00         0.00000E+00        -0.22895E+08
 
   -0.32785E+08         0.92374E+06         0.00000E+00
    0.92374E+06        -0.60951E+08         0.00000E+00
    0.00000E+00         0.00000E+00        -0.22876E+08
 
   -0.30921E+08         0.19573E+07         0.00000E+00
    0.19573E+07        -0.61281E+08         0.00000E+00
    0.00000E+00         0.00000E+00        -0.22859E+08
 
   -0.29026E+08         0.31714E+07         0.00000E+00
    0.31714E+07        -0.61736E+08         0.00000E+00
    0.00000E+00         0.00000E+00        -0.22844E+08
 
   -0.27126E+08         0.46219E+07         0.00000E+00
    0.46219E+07        -0.62325E+08         0.00000E+00
    0.00000E+00         0.00000E+00        -0.22881E+08
 
   -0.26159E+08         0.61753E+07         0.00000E+00
    0.61753E+07        -0.63028E+08         0.00000E+00
    0.00000E+00         0.00000E+00        -0.23862E+08
 
   -0.25640E+08         0.78594E+07         0.00000E+00
    0.78594E+07        -0.63774E+08         0.00000E+00
    0.00000E+00         0.00000E+00        -0.24953E+08
 
   -0.53666E+08        -0.75248E+06         0.00000E+00
   -0.75248E+06        -0.60033E+08         0.00000E+00
    0.00000E+00         0.00000E+00        -0.20738E+08
 
   -0.50702E+08        -0.17877E+07         0.00000E+00
   -0.17877E+07        -0.60108E+08         0.00000E+00
    0.00000E+00         0.00000E+00        -0.20729E+08
 
   -0.47764E+08        -0.22853E+07         0.00000E+00
   -0.22853E+07        -0.60164E+08         0.00000E+00
    0.00000E+00         0.00000E+00        -0.20713E+08
 
   -0.45000E+08        -0.23846E+07         0.00000E+00
   -0.23846E+07        -0.60154E+08         0.00000E+00
    0.00000E+00         0.00000E+00        -0.20694E+08
 
   -0.42455E+08        -0.22135E+07         0.00000E+00
   -0.22135E+07        -0.60086E+08         0.00000E+00
    0.00000E+00         0.00000E+00        -0.20673E+08
 
   -0.40114E+08        -0.18610E+07         0.00000E+00
   -0.18610E+07        -0.59995E+08         0.00000E+00
    0.00000E+00         0.00000E+00        -0.20651E+08
 
   -0.37934E+08        -0.13790E+07         0.00000E+00
   -0.13790E+07        -0.59921E+08         0.00000E+00
    0.00000E+00         0.00000E+00        -0.20630E+08
 
   -0.35868E+08        -0.79279E+06         0.00000E+00
   -0.79279E+06        -0.59899E+08         0.00000E+00
    0.00000E+00         0.00000E+00        -0.20610E+08
 
   -0.33867E+08        -0.11027E+06         0.00000E+00
   -0.11027E+06        -0.59958E+08         0.00000E+00
    0.00000E+00         0.00000E+00        -0.20591E+08
 
   -0.31885E+08         0.67404E+06         0.00000E+00
    0.67404E+06        -0.60124E+08         0.00000E+00
    0.00000E+00         0.00000E+00        -0.20574E+08
 
   -0.29875E+08         0.15783E+07         0.00000E+00
    0.15783E+07        -0.60422E+08         0.00000E+00
    0.00000E+00         0.00000E+00        -0.20558E+08
 
   -0.27779E+08         0.26393E+07         0.00000E+00
    0.26393E+07        -0.60879E+08         0.00000E+00
    0.00000E+00         0.00000E+00        -0.20545E+08
 
   -0.25673E+08         0.39127E+07         0.00000E+00
    0.39127E+07        -0.61520E+08         0.00000E+00
    0.00000E+00         0.00000E+00        -0.20664E+08
 
   -0.24567E+08         0.53799E+07         0.00000E+00
    0.53799E+07        -0.62317E+08         0.00000E+00
    0.00000E+00         0.00000E+00        -0.21834E+08
 
   -0.23854E+08         0.70724E+07         0.00000E+00
    0.70724E+07        -0.63170E+08         0.00000E+00
    0.00000E+00         0.00000E+00        -0.23026E+08
 
   -0.55047E+08        -0.81269E+06         0.00000E+00
   -0.81269E+06        -0.60029E+08         0.00000E+00
    0.00000E+00         0.00000E+00        -0.18399E+08
 
   -0.51421E+08        -0.18403E+07         0.00000E+00
   -0.18403E+07        -0.60058E+08         0.00000E+00
    0.00000E+00         0.00000E+00        -0.18390E+08
 
   -0.47995E+08        -0.22437E+07         0.00000E+00
   -0.22437E+07        -0.59996E+08         0.00000E+00
    0.00000E+00         0.00000E+00        -0.18375E+08
 
   -0.44916E+08        -0.22536E+07         0.00000E+00
   -0.22536E+07        -0.59815E+08         0.00000E+00
    0.00000E+00         0.00000E+00        -0.18357E+08
 
   -0.42177E+08        -0.20401E+07         0.00000E+00
   -0.20401E+07        -0.59565E+08         0.00000E+00
    0.00000E+00         0.00000E+00        -0.18338E+08
 
   -0.39706E+08        -0.16949E+07         0.00000E+00
   -0.16949E+07        -0.59310E+08         0.00000E+00
    0.00000E+00         0.00000E+00        -0.18319E+08
 
   -0.37431E+08        -0.12611E+07         0.00000E+00
   -0.12611E+07        -0.59097E+08         0.00000E+00
    0.00000E+00         0.00000E+00        -0.18301E+08
 
   -0.35281E+08        -0.75574E+06         0.00000E+00
   -0.75574E+06        -0.58963E+08         0.00000E+00
    0.00000E+00         0.00000E+00        -0.18284E+08
 
   -0.33195E+08        -0.18104E+06         0.00000E+00
   -0.18104E+06        -0.58938E+08         0.00000E+00
    0.00000E+00         0.00000E+00        -0.18268E+08
 
   -0.31116E+08         0.47120E+06         0.00000E+00
    0.47120E+06        -0.59046E+08         0.00000E+00
    0.00000E+00         0.00000E+00        -0.18253E+08
 
   -0.28985E+08         0.12179E+07         0.00000E+00
    0.12179E+07        -0.59313E+08         0.00000E+00
    0.00000E+00         0.00000E+00        -0.18240E+08
 
   -0.26729E+08         0.20838E+07         0.00000E+00
    0.20838E+07        -0.59771E+08         0.00000E+00
    0.00000E+00         0.00000E+00        -0.18229E+08
 
   -0.24391E+08         0.31215E+07         0.00000E+00
    0.31215E+07        -0.60461E+08         0.00000E+00
    0.00000E+00         0.00000E+00        -0.18360E+08
 
   -0.23016E+08         0.44705E+07         0.00000E+00
    0.44705E+07        -0.61360E+08         0.00000E+00
    0.00000E+00         0.00000E+00        -0.19643E+08
 
   -0.22036E+08         0.61431E+07         0.00000E+00
    0.61431E+07        -0.62371E+08         0.00000E+00
    0.00000E+00         0.00000E+00        -0.20999E+08
 
   -0.56471E+08        -0.85748E+06         0.00000E+00
   -0.85748E+06        -0.60015E+08         0.00000E+00
    0.00000E+00         0.00000E+00        -0.16034E+08
 
   -0.52023E+08        -0.17742E+07         0.00000E+00
   -0.17742E+07        -0.59945E+08         0.00000E+00
    0.00000E+00         0.00000E+00        -0.16025E+08
 
   -0.48101E+08        -0.19986E+07         0.00000E+00
   -0.19986E+07        -0.59662E+08         0.00000E+00
    0.00000E+00         0.00000E+00        -0.16011E+08
 
   -0.44770E+08        -0.19057E+07         0.00000E+00
   -0.19057E+07        -0.59228E+08         0.00000E+00
    0.00000E+00         0.00000E+00        -0.15996E+08
 
   -0.41896E+08        -0.16744E+07         0.00000E+00
   -0.16744E+07        -0.58755E+08         0.00000E+00
    0.00000E+00         0.00000E+00        -0.15981E+08
 
   -0.39345E+08        -0.13701E+07         0.00000E+00
   -0.13701E+07        -0.58320E+08         0.00000E+00
    0.00000E+00         0.00000E+00        -0.15966E+08
 
   -0.37008E+08        -0.10175E+07         0.00000E+00
   -0.10175E+07        -0.57967E+08         0.00000E+00
    0.00000E+00         0.00000E+00        -0.15952E+08
 
   -0.34803E+08        -0.62301E+06         0.00000E+00
   -0.62301E+06        -0.57728E+08         0.00000E+00
    0.00000E+00         0.00000E+00        -0.15938E+08
 
   -0.32657E+08        -0.18388E+06         0.00000E+00
   -0.18388E+06        -0.57626E+08         0.00000E+00
    0.00000E+00         0.00000E+00        -0.15926E+08
 
   -0.30505E+08         0.30934E+06         0.00000E+00
    0.30934E+06        -0.57686E+08         0.00000E+00
    0.00000E+00         0.00000E+00        -0.15915E+08
 
   -0.28283E+08         0.87094E+06         0.00000E+00
    0.87094E+06        -0.57931E+08         0.00000E+00
    0.00000E+00         0.00000E+00        -0.15905E+08
 
   -0.25919E+08         0.15137E+07         0.00000E+00
    0.15137E+07        -0.58390E+08         0.00000E+00
    0.00000E+00         0.00000E+00        -0.15896E+08
 
   -0.23347E+08         0.22661E+07         0.00000E+00
    0.22661E+07        -0.59120E+08         0.00000E+00
    0.00000E+00         0.00000E+00        -0.15957E+08
 
   -0.21558E+08         0.33986E+07         0.00000E+00
    0.33986E+07        -0.60123E+08         0.00000E+00
    0.00000E+00         0.00000E+00        -0.17247E+08
 
   -0.20208E+08         0.49942E+07         0.00000E+00
    0.49942E+07        -0.61367E+08         0.00000E+00
    0.00000E+00         0.00000E+00        -0.18858E+08
 
   -0.57826E+08        -0.85090E+06         0.00000E+00
   -0.85090E+06        -0.59969E+08         0.00000E+00
    0.00000E+00         0.00000E+00        -0.13640E+08
 
   -0.52378E+08        -0.14353E+07         0.00000E+00
   -0.14353E+07        -0.59623E+08         0.00000E+00
    0.00000E+00         0.00000E+00        -0.13633E+08
 
   -0.48068E+08        -0.14361E+07         0.00000E+00
   -0.14361E+07        -0.58957E+08         0.00000E+00
    0.00000E+00         0.00000E+00        -0.13623E+08
 
   -0.44598E+08        -0.12976E+07         0.00000E+00
   -0.12976E+07        -0.58219E+08         0.00000E+00
    0.00000E+00         0.00000E+00        -0.13612E+08
 
   -0.41659E+08        -0.11091E+07         0.00000E+00
   -0.11091E+07        -0.57527E+08         0.00000E+00
    0.00000E+00         0.00000E+00        -0.13602E+08
 
   -0.39068E+08        -0.89487E+06         0.00000E+00
   -0.89487E+06        -0.56932E+08         0.00000E+00
    0.00000E+00         0.00000E+00        -0.13592E+08
 
   -0.36700E+08        -0.66175E+06         0.00000E+00
   -0.66175E+06        -0.56464E+08         0.00000E+00
    0.00000E+00         0.00000E+00        -0.13583E+08
 
   -0.34463E+08        -0.40912E+06         0.00000E+00
   -0.40912E+06        -0.56141E+08         0.00000E+00
    0.00000E+00         0.00000E+00        -0.13575E+08
 
   -0.32278E+08        -0.13236E+06         0.00000E+00
   -0.13236E+06        -0.55983E+08         0.00000E+00
    0.00000E+00         0.00000E+00        -0.13567E+08
 
   -0.30078E+08         0.17627E+06         0.00000E+00
    0.17627E+06        -0.56010E+08         0.00000E+00
    0.00000E+00         0.00000E+00        -0.13560E+08
 
   -0.27794E+08         0.52710E+06         0.00000E+00
    0.52710E+06        -0.56245E+08         0.00000E+00
    0.00000E+00         0.00000E+00        -0.13554E+08
 
   -0.25362E+08         0.93136E+06         0.00000E+00
    0.93136E+06        -0.56717E+08         0.00000E+00
    0.00000E+00         0.00000E+00        -0.13548E+08
 
   -0.22663E+08         0.13849E+07         0.00000E+00
    0.13849E+07        -0.57475E+08         0.00000E+00
    0.00000E+00         0.00000E+00        -0.13544E+08
 
   -0.20296E+08         0.21243E+07         0.00000E+00
    0.21243E+07        -0.58551E+08         0.00000E+00
    0.00000E+00         0.00000E+00        -0.14585E+08
 
   -0.18433E+08         0.34754E+07         0.00000E+00
    0.34754E+07        -0.60155E+08         0.00000E+00
    0.00000E+00         0.00000E+00        -0.16573E+08
 
   -0.58785E+08        -0.51561E+06         0.00000E+00
   -0.51561E+06        -0.59499E+08         0.00000E+00
    0.00000E+00         0.00000E+00        -0.11218E+08
 
   -0.52431E+08        -0.58442E+06         0.00000E+00
   -0.58442E+06        -0.58581E+08         0.00000E+00
    0.00000E+00         0.00000E+00        -0.11215E+08
 
   -0.47993E+08        -0.52981E+06         0.00000E+00
   -0.52981E+06        -0.57537E+08         0.00000E+00
    0.00000E+00         0.00000E+00        -0.11211E+08
 
   -0.44477E+08        -0.46270E+06         0.00000E+00
   -0.46270E+06        -0.56579E+08         0.00000E+00
    0.00000E+00         0.00000E+00        -0.11207E+08
 
   -0.41519E+08        -0.38879E+06         0.00000E+00
   -0.38879E+06        -0.55747E+08         0.00000E+00
    0.00000E+00         0.00000E+00        -0.11204E+08
 
   -0.38916E+08        -0.31101E+06         0.00000E+00
   -0.31101E+06        -0.55060E+08         0.00000E+00
    0.00000E+00         0.00000E+00        -0.11200E+08
 
   -0.36537E+08        -0.22920E+06         0.00000E+00
   -0.22920E+06        -0.54528E+08         0.00000E+00
    0.00000E+00         0.00000E+00        -0.11197E+08
 
   -0.34286E+08        -0.14206E+06         0.00000E+00
   -0.14206E+06        -0.54162E+08         0.00000E+00
    0.00000E+00         0.00000E+00        -0.11194E+08
 
   -0.32083E+08        -0.47413E+05         0.00000E+00
   -0.47413E+05        -0.53976E+08         0.00000E+00
    0.00000E+00         0.00000E+00        -0.11192E+08
 
   -0.29858E+08         0.57776E+05         0.00000E+00
    0.57776E+05        -0.53988E+08         0.00000E+00
    0.00000E+00         0.00000E+00        -0.11189E+08
 
   -0.27542E+08         0.17732E+06         0.00000E+00
    0.17732E+06        -0.54223E+08         0.00000E+00
    0.00000E+00         0.00000E+00        -0.11187E+08
 
   -0.25065E+08         0.31751E+06         0.00000E+00
    0.31751E+06        -0.54714E+08         0.00000E+00
    0.00000E+00         0.00000E+00        -0.11185E+08
 
   -0.22391E+08         0.47148E+06         0.00000E+00
    0.47148E+06        -0.55493E+08         0.00000E+00
    0.00000E+00         0.00000E+00        -0.11184E+08
 
   -0.19521E+08         0.71746E+06         0.00000E+00
    0.71746E+06        -0.56754E+08         0.00000E+00
    0.00000E+00         0.00000E+00        -0.11628E+08
 
   -0.16897E+08         0.13030E+07         0.00000E+00
    0.13030E+07        -0.58676E+08         0.00000E+00
    0.00000E+00         0.00000E+00        -0.14064E+08
 
SCALARS stresss double 
LOOKUP_TABLE default
  -56517435.3202550     
  -55579376.5041383     
  -55104572.9691293     
  -55182690.3710160     
  -55748351.1109971     
  -56671885.1596780     
  -57875645.8321569     
  -59301841.6655308     
  -60817618.5522778     
  -62368382.8435369     
  -63527832.6037892     
  -64462189.2362715     
  -65277030.4993794     
  -66039646.3428115     
  -66850973.7902764     
  -57044649.7258270     
  -57703136.8016948     
  -58073785.1821341     
  -58322686.6842169     
  -58535157.0863050     
  -58758203.8161951     
  -59068809.1009372     
  -59580139.0822825     
  -60454379.7337950     
  -61467551.6288172     
  -62446229.0569204     
  -63291855.5484279     
  -64044240.3566488     
  -64739402.4195799     
  -65371852.4954815     
  -57974511.3914470     
  -58556591.5341555     
  -58903259.2751480     
  -58891204.6914664     
  -58814751.4245540     
  -58820509.5067203     
  -58980240.3199375     
  -59378717.2346785     
  -59999183.1102956     
  -60734655.0119787     
  -61488766.6595531     
  -62205385.0343672     
  -62862387.1612360     
  -63458030.5885209     
  -63982481.1070306     
  -57242780.4505117     
  -57568323.5099247     
  -57900365.9442362     
  -58103911.9641899     
  -58214372.6362904     
  -58350128.4490783     
  -58581809.7144722     
  -58941121.0654601     
  -59422891.7964324     
  -59988059.4964696     
  -60585327.0596740     
  -61173948.5045624     
  -61729054.5709238     
  -62235362.3017425     
  -62679773.6579222     
  -56608390.6209479     
  -56865213.6674524     
  -57140526.2957152     
  -57366948.6048703     
  -57562856.5623593     
  -57767285.6272115     
  -58022659.6528218     
  -58350746.2257393     
  -58751191.5275941     
  -59206109.9387731     
  -59688743.6186546     
  -60172675.4179067     
  -60636952.4347321     
  -61066108.1657468     
  -61448047.2179000     
  -55930381.3559497     
  -56192181.0894277     
  -56435754.7437670     
  -56666056.2614033     
  -56885751.4438509     
  -57113810.2828789     
  -57370432.2908344     
  -57668904.9067920     
  -58010897.8073827     
  -58387804.1497761     
  -58784738.2834652     
  -59185024.3876963     
  -59573423.8975889     
  -59937492.8380264     
  -60267799.9789114     
  -55262182.7677208     
  -55511132.8181523     
  -55745860.6301744     
  -55969711.9284496     
  -56190091.8261481     
  -56416633.1327584     
  -56660237.7161556     
  -56928394.5254988     
  -57222803.2323242     
  -57539202.9924815     
  -57869065.2531961     
  -58201903.3706819     
  -58527296.3226457     
  -58836231.9479541     
  -59121906.3644507     
  -54599086.1738505     
  -54834283.1211260     
  -55055887.9150329     
  -55268383.9726179     
  -55477412.1638498     
  -55689762.9720052     
  -55911896.6455415     
  -56148412.6843605     
  -56400682.2394119     
  -56666589.1206460     
  -56941208.9707386     
  -57218014.8625242     
  -57490133.2540720     
  -57751382.3281537     
  -57997050.8421581     
  -53941430.3179856     
  -54159617.9481631     
  -54364309.2267144     
  -54559605.7421498     
  -54750229.7062651     
  -54941130.5224930     
  -55136822.4097453     
  -55340507.3717194     
  -55553438.0192570     
  -55774711.1727709     
  -56001572.6571608     
  -56230064.7921946     
  -56455799.5142392     
  -56674685.1256286     
  -56883523.3807224     
  -53288847.2687508     
  -53486785.7034823     
  -53670610.1414794     
  -53844064.2476460     
  -54011166.2342361     
  -54175926.2708473     
  -54341897.1844584     
  -54511702.0721758     
  -54686670.4528321     
  -54866717.6227422     
  -55050493.4970877     
  -55235748.4146601     
  -55419809.1619874     
  -55600061.7811398     
  -55774364.9775326     
  -52641421.1819573     
  -52815964.0313443     
  -52975345.8762882     
  -53123017.4066030     
  -53262619.6683979     
  -53397707.6423442     
  -53531440.0121567     
  -53666277.3598031     
  -53803763.4701158     
  -53944445.1233745     
  -54087951.5789155     
  -54233208.8461754     
  -54378735.0247164     
  -54522953.0186085     
  -54664462.9134750     
  -51999586.7582473     
  -52147846.6172272     
  -52279478.9136340     
  -52397862.2266168     
  -52506534.0533573     
  -52608935.0048765     
  -52708164.7448729     
  -52806769.7313962     
  -52906593.8402490     
  -53008719.5593251     
  -53113509.0683641     
  -53220732.9892856     
  -53329756.2029024     
  -53439740.4770015     
  -53549822.0923812     
  -51364358.1894381     
  -51483522.9565980     
  -51584190.7148401     
  -51669927.0554802     
  -51744420.8926635     
  -51811252.1836748     
  -51873689.6715703     
  -51934526.5270276     
  -51995967.6141023     
  -52059580.1046175     
  -52126311.4118638     
  -52196567.4697517     
  -52270333.6972935     
  -52347312.2845651     
  -52427044.3524701     
  -50737388.1416534     
  -50824447.2129326     
  -50890785.4810922     
  -50940411.9579105     
  -50977396.2176112     
  -51005662.3644860     
  -51028817.3078698     
  -51050017.0452798     
  -51071875.5831277     
  -51096420.0465669     
  -51125092.8345212     
  -51158798.4528489     
  -51197987.6968748     
  -51242763.4999802     
  -51292982.1323179     
  -50120921.5982843     
  -50172381.7208362     
  -50200630.9909003     
  -50210355.3951104     
  -50206207.5741202     
  -50192625.7245898     
  -50173687.6965103     
  -50153001.6519958     
  -50133632.3489091     
  -50118059.7823033     
  -50108168.0078570     
  -50105266.4752602     
  -50110151.2657880     
  -50123206.9645075     
  -50144525.4938504     
  -49517679.2371318     
  -49529307.1259072     
  -49515087.6975271     
  -49480591.7045277     
  -49431231.3125206     
  -49372100.2418793     
  -49307851.8821928     
  -49242614.8224687     
  -49179939.7381332     
  -49122767.0586104     
  -49073401.1446651     
  -49033495.5711990     
  -49004080.7624812     
  -48985678.3117895     
  -48978500.3039688     
  -48930704.4918563     
  -48897301.0551072     
  -48835412.5309858     
  -48751682.0196591     
  -48652435.3816112     
  -48543537.1465534     
  -48430292.8626023     
  -48317395.5789700     
  -48208904.4311542     
  -48108235.3542979     
  -48018137.8324340     
  -47940606.5864223     
  -47876801.2037765     
  -47827143.4071894     
  -47791695.5973624     
  -48363193.4329519     
  -48278391.1651679     
  -48162632.5767762     
  -48023811.5985906     
  -47869305.3620789     
  -47705838.4580584     
  -47539411.5029424     
  -47375290.0588440     
  -47218036.3556703     
  -47071549.4484503     
  -46939074.1845013     
  -46823129.1488890     
  -46725035.4537020     
  -46644647.5917535     
  -46581154.5745047     
  -47818317.7645486     
  -47674384.9232273     
  -47497384.4074694     
  -47296647.0421540     
  -47080729.9896435     
  -46857279.3241892     
  -46632988.7517563     
  -46413648.0599015     
  -46204258.0572185     
  -46009172.9180200     
  -45832179.9518409     
  -45676496.7832933     
  -45544683.3839367     
  -45435840.6075374     
  -45345211.1874608     
  -47299046.0012385     
  -47086672.9616578     
  -46839709.6853919     
  -46569141.9302828     
  -46284836.9170068     
  -45995391.5366785     
  -45708128.8122213     
  -45429229.5501255     
  -45163967.1266009     
  -44917005.4439049     
  -44692713.9309952     
  -44495120.8776142     
  -44328123.4087006     
  -44197323.3223304     
  -44090126.8558985     
  -46807964.2111322     
  -46515994.5993846     
  -46188787.6475292     
  -45839269.6451124     
  -45478760.7657126     
  -45116796.3362658     
  -44761178.8342733     
  -44418226.8128014     
  -44093171.6936999     
  -43790651.8964190     
  -43515311.9322659     
  -43272641.9529152     
  -43067162.8050873     
  -42905861.7594999     
  -42892590.2312885     
  -46347092.4626600     
  -45962140.1831960     
  -45542567.9533760     
  -45103646.9000345     
  -44658314.3597083     
  -44216966.4256414     
  -43787610.5985946     
  -43376291.3943445     
  -42987691.1121970     
  -42625862.4798134     
  -42295015.3991848     
  -42000894.4936012     
  -41754966.1765540     
  -41555502.3735951     
  -41815110.5823915     
  -45917682.2997234     
  -45423538.4832264     
  -44897237.2737261     
  -44356988.2531591     
  -43817522.2868647     
  -43289893.3477887     
  -42781846.7739988     
  -42298534.5643943     
  -41843384.1151082     
  -41419022.7149100     
  -41028420.6064970     
  -40675304.4734625     
  -40369247.2225198     
  -40254973.8989869     
  -40696004.3273914     
  -45519956.3005504     
  -44896624.0054292     
  -44246396.2939120     
  -43591296.7197861     
  -42947967.8699130     
  -42327647.5571189     
  -41737026.1824082     
  -41179479.0461770     
  -40656283.1824645     
  -40167705.1535607     
  -39714000.3706888     
  -39297749.5516671     
  -38914042.4827601     
  -39005207.9244058     
  -39460141.6302186     
  -45152699.4283767     
  -44374757.3624547     
  -43579714.3990054     
  -42794642.2474045     
  -42037916.2409104     
  -41319861.0055664     
  -40644751.0866249     
  -40012955.9194218     
  -39422608.4610840     
  -38870683.6807457     
  -38353755.4146803     
  -37868696.0126543     
  -37443853.2141492     
  -37683303.6729679     
  -38122405.8017496     
  -44812454.1406256     
  -43846196.9172696     
  -42880586.0337569     
  -41949333.2214692     
  -41071248.8754705     
  -40253273.3451339     
  -39494943.2894442     
  -38792028.9431995     
  -38138568.4542837     
  -37527706.8080549     
  -36951737.0329791     
  -36401021.1384542     
  -35952352.7255939     
  -36239614.7549877     
  -36683287.8040475     
  -44491757.9298012     
  -43289702.3916959     
  -42121923.2704524     
  -41029309.2794373     
  -40026554.8361898     
  -39111694.4402381     
  -38276031.4095992     
  -37509086.0840050     
  -36800142.6501980     
  -36138509.2314641     
  -35512873.9594049     
  -34909646.2262543     
  -34403863.1950457     
  -34673061.1688935     
  -35135609.6174653     
  -44173212.0707356     
  -42664473.3945288     
  -41258086.5011532     
  -39997708.0813300     
  -38877507.6110037     
  -37876876.8928036     
  -36975720.2816308     
  -36156279.5171708     
  -35403035.8597990     
  -34701986.8605076     
  -34039748.1881944     
  -33401744.1290374     
  -32807940.2584358     
  -32976020.6023996     
  -33477827.0193001     
  -43811330.3083655     
  -41877878.1167907     
  -40216030.2807123     
  -38809518.9758465     
  -37595693.6502422     
  -36530732.5286498     
  -35582447.6002204     
  -34726390.8295618     
  -33943050.8321950     
  -33216067.9571065     
  -32531031.1637161     
  -31875604.9188447     
  -31227331.5384984     
  -31143743.1152151     
  -31720116.2559384     
  -43167310.8842985     
  -40742136.5325709     
  -38913852.4073081     
  -37421071.8635345     
  -36156575.8704753     
  -35058678.7637455     
  -34087327.1743020     
  -33213992.6153559     
  -32416885.1701199     
  -31678411.6884036     
  -30983943.9024367     
  -30321403.9834782     
  -29688899.0080640     
  -29301368.1785608     
  -29878910.5092044     
SCALARS 2waySource double 
LOOKUP_TABLE default
  6.455861110982102E-004
  6.727732043234192E-004
  7.128113255520423E-004
  7.309192776686047E-004
  7.357139757140180E-004
  7.424622850214752E-004
  7.404695170173676E-004
  7.426196184761630E-004
  7.840897192021421E-004
  7.475641009098487E-004
  8.144590066191873E-004
  8.510310127100555E-004
  8.754862376014478E-004
  8.928520677621277E-004
  9.048410997249027E-004
  6.626087875662527E-004
  6.642183608287443E-004
  6.440233457876850E-004
  6.541321589815091E-004
  6.956153527006375E-004
  7.390145856213943E-004
  7.984275870890206E-004
  7.477395276101233E-004
  8.378873884729466E-004
  8.037906942156310E-004
  8.367368953053798E-004
  8.641534126934980E-004
  8.849718275302091E-004
  9.008295331917303E-004
  9.127221042418990E-004
  7.279830904745558E-004
  8.231010454294886E-004
  7.860723731656201E-004
  8.985913214823691E-004
  9.085454981660040E-004
  9.166732869748975E-004
  9.117738219300478E-004
  8.838545820277729E-004
  8.505982033426889E-004
  8.550860840641527E-004
  8.626637849413960E-004
  8.797371599554467E-004
  8.957628019043642E-004
  9.095394359338987E-004
  9.210278349737153E-004
  9.768848190881570E-004
  9.392018195694758E-004
  8.932963031341244E-004
  8.932571650915066E-004
  9.083696604177084E-004
  9.103912124513857E-004
  9.060298021196626E-004
  8.938699152730322E-004
  8.819795037790868E-004
  8.783566767381431E-004
  8.841632210420773E-004
  8.939445334437212E-004
  9.058296130292950E-004
  9.174948561037788E-004
  9.283919213871287E-004
  9.730401997220141E-004
  9.394515971276670E-004
  9.173091415457895E-004
  9.073985351714561E-004
  9.079639748665500E-004
  9.088287714058732E-004
  9.058843808995523E-004
  9.005255294755381E-004
  8.954540940368245E-004
  8.941112301672580E-004
  8.974193505881956E-004
  9.044591826687983E-004
  9.134744676291691E-004
  9.234046451669941E-004
  9.336251498898330E-004
  9.512700819227179E-004
  9.332032384679230E-004
  9.192788672029739E-004
  9.114188175114715E-004
  9.083584558990180E-004
  9.072249094026128E-004
  9.056177549592988E-004
  9.033035105463177E-004
  9.015640143796315E-004
  9.017955515624708E-004
  9.047690208109246E-004
  9.102806920257313E-004
  9.176873978821728E-004
  9.263288602949528E-004
  9.358553046420390E-004
  9.263651838969167E-004
  9.195031350437502E-004
  9.125206138447699E-004
  9.076792900146679E-004
  9.051233169101268E-004
  9.039136186783758E-004
  9.031210982729294E-004
  9.024952280942467E-004
  9.024788898670245E-004
  9.037562076016834E-004
  9.067754670360026E-004
  9.116041033385344E-004
  9.180168304195275E-004
  9.257295641723569E-004
  9.345632486165842E-004
  9.023145749564407E-004
  9.022428240137235E-004
  9.005801121788573E-004
  8.989530519958546E-004
  8.980035741618989E-004
  8.976839819339810E-004
  8.977603818086876E-004
  8.981824541238769E-004
  8.991707224619851E-004
  9.010777345289998E-004
  9.041960808098814E-004
  9.086483474382185E-004
  9.144076660274841E-004
  9.213851578629046E-004
  9.295272276680768E-004
  8.790876237490902E-004
  8.834064101043655E-004
  8.855708181320539E-004
  8.867194152991286E-004
  8.875560240960554E-004
  8.883906115854901E-004
  8.893412791860273E-004
  8.905228251774169E-004
  8.921267960631676E-004
  8.943939729947921E-004
  8.975407120897234E-004
  9.017062714009588E-004
  9.069489124493006E-004
  9.132824936859255E-004
  9.207236787672928E-004
  8.564474924472779E-004
  8.637592819721867E-004
  8.686391575774327E-004
  8.719498731188612E-004
  8.743456111682326E-004
  8.762586053005453E-004
  8.779714538592405E-004
  8.797065707228153E-004
  8.816798650871717E-004
  8.841064941679307E-004
  8.871786445334306E-004
  8.910436944351677E-004
  8.958005572717094E-004
  9.015144267284240E-004
  9.082395921214021E-004
  8.342932631531072E-004
  8.436464841285869E-004
  8.504014351267313E-004
  8.552695681197304E-004
  8.588469136015097E-004
  8.615963777786607E-004
  8.638712896163331E-004
  8.659555345072272E-004
  8.680949985388001E-004
  8.705096203588560E-004
  8.733905941324934E-004
  8.768941195098008E-004
  8.811406390881373E-004
  8.862217742565500E-004
  8.922112305767040E-004
  8.126074877341365E-004
  8.232649510148526E-004
  8.312167754131935E-004
  8.370875163769219E-004
  8.414274091533593E-004
  8.446987837094760E-004
  8.472821748627351E-004
  8.494936479538757E-004
  8.516020150722202E-004
  8.538391911626049E-004
  8.564035810670137E-004
  8.594604552031868E-004
  8.631433869969395E-004
  8.675583346978509E-004
  8.727892125007485E-004
  7.914084710957813E-004
  8.027496098420035E-004
  8.113171910940069E-004
  8.176832991495862E-004
  8.223655836041983E-004
  8.258173361917847E-004
  8.284275318406864E-004
  8.305279082771253E-004
  8.324021001262559E-004
  8.342930302747155E-004
  8.364074532193365E-004
  8.389186721979732E-004
  8.419690011093202E-004
  8.456727798929399E-004
  8.501195831298672E-004
  7.707303684035762E-004
  7.822043137034761E-004
  7.908666406519095E-004
  7.972575275422657E-004
  8.018728735909626E-004
  8.051566981556504E-004
  8.074991367517909E-004
  8.092389795321176E-004
  8.106685028597068E-004
  8.120385074422916E-004
  8.135624965097048E-004
  8.154199492050663E-004
  8.177591021996263E-004
  8.206995030298186E-004
  8.243341678583799E-004
  7.506170741128984E-004
  7.617155803565590E-004
  7.699890588752306E-004
  7.759598143471497E-004
  7.801107703007944E-004
  7.828792695507985E-004
  7.846544788545382E-004
  7.857779876984642E-004
  7.865465120660102E-004
  7.872155005082352E-004
  7.880027805292165E-004
  7.890918477951427E-004
  7.906347043800024E-004
  7.927542031292981E-004
  7.955457393003058E-004
  7.311207449487503E-004
  7.413596366242659E-004
  7.487823785999463E-004
  7.539041532898080E-004
  7.572022773778633E-004
  7.591108520775046E-004
  7.600181278955956E-004
  7.602664190077118E-004
  7.601539637823916E-004
  7.599379394568841E-004
  7.598379030249326E-004
  7.600391297387548E-004
  7.606955293067950E-004
  7.619319507364598E-004
  7.638457086407773E-004
  7.123010693345789E-004
  7.212058227135428E-004
  7.273254600813192E-004
  7.311770621851901E-004
  7.332387973894211E-004
  7.339450383693088E-004
  7.336839068349274E-004
  7.327971959302986E-004
  7.315822470153044E-004
  7.302951236706947E-004
  7.291543686785275E-004
  7.283447062812996E-004
  7.280202100830493E-004
  7.283066960871147E-004
  7.293032648789453E-004
  6.942239540323412E-004
  7.013174386013581E-004
  7.056807649589324E-004
  7.078411201420585E-004
  7.082834510442163E-004
  7.074456801517213E-004
  7.057165195883403E-004
  7.034358969384761E-004
  7.008975732139496E-004
  6.983532327985442E-004
  6.960172078279402E-004
  6.940710467579059E-004
  6.926672527174408E-004
  6.919317729104661E-004
  6.919655083854955E-004
  6.769593188485372E-004
  6.817505007647390E-004
  6.838939258957468E-004
  6.839350613144242E-004
  6.823713929590412E-004
  6.796472790361651E-004
  6.761520860004209E-004
  6.722216347555814E-004
  6.681423664728291E-004
  6.641572390130069E-004
  6.604722314853608E-004
  6.572624178776975E-004
  6.546768074890612E-004
  6.528411268999023E-004
  6.518583774689230E-004
  6.605780291148222E-004
  6.625505605254152E-004
  6.619905240950472E-004
  6.594707328944094E-004
  6.555072393694440E-004
  6.505531786794786E-004
  6.449973438426696E-004
  6.391674131371119E-004
  6.333367799452376E-004
  6.277334284920716E-004
  6.225492593750878E-004
  6.179484709670661E-004
  6.140739572531213E-004
  6.110511989428965E-004
  6.089875015072436E-004
  6.451480582891915E-004
  6.437474123599379E-004
  6.399697635574905E-004
  6.344265673480381E-004
  6.276592866410370E-004
  6.201313145335347E-004
  6.122273911117091E-004
  6.042599775732947E-004
  5.964804973817277E-004
  5.890928217194776E-004
  5.822666898022004E-004
  5.761494155535768E-004
  5.708744621852285E-004
  5.665664014142049E-004
  5.633392772739594E-004
  6.307298982296330E-004
  6.253470312049508E-004
  6.177939830321498E-004
  6.087364900846299E-004
  5.987497228055461E-004
  5.883071315634634E-004
  5.777819474145420E-004
  5.674593869839067E-004
  5.575551707806576E-004
  5.482358737531217E-004
  5.396378873151029E-004
  5.318832670625280E-004
  5.250917305324586E-004
  5.193862134256079E-004
  5.148866141824571E-004
  6.173710181214796E-004
  6.073191714810677E-004
  5.953717292627714E-004
  5.822721368289541E-004
  5.686394936678808E-004
  5.549532521401831E-004
  5.415603929939808E-004
  5.286988825149089E-004
  5.165281351118420E-004
  5.051590177184047E-004
  4.946796722530276E-004
  4.851760005355608E-004
  4.767473323592661E-004
  4.695127663483976E-004
  4.636001144627693E-004
  6.050986333388413E-004
  5.895772030649722E-004
  5.725297748825193E-004
  5.548146072220281E-004
  5.371059882337782E-004
  5.198759037009159E-004
  5.034165638902949E-004
  4.878862159633768E-004
  4.733583874783941E-004
  4.598639258547961E-004
  4.474236629643023E-004
  4.360735702877611E-004
  4.258835860119248E-004
  4.169643665594603E-004
  4.094599541751577E-004
  5.939089301452196E-004
  5.719422747995761E-004
  5.489647449409688E-004
  5.260093054182119E-004
  5.038120001057236E-004
  4.827997991235090E-004
  4.631558746963434E-004
  4.449083738463621E-004
  4.280059818048633E-004
  4.123703016331071E-004
  3.979321092134047E-004
  3.846592103443357E-004
  3.725790337340665E-004
  3.617891913534327E-004
  3.524602927038843E-004
  5.837465267221685E-004
  5.540733991126411E-004
  5.241536293518426E-004
  4.952948483247627E-004
  4.682677313751993E-004
  4.433580617919212E-004
  4.205400420755270E-004
  3.996421463991993E-004
  3.804452691689733E-004
  3.627322975634330E-004
  3.463184585277307E-004
  3.310799310462828E-004
  3.169803920269456E-004
  3.040964880362635E-004
  2.926296554182960E-004
  5.744624011459188E-004
  5.353050304207925E-004
  4.971829315301426E-004
  4.617976432880231E-004
  4.298039308788773E-004
  4.011034313658874E-004
  3.753066413756631E-004
  3.519723718913372E-004
  3.306805237221676E-004
  3.110549333422552E-004
  2.927729208124925E-004
  2.755816874194252E-004
  2.593500195486008E-004
  2.441004250661409E-004
  2.300662123522954E-004
  5.656402555288306E-004
  5.142475690295021E-004
  4.663924705323937E-004
  4.242475943436541E-004
  3.876143293537789E-004
  3.555599579681158E-004
  3.272090641083469E-004
  3.018170704855914E-004
  2.787595987490175E-004
  2.575027512035537E-004
  2.375773858998717E-004
  2.185676787371606E-004
  2.001327036162792E-004
  1.822232686872978E-004
  1.650038153771722E-004
  5.560633704509254E-004
  4.872841987585986E-004
  4.290304549990374E-004
  3.811804879359140E-004
  3.409092170905795E-004
  3.063235638225545E-004
  2.760730469833923E-004
  2.491547268375610E-004
  2.247802047386095E-004
  2.022896380879881E-004
  1.810884703455962E-004
  1.605933600056511E-004
  1.401876604415790E-004
  1.192082045411749E-004
  9.806625278326424E-005
  5.360669992840315E-004
  4.467573888826572E-004
  3.824525853931011E-004
  3.314221594702493E-004
  2.891686969627394E-004
  2.531822395523784E-004
  2.218539772684360E-004
  1.940459342489459E-004
  1.688858389425580E-004
  1.456479978467041E-004
  1.236674106574089E-004
  1.022555348441918E-004
  8.058085716907321E-005
  5.741742035843732E-005
  3.058586029095929E-005
SCALARS elementIsPlast double 
LOOKUP_TABLE default
   1.00000000000000     
   1.00000000000000     
   1.00000000000000     
   1.00000000000000     
   1.00000000000000     
   1.00000000000000     
   1.00000000000000     
   1.00000000000000     
   1.00000000000000     
  0.000000000000000E+000
  0.000000000000000E+000
  0.000000000000000E+000
  0.000000000000000E+000
  0.000000000000000E+000
  0.000000000000000E+000
   1.00000000000000     
   1.00000000000000     
   1.00000000000000     
   1.00000000000000     
   1.00000000000000     
   1.00000000000000     
   1.00000000000000     
   1.00000000000000     
  0.000000000000000E+000
  0.000000000000000E+000
  0.000000000000000E+000
  0.000000000000000E+000
  0.000000000000000E+000
  0.000000000000000E+000
  0.000000000000000E+000
   1.00000000000000     
   1.00000000000000     
  0.000000000000000E+000
  0.000000000000000E+000
  0.000000000000000E+000
  0.000000000000000E+000
  0.000000000000000E+000
  0.000000000000000E+000
  0.000000000000000E+000
  0.000000000000000E+000
  0.000000000000000E+000
  0.000000000000000E+000
  0.000000000000000E+000
  0.000000000000000E+000
  0.000000000000000E+000
  0.000000000000000E+000
  0.000000000000000E+000
  0.000000000000000E+000
  0.000000000000000E+000
  0.000000000000000E+000
  0.000000000000000E+000
  0.000000000000000E+000
  0.000000000000000E+000
  0.000000000000000E+000
  0.000000000000000E+000
  0.000000000000000E+000
  0.000000000000000E+000
  0.000000000000000E+000
  0.000000000000000E+000
  0.000000000000000E+000
  0.000000000000000E+000
  0.000000000000000E+000
  0.000000000000000E+000
  0.000000000000000E+000
  0.000000000000000E+000
  0.000000000000000E+000
  0.000000000000000E+000
  0.000000000000000E+000
  0.000000000000000E+000
  0.000000000000000E+000
  0.000000000000000E+000
  0.000000000000000E+000
  0.000000000000000E+000
  0.000000000000000E+000
  0.000000000000000E+000
  0.000000000000000E+000
  0.000000000000000E+000
  0.000000000000000E+000
  0.000000000000000E+000
  0.000000000000000E+000
  0.000000000000000E+000
  0.000000000000000E+000
  0.000000000000000E+000
  0.000000000000000E+000
  0.000000000000000E+000
  0.000000000000000E+000
  0.000000000000000E+000
  0.000000000000000E+000
  0.000000000000000E+000
  0.000000000000000E+000
  0.000000000000000E+000
  0.000000000000000E+000
  0.000000000000000E+000
  0.000000000000000E+000
  0.000000000000000E+000
  0.000000000000000E+000
  0.000000000000000E+000
  0.000000000000000E+000
  0.000000000000000E+000
  0.000000000000000E+000
  0.000000000000000E+000
  0.000000000000000E+000
  0.000000000000000E+000
  0.000000000000000E+000
  0.000000000000000E+000
  0.000000000000000E+000
  0.000000000000000E+000
  0.000000000000000E+000
  0.000000000000000E+000
  0.000000000000000E+000
  0.000000000000000E+000
  0.000000000000000E+000
  0.000000000000000E+000
  0.000000000000000E+000
  0.000000000000000E+000
  0.000000000000000E+000
  0.000000000000000E+000
  0.000000000000000E+000
  0.000000000000000E+000
  0.000000000000000E+000
  0.000000000000000E+000
  0.000000000000000E+000
  0.000000000000000E+000
  0.000000000000000E+000
  0.000000000000000E+000
  0.000000000000000E+000
  0.000000000000000E+000
  0.000000000000000E+000
  0.000000000000000E+000
  0.000000000000000E+000
  0.000000000000000E+000
  0.000000000000000E+000
  0.000000000000000E+000
  0.000000000000000E+000
  0.000000000000000E+000
  0.000000000000000E+000
  0.000000000000000E+000
  0.000000000000000E+000
  0.000000000000000E+000
  0.000000000000000E+000
  0.000000000000000E+000
  0.000000000000000E+000
  0.000000000000000E+000
  0.000000000000000E+000
  0.000000000000000E+000
  0.000000000000000E+000
  0.000000000000000E+000
  0.000000000000000E+000
  0.000000000000000E+000
  0.000000000000000E+000
  0.000000000000000E+000
  0.000000000000000E+000
  0.000000000000000E+000
  0.000000000000000E+000
  0.000000000000000E+000
  0.000000000000000E+000
  0.000000000000000E+000
  0.000000000000000E+000
  0.000000000000000E+000
  0.000000000000000E+000
  0.000000000000000E+000
  0.000000000000000E+000
  0.000000000000000E+000
  0.000000000000000E+000
  0.000000000000000E+000
  0.000000000000000E+000
  0.000000000000000E+000
  0.000000000000000E+000
  0.000000000000000E+000
  0.000000000000000E+000
  0.000000000000000E+000
  0.000000000000000E+000
  0.000000000000000E+000
  0.000000000000000E+000
  0.000000000000000E+000
  0.000000000000000E+000
  0.000000000000000E+000
  0.000000000000000E+000
  0.000000000000000E+000
  0.000000000000000E+000
  0.000000000000000E+000
  0.000000000000000E+000
  0.000000000000000E+000
  0.000000000000000E+000
  0.000000000000000E+000
  0.000000000000000E+000
  0.000000000000000E+000
  0.000000000000000E+000
  0.000000000000000E+000
  0.000000000000000E+000
  0.000000000000000E+000
  0.000000000000000E+000
  0.000000000000000E+000
  0.000000000000000E+000
  0.000000000000000E+000
  0.000000000000000E+000
  0.000000000000000E+000
  0.000000000000000E+000
  0.000000000000000E+000
  0.000000000000000E+000
  0.000000000000000E+000
  0.000000000000000E+000
  0.000000000000000E+000
  0.000000000000000E+000
  0.000000000000000E+000
  0.000000000000000E+000
  0.000000000000000E+000
  0.000000000000000E+000
  0.000000000000000E+000
  0.000000000000000E+000
  0.000000000000000E+000
  0.000000000000000E+000
  0.000000000000000E+000
  0.000000000000000E+000
  0.000000000000000E+000
  0.000000000000000E+000
  0.000000000000000E+000
  0.000000000000000E+000
  0.000000000000000E+000
  0.000000000000000E+000
  0.000000000000000E+000
  0.000000000000000E+000
  0.000000000000000E+000
  0.000000000000000E+000
  0.000000000000000E+000
  0.000000000000000E+000
  0.000000000000000E+000
  0.000000000000000E+000
  0.000000000000000E+000
  0.000000000000000E+000
  0.000000000000000E+000
  0.000000000000000E+000
  0.000000000000000E+000
  0.000000000000000E+000
  0.000000000000000E+000
  0.000000000000000E+000
  0.000000000000000E+000
  0.000000000000000E+000
  0.000000000000000E+000
  0.000000000000000E+000
  0.000000000000000E+000
  0.000000000000000E+000
  0.000000000000000E+000
  0.000000000000000E+000
  0.000000000000000E+000
  0.000000000000000E+000
  0.000000000000000E+000
  0.000000000000000E+000
  0.000000000000000E+000
  0.000000000000000E+000
  0.000000000000000E+000
  0.000000000000000E+000
  0.000000000000000E+000
  0.000000000000000E+000
  0.000000000000000E+000
  0.000000000000000E+000
  0.000000000000000E+000
  0.000000000000000E+000
  0.000000000000000E+000
  0.000000000000000E+000
  0.000000000000000E+000
  0.000000000000000E+000
  0.000000000000000E+000
  0.000000000000000E+000
  0.000000000000000E+000
  0.000000000000000E+000
  0.000000000000000E+000
  0.000000000000000E+000
  0.000000000000000E+000
  0.000000000000000E+000
  0.000000000000000E+000
  0.000000000000000E+000
  0.000000000000000E+000
  0.000000000000000E+000
  0.000000000000000E+000
  0.000000000000000E+000
  0.000000000000000E+000
  0.000000000000000E+000
  0.000000000000000E+000
  0.000000000000000E+000
  0.000000000000000E+000
  0.000000000000000E+000
  0.000000000000000E+000
  0.000000000000000E+000
  0.000000000000000E+000
  0.000000000000000E+000
  0.000000000000000E+000
  0.000000000000000E+000
  0.000000000000000E+000
  0.000000000000000E+000
  0.000000000000000E+000
  0.000000000000000E+000
  0.000000000000000E+000
  0.000000000000000E+000
  0.000000000000000E+000
  0.000000000000000E+000
  0.000000000000000E+000
  0.000000000000000E+000
  0.000000000000000E+000
  0.000000000000000E+000
  0.000000000000000E+000
  0.000000000000000E+000
  0.000000000000000E+000
  0.000000000000000E+000
  0.000000000000000E+000
  0.000000000000000E+000
  0.000000000000000E+000
  0.000000000000000E+000
  0.000000000000000E+000
  0.000000000000000E+000
  0.000000000000000E+000
  0.000000000000000E+000
  0.000000000000000E+000
  0.000000000000000E+000
  0.000000000000000E+000
  0.000000000000000E+000
  0.000000000000000E+000
  0.000000000000000E+000
  0.000000000000000E+000
  0.000000000000000E+000
  0.000000000000000E+000
  0.000000000000000E+000
  0.000000000000000E+000
  0.000000000000000E+000
  0.000000000000000E+000
  0.000000000000000E+000
  0.000000000000000E+000
  0.000000000000000E+000
  0.000000000000000E+000
  0.000000000000000E+000
  0.000000000000000E+000
  0.000000000000000E+000
  0.000000000000000E+000
  0.000000000000000E+000
  0.000000000000000E+000
  0.000000000000000E+000
  0.000000000000000E+000
  0.000000000000000E+000
  0.000000000000000E+000
  0.000000000000000E+000
  0.000000000000000E+000
  0.000000000000000E+000
  0.000000000000000E+000
  0.000000000000000E+000
  0.000000000000000E+000
  0.000000000000000E+000
  0.000000000000000E+000
  0.000000000000000E+000
  0.000000000000000E+000
  0.000000000000000E+000
  0.000000000000000E+000
  0.000000000000000E+000
  0.000000000000000E+000
  0.000000000000000E+000
  0.000000000000000E+000
  0.000000000000000E+000
  0.000000000000000E+000
  0.000000000000000E+000
  0.000000000000000E+000
  0.000000000000000E+000
  0.000000000000000E+000
  0.000000000000000E+000
  0.000000000000000E+000
  0.000000000000000E+000
  0.000000000000000E+000
  0.000000000000000E+000
  0.000000000000000E+000
  0.000000000000000E+000
  0.000000000000000E+000
  0.000000000000000E+000
  0.000000000000000E+000
  0.000000000000000E+000
  0.000000000000000E+000
  0.000000000000000E+000
  0.000000000000000E+000
  0.000000000000000E+000
  0.000000000000000E+000
  0.000000000000000E+000
  0.000000000000000E+000
  0.000000000000000E+000
  0.000000000000000E+000
  0.000000000000000E+000
  0.000000000000000E+000
  0.000000000000000E+000
  0.000000000000000E+000
  0.000000000000000E+000
  0.000000000000000E+000
  0.000000000000000E+000
  0.000000000000000E+000
  0.000000000000000E+000
  0.000000000000000E+000
  0.000000000000000E+000
  0.000000000000000E+000
  0.000000000000000E+000
  0.000000000000000E+000
  0.000000000000000E+000
  0.000000000000000E+000
  0.000000000000000E+000
  0.000000000000000E+000
  0.000000000000000E+000
  0.000000000000000E+000
  0.000000000000000E+000
  0.000000000000000E+000
  0.000000000000000E+000
  0.000000000000000E+000
  0.000000000000000E+000
  0.000000000000000E+000
  0.000000000000000E+000
  0.000000000000000E+000
  0.000000000000000E+000
  0.000000000000000E+000
  0.000000000000000E+000
  0.000000000000000E+000
  0.000000000000000E+000
  0.000000000000000E+000
  0.000000000000000E+000
  0.000000000000000E+000
  0.000000000000000E+000
  0.000000000000000E+000
  0.000000000000000E+000
  0.000000000000000E+000
  0.000000000000000E+000
  0.000000000000000E+000
  0.000000000000000E+000
  0.000000000000000E+000
  0.000000000000000E+000
  0.000000000000000E+000
  0.000000000000000E+000
  0.000000000000000E+000
  0.000000000000000E+000
  0.000000000000000E+000
  0.000000000000000E+000
  0.000000000000000E+000
  0.000000000000000E+000
  0.000000000000000E+000
  0.000000000000000E+000
  0.000000000000000E+000
  0.000000000000000E+000
  0.000000000000000E+000
  0.000000000000000E+000
  0.000000000000000E+000
  0.000000000000000E+000
  0.000000000000000E+000
  0.000000000000000E+000
  0.000000000000000E+000
  0.000000000000000E+000
  0.000000000000000E+000
  0.000000000000000E+000
  0.000000000000000E+000
  0.000000000000000E+000
SCALARS poroL double 
LOOKUP_TABLE default
  0.276235113501211     
  0.276329260846636     
  0.274828989908507     
  0.272436549972585     
  0.269587522508244     
  0.266603749834157     
  0.263750137232768     
  0.261172544286289     
  0.259053643291689     
  0.257752988573339     
  0.256907781070029     
  0.256228533106057     
  0.255635602716964     
  0.255077697297718     
  0.254477327869010     
  0.268422122916274     
  0.265524446273687     
  0.263388064762750     
  0.261787341831830     
  0.260631238025322     
  0.259781323808204     
  0.259058829126289     
  0.258410266702966     
  0.257755289283655     
  0.257009478041024     
  0.256289903622754     
  0.255669118879848     
  0.255116177940790     
  0.254603047583513     
  0.254132997187511     
  0.259635424914797     
  0.257993453764759     
  0.257482371198744     
  0.257487364925645     
  0.257544903948081     
  0.257542671249878     
  0.257426678569828     
  0.257133141626600     
  0.256674299999151     
  0.256129941157594     
  0.255571860471718     
  0.255041545177828     
  0.254554834105107     
  0.254112362952171     
  0.253721167088608     
  0.257406942979281     
  0.257057283821217     
  0.256804632305088     
  0.256650500409307     
  0.256567885359978     
  0.256467433363162     
  0.256295778052246     
  0.256028820896323     
  0.255670249378587     
  0.255249281278486     
  0.254804287559945     
  0.254365611691531     
  0.253951597245147     
  0.253573433173656     
  0.253240866527465     
  0.256338036222156     
  0.256143610033330     
  0.255934828039207     
  0.255763417140657     
  0.255615849411053     
  0.255462521677617     
  0.255271223536305     
  0.255025364003778     
  0.254725098932142     
  0.254383859122146     
  0.254021772840610     
  0.253658678613981     
  0.253310274360029     
  0.252988161960354     
  0.252701512879577     
  0.255393079916466     
  0.255195604763804     
  0.255011144812736     
  0.254836573223945     
  0.254670175393685     
  0.254497651560860     
  0.254303642877205     
  0.254078022187142     
  0.253819498252720     
  0.253534601298712     
  0.253234636390064     
  0.252932266909372     
  0.252639074472774     
  0.252364558040119     
  0.252116001349242     
  0.254429674086301     
  0.254241913599767     
  0.254064021341023     
  0.253893800524697     
  0.253725902625795     
  0.253553148736108     
  0.253367313382019     
  0.253162741874685     
  0.252938198147885     
  0.252697005625507     
  0.252445754999375     
  0.252192540740227     
  0.251945423078959     
  0.251711417484650     
  0.251495901351848     
  0.253450775627477     
  0.253273198200555     
  0.253104806231066     
  0.252942458797355     
  0.252782101044572     
  0.252618746570123     
  0.252447611930631     
  0.252265315071162     
  0.252070943649669     
  0.251866264944847     
  0.251655208515607     
  0.251442943262234     
  0.251234918146071     
  0.251036073185919     
  0.250850250932185     
  0.252455843491298     
  0.252290804006629     
  0.252134642849151     
  0.251984488359778     
  0.251836984922932     
  0.251688578535252     
  0.251536025477155     
  0.251377075484012     
  0.251210973675751     
  0.251038627130940     
  0.250862373904254     
  0.250685486052683     
  0.250511576190133     
  0.250344041046676     
  0.250185605812250     
  0.251444965010754     
  0.251294859707652     
  0.251153853129711     
  0.251019359246940     
  0.250888581573302     
  0.250758721847969     
  0.250627323259360     
  0.250492637665021     
  0.250353911352905     
  0.250211482408837     
  0.250066667904892     
  0.249921482017174     
  0.249778268609366     
  0.249639328963415     
  0.249506603644333     
  0.250417919833349     
  0.250285096747390     
  0.250161914843659     
  0.250046040932296     
  0.249935003322154     
  0.249826397283213     
  0.249718120337396     
  0.249608604588262     
  0.249496986852492     
  0.249383171873195     
  0.249267771185566     
  0.249151936795650     
  0.249037131714652     
  0.248924887113492     
  0.248816590957922     
  0.249374223650698     
  0.249260843793221     
  0.249157963586745     
  0.249063345229526     
  0.248974642466902     
  0.248889589320236     
  0.248806182636320     
  0.248722842795594     
  0.248638527567852     
  0.248552776555432     
  0.248465678220835     
  0.248377768730033     
  0.248289886466605     
  0.248203013616360     
  0.248118137255230     
  0.248312940850348     
  0.248221108675273     
  0.248140936447367     
  0.248070092928212     
  0.248006170023315     
  0.247946851231602     
  0.247890059893300     
  0.247834080759614     
  0.247777643501062     
  0.247719958222703     
  0.247660699303313     
  0.247599942744865     
  0.247538070781649     
  0.247475664230434     
  0.247413406728014     
  0.247232631474840     
  0.247164597002852     
  0.247109645269375     
  0.247065164685723     
  0.247028517092589     
  0.246997183345972     
  0.246968885897084     
  0.246941684938102     
  0.246914043728642     
  0.246884859525807     
  0.246853458888168     
  0.246819559072981     
  0.246783201429667     
  0.246744669050351     
  0.246704408544014     
  0.246131380358274     
  0.246089751296389     
  0.246062821171018     
  0.246047529369240     
  0.246040860195191     
  0.246039966506799     
  0.246042270465476     
  0.246045539609687     
  0.246047937987676     
  0.246048053814878     
  0.246044904594178     
  0.246037917876190     
  0.246026882715355     
  0.246011872035246     
  0.245993153605197     
  0.245006880743694     
  0.244994815816148     
  0.244999167207386     
  0.245016277580861     
  0.245042626702013     
  0.245074936065856     
  0.245110249617082     
  0.245145990097478     
  0.245179994393377     
  0.245210534529551     
  0.245236333893892     
  0.245256574872294     
  0.245270875509059     
  0.245279203958655     
  0.245281732690883     
  0.243856545932081     
  0.243877925269368     
  0.243917429559521     
  0.243970674094381     
  0.244033524929369     
  0.244102188863689     
  0.244173274547721     
  0.244243825431631     
  0.244311332075652     
  0.244373737010646     
  0.244429449938557     
  0.244477410109447     
  0.244517141886373     
  0.244548681391781     
  0.244572301475282     
  0.242677634150811     
  0.242737212795736     
  0.242816491009503     
  0.242910234926749     
  0.243013601240427     
  0.243122218350093     
  0.243232227085022     
  0.243340282765941     
  0.243443529816878     
  0.243539572188481     
  0.243626466636270     
  0.243702773746279     
  0.243767902061958     
  0.243822300649936     
  0.243866870843104     
  0.241467378652576     
  0.241570935335112     
  0.241695489951974     
  0.241834834223848     
  0.241983327398671     
  0.242135976303540     
  0.242288453630845     
  0.242437057728537     
  0.242578628746057     
  0.242710447164210     
  0.242830178111785     
  0.242935872938968     
  0.243026026391429     
  0.243101646241172     
  0.243166539620659     
  0.240223119088368     
  0.240377618672317     
  0.240553972056756     
  0.240744849811397     
  0.240943725475339     
  0.241144964244687     
  0.241343814377572     
  0.241536308847953     
  0.241719097721545     
  0.241889237105707     
  0.242043964586265     
  0.242180737298244     
  0.242297067867400     
  0.242389118360527     
  0.242466506556923     
  0.238942433026589     
  0.239156230706511     
  0.239392089284718     
  0.239641363704091     
  0.239896544284019     
  0.240151363934602     
  0.240400751323256     
  0.240640651484916     
  0.240867745443087     
  0.241079101453223     
  0.241271747632994     
  0.241442058041984     
  0.241587099180574     
  0.241702050443472     
  0.241750504540640     
  0.237623270481643     
  0.237906402051574     
  0.238210874029546     
  0.238526445681945     
  0.238844510177446     
  0.239158222976791     
  0.239462386468831     
  0.239753148961802     
  0.240027583232426     
  0.240283170667522     
  0.240517244131587     
  0.240725987001929     
  0.240901305632478     
  0.241046325994535     
  0.241022851814717     
  0.236264102479330     
  0.236628733076250     
  0.237012639200641     
  0.237403566270445     
  0.237791684872720     
  0.238169715402780     
  0.238532664617881     
  0.238877324429891     
  0.239201665116313     
  0.239504188617111     
  0.239783117643382     
  0.240036126305800     
  0.240256595481119     
  0.240394009538331     
  0.240326099985079     
  0.234864112961954     
  0.235325266887897     
  0.235801598531655     
  0.236278213368543     
  0.236743970836378     
  0.237191490456634     
  0.237616547733865     
  0.238017211545161     
  0.238392995554175     
  0.238744101221211     
  0.239070725360867     
  0.239371369592924     
  0.239650270000011     
  0.239748205645989     
  0.239690218493828     
  0.233423501970812     
  0.234000299879996     
  0.234584885469363     
  0.235158829760936     
  0.235709799057092     
  0.236231093179827     
  0.236720232897769     
  0.237177451250915     
  0.237604526686287     
  0.238004040321489     
  0.238378866713501     
  0.238731728861199     
  0.239054041494056     
  0.239128611234076     
  0.239100070430453     
  0.231944086792263     
  0.232661909775323     
  0.233374336280512     
  0.234058229735173     
  0.234700984141810     
  0.235298358909158     
  0.235851303291547     
  0.236363375991806     
  0.236839317717141     
  0.237284485355898     
  0.237704869268592     
  0.238107961684325     
  0.238469189739012     
  0.238555509601502     
  0.238552500767051     
  0.230430623653211     
  0.231325276279071     
  0.232189707818569     
  0.232995648052096     
  0.233733504675593     
  0.234405523657418     
  0.235018646385028     
  0.235580976937693     
  0.236100712869389     
  0.236585999438217     
  0.237045440065151     
  0.237489351074630     
  0.237896536674963     
  0.238021820228008     
  0.238049710837675     
  0.228895271155530     
  0.230020301758549     
  0.231064887090869     
  0.231998752829407     
  0.232827375046165     
  0.233566674933531     
  0.234231942854355     
  0.234836612394669     
  0.235392395019230     
  0.235909850734874     
  0.236399070645053     
  0.236871007010736     
  0.237327140463976     
  0.237524372139964     
  0.237588748390399     
  0.227371278127901     
  0.228816106022297     
  0.230054937810578     
  0.231101970228599     
  0.232004706672119     
  0.232796188642353     
  0.233500626139826     
  0.234136386281999     
  0.234718122148278     
  0.235258121724276     
  0.235767209481694     
  0.236254632791631     
  0.236737135251054     
  0.237054582741228     
  0.237154693605604     
  0.226037859403567     
  0.227854584564521     
  0.229222915015456     
  0.230339671595891     
  0.231285354647061     
  0.232106259411524     
  0.232832433591067     
  0.233485275646107     
  0.234081129583186     
  0.234633193127306     
  0.235152439760194     
  0.235647929367854     
  0.236121028808781     
  0.236517476098302     
  0.236716222850952     
