# vtk DataFile Version 3.0
vtk output
ASCII
DATASET UNSTRUCTURED_GRID
POINTS       496 double 
  0.00000000E+00  3.00000000E+02  0.00000000E+00
  0.00000000E+00  2.80000000E+02  0.00000000E+00
  0.00000000E+00  2.60000000E+02  0.00000000E+00
  0.00000000E+00  2.40000000E+02  0.00000000E+00
  0.00000000E+00  2.20000000E+02  0.00000000E+00
  0.00000000E+00  2.00000000E+02  0.00000000E+00
  0.00000000E+00  1.80000000E+02  0.00000000E+00
  0.00000000E+00  1.60000000E+02  0.00000000E+00
  0.00000000E+00  1.40000000E+02  0.00000000E+00
  0.00000000E+00  1.20000000E+02  0.00000000E+00
  0.00000000E+00  1.00000000E+02  0.00000000E+00
  0.00000000E+00  8.00000000E+01  0.00000000E+00
  0.00000000E+00  6.00000000E+01  0.00000000E+00
  0.00000000E+00  4.00000000E+01  0.00000000E+00
  0.00000000E+00  2.00000000E+01  0.00000000E+00
  0.00000000E+00  4.99600361E-14  0.00000000E+00
  2.00000000E+01  3.00000000E+02  0.00000000E+00
  2.00000000E+01  2.80000000E+02  0.00000000E+00
  2.00000000E+01  2.60000000E+02  0.00000000E+00
  2.00000000E+01  2.40000000E+02  0.00000000E+00
  2.00000000E+01  2.20000000E+02  0.00000000E+00
  2.00000000E+01  2.00000000E+02  0.00000000E+00
  2.00000000E+01  1.80000000E+02  0.00000000E+00
  2.00000000E+01  1.60000000E+02  0.00000000E+00
  2.00000000E+01  1.40000000E+02  0.00000000E+00
  2.00000000E+01  1.20000000E+02  0.00000000E+00
  2.00000000E+01  1.00000000E+02  0.00000000E+00
  2.00000000E+01  8.00000000E+01  0.00000000E+00
  2.00000000E+01  6.00000000E+01  0.00000000E+00
  2.00000000E+01  4.00000000E+01  0.00000000E+00
  2.00000000E+01  2.00000000E+01  0.00000000E+00
  2.00000000E+01  4.99600361E-14  0.00000000E+00
  4.00000000E+01  3.00000000E+02  0.00000000E+00
  4.00000000E+01  2.80000000E+02  0.00000000E+00
  4.00000000E+01  2.60000000E+02  0.00000000E+00
  4.00000000E+01  2.40000000E+02  0.00000000E+00
  4.00000000E+01  2.20000000E+02  0.00000000E+00
  4.00000000E+01  2.00000000E+02  0.00000000E+00
  4.00000000E+01  1.80000000E+02  0.00000000E+00
  4.00000000E+01  1.60000000E+02  0.00000000E+00
  4.00000000E+01  1.40000000E+02  0.00000000E+00
  4.00000000E+01  1.20000000E+02  0.00000000E+00
  4.00000000E+01  1.00000000E+02  0.00000000E+00
  4.00000000E+01  8.00000000E+01  0.00000000E+00
  4.00000000E+01  6.00000000E+01  0.00000000E+00
  4.00000000E+01  4.00000000E+01  0.00000000E+00
  4.00000000E+01  2.00000000E+01  0.00000000E+00
  4.00000000E+01  4.99600361E-14  0.00000000E+00
  6.00000000E+01  3.00000000E+02  0.00000000E+00
  6.00000000E+01  2.80000000E+02  0.00000000E+00
  6.00000000E+01  2.60000000E+02  0.00000000E+00
  6.00000000E+01  2.40000000E+02  0.00000000E+00
  6.00000000E+01  2.20000000E+02  0.00000000E+00
  6.00000000E+01  2.00000000E+02  0.00000000E+00
  6.00000000E+01  1.80000000E+02  0.00000000E+00
  6.00000000E+01  1.60000000E+02  0.00000000E+00
  6.00000000E+01  1.40000000E+02  0.00000000E+00
  6.00000000E+01  1.20000000E+02  0.00000000E+00
  6.00000000E+01  1.00000000E+02  0.00000000E+00
  6.00000000E+01  8.00000000E+01  0.00000000E+00
  6.00000000E+01  6.00000000E+01  0.00000000E+00
  6.00000000E+01  4.00000000E+01  0.00000000E+00
  6.00000000E+01  2.00000000E+01  0.00000000E+00
  6.00000000E+01  4.99600361E-14  0.00000000E+00
  8.00000000E+01  3.00000000E+02  0.00000000E+00
  8.00000000E+01  2.80000000E+02  0.00000000E+00
  8.00000000E+01  2.60000000E+02  0.00000000E+00
  8.00000000E+01  2.40000000E+02  0.00000000E+00
  8.00000000E+01  2.20000000E+02  0.00000000E+00
  8.00000000E+01  2.00000000E+02  0.00000000E+00
  8.00000000E+01  1.80000000E+02  0.00000000E+00
  8.00000000E+01  1.60000000E+02  0.00000000E+00
  8.00000000E+01  1.40000000E+02  0.00000000E+00
  8.00000000E+01  1.20000000E+02  0.00000000E+00
  8.00000000E+01  1.00000000E+02  0.00000000E+00
  8.00000000E+01  8.00000000E+01  0.00000000E+00
  8.00000000E+01  6.00000000E+01  0.00000000E+00
  8.00000000E+01  4.00000000E+01  0.00000000E+00
  8.00000000E+01  2.00000000E+01  0.00000000E+00
  8.00000000E+01  4.99600361E-14  0.00000000E+00
  1.00000000E+02  3.00000000E+02  0.00000000E+00
  1.00000000E+02  2.80000000E+02  0.00000000E+00
  1.00000000E+02  2.60000000E+02  0.00000000E+00
  1.00000000E+02  2.40000000E+02  0.00000000E+00
  1.00000000E+02  2.20000000E+02  0.00000000E+00
  1.00000000E+02  2.00000000E+02  0.00000000E+00
  1.00000000E+02  1.80000000E+02  0.00000000E+00
  1.00000000E+02  1.60000000E+02  0.00000000E+00
  1.00000000E+02  1.40000000E+02  0.00000000E+00
  1.00000000E+02  1.20000000E+02  0.00000000E+00
  1.00000000E+02  1.00000000E+02  0.00000000E+00
  1.00000000E+02  8.00000000E+01  0.00000000E+00
  1.00000000E+02  6.00000000E+01  0.00000000E+00
  1.00000000E+02  4.00000000E+01  0.00000000E+00
  1.00000000E+02  2.00000000E+01  0.00000000E+00
  1.00000000E+02  4.99600361E-14  0.00000000E+00
  1.20000000E+02  3.00000000E+02  0.00000000E+00
  1.20000000E+02  2.80000000E+02  0.00000000E+00
  1.20000000E+02  2.60000000E+02  0.00000000E+00
  1.20000000E+02  2.40000000E+02  0.00000000E+00
  1.20000000E+02  2.20000000E+02  0.00000000E+00
  1.20000000E+02  2.00000000E+02  0.00000000E+00
  1.20000000E+02  1.80000000E+02  0.00000000E+00
  1.20000000E+02  1.60000000E+02  0.00000000E+00
  1.20000000E+02  1.40000000E+02  0.00000000E+00
  1.20000000E+02  1.20000000E+02  0.00000000E+00
  1.20000000E+02  1.00000000E+02  0.00000000E+00
  1.20000000E+02  8.00000000E+01  0.00000000E+00
  1.20000000E+02  6.00000000E+01  0.00000000E+00
  1.20000000E+02  4.00000000E+01  0.00000000E+00
  1.20000000E+02  2.00000000E+01  0.00000000E+00
  1.20000000E+02  4.99600361E-14  0.00000000E+00
  1.40000000E+02  3.00000000E+02  0.00000000E+00
  1.40000000E+02  2.80000000E+02  0.00000000E+00
  1.40000000E+02  2.60000000E+02  0.00000000E+00
  1.40000000E+02  2.40000000E+02  0.00000000E+00
  1.40000000E+02  2.20000000E+02  0.00000000E+00
  1.40000000E+02  2.00000000E+02  0.00000000E+00
  1.40000000E+02  1.80000000E+02  0.00000000E+00
  1.40000000E+02  1.60000000E+02  0.00000000E+00
  1.40000000E+02  1.40000000E+02  0.00000000E+00
  1.40000000E+02  1.20000000E+02  0.00000000E+00
  1.40000000E+02  1.00000000E+02  0.00000000E+00
  1.40000000E+02  8.00000000E+01  0.00000000E+00
  1.40000000E+02  6.00000000E+01  0.00000000E+00
  1.40000000E+02  4.00000000E+01  0.00000000E+00
  1.40000000E+02  2.00000000E+01  0.00000000E+00
  1.40000000E+02  4.99600361E-14  0.00000000E+00
  1.60000000E+02  3.00000000E+02  0.00000000E+00
  1.60000000E+02  2.80000000E+02  0.00000000E+00
  1.60000000E+02  2.60000000E+02  0.00000000E+00
  1.60000000E+02  2.40000000E+02  0.00000000E+00
  1.60000000E+02  2.20000000E+02  0.00000000E+00
  1.60000000E+02  2.00000000E+02  0.00000000E+00
  1.60000000E+02  1.80000000E+02  0.00000000E+00
  1.60000000E+02  1.60000000E+02  0.00000000E+00
  1.60000000E+02  1.40000000E+02  0.00000000E+00
  1.60000000E+02  1.20000000E+02  0.00000000E+00
  1.60000000E+02  1.00000000E+02  0.00000000E+00
  1.60000000E+02  8.00000000E+01  0.00000000E+00
  1.60000000E+02  6.00000000E+01  0.00000000E+00
  1.60000000E+02  4.00000000E+01  0.00000000E+00
  1.60000000E+02  2.00000000E+01  0.00000000E+00
  1.60000000E+02  4.99600361E-14  0.00000000E+00
  1.80000000E+02  3.00000000E+02  0.00000000E+00
  1.80000000E+02  2.80000000E+02  0.00000000E+00
  1.80000000E+02  2.60000000E+02  0.00000000E+00
  1.80000000E+02  2.40000000E+02  0.00000000E+00
  1.80000000E+02  2.20000000E+02  0.00000000E+00
  1.80000000E+02  2.00000000E+02  0.00000000E+00
  1.80000000E+02  1.80000000E+02  0.00000000E+00
  1.80000000E+02  1.60000000E+02  0.00000000E+00
  1.80000000E+02  1.40000000E+02  0.00000000E+00
  1.80000000E+02  1.20000000E+02  0.00000000E+00
  1.80000000E+02  1.00000000E+02  0.00000000E+00
  1.80000000E+02  8.00000000E+01  0.00000000E+00
  1.80000000E+02  6.00000000E+01  0.00000000E+00
  1.80000000E+02  4.00000000E+01  0.00000000E+00
  1.80000000E+02  2.00000000E+01  0.00000000E+00
  1.80000000E+02  4.99600361E-14  0.00000000E+00
  2.00000000E+02  3.00000000E+02  0.00000000E+00
  2.00000000E+02  2.80000000E+02  0.00000000E+00
  2.00000000E+02  2.60000000E+02  0.00000000E+00
  2.00000000E+02  2.40000000E+02  0.00000000E+00
  2.00000000E+02  2.20000000E+02  0.00000000E+00
  2.00000000E+02  2.00000000E+02  0.00000000E+00
  2.00000000E+02  1.80000000E+02  0.00000000E+00
  2.00000000E+02  1.60000000E+02  0.00000000E+00
  2.00000000E+02  1.40000000E+02  0.00000000E+00
  2.00000000E+02  1.20000000E+02  0.00000000E+00
  2.00000000E+02  1.00000000E+02  0.00000000E+00
  2.00000000E+02  8.00000000E+01  0.00000000E+00
  2.00000000E+02  6.00000000E+01  0.00000000E+00
  2.00000000E+02  4.00000000E+01  0.00000000E+00
  2.00000000E+02  2.00000000E+01  0.00000000E+00
  2.00000000E+02  4.99600361E-14  0.00000000E+00
  2.20000000E+02  3.00000000E+02  0.00000000E+00
  2.20000000E+02  2.80000000E+02  0.00000000E+00
  2.20000000E+02  2.60000000E+02  0.00000000E+00
  2.20000000E+02  2.40000000E+02  0.00000000E+00
  2.20000000E+02  2.20000000E+02  0.00000000E+00
  2.20000000E+02  2.00000000E+02  0.00000000E+00
  2.20000000E+02  1.80000000E+02  0.00000000E+00
  2.20000000E+02  1.60000000E+02  0.00000000E+00
  2.20000000E+02  1.40000000E+02  0.00000000E+00
  2.20000000E+02  1.20000000E+02  0.00000000E+00
  2.20000000E+02  1.00000000E+02  0.00000000E+00
  2.20000000E+02  8.00000000E+01  0.00000000E+00
  2.20000000E+02  6.00000000E+01  0.00000000E+00
  2.20000000E+02  4.00000000E+01  0.00000000E+00
  2.20000000E+02  2.00000000E+01  0.00000000E+00
  2.20000000E+02  4.99600361E-14  0.00000000E+00
  2.40000000E+02  3.00000000E+02  0.00000000E+00
  2.40000000E+02  2.80000000E+02  0.00000000E+00
  2.40000000E+02  2.60000000E+02  0.00000000E+00
  2.40000000E+02  2.40000000E+02  0.00000000E+00
  2.40000000E+02  2.20000000E+02  0.00000000E+00
  2.40000000E+02  2.00000000E+02  0.00000000E+00
  2.40000000E+02  1.80000000E+02  0.00000000E+00
  2.40000000E+02  1.60000000E+02  0.00000000E+00
  2.40000000E+02  1.40000000E+02  0.00000000E+00
  2.40000000E+02  1.20000000E+02  0.00000000E+00
  2.40000000E+02  1.00000000E+02  0.00000000E+00
  2.40000000E+02  8.00000000E+01  0.00000000E+00
  2.40000000E+02  6.00000000E+01  0.00000000E+00
  2.40000000E+02  4.00000000E+01  0.00000000E+00
  2.40000000E+02  2.00000000E+01  0.00000000E+00
  2.40000000E+02  4.99600361E-14  0.00000000E+00
  2.60000000E+02  3.00000000E+02  0.00000000E+00
  2.60000000E+02  2.80000000E+02  0.00000000E+00
  2.60000000E+02  2.60000000E+02  0.00000000E+00
  2.60000000E+02  2.40000000E+02  0.00000000E+00
  2.60000000E+02  2.20000000E+02  0.00000000E+00
  2.60000000E+02  2.00000000E+02  0.00000000E+00
  2.60000000E+02  1.80000000E+02  0.00000000E+00
  2.60000000E+02  1.60000000E+02  0.00000000E+00
  2.60000000E+02  1.40000000E+02  0.00000000E+00
  2.60000000E+02  1.20000000E+02  0.00000000E+00
  2.60000000E+02  1.00000000E+02  0.00000000E+00
  2.60000000E+02  8.00000000E+01  0.00000000E+00
  2.60000000E+02  6.00000000E+01  0.00000000E+00
  2.60000000E+02  4.00000000E+01  0.00000000E+00
  2.60000000E+02  2.00000000E+01  0.00000000E+00
  2.60000000E+02  4.99600361E-14  0.00000000E+00
  2.80000000E+02  3.00000000E+02  0.00000000E+00
  2.80000000E+02  2.80000000E+02  0.00000000E+00
  2.80000000E+02  2.60000000E+02  0.00000000E+00
  2.80000000E+02  2.40000000E+02  0.00000000E+00
  2.80000000E+02  2.20000000E+02  0.00000000E+00
  2.80000000E+02  2.00000000E+02  0.00000000E+00
  2.80000000E+02  1.80000000E+02  0.00000000E+00
  2.80000000E+02  1.60000000E+02  0.00000000E+00
  2.80000000E+02  1.40000000E+02  0.00000000E+00
  2.80000000E+02  1.20000000E+02  0.00000000E+00
  2.80000000E+02  1.00000000E+02  0.00000000E+00
  2.80000000E+02  8.00000000E+01  0.00000000E+00
  2.80000000E+02  6.00000000E+01  0.00000000E+00
  2.80000000E+02  4.00000000E+01  0.00000000E+00
  2.80000000E+02  2.00000000E+01  0.00000000E+00
  2.80000000E+02  4.99600361E-14  0.00000000E+00
  3.00000000E+02  3.00000000E+02  0.00000000E+00
  3.00000000E+02  2.80000000E+02  0.00000000E+00
  3.00000000E+02  2.60000000E+02  0.00000000E+00
  3.00000000E+02  2.40000000E+02  0.00000000E+00
  3.00000000E+02  2.20000000E+02  0.00000000E+00
  3.00000000E+02  2.00000000E+02  0.00000000E+00
  3.00000000E+02  1.80000000E+02  0.00000000E+00
  3.00000000E+02  1.60000000E+02  0.00000000E+00
  3.00000000E+02  1.40000000E+02  0.00000000E+00
  3.00000000E+02  1.20000000E+02  0.00000000E+00
  3.00000000E+02  1.00000000E+02  0.00000000E+00
  3.00000000E+02  8.00000000E+01  0.00000000E+00
  3.00000000E+02  6.00000000E+01  0.00000000E+00
  3.00000000E+02  4.00000000E+01  0.00000000E+00
  3.00000000E+02  2.00000000E+01  0.00000000E+00
  3.00000000E+02  4.99600361E-14  0.00000000E+00
  3.20000000E+02  3.00000000E+02  0.00000000E+00
  3.20000000E+02  2.80000000E+02  0.00000000E+00
  3.20000000E+02  2.60000000E+02  0.00000000E+00
  3.20000000E+02  2.40000000E+02  0.00000000E+00
  3.20000000E+02  2.20000000E+02  0.00000000E+00
  3.20000000E+02  2.00000000E+02  0.00000000E+00
  3.20000000E+02  1.80000000E+02  0.00000000E+00
  3.20000000E+02  1.60000000E+02  0.00000000E+00
  3.20000000E+02  1.40000000E+02  0.00000000E+00
  3.20000000E+02  1.20000000E+02  0.00000000E+00
  3.20000000E+02  1.00000000E+02  0.00000000E+00
  3.20000000E+02  8.00000000E+01  0.00000000E+00
  3.20000000E+02  6.00000000E+01  0.00000000E+00
  3.20000000E+02  4.00000000E+01  0.00000000E+00
  3.20000000E+02  2.00000000E+01  0.00000000E+00
  3.20000000E+02  4.99600361E-14  0.00000000E+00
  3.40000000E+02  3.00000000E+02  0.00000000E+00
  3.40000000E+02  2.80000000E+02  0.00000000E+00
  3.40000000E+02  2.60000000E+02  0.00000000E+00
  3.40000000E+02  2.40000000E+02  0.00000000E+00
  3.40000000E+02  2.20000000E+02  0.00000000E+00
  3.40000000E+02  2.00000000E+02  0.00000000E+00
  3.40000000E+02  1.80000000E+02  0.00000000E+00
  3.40000000E+02  1.60000000E+02  0.00000000E+00
  3.40000000E+02  1.40000000E+02  0.00000000E+00
  3.40000000E+02  1.20000000E+02  0.00000000E+00
  3.40000000E+02  1.00000000E+02  0.00000000E+00
  3.40000000E+02  8.00000000E+01  0.00000000E+00
  3.40000000E+02  6.00000000E+01  0.00000000E+00
  3.40000000E+02  4.00000000E+01  0.00000000E+00
  3.40000000E+02  2.00000000E+01  0.00000000E+00
  3.40000000E+02  4.99600361E-14  0.00000000E+00
  3.60000000E+02  3.00000000E+02  0.00000000E+00
  3.60000000E+02  2.80000000E+02  0.00000000E+00
  3.60000000E+02  2.60000000E+02  0.00000000E+00
  3.60000000E+02  2.40000000E+02  0.00000000E+00
  3.60000000E+02  2.20000000E+02  0.00000000E+00
  3.60000000E+02  2.00000000E+02  0.00000000E+00
  3.60000000E+02  1.80000000E+02  0.00000000E+00
  3.60000000E+02  1.60000000E+02  0.00000000E+00
  3.60000000E+02  1.40000000E+02  0.00000000E+00
  3.60000000E+02  1.20000000E+02  0.00000000E+00
  3.60000000E+02  1.00000000E+02  0.00000000E+00
  3.60000000E+02  8.00000000E+01  0.00000000E+00
  3.60000000E+02  6.00000000E+01  0.00000000E+00
  3.60000000E+02  4.00000000E+01  0.00000000E+00
  3.60000000E+02  2.00000000E+01  0.00000000E+00
  3.60000000E+02  4.99600361E-14  0.00000000E+00
  3.80000000E+02  3.00000000E+02  0.00000000E+00
  3.80000000E+02  2.80000000E+02  0.00000000E+00
  3.80000000E+02  2.60000000E+02  0.00000000E+00
  3.80000000E+02  2.40000000E+02  0.00000000E+00
  3.80000000E+02  2.20000000E+02  0.00000000E+00
  3.80000000E+02  2.00000000E+02  0.00000000E+00
  3.80000000E+02  1.80000000E+02  0.00000000E+00
  3.80000000E+02  1.60000000E+02  0.00000000E+00
  3.80000000E+02  1.40000000E+02  0.00000000E+00
  3.80000000E+02  1.20000000E+02  0.00000000E+00
  3.80000000E+02  1.00000000E+02  0.00000000E+00
  3.80000000E+02  8.00000000E+01  0.00000000E+00
  3.80000000E+02  6.00000000E+01  0.00000000E+00
  3.80000000E+02  4.00000000E+01  0.00000000E+00
  3.80000000E+02  2.00000000E+01  0.00000000E+00
  3.80000000E+02  4.99600361E-14  0.00000000E+00
  4.00000000E+02  3.00000000E+02  0.00000000E+00
  4.00000000E+02  2.80000000E+02  0.00000000E+00
  4.00000000E+02  2.60000000E+02  0.00000000E+00
  4.00000000E+02  2.40000000E+02  0.00000000E+00
  4.00000000E+02  2.20000000E+02  0.00000000E+00
  4.00000000E+02  2.00000000E+02  0.00000000E+00
  4.00000000E+02  1.80000000E+02  0.00000000E+00
  4.00000000E+02  1.60000000E+02  0.00000000E+00
  4.00000000E+02  1.40000000E+02  0.00000000E+00
  4.00000000E+02  1.20000000E+02  0.00000000E+00
  4.00000000E+02  1.00000000E+02  0.00000000E+00
  4.00000000E+02  8.00000000E+01  0.00000000E+00
  4.00000000E+02  6.00000000E+01  0.00000000E+00
  4.00000000E+02  4.00000000E+01  0.00000000E+00
  4.00000000E+02  2.00000000E+01  0.00000000E+00
  4.00000000E+02  4.99600361E-14  0.00000000E+00
  4.20000000E+02  3.00000000E+02  0.00000000E+00
  4.20000000E+02  2.80000000E+02  0.00000000E+00
  4.20000000E+02  2.60000000E+02  0.00000000E+00
  4.20000000E+02  2.40000000E+02  0.00000000E+00
  4.20000000E+02  2.20000000E+02  0.00000000E+00
  4.20000000E+02  2.00000000E+02  0.00000000E+00
  4.20000000E+02  1.80000000E+02  0.00000000E+00
  4.20000000E+02  1.60000000E+02  0.00000000E+00
  4.20000000E+02  1.40000000E+02  0.00000000E+00
  4.20000000E+02  1.20000000E+02  0.00000000E+00
  4.20000000E+02  1.00000000E+02  0.00000000E+00
  4.20000000E+02  8.00000000E+01  0.00000000E+00
  4.20000000E+02  6.00000000E+01  0.00000000E+00
  4.20000000E+02  4.00000000E+01  0.00000000E+00
  4.20000000E+02  2.00000000E+01  0.00000000E+00
  4.20000000E+02  4.99600361E-14  0.00000000E+00
  4.40000000E+02  3.00000000E+02  0.00000000E+00
  4.40000000E+02  2.80000000E+02  0.00000000E+00
  4.40000000E+02  2.60000000E+02  0.00000000E+00
  4.40000000E+02  2.40000000E+02  0.00000000E+00
  4.40000000E+02  2.20000000E+02  0.00000000E+00
  4.40000000E+02  2.00000000E+02  0.00000000E+00
  4.40000000E+02  1.80000000E+02  0.00000000E+00
  4.40000000E+02  1.60000000E+02  0.00000000E+00
  4.40000000E+02  1.40000000E+02  0.00000000E+00
  4.40000000E+02  1.20000000E+02  0.00000000E+00
  4.40000000E+02  1.00000000E+02  0.00000000E+00
  4.40000000E+02  8.00000000E+01  0.00000000E+00
  4.40000000E+02  6.00000000E+01  0.00000000E+00
  4.40000000E+02  4.00000000E+01  0.00000000E+00
  4.40000000E+02  2.00000000E+01  0.00000000E+00
  4.40000000E+02  4.99600361E-14  0.00000000E+00
  4.60000000E+02  3.00000000E+02  0.00000000E+00
  4.60000000E+02  2.80000000E+02  0.00000000E+00
  4.60000000E+02  2.60000000E+02  0.00000000E+00
  4.60000000E+02  2.40000000E+02  0.00000000E+00
  4.60000000E+02  2.20000000E+02  0.00000000E+00
  4.60000000E+02  2.00000000E+02  0.00000000E+00
  4.60000000E+02  1.80000000E+02  0.00000000E+00
  4.60000000E+02  1.60000000E+02  0.00000000E+00
  4.60000000E+02  1.40000000E+02  0.00000000E+00
  4.60000000E+02  1.20000000E+02  0.00000000E+00
  4.60000000E+02  1.00000000E+02  0.00000000E+00
  4.60000000E+02  8.00000000E+01  0.00000000E+00
  4.60000000E+02  6.00000000E+01  0.00000000E+00
  4.60000000E+02  4.00000000E+01  0.00000000E+00
  4.60000000E+02  2.00000000E+01  0.00000000E+00
  4.60000000E+02  4.99600361E-14  0.00000000E+00
  4.80000000E+02  3.00000000E+02  0.00000000E+00
  4.80000000E+02  2.80000000E+02  0.00000000E+00
  4.80000000E+02  2.60000000E+02  0.00000000E+00
  4.80000000E+02  2.40000000E+02  0.00000000E+00
  4.80000000E+02  2.20000000E+02  0.00000000E+00
  4.80000000E+02  2.00000000E+02  0.00000000E+00
  4.80000000E+02  1.80000000E+02  0.00000000E+00
  4.80000000E+02  1.60000000E+02  0.00000000E+00
  4.80000000E+02  1.40000000E+02  0.00000000E+00
  4.80000000E+02  1.20000000E+02  0.00000000E+00
  4.80000000E+02  1.00000000E+02  0.00000000E+00
  4.80000000E+02  8.00000000E+01  0.00000000E+00
  4.80000000E+02  6.00000000E+01  0.00000000E+00
  4.80000000E+02  4.00000000E+01  0.00000000E+00
  4.80000000E+02  2.00000000E+01  0.00000000E+00
  4.80000000E+02  4.99600361E-14  0.00000000E+00
  5.00000000E+02  3.00000000E+02  0.00000000E+00
  5.00000000E+02  2.80000000E+02  0.00000000E+00
  5.00000000E+02  2.60000000E+02  0.00000000E+00
  5.00000000E+02  2.40000000E+02  0.00000000E+00
  5.00000000E+02  2.20000000E+02  0.00000000E+00
  5.00000000E+02  2.00000000E+02  0.00000000E+00
  5.00000000E+02  1.80000000E+02  0.00000000E+00
  5.00000000E+02  1.60000000E+02  0.00000000E+00
  5.00000000E+02  1.40000000E+02  0.00000000E+00
  5.00000000E+02  1.20000000E+02  0.00000000E+00
  5.00000000E+02  1.00000000E+02  0.00000000E+00
  5.00000000E+02  8.00000000E+01  0.00000000E+00
  5.00000000E+02  6.00000000E+01  0.00000000E+00
  5.00000000E+02  4.00000000E+01  0.00000000E+00
  5.00000000E+02  2.00000000E+01  0.00000000E+00
  5.00000000E+02  4.99600361E-14  0.00000000E+00
  5.20000000E+02  3.00000000E+02  0.00000000E+00
  5.20000000E+02  2.80000000E+02  0.00000000E+00
  5.20000000E+02  2.60000000E+02  0.00000000E+00
  5.20000000E+02  2.40000000E+02  0.00000000E+00
  5.20000000E+02  2.20000000E+02  0.00000000E+00
  5.20000000E+02  2.00000000E+02  0.00000000E+00
  5.20000000E+02  1.80000000E+02  0.00000000E+00
  5.20000000E+02  1.60000000E+02  0.00000000E+00
  5.20000000E+02  1.40000000E+02  0.00000000E+00
  5.20000000E+02  1.20000000E+02  0.00000000E+00
  5.20000000E+02  1.00000000E+02  0.00000000E+00
  5.20000000E+02  8.00000000E+01  0.00000000E+00
  5.20000000E+02  6.00000000E+01  0.00000000E+00
  5.20000000E+02  4.00000000E+01  0.00000000E+00
  5.20000000E+02  2.00000000E+01  0.00000000E+00
  5.20000000E+02  4.99600361E-14  0.00000000E+00
  5.40000000E+02  3.00000000E+02  0.00000000E+00
  5.40000000E+02  2.80000000E+02  0.00000000E+00
  5.40000000E+02  2.60000000E+02  0.00000000E+00
  5.40000000E+02  2.40000000E+02  0.00000000E+00
  5.40000000E+02  2.20000000E+02  0.00000000E+00
  5.40000000E+02  2.00000000E+02  0.00000000E+00
  5.40000000E+02  1.80000000E+02  0.00000000E+00
  5.40000000E+02  1.60000000E+02  0.00000000E+00
  5.40000000E+02  1.40000000E+02  0.00000000E+00
  5.40000000E+02  1.20000000E+02  0.00000000E+00
  5.40000000E+02  1.00000000E+02  0.00000000E+00
  5.40000000E+02  8.00000000E+01  0.00000000E+00
  5.40000000E+02  6.00000000E+01  0.00000000E+00
  5.40000000E+02  4.00000000E+01  0.00000000E+00
  5.40000000E+02  2.00000000E+01  0.00000000E+00
  5.40000000E+02  4.99600361E-14  0.00000000E+00
  5.60000000E+02  3.00000000E+02  0.00000000E+00
  5.60000000E+02  2.80000000E+02  0.00000000E+00
  5.60000000E+02  2.60000000E+02  0.00000000E+00
  5.60000000E+02  2.40000000E+02  0.00000000E+00
  5.60000000E+02  2.20000000E+02  0.00000000E+00
  5.60000000E+02  2.00000000E+02  0.00000000E+00
  5.60000000E+02  1.80000000E+02  0.00000000E+00
  5.60000000E+02  1.60000000E+02  0.00000000E+00
  5.60000000E+02  1.40000000E+02  0.00000000E+00
  5.60000000E+02  1.20000000E+02  0.00000000E+00
  5.60000000E+02  1.00000000E+02  0.00000000E+00
  5.60000000E+02  8.00000000E+01  0.00000000E+00
  5.60000000E+02  6.00000000E+01  0.00000000E+00
  5.60000000E+02  4.00000000E+01  0.00000000E+00
  5.60000000E+02  2.00000000E+01  0.00000000E+00
  5.60000000E+02  4.99600361E-14  0.00000000E+00
  5.80000000E+02  3.00000000E+02  0.00000000E+00
  5.80000000E+02  2.80000000E+02  0.00000000E+00
  5.80000000E+02  2.60000000E+02  0.00000000E+00
  5.80000000E+02  2.40000000E+02  0.00000000E+00
  5.80000000E+02  2.20000000E+02  0.00000000E+00
  5.80000000E+02  2.00000000E+02  0.00000000E+00
  5.80000000E+02  1.80000000E+02  0.00000000E+00
  5.80000000E+02  1.60000000E+02  0.00000000E+00
  5.80000000E+02  1.40000000E+02  0.00000000E+00
  5.80000000E+02  1.20000000E+02  0.00000000E+00
  5.80000000E+02  1.00000000E+02  0.00000000E+00
  5.80000000E+02  8.00000000E+01  0.00000000E+00
  5.80000000E+02  6.00000000E+01  0.00000000E+00
  5.80000000E+02  4.00000000E+01  0.00000000E+00
  5.80000000E+02  2.00000000E+01  0.00000000E+00
  5.80000000E+02  4.99600361E-14  0.00000000E+00
  6.00000000E+02  3.00000000E+02  0.00000000E+00
  6.00000000E+02  2.80000000E+02  0.00000000E+00
  6.00000000E+02  2.60000000E+02  0.00000000E+00
  6.00000000E+02  2.40000000E+02  0.00000000E+00
  6.00000000E+02  2.20000000E+02  0.00000000E+00
  6.00000000E+02  2.00000000E+02  0.00000000E+00
  6.00000000E+02  1.80000000E+02  0.00000000E+00
  6.00000000E+02  1.60000000E+02  0.00000000E+00
  6.00000000E+02  1.40000000E+02  0.00000000E+00
  6.00000000E+02  1.20000000E+02  0.00000000E+00
  6.00000000E+02  1.00000000E+02  0.00000000E+00
  6.00000000E+02  8.00000000E+01  0.00000000E+00
  6.00000000E+02  6.00000000E+01  0.00000000E+00
  6.00000000E+02  4.00000000E+01  0.00000000E+00
  6.00000000E+02  2.00000000E+01  0.00000000E+00
  6.00000000E+02  4.99600361E-14  0.00000000E+00
CELLS       450      2250
         4           0           1          17          16
         4           1           2          18          17
         4           2           3          19          18
         4           3           4          20          19
         4           4           5          21          20
         4           5           6          22          21
         4           6           7          23          22
         4           7           8          24          23
         4           8           9          25          24
         4           9          10          26          25
         4          10          11          27          26
         4          11          12          28          27
         4          12          13          29          28
         4          13          14          30          29
         4          14          15          31          30
         4          16          17          33          32
         4          17          18          34          33
         4          18          19          35          34
         4          19          20          36          35
         4          20          21          37          36
         4          21          22          38          37
         4          22          23          39          38
         4          23          24          40          39
         4          24          25          41          40
         4          25          26          42          41
         4          26          27          43          42
         4          27          28          44          43
         4          28          29          45          44
         4          29          30          46          45
         4          30          31          47          46
         4          32          33          49          48
         4          33          34          50          49
         4          34          35          51          50
         4          35          36          52          51
         4          36          37          53          52
         4          37          38          54          53
         4          38          39          55          54
         4          39          40          56          55
         4          40          41          57          56
         4          41          42          58          57
         4          42          43          59          58
         4          43          44          60          59
         4          44          45          61          60
         4          45          46          62          61
         4          46          47          63          62
         4          48          49          65          64
         4          49          50          66          65
         4          50          51          67          66
         4          51          52          68          67
         4          52          53          69          68
         4          53          54          70          69
         4          54          55          71          70
         4          55          56          72          71
         4          56          57          73          72
         4          57          58          74          73
         4          58          59          75          74
         4          59          60          76          75
         4          60          61          77          76
         4          61          62          78          77
         4          62          63          79          78
         4          64          65          81          80
         4          65          66          82          81
         4          66          67          83          82
         4          67          68          84          83
         4          68          69          85          84
         4          69          70          86          85
         4          70          71          87          86
         4          71          72          88          87
         4          72          73          89          88
         4          73          74          90          89
         4          74          75          91          90
         4          75          76          92          91
         4          76          77          93          92
         4          77          78          94          93
         4          78          79          95          94
         4          80          81          97          96
         4          81          82          98          97
         4          82          83          99          98
         4          83          84         100          99
         4          84          85         101         100
         4          85          86         102         101
         4          86          87         103         102
         4          87          88         104         103
         4          88          89         105         104
         4          89          90         106         105
         4          90          91         107         106
         4          91          92         108         107
         4          92          93         109         108
         4          93          94         110         109
         4          94          95         111         110
         4          96          97         113         112
         4          97          98         114         113
         4          98          99         115         114
         4          99         100         116         115
         4         100         101         117         116
         4         101         102         118         117
         4         102         103         119         118
         4         103         104         120         119
         4         104         105         121         120
         4         105         106         122         121
         4         106         107         123         122
         4         107         108         124         123
         4         108         109         125         124
         4         109         110         126         125
         4         110         111         127         126
         4         112         113         129         128
         4         113         114         130         129
         4         114         115         131         130
         4         115         116         132         131
         4         116         117         133         132
         4         117         118         134         133
         4         118         119         135         134
         4         119         120         136         135
         4         120         121         137         136
         4         121         122         138         137
         4         122         123         139         138
         4         123         124         140         139
         4         124         125         141         140
         4         125         126         142         141
         4         126         127         143         142
         4         128         129         145         144
         4         129         130         146         145
         4         130         131         147         146
         4         131         132         148         147
         4         132         133         149         148
         4         133         134         150         149
         4         134         135         151         150
         4         135         136         152         151
         4         136         137         153         152
         4         137         138         154         153
         4         138         139         155         154
         4         139         140         156         155
         4         140         141         157         156
         4         141         142         158         157
         4         142         143         159         158
         4         144         145         161         160
         4         145         146         162         161
         4         146         147         163         162
         4         147         148         164         163
         4         148         149         165         164
         4         149         150         166         165
         4         150         151         167         166
         4         151         152         168         167
         4         152         153         169         168
         4         153         154         170         169
         4         154         155         171         170
         4         155         156         172         171
         4         156         157         173         172
         4         157         158         174         173
         4         158         159         175         174
         4         160         161         177         176
         4         161         162         178         177
         4         162         163         179         178
         4         163         164         180         179
         4         164         165         181         180
         4         165         166         182         181
         4         166         167         183         182
         4         167         168         184         183
         4         168         169         185         184
         4         169         170         186         185
         4         170         171         187         186
         4         171         172         188         187
         4         172         173         189         188
         4         173         174         190         189
         4         174         175         191         190
         4         176         177         193         192
         4         177         178         194         193
         4         178         179         195         194
         4         179         180         196         195
         4         180         181         197         196
         4         181         182         198         197
         4         182         183         199         198
         4         183         184         200         199
         4         184         185         201         200
         4         185         186         202         201
         4         186         187         203         202
         4         187         188         204         203
         4         188         189         205         204
         4         189         190         206         205
         4         190         191         207         206
         4         192         193         209         208
         4         193         194         210         209
         4         194         195         211         210
         4         195         196         212         211
         4         196         197         213         212
         4         197         198         214         213
         4         198         199         215         214
         4         199         200         216         215
         4         200         201         217         216
         4         201         202         218         217
         4         202         203         219         218
         4         203         204         220         219
         4         204         205         221         220
         4         205         206         222         221
         4         206         207         223         222
         4         208         209         225         224
         4         209         210         226         225
         4         210         211         227         226
         4         211         212         228         227
         4         212         213         229         228
         4         213         214         230         229
         4         214         215         231         230
         4         215         216         232         231
         4         216         217         233         232
         4         217         218         234         233
         4         218         219         235         234
         4         219         220         236         235
         4         220         221         237         236
         4         221         222         238         237
         4         222         223         239         238
         4         224         225         241         240
         4         225         226         242         241
         4         226         227         243         242
         4         227         228         244         243
         4         228         229         245         244
         4         229         230         246         245
         4         230         231         247         246
         4         231         232         248         247
         4         232         233         249         248
         4         233         234         250         249
         4         234         235         251         250
         4         235         236         252         251
         4         236         237         253         252
         4         237         238         254         253
         4         238         239         255         254
         4         240         241         257         256
         4         241         242         258         257
         4         242         243         259         258
         4         243         244         260         259
         4         244         245         261         260
         4         245         246         262         261
         4         246         247         263         262
         4         247         248         264         263
         4         248         249         265         264
         4         249         250         266         265
         4         250         251         267         266
         4         251         252         268         267
         4         252         253         269         268
         4         253         254         270         269
         4         254         255         271         270
         4         256         257         273         272
         4         257         258         274         273
         4         258         259         275         274
         4         259         260         276         275
         4         260         261         277         276
         4         261         262         278         277
         4         262         263         279         278
         4         263         264         280         279
         4         264         265         281         280
         4         265         266         282         281
         4         266         267         283         282
         4         267         268         284         283
         4         268         269         285         284
         4         269         270         286         285
         4         270         271         287         286
         4         272         273         289         288
         4         273         274         290         289
         4         274         275         291         290
         4         275         276         292         291
         4         276         277         293         292
         4         277         278         294         293
         4         278         279         295         294
         4         279         280         296         295
         4         280         281         297         296
         4         281         282         298         297
         4         282         283         299         298
         4         283         284         300         299
         4         284         285         301         300
         4         285         286         302         301
         4         286         287         303         302
         4         288         289         305         304
         4         289         290         306         305
         4         290         291         307         306
         4         291         292         308         307
         4         292         293         309         308
         4         293         294         310         309
         4         294         295         311         310
         4         295         296         312         311
         4         296         297         313         312
         4         297         298         314         313
         4         298         299         315         314
         4         299         300         316         315
         4         300         301         317         316
         4         301         302         318         317
         4         302         303         319         318
         4         304         305         321         320
         4         305         306         322         321
         4         306         307         323         322
         4         307         308         324         323
         4         308         309         325         324
         4         309         310         326         325
         4         310         311         327         326
         4         311         312         328         327
         4         312         313         329         328
         4         313         314         330         329
         4         314         315         331         330
         4         315         316         332         331
         4         316         317         333         332
         4         317         318         334         333
         4         318         319         335         334
         4         320         321         337         336
         4         321         322         338         337
         4         322         323         339         338
         4         323         324         340         339
         4         324         325         341         340
         4         325         326         342         341
         4         326         327         343         342
         4         327         328         344         343
         4         328         329         345         344
         4         329         330         346         345
         4         330         331         347         346
         4         331         332         348         347
         4         332         333         349         348
         4         333         334         350         349
         4         334         335         351         350
         4         336         337         353         352
         4         337         338         354         353
         4         338         339         355         354
         4         339         340         356         355
         4         340         341         357         356
         4         341         342         358         357
         4         342         343         359         358
         4         343         344         360         359
         4         344         345         361         360
         4         345         346         362         361
         4         346         347         363         362
         4         347         348         364         363
         4         348         349         365         364
         4         349         350         366         365
         4         350         351         367         366
         4         352         353         369         368
         4         353         354         370         369
         4         354         355         371         370
         4         355         356         372         371
         4         356         357         373         372
         4         357         358         374         373
         4         358         359         375         374
         4         359         360         376         375
         4         360         361         377         376
         4         361         362         378         377
         4         362         363         379         378
         4         363         364         380         379
         4         364         365         381         380
         4         365         366         382         381
         4         366         367         383         382
         4         368         369         385         384
         4         369         370         386         385
         4         370         371         387         386
         4         371         372         388         387
         4         372         373         389         388
         4         373         374         390         389
         4         374         375         391         390
         4         375         376         392         391
         4         376         377         393         392
         4         377         378         394         393
         4         378         379         395         394
         4         379         380         396         395
         4         380         381         397         396
         4         381         382         398         397
         4         382         383         399         398
         4         384         385         401         400
         4         385         386         402         401
         4         386         387         403         402
         4         387         388         404         403
         4         388         389         405         404
         4         389         390         406         405
         4         390         391         407         406
         4         391         392         408         407
         4         392         393         409         408
         4         393         394         410         409
         4         394         395         411         410
         4         395         396         412         411
         4         396         397         413         412
         4         397         398         414         413
         4         398         399         415         414
         4         400         401         417         416
         4         401         402         418         417
         4         402         403         419         418
         4         403         404         420         419
         4         404         405         421         420
         4         405         406         422         421
         4         406         407         423         422
         4         407         408         424         423
         4         408         409         425         424
         4         409         410         426         425
         4         410         411         427         426
         4         411         412         428         427
         4         412         413         429         428
         4         413         414         430         429
         4         414         415         431         430
         4         416         417         433         432
         4         417         418         434         433
         4         418         419         435         434
         4         419         420         436         435
         4         420         421         437         436
         4         421         422         438         437
         4         422         423         439         438
         4         423         424         440         439
         4         424         425         441         440
         4         425         426         442         441
         4         426         427         443         442
         4         427         428         444         443
         4         428         429         445         444
         4         429         430         446         445
         4         430         431         447         446
         4         432         433         449         448
         4         433         434         450         449
         4         434         435         451         450
         4         435         436         452         451
         4         436         437         453         452
         4         437         438         454         453
         4         438         439         455         454
         4         439         440         456         455
         4         440         441         457         456
         4         441         442         458         457
         4         442         443         459         458
         4         443         444         460         459
         4         444         445         461         460
         4         445         446         462         461
         4         446         447         463         462
         4         448         449         465         464
         4         449         450         466         465
         4         450         451         467         466
         4         451         452         468         467
         4         452         453         469         468
         4         453         454         470         469
         4         454         455         471         470
         4         455         456         472         471
         4         456         457         473         472
         4         457         458         474         473
         4         458         459         475         474
         4         459         460         476         475
         4         460         461         477         476
         4         461         462         478         477
         4         462         463         479         478
         4         464         465         481         480
         4         465         466         482         481
         4         466         467         483         482
         4         467         468         484         483
         4         468         469         485         484
         4         469         470         486         485
         4         470         471         487         486
         4         471         472         488         487
         4         472         473         489         488
         4         473         474         490         489
         4         474         475         491         490
         4         475         476         492         491
         4         476         477         493         492
         4         477         478         494         493
         4         478         479         495         494
CELL_TYPES        450
9
9
9
9
9
9
9
9
9
9
9
9
9
9
9
9
9
9
9
9
9
9
9
9
9
9
9
9
9
9
9
9
9
9
9
9
9
9
9
9
9
9
9
9
9
9
9
9
9
9
9
9
9
9
9
9
9
9
9
9
9
9
9
9
9
9
9
9
9
9
9
9
9
9
9
9
9
9
9
9
9
9
9
9
9
9
9
9
9
9
9
9
9
9
9
9
9
9
9
9
9
9
9
9
9
9
9
9
9
9
9
9
9
9
9
9
9
9
9
9
9
9
9
9
9
9
9
9
9
9
9
9
9
9
9
9
9
9
9
9
9
9
9
9
9
9
9
9
9
9
9
9
9
9
9
9
9
9
9
9
9
9
9
9
9
9
9
9
9
9
9
9
9
9
9
9
9
9
9
9
9
9
9
9
9
9
9
9
9
9
9
9
9
9
9
9
9
9
9
9
9
9
9
9
9
9
9
9
9
9
9
9
9
9
9
9
9
9
9
9
9
9
9
9
9
9
9
9
9
9
9
9
9
9
9
9
9
9
9
9
9
9
9
9
9
9
9
9
9
9
9
9
9
9
9
9
9
9
9
9
9
9
9
9
9
9
9
9
9
9
9
9
9
9
9
9
9
9
9
9
9
9
9
9
9
9
9
9
9
9
9
9
9
9
9
9
9
9
9
9
9
9
9
9
9
9
9
9
9
9
9
9
9
9
9
9
9
9
9
9
9
9
9
9
9
9
9
9
9
9
9
9
9
9
9
9
9
9
9
9
9
9
9
9
9
9
9
9
9
9
9
9
9
9
9
9
9
9
9
9
9
9
9
9
9
9
9
9
9
9
9
9
9
9
9
9
9
9
9
9
9
9
9
9
9
9
9
9
9
9
9
9
9
9
9
9
9
9
9
9
9
9
9
9
9
9
9
9
9
9
9
9
9
9
9
9
9
9
9
9
9
9
9
9
9
9
9
9
9
9
9
9
9
9
9
9
9
9
9
9
9
9
9
9
9
9
9
9
9
9
POINT_DATA       496
SCALARS p double 
LOOKUP_TABLE default
   73252884.0362566     
   73261012.7539662     
   73289424.5515897     
   73335933.5291265     
   73391317.0287924     
   73451287.5178964     
   73512958.2653227     
   73574122.0241036     
   73632546.8180959     
   73684148.7148937     
   73727268.2794632     
   73764267.6306866     
   73796209.1985800     
   73822703.0936453     
   73842779.8126924     
   73851079.4658064     
   71633437.6523843     
   71646242.5643809     
   71670439.0527426     
   71691792.8389623     
   71710681.9178547     
   71727937.1395235     
   71745170.5444228     
   71763612.2291071     
   71783854.9837272     
   71807031.3015693     
   71832259.5940772     
   71856448.8320359     
   71877687.1633204     
   71894776.8307452     
   71905877.8453378     
   71909635.4933271     
   69890066.4604845     
   69888415.6038627     
   69884768.1186657     
   69881028.2735382     
   69879030.1009303     
   69880212.8354932     
   69884557.3852885     
   69892005.8887006     
   69902446.9617015     
   69914939.5546625     
   69928425.1131254     
   69941960.1479811     
   69954221.0264190     
   69963827.0838107     
   69969763.2755387     
   69971721.5742691     
   68002593.5664577     
   67997089.1584968     
   67988562.2616855     
   67984870.0202744     
   67984544.4311019     
   67986223.2501507     
   67989545.0039140     
   67994061.4546031     
   67999340.3160932     
   68005188.8983061     
   68011430.1855325     
   68017682.7366374     
   68023340.6542953     
   68027708.9866583     
   68030305.2454524     
   68031125.5291695     
   66083162.0545664     
   66081020.7636039     
   66076733.0002058     
   66073534.8050646     
   66072449.9394749     
   66072933.6702453     
   66074216.5347352     
   66075789.6495646     
   66077356.4920742     
   66078838.5534152     
   66080278.7960189     
   66081667.9936846     
   66082866.9559005     
   66083686.1270505     
   66084047.5479467     
   66084116.9591627     
   64151040.4164187     
   64150087.1388761     
   64147692.8960443     
   64145071.8158649     
   64143133.9406641     
   64141879.6653185     
   64140906.8237807     
   64139817.8676449     
   64138412.8183219     
   64136693.3187822     
   64134793.4959219     
   64132879.9223946     
   64131088.3907762     
   64129538.7080739     
   64128403.3699639     
   64127966.8849665     
   62205032.8212121     
   62204281.3138982     
   62202296.6197085     
   62199633.3243488     
   62196759.2140484     
   62193835.4694663     
   62190739.9909261     
   62187296.8139963     
   62183430.2533549     
   62179216.6332284     
   62174855.1800920     
   62170610.1020506     
   62166764.5483001     
   62163609.4599978     
   62161461.1001522     
   62160680.5975687     
   60243691.8841659     
   60242923.5633459     
   60240777.1340682     
   60237593.3016678     
   60233676.6079651     
   60229200.1784632     
   60224211.5886753     
   60218714.9513145     
   60212767.9238435     
   60206529.2959564     
   60200256.9830423     
   60194277.7095143     
   60188954.5972872     
   60184668.1012343     
   60181811.2740628     
   60180790.2033305     
   58266476.7237341     
   58265585.8001882     
   58263046.4674179     
   58259135.0981109     
   58254112.5934059     
   58248185.0017943     
   58241504.4693686     
   58234208.6115176     
   58226469.8712248     
   58218528.7381153     
   58210699.2325870     
   58203354.0374138     
   58196902.3525944     
   58191770.8515323     
   58188391.3242589     
   58187193.5104873     
   56273063.1597114     
   56272009.2924479     
   56268983.6625418     
   56264266.3804210     
   56258132.7527272     
   56250838.1678938     
   56242620.2471936     
   56233718.3315044     
   56224399.5866932     
   56214978.1822318     
   56205820.4014542     
   56197336.5196087     
   56189965.5146656     
   56184158.8534963     
   56180367.1250220     
   56179030.8401892     
   54263220.5425376     
   54261988.2652287     
   54258443.2882643     
   54252899.0470817     
   54245672.9198150     
   54237080.4002943     
   54227436.5738370     
   54217065.8098071     
   54206314.8547940     
   54195562.8146070     
   54185223.5845711     
   54175740.2457426     
   54167573.9877787     
   54161191.1654069     
   54157051.4595847     
   54155599.0341327     
   52236738.9632540     
   52235322.9846814     
   52231248.3977276     
   52224875.7855221     
   52216578.4252923     
   52206737.8735881     
   52195743.2482410     
   52183994.7112534     
   52171908.8837140     
   52159922.7957439     
   52148493.7962895     
   52138094.7325933     
   52129205.5105302     
   52122303.0641089     
   52117851.7681222     
   52116295.8479421     
   50193398.7608272     
   50191795.8847910     
   50187185.6481499     
   50179983.7828088     
   50170627.3446111     
   50159567.7491869     
   50147266.7404750     
   50134195.2421546     
   50120833.7443397     
   50107672.2813554     
   50095208.4169549     
   50083942.6657949     
   50074371.8513992     
   50066981.5525988     
   50062238.8705125     
   50060586.4365715     
   48132953.4982728     
   48131158.9304288     
   48126002.3941201     
   48117961.9535593     
   48107544.5578120     
   48095274.7650258     
   48081686.8715262     
   48067319.9527148     
   48052714.7328882     
   48038410.9150030     
   48024943.8435704     
   48012840.0417939     
   48002611.9184963     
   47994752.3839003     
   47989730.0331733     
   47987985.0854993     
   46055120.0310672     
   46053125.9020430     
   46047404.4137045     
   46038504.6387414     
   46027009.9334628     
   46013521.7610172     
   45998647.9291327     
   45982994.4713558     
   45967160.0656403     
   45951731.7152287     
   45937280.6220868     
   45924357.7943425     
   45913489.7212992     
   45905174.9222002     
   45899881.8285844     
   45898047.3903554     
   43959571.9887278     
   43957367.1211841     
   43951053.7364711     
   43941263.1050290     
   43928662.9539221     
   43913936.3600006     
   43897766.3747424     
   43880825.4621014     
   43863768.4771091     
   43847227.6982432     
   43831808.5124106     
   43818084.9978495     
   43806595.8877459     
   43797842.5119353     
   43792289.9238547     
   43790369.8782657     
   41845935.0021130     
   41843505.3698624     
   41836566.4027621     
   41825845.7058490     
   41812105.2419562     
   41796115.4585011     
   41778636.7821034     
   41760407.5008706     
   41742136.4953230     
   41724498.8747218     
   41708132.5019062     
   41693633.6221963     
   41681551.6703368     
   41672386.7209851     
   41666594.0780736     
   41664595.3829118     
   39713782.7575747     
   39711112.3486463     
   39703510.0869764     
   39691817.2400703     
   39676901.9395261     
   39659628.6668616     
   39640837.2188678     
   39621330.1487622     
   39601866.7806369     
   39583161.1656243     
   39565881.0147062     
   39550644.8861549     
   39538014.1378132     
   39528483.6835628     
   39522487.1473886     
   39520423.4708762     
   37562633.3632442     
   37559705.2931079     
   37551401.5355898     
   37538697.8284359     
   37522582.5434477     
   37504021.4624393     
   37483934.9044094     
   37463186.1309409     
   37442578.5915549     
   37422858.5616749     
   37404718.8051937     
   37388799.0426635     
   37375680.4204355     
   37365858.9111603     
   37359726.4819264     
   37357625.5035517     
   35391945.7261122     
   35388743.5183858     
   35379703.7820042     
   35365961.5173369     
   35348641.6205499     
   35328818.5906054     
   35307492.6779131     
   35285581.0964794     
   35263920.9555321     
   35243279.3754029     
   35224365.6073756     
   35207837.1382562     
   35194295.9291650     
   35184277.4379545     
   35178139.1045448     
   35176067.3970645     
   33201115.7629259     
   33197624.7579112     
   33187823.1493088     
   33173034.8488793     
   33154539.8565601     
   33133528.2515033     
   33111076.6848373     
   33088145.0257315     
   33065588.1312595     
   33044176.6001614     
   33024620.3706331     
   33007589.5180778     
   32993707.6709648     
   32983538.3258526     
   32977565.3443002     
   32975682.0932586     
   30989472.3440964     
   30985681.2434497     
   30975106.1789108     
   30959295.8719590     
   30939706.2492219     
   30917648.0059542     
   30894265.9446017     
   30870545.2126764     
   30847336.0927439     
   30825388.9581960     
   30805391.8391313     
   30788005.8567024     
   30773899.7581490     
   30763657.1904408     
   30757887.9930013     
   30756211.7988472     
   28756272.9183369     
   28752175.5650995     
   28740836.8869747     
   28724074.6339211     
   28703543.1226351     
   28680674.3435036     
   28656665.3759618     
   28632501.2509737     
   28608998.6337560     
   28586858.2138756     
   28566719.5491644     
   28549209.1812988     
   28534994.5573401     
   28524856.5208273     
   28519163.7867966     
   28517411.5140334     
   26500698.7894210     
   26496296.4827173     
   26484235.2710598     
   26466657.3324145     
   26445437.3256418     
   26422119.7495747     
   26397925.5894616     
   26373803.9470690     
   26350502.5181270     
   26328640.2949840     
   26308776.9618746     
   26291488.4024446     
   26277406.7542726     
   26267442.1923034     
   26261668.9275044     
   26259703.5709049     
   24221850.0317829     
   24217155.0927153     
   24204459.0693371     
   24186298.5956917     
   24164784.0579936     
   24141544.1467333     
   24117775.2346894     
   24094341.9757307     
   24071883.9149354     
   24050907.7837649     
   24031867.4167237     
   24015243.5399795     
   24001678.3632850     
   23991939.4600301     
   23986061.0504321     
   23984002.3963431     
   21918739.8836909     
   21913782.3369749     
   21900613.3007290     
   21882251.2362333     
   21861035.4307058     
   21838611.8489835     
   21816073.9536957     
   21794141.5873614     
   21773309.2845208     
   21753950.8349391     
   21736395.5267519     
   21721003.9638012     
   21708303.5509518     
   21698883.3848389     
   21693019.9632942     
   21690984.8800899     
   19590288.9816705     
   19585130.2815497     
   19571778.8933677     
   19553834.4290411     
   19533795.9603422     
   19513189.7226681     
   19492893.4124126     
   19473422.6136158     
   19455105.0359233     
   19438178.1284031     
   19422848.7597392     
   19409338.5653021     
   19397942.6849305     
   19389127.1046764     
   19383446.2845321     
   19381458.9104250     
   17235315.5217552     
   17230086.9474316     
   17217093.7925256     
   17200588.6901234     
   17183004.0633152     
   17165499.6566763     
   17148624.7066063     
   17132666.7611067     
   17117794.5836799     
   17104128.3052807     
   17091774.7672726     
   17080833.6855537     
   17071344.1190899     
   17063564.7752407     
   17058314.7164853     
   17056463.1421385     
   14852548.7473388     
   14847540.0291152     
   14835993.2472254     
   14822642.1127998     
   14809233.4690940     
   14796307.7489070     
   14784090.5453068     
   14772681.2572412     
   14762133.7135519     
   14752488.9150753     
   14743787.0931907     
   14736061.3990655     
   14729246.6875458     
   14723156.5855144     
   14718726.6078560     
   14717187.5237456     
   12440573.2208354     
   12436756.5444002     
   12429084.9179194     
   12421397.9508236     
   12414019.6169495     
   12407081.4921648     
   12400615.4646473     
   12394629.4833682     
   12389126.1120568     
   12384110.7244843     
   12379592.8858788     
   12375574.8532407     
   12372061.9787399     
   12368766.0103283     
   12365893.1585193     
   12364685.6644648     
   10000000.0000000     
   10000000.0000000     
   10000000.0000000     
   10000000.0000000     
   10000000.0000000     
   10000000.0000000     
   10000000.0000000     
   10000000.0000000     
   10000000.0000000     
   10000000.0000000     
   10000000.0000000     
   10000000.0000000     
   10000000.0000000     
  10000000.00000000     
   10000000.0000000     
   10000000.0000000     
VECTORS u double 
    0.00000E+00         0.70035E+00         0.00000E+00
    0.00000E+00         0.74733E+00         0.00000E+00
    0.00000E+00         0.78091E+00         0.00000E+00
    0.00000E+00         0.78607E+00         0.00000E+00
    0.00000E+00         0.76152E+00         0.00000E+00
    0.00000E+00         0.71184E+00         0.00000E+00
    0.00000E+00         0.64388E+00         0.00000E+00
    0.00000E+00         0.56600E+00         0.00000E+00
    0.00000E+00         0.48667E+00         0.00000E+00
    0.00000E+00         0.41442E+00         0.00000E+00
    0.00000E+00         0.34701E+00         0.00000E+00
    0.00000E+00         0.28206E+00         0.00000E+00
    0.00000E+00         0.21729E+00         0.00000E+00
    0.00000E+00         0.15054E+00         0.00000E+00
    0.00000E+00         0.79418E-01         0.00000E+00
    0.00000E+00         0.00000E+00         0.00000E+00
    0.55655E+00         0.73805E+00         0.00000E+00
    0.56805E+00         0.76459E+00         0.00000E+00
    0.52490E+00         0.76918E+00         0.00000E+00
    0.45699E+00         0.75123E+00         0.00000E+00
    0.38046E+00         0.71431E+00         0.00000E+00
    0.30364E+00         0.66318E+00         0.00000E+00
    0.23260E+00         0.60185E+00         0.00000E+00
    0.17345E+00         0.53443E+00         0.00000E+00
    0.12715E+00         0.46612E+00         0.00000E+00
    0.98473E-01         0.40075E+00         0.00000E+00
    0.81882E-01         0.33753E+00         0.00000E+00
    0.67928E-01         0.27519E+00         0.00000E+00
    0.54331E-01         0.21231E+00         0.00000E+00
    0.39845E-01         0.14709E+00         0.00000E+00
    0.23061E-01         0.77306E-01         0.00000E+00
    0.00000E+00         0.00000E+00         0.00000E+00
    0.96904E+00         0.76047E+00         0.00000E+00
    0.89602E+00         0.73587E+00         0.00000E+00
    0.79022E+00         0.70196E+00         0.00000E+00
    0.67231E+00         0.66336E+00         0.00000E+00
    0.55840E+00         0.62044E+00         0.00000E+00
    0.45420E+00         0.57333E+00         0.00000E+00
    0.36299E+00         0.52300E+00         0.00000E+00
    0.28718E+00         0.47101E+00         0.00000E+00
    0.23005E+00         0.41864E+00         0.00000E+00
    0.18818E+00         0.36560E+00         0.00000E+00
    0.15600E+00         0.31145E+00         0.00000E+00
    0.12816E+00         0.25578E+00         0.00000E+00
    0.10106E+00         0.19811E+00         0.00000E+00
    0.72471E-01         0.13733E+00         0.00000E+00
    0.39953E-01         0.71809E-01         0.00000E+00
    0.00000E+00         0.00000E+00         0.00000E+00
    0.11584E+01         0.66866E+00         0.00000E+00
    0.10298E+01         0.62962E+00         0.00000E+00
    0.90328E+00         0.58951E+00         0.00000E+00
    0.78292E+00         0.55164E+00         0.00000E+00
    0.66816E+00         0.51470E+00         0.00000E+00
    0.56248E+00         0.47733E+00         0.00000E+00
    0.46859E+00         0.43912E+00         0.00000E+00
    0.38840E+00         0.40014E+00         0.00000E+00
    0.32240E+00         0.36000E+00         0.00000E+00
    0.26856E+00         0.31802E+00         0.00000E+00
    0.22309E+00         0.27367E+00         0.00000E+00
    0.18197E+00         0.22662E+00         0.00000E+00
    0.14184E+00         0.17648E+00         0.00000E+00
    0.99931E-01         0.12260E+00         0.00000E+00
    0.53613E-01         0.64054E-01         0.00000E+00
    0.00000E+00         0.00000E+00         0.00000E+00
    0.12779E+01         0.52937E+00         0.00000E+00
    0.11380E+01         0.49919E+00         0.00000E+00
    0.10074E+01         0.46864E+00         0.00000E+00
    0.88401E+00         0.43880E+00         0.00000E+00
    0.76788E+00         0.40980E+00         0.00000E+00
    0.66048E+00         0.38146E+00         0.00000E+00
    0.56360E+00         0.35326E+00         0.00000E+00
    0.47829E+00         0.32460E+00         0.00000E+00
    0.40438E+00         0.29473E+00         0.00000E+00
    0.34026E+00         0.26284E+00         0.00000E+00
    0.28319E+00         0.22829E+00         0.00000E+00
    0.23003E+00         0.19061E+00         0.00000E+00
    0.17778E+00         0.14941E+00         0.00000E+00
    0.12370E+00         0.10425E+00         0.00000E+00
    0.65255E-01         0.54599E-01         0.00000E+00
    0.00000E+00         0.00000E+00         0.00000E+00
    0.13814E+01         0.38345E+00         0.00000E+00
    0.12378E+01         0.36274E+00         0.00000E+00
    0.11030E+01         0.34223E+00         0.00000E+00
    0.97642E+00         0.32194E+00         0.00000E+00
    0.85798E+00         0.30222E+00         0.00000E+00
    0.74825E+00         0.28310E+00         0.00000E+00
    0.64799E+00         0.26427E+00         0.00000E+00
    0.55761E+00         0.24509E+00         0.00000E+00
    0.47662E+00         0.22479E+00         0.00000E+00
    0.40365E+00         0.20260E+00         0.00000E+00
    0.33653E+00         0.17783E+00         0.00000E+00
    0.27271E+00         0.14997E+00         0.00000E+00
    0.20956E+00         0.11860E+00         0.00000E+00
    0.14459E+00         0.83355E-01         0.00000E+00
    0.75448E-01         0.43910E-01         0.00000E+00
    0.00000E+00         0.00000E+00         0.00000E+00
    0.14757E+01         0.23334E+00         0.00000E+00
    0.13282E+01         0.22237E+00         0.00000E+00
    0.11897E+01         0.21154E+00         0.00000E+00
    0.10600E+01         0.20103E+00         0.00000E+00
    0.93877E+00         0.19094E+00         0.00000E+00
    0.82617E+00         0.18128E+00         0.00000E+00
    0.72233E+00         0.17180E+00         0.00000E+00
    0.62710E+00         0.16198E+00         0.00000E+00
    0.53982E+00         0.15116E+00         0.00000E+00
    0.45920E+00         0.13865E+00         0.00000E+00
    0.38342E+00         0.12381E+00         0.00000E+00
    0.31031E+00         0.10613E+00         0.00000E+00
    0.23760E+00         0.85189E-01         0.00000E+00
    0.16302E+00         0.60677E-01         0.00000E+00
    0.84458E-01         0.32341E-01         0.00000E+00
    0.00000E+00         0.00000E+00         0.00000E+00
    0.15605E+01         0.79163E-01         0.00000E+00
    0.14091E+01         0.77991E-01         0.00000E+00
    0.12673E+01         0.76984E-01         0.00000E+00
    0.11344E+01         0.76269E-01         0.00000E+00
    0.10103E+01         0.75915E-01         0.00000E+00
    0.89464E+00         0.75867E-01         0.00000E+00
    0.78719E+00         0.75899E-01         0.00000E+00
    0.68746E+00         0.75600E-01         0.00000E+00
    0.59463E+00         0.74428E-01         0.00000E+00
    0.50743E+00         0.71793E-01         0.00000E+00
    0.42423E+00         0.67139E-01         0.00000E+00
    0.34313E+00         0.59988E-01         0.00000E+00
    0.26213E+00         0.49956E-01         0.00000E+00
    0.17920E+00         0.36747E-01         0.00000E+00
    0.92407E-01         0.20146E-01         0.00000E+00
    0.00000E+00         0.00000E+00         0.00000E+00
    0.16353E+01        -0.78896E-01         0.00000E+00
    0.14805E+01        -0.70180E-01         0.00000E+00
    0.13354E+01        -0.61302E-01         0.00000E+00
    0.11996E+01        -0.52148E-01         0.00000E+00
    0.10726E+01        -0.42678E-01         0.00000E+00
    0.95393E+00        -0.32960E-01         0.00000E+00
    0.84307E+00        -0.23197E-01         0.00000E+00
    0.73929E+00        -0.13723E-01         0.00000E+00
    0.64161E+00        -0.49795E-02         0.00000E+00
    0.54879E+00         0.25500E-02         0.00000E+00
    0.45931E+00         0.83900E-02         0.00000E+00
    0.37145E+00         0.12117E-01         0.00000E+00
    0.28338E+00         0.13380E-01         0.00000E+00
    0.19327E+00         0.11907E-01         0.00000E+00
    0.99355E-01         0.74942E-02         0.00000E+00
    0.00000E+00         0.00000E+00         0.00000E+00
    0.17001E+01        -0.24061E+00         0.00000E+00
    0.15419E+01        -0.22192E+00         0.00000E+00
    0.13939E+01        -0.20308E+00         0.00000E+00
    0.12553E+01        -0.18397E+00         0.00000E+00
    0.11257E+01        -0.16456E+00         0.00000E+00
    0.10043E+01        -0.14490E+00         0.00000E+00
    0.89036E+00        -0.12518E+00         0.00000E+00
    0.78304E+00        -0.10566E+00         0.00000E+00
    0.68125E+00        -0.86704E-01         0.00000E+00
    0.58373E+00        -0.68699E-01         0.00000E+00
    0.48901E+00        -0.52049E-01         0.00000E+00
    0.39549E+00        -0.37120E-01         0.00000E+00
    0.30149E+00        -0.24226E-01         0.00000E+00
    0.20532E+00        -0.13622E-01         0.00000E+00
    0.10534E+00        -0.54988E-02         0.00000E+00
    0.00000E+00         0.00000E+00         0.00000E+00
    0.17545E+01        -0.40570E+00         0.00000E+00
    0.15933E+01        -0.37696E+00         0.00000E+00
    0.14426E+01        -0.34807E+00         0.00000E+00
    0.13016E+01        -0.31889E+00         0.00000E+00
    0.11697E+01        -0.28940E+00         0.00000E+00
    0.10459E+01        -0.25964E+00         0.00000E+00
    0.92934E+00        -0.22973E+00         0.00000E+00
    0.81908E+00        -0.19990E+00         0.00000E+00
    0.71392E+00        -0.17043E+00         0.00000E+00
    0.61257E+00        -0.14165E+00         0.00000E+00
    0.51360E+00        -0.11389E+00         0.00000E+00
    0.41548E+00        -0.87464E-01         0.00000E+00
    0.31662E+00        -0.62652E-01         0.00000E+00
    0.21544E+00        -0.39687E-01         0.00000E+00
    0.11039E+00        -0.18756E-01         0.00000E+00
    0.00000E+00         0.00000E+00         0.00000E+00
    0.17983E+01        -0.57385E+00         0.00000E+00
    0.16345E+01        -0.53498E+00         0.00000E+00
    0.14814E+01        -0.49593E+00         0.00000E+00
    0.13384E+01        -0.45658E+00         0.00000E+00
    0.12045E+01        -0.41687E+00         0.00000E+00
    0.10788E+01        -0.37681E+00         0.00000E+00
    0.96023E+00        -0.33650E+00         0.00000E+00
    0.84768E+00        -0.29612E+00         0.00000E+00
    0.73992E+00        -0.25587E+00         0.00000E+00
    0.63561E+00        -0.21604E+00         0.00000E+00
    0.53333E+00        -0.17690E+00         0.00000E+00
    0.43160E+00        -0.13872E+00         0.00000E+00
    0.32889E+00        -0.10174E+00         0.00000E+00
    0.22369E+00        -0.66179E-01         0.00000E+00
    0.11453E+00        -0.32219E-01         0.00000E+00
    0.00000E+00         0.00000E+00         0.00000E+00
    0.18312E+01        -0.74470E+00         0.00000E+00
    0.16651E+01        -0.69561E+00         0.00000E+00
    0.15101E+01        -0.64632E+00         0.00000E+00
    0.13655E+01        -0.59668E+00         0.00000E+00
    0.12302E+01        -0.54660E+00         0.00000E+00
    0.11032E+01        -0.49608E+00         0.00000E+00
    0.98318E+00        -0.44517E+00         0.00000E+00
    0.86905E+00        -0.39400E+00         0.00000E+00
    0.75947E+00        -0.34275E+00         0.00000E+00
    0.65306E+00        -0.29162E+00         0.00000E+00
    0.54840E+00        -0.24087E+00         0.00000E+00
    0.44401E+00        -0.19070E+00         0.00000E+00
    0.33842E+00        -0.14135E+00         0.00000E+00
    0.23016E+00        -0.93007E-01         0.00000E+00
    0.11780E+00        -0.45844E-01         0.00000E+00
    0.00000E+00         0.00000E+00         0.00000E+00
    0.18529E+01        -0.91788E+00         0.00000E+00
    0.16849E+01        -0.85848E+00         0.00000E+00
    0.15286E+01        -0.79884E+00         0.00000E+00
    0.13829E+01        -0.73879E+00         0.00000E+00
    0.12468E+01        -0.67822E+00         0.00000E+00
    0.11190E+01        -0.61707E+00         0.00000E+00
    0.99830E+00        -0.55538E+00         0.00000E+00
    0.88334E+00        -0.49323E+00         0.00000E+00
    0.77275E+00        -0.43077E+00         0.00000E+00
    0.66511E+00        -0.36815E+00         0.00000E+00
    0.55896E+00        -0.30558E+00         0.00000E+00
    0.45284E+00        -0.24325E+00         0.00000E+00
    0.34530E+00        -0.18136E+00         0.00000E+00
    0.23488E+00        -0.12009E+00         0.00000E+00
    0.12023E+00        -0.59587E-01         0.00000E+00
    0.00000E+00         0.00000E+00         0.00000E+00
    0.18631E+01        -0.10929E+01         0.00000E+00
    0.16937E+01        -0.10231E+01         0.00000E+00
    0.15365E+01        -0.95307E+00         0.00000E+00
    0.13904E+01        -0.88250E+00         0.00000E+00
    0.12541E+01        -0.81130E+00         0.00000E+00
    0.11263E+01        -0.73939E+00         0.00000E+00
    0.10056E+01        -0.66676E+00         0.00000E+00
    0.89065E+00        -0.59348E+00         0.00000E+00
    0.77988E+00        -0.51963E+00         0.00000E+00
    0.67187E+00        -0.44536E+00         0.00000E+00
    0.56514E+00        -0.37083E+00         0.00000E+00
    0.45820E+00        -0.29620E+00         0.00000E+00
    0.34960E+00        -0.22165E+00         0.00000E+00
    0.23793E+00        -0.14734E+00         0.00000E+00
    0.12183E+00        -0.73408E-01         0.00000E+00
    0.00000E+00         0.00000E+00         0.00000E+00
    0.18614E+01        -0.12694E+01         0.00000E+00
    0.16912E+01        -0.11892E+01         0.00000E+00
    0.15338E+01        -0.11085E+01         0.00000E+00
    0.13879E+01        -0.10273E+01         0.00000E+00
    0.12522E+01        -0.94540E+00         0.00000E+00
    0.11251E+01        -0.86260E+00         0.00000E+00
    0.10052E+01        -0.77891E+00         0.00000E+00
    0.89102E+00        -0.69436E+00         0.00000E+00
    0.78094E+00        -0.60901E+00         0.00000E+00
    0.67345E+00        -0.52297E+00         0.00000E+00
    0.56703E+00        -0.43638E+00         0.00000E+00
    0.46017E+00        -0.34936E+00         0.00000E+00
    0.35141E+00        -0.26208E+00         0.00000E+00
    0.23934E+00        -0.17466E+00         0.00000E+00
    0.12263E+00        -0.87264E-01         0.00000E+00
    0.00000E+00         0.00000E+00         0.00000E+00
    0.18475E+01        -0.14469E+01         0.00000E+00
    0.16770E+01        -0.13560E+01         0.00000E+00
    0.15200E+01        -0.12647E+01         0.00000E+00
    0.13751E+01        -0.11728E+01         0.00000E+00
    0.12407E+01        -0.10800E+01         0.00000E+00
    0.11152E+01        -0.98624E+00         0.00000E+00
    0.99702E+00        -0.89139E+00         0.00000E+00
    0.88448E+00        -0.79548E+00         0.00000E+00
    0.77598E+00        -0.69855E+00         0.00000E+00
    0.66991E+00        -0.60068E+00         0.00000E+00
    0.56469E+00        -0.50197E+00         0.00000E+00
    0.45879E+00        -0.40253E+00         0.00000E+00
    0.35075E+00        -0.30249E+00         0.00000E+00
    0.23914E+00        -0.20198E+00         0.00000E+00
    0.12264E+00        -0.10111E+00         0.00000E+00
    0.00000E+00         0.00000E+00         0.00000E+00
    0.18208E+01        -0.16246E+01         0.00000E+00
    0.16508E+01        -0.15231E+01         0.00000E+00
    0.14950E+01        -0.14211E+01         0.00000E+00
    0.13519E+01        -0.13183E+01         0.00000E+00
    0.12197E+01        -0.12146E+01         0.00000E+00
    0.10966E+01        -0.11098E+01         0.00000E+00
    0.98099E+00        -0.10037E+01         0.00000E+00
    0.87102E+00        -0.89636E+00         0.00000E+00
    0.76500E+00        -0.78783E+00         0.00000E+00
    0.66126E+00        -0.67812E+00         0.00000E+00
    0.55816E+00        -0.56731E+00         0.00000E+00
    0.45412E+00        -0.45549E+00         0.00000E+00
    0.34765E+00        -0.34273E+00         0.00000E+00
    0.23735E+00        -0.22917E+00         0.00000E+00
    0.12188E+00        -0.11489E+00         0.00000E+00
    0.00000E+00         0.00000E+00         0.00000E+00
    0.17809E+01        -0.18020E+01         0.00000E+00
    0.16120E+01        -0.16897E+01         0.00000E+00
    0.14583E+01        -0.15769E+01         0.00000E+00
    0.13179E+01        -0.14633E+01         0.00000E+00
    0.11888E+01        -0.13485E+01         0.00000E+00
    0.10692E+01        -0.12325E+01         0.00000E+00
    0.95705E+00        -0.11152E+01         0.00000E+00
    0.85059E+00        -0.99647E+00         0.00000E+00
    0.74799E+00        -0.87637E+00         0.00000E+00
    0.64750E+00        -0.75490E+00         0.00000E+00
    0.54743E+00        -0.63208E+00         0.00000E+00
    0.44616E+00        -0.50798E+00         0.00000E+00
    0.34214E+00        -0.38263E+00         0.00000E+00
    0.23396E+00        -0.25613E+00         0.00000E+00
    0.12032E+00        -0.12856E+00         0.00000E+00
    0.00000E+00         0.00000E+00         0.00000E+00
    0.17270E+01        -0.19783E+01         0.00000E+00
    0.15603E+01        -0.18551E+01         0.00000E+00
    0.14096E+01        -0.17314E+01         0.00000E+00
    0.12729E+01        -0.16068E+01         0.00000E+00
    0.11480E+01        -0.14810E+01         0.00000E+00
    0.10327E+01        -0.13538E+01         0.00000E+00
    0.92510E+00        -0.12252E+01         0.00000E+00
    0.82312E+00        -0.10952E+01         0.00000E+00
    0.72489E+00        -0.96362E+00         0.00000E+00
    0.62859E+00        -0.83053E+00         0.00000E+00
    0.53247E+00        -0.69591E+00         0.00000E+00
    0.43487E+00        -0.55974E+00         0.00000E+00
    0.33420E+00        -0.42203E+00         0.00000E+00
    0.22897E+00        -0.28280E+00         0.00000E+00
    0.11793E+00        -0.14210E+00         0.00000E+00
    0.00000E+00         0.00000E+00         0.00000E+00
    0.16587E+01        -0.21526E+01         0.00000E+00
    0.14951E+01        -0.20184E+01         0.00000E+00
    0.13486E+01        -0.18837E+01         0.00000E+00
    0.12167E+01        -0.17480E+01         0.00000E+00
    0.10970E+01        -0.16111E+01         0.00000E+00
    0.98716E+00        -0.14728E+01         0.00000E+00
    0.88504E+00        -0.13330E+01         0.00000E+00
    0.78851E+00        -0.11918E+01         0.00000E+00
    0.69559E+00        -0.10489E+01         0.00000E+00
    0.60442E+00        -0.90446E+00         0.00000E+00
    0.51319E+00        -0.75834E+00         0.00000E+00
    0.42019E+00        -0.61046E+00         0.00000E+00
    0.32376E+00        -0.46077E+00         0.00000E+00
    0.22235E+00        -0.30919E+00         0.00000E+00
    0.11460E+00        -0.15565E+00         0.00000E+00
    0.00000E+00         0.00000E+00         0.00000E+00
    0.15752E+01        -0.23238E+01         0.00000E+00
    0.14159E+01        -0.21785E+01         0.00000E+00
    0.12747E+01        -0.20327E+01         0.00000E+00
    0.11488E+01        -0.18859E+01         0.00000E+00
    0.10356E+01        -0.17379E+01         0.00000E+00
    0.93231E+00        -0.15884E+01         0.00000E+00
    0.83672E+00        -0.14376E+01         0.00000E+00
    0.74662E+00        -0.12853E+01         0.00000E+00
    0.65996E+00        -0.11315E+01         0.00000E+00
    0.57484E+00        -0.97603E+00         0.00000E+00
    0.48944E+00        -0.81885E+00         0.00000E+00
    0.40198E+00        -0.65977E+00         0.00000E+00
    0.31070E+00        -0.49863E+00         0.00000E+00
    0.21400E+00        -0.33533E+00         0.00000E+00
    0.11031E+00        -0.16981E+00         0.00000E+00
    0.00000E+00         0.00000E+00         0.00000E+00
    0.14756E+01        -0.24906E+01         0.00000E+00
    0.13221E+01        -0.23342E+01         0.00000E+00
    0.11877E+01        -0.21772E+01         0.00000E+00
    0.10692E+01        -0.20192E+01         0.00000E+00
    0.96358E+00        -0.18600E+01         0.00000E+00
    0.86802E+00        -0.16996E+01         0.00000E+00
    0.78002E+00        -0.15378E+01         0.00000E+00
    0.69730E+00        -0.13748E+01         0.00000E+00
    0.61781E+00        -0.12104E+01         0.00000E+00
    0.53964E+00        -0.10444E+01         0.00000E+00
    0.46098E+00        -0.87677E+00         0.00000E+00
    0.38000E+00        -0.70716E+00         0.00000E+00
    0.29487E+00        -0.53533E+00         0.00000E+00
    0.20364E+00        -0.36105E+00         0.00000E+00
    0.10526E+00        -0.18402E+00         0.00000E+00
    0.00000E+00         0.00000E+00         0.00000E+00
    0.13592E+01        -0.26516E+01         0.00000E+00
    0.12131E+01        -0.24839E+01         0.00000E+00
    0.10871E+01        -0.23156E+01         0.00000E+00
    0.97752E+00        -0.21464E+01         0.00000E+00
    0.88089E+00        -0.19761E+01         0.00000E+00
    0.79419E+00        -0.18048E+01         0.00000E+00
    0.71478E+00        -0.16325E+01         0.00000E+00
    0.64035E+00        -0.14591E+01         0.00000E+00
    0.56889E+00        -0.12846E+01         0.00000E+00
    0.49852E+00        -0.11087E+01         0.00000E+00
    0.42747E+00        -0.93131E+00         0.00000E+00
    0.35393E+00        -0.75197E+00         0.00000E+00
    0.27600E+00        -0.57035E+00         0.00000E+00
    0.19142E+00        -0.38615E+00         0.00000E+00
    0.99537E-01        -0.19705E+00         0.00000E+00
    0.00000E+00         0.00000E+00         0.00000E+00
    0.12252E+01        -0.28049E+01         0.00000E+00
    0.10884E+01        -0.26258E+01         0.00000E+00
    0.97269E+00        -0.24462E+01         0.00000E+00
    0.87364E+00        -0.22657E+01         0.00000E+00
    0.78740E+00        -0.20845E+01         0.00000E+00
    0.71071E+00        -0.19025E+01         0.00000E+00
    0.64085E+00        -0.17199E+01         0.00000E+00
    0.57556E+00        -0.15367E+01         0.00000E+00
    0.51289E+00        -0.13528E+01         0.00000E+00
    0.45110E+00        -0.11678E+01         0.00000E+00
    0.38848E+00        -0.98150E+00         0.00000E+00
    0.32333E+00        -0.79336E+00         0.00000E+00
    0.25367E+00        -0.60286E+00         0.00000E+00
    0.17743E+00        -0.40951E+00         0.00000E+00
    0.93271E-01        -0.20893E+00         0.00000E+00
    0.00000E+00         0.00000E+00         0.00000E+00
    0.10725E+01        -0.29484E+01         0.00000E+00
    0.94750E+00        -0.27578E+01         0.00000E+00
    0.84422E+00        -0.25667E+01         0.00000E+00
    0.75752E+00        -0.23751E+01         0.00000E+00
    0.68309E+00        -0.21831E+01         0.00000E+00
    0.61750E+00        -0.19909E+01         0.00000E+00
    0.55807E+00        -0.17986E+01         0.00000E+00
    0.50264E+00        -0.16063E+01         0.00000E+00
    0.44945E+00        -0.14138E+01         0.00000E+00
    0.39690E+00        -0.12206E+01         0.00000E+00
    0.34348E+00        -0.10263E+01         0.00000E+00
    0.28762E+00        -0.83038E+00         0.00000E+00
    0.22750E+00        -0.63211E+00         0.00000E+00
    0.16105E+00        -0.43027E+00         0.00000E+00
    0.86035E-01        -0.21971E+00         0.00000E+00
    0.00000E+00         0.00000E+00         0.00000E+00
    0.90040E+00        -0.30795E+01         0.00000E+00
    0.78998E+00        -0.28773E+01         0.00000E+00
    0.70166E+00        -0.26747E+01         0.00000E+00
    0.62926E+00        -0.24720E+01         0.00000E+00
    0.56802E+00        -0.22696E+01         0.00000E+00
    0.51450E+00        -0.20678E+01         0.00000E+00
    0.46622E+00        -0.18667E+01         0.00000E+00
    0.42126E+00        -0.16662E+01         0.00000E+00
    0.37809E+00        -0.14661E+01         0.00000E+00
    0.33536E+00        -0.12657E+01         0.00000E+00
    0.29178E+00        -0.10646E+01         0.00000E+00
    0.24605E+00        -0.86205E+00         0.00000E+00
    0.19665E+00        -0.65711E+00         0.00000E+00
    0.14159E+00        -0.44810E+00         0.00000E+00
    0.77197E-01        -0.22926E+00         0.00000E+00
    0.00000E+00         0.00000E+00         0.00000E+00
    0.70778E+00        -0.31948E+01         0.00000E+00
    0.61569E+00        -0.29808E+01         0.00000E+00
    0.54527E+00        -0.27668E+01         0.00000E+00
    0.48911E+00        -0.25534E+01         0.00000E+00
    0.44227E+00        -0.23414E+01         0.00000E+00
    0.40160E+00        -0.21310E+01         0.00000E+00
    0.36500E+00        -0.19223E+01         0.00000E+00
    0.33095E+00        -0.17149E+01         0.00000E+00
    0.29823E+00        -0.15084E+01         0.00000E+00
    0.26577E+00        -0.13022E+01         0.00000E+00
    0.23259E+00        -0.10955E+01         0.00000E+00
    0.19766E+00        -0.88747E+00         0.00000E+00
    0.15993E+00        -0.67710E+00         0.00000E+00
    0.11771E+00        -0.46261E+00         0.00000E+00
    0.65985E-01        -0.23747E+00         0.00000E+00
    0.00000E+00         0.00000E+00         0.00000E+00
    0.49373E+00        -0.32897E+01         0.00000E+00
    0.42489E+00        -0.30640E+01         0.00000E+00
    0.37567E+00        -0.28388E+01         0.00000E+00
    0.33745E+00        -0.26158E+01         0.00000E+00
    0.30586E+00        -0.23956E+01         0.00000E+00
    0.27854E+00        -0.21783E+01         0.00000E+00
    0.25400E+00        -0.19636E+01         0.00000E+00
    0.23115E+00        -0.17509E+01         0.00000E+00
    0.20917E+00        -0.15396E+01         0.00000E+00
    0.18733E+00        -0.13290E+01         0.00000E+00
    0.16496E+00        -0.11181E+01         0.00000E+00
    0.14136E+00        -0.90597E+00         0.00000E+00
    0.11589E+00        -0.69151E+00         0.00000E+00
    0.87628E-01        -0.47321E+00         0.00000E+00
    0.51238E-01        -0.24418E+00         0.00000E+00
    0.00000E+00         0.00000E+00         0.00000E+00
    0.25737E+00        -0.33578E+01         0.00000E+00
    0.21887E+00        -0.31203E+01         0.00000E+00
    0.19377E+00        -0.28856E+01         0.00000E+00
    0.17448E+00        -0.26553E+01         0.00000E+00
    0.15861E+00        -0.24295E+01         0.00000E+00
    0.14490E+00        -0.22076E+01         0.00000E+00
    0.13258E+00        -0.19891E+01         0.00000E+00
    0.12112E+00        -0.17730E+01         0.00000E+00
    0.11007E+00        -0.15587E+01         0.00000E+00
    0.99091E-01        -0.13453E+01         0.00000E+00
    0.87823E-01        -0.11318E+01         0.00000E+00
    0.75926E-01        -0.91715E+00         0.00000E+00
    0.63046E-01        -0.70003E+00         0.00000E+00
    0.49161E-01        -0.47910E+00         0.00000E+00
    0.30828E-01        -0.24919E+00         0.00000E+00
    0.00000E+00         0.00000E+00         0.00000E+00
    0.00000E+00        -0.33861E+01         0.00000E+00
    0.00000E+00        -0.31408E+01         0.00000E+00
    0.00000E+00        -0.29019E+01         0.00000E+00
    0.00000E+00        -0.26689E+01         0.00000E+00
    0.00000E+00        -0.24411E+01         0.00000E+00
    0.00000E+00        -0.22176E+01         0.00000E+00
    0.00000E+00        -0.19977E+01         0.00000E+00
    0.00000E+00        -0.17805E+01         0.00000E+00
    0.00000E+00        -0.15652E+01         0.00000E+00
    0.00000E+00        -0.13508E+01         0.00000E+00
    0.00000E+00        -0.11365E+01         0.00000E+00
    0.00000E+00        -0.92089E+00         0.00000E+00
    0.00000E+00        -0.70282E+00         0.00000E+00
    0.00000E+00        -0.48075E+00         0.00000E+00
    0.00000E+00        -0.25132E+00         0.00000E+00
    0.00000E+00         0.00000E+00         0.00000E+00
CELL_DATA        450
VECTORS vDarcy double 
    0.11662E-05         0.75482E-08         0.00000E+00
    0.11669E-05         0.18984E-07         0.00000E+00
    0.11628E-05         0.24182E-07         0.00000E+00
    0.11611E-05         0.25937E-07         0.00000E+00
    0.11601E-05         0.26320E-07         0.00000E+00
    0.11595E-05         0.26206E-07         0.00000E+00
    0.11591E-05         0.25786E-07         0.00000E+00
    0.11585E-05         0.24906E-07         0.00000E+00
    0.11573E-05         0.23228E-07         0.00000E+00
    0.11579E-05         0.20981E-07         0.00000E+00
    0.11584E-05         0.18639E-07         0.00000E+00
    0.11584E-05         0.16100E-07         0.00000E+00
    0.11582E-05         0.13123E-07         0.00000E+00
    0.11578E-05         0.93396E-08         0.00000E+00
    0.11554E-05         0.35920E-08         0.00000E+00
    0.11814E-05         0.37636E-08         0.00000E+00
    0.11659E-05         0.67612E-08         0.00000E+00
    0.11613E-05         0.56877E-08         0.00000E+00
    0.11596E-05         0.53773E-08         0.00000E+00
    0.11593E-05         0.58094E-08         0.00000E+00
    0.11595E-05         0.67470E-08         0.00000E+00
    0.11594E-05         0.80425E-08         0.00000E+00
    0.11590E-05         0.94754E-08         0.00000E+00
    0.11584E-05         0.10949E-07         0.00000E+00
    0.11574E-05         0.11804E-07         0.00000E+00
    0.11566E-05         0.11427E-07         0.00000E+00
    0.11560E-05         0.10090E-07         0.00000E+00
    0.11550E-05         0.79999E-08         0.00000E+00
    0.11534E-05         0.50815E-08         0.00000E+00
    0.11505E-05         0.16975E-08         0.00000E+00
    0.11800E-05        -0.22344E-08         0.00000E+00
    0.11653E-05        -0.37456E-08         0.00000E+00
    0.11613E-05        -0.22758E-08         0.00000E+00
    0.11608E-05        -0.71159E-09         0.00000E+00
    0.11607E-05         0.87674E-09         0.00000E+00
    0.11609E-05         0.23488E-08         0.00000E+00
    0.11609E-05         0.36619E-08         0.00000E+00
    0.11602E-05         0.47984E-08         0.00000E+00
    0.11590E-05         0.55752E-08         0.00000E+00
    0.11575E-05         0.59667E-08         0.00000E+00
    0.11559E-05         0.59546E-08         0.00000E+00
    0.11545E-05         0.53660E-08         0.00000E+00
    0.11529E-05         0.41661E-08         0.00000E+00
    0.11507E-05         0.25334E-08         0.00000E+00
    0.11479E-05         0.82202E-09         0.00000E+00
    0.11736E-05        -0.23396E-08         0.00000E+00
    0.11676E-05        -0.39088E-08         0.00000E+00
    0.11635E-05        -0.20970E-08         0.00000E+00
    0.11620E-05        -0.42864E-09         0.00000E+00
    0.11617E-05         0.65671E-09         0.00000E+00
    0.11616E-05         0.13970E-08         0.00000E+00
    0.11613E-05         0.18447E-08         0.00000E+00
    0.11605E-05         0.20687E-08         0.00000E+00
    0.11591E-05         0.22080E-08         0.00000E+00
    0.11574E-05         0.23047E-08         0.00000E+00
    0.11556E-05         0.22834E-08         0.00000E+00
    0.11537E-05         0.20407E-08         0.00000E+00
    0.11516E-05         0.15379E-08         0.00000E+00
    0.11493E-05         0.87381E-09         0.00000E+00
    0.11467E-05         0.26204E-09         0.00000E+00
    0.11706E-05        -0.93775E-09         0.00000E+00
    0.11676E-05        -0.20213E-08         0.00000E+00
    0.11647E-05        -0.17570E-08         0.00000E+00
    0.11629E-05        -0.91120E-09         0.00000E+00
    0.11621E-05        -0.23197E-09         0.00000E+00
    0.11617E-05         0.93199E-10         0.00000E+00
    0.11611E-05         0.14529E-09         0.00000E+00
    0.11602E-05         0.48444E-10         0.00000E+00
    0.11589E-05        -0.70897E-10         0.00000E+00
    0.11572E-05        -0.13680E-09         0.00000E+00
    0.11553E-05        -0.15556E-09         0.00000E+00
    0.11533E-05        -0.17521E-09         0.00000E+00
    0.11512E-05        -0.21530E-09         0.00000E+00
    0.11489E-05        -0.22741E-09         0.00000E+00
    0.11464E-05        -0.10757E-09         0.00000E+00
    0.11692E-05        -0.51216E-09         0.00000E+00
    0.11669E-05        -0.13132E-08         0.00000E+00
    0.11648E-05        -0.15820E-08         0.00000E+00
    0.11633E-05        -0.14383E-08         0.00000E+00
    0.11623E-05        -0.12469E-08         0.00000E+00
    0.11615E-05        -0.12122E-08         0.00000E+00
    0.11608E-05        -0.13480E-08         0.00000E+00
    0.11598E-05        -0.15647E-08         0.00000E+00
    0.11585E-05        -0.17569E-08         0.00000E+00
    0.11569E-05        -0.18492E-08         0.00000E+00
    0.11551E-05        -0.18138E-08         0.00000E+00
    0.11532E-05        -0.16555E-08         0.00000E+00
    0.11511E-05        -0.13780E-08         0.00000E+00
    0.11490E-05        -0.95931E-09         0.00000E+00
    0.11467E-05        -0.35471E-09         0.00000E+00
    0.11681E-05        -0.45257E-09         0.00000E+00
    0.11661E-05        -0.12280E-08         0.00000E+00
    0.11644E-05        -0.17353E-08         0.00000E+00
    0.11631E-05        -0.20122E-08         0.00000E+00
    0.11620E-05        -0.21894E-08         0.00000E+00
    0.11612E-05        -0.23879E-08         0.00000E+00
    0.11604E-05        -0.26361E-08         0.00000E+00
    0.11594E-05        -0.28883E-08         0.00000E+00
    0.11582E-05        -0.30699E-08         0.00000E+00
    0.11567E-05        -0.31162E-08         0.00000E+00
    0.11551E-05        -0.29892E-08         0.00000E+00
    0.11533E-05        -0.26743E-08         0.00000E+00
    0.11514E-05        -0.21655E-08         0.00000E+00
    0.11495E-05        -0.14534E-08         0.00000E+00
    0.11474E-05        -0.52207E-09         0.00000E+00
    0.11670E-05        -0.48964E-09         0.00000E+00
    0.11652E-05        -0.13805E-08         0.00000E+00
    0.11637E-05        -0.20871E-08         0.00000E+00
    0.11625E-05        -0.26256E-08         0.00000E+00
    0.11615E-05        -0.30513E-08         0.00000E+00
    0.11607E-05        -0.34171E-08         0.00000E+00
    0.11599E-05        -0.37401E-08         0.00000E+00
    0.11590E-05        -0.39945E-08         0.00000E+00
    0.11579E-05        -0.41312E-08         0.00000E+00
    0.11566E-05        -0.41007E-08         0.00000E+00
    0.11552E-05        -0.38670E-08         0.00000E+00
    0.11536E-05        -0.34105E-08         0.00000E+00
    0.11520E-05        -0.27226E-08         0.00000E+00
    0.11502E-05        -0.17995E-08         0.00000E+00
    0.11484E-05        -0.63913E-09         0.00000E+00
    0.11658E-05        -0.56864E-09         0.00000E+00
    0.11642E-05        -0.16246E-08         0.00000E+00
    0.11628E-05        -0.25154E-08         0.00000E+00
    0.11618E-05        -0.32477E-08         0.00000E+00
    0.11609E-05        -0.38438E-08         0.00000E+00
    0.11601E-05        -0.43251E-08         0.00000E+00
    0.11594E-05        -0.46957E-08         0.00000E+00
    0.11586E-05        -0.49375E-08         0.00000E+00
    0.11577E-05        -0.50181E-08         0.00000E+00
    0.11566E-05        -0.49017E-08         0.00000E+00
    0.11554E-05        -0.45600E-08         0.00000E+00
    0.11541E-05        -0.39754E-08         0.00000E+00
    0.11527E-05        -0.31407E-08         0.00000E+00
    0.11512E-05        -0.20558E-08         0.00000E+00
    0.11496E-05        -0.72539E-09         0.00000E+00
    0.11643E-05        -0.66218E-09         0.00000E+00
    0.11629E-05        -0.19005E-08         0.00000E+00
    0.11618E-05        -0.29642E-08         0.00000E+00
    0.11609E-05        -0.38543E-08         0.00000E+00
    0.11601E-05        -0.45778E-08         0.00000E+00
    0.11595E-05        -0.51405E-08         0.00000E+00
    0.11589E-05        -0.55397E-08         0.00000E+00
    0.11583E-05        -0.57616E-08         0.00000E+00
    0.11576E-05        -0.57838E-08         0.00000E+00
    0.11567E-05        -0.55824E-08         0.00000E+00
    0.11558E-05        -0.51374E-08         0.00000E+00
    0.11547E-05        -0.44365E-08         0.00000E+00
    0.11536E-05        -0.34759E-08         0.00000E+00
    0.11523E-05        -0.22587E-08         0.00000E+00
    0.11510E-05        -0.79318E-09         0.00000E+00
    0.11628E-05        -0.75972E-09         0.00000E+00
    0.11615E-05        -0.21832E-08         0.00000E+00
    0.11606E-05        -0.34105E-08         0.00000E+00
    0.11598E-05        -0.44378E-08         0.00000E+00
    0.11593E-05        -0.52641E-08         0.00000E+00
    0.11588E-05        -0.58878E-08         0.00000E+00
    0.11584E-05        -0.63039E-08         0.00000E+00
    0.11580E-05        -0.65016E-08         0.00000E+00
    0.11575E-05        -0.64668E-08         0.00000E+00
    0.11569E-05        -0.61843E-08         0.00000E+00
    0.11563E-05        -0.56424E-08         0.00000E+00
    0.11555E-05        -0.48348E-08         0.00000E+00
    0.11546E-05        -0.37620E-08         0.00000E+00
    0.11536E-05        -0.24301E-08         0.00000E+00
    0.11525E-05        -0.85009E-09         0.00000E+00
    0.11610E-05        -0.85758E-09         0.00000E+00
    0.11599E-05        -0.24645E-08         0.00000E+00
    0.11592E-05        -0.38483E-08         0.00000E+00
    0.11587E-05        -0.50003E-08         0.00000E+00
    0.11584E-05        -0.59148E-08         0.00000E+00
    0.11581E-05        -0.65874E-08         0.00000E+00
    0.11580E-05        -0.70129E-08         0.00000E+00
    0.11578E-05        -0.71845E-08         0.00000E+00
    0.11576E-05        -0.70942E-08         0.00000E+00
    0.11572E-05        -0.67348E-08         0.00000E+00
    0.11568E-05        -0.61017E-08         0.00000E+00
    0.11563E-05        -0.51948E-08         0.00000E+00
    0.11557E-05        -0.40187E-08         0.00000E+00
    0.11549E-05        -0.25830E-08         0.00000E+00
    0.11541E-05        -0.90063E-09         0.00000E+00
    0.11590E-05        -0.95549E-09         0.00000E+00
    0.11582E-05        -0.27444E-08         0.00000E+00
    0.11577E-05        -0.42797E-08         0.00000E+00
    0.11575E-05        -0.55483E-08         0.00000E+00
    0.11574E-05        -0.65420E-08         0.00000E+00
    0.11574E-05        -0.72556E-08         0.00000E+00
    0.11575E-05        -0.76857E-08         0.00000E+00
    0.11576E-05        -0.78295E-08         0.00000E+00
    0.11577E-05        -0.76850E-08         0.00000E+00
    0.11576E-05        -0.72517E-08         0.00000E+00
    0.11575E-05        -0.65317E-08         0.00000E+00
    0.11573E-05        -0.55306E-08         0.00000E+00
    0.11569E-05        -0.42573E-08         0.00000E+00
    0.11564E-05        -0.27245E-08         0.00000E+00
    0.11558E-05        -0.94732E-09         0.00000E+00
    0.11568E-05        -0.10546E-08         0.00000E+00
    0.11563E-05        -0.30261E-08         0.00000E+00
    0.11561E-05        -0.47100E-08         0.00000E+00
    0.11561E-05        -0.60898E-08         0.00000E+00
    0.11564E-05        -0.71561E-08         0.00000E+00
    0.11567E-05        -0.79049E-08         0.00000E+00
    0.11571E-05        -0.83355E-08         0.00000E+00
    0.11575E-05        -0.84497E-08         0.00000E+00
    0.11579E-05        -0.82512E-08         0.00000E+00
    0.11581E-05        -0.77456E-08         0.00000E+00
    0.11583E-05        -0.69413E-08         0.00000E+00
    0.11583E-05        -0.58492E-08         0.00000E+00
    0.11582E-05        -0.44830E-08         0.00000E+00
    0.11580E-05        -0.28581E-08         0.00000E+00
    0.11576E-05        -0.99135E-09         0.00000E+00
    0.11545E-05        -0.11566E-08         0.00000E+00
    0.11542E-05        -0.33137E-08         0.00000E+00
    0.11544E-05        -0.51448E-08         0.00000E+00
    0.11547E-05        -0.66315E-08         0.00000E+00
    0.11553E-05        -0.77649E-08         0.00000E+00
    0.11560E-05        -0.85434E-08         0.00000E+00
    0.11567E-05        -0.89703E-08         0.00000E+00
    0.11575E-05        -0.90524E-08         0.00000E+00
    0.11581E-05        -0.87987E-08         0.00000E+00
    0.11587E-05        -0.82211E-08         0.00000E+00
    0.11591E-05        -0.73335E-08         0.00000E+00
    0.11595E-05        -0.61527E-08         0.00000E+00
    0.11596E-05        -0.46966E-08         0.00000E+00
    0.11597E-05        -0.29840E-08         0.00000E+00
    0.11595E-05        -0.10328E-08         0.00000E+00
    0.11519E-05        -0.12628E-08         0.00000E+00
    0.11520E-05        -0.36107E-08         0.00000E+00
    0.11525E-05        -0.55887E-08         0.00000E+00
    0.11533E-05        -0.71781E-08         0.00000E+00
    0.11542E-05        -0.83727E-08         0.00000E+00
    0.11553E-05        -0.91748E-08         0.00000E+00
    0.11564E-05        -0.95929E-08         0.00000E+00
    0.11574E-05        -0.96393E-08         0.00000E+00
    0.11585E-05        -0.93287E-08         0.00000E+00
    0.11594E-05        -0.86781E-08         0.00000E+00
    0.11601E-05        -0.77072E-08         0.00000E+00
    0.11607E-05        -0.64382E-08         0.00000E+00
    0.11611E-05        -0.48949E-08         0.00000E+00
    0.11614E-05        -0.30995E-08         0.00000E+00
    0.11615E-05        -0.10706E-08         0.00000E+00
    0.11492E-05        -0.13743E-08         0.00000E+00
    0.11497E-05        -0.39193E-08         0.00000E+00
    0.11506E-05        -0.60435E-08         0.00000E+00
    0.11517E-05        -0.77305E-08         0.00000E+00
    0.11531E-05        -0.89789E-08         0.00000E+00
    0.11546E-05        -0.97971E-08         0.00000E+00
    0.11560E-05        -0.10200E-07         0.00000E+00
    0.11575E-05        -0.10207E-07         0.00000E+00
    0.11589E-05        -0.98367E-08         0.00000E+00
    0.11601E-05        -0.91123E-08         0.00000E+00
    0.11612E-05        -0.80573E-08         0.00000E+00
    0.11621E-05        -0.66995E-08         0.00000E+00
    0.11628E-05        -0.50702E-08         0.00000E+00
    0.11633E-05        -0.31982E-08         0.00000E+00
    0.11636E-05        -0.11023E-08         0.00000E+00
    0.11462E-05        -0.14915E-08         0.00000E+00
    0.11471E-05        -0.42399E-08         0.00000E+00
    0.11485E-05        -0.65082E-08         0.00000E+00
    0.11501E-05        -0.82855E-08         0.00000E+00
    0.11519E-05        -0.95777E-08         0.00000E+00
    0.11539E-05        -0.10402E-07         0.00000E+00
    0.11558E-05        -0.10782E-07         0.00000E+00
    0.11576E-05        -0.10744E-07         0.00000E+00
    0.11594E-05        -0.10313E-07         0.00000E+00
    0.11609E-05        -0.95154E-08         0.00000E+00
    0.11623E-05        -0.83770E-08         0.00000E+00
    0.11635E-05        -0.69284E-08         0.00000E+00
    0.11645E-05        -0.52104E-08         0.00000E+00
    0.11652E-05        -0.32673E-08         0.00000E+00
    0.11657E-05        -0.11224E-08         0.00000E+00
    0.11430E-05        -0.16139E-08         0.00000E+00
    0.11445E-05        -0.45707E-08         0.00000E+00
    0.11463E-05        -0.69781E-08         0.00000E+00
    0.11485E-05        -0.88343E-08         0.00000E+00
    0.11508E-05        -0.10157E-07         0.00000E+00
    0.11532E-05        -0.10974E-07         0.00000E+00
    0.11555E-05        -0.11322E-07         0.00000E+00
    0.11578E-05        -0.11234E-07         0.00000E+00
    0.11599E-05        -0.10742E-07         0.00000E+00
    0.11619E-05        -0.98744E-08         0.00000E+00
    0.11636E-05        -0.86572E-08         0.00000E+00
    0.11651E-05        -0.71202E-08         0.00000E+00
    0.11663E-05        -0.53034E-08         0.00000E+00
    0.11672E-05        -0.32825E-08         0.00000E+00
    0.11679E-05        -0.11169E-08         0.00000E+00
    0.11396E-05        -0.17407E-08         0.00000E+00
    0.11416E-05        -0.49076E-08         0.00000E+00
    0.11441E-05        -0.74442E-08         0.00000E+00
    0.11468E-05        -0.93624E-08         0.00000E+00
    0.11497E-05        -0.10695E-07         0.00000E+00
    0.11526E-05        -0.11489E-07         0.00000E+00
    0.11554E-05        -0.11792E-07         0.00000E+00
    0.11581E-05        -0.11649E-07         0.00000E+00
    0.11606E-05        -0.11099E-07         0.00000E+00
    0.11629E-05        -0.10170E-07         0.00000E+00
    0.11649E-05        -0.88852E-08         0.00000E+00
    0.11667E-05        -0.72703E-08         0.00000E+00
    0.11682E-05        -0.53582E-08         0.00000E+00
    0.11692E-05        -0.32174E-08         0.00000E+00
    0.11700E-05        -0.10514E-08         0.00000E+00
    0.11360E-05        -0.18700E-08         0.00000E+00
    0.11386E-05        -0.52438E-08         0.00000E+00
    0.11418E-05        -0.78927E-08         0.00000E+00
    0.11451E-05        -0.98479E-08         0.00000E+00
    0.11486E-05        -0.11165E-07         0.00000E+00
    0.11520E-05        -0.11911E-07         0.00000E+00
    0.11553E-05        -0.12154E-07         0.00000E+00
    0.11584E-05        -0.11951E-07         0.00000E+00
    0.11613E-05        -0.11348E-07         0.00000E+00
    0.11640E-05        -0.10374E-07         0.00000E+00
    0.11664E-05        -0.90436E-08         0.00000E+00
    0.11685E-05        -0.73666E-08         0.00000E+00
    0.11702E-05        -0.53802E-08         0.00000E+00
    0.11715E-05        -0.30985E-08         0.00000E+00
    0.11719E-05        -0.93970E-09         0.00000E+00
    0.11321E-05        -0.19993E-08         0.00000E+00
    0.11355E-05        -0.55696E-08         0.00000E+00
    0.11394E-05        -0.83038E-08         0.00000E+00
    0.11435E-05        -0.10260E-07         0.00000E+00
    0.11476E-05        -0.11526E-07         0.00000E+00
    0.11515E-05        -0.12196E-07         0.00000E+00
    0.11553E-05        -0.12360E-07         0.00000E+00
    0.11588E-05        -0.12092E-07         0.00000E+00
    0.11620E-05        -0.11444E-07         0.00000E+00
    0.11651E-05        -0.10444E-07         0.00000E+00
    0.11678E-05        -0.91018E-08         0.00000E+00
    0.11703E-05        -0.74019E-08         0.00000E+00
    0.11723E-05        -0.53359E-08         0.00000E+00
    0.11739E-05        -0.30051E-08         0.00000E+00
    0.11737E-05        -0.89868E-09         0.00000E+00
    0.11279E-05        -0.21250E-08         0.00000E+00
    0.11323E-05        -0.58718E-08         0.00000E+00
    0.11371E-05        -0.86503E-08         0.00000E+00
    0.11419E-05        -0.10558E-07         0.00000E+00
    0.11466E-05        -0.11725E-07         0.00000E+00
    0.11511E-05        -0.12284E-07         0.00000E+00
    0.11553E-05        -0.12349E-07         0.00000E+00
    0.11592E-05        -0.12011E-07         0.00000E+00
    0.11628E-05        -0.11329E-07         0.00000E+00
    0.11662E-05        -0.10330E-07         0.00000E+00
    0.11693E-05        -0.90109E-08         0.00000E+00
    0.11721E-05        -0.73454E-08         0.00000E+00
    0.11746E-05        -0.52298E-08         0.00000E+00
    0.11762E-05        -0.29870E-08         0.00000E+00
    0.11755E-05        -0.96782E-09         0.00000E+00
    0.11236E-05        -0.22425E-08         0.00000E+00
    0.11290E-05        -0.61313E-08         0.00000E+00
    0.11348E-05        -0.88935E-08         0.00000E+00
    0.11405E-05        -0.10686E-07         0.00000E+00
    0.11459E-05        -0.11696E-07         0.00000E+00
    0.11509E-05        -0.12103E-07         0.00000E+00
    0.11555E-05        -0.12052E-07         0.00000E+00
    0.11598E-05        -0.11643E-07         0.00000E+00
    0.11637E-05        -0.10941E-07         0.00000E+00
    0.11673E-05        -0.99705E-08         0.00000E+00
    0.11707E-05        -0.87196E-08         0.00000E+00
    0.11739E-05        -0.71298E-08         0.00000E+00
    0.11770E-05        -0.50953E-08         0.00000E+00
    0.11781E-05        -0.30161E-08         0.00000E+00
    0.11774E-05        -0.10410E-08         0.00000E+00
    0.11190E-05        -0.23448E-08         0.00000E+00
    0.11258E-05        -0.63202E-08         0.00000E+00
    0.11327E-05        -0.89775E-08         0.00000E+00
    0.11392E-05        -0.10565E-07         0.00000E+00
    0.11453E-05        -0.11353E-07         0.00000E+00
    0.11508E-05        -0.11573E-07         0.00000E+00
    0.11558E-05        -0.11394E-07         0.00000E+00
    0.11603E-05        -0.10923E-07         0.00000E+00
    0.11645E-05        -0.10221E-07         0.00000E+00
    0.11683E-05        -0.93102E-08         0.00000E+00
    0.11720E-05        -0.81754E-08         0.00000E+00
    0.11756E-05        -0.67307E-08         0.00000E+00
    0.11791E-05        -0.49254E-08         0.00000E+00
    0.11799E-05        -0.30208E-08         0.00000E+00
    0.11795E-05        -0.10529E-08         0.00000E+00
    0.11143E-05        -0.24205E-08         0.00000E+00
    0.11226E-05        -0.63923E-08         0.00000E+00
    0.11308E-05        -0.88151E-08         0.00000E+00
    0.11383E-05        -0.10086E-07         0.00000E+00
    0.11450E-05        -0.10589E-07         0.00000E+00
    0.11509E-05        -0.10605E-07         0.00000E+00
    0.11562E-05        -0.10308E-07         0.00000E+00
    0.11609E-05        -0.97977E-08         0.00000E+00
    0.11653E-05        -0.91243E-08         0.00000E+00
    0.11693E-05        -0.83061E-08         0.00000E+00
    0.11732E-05        -0.73309E-08         0.00000E+00
    0.11771E-05        -0.61366E-08         0.00000E+00
    0.11808E-05        -0.46608E-08         0.00000E+00
    0.11817E-05        -0.29531E-08         0.00000E+00
    0.11816E-05        -0.10289E-08         0.00000E+00
    0.11095E-05        -0.24468E-08         0.00000E+00
    0.11197E-05        -0.62633E-08         0.00000E+00
    0.11293E-05        -0.82634E-08         0.00000E+00
    0.11377E-05        -0.90995E-08         0.00000E+00
    0.11450E-05        -0.92871E-08         0.00000E+00
    0.11512E-05        -0.91203E-08         0.00000E+00
    0.11567E-05        -0.87469E-08         0.00000E+00
    0.11615E-05        -0.82409E-08         0.00000E+00
    0.11660E-05        -0.76361E-08         0.00000E+00
    0.11701E-05        -0.69435E-08         0.00000E+00
    0.11741E-05        -0.61612E-08         0.00000E+00
    0.11782E-05        -0.52861E-08         0.00000E+00
    0.11823E-05        -0.42173E-08         0.00000E+00
    0.11834E-05        -0.27814E-08         0.00000E+00
    0.11836E-05        -0.97710E-09         0.00000E+00
    0.11047E-05        -0.23733E-08         0.00000E+00
    0.11173E-05        -0.57560E-08         0.00000E+00
    0.11284E-05        -0.70791E-08         0.00000E+00
    0.11376E-05        -0.74198E-08         0.00000E+00
    0.11452E-05        -0.73471E-08         0.00000E+00
    0.11516E-05        -0.70773E-08         0.00000E+00
    0.11572E-05        -0.67030E-08         0.00000E+00
    0.11621E-05        -0.62643E-08         0.00000E+00
    0.11666E-05        -0.57770E-08         0.00000E+00
    0.11708E-05        -0.52453E-08         0.00000E+00
    0.11748E-05        -0.46732E-08         0.00000E+00
    0.11789E-05        -0.41012E-08         0.00000E+00
    0.11832E-05        -0.35047E-08         0.00000E+00
    0.11849E-05        -0.24509E-08         0.00000E+00
    0.11854E-05        -0.85904E-09         0.00000E+00
    0.11003E-05        -0.20135E-08         0.00000E+00
    0.11159E-05        -0.44516E-08         0.00000E+00
    0.11282E-05        -0.49364E-08         0.00000E+00
    0.11377E-05        -0.49306E-08         0.00000E+00
    0.11455E-05        -0.47557E-08         0.00000E+00
    0.11520E-05        -0.45095E-08         0.00000E+00
    0.11576E-05        -0.42289E-08         0.00000E+00
    0.11625E-05        -0.39275E-08         0.00000E+00
    0.11670E-05        -0.36084E-08         0.00000E+00
    0.11712E-05        -0.32717E-08         0.00000E+00
    0.11753E-05        -0.29214E-08         0.00000E+00
    0.11794E-05        -0.25818E-08         0.00000E+00
    0.11836E-05        -0.23578E-08         0.00000E+00
    0.11862E-05        -0.18403E-08         0.00000E+00
    0.11870E-05        -0.69284E-09         0.00000E+00
    0.10972E-05        -0.85860E-09         0.00000E+00
    0.11158E-05        -0.17592E-08         0.00000E+00
    0.11283E-05        -0.17881E-08         0.00000E+00
    0.11379E-05        -0.17364E-08         0.00000E+00
    0.11457E-05        -0.16488E-08         0.00000E+00
    0.11522E-05        -0.15497E-08         0.00000E+00
    0.11578E-05        -0.14453E-08         0.00000E+00
    0.11628E-05        -0.13377E-08         0.00000E+00
    0.11673E-05        -0.12265E-08         0.00000E+00
    0.11715E-05        -0.11111E-08         0.00000E+00
    0.11756E-05        -0.99335E-09         0.00000E+00
    0.11796E-05        -0.87282E-09         0.00000E+00
    0.11836E-05        -0.82284E-09         0.00000E+00
    0.11867E-05        -0.72008E-09         0.00000E+00
    0.11881E-05        -0.30326E-09         0.00000E+00
POINT_DATA        496
VECTORS vDarcyNodal double 
    0.11679E-05         0.58620E-08         0.00000E+00
    0.11649E-05         0.13184E-07         0.00000E+00
    0.11611E-05         0.26826E-07         0.00000E+00
    0.11600E-05         0.35914E-07         0.00000E+00
    0.11597E-05         0.39779E-07         0.00000E+00
    0.11597E-05         0.40921E-07         0.00000E+00
    0.11597E-05         0.40295E-07         0.00000E+00
    0.11597E-05         0.38309E-07         0.00000E+00
    0.11595E-05         0.34526E-07         0.00000E+00
    0.11593E-05         0.29265E-07         0.00000E+00
    0.11590E-05         0.24507E-07         0.00000E+00
    0.11587E-05         0.20941E-07         0.00000E+00
    0.11585E-05         0.17647E-07         0.00000E+00
    0.11580E-05         0.13991E-07         0.00000E+00
    0.11572E-05         0.84868E-08         0.00000E+00
    0.11568E-05         0.49451E-08         0.00000E+00
    0.11722E-05         0.89378E-08         0.00000E+00
    0.11682E-05         0.12815E-07         0.00000E+00
    0.11626E-05         0.15599E-07         0.00000E+00
    0.11606E-05         0.13557E-07         0.00000E+00
    0.11600E-05         0.11964E-07         0.00000E+00
    0.11598E-05         0.11215E-07         0.00000E+00
    0.11598E-05         0.11407E-07         0.00000E+00
    0.11595E-05         0.12181E-07         0.00000E+00
    0.11590E-05         0.13487E-07         0.00000E+00
    0.11585E-05         0.14875E-07         0.00000E+00
    0.11581E-05         0.15066E-07         0.00000E+00
    0.11576E-05         0.13761E-07         0.00000E+00
    0.11571E-05         0.11547E-07         0.00000E+00
    0.11563E-05         0.84517E-08         0.00000E+00
    0.11548E-05         0.44359E-08         0.00000E+00
    0.11539E-05         0.22354E-08         0.00000E+00
    0.11777E-05        -0.10726E-08         0.00000E+00
    0.11720E-05        -0.16974E-08         0.00000E+00
    0.11641E-05        -0.23376E-08         0.00000E+00
    0.11612E-05        -0.18004E-08         0.00000E+00
    0.11604E-05        -0.25650E-09         0.00000E+00
    0.11602E-05         0.17123E-08         0.00000E+00
    0.11602E-05         0.36415E-08         0.00000E+00
    0.11598E-05         0.55024E-08         0.00000E+00
    0.11590E-05         0.70218E-08         0.00000E+00
    0.11579E-05         0.79115E-08         0.00000E+00
    0.11569E-05         0.81818E-08         0.00000E+00
    0.11559E-05         0.77687E-08         0.00000E+00
    0.11548E-05         0.65535E-08         0.00000E+00
    0.11533E-05         0.46377E-08         0.00000E+00
    0.11510E-05         0.23470E-08         0.00000E+00
    0.11496E-05         0.11609E-08         0.00000E+00
    0.11767E-05        -0.34032E-08         0.00000E+00
    0.11716E-05        -0.43138E-08         0.00000E+00
    0.11645E-05        -0.37393E-08         0.00000E+00
    0.11619E-05        -0.12265E-08         0.00000E+00
    0.11612E-05         0.41276E-09         0.00000E+00
    0.11610E-05         0.15248E-08         0.00000E+00
    0.11609E-05         0.23880E-08         0.00000E+00
    0.11605E-05         0.29785E-08         0.00000E+00
    0.11595E-05         0.33729E-08         0.00000E+00
    0.11582E-05         0.36499E-08         0.00000E+00
    0.11566E-05         0.37551E-08         0.00000E+00
    0.11550E-05         0.35640E-08         0.00000E+00
    0.11533E-05         0.29878E-08         0.00000E+00
    0.11514E-05         0.20676E-08         0.00000E+00
    0.11489E-05         0.10111E-08         0.00000E+00
    0.11476E-05         0.48427E-09         0.00000E+00
    0.11728E-05        -0.13041E-08         0.00000E+00
    0.11700E-05        -0.19545E-08         0.00000E+00
    0.11655E-05        -0.22719E-08         0.00000E+00
    0.11631E-05        -0.12978E-08         0.00000E+00
    0.11621E-05        -0.18210E-09         0.00000E+00
    0.11617E-05         0.53369E-09         0.00000E+00
    0.11613E-05         0.86174E-09         0.00000E+00
    0.11607E-05         0.94561E-09         0.00000E+00
    0.11596E-05         0.91577E-09         0.00000E+00
    0.11581E-05         0.87487E-09         0.00000E+00
    0.11564E-05         0.84403E-09         0.00000E+00
    0.11545E-05         0.76928E-09         0.00000E+00
    0.11526E-05         0.59780E-09         0.00000E+00
    0.11504E-05         0.34863E-09         0.00000E+00
    0.11480E-05         0.12688E-09         0.00000E+00
    0.11467E-05         0.40785E-10         0.00000E+00
    0.11701E-05        -0.57526E-09         0.00000E+00
    0.11687E-05        -0.10088E-08         0.00000E+00
    0.11659E-05        -0.15091E-08         0.00000E+00
    0.11637E-05        -0.13697E-08         0.00000E+00
    0.11625E-05        -0.95766E-09         0.00000E+00
    0.11618E-05        -0.66712E-09         0.00000E+00
    0.11612E-05        -0.61651E-09         0.00000E+00
    0.11605E-05        -0.74421E-09         0.00000E+00
    0.11593E-05        -0.93016E-09         0.00000E+00
    0.11579E-05        -0.10746E-08         0.00000E+00
    0.11561E-05        -0.11289E-08         0.00000E+00
    0.11543E-05        -0.10936E-08         0.00000E+00
    0.11523E-05        -0.98323E-09         0.00000E+00
    0.11501E-05        -0.78795E-09         0.00000E+00
    0.11478E-05        -0.46021E-09         0.00000E+00
    0.11467E-05        -0.25514E-09         0.00000E+00
    0.11687E-05        -0.44955E-09         0.00000E+00
    0.11676E-05        -0.81735E-09         0.00000E+00
    0.11655E-05        -0.13864E-08         0.00000E+00
    0.11638E-05        -0.16492E-08         0.00000E+00
    0.11626E-05        -0.17241E-08         0.00000E+00
    0.11617E-05        -0.17871E-08         0.00000E+00
    0.11609E-05        -0.19381E-08         0.00000E+00
    0.11601E-05        -0.21625E-08         0.00000E+00
    0.11590E-05        -0.23855E-08         0.00000E+00
    0.11576E-05        -0.25257E-08         0.00000E+00
    0.11560E-05        -0.25288E-08         0.00000E+00
    0.11542E-05        -0.23712E-08         0.00000E+00
    0.11523E-05        -0.20466E-08         0.00000E+00
    0.11503E-05        -0.15468E-08         0.00000E+00
    0.11482E-05        -0.85256E-09         0.00000E+00
    0.11471E-05        -0.45367E-09         0.00000E+00
    0.11675E-05        -0.45552E-09         0.00000E+00
    0.11666E-05        -0.86297E-09         0.00000E+00
    0.11648E-05        -0.15759E-08         0.00000E+00
    0.11634E-05        -0.20962E-08         0.00000E+00
    0.11622E-05        -0.24741E-08         0.00000E+00
    0.11613E-05        -0.27858E-08         0.00000E+00
    0.11605E-05        -0.30811E-08         0.00000E+00
    0.11596E-05        -0.33570E-08         0.00000E+00
    0.11586E-05        -0.35680E-08         0.00000E+00
    0.11574E-05        -0.36560E-08         0.00000E+00
    0.11560E-05        -0.35727E-08         0.00000E+00
    0.11544E-05        -0.32889E-08         0.00000E+00
    0.11526E-05        -0.27905E-08         0.00000E+00
    0.11508E-05        -0.20702E-08         0.00000E+00
    0.11489E-05        -0.11219E-08         0.00000E+00
    0.11480E-05        -0.59000E-09         0.00000E+00
    0.11663E-05        -0.52341E-09         0.00000E+00
    0.11655E-05        -0.10064E-08         0.00000E+00
    0.11639E-05        -0.18901E-08         0.00000E+00
    0.11627E-05        -0.26140E-08         0.00000E+00
    0.11616E-05        -0.31995E-08         0.00000E+00
    0.11608E-05        -0.36787E-08         0.00000E+00
    0.11600E-05        -0.40719E-08         0.00000E+00
    0.11592E-05        -0.43735E-08         0.00000E+00
    0.11583E-05        -0.45538E-08         0.00000E+00
    0.11572E-05        -0.45723E-08         0.00000E+00
    0.11560E-05        -0.43918E-08         0.00000E+00
    0.11546E-05        -0.39859E-08         0.00000E+00
    0.11531E-05        -0.33405E-08         0.00000E+00
    0.11516E-05        -0.24504E-08         0.00000E+00
    0.11499E-05        -0.13159E-08         0.00000E+00
    0.11491E-05        -0.68789E-09         0.00000E+00
    0.11650E-05        -0.61339E-09         0.00000E+00
    0.11642E-05        -0.11859E-08         0.00000E+00
    0.11629E-05        -0.22481E-08         0.00000E+00
    0.11618E-05        -0.31465E-08         0.00000E+00
    0.11609E-05        -0.38888E-08         0.00000E+00
    0.11601E-05        -0.44867E-08         0.00000E+00
    0.11595E-05        -0.49451E-08         0.00000E+00
    0.11588E-05        -0.52560E-08         0.00000E+00
    0.11580E-05        -0.53984E-08         0.00000E+00
    0.11572E-05        -0.53443E-08         0.00000E+00
    0.11562E-05        -0.50672E-08         0.00000E+00
    0.11550E-05        -0.45472E-08         0.00000E+00
    0.11538E-05        -0.37738E-08         0.00000E+00
    0.11525E-05        -0.27449E-08         0.00000E+00
    0.11511E-05        -0.14647E-08         0.00000E+00
    0.11504E-05        -0.76259E-09         0.00000E+00
    0.11635E-05        -0.71044E-09         0.00000E+00
    0.11628E-05        -0.13758E-08         0.00000E+00
    0.11616E-05        -0.26146E-08         0.00000E+00
    0.11607E-05        -0.36694E-08         0.00000E+00
    0.11600E-05        -0.45401E-08         0.00000E+00
    0.11594E-05        -0.52282E-08         0.00000E+00
    0.11589E-05        -0.57316E-08         0.00000E+00
    0.11584E-05        -0.60419E-08         0.00000E+00
    0.11579E-05        -0.61439E-08         0.00000E+00
    0.11572E-05        -0.60191E-08         0.00000E+00
    0.11565E-05        -0.56502E-08         0.00000E+00
    0.11556E-05        -0.50248E-08         0.00000E+00
    0.11546E-05        -0.41371E-08         0.00000E+00
    0.11535E-05        -0.29887E-08         0.00000E+00
    0.11524E-05        -0.15867E-08         0.00000E+00
    0.11518E-05        -0.82353E-09         0.00000E+00
    0.11618E-05        -0.80845E-09         0.00000E+00
    0.11612E-05        -0.15661E-08         0.00000E+00
    0.11603E-05        -0.29770E-08         0.00000E+00
    0.11595E-05        -0.41763E-08         0.00000E+00
    0.11590E-05        -0.51586E-08         0.00000E+00
    0.11586E-05        -0.59204E-08         0.00000E+00
    0.11583E-05        -0.64567E-08         0.00000E+00
    0.11581E-05        -0.67604E-08         0.00000E+00
    0.11577E-05        -0.68216E-08         0.00000E+00
    0.11573E-05        -0.66293E-08         0.00000E+00
    0.11568E-05        -0.61742E-08         0.00000E+00
    0.11562E-05        -0.54507E-08         0.00000E+00
    0.11555E-05        -0.44584E-08         0.00000E+00
    0.11547E-05        -0.32025E-08         0.00000E+00
    0.11538E-05        -0.16931E-08         0.00000E+00
    0.11533E-05        -0.87644E-09         0.00000E+00
    0.11599E-05        -0.90612E-09         0.00000E+00
    0.11595E-05        -0.17549E-08         0.00000E+00
    0.11587E-05        -0.33337E-08         0.00000E+00
    0.11582E-05        -0.46696E-08         0.00000E+00
    0.11580E-05        -0.57533E-08         0.00000E+00
    0.11578E-05        -0.65785E-08         0.00000E+00
    0.11578E-05        -0.71403E-08         0.00000E+00
    0.11577E-05        -0.74339E-08         0.00000E+00
    0.11577E-05        -0.74543E-08         0.00000E+00
    0.11576E-05        -0.71972E-08         0.00000E+00
    0.11573E-05        -0.66602E-08         0.00000E+00
    0.11570E-05        -0.58442E-08         0.00000E+00
    0.11566E-05        -0.47539E-08         0.00000E+00
    0.11560E-05        -0.33984E-08         0.00000E+00
    0.11553E-05        -0.17901E-08         0.00000E+00
    0.11550E-05        -0.92463E-09         0.00000E+00
    0.11579E-05        -0.10042E-08         0.00000E+00
    0.11575E-05        -0.19438E-08         0.00000E+00
    0.11570E-05        -0.36883E-08         0.00000E+00
    0.11568E-05        -0.51556E-08         0.00000E+00
    0.11568E-05        -0.63338E-08         0.00000E+00
    0.11570E-05        -0.72157E-08         0.00000E+00
    0.11572E-05        -0.77977E-08         0.00000E+00
    0.11575E-05        -0.80783E-08         0.00000E+00
    0.11577E-05        -0.80575E-08         0.00000E+00
    0.11578E-05        -0.77371E-08         0.00000E+00
    0.11579E-05        -0.71212E-08         0.00000E+00
    0.11579E-05        -0.62165E-08         0.00000E+00
    0.11577E-05        -0.50328E-08         0.00000E+00
    0.11574E-05        -0.35827E-08         0.00000E+00
    0.11570E-05        -0.18813E-08         0.00000E+00
    0.11568E-05        -0.96984E-09         0.00000E+00
    0.11556E-05        -0.11044E-08         0.00000E+00
    0.11554E-05        -0.21357E-08         0.00000E+00
    0.11552E-05        -0.40456E-08         0.00000E+00
    0.11553E-05        -0.56412E-08         0.00000E+00
    0.11556E-05        -0.69088E-08         0.00000E+00
    0.11561E-05        -0.78419E-08         0.00000E+00
    0.11566E-05        -0.84394E-08         0.00000E+00
    0.11572E-05        -0.87039E-08         0.00000E+00
    0.11578E-05        -0.86406E-08         0.00000E+00
    0.11582E-05        -0.82573E-08         0.00000E+00
    0.11586E-05        -0.75637E-08         0.00000E+00
    0.11588E-05        -0.65725E-08         0.00000E+00
    0.11589E-05        -0.52984E-08         0.00000E+00
    0.11589E-05        -0.37577E-08         0.00000E+00
    0.11587E-05        -0.19678E-08         0.00000E+00
    0.11586E-05        -0.10127E-08         0.00000E+00
    0.11532E-05        -0.12081E-08         0.00000E+00
    0.11531E-05        -0.23333E-08         0.00000E+00
    0.11532E-05        -0.44105E-08         0.00000E+00
    0.11537E-05        -0.61321E-08         0.00000E+00
    0.11544E-05        -0.74843E-08         0.00000E+00
    0.11552E-05        -0.84631E-08         0.00000E+00
    0.11561E-05        -0.90711E-08         0.00000E+00
    0.11570E-05        -0.93158E-08         0.00000E+00
    0.11579E-05        -0.92078E-08         0.00000E+00
    0.11587E-05        -0.87603E-08         0.00000E+00
    0.11594E-05        -0.79891E-08         0.00000E+00
    0.11599E-05        -0.69123E-08         0.00000E+00
    0.11603E-05        -0.55499E-08         0.00000E+00
    0.11605E-05        -0.39223E-08         0.00000E+00
    0.11606E-05        -0.20487E-08         0.00000E+00
    0.11606E-05        -0.10527E-08         0.00000E+00
    0.11505E-05        -0.13168E-08         0.00000E+00
    0.11507E-05        -0.25388E-08         0.00000E+00
    0.11512E-05        -0.47863E-08         0.00000E+00
    0.11520E-05        -0.66315E-08         0.00000E+00
    0.11531E-05        -0.80630E-08         0.00000E+00
    0.11543E-05        -0.90809E-08         0.00000E+00
    0.11556E-05        -0.96933E-08         0.00000E+00
    0.11569E-05        -0.99134E-08         0.00000E+00
    0.11581E-05        -0.97576E-08         0.00000E+00
    0.11592E-05        -0.92443E-08         0.00000E+00
    0.11602E-05        -0.83945E-08         0.00000E+00
    0.11610E-05        -0.72319E-08         0.00000E+00
    0.11617E-05        -0.57823E-08         0.00000E+00
    0.11622E-05        -0.40716E-08         0.00000E+00
    0.11625E-05        -0.21212E-08         0.00000E+00
    0.11626E-05        -0.10884E-08         0.00000E+00
    0.11476E-05        -0.14310E-08         0.00000E+00
    0.11480E-05        -0.27533E-08         0.00000E+00
    0.11489E-05        -0.51738E-08         0.00000E+00
    0.11502E-05        -0.71392E-08         0.00000E+00
    0.11517E-05        -0.86429E-08         0.00000E+00
    0.11534E-05        -0.96916E-08         0.00000E+00
    0.11551E-05        -0.10301E-07         0.00000E+00
    0.11567E-05        -0.10490E-07         0.00000E+00
    0.11584E-05        -0.10283E-07         0.00000E+00
    0.11598E-05        -0.97028E-08         0.00000E+00
    0.11612E-05        -0.87736E-08         0.00000E+00
    0.11623E-05        -0.75239E-08         0.00000E+00
    0.11632E-05        -0.59867E-08         0.00000E+00
    0.11639E-05        -0.41964E-08         0.00000E+00
    0.11645E-05        -0.21791E-08         0.00000E+00
    0.11647E-05        -0.11161E-08         0.00000E+00
    0.11446E-05        -0.15509E-08         0.00000E+00
    0.11452E-05        -0.29764E-08         0.00000E+00
    0.11466E-05        -0.55714E-08         0.00000E+00
    0.11483E-05        -0.76509E-08         0.00000E+00
    0.11503E-05        -0.92166E-08         0.00000E+00
    0.11524E-05        -0.10285E-07         0.00000E+00
    0.11546E-05        -0.10881E-07         0.00000E+00
    0.11567E-05        -0.11033E-07         0.00000E+00
    0.11587E-05        -0.10772E-07         0.00000E+00
    0.11605E-05        -0.10124E-07         0.00000E+00
    0.11622E-05        -0.91175E-08         0.00000E+00
    0.11637E-05        -0.77806E-08         0.00000E+00
    0.11649E-05        -0.61516E-08         0.00000E+00
    0.11658E-05        -0.42811E-08         0.00000E+00
    0.11665E-05        -0.22105E-08         0.00000E+00
    0.11668E-05        -0.11286E-08         0.00000E+00
    0.11413E-05        -0.16759E-08         0.00000E+00
    0.11421E-05        -0.32064E-08         0.00000E+00
    0.11441E-05        -0.59743E-08         0.00000E+00
    0.11464E-05        -0.81578E-08         0.00000E+00
    0.11489E-05        -0.97706E-08         0.00000E+00
    0.11516E-05        -0.10843E-07         0.00000E+00
    0.11542E-05        -0.11413E-07         0.00000E+00
    0.11567E-05        -0.11520E-07         0.00000E+00
    0.11591E-05        -0.11202E-07         0.00000E+00
    0.11613E-05        -0.10491E-07         0.00000E+00
    0.11633E-05        -0.94131E-08         0.00000E+00
    0.11651E-05        -0.79962E-08         0.00000E+00
    0.11666E-05        -0.62718E-08         0.00000E+00
    0.11677E-05        -0.43049E-08         0.00000E+00
    0.11686E-05        -0.21890E-08         0.00000E+00
    0.11689E-05        -0.11053E-08         0.00000E+00
    0.11377E-05        -0.18044E-08         0.00000E+00
    0.11389E-05        -0.34399E-08         0.00000E+00
    0.11415E-05        -0.63742E-08         0.00000E+00
    0.11444E-05        -0.86452E-08         0.00000E+00
    0.11476E-05        -0.10284E-07         0.00000E+00
    0.11507E-05        -0.11339E-07         0.00000E+00
    0.11538E-05        -0.11866E-07         0.00000E+00
    0.11568E-05        -0.11919E-07         0.00000E+00
    0.11596E-05        -0.11544E-07         0.00000E+00
    0.11622E-05        -0.10777E-07         0.00000E+00
    0.11646E-05        -0.96416E-08         0.00000E+00
    0.11666E-05        -0.81591E-08         0.00000E+00
    0.11684E-05        -0.63568E-08         0.00000E+00
    0.11698E-05        -0.42712E-08         0.00000E+00
    0.11707E-05        -0.20804E-08         0.00000E+00
    0.11709E-05        -0.99785E-09         0.00000E+00
    0.11339E-05        -0.19344E-08         0.00000E+00
    0.11355E-05        -0.36718E-08         0.00000E+00
    0.11388E-05        -0.67589E-08         0.00000E+00
    0.11425E-05        -0.90920E-08         0.00000E+00
    0.11462E-05        -0.10726E-07         0.00000E+00
    0.11499E-05        -0.11736E-07         0.00000E+00
    0.11535E-05        -0.12198E-07         0.00000E+00
    0.11569E-05        -0.12186E-07         0.00000E+00
    0.11601E-05        -0.11755E-07         0.00000E+00
    0.11631E-05        -0.10945E-07         0.00000E+00
    0.11658E-05        -0.97757E-08         0.00000E+00
    0.11682E-05        -0.82513E-08         0.00000E+00
    0.11703E-05        -0.63905E-08         0.00000E+00
    0.11720E-05        -0.42081E-08         0.00000E+00
    0.11728E-05        -0.19584E-08         0.00000E+00
    0.11728E-05        -0.88189E-09         0.00000E+00
    0.11299E-05        -0.20628E-08         0.00000E+00
    0.11319E-05        -0.38950E-08         0.00000E+00
    0.11361E-05        -0.71114E-08         0.00000E+00
    0.11405E-05        -0.94692E-08         0.00000E+00
    0.11449E-05        -0.11058E-07         0.00000E+00
    0.11492E-05        -0.11985E-07         0.00000E+00
    0.11533E-05        -0.12357E-07         0.00000E+00
    0.11572E-05        -0.12266E-07         0.00000E+00
    0.11607E-05        -0.11781E-07         0.00000E+00
    0.11640E-05        -0.10944E-07         0.00000E+00
    0.11671E-05        -0.97711E-08         0.00000E+00
    0.11699E-05        -0.82532E-08         0.00000E+00
    0.11723E-05        -0.63484E-08         0.00000E+00
    0.11742E-05        -0.41336E-08         0.00000E+00
    0.11748E-05        -0.19455E-08         0.00000E+00
    0.11746E-05        -0.91549E-09         0.00000E+00
    0.11257E-05        -0.21858E-08         0.00000E+00
    0.11282E-05        -0.40997E-08         0.00000E+00
    0.11333E-05        -0.74079E-08         0.00000E+00
    0.11386E-05        -0.97372E-08         0.00000E+00
    0.11438E-05        -0.11225E-07         0.00000E+00
    0.11487E-05        -0.12024E-07         0.00000E+00
    0.11533E-05        -0.12276E-07         0.00000E+00
    0.11575E-05        -0.12095E-07         0.00000E+00
    0.11614E-05        -0.11560E-07         0.00000E+00
    0.11650E-05        -0.10716E-07         0.00000E+00
    0.11684E-05        -0.95710E-08         0.00000E+00
    0.11715E-05        -0.81044E-08         0.00000E+00
    0.11744E-05        -0.62280E-08         0.00000E+00
    0.11764E-05        -0.40838E-08         0.00000E+00
    0.11768E-05        -0.20092E-08         0.00000E+00
    0.11765E-05        -0.10201E-08         0.00000E+00
    0.11212E-05        -0.22978E-08         0.00000E+00
    0.11243E-05        -0.42722E-08         0.00000E+00
    0.11306E-05        -0.76149E-08         0.00000E+00
    0.11368E-05        -0.98411E-08         0.00000E+00
    0.11428E-05        -0.11158E-07         0.00000E+00
    0.11483E-05        -0.11777E-07         0.00000E+00
    0.11533E-05        -0.11881E-07         0.00000E+00
    0.11579E-05        -0.11602E-07         0.00000E+00
    0.11621E-05        -0.11027E-07         0.00000E+00
    0.11659E-05        -0.10198E-07         0.00000E+00
    0.11696E-05        -0.91216E-08         0.00000E+00
    0.11730E-05        -0.77469E-08         0.00000E+00
    0.11763E-05        -0.59983E-08         0.00000E+00
    0.11784E-05        -0.40280E-08         0.00000E+00
    0.11787E-05        -0.20480E-08         0.00000E+00
    0.11785E-05        -0.10621E-08         0.00000E+00
    0.11166E-05        -0.23905E-08         0.00000E+00
    0.11204E-05        -0.43913E-08         0.00000E+00
    0.11280E-05        -0.76819E-08         0.00000E+00
    0.11353E-05        -0.97022E-08         0.00000E+00
    0.11420E-05        -0.10763E-07         0.00000E+00
    0.11481E-05        -0.11153E-07         0.00000E+00
    0.11535E-05        -0.11091E-07         0.00000E+00
    0.11583E-05        -0.10719E-07         0.00000E+00
    0.11627E-05        -0.10121E-07         0.00000E+00
    0.11668E-05        -0.93368E-08         0.00000E+00
    0.11707E-05        -0.83674E-08         0.00000E+00
    0.11744E-05        -0.71617E-08         0.00000E+00
    0.11781E-05        -0.56592E-08         0.00000E+00
    0.11803E-05        -0.39189E-08         0.00000E+00
    0.11806E-05        -0.20262E-08         0.00000E+00
    0.11805E-05        -0.10440E-08         0.00000E+00
    0.11118E-05        -0.24495E-08         0.00000E+00
    0.11166E-05        -0.44209E-08         0.00000E+00
    0.11257E-05        -0.75268E-08         0.00000E+00
    0.11341E-05        -0.92035E-08         0.00000E+00
    0.11416E-05        -0.99192E-08         0.00000E+00
    0.11481E-05        -0.10049E-07         0.00000E+00
    0.11538E-05        -0.98299E-08         0.00000E+00
    0.11588E-05        -0.93936E-08         0.00000E+00
    0.11634E-05        -0.88069E-08         0.00000E+00
    0.11676E-05        -0.80991E-08         0.00000E+00
    0.11716E-05        -0.72740E-08         0.00000E+00
    0.11756E-05        -0.63088E-08         0.00000E+00
    0.11795E-05        -0.51400E-08         0.00000E+00
    0.11820E-05        -0.36961E-08         0.00000E+00
    0.11825E-05        -0.19565E-08         0.00000E+00
    0.11825E-05        -0.10142E-08         0.00000E+00
    0.11071E-05        -0.24437E-08         0.00000E+00
    0.11129E-05        -0.42902E-08         0.00000E+00
    0.11239E-05        -0.70046E-08         0.00000E+00
    0.11334E-05        -0.81677E-08         0.00000E+00
    0.11414E-05        -0.84773E-08         0.00000E+00
    0.11483E-05        -0.83688E-08         0.00000E+00
    0.11542E-05        -0.80470E-08         0.00000E+00
    0.11594E-05        -0.76030E-08         0.00000E+00
    0.11640E-05        -0.70778E-08         0.00000E+00
    0.11683E-05        -0.64870E-08         0.00000E+00
    0.11724E-05        -0.58360E-08         0.00000E+00
    0.11765E-05        -0.51424E-08         0.00000E+00
    0.11805E-05        -0.43658E-08         0.00000E+00
    0.11834E-05        -0.33040E-08         0.00000E+00
    0.11843E-05        -0.18028E-08         0.00000E+00
    0.11844E-05        -0.94038E-09         0.00000E+00
    0.11027E-05        -0.23039E-08         0.00000E+00
    0.11098E-05        -0.38434E-08         0.00000E+00
    0.11227E-05        -0.58407E-08         0.00000E+00
    0.11331E-05        -0.63444E-08         0.00000E+00
    0.11415E-05        -0.63030E-08         0.00000E+00
    0.11485E-05        -0.60682E-08         0.00000E+00
    0.11545E-05        -0.57445E-08         0.00000E+00
    0.11598E-05        -0.53741E-08         0.00000E+00
    0.11645E-05        -0.49721E-08         0.00000E+00
    0.11689E-05        -0.45428E-08         0.00000E+00
    0.11730E-05        -0.40887E-08         0.00000E+00
    0.11771E-05        -0.36369E-08         0.00000E+00
    0.11812E-05        -0.32433E-08         0.00000E+00
    0.11844E-05        -0.26534E-08         0.00000E+00
    0.11858E-05        -0.15081E-08         0.00000E+00
    0.11861E-05        -0.77818E-09         0.00000E+00
    0.10993E-05        -0.17294E-08         0.00000E+00
    0.11077E-05        -0.26328E-08         0.00000E+00
    0.11222E-05        -0.35640E-08         0.00000E+00
    0.11330E-05        -0.35392E-08         0.00000E+00
    0.11417E-05        -0.33982E-08         0.00000E+00
    0.11488E-05        -0.32101E-08         0.00000E+00
    0.11549E-05        -0.30055E-08         0.00000E+00
    0.11601E-05        -0.27925E-08         0.00000E+00
    0.11649E-05        -0.25727E-08         0.00000E+00
    0.11692E-05        -0.23451E-08         0.00000E+00
    0.11734E-05        -0.21110E-08         0.00000E+00
    0.11774E-05        -0.18719E-08         0.00000E+00
    0.11815E-05        -0.17009E-08         0.00000E+00
    0.11849E-05        -0.15474E-08         0.00000E+00
    0.11868E-05        -0.10260E-08         0.00000E+00
    0.11873E-05        -0.60786E-09         0.00000E+00
    0.10981E-05         0.00000E+00         0.00000E+00
    0.11069E-05         0.00000E+00         0.00000E+00
    0.11221E-05        -0.32496E-20         0.00000E+00
    0.11331E-05         0.37944E-22         0.00000E+00
    0.11418E-05         0.35615E-20         0.00000E+00
    0.11489E-05         0.00000E+00         0.00000E+00
    0.11550E-05         0.00000E+00         0.00000E+00
    0.11603E-05        -0.33957E-20         0.00000E+00
    0.11650E-05        -0.31127E-20         0.00000E+00
    0.11693E-05         0.31492E-20         0.00000E+00
    0.11735E-05         0.34355E-20         0.00000E+00
    0.11775E-05        -0.34710E-20         0.00000E+00
    0.11816E-05        -0.27542E-21         0.00000E+00
    0.11851E-05         0.34899E-20         0.00000E+00
    0.11872E-05         0.58359E-21         0.00000E+00
    0.11878E-05         0.00000E+00         0.00000E+00
CELL_DATA        450
TENSORS stressef double 
    0.25858E+08         0.41012E+06         0.00000E+00
    0.41012E+06         0.13484E+08         0.00000E+00
    0.00000E+00         0.00000E+00         0.83788E+07
 
    0.26265E+08         0.56709E+06         0.00000E+00
    0.56709E+06         0.14665E+08         0.00000E+00
    0.00000E+00         0.00000E+00         0.96567E+07
 
    0.26416E+08         0.36291E+06         0.00000E+00
    0.36291E+06         0.15533E+08         0.00000E+00
    0.00000E+00         0.00000E+00         0.10149E+08
 
    0.26265E+08         0.96028E+05         0.00000E+00
    0.96028E+05         0.15876E+08         0.00000E+00
    0.00000E+00         0.00000E+00         0.98275E+07
 
    0.25865E+08        -0.15797E+06         0.00000E+00
   -0.15797E+06         0.15671E+08         0.00000E+00
    0.00000E+00         0.00000E+00         0.88486E+07
 
    0.25283E+08        -0.32704E+06         0.00000E+00
   -0.32704E+06         0.15057E+08         0.00000E+00
    0.00000E+00         0.00000E+00         0.73895E+07
 
    0.24485E+08        -0.32768E+06         0.00000E+00
   -0.32768E+06         0.14298E+08         0.00000E+00
    0.00000E+00         0.00000E+00         0.54548E+07
 
    0.23328E+08        -0.12146E+06         0.00000E+00
   -0.12146E+06         0.13752E+08         0.00000E+00
    0.00000E+00         0.00000E+00         0.29964E+07
 
    0.21654E+08        -0.24038E+06         0.00000E+00
   -0.24038E+06         0.13497E+08         0.00000E+00
    0.00000E+00         0.00000E+00         0.49584E+06
 
    0.18035E+08        -0.32773E+06         0.00000E+00
   -0.32773E+06         0.13063E+08         0.00000E+00
    0.00000E+00         0.00000E+00         0.00000E+00
 
    0.14981E+08        -0.11970E+06         0.00000E+00
   -0.11970E+06         0.12730E+08         0.00000E+00
    0.00000E+00         0.00000E+00         0.00000E+00
 
    0.12226E+08         0.87224E+05         0.00000E+00
    0.87224E+05         0.12764E+08         0.00000E+00
    0.00000E+00         0.00000E+00         0.00000E+00
 
    0.94176E+07         0.30263E+06         0.00000E+00
    0.30263E+06         0.13197E+08         0.00000E+00
    0.00000E+00         0.00000E+00         0.00000E+00
 
    0.62906E+07         0.56097E+06         0.00000E+00
    0.56097E+06         0.14091E+08         0.00000E+00
    0.00000E+00         0.00000E+00         0.00000E+00
 
    0.23061E+07         0.10474E+07         0.00000E+00
    0.10474E+07         0.15672E+08         0.00000E+00
    0.00000E+00         0.00000E+00         0.00000E+00
 
    0.24829E+08         0.76121E+06         0.00000E+00
    0.76121E+06         0.10816E+08         0.00000E+00
    0.00000E+00         0.00000E+00         0.54409E+07
 
    0.24538E+08         0.89190E+06         0.00000E+00
    0.89190E+06         0.10004E+08         0.00000E+00
    0.00000E+00         0.00000E+00         0.45932E+07
 
    0.24377E+08         0.71730E+06         0.00000E+00
    0.71730E+06         0.96163E+07         0.00000E+00
    0.00000E+00         0.00000E+00         0.40590E+07
 
    0.24204E+08         0.28902E+06         0.00000E+00
    0.28902E+06         0.96491E+07         0.00000E+00
    0.00000E+00         0.00000E+00         0.34768E+07
 
    0.23909E+08        -0.46850E+05         0.00000E+00
   -0.46850E+05         0.10060E+08         0.00000E+00
    0.00000E+00         0.00000E+00         0.27457E+07
 
    0.23432E+08        -0.22313E+06         0.00000E+00
   -0.22313E+06         0.10795E+08         0.00000E+00
    0.00000E+00         0.00000E+00         0.18438E+07
 
    0.22748E+08        -0.30369E+06         0.00000E+00
   -0.30369E+06         0.11627E+08         0.00000E+00
    0.00000E+00         0.00000E+00         0.79214E+06
 
    0.21592E+08        -0.36780E+06         0.00000E+00
   -0.36780E+06         0.12044E+08         0.00000E+00
    0.00000E+00         0.00000E+00         0.40840E+05
 
    0.19261E+08        -0.60476E+06         0.00000E+00
   -0.60476E+06         0.11841E+08         0.00000E+00
    0.00000E+00         0.00000E+00         0.00000E+00
 
    0.16383E+08        -0.62251E+06         0.00000E+00
   -0.62251E+06         0.11737E+08         0.00000E+00
    0.00000E+00         0.00000E+00         0.00000E+00
 
    0.13435E+08        -0.18456E+06         0.00000E+00
   -0.18456E+06         0.11802E+08         0.00000E+00
    0.00000E+00         0.00000E+00         0.00000E+00
 
    0.10697E+08         0.35467E+06         0.00000E+00
    0.35467E+06         0.12054E+08         0.00000E+00
    0.00000E+00         0.00000E+00         0.00000E+00
 
    0.79360E+07         0.95612E+06         0.00000E+00
    0.95612E+06         0.12601E+08         0.00000E+00
    0.00000E+00         0.00000E+00         0.00000E+00
 
    0.49518E+07         0.17023E+07         0.00000E+00
    0.17023E+07         0.13530E+08         0.00000E+00
    0.00000E+00         0.00000E+00         0.00000E+00
 
    0.16892E+07         0.28759E+07         0.00000E+00
    0.28759E+07         0.14911E+08         0.00000E+00
    0.00000E+00         0.00000E+00         0.00000E+00
 
    0.23508E+08         0.10804E+06         0.00000E+00
    0.10804E+06         0.77534E+07         0.00000E+00
    0.00000E+00         0.00000E+00         0.15665E+07
 
    0.23142E+08         0.62683E+06         0.00000E+00
    0.62683E+06         0.75167E+07         0.00000E+00
    0.00000E+00         0.00000E+00         0.39687E+06
 
    0.22352E+08         0.70522E+06         0.00000E+00
    0.70522E+06         0.76513E+07         0.00000E+00
    0.00000E+00         0.00000E+00         0.46669E+03
 
    0.22037E+08         0.56058E+06         0.00000E+00
    0.56058E+06         0.79867E+07         0.00000E+00
    0.00000E+00         0.00000E+00         0.00000E+00
 
    0.21804E+08         0.40667E+06         0.00000E+00
    0.40667E+06         0.84481E+07         0.00000E+00
    0.00000E+00         0.00000E+00         0.00000E+00
 
    0.21388E+08         0.26134E+06         0.00000E+00
    0.26134E+06         0.88540E+07         0.00000E+00
    0.00000E+00         0.00000E+00         0.00000E+00
 
    0.20682E+08         0.62511E+05         0.00000E+00
    0.62511E+05         0.90973E+07         0.00000E+00
    0.00000E+00         0.00000E+00         0.00000E+00
 
    0.19357E+08        -0.31846E+06         0.00000E+00
   -0.31846E+06         0.92508E+07         0.00000E+00
    0.00000E+00         0.00000E+00         0.00000E+00
 
    0.17273E+08        -0.52595E+06         0.00000E+00
   -0.52595E+06         0.95020E+07         0.00000E+00
    0.00000E+00         0.00000E+00         0.00000E+00
 
    0.14746E+08        -0.38555E+06         0.00000E+00
   -0.38555E+06         0.98497E+07         0.00000E+00
    0.00000E+00         0.00000E+00         0.00000E+00
 
    0.12090E+08         0.99922E+05         0.00000E+00
    0.99922E+05         0.10273E+08         0.00000E+00
    0.00000E+00         0.00000E+00         0.00000E+00
 
    0.94585E+07         0.82163E+06         0.00000E+00
    0.82163E+06         0.10780E+08         0.00000E+00
    0.00000E+00         0.00000E+00         0.00000E+00
 
    0.68235E+07         0.17067E+07         0.00000E+00
    0.17067E+07         0.11466E+08         0.00000E+00
    0.00000E+00         0.00000E+00         0.00000E+00
 
    0.41120E+07         0.28175E+07         0.00000E+00
    0.28175E+07         0.12406E+08         0.00000E+00
    0.00000E+00         0.00000E+00         0.00000E+00
 
    0.13660E+07         0.42905E+07         0.00000E+00
    0.42905E+07         0.13586E+08         0.00000E+00
    0.00000E+00         0.00000E+00         0.00000E+00
 
    0.22157E+08        -0.45536E+05         0.00000E+00
   -0.45536E+05         0.71124E+07         0.00000E+00
    0.00000E+00         0.00000E+00         0.16973E+05
 
    0.21234E+08         0.29265E+06         0.00000E+00
    0.29265E+06         0.70659E+07         0.00000E+00
    0.00000E+00         0.00000E+00         0.00000E+00
 
    0.20522E+08         0.50225E+06         0.00000E+00
    0.50225E+06         0.67706E+07         0.00000E+00
    0.00000E+00         0.00000E+00         0.00000E+00
 
    0.20081E+08         0.65705E+06         0.00000E+00
    0.65705E+06         0.65945E+07         0.00000E+00
    0.00000E+00         0.00000E+00         0.00000E+00
 
    0.19771E+08         0.61522E+06         0.00000E+00
    0.61522E+06         0.65716E+07         0.00000E+00
    0.00000E+00         0.00000E+00         0.00000E+00
 
    0.19301E+08         0.45166E+06         0.00000E+00
    0.45166E+06         0.66402E+07         0.00000E+00
    0.00000E+00         0.00000E+00         0.00000E+00
 
    0.18490E+08         0.20445E+06         0.00000E+00
    0.20445E+06         0.67647E+07         0.00000E+00
    0.00000E+00         0.00000E+00         0.00000E+00
 
    0.17187E+08        -0.44963E+05         0.00000E+00
   -0.44963E+05         0.70008E+07         0.00000E+00
    0.00000E+00         0.00000E+00         0.00000E+00
 
    0.15368E+08        -0.12410E+06         0.00000E+00
   -0.12410E+06         0.73865E+07         0.00000E+00
    0.00000E+00         0.00000E+00         0.00000E+00
 
    0.13180E+08         0.99564E+05         0.00000E+00
    0.99564E+05         0.78906E+07         0.00000E+00
    0.00000E+00         0.00000E+00         0.00000E+00
 
    0.10816E+08         0.64428E+06         0.00000E+00
    0.64428E+06         0.84732E+07         0.00000E+00
    0.00000E+00         0.00000E+00         0.00000E+00
 
    0.83996E+07         0.14658E+07         0.00000E+00
    0.14658E+07         0.91332E+07         0.00000E+00
    0.00000E+00         0.00000E+00         0.00000E+00
 
    0.59710E+07         0.25289E+07         0.00000E+00
    0.25289E+07         0.99042E+07         0.00000E+00
    0.00000E+00         0.00000E+00         0.00000E+00
 
    0.35413E+07         0.38484E+07         0.00000E+00
    0.38484E+07         0.10820E+08         0.00000E+00
    0.00000E+00         0.00000E+00         0.00000E+00
 
    0.11642E+07         0.54707E+07         0.00000E+00
    0.54707E+07         0.11865E+08         0.00000E+00
    0.00000E+00         0.00000E+00         0.00000E+00
 
    0.20328E+08         0.58420E+05         0.00000E+00
    0.58420E+05         0.50886E+07         0.00000E+00
    0.00000E+00         0.00000E+00         0.00000E+00
 
    0.19535E+08         0.13028E+06         0.00000E+00
    0.13028E+06         0.51074E+07         0.00000E+00
    0.00000E+00         0.00000E+00         0.00000E+00
 
    0.18796E+08         0.33315E+06         0.00000E+00
    0.33315E+06         0.50125E+07         0.00000E+00
    0.00000E+00         0.00000E+00         0.00000E+00
 
    0.18252E+08         0.50578E+06         0.00000E+00
    0.50578E+06         0.48719E+07         0.00000E+00
    0.00000E+00         0.00000E+00         0.00000E+00
 
    0.17788E+08         0.56041E+06         0.00000E+00
    0.56041E+06         0.47458E+07         0.00000E+00
    0.00000E+00         0.00000E+00         0.00000E+00
 
    0.17216E+08         0.48906E+06         0.00000E+00
    0.48906E+06         0.47036E+07         0.00000E+00
    0.00000E+00         0.00000E+00         0.00000E+00
 
    0.16371E+08         0.35952E+06         0.00000E+00
    0.35952E+06         0.47841E+07         0.00000E+00
    0.00000E+00         0.00000E+00         0.00000E+00
 
    0.15155E+08         0.27244E+06         0.00000E+00
    0.27244E+06         0.50162E+07         0.00000E+00
    0.00000E+00         0.00000E+00         0.00000E+00
 
    0.13563E+08         0.34622E+06         0.00000E+00
    0.34622E+06         0.54075E+07         0.00000E+00
    0.00000E+00         0.00000E+00         0.00000E+00
 
    0.11673E+08         0.67455E+06         0.00000E+00
    0.67455E+06         0.59323E+07         0.00000E+00
    0.00000E+00         0.00000E+00         0.00000E+00
 
    0.96014E+07         0.12939E+07         0.00000E+00
    0.12939E+07         0.65547E+07         0.00000E+00
    0.00000E+00         0.00000E+00         0.00000E+00
 
    0.74461E+07         0.21966E+07         0.00000E+00
    0.21966E+07         0.72566E+07         0.00000E+00
    0.00000E+00         0.00000E+00         0.00000E+00
 
    0.52676E+07         0.33665E+07         0.00000E+00
    0.33665E+07         0.80402E+07         0.00000E+00
    0.00000E+00         0.00000E+00         0.00000E+00
 
    0.31083E+07         0.48003E+07         0.00000E+00
    0.48003E+07         0.89098E+07         0.00000E+00
    0.00000E+00         0.00000E+00         0.00000E+00
 
    0.10193E+07         0.65007E+07         0.00000E+00
    0.65007E+07         0.98510E+07         0.00000E+00
    0.00000E+00         0.00000E+00         0.00000E+00
 
    0.18468E+08         0.32394E+05         0.00000E+00
    0.32394E+05         0.31682E+07         0.00000E+00
    0.00000E+00         0.00000E+00         0.00000E+00
 
    0.17714E+08         0.11380E+06         0.00000E+00
    0.11380E+06         0.31338E+07         0.00000E+00
    0.00000E+00         0.00000E+00         0.00000E+00
 
    0.17031E+08         0.23536E+06         0.00000E+00
    0.23536E+06         0.30801E+07         0.00000E+00
    0.00000E+00         0.00000E+00         0.00000E+00
 
    0.16434E+08         0.37304E+06         0.00000E+00
    0.37304E+06         0.29804E+07         0.00000E+00
    0.00000E+00         0.00000E+00         0.00000E+00
 
    0.15871E+08         0.46201E+06         0.00000E+00
    0.46201E+06         0.28775E+07         0.00000E+00
    0.00000E+00         0.00000E+00         0.00000E+00
 
    0.15226E+08         0.49060E+06         0.00000E+00
    0.49060E+06         0.28325E+07         0.00000E+00
    0.00000E+00         0.00000E+00         0.00000E+00
 
    0.14382E+08         0.50213E+06         0.00000E+00
    0.50213E+06         0.28999E+07         0.00000E+00
    0.00000E+00         0.00000E+00         0.00000E+00
 
    0.13269E+08         0.57618E+06         0.00000E+00
    0.57618E+06         0.31108E+07         0.00000E+00
    0.00000E+00         0.00000E+00         0.00000E+00
 
    0.11875E+08         0.80061E+06         0.00000E+00
    0.80061E+06         0.34703E+07         0.00000E+00
    0.00000E+00         0.00000E+00         0.00000E+00
 
    0.10245E+08         0.12466E+07         0.00000E+00
    0.12466E+07         0.39608E+07         0.00000E+00
    0.00000E+00         0.00000E+00         0.00000E+00
 
    0.84497E+07         0.19533E+07         0.00000E+00
    0.19533E+07         0.45552E+07         0.00000E+00
    0.00000E+00         0.00000E+00         0.00000E+00
 
    0.65636E+07         0.29305E+07         0.00000E+00
    0.29305E+07         0.52310E+07         0.00000E+00
    0.00000E+00         0.00000E+00         0.00000E+00
 
    0.46456E+07         0.41733E+07         0.00000E+00
    0.41733E+07         0.59752E+07         0.00000E+00
    0.00000E+00         0.00000E+00         0.00000E+00
 
    0.27435E+07         0.56730E+07         0.00000E+00
    0.56730E+07         0.67780E+07         0.00000E+00
    0.00000E+00         0.00000E+00         0.00000E+00
 
    0.90100E+06         0.74168E+07         0.00000E+00
    0.74168E+07         0.76252E+07         0.00000E+00
    0.00000E+00         0.00000E+00         0.00000E+00
 
    0.16568E+08         0.14213E+05         0.00000E+00
    0.14213E+05         0.12145E+07         0.00000E+00
    0.00000E+00         0.00000E+00         0.00000E+00
 
    0.15849E+08         0.71353E+05         0.00000E+00
    0.71353E+05         0.11828E+07         0.00000E+00
    0.00000E+00         0.00000E+00         0.00000E+00
 
    0.15198E+08         0.16374E+06         0.00000E+00
    0.16374E+06         0.11226E+07         0.00000E+00
    0.00000E+00         0.00000E+00         0.00000E+00
 
    0.14596E+08         0.27685E+06         0.00000E+00
    0.27685E+06         0.10443E+07         0.00000E+00
    0.00000E+00         0.00000E+00         0.00000E+00
 
    0.13998E+08         0.38991E+06         0.00000E+00
    0.38991E+06         0.97074E+06         0.00000E+00
    0.00000E+00         0.00000E+00         0.00000E+00
 
    0.13333E+08         0.49890E+06         0.00000E+00
    0.49890E+06         0.94542E+06         0.00000E+00
    0.00000E+00         0.00000E+00         0.00000E+00
 
    0.12523E+08         0.63377E+06         0.00000E+00
    0.63377E+06         0.10119E+07         0.00000E+00
    0.00000E+00         0.00000E+00         0.00000E+00
 
    0.11517E+08         0.85000E+06         0.00000E+00
    0.85000E+06         0.11989E+07         0.00000E+00
    0.00000E+00         0.00000E+00         0.00000E+00
 
    0.10303E+08         0.12113E+07         0.00000E+00
    0.12113E+07         0.15146E+07         0.00000E+00
    0.00000E+00         0.00000E+00         0.00000E+00
 
    0.89031E+07         0.17726E+07         0.00000E+00
    0.17726E+07         0.19493E+07         0.00000E+00
    0.00000E+00         0.00000E+00         0.00000E+00
 
    0.73631E+07         0.25694E+07         0.00000E+00
    0.25694E+07         0.24837E+07         0.00000E+00
    0.00000E+00         0.00000E+00         0.00000E+00
 
    0.57361E+07         0.36174E+07         0.00000E+00
    0.36174E+07         0.30970E+07         0.00000E+00
    0.00000E+00         0.00000E+00         0.00000E+00
 
    0.40718E+07         0.49174E+07         0.00000E+00
    0.49174E+07         0.37720E+07         0.00000E+00
    0.00000E+00         0.00000E+00         0.00000E+00
 
    0.24130E+07         0.64613E+07         0.00000E+00
    0.64613E+07         0.44938E+07         0.00000E+00
    0.00000E+00         0.00000E+00         0.00000E+00
 
    0.79492E+06         0.82334E+07         0.00000E+00
    0.82334E+07         0.52487E+07         0.00000E+00
    0.00000E+00         0.00000E+00         0.00000E+00
 
    0.14621E+08        -0.26837E+04         0.00000E+00
   -0.26837E+04        -0.75442E+06         0.00000E+00
    0.00000E+00         0.00000E+00         0.00000E+00
 
    0.13943E+08         0.26058E+05         0.00000E+00
    0.26058E+05        -0.78710E+06         0.00000E+00
    0.00000E+00         0.00000E+00         0.00000E+00
 
    0.13326E+08         0.97506E+05         0.00000E+00
    0.97506E+05        -0.84394E+06         0.00000E+00
    0.00000E+00         0.00000E+00         0.00000E+00
 
    0.12745E+08         0.20526E+06         0.00000E+00
    0.20526E+06        -0.91151E+06         0.00000E+00
    0.00000E+00         0.00000E+00         0.00000E+00
 
    0.12159E+08         0.34397E+06         0.00000E+00
    0.34397E+06        -0.96700E+06         0.00000E+00
    0.00000E+00         0.00000E+00         0.00000E+00
 
    0.11518E+08         0.51924E+06         0.00000E+00
    0.51924E+06        -0.97962E+06         0.00000E+00
    0.00000E+00         0.00000E+00         0.00000E+00
 
    0.10771E+08         0.75446E+06         0.00000E+00
    0.75446E+06        -0.91741E+06         0.00000E+00
    0.00000E+00         0.00000E+00         0.00000E+00
 
    0.98811E+07         0.10890E+07         0.00000E+00
    0.10890E+07        -0.75715E+06         0.00000E+00
    0.00000E+00         0.00000E+00         0.00000E+00
 
    0.88356E+07         0.15685E+07         0.00000E+00
    0.15685E+07        -0.48952E+06         0.00000E+00
    0.00000E+00         0.00000E+00         0.00000E+00
 
    0.76455E+07         0.22345E+07         0.00000E+00
    0.22345E+07        -0.11863E+06         0.00000E+00
    0.00000E+00         0.00000E+00         0.00000E+00
 
    0.63396E+07         0.31168E+07         0.00000E+00
    0.31168E+07         0.34244E+06         0.00000E+00
    0.00000E+00         0.00000E+00         0.00000E+00
 
    0.49554E+07         0.42313E+07         0.00000E+00
    0.42313E+07         0.87692E+06         0.00000E+00
    0.00000E+00         0.00000E+00         0.00000E+00
 
    0.35312E+07         0.55813E+07         0.00000E+00
    0.55813E+07         0.14682E+07         0.00000E+00
    0.00000E+00         0.00000E+00         0.00000E+00
 
    0.21017E+07         0.71606E+07         0.00000E+00
    0.71606E+07         0.21014E+07         0.00000E+00
    0.00000E+00         0.00000E+00         0.00000E+00
 
    0.69480E+06         0.89555E+07         0.00000E+00
    0.89555E+07         0.27640E+07         0.00000E+00
    0.00000E+00         0.00000E+00         0.00000E+00
 
    0.12625E+08        -0.19733E+05         0.00000E+00
   -0.19733E+05        -0.27399E+07         0.00000E+00
    0.00000E+00         0.00000E+00         0.00000E+00
 
    0.11997E+08        -0.18257E+05         0.00000E+00
   -0.18257E+05        -0.27721E+07         0.00000E+00
    0.00000E+00         0.00000E+00         0.00000E+00
 
    0.11426E+08         0.37372E+05         0.00000E+00
    0.37372E+05        -0.28266E+07         0.00000E+00
    0.00000E+00         0.00000E+00         0.00000E+00
 
    0.10887E+08         0.14663E+06         0.00000E+00
    0.14663E+06        -0.28883E+07         0.00000E+00
    0.00000E+00         0.00000E+00         0.00000E+00
 
    0.10346E+08         0.31184E+06         0.00000E+00
    0.31184E+06        -0.29370E+07         0.00000E+00
    0.00000E+00         0.00000E+00         0.00000E+00
 
    0.97636E+07         0.54264E+06         0.00000E+00
    0.54264E+06        -0.29486E+07         0.00000E+00
    0.00000E+00         0.00000E+00         0.00000E+00
 
    0.91036E+07         0.85894E+06         0.00000E+00
    0.85894E+06        -0.28991E+07         0.00000E+00
    0.00000E+00         0.00000E+00         0.00000E+00
 
    0.83388E+07         0.12898E+07         0.00000E+00
    0.12898E+07        -0.27704E+07         0.00000E+00
    0.00000E+00         0.00000E+00         0.00000E+00
 
    0.74570E+07         0.18684E+07         0.00000E+00
    0.18684E+07        -0.25534E+07         0.00000E+00
    0.00000E+00         0.00000E+00         0.00000E+00
 
    0.64627E+07         0.26258E+07         0.00000E+00
    0.26258E+07        -0.22490E+07         0.00000E+00
    0.00000E+00         0.00000E+00         0.00000E+00
 
    0.53737E+07         0.35855E+07         0.00000E+00
    0.35855E+07        -0.18656E+07         0.00000E+00
    0.00000E+00         0.00000E+00         0.00000E+00
 
    0.42156E+07         0.47612E+07         0.00000E+00
    0.47612E+07        -0.14157E+07         0.00000E+00
    0.00000E+00         0.00000E+00         0.00000E+00
 
    0.30166E+07         0.61571E+07         0.00000E+00
    0.61571E+07        -0.91311E+06         0.00000E+00
    0.00000E+00         0.00000E+00         0.00000E+00
 
    0.18036E+07         0.77687E+07         0.00000E+00
    0.77687E+07        -0.37106E+06         0.00000E+00
    0.00000E+00         0.00000E+00         0.00000E+00
 
    0.59835E+06         0.95850E+07         0.00000E+00
    0.95850E+07         0.19955E+06         0.00000E+00
    0.00000E+00         0.00000E+00         0.00000E+00
 
    0.10582E+08        -0.36697E+05         0.00000E+00
   -0.36697E+05        -0.47416E+07         0.00000E+00
    0.00000E+00         0.00000E+00         0.00000E+00
 
    0.10013E+08        -0.61571E+05         0.00000E+00
   -0.61571E+05        -0.47740E+07         0.00000E+00
    0.00000E+00         0.00000E+00         0.00000E+00
 
    0.95032E+07        -0.19720E+05         0.00000E+00
   -0.19720E+05        -0.48285E+07         0.00000E+00
    0.00000E+00         0.00000E+00         0.00000E+00
 
    0.90267E+07         0.92505E+05         0.00000E+00
    0.92505E+05        -0.48904E+07         0.00000E+00
    0.00000E+00         0.00000E+00         0.00000E+00
 
    0.85546E+07         0.28145E+06         0.00000E+00
    0.28145E+06        -0.49418E+07         0.00000E+00
    0.00000E+00         0.00000E+00         0.00000E+00
 
    0.80559E+07         0.55825E+06         0.00000E+00
    0.55825E+06        -0.49629E+07         0.00000E+00
    0.00000E+00         0.00000E+00         0.00000E+00
 
    0.75018E+07         0.93999E+06         0.00000E+00
    0.93999E+06        -0.49347E+07         0.00000E+00
    0.00000E+00         0.00000E+00         0.00000E+00
 
    0.68706E+07         0.14489E+07         0.00000E+00
    0.14489E+07        -0.48427E+07         0.00000E+00
    0.00000E+00         0.00000E+00         0.00000E+00
 
    0.61512E+07         0.21096E+07         0.00000E+00
    0.21096E+07        -0.46786E+07         0.00000E+00
    0.00000E+00         0.00000E+00         0.00000E+00
 
    0.53436E+07         0.29449E+07         0.00000E+00
    0.29449E+07        -0.44412E+07         0.00000E+00
    0.00000E+00         0.00000E+00         0.00000E+00
 
    0.44582E+07         0.39728E+07         0.00000E+00
    0.39728E+07        -0.41355E+07         0.00000E+00
    0.00000E+00         0.00000E+00         0.00000E+00
 
    0.35118E+07         0.52043E+07         0.00000E+00
    0.52043E+07        -0.37705E+07         0.00000E+00
    0.00000E+00         0.00000E+00         0.00000E+00
 
    0.25247E+07         0.66430E+07         0.00000E+00
    0.66430E+07        -0.33569E+07         0.00000E+00
    0.00000E+00         0.00000E+00         0.00000E+00
 
    0.15167E+07         0.82855E+07         0.00000E+00
    0.82855E+07        -0.29055E+07         0.00000E+00
    0.00000E+00         0.00000E+00         0.00000E+00
 
    0.50495E+06         0.10123E+08         0.00000E+00
    0.10123E+08        -0.24254E+07         0.00000E+00
    0.00000E+00         0.00000E+00         0.00000E+00
 
    0.84905E+07        -0.53833E+05         0.00000E+00
   -0.53833E+05        -0.67601E+07         0.00000E+00
    0.00000E+00         0.00000E+00         0.00000E+00
 
    0.79922E+07        -0.10564E+06         0.00000E+00
   -0.10564E+06        -0.67942E+07         0.00000E+00
    0.00000E+00         0.00000E+00         0.00000E+00
 
    0.75568E+07        -0.78219E+05         0.00000E+00
   -0.78219E+05        -0.68523E+07         0.00000E+00
    0.00000E+00         0.00000E+00         0.00000E+00
 
    0.71609E+07         0.35146E+05         0.00000E+00
    0.35146E+05        -0.69204E+07         0.00000E+00
    0.00000E+00         0.00000E+00         0.00000E+00
 
    0.67783E+07         0.24300E+06         0.00000E+00
    0.24300E+06        -0.69825E+07         0.00000E+00
    0.00000E+00         0.00000E+00         0.00000E+00
 
    0.63825E+07         0.55671E+06         0.00000E+00
    0.55671E+06        -0.70215E+07         0.00000E+00
    0.00000E+00         0.00000E+00         0.00000E+00
 
    0.59493E+07         0.99093E+06         0.00000E+00
    0.99093E+06        -0.70218E+07         0.00000E+00
    0.00000E+00         0.00000E+00         0.00000E+00
 
    0.54599E+07         0.15630E+07         0.00000E+00
    0.15630E+07        -0.69709E+07         0.00000E+00
    0.00000E+00         0.00000E+00         0.00000E+00
 
    0.49034E+07         0.22912E+07         0.00000E+00
    0.22912E+07        -0.68612E+07         0.00000E+00
    0.00000E+00         0.00000E+00         0.00000E+00
 
    0.42769E+07         0.31923E+07         0.00000E+00
    0.31923E+07        -0.66904E+07         0.00000E+00
    0.00000E+00         0.00000E+00         0.00000E+00
 
    0.35854E+07         0.42797E+07         0.00000E+00
    0.42797E+07        -0.64610E+07         0.00000E+00
    0.00000E+00         0.00000E+00         0.00000E+00
 
    0.28394E+07         0.55614E+07         0.00000E+00
    0.55614E+07        -0.61790E+07         0.00000E+00
    0.00000E+00         0.00000E+00         0.00000E+00
 
    0.20529E+07         0.70400E+07         0.00000E+00
    0.70400E+07        -0.58522E+07         0.00000E+00
    0.00000E+00         0.00000E+00         0.00000E+00
 
    0.12401E+07         0.87128E+07         0.00000E+00
    0.87128E+07        -0.54892E+07         0.00000E+00
    0.00000E+00         0.00000E+00         0.00000E+00
 
    0.41451E+06         0.10573E+08         0.00000E+00
    0.10573E+08        -0.50975E+07         0.00000E+00
    0.00000E+00         0.00000E+00         0.00000E+00
 
    0.63491E+07        -0.71998E+05         0.00000E+00
   -0.71998E+05        -0.87959E+07         0.00000E+00
    0.00000E+00         0.00000E+00         0.00000E+00
 
    0.59321E+07        -0.15313E+06         0.00000E+00
   -0.15313E+06        -0.88336E+07         0.00000E+00
    0.00000E+00         0.00000E+00         0.00000E+00
 
    0.55851E+07        -0.14291E+06         0.00000E+00
   -0.14291E+06        -0.88990E+07         0.00000E+00
    0.00000E+00         0.00000E+00         0.00000E+00
 
    0.52858E+07        -0.32239E+05         0.00000E+00
   -0.32239E+05        -0.89789E+07         0.00000E+00
    0.00000E+00         0.00000E+00         0.00000E+00
 
    0.50098E+07         0.18864E+06         0.00000E+00
    0.18864E+06        -0.90582E+07         0.00000E+00
    0.00000E+00         0.00000E+00         0.00000E+00
 
    0.47327E+07         0.53070E+06         0.00000E+00
    0.53070E+06        -0.91218E+07         0.00000E+00
    0.00000E+00         0.00000E+00         0.00000E+00
 
    0.44327E+07         0.10064E+07         0.00000E+00
    0.10064E+07        -0.91559E+07         0.00000E+00
    0.00000E+00         0.00000E+00         0.00000E+00
 
    0.40926E+07         0.16293E+07         0.00000E+00
    0.16293E+07        -0.91496E+07         0.00000E+00
    0.00000E+00         0.00000E+00         0.00000E+00
 
    0.37008E+07         0.24130E+07         0.00000E+00
    0.24130E+07        -0.90954E+07         0.00000E+00
    0.00000E+00         0.00000E+00         0.00000E+00
 
    0.32523E+07         0.33696E+07         0.00000E+00
    0.33696E+07        -0.89903E+07         0.00000E+00
    0.00000E+00         0.00000E+00         0.00000E+00
 
    0.27481E+07         0.45085E+07         0.00000E+00
    0.45085E+07        -0.88349E+07         0.00000E+00
    0.00000E+00         0.00000E+00         0.00000E+00
 
    0.21940E+07         0.58352E+07         0.00000E+00
    0.58352E+07        -0.86330E+07         0.00000E+00
    0.00000E+00         0.00000E+00         0.00000E+00
 
    0.15989E+07         0.73510E+07         0.00000E+00
    0.73510E+07        -0.83900E+07         0.00000E+00
    0.00000E+00         0.00000E+00         0.00000E+00
 
    0.97320E+06         0.90531E+07         0.00000E+00
    0.90531E+07        -0.81123E+07         0.00000E+00
    0.00000E+00         0.00000E+00         0.00000E+00
 
    0.32700E+06         0.10936E+08         0.00000E+00
    0.10936E+08        -0.78063E+07         0.00000E+00
    0.00000E+00         0.00000E+00         0.00000E+00
 
    0.41545E+07        -0.92313E+05         0.00000E+00
   -0.92313E+05        -0.10849E+08         0.00000E+00
    0.00000E+00         0.00000E+00         0.00000E+00
 
    0.38292E+07        -0.20698E+06         0.00000E+00
   -0.20698E+06        -0.10893E+08         0.00000E+00
    0.00000E+00         0.00000E+00         0.00000E+00
 
    0.35840E+07        -0.21831E+06         0.00000E+00
   -0.21831E+06        -0.10969E+08         0.00000E+00
    0.00000E+00         0.00000E+00         0.00000E+00
 
    0.33961E+07        -0.11533E+06         0.00000E+00
   -0.11533E+06        -0.11065E+08         0.00000E+00
    0.00000E+00         0.00000E+00         0.00000E+00
 
    0.32415E+07         0.11228E+06         0.00000E+00
    0.11228E+06        -0.11167E+08         0.00000E+00
    0.00000E+00         0.00000E+00         0.00000E+00
 
    0.30968E+07         0.47476E+06         0.00000E+00
    0.47476E+06        -0.11260E+08         0.00000E+00
    0.00000E+00         0.00000E+00         0.00000E+00
 
    0.29410E+07         0.98253E+06         0.00000E+00
    0.98253E+06        -0.11332E+08         0.00000E+00
    0.00000E+00         0.00000E+00         0.00000E+00
 
    0.27571E+07         0.16461E+07         0.00000E+00
    0.16461E+07        -0.11372E+08         0.00000E+00
    0.00000E+00         0.00000E+00         0.00000E+00
 
    0.25326E+07         0.24752E+07         0.00000E+00
    0.24752E+07        -0.11374E+08         0.00000E+00
    0.00000E+00         0.00000E+00         0.00000E+00
 
    0.22608E+07         0.34784E+07         0.00000E+00
    0.34784E+07        -0.11333E+08         0.00000E+00
    0.00000E+00         0.00000E+00         0.00000E+00
 
    0.19395E+07         0.46619E+07         0.00000E+00
    0.46619E+07        -0.11249E+08         0.00000E+00
    0.00000E+00         0.00000E+00         0.00000E+00
 
    0.15711E+07         0.60288E+07         0.00000E+00
    0.60288E+07        -0.11124E+08         0.00000E+00
    0.00000E+00         0.00000E+00         0.00000E+00
 
    0.11606E+07         0.75790E+07         0.00000E+00
    0.75790E+07        -0.10962E+08         0.00000E+00
    0.00000E+00         0.00000E+00         0.00000E+00
 
    0.71514E+06         0.93094E+07         0.00000E+00
    0.93094E+07        -0.10766E+08         0.00000E+00
    0.00000E+00         0.00000E+00         0.00000E+00
 
    0.24229E+06         0.11214E+08         0.00000E+00
    0.11214E+08        -0.10543E+08         0.00000E+00
    0.00000E+00         0.00000E+00         0.00000E+00
 
    0.19011E+07        -0.11589E+06         0.00000E+00
   -0.11589E+06        -0.12920E+08         0.00000E+00
    0.00000E+00         0.00000E+00         0.00000E+00
 
    0.16784E+07        -0.26997E+06         0.00000E+00
   -0.26997E+06        -0.12971E+08         0.00000E+00
    0.00000E+00         0.00000E+00         0.00000E+00
 
    0.15480E+07        -0.30830E+06         0.00000E+00
   -0.30830E+06        -0.13062E+08         0.00000E+00
    0.00000E+00         0.00000E+00         0.00000E+00
 
    0.14857E+07        -0.21863E+06         0.00000E+00
   -0.21863E+06        -0.13178E+08         0.00000E+00
    0.00000E+00         0.00000E+00         0.00000E+00
 
    0.14664E+07         0.94523E+04         0.00000E+00
    0.94523E+04        -0.13306E+08         0.00000E+00
    0.00000E+00         0.00000E+00         0.00000E+00
 
    0.14664E+07         0.38514E+06         0.00000E+00
    0.38514E+06        -0.13432E+08         0.00000E+00
    0.00000E+00         0.00000E+00         0.00000E+00
 
    0.14646E+07         0.91688E+06         0.00000E+00
    0.91688E+06        -0.13543E+08         0.00000E+00
    0.00000E+00         0.00000E+00         0.00000E+00
 
    0.14435E+07         0.16125E+07         0.00000E+00
    0.16125E+07        -0.13631E+08         0.00000E+00
    0.00000E+00         0.00000E+00         0.00000E+00
 
    0.13897E+07         0.24787E+07         0.00000E+00
    0.24787E+07        -0.13688E+08         0.00000E+00
    0.00000E+00         0.00000E+00         0.00000E+00
 
    0.12946E+07         0.35211E+07         0.00000E+00
    0.35211E+07        -0.13710E+08         0.00000E+00
    0.00000E+00         0.00000E+00         0.00000E+00
 
    0.11538E+07         0.47430E+07         0.00000E+00
    0.47430E+07        -0.13695E+08         0.00000E+00
    0.00000E+00         0.00000E+00         0.00000E+00
 
    0.96660E+06         0.61455E+07         0.00000E+00
    0.61455E+07        -0.13644E+08         0.00000E+00
    0.00000E+00         0.00000E+00         0.00000E+00
 
    0.73549E+06         0.77273E+07         0.00000E+00
    0.77273E+07        -0.13559E+08         0.00000E+00
    0.00000E+00         0.00000E+00         0.00000E+00
 
    0.46483E+06         0.94847E+07         0.00000E+00
    0.94847E+07        -0.13443E+08         0.00000E+00
    0.00000E+00         0.00000E+00         0.00000E+00
 
    0.16013E+06         0.11412E+08         0.00000E+00
    0.11412E+08        -0.13300E+08         0.00000E+00
    0.00000E+00         0.00000E+00         0.00000E+00
 
   -0.41859E+06        -0.14370E+06         0.00000E+00
   -0.14370E+06        -0.15010E+08         0.00000E+00
    0.00000E+00         0.00000E+00         0.00000E+00
 
   -0.52672E+06        -0.34438E+06         0.00000E+00
   -0.34438E+06        -0.15069E+08         0.00000E+00
    0.00000E+00         0.00000E+00         0.00000E+00
 
   -0.52868E+06        -0.41589E+06         0.00000E+00
   -0.41589E+06        -0.15176E+08         0.00000E+00
    0.00000E+00         0.00000E+00         0.00000E+00
 
   -0.45167E+06        -0.34531E+06         0.00000E+00
   -0.34531E+06        -0.15315E+08         0.00000E+00
    0.00000E+00         0.00000E+00         0.00000E+00
 
   -0.32250E+06        -0.12273E+06         0.00000E+00
   -0.12273E+06        -0.15471E+08         0.00000E+00
    0.00000E+00         0.00000E+00         0.00000E+00
 
   -0.16614E+06         0.25971E+06         0.00000E+00
    0.25971E+06        -0.15631E+08         0.00000E+00
    0.00000E+00         0.00000E+00         0.00000E+00
 
   -0.46299E+04         0.80843E+06         0.00000E+00
    0.80843E+06        -0.15784E+08         0.00000E+00
    0.00000E+00         0.00000E+00         0.00000E+00
 
    0.14361E+06         0.15288E+07         0.00000E+00
    0.15288E+07        -0.15919E+08         0.00000E+00
    0.00000E+00         0.00000E+00         0.00000E+00
 
    0.26422E+06         0.24249E+07         0.00000E+00
    0.24249E+07        -0.16031E+08         0.00000E+00
    0.00000E+00         0.00000E+00         0.00000E+00
 
    0.34689E+06         0.34998E+07         0.00000E+00
    0.34998E+07        -0.16113E+08         0.00000E+00
    0.00000E+00         0.00000E+00         0.00000E+00
 
    0.38526E+06         0.47546E+07         0.00000E+00
    0.47546E+07        -0.16164E+08         0.00000E+00
    0.00000E+00         0.00000E+00         0.00000E+00
 
    0.37653E+06         0.61887E+07         0.00000E+00
    0.61887E+07        -0.16184E+08         0.00000E+00
    0.00000E+00         0.00000E+00         0.00000E+00
 
    0.32092E+06         0.77992E+07         0.00000E+00
    0.77992E+07        -0.16173E+08         0.00000E+00
    0.00000E+00         0.00000E+00         0.00000E+00
 
    0.22087E+06         0.95816E+07         0.00000E+00
    0.95816E+07        -0.16133E+08         0.00000E+00
    0.00000E+00         0.00000E+00         0.00000E+00
 
    0.80075E+05         0.11530E+08         0.00000E+00
    0.11530E+08        -0.16067E+08         0.00000E+00
    0.00000E+00         0.00000E+00         0.00000E+00
 
   -0.28135E+07        -0.17647E+06         0.00000E+00
   -0.17647E+06        -0.17117E+08         0.00000E+00
    0.00000E+00         0.00000E+00         0.00000E+00
 
   -0.27934E+07        -0.43189E+06         0.00000E+00
   -0.43189E+06        -0.17186E+08         0.00000E+00
    0.00000E+00         0.00000E+00         0.00000E+00
 
   -0.26525E+07        -0.54306E+06         0.00000E+00
   -0.54306E+06        -0.17311E+08         0.00000E+00
    0.00000E+00         0.00000E+00         0.00000E+00
 
   -0.24219E+07        -0.49722E+06         0.00000E+00
   -0.49722E+06        -0.17473E+08         0.00000E+00
    0.00000E+00         0.00000E+00         0.00000E+00
 
   -0.21313E+07        -0.28555E+06         0.00000E+00
   -0.28555E+06        -0.17659E+08         0.00000E+00
    0.00000E+00         0.00000E+00         0.00000E+00
 
   -0.18075E+07         0.98014E+05         0.00000E+00
    0.98014E+05        -0.17854E+08         0.00000E+00
    0.00000E+00         0.00000E+00         0.00000E+00
 
   -0.14739E+07         0.65766E+06         0.00000E+00
    0.65766E+06        -0.18046E+08         0.00000E+00
    0.00000E+00         0.00000E+00         0.00000E+00
 
   -0.11499E+07         0.13963E+07         0.00000E+00
    0.13963E+07        -0.18228E+08         0.00000E+00
    0.00000E+00         0.00000E+00         0.00000E+00
 
   -0.85097E+06         0.23160E+07         0.00000E+00
    0.23160E+07        -0.18391E+08         0.00000E+00
    0.00000E+00         0.00000E+00         0.00000E+00
 
   -0.58871E+06         0.34173E+07         0.00000E+00
    0.34173E+07        -0.18531E+08         0.00000E+00
    0.00000E+00         0.00000E+00         0.00000E+00
 
   -0.37120E+06         0.46999E+07         0.00000E+00
    0.46999E+07        -0.18645E+08         0.00000E+00
    0.00000E+00         0.00000E+00         0.00000E+00
 
   -0.20313E+06         0.61612E+07         0.00000E+00
    0.61612E+07        -0.18733E+08         0.00000E+00
    0.00000E+00         0.00000E+00         0.00000E+00
 
   -0.85972E+05         0.77972E+07         0.00000E+00
    0.77972E+07        -0.18793E+08         0.00000E+00
    0.00000E+00         0.00000E+00         0.00000E+00
 
   -0.18563E+05         0.96027E+07         0.00000E+00
    0.96027E+07        -0.18827E+08         0.00000E+00
    0.00000E+00         0.00000E+00         0.00000E+00
 
    0.14895E+04         0.11571E+08         0.00000E+00
    0.11571E+08        -0.18837E+08         0.00000E+00
    0.00000E+00         0.00000E+00         0.00000E+00
 
   -0.52937E+07        -0.21466E+06         0.00000E+00
   -0.21466E+06        -0.19243E+08         0.00000E+00
    0.00000E+00         0.00000E+00         0.00000E+00
 
   -0.51294E+07        -0.53342E+06         0.00000E+00
   -0.53342E+06        -0.19322E+08         0.00000E+00
    0.00000E+00         0.00000E+00         0.00000E+00
 
   -0.48296E+07        -0.69065E+06         0.00000E+00
   -0.69065E+06        -0.19465E+08         0.00000E+00
    0.00000E+00         0.00000E+00         0.00000E+00
 
   -0.44306E+07        -0.67467E+06         0.00000E+00
   -0.67467E+06        -0.19651E+08         0.00000E+00
    0.00000E+00         0.00000E+00         0.00000E+00
 
   -0.39654E+07        -0.47853E+06         0.00000E+00
   -0.47853E+06        -0.19865E+08         0.00000E+00
    0.00000E+00         0.00000E+00         0.00000E+00
 
   -0.34635E+07        -0.98600E+05         0.00000E+00
   -0.98600E+05        -0.20093E+08         0.00000E+00
    0.00000E+00         0.00000E+00         0.00000E+00
 
   -0.29494E+07         0.46674E+06         0.00000E+00
    0.46674E+06        -0.20323E+08         0.00000E+00
    0.00000E+00         0.00000E+00         0.00000E+00
 
   -0.24437E+07         0.12180E+07         0.00000E+00
    0.12180E+07        -0.20546E+08         0.00000E+00
    0.00000E+00         0.00000E+00         0.00000E+00
 
   -0.19624E+07         0.21549E+07         0.00000E+00
    0.21549E+07        -0.20757E+08         0.00000E+00
    0.00000E+00         0.00000E+00         0.00000E+00
 
   -0.15183E+07         0.32767E+07         0.00000E+00
    0.32767E+07        -0.20952E+08         0.00000E+00
    0.00000E+00         0.00000E+00         0.00000E+00
 
   -0.11208E+07         0.45816E+07         0.00000E+00
    0.45816E+07        -0.21127E+08         0.00000E+00
    0.00000E+00         0.00000E+00         0.00000E+00
 
   -0.77648E+06         0.60659E+07         0.00000E+00
    0.60659E+07        -0.21279E+08         0.00000E+00
    0.00000E+00         0.00000E+00         0.00000E+00
 
   -0.48840E+06         0.77240E+07         0.00000E+00
    0.77240E+07        -0.21408E+08         0.00000E+00
    0.00000E+00         0.00000E+00         0.00000E+00
 
   -0.25585E+06         0.95496E+07         0.00000E+00
    0.95496E+07        -0.21515E+08         0.00000E+00
    0.00000E+00         0.00000E+00         0.00000E+00
 
   -0.76576E+05         0.11537E+08         0.00000E+00
    0.11537E+08        -0.21600E+08         0.00000E+00
    0.00000E+00         0.00000E+00         0.00000E+00
 
   -0.78699E+07        -0.25849E+06         0.00000E+00
   -0.25849E+06        -0.21387E+08         0.00000E+00
    0.00000E+00         0.00000E+00         0.00000E+00
 
   -0.75423E+07        -0.64912E+06         0.00000E+00
   -0.64912E+06        -0.21477E+08         0.00000E+00
    0.00000E+00         0.00000E+00         0.00000E+00
 
   -0.70658E+07        -0.85824E+06         0.00000E+00
   -0.85824E+06        -0.21637E+08         0.00000E+00
    0.00000E+00         0.00000E+00         0.00000E+00
 
   -0.64824E+07        -0.87630E+06         0.00000E+00
   -0.87630E+06        -0.21846E+08         0.00000E+00
    0.00000E+00         0.00000E+00         0.00000E+00
 
   -0.58295E+07        -0.69925E+06         0.00000E+00
   -0.69925E+06        -0.22085E+08         0.00000E+00
    0.00000E+00         0.00000E+00         0.00000E+00
 
   -0.51390E+07        -0.32668E+06         0.00000E+00
   -0.32668E+06        -0.22341E+08         0.00000E+00
    0.00000E+00         0.00000E+00         0.00000E+00
 
   -0.44369E+07         0.23986E+06         0.00000E+00
    0.23986E+06        -0.22603E+08         0.00000E+00
    0.00000E+00         0.00000E+00         0.00000E+00
 
   -0.37441E+07         0.99816E+06         0.00000E+00
    0.99816E+06        -0.22864E+08         0.00000E+00
    0.00000E+00         0.00000E+00         0.00000E+00
 
   -0.30770E+07         0.19461E+07         0.00000E+00
    0.19461E+07        -0.23118E+08         0.00000E+00
    0.00000E+00         0.00000E+00         0.00000E+00
 
   -0.24485E+07         0.30815E+07         0.00000E+00
    0.30815E+07        -0.23362E+08         0.00000E+00
    0.00000E+00         0.00000E+00         0.00000E+00
 
   -0.18692E+07         0.44022E+07         0.00000E+00
    0.44022E+07        -0.23593E+08         0.00000E+00
    0.00000E+00         0.00000E+00         0.00000E+00
 
   -0.13479E+07         0.59043E+07         0.00000E+00
    0.59043E+07        -0.23809E+08         0.00000E+00
    0.00000E+00         0.00000E+00         0.00000E+00
 
   -0.88986E+06         0.75811E+07         0.00000E+00
    0.75811E+07        -0.24007E+08         0.00000E+00
    0.00000E+00         0.00000E+00         0.00000E+00
 
   -0.49423E+06         0.94236E+07         0.00000E+00
    0.94236E+07        -0.24185E+08         0.00000E+00
    0.00000E+00         0.00000E+00         0.00000E+00
 
   -0.15569E+06         0.11426E+08         0.00000E+00
    0.11426E+08        -0.24345E+08         0.00000E+00
    0.00000E+00         0.00000E+00         0.00000E+00
 
   -0.10553E+08        -0.30787E+06         0.00000E+00
   -0.30787E+06        -0.23551E+08         0.00000E+00
    0.00000E+00         0.00000E+00         0.00000E+00
 
   -0.10039E+08        -0.77833E+06         0.00000E+00
   -0.77833E+06        -0.23651E+08         0.00000E+00
    0.00000E+00         0.00000E+00         0.00000E+00
 
   -0.93658E+07        -0.10441E+07         0.00000E+00
   -0.10441E+07        -0.23826E+08         0.00000E+00
    0.00000E+00         0.00000E+00         0.00000E+00
 
   -0.85809E+07        -0.10989E+07         0.00000E+00
   -0.10989E+07        -0.24054E+08         0.00000E+00
    0.00000E+00         0.00000E+00         0.00000E+00
 
   -0.77269E+07        -0.94302E+06         0.00000E+00
   -0.94302E+06        -0.24314E+08         0.00000E+00
    0.00000E+00         0.00000E+00         0.00000E+00
 
   -0.68381E+07        -0.58031E+06         0.00000E+00
   -0.58031E+06        -0.24592E+08         0.00000E+00
    0.00000E+00         0.00000E+00         0.00000E+00
 
   -0.59415E+07        -0.16294E+05         0.00000E+00
   -0.16294E+05        -0.24878E+08         0.00000E+00
    0.00000E+00         0.00000E+00         0.00000E+00
 
   -0.50577E+07         0.74372E+06         0.00000E+00
    0.74372E+06        -0.25167E+08         0.00000E+00
    0.00000E+00         0.00000E+00         0.00000E+00
 
   -0.42021E+07         0.16956E+07         0.00000E+00
    0.16956E+07        -0.25456E+08         0.00000E+00
    0.00000E+00         0.00000E+00         0.00000E+00
 
   -0.33873E+07         0.28365E+07         0.00000E+00
    0.28365E+07        -0.25743E+08         0.00000E+00
    0.00000E+00         0.00000E+00         0.00000E+00
 
   -0.26241E+07         0.41645E+07         0.00000E+00
    0.41645E+07        -0.26027E+08         0.00000E+00
    0.00000E+00         0.00000E+00         0.00000E+00
 
   -0.19229E+07         0.56765E+07         0.00000E+00
    0.56765E+07        -0.26305E+08         0.00000E+00
    0.00000E+00         0.00000E+00         0.00000E+00
 
   -0.12937E+07         0.73674E+07         0.00000E+00
    0.73674E+07        -0.26574E+08         0.00000E+00
    0.00000E+00         0.00000E+00         0.00000E+00
 
   -0.73809E+06         0.92239E+07         0.00000E+00
    0.92239E+07        -0.26827E+08         0.00000E+00
    0.00000E+00         0.00000E+00         0.00000E+00
 
   -0.23889E+06         0.11236E+08         0.00000E+00
    0.11236E+08        -0.27066E+08         0.00000E+00
    0.00000E+00         0.00000E+00         0.00000E+00
 
   -0.13352E+08        -0.36250E+06         0.00000E+00
   -0.36250E+06        -0.25735E+08         0.00000E+00
    0.00000E+00         0.00000E+00         0.00000E+00
 
   -0.12626E+08        -0.91956E+06         0.00000E+00
   -0.91956E+06        -0.25843E+08         0.00000E+00
    0.00000E+00         0.00000E+00         0.00000E+00
 
   -0.11733E+08        -0.12448E+07         0.00000E+00
   -0.12448E+07        -0.26031E+08         0.00000E+00
    0.00000E+00         0.00000E+00         0.00000E+00
 
   -0.10728E+08        -0.13372E+07         0.00000E+00
   -0.13372E+07        -0.26272E+08         0.00000E+00
    0.00000E+00         0.00000E+00         0.00000E+00
 
   -0.96593E+07        -0.12025E+07         0.00000E+00
   -0.12025E+07        -0.26545E+08         0.00000E+00
    0.00000E+00         0.00000E+00         0.00000E+00
 
   -0.85637E+07        -0.85066E+06         0.00000E+00
   -0.85066E+06        -0.26835E+08         0.00000E+00
    0.00000E+00         0.00000E+00         0.00000E+00
 
   -0.74680E+07        -0.29204E+06         0.00000E+00
   -0.29204E+06        -0.27135E+08         0.00000E+00
    0.00000E+00         0.00000E+00         0.00000E+00
 
   -0.63912E+07         0.46432E+06         0.00000E+00
    0.46432E+06        -0.27441E+08         0.00000E+00
    0.00000E+00         0.00000E+00         0.00000E+00
 
   -0.53465E+07         0.14122E+07         0.00000E+00
    0.14122E+07        -0.27754E+08         0.00000E+00
    0.00000E+00         0.00000E+00         0.00000E+00
 
   -0.43445E+07         0.25485E+07         0.00000E+00
    0.25485E+07        -0.28075E+08         0.00000E+00
    0.00000E+00         0.00000E+00         0.00000E+00
 
   -0.33955E+07         0.38724E+07         0.00000E+00
    0.38724E+07        -0.28404E+08         0.00000E+00
    0.00000E+00         0.00000E+00         0.00000E+00
 
   -0.25116E+07         0.53826E+07         0.00000E+00
    0.53826E+07        -0.28741E+08         0.00000E+00
    0.00000E+00         0.00000E+00         0.00000E+00
 
   -0.17052E+07         0.70752E+07         0.00000E+00
    0.70752E+07        -0.29081E+08         0.00000E+00
    0.00000E+00         0.00000E+00         0.00000E+00
 
   -0.99458E+06         0.89425E+07         0.00000E+00
    0.89425E+07        -0.29423E+08         0.00000E+00
    0.00000E+00         0.00000E+00         0.00000E+00
 
   -0.33315E+06         0.10949E+08         0.00000E+00
    0.10949E+08        -0.29775E+08         0.00000E+00
    0.00000E+00         0.00000E+00         0.00000E+00
 
   -0.16278E+08        -0.42182E+06         0.00000E+00
   -0.42182E+06        -0.27938E+08         0.00000E+00
    0.00000E+00         0.00000E+00         0.00000E+00
 
   -0.15308E+08        -0.10704E+07         0.00000E+00
   -0.10704E+07        -0.28053E+08         0.00000E+00
    0.00000E+00         0.00000E+00         0.00000E+00
 
   -0.14167E+08        -0.14556E+07         0.00000E+00
   -0.14556E+07        -0.28250E+08         0.00000E+00
    0.00000E+00         0.00000E+00         0.00000E+00
 
   -0.12923E+08        -0.15833E+07         0.00000E+00
   -0.15833E+07        -0.28496E+08         0.00000E+00
    0.00000E+00         0.00000E+00         0.00000E+00
 
   -0.11627E+08        -0.14675E+07         0.00000E+00
   -0.14675E+07        -0.28771E+08         0.00000E+00
    0.00000E+00         0.00000E+00         0.00000E+00
 
   -0.10317E+08        -0.11255E+07         0.00000E+00
   -0.11255E+07        -0.29060E+08         0.00000E+00
    0.00000E+00         0.00000E+00         0.00000E+00
 
   -0.90205E+07        -0.57420E+06         0.00000E+00
   -0.57420E+06        -0.29359E+08         0.00000E+00
    0.00000E+00         0.00000E+00         0.00000E+00
 
   -0.77518E+07         0.17311E+06         0.00000E+00
    0.17311E+06        -0.29667E+08         0.00000E+00
    0.00000E+00         0.00000E+00         0.00000E+00
 
   -0.65204E+07         0.11080E+07         0.00000E+00
    0.11080E+07        -0.29989E+08         0.00000E+00
    0.00000E+00         0.00000E+00         0.00000E+00
 
   -0.53327E+07         0.22273E+07         0.00000E+00
    0.22273E+07        -0.30331E+08         0.00000E+00
    0.00000E+00         0.00000E+00         0.00000E+00
 
   -0.41965E+07         0.35326E+07         0.00000E+00
    0.35326E+07        -0.30696E+08         0.00000E+00
    0.00000E+00         0.00000E+00         0.00000E+00
 
   -0.31268E+07         0.50272E+07         0.00000E+00
    0.50272E+07        -0.31083E+08         0.00000E+00
    0.00000E+00         0.00000E+00         0.00000E+00
 
   -0.21415E+07         0.67057E+07         0.00000E+00
    0.67057E+07        -0.31488E+08         0.00000E+00
    0.00000E+00         0.00000E+00         0.00000E+00
 
   -0.12645E+07         0.85568E+07         0.00000E+00
    0.85568E+07        -0.31905E+08         0.00000E+00
    0.00000E+00         0.00000E+00         0.00000E+00
 
   -0.57643E+06         0.10479E+08         0.00000E+00
    0.10479E+08        -0.32415E+08         0.00000E+00
    0.00000E+00         0.00000E+00        -0.14946E+06
 
   -0.19337E+08        -0.48507E+06         0.00000E+00
   -0.48507E+06        -0.30162E+08         0.00000E+00
    0.00000E+00         0.00000E+00         0.00000E+00
 
   -0.18085E+08        -0.12275E+07         0.00000E+00
   -0.12275E+07        -0.30282E+08         0.00000E+00
    0.00000E+00         0.00000E+00         0.00000E+00
 
   -0.16667E+08        -0.16693E+07         0.00000E+00
   -0.16693E+07        -0.30480E+08         0.00000E+00
    0.00000E+00         0.00000E+00         0.00000E+00
 
   -0.15162E+08        -0.18264E+07         0.00000E+00
   -0.18264E+07        -0.30723E+08         0.00000E+00
    0.00000E+00         0.00000E+00         0.00000E+00
 
   -0.13626E+08        -0.17238E+07         0.00000E+00
   -0.17238E+07        -0.30985E+08         0.00000E+00
    0.00000E+00         0.00000E+00         0.00000E+00
 
   -0.12099E+08        -0.13888E+07         0.00000E+00
   -0.13888E+07        -0.31256E+08         0.00000E+00
    0.00000E+00         0.00000E+00         0.00000E+00
 
   -0.10603E+08        -0.84585E+06         0.00000E+00
   -0.84585E+06        -0.31534E+08         0.00000E+00
    0.00000E+00         0.00000E+00         0.00000E+00
 
   -0.91474E+07        -0.11311E+06         0.00000E+00
   -0.11311E+06        -0.31826E+08         0.00000E+00
    0.00000E+00         0.00000E+00         0.00000E+00
 
   -0.77353E+07         0.79874E+06         0.00000E+00
    0.79874E+06        -0.32139E+08         0.00000E+00
    0.00000E+00         0.00000E+00         0.00000E+00
 
   -0.63667E+07         0.18870E+07         0.00000E+00
    0.18870E+07        -0.32484E+08         0.00000E+00
    0.00000E+00         0.00000E+00         0.00000E+00
 
   -0.50444E+07         0.31559E+07         0.00000E+00
    0.31559E+07        -0.32869E+08         0.00000E+00
    0.00000E+00         0.00000E+00         0.00000E+00
 
   -0.37807E+07         0.46157E+07         0.00000E+00
    0.46157E+07        -0.33297E+08         0.00000E+00
    0.00000E+00         0.00000E+00         0.00000E+00
 
   -0.26180E+07         0.62759E+07         0.00000E+00
    0.62759E+07        -0.33758E+08         0.00000E+00
    0.00000E+00         0.00000E+00         0.00000E+00
 
   -0.15457E+07         0.81056E+07         0.00000E+00
    0.81056E+07        -0.34250E+08         0.00000E+00
    0.00000E+00         0.00000E+00        -0.51952E+04
 
   -0.11371E+07         0.98496E+07         0.00000E+00
    0.98496E+07        -0.34813E+08         0.00000E+00
    0.00000E+00         0.00000E+00        -0.64062E+06
 
   -0.22535E+08        -0.55126E+06         0.00000E+00
   -0.55126E+06        -0.32408E+08         0.00000E+00
    0.00000E+00         0.00000E+00         0.00000E+00
 
   -0.20955E+08        -0.13862E+07         0.00000E+00
   -0.13862E+07        -0.32528E+08         0.00000E+00
    0.00000E+00         0.00000E+00         0.00000E+00
 
   -0.19226E+08        -0.18764E+07         0.00000E+00
   -0.18764E+07        -0.32721E+08         0.00000E+00
    0.00000E+00         0.00000E+00         0.00000E+00
 
   -0.17437E+08        -0.20521E+07         0.00000E+00
   -0.20521E+07        -0.32945E+08         0.00000E+00
    0.00000E+00         0.00000E+00         0.00000E+00
 
   -0.15652E+08        -0.19535E+07         0.00000E+00
   -0.19535E+07        -0.33176E+08         0.00000E+00
    0.00000E+00         0.00000E+00         0.00000E+00
 
   -0.13907E+08        -0.16205E+07         0.00000E+00
   -0.16205E+07        -0.33407E+08         0.00000E+00
    0.00000E+00         0.00000E+00         0.00000E+00
 
   -0.12219E+08        -0.10864E+07         0.00000E+00
   -0.10864E+07        -0.33642E+08         0.00000E+00
    0.00000E+00         0.00000E+00         0.00000E+00
 
   -0.10586E+08        -0.37434E+06         0.00000E+00
   -0.37434E+06        -0.33894E+08         0.00000E+00
    0.00000E+00         0.00000E+00         0.00000E+00
 
   -0.90042E+07         0.50321E+06         0.00000E+00
    0.50321E+06        -0.34178E+08         0.00000E+00
    0.00000E+00         0.00000E+00         0.00000E+00
 
   -0.74631E+07         0.15446E+07         0.00000E+00
    0.15446E+07        -0.34508E+08         0.00000E+00
    0.00000E+00         0.00000E+00         0.00000E+00
 
   -0.59584E+07         0.27586E+07         0.00000E+00
    0.27586E+07        -0.34895E+08         0.00000E+00
    0.00000E+00         0.00000E+00         0.00000E+00
 
   -0.44954E+07         0.41616E+07         0.00000E+00
    0.41616E+07        -0.35345E+08         0.00000E+00
    0.00000E+00         0.00000E+00         0.00000E+00
 
   -0.31103E+07         0.57845E+07         0.00000E+00
    0.57845E+07        -0.35848E+08         0.00000E+00
    0.00000E+00         0.00000E+00         0.00000E+00
 
   -0.20004E+07         0.75511E+07         0.00000E+00
    0.75511E+07        -0.36421E+08         0.00000E+00
    0.00000E+00         0.00000E+00        -0.21713E+06
 
   -0.17431E+07         0.92264E+07         0.00000E+00
    0.92264E+07        -0.37041E+08         0.00000E+00
    0.00000E+00         0.00000E+00        -0.11881E+07
 
   -0.25875E+08        -0.61921E+06         0.00000E+00
   -0.61921E+06        -0.34676E+08         0.00000E+00
    0.00000E+00         0.00000E+00         0.00000E+00
 
   -0.23912E+08        -0.15401E+07         0.00000E+00
   -0.15401E+07        -0.34793E+08         0.00000E+00
    0.00000E+00         0.00000E+00         0.00000E+00
 
   -0.21830E+08        -0.20634E+07         0.00000E+00
   -0.20634E+07        -0.34967E+08         0.00000E+00
    0.00000E+00         0.00000E+00         0.00000E+00
 
   -0.19736E+08        -0.22407E+07         0.00000E+00
   -0.22407E+07        -0.35152E+08         0.00000E+00
    0.00000E+00         0.00000E+00         0.00000E+00
 
   -0.17697E+08        -0.21331E+07         0.00000E+00
   -0.21331E+07        -0.35327E+08         0.00000E+00
    0.00000E+00         0.00000E+00         0.00000E+00
 
   -0.15741E+08        -0.17961E+07         0.00000E+00
   -0.17961E+07        -0.35491E+08         0.00000E+00
    0.00000E+00         0.00000E+00         0.00000E+00
 
   -0.13872E+08        -0.12722E+07         0.00000E+00
   -0.12722E+07        -0.35658E+08         0.00000E+00
    0.00000E+00         0.00000E+00         0.00000E+00
 
   -0.12079E+08        -0.58865E+06         0.00000E+00
   -0.58865E+06        -0.35847E+08         0.00000E+00
    0.00000E+00         0.00000E+00         0.00000E+00
 
   -0.10342E+08         0.24150E+06         0.00000E+00
    0.24150E+06        -0.36079E+08         0.00000E+00
    0.00000E+00         0.00000E+00         0.00000E+00
 
   -0.86406E+07         0.12184E+07         0.00000E+00
    0.12184E+07        -0.36374E+08         0.00000E+00
    0.00000E+00         0.00000E+00         0.00000E+00
 
   -0.69582E+07         0.23557E+07         0.00000E+00
    0.23557E+07        -0.36749E+08         0.00000E+00
    0.00000E+00         0.00000E+00         0.00000E+00
 
   -0.52920E+07         0.36839E+07         0.00000E+00
    0.36839E+07        -0.37211E+08         0.00000E+00
    0.00000E+00         0.00000E+00         0.00000E+00
 
   -0.36314E+07         0.52470E+07         0.00000E+00
    0.52470E+07        -0.37755E+08         0.00000E+00
    0.00000E+00         0.00000E+00         0.00000E+00
 
   -0.26433E+07         0.68956E+07         0.00000E+00
    0.68956E+07        -0.38387E+08         0.00000E+00
    0.00000E+00         0.00000E+00        -0.65235E+06
 
   -0.22925E+07         0.85728E+07         0.00000E+00
    0.85728E+07        -0.39075E+08         0.00000E+00
    0.00000E+00         0.00000E+00        -0.16905E+07
 
   -0.29354E+08        -0.68738E+06         0.00000E+00
   -0.68738E+06        -0.36967E+08         0.00000E+00
    0.00000E+00         0.00000E+00         0.00000E+00
 
   -0.26938E+08        -0.16799E+07         0.00000E+00
   -0.16799E+07        -0.37073E+08         0.00000E+00
    0.00000E+00         0.00000E+00         0.00000E+00
 
   -0.24459E+08        -0.22109E+07         0.00000E+00
   -0.22109E+07        -0.37211E+08         0.00000E+00
    0.00000E+00         0.00000E+00         0.00000E+00
 
   -0.22043E+08        -0.23653E+07         0.00000E+00
   -0.23653E+07        -0.37330E+08         0.00000E+00
    0.00000E+00         0.00000E+00         0.00000E+00
 
   -0.19751E+08        -0.22330E+07         0.00000E+00
   -0.22330E+07        -0.37415E+08         0.00000E+00
    0.00000E+00         0.00000E+00         0.00000E+00
 
   -0.17599E+08        -0.18873E+07         0.00000E+00
   -0.18873E+07        -0.37480E+08         0.00000E+00
    0.00000E+00         0.00000E+00         0.00000E+00
 
   -0.15570E+08        -0.13783E+07         0.00000E+00
   -0.13783E+07        -0.37550E+08         0.00000E+00
    0.00000E+00         0.00000E+00         0.00000E+00
 
   -0.13636E+08        -0.73453E+06         0.00000E+00
   -0.73453E+06        -0.37653E+08         0.00000E+00
    0.00000E+00         0.00000E+00         0.00000E+00
 
   -0.11764E+08         0.32257E+05         0.00000E+00
    0.32257E+05        -0.37815E+08         0.00000E+00
    0.00000E+00         0.00000E+00         0.00000E+00
 
   -0.99200E+07         0.92465E+06         0.00000E+00
    0.92465E+06        -0.38059E+08         0.00000E+00
    0.00000E+00         0.00000E+00         0.00000E+00
 
   -0.80712E+07         0.19596E+07         0.00000E+00
    0.19596E+07        -0.38407E+08         0.00000E+00
    0.00000E+00         0.00000E+00         0.00000E+00
 
   -0.61887E+07         0.31752E+07         0.00000E+00
    0.31752E+07        -0.38876E+08         0.00000E+00
    0.00000E+00         0.00000E+00         0.00000E+00
 
   -0.42979E+07         0.46276E+07         0.00000E+00
    0.46276E+07        -0.39477E+08         0.00000E+00
    0.00000E+00         0.00000E+00        -0.47945E+05
 
   -0.33370E+07         0.61832E+07         0.00000E+00
    0.61832E+07        -0.40189E+08         0.00000E+00
    0.00000E+00         0.00000E+00        -0.10371E+07
 
   -0.28198E+07         0.78698E+07         0.00000E+00
    0.78698E+07        -0.40940E+08         0.00000E+00
    0.00000E+00         0.00000E+00        -0.21320E+07
 
   -0.32966E+08        -0.75356E+06         0.00000E+00
   -0.75356E+06        -0.39281E+08         0.00000E+00
    0.00000E+00         0.00000E+00         0.00000E+00
 
   -0.30007E+08        -0.17902E+07         0.00000E+00
   -0.17902E+07        -0.39365E+08         0.00000E+00
    0.00000E+00         0.00000E+00         0.00000E+00
 
   -0.27082E+08        -0.22886E+07         0.00000E+00
   -0.22886E+07        -0.39437E+08         0.00000E+00
    0.00000E+00         0.00000E+00         0.00000E+00
 
   -0.24334E+08        -0.23880E+07         0.00000E+00
   -0.23880E+07        -0.39446E+08         0.00000E+00
    0.00000E+00         0.00000E+00         0.00000E+00
 
   -0.21807E+08        -0.22166E+07         0.00000E+00
   -0.22166E+07        -0.39399E+08         0.00000E+00
    0.00000E+00         0.00000E+00         0.00000E+00
 
   -0.19485E+08        -0.18637E+07         0.00000E+00
   -0.18637E+07        -0.39330E+08         0.00000E+00
    0.00000E+00         0.00000E+00         0.00000E+00
 
   -0.17324E+08        -0.13810E+07         0.00000E+00
   -0.13810E+07        -0.39276E+08         0.00000E+00
    0.00000E+00         0.00000E+00         0.00000E+00
 
   -0.15275E+08        -0.79410E+06         0.00000E+00
   -0.79410E+06        -0.39274E+08         0.00000E+00
    0.00000E+00         0.00000E+00         0.00000E+00
 
   -0.13291E+08        -0.11069E+06         0.00000E+00
   -0.11069E+06        -0.39353E+08         0.00000E+00
    0.00000E+00         0.00000E+00         0.00000E+00
 
   -0.11324E+08         0.67464E+06         0.00000E+00
    0.67464E+06        -0.39537E+08         0.00000E+00
    0.00000E+00         0.00000E+00         0.00000E+00
 
   -0.93271E+07         0.15800E+07         0.00000E+00
    0.15800E+07        -0.39850E+08         0.00000E+00
    0.00000E+00         0.00000E+00         0.00000E+00
 
   -0.72423E+07         0.26425E+07         0.00000E+00
    0.26425E+07        -0.40321E+08         0.00000E+00
    0.00000E+00         0.00000E+00         0.00000E+00
 
   -0.51442E+07         0.39176E+07         0.00000E+00
    0.39176E+07        -0.40974E+08         0.00000E+00
    0.00000E+00         0.00000E+00        -0.12970E+06
 
   -0.40439E+07         0.53868E+07         0.00000E+00
    0.53868E+07        -0.41779E+08         0.00000E+00
    0.00000E+00         0.00000E+00        -0.13075E+07
 
   -0.33323E+07         0.70818E+07         0.00000E+00
    0.70818E+07        -0.42637E+08         0.00000E+00
    0.00000E+00         0.00000E+00        -0.25025E+07
 
   -0.36690E+08        -0.81383E+06         0.00000E+00
   -0.81383E+06        -0.41618E+08         0.00000E+00
    0.00000E+00         0.00000E+00         0.00000E+00
 
   -0.33069E+08        -0.18428E+07         0.00000E+00
   -0.18428E+07        -0.41657E+08         0.00000E+00
    0.00000E+00         0.00000E+00         0.00000E+00
 
   -0.29654E+08        -0.22468E+07         0.00000E+00
   -0.22468E+07        -0.41610E+08         0.00000E+00
    0.00000E+00         0.00000E+00         0.00000E+00
 
   -0.26590E+08        -0.22568E+07         0.00000E+00
   -0.22568E+07        -0.41446E+08         0.00000E+00
    0.00000E+00         0.00000E+00         0.00000E+00
 
   -0.23866E+08        -0.20430E+07         0.00000E+00
   -0.20430E+07        -0.41216E+08         0.00000E+00
    0.00000E+00         0.00000E+00         0.00000E+00
 
   -0.21412E+08        -0.16974E+07         0.00000E+00
   -0.16974E+07        -0.40978E+08         0.00000E+00
    0.00000E+00         0.00000E+00         0.00000E+00
 
   -0.19152E+08        -0.12630E+07         0.00000E+00
   -0.12630E+07        -0.40783E+08         0.00000E+00
    0.00000E+00         0.00000E+00         0.00000E+00
 
   -0.17016E+08        -0.75698E+06         0.00000E+00
   -0.75698E+06        -0.40667E+08         0.00000E+00
    0.00000E+00         0.00000E+00         0.00000E+00
 
   -0.14944E+08        -0.18154E+06         0.00000E+00
   -0.18154E+06        -0.40657E+08         0.00000E+00
    0.00000E+00         0.00000E+00         0.00000E+00
 
   -0.12878E+08         0.47155E+06         0.00000E+00
    0.47155E+06        -0.40780E+08         0.00000E+00
    0.00000E+00         0.00000E+00         0.00000E+00
 
   -0.10758E+08         0.12192E+07         0.00000E+00
    0.12192E+07        -0.41061E+08         0.00000E+00
    0.00000E+00         0.00000E+00         0.00000E+00
 
   -0.85100E+07         0.20863E+07         0.00000E+00
    0.20863E+07        -0.41531E+08         0.00000E+00
    0.00000E+00         0.00000E+00         0.00000E+00
 
   -0.61787E+07         0.31255E+07         0.00000E+00
    0.31255E+07        -0.42230E+08         0.00000E+00
    0.00000E+00         0.00000E+00        -0.14070E+06
 
   -0.48076E+07         0.44762E+07         0.00000E+00
    0.44762E+07        -0.43138E+08         0.00000E+00
    0.00000E+00         0.00000E+00        -0.14305E+07
 
   -0.38290E+07         0.61513E+07         0.00000E+00
    0.61513E+07        -0.44154E+08         0.00000E+00
    0.00000E+00         0.00000E+00        -0.27905E+07
 
   -0.40485E+08        -0.85866E+06         0.00000E+00
   -0.85866E+06        -0.43973E+08         0.00000E+00
    0.00000E+00         0.00000E+00         0.00000E+00
 
   -0.36040E+08        -0.17767E+07         0.00000E+00
   -0.17767E+07        -0.43912E+08         0.00000E+00
    0.00000E+00         0.00000E+00         0.00000E+00
 
   -0.32127E+08        -0.20013E+07         0.00000E+00
   -0.20013E+07        -0.43643E+08         0.00000E+00
    0.00000E+00         0.00000E+00         0.00000E+00
 
   -0.28807E+08        -0.19084E+07         0.00000E+00
   -0.19084E+07        -0.43222E+08         0.00000E+00
    0.00000E+00         0.00000E+00         0.00000E+00
 
   -0.25946E+08        -0.16767E+07         0.00000E+00
   -0.16767E+07        -0.42765E+08         0.00000E+00
    0.00000E+00         0.00000E+00         0.00000E+00
 
   -0.23406E+08        -0.13721E+07         0.00000E+00
   -0.13721E+07        -0.42344E+08         0.00000E+00
    0.00000E+00         0.00000E+00         0.00000E+00
 
   -0.21081E+08        -0.10190E+07         0.00000E+00
   -0.10190E+07        -0.42005E+08         0.00000E+00
    0.00000E+00         0.00000E+00         0.00000E+00
 
   -0.18886E+08        -0.62404E+06         0.00000E+00
   -0.62404E+06        -0.41778E+08         0.00000E+00
    0.00000E+00         0.00000E+00         0.00000E+00
 
   -0.16750E+08        -0.18435E+06         0.00000E+00
   -0.18435E+06        -0.41689E+08         0.00000E+00
    0.00000E+00         0.00000E+00         0.00000E+00
 
   -0.14607E+08         0.30950E+06         0.00000E+00
    0.30950E+06        -0.41759E+08         0.00000E+00
    0.00000E+00         0.00000E+00         0.00000E+00
 
   -0.12393E+08         0.87183E+06         0.00000E+00
    0.87183E+06        -0.42014E+08         0.00000E+00
    0.00000E+00         0.00000E+00         0.00000E+00
 
   -0.10034E+08         0.15154E+07         0.00000E+00
    0.15154E+07        -0.42483E+08         0.00000E+00
    0.00000E+00         0.00000E+00         0.00000E+00
 
   -0.74669E+07         0.22690E+07         0.00000E+00
    0.22690E+07        -0.43222E+08         0.00000E+00
    0.00000E+00         0.00000E+00        -0.67875E+05
 
   -0.56802E+07         0.34030E+07         0.00000E+00
    0.34030E+07        -0.44232E+08         0.00000E+00
    0.00000E+00         0.00000E+00        -0.13641E+07
 
   -0.43298E+07         0.50008E+07         0.00000E+00
    0.50008E+07        -0.45481E+08         0.00000E+00
    0.00000E+00         0.00000E+00        -0.29787E+07
 
   -0.44238E+08        -0.85204E+06         0.00000E+00
   -0.85204E+06        -0.46324E+08         0.00000E+00
    0.00000E+00         0.00000E+00         0.00000E+00
 
   -0.38791E+08        -0.14372E+07         0.00000E+00
   -0.14372E+07        -0.45985E+08         0.00000E+00
    0.00000E+00         0.00000E+00         0.00000E+00
 
   -0.34486E+08        -0.14381E+07         0.00000E+00
   -0.14381E+07        -0.45329E+08         0.00000E+00
    0.00000E+00         0.00000E+00         0.00000E+00
 
   -0.31022E+08        -0.12995E+07         0.00000E+00
   -0.12995E+07        -0.44600E+08         0.00000E+00
    0.00000E+00         0.00000E+00         0.00000E+00
 
   -0.28089E+08        -0.11106E+07         0.00000E+00
   -0.11106E+07        -0.43916E+08         0.00000E+00
    0.00000E+00         0.00000E+00         0.00000E+00
 
   -0.25505E+08        -0.89618E+06         0.00000E+00
   -0.89618E+06        -0.43331E+08         0.00000E+00
    0.00000E+00         0.00000E+00         0.00000E+00
 
   -0.23144E+08        -0.66276E+06         0.00000E+00
   -0.66276E+06        -0.42871E+08         0.00000E+00
    0.00000E+00         0.00000E+00         0.00000E+00
 
   -0.20913E+08        -0.40980E+06         0.00000E+00
   -0.40980E+06        -0.42556E+08         0.00000E+00
    0.00000E+00         0.00000E+00         0.00000E+00
 
   -0.18734E+08        -0.13269E+06         0.00000E+00
   -0.13269E+06        -0.42406E+08         0.00000E+00
    0.00000E+00         0.00000E+00         0.00000E+00
 
   -0.16538E+08         0.17633E+06         0.00000E+00
    0.17633E+06        -0.42439E+08         0.00000E+00
    0.00000E+00         0.00000E+00         0.00000E+00
 
   -0.14257E+08         0.52761E+06         0.00000E+00
    0.52761E+06        -0.42681E+08         0.00000E+00
    0.00000E+00         0.00000E+00         0.00000E+00
 
   -0.11828E+08         0.93241E+06         0.00000E+00
    0.93241E+06        -0.43158E+08         0.00000E+00
    0.00000E+00         0.00000E+00         0.00000E+00
 
   -0.91307E+07         0.13866E+07         0.00000E+00
    0.13866E+07        -0.43923E+08         0.00000E+00
    0.00000E+00         0.00000E+00         0.00000E+00
 
   -0.67633E+07         0.21270E+07         0.00000E+00
    0.21270E+07        -0.45004E+08         0.00000E+00
    0.00000E+00         0.00000E+00        -0.10455E+07
 
   -0.48985E+07         0.34799E+07         0.00000E+00
    0.34799E+07        -0.46613E+08         0.00000E+00
    0.00000E+00         0.00000E+00        -0.30359E+07
 
   -0.47624E+08        -0.51628E+06         0.00000E+00
   -0.51628E+06        -0.48279E+08         0.00000E+00
    0.00000E+00         0.00000E+00         0.00000E+00
 
   -0.41264E+08        -0.58521E+06         0.00000E+00
   -0.58521E+06        -0.47363E+08         0.00000E+00
    0.00000E+00         0.00000E+00         0.00000E+00
 
   -0.36825E+08        -0.53054E+06         0.00000E+00
   -0.53054E+06        -0.46322E+08         0.00000E+00
    0.00000E+00         0.00000E+00         0.00000E+00
 
   -0.33309E+08        -0.46335E+06         0.00000E+00
   -0.46335E+06        -0.45365E+08         0.00000E+00
    0.00000E+00         0.00000E+00         0.00000E+00
 
   -0.30351E+08        -0.38935E+06         0.00000E+00
   -0.38935E+06        -0.44536E+08         0.00000E+00
    0.00000E+00         0.00000E+00         0.00000E+00
 
   -0.27749E+08        -0.31147E+06         0.00000E+00
   -0.31147E+06        -0.43851E+08         0.00000E+00
    0.00000E+00         0.00000E+00         0.00000E+00
 
   -0.25370E+08        -0.22955E+06         0.00000E+00
   -0.22955E+06        -0.43321E+08         0.00000E+00
    0.00000E+00         0.00000E+00         0.00000E+00
 
   -0.23119E+08        -0.14230E+06         0.00000E+00
   -0.14230E+06        -0.42958E+08         0.00000E+00
    0.00000E+00         0.00000E+00         0.00000E+00
 
   -0.20917E+08        -0.47533E+05         0.00000E+00
   -0.47533E+05        -0.42774E+08         0.00000E+00
    0.00000E+00         0.00000E+00         0.00000E+00
 
   -0.18691E+08         0.57788E+05         0.00000E+00
    0.57788E+05        -0.42788E+08         0.00000E+00
    0.00000E+00         0.00000E+00         0.00000E+00
 
   -0.16375E+08         0.17749E+06         0.00000E+00
    0.17749E+06        -0.43025E+08         0.00000E+00
    0.00000E+00         0.00000E+00         0.00000E+00
 
   -0.13897E+08         0.31785E+06         0.00000E+00
    0.31785E+06        -0.43519E+08         0.00000E+00
    0.00000E+00         0.00000E+00         0.00000E+00
 
   -0.11221E+08         0.47206E+06         0.00000E+00
    0.47206E+06        -0.44300E+08         0.00000E+00
    0.00000E+00         0.00000E+00         0.00000E+00
 
   -0.83488E+07         0.71837E+06         0.00000E+00
    0.71837E+06        -0.45565E+08         0.00000E+00
    0.00000E+00         0.00000E+00        -0.44627E+06
 
   -0.57192E+07         0.13047E+07         0.00000E+00
    0.13047E+07        -0.47490E+08         0.00000E+00
    0.00000E+00         0.00000E+00        -0.28832E+07
 
TENSORS stresstot double 
   -0.46590E+08         0.41012E+06         0.00000E+00
    0.41012E+06        -0.58964E+08         0.00000E+00
    0.00000E+00         0.00000E+00        -0.64070E+08
 
   -0.46201E+08         0.56709E+06         0.00000E+00
    0.56709E+06        -0.57802E+08         0.00000E+00
    0.00000E+00         0.00000E+00        -0.62810E+08
 
   -0.46081E+08         0.36291E+06         0.00000E+00
    0.36291E+06        -0.56964E+08         0.00000E+00
    0.00000E+00         0.00000E+00        -0.62348E+08
 
   -0.46268E+08         0.96028E+05         0.00000E+00
    0.96028E+05        -0.56657E+08         0.00000E+00
    0.00000E+00         0.00000E+00        -0.62705E+08
 
   -0.46706E+08        -0.15797E+06         0.00000E+00
   -0.15797E+06        -0.56900E+08         0.00000E+00
    0.00000E+00         0.00000E+00        -0.63722E+08
 
   -0.47326E+08        -0.32704E+06         0.00000E+00
   -0.32704E+06        -0.57552E+08         0.00000E+00
    0.00000E+00         0.00000E+00        -0.65220E+08
 
   -0.48164E+08        -0.32768E+06         0.00000E+00
   -0.32768E+06        -0.58351E+08         0.00000E+00
    0.00000E+00         0.00000E+00        -0.67194E+08
 
   -0.49360E+08        -0.12146E+06         0.00000E+00
   -0.12146E+06        -0.58936E+08         0.00000E+00
    0.00000E+00         0.00000E+00        -0.69692E+08
 
   -0.51073E+08        -0.24038E+06         0.00000E+00
   -0.24038E+06        -0.59230E+08         0.00000E+00
    0.00000E+00         0.00000E+00        -0.72231E+08
 
   -0.54727E+08        -0.32773E+06         0.00000E+00
   -0.32773E+06        -0.59700E+08         0.00000E+00
    0.00000E+00         0.00000E+00        -0.72763E+08
 
   -0.57814E+08        -0.11970E+06         0.00000E+00
   -0.11970E+06        -0.60065E+08         0.00000E+00
    0.00000E+00         0.00000E+00        -0.72795E+08
 
   -0.60598E+08         0.87224E+05         0.00000E+00
    0.87224E+05        -0.60060E+08         0.00000E+00
    0.00000E+00         0.00000E+00        -0.72824E+08
 
   -0.63430E+08         0.30263E+06         0.00000E+00
    0.30263E+06        -0.59650E+08         0.00000E+00
    0.00000E+00         0.00000E+00        -0.72848E+08
 
   -0.66576E+08         0.56097E+06         0.00000E+00
    0.56097E+06        -0.58776E+08         0.00000E+00
    0.00000E+00         0.00000E+00        -0.72867E+08
 
   -0.70571E+08         0.10474E+07         0.00000E+00
    0.10474E+07        -0.57205E+08         0.00000E+00
    0.00000E+00         0.00000E+00        -0.72877E+08
 
   -0.45935E+08         0.76121E+06         0.00000E+00
    0.76121E+06        -0.59949E+08         0.00000E+00
    0.00000E+00         0.00000E+00        -0.65324E+08
 
   -0.46235E+08         0.89190E+06         0.00000E+00
    0.89190E+06        -0.60768E+08         0.00000E+00
    0.00000E+00         0.00000E+00        -0.66179E+08
 
   -0.46405E+08         0.71730E+06         0.00000E+00
    0.71730E+06        -0.61166E+08         0.00000E+00
    0.00000E+00         0.00000E+00        -0.66723E+08
 
   -0.46587E+08         0.28902E+06         0.00000E+00
    0.28902E+06        -0.61142E+08         0.00000E+00
    0.00000E+00         0.00000E+00        -0.67314E+08
 
   -0.46891E+08        -0.46850E+05         0.00000E+00
   -0.46850E+05        -0.60739E+08         0.00000E+00
    0.00000E+00         0.00000E+00        -0.68054E+08
 
   -0.47378E+08        -0.22313E+06         0.00000E+00
   -0.22313E+06        -0.60014E+08         0.00000E+00
    0.00000E+00         0.00000E+00        -0.68966E+08
 
   -0.48074E+08        -0.30369E+06         0.00000E+00
   -0.30369E+06        -0.59195E+08         0.00000E+00
    0.00000E+00         0.00000E+00        -0.70029E+08
 
   -0.49244E+08        -0.36780E+06         0.00000E+00
   -0.36780E+06        -0.58791E+08         0.00000E+00
    0.00000E+00         0.00000E+00        -0.70795E+08
 
   -0.51591E+08        -0.60476E+06         0.00000E+00
   -0.60476E+06        -0.59011E+08         0.00000E+00
    0.00000E+00         0.00000E+00        -0.70852E+08
 
   -0.54488E+08        -0.62251E+06         0.00000E+00
   -0.62251E+06        -0.59134E+08         0.00000E+00
    0.00000E+00         0.00000E+00        -0.70871E+08
 
   -0.57454E+08        -0.18456E+06         0.00000E+00
   -0.18456E+06        -0.59088E+08         0.00000E+00
    0.00000E+00         0.00000E+00        -0.70890E+08
 
   -0.60211E+08         0.35467E+06         0.00000E+00
    0.35467E+06        -0.58854E+08         0.00000E+00
    0.00000E+00         0.00000E+00        -0.70908E+08
 
   -0.62987E+08         0.95612E+06         0.00000E+00
    0.95612E+06        -0.58322E+08         0.00000E+00
    0.00000E+00         0.00000E+00        -0.70923E+08
 
   -0.65982E+08         0.17023E+07         0.00000E+00
    0.17023E+07        -0.57403E+08         0.00000E+00
    0.00000E+00         0.00000E+00        -0.70934E+08
 
   -0.69250E+08         0.28759E+07         0.00000E+00
    0.28759E+07        -0.56028E+08         0.00000E+00
    0.00000E+00         0.00000E+00        -0.70939E+08
 
   -0.45436E+08         0.10804E+06         0.00000E+00
    0.10804E+06        -0.61191E+08         0.00000E+00
    0.00000E+00         0.00000E+00        -0.67378E+08
 
   -0.45798E+08         0.62683E+06         0.00000E+00
    0.62683E+06        -0.61423E+08         0.00000E+00
    0.00000E+00         0.00000E+00        -0.68543E+08
 
   -0.46583E+08         0.70522E+06         0.00000E+00
    0.70522E+06        -0.61283E+08         0.00000E+00
    0.00000E+00         0.00000E+00        -0.68934E+08
 
   -0.46896E+08         0.56058E+06         0.00000E+00
    0.56058E+06        -0.60946E+08         0.00000E+00
    0.00000E+00         0.00000E+00        -0.68932E+08
 
   -0.47128E+08         0.40667E+06         0.00000E+00
    0.40667E+06        -0.60484E+08         0.00000E+00
    0.00000E+00         0.00000E+00        -0.68933E+08
 
   -0.47547E+08         0.26134E+06         0.00000E+00
    0.26134E+06        -0.60081E+08         0.00000E+00
    0.00000E+00         0.00000E+00        -0.68935E+08
 
   -0.48258E+08         0.62511E+05         0.00000E+00
    0.62511E+05        -0.59843E+08         0.00000E+00
    0.00000E+00         0.00000E+00        -0.68940E+08
 
   -0.49590E+08        -0.31846E+06         0.00000E+00
   -0.31846E+06        -0.59696E+08         0.00000E+00
    0.00000E+00         0.00000E+00        -0.68947E+08
 
   -0.51683E+08        -0.52595E+06         0.00000E+00
   -0.52595E+06        -0.59453E+08         0.00000E+00
    0.00000E+00         0.00000E+00        -0.68955E+08
 
   -0.54219E+08        -0.38555E+06         0.00000E+00
   -0.38555E+06        -0.59115E+08         0.00000E+00
    0.00000E+00         0.00000E+00        -0.68965E+08
 
   -0.56885E+08         0.99922E+05         0.00000E+00
    0.99922E+05        -0.58702E+08         0.00000E+00
    0.00000E+00         0.00000E+00        -0.68975E+08
 
   -0.59526E+08         0.82163E+06         0.00000E+00
    0.82163E+06        -0.58204E+08         0.00000E+00
    0.00000E+00         0.00000E+00        -0.68984E+08
 
   -0.62169E+08         0.17067E+07         0.00000E+00
    0.17067E+07        -0.57526E+08         0.00000E+00
    0.00000E+00         0.00000E+00        -0.68992E+08
 
   -0.64886E+08         0.28175E+07         0.00000E+00
    0.28175E+07        -0.56591E+08         0.00000E+00
    0.00000E+00         0.00000E+00        -0.68998E+08
 
   -0.67635E+08         0.42905E+07         0.00000E+00
    0.42905E+07        -0.55414E+08         0.00000E+00
    0.00000E+00         0.00000E+00        -0.69001E+08
 
   -0.44884E+08        -0.45536E+05         0.00000E+00
   -0.45536E+05        -0.59929E+08         0.00000E+00
    0.00000E+00         0.00000E+00        -0.67024E+08
 
   -0.45802E+08         0.29265E+06         0.00000E+00
    0.29265E+06        -0.59970E+08         0.00000E+00
    0.00000E+00         0.00000E+00        -0.67036E+08
 
   -0.46509E+08         0.50225E+06         0.00000E+00
    0.50225E+06        -0.60260E+08         0.00000E+00
    0.00000E+00         0.00000E+00        -0.67031E+08
 
   -0.46948E+08         0.65705E+06         0.00000E+00
    0.65705E+06        -0.60434E+08         0.00000E+00
    0.00000E+00         0.00000E+00        -0.67029E+08
 
   -0.47258E+08         0.61522E+06         0.00000E+00
    0.61522E+06        -0.60457E+08         0.00000E+00
    0.00000E+00         0.00000E+00        -0.67029E+08
 
   -0.47730E+08         0.45166E+06         0.00000E+00
    0.45166E+06        -0.60391E+08         0.00000E+00
    0.00000E+00         0.00000E+00        -0.67031E+08
 
   -0.48543E+08         0.20445E+06         0.00000E+00
    0.20445E+06        -0.60269E+08         0.00000E+00
    0.00000E+00         0.00000E+00        -0.67033E+08
 
   -0.49850E+08        -0.44963E+05         0.00000E+00
   -0.44963E+05        -0.60036E+08         0.00000E+00
    0.00000E+00         0.00000E+00        -0.67037E+08
 
   -0.51672E+08        -0.12410E+06         0.00000E+00
   -0.12410E+06        -0.59654E+08         0.00000E+00
    0.00000E+00         0.00000E+00        -0.67040E+08
 
   -0.53864E+08         0.99564E+05         0.00000E+00
    0.99564E+05        -0.59153E+08         0.00000E+00
    0.00000E+00         0.00000E+00        -0.67044E+08
 
   -0.56232E+08         0.64428E+06         0.00000E+00
    0.64428E+06        -0.58575E+08         0.00000E+00
    0.00000E+00         0.00000E+00        -0.67048E+08
 
   -0.58652E+08         0.14658E+07         0.00000E+00
    0.14658E+07        -0.57918E+08         0.00000E+00
    0.00000E+00         0.00000E+00        -0.67051E+08
 
   -0.61083E+08         0.25289E+07         0.00000E+00
    0.25289E+07        -0.57150E+08         0.00000E+00
    0.00000E+00         0.00000E+00        -0.67054E+08
 
   -0.63515E+08         0.38484E+07         0.00000E+00
    0.38484E+07        -0.56237E+08         0.00000E+00
    0.00000E+00         0.00000E+00        -0.67056E+08
 
   -0.65893E+08         0.54707E+07         0.00000E+00
    0.54707E+07        -0.55192E+08         0.00000E+00
    0.00000E+00         0.00000E+00        -0.67057E+08
 
   -0.44789E+08         0.58420E+05         0.00000E+00
    0.58420E+05        -0.60028E+08         0.00000E+00
    0.00000E+00         0.00000E+00        -0.65116E+08
 
   -0.45579E+08         0.13028E+06         0.00000E+00
    0.13028E+06        -0.60007E+08         0.00000E+00
    0.00000E+00         0.00000E+00        -0.65114E+08
 
   -0.46314E+08         0.33315E+06         0.00000E+00
    0.33315E+06        -0.60098E+08         0.00000E+00
    0.00000E+00         0.00000E+00        -0.65111E+08
 
   -0.46857E+08         0.50578E+06         0.00000E+00
    0.50578E+06        -0.60237E+08         0.00000E+00
    0.00000E+00         0.00000E+00        -0.65109E+08
 
   -0.47320E+08         0.56041E+06         0.00000E+00
    0.56041E+06        -0.60362E+08         0.00000E+00
    0.00000E+00         0.00000E+00        -0.65108E+08
 
   -0.47891E+08         0.48906E+06         0.00000E+00
    0.48906E+06        -0.60404E+08         0.00000E+00
    0.00000E+00         0.00000E+00        -0.65107E+08
 
   -0.48737E+08         0.35952E+06         0.00000E+00
    0.35952E+06        -0.60324E+08         0.00000E+00
    0.00000E+00         0.00000E+00        -0.65108E+08
 
   -0.49953E+08         0.27244E+06         0.00000E+00
    0.27244E+06        -0.60092E+08         0.00000E+00
    0.00000E+00         0.00000E+00        -0.65108E+08
 
   -0.51545E+08         0.34622E+06         0.00000E+00
    0.34622E+06        -0.59700E+08         0.00000E+00
    0.00000E+00         0.00000E+00        -0.65108E+08
 
   -0.53435E+08         0.67455E+06         0.00000E+00
    0.67455E+06        -0.59175E+08         0.00000E+00
    0.00000E+00         0.00000E+00        -0.65108E+08
 
   -0.55506E+08         0.12939E+07         0.00000E+00
    0.12939E+07        -0.58553E+08         0.00000E+00
    0.00000E+00         0.00000E+00        -0.65107E+08
 
   -0.57661E+08         0.21966E+07         0.00000E+00
    0.21966E+07        -0.57851E+08         0.00000E+00
    0.00000E+00         0.00000E+00        -0.65107E+08
 
   -0.59839E+08         0.33665E+07         0.00000E+00
    0.33665E+07        -0.57067E+08         0.00000E+00
    0.00000E+00         0.00000E+00        -0.65107E+08
 
   -0.61998E+08         0.48003E+07         0.00000E+00
    0.48003E+07        -0.56197E+08         0.00000E+00
    0.00000E+00         0.00000E+00        -0.65106E+08
 
   -0.64087E+08         0.65007E+07         0.00000E+00
    0.65007E+07        -0.55255E+08         0.00000E+00
    0.00000E+00         0.00000E+00        -0.65106E+08
 
   -0.44710E+08         0.32394E+05         0.00000E+00
    0.32394E+05        -0.60009E+08         0.00000E+00
    0.00000E+00         0.00000E+00        -0.63178E+08
 
   -0.45462E+08         0.11380E+06         0.00000E+00
    0.11380E+06        -0.60042E+08         0.00000E+00
    0.00000E+00         0.00000E+00        -0.63176E+08
 
   -0.46142E+08         0.23536E+06         0.00000E+00
    0.23536E+06        -0.60094E+08         0.00000E+00
    0.00000E+00         0.00000E+00        -0.63174E+08
 
   -0.46738E+08         0.37304E+06         0.00000E+00
    0.37304E+06        -0.60191E+08         0.00000E+00
    0.00000E+00         0.00000E+00        -0.63171E+08
 
   -0.47298E+08         0.46201E+06         0.00000E+00
    0.46201E+06        -0.60291E+08         0.00000E+00
    0.00000E+00         0.00000E+00        -0.63169E+08
 
   -0.47941E+08         0.49060E+06         0.00000E+00
    0.49060E+06        -0.60334E+08         0.00000E+00
    0.00000E+00         0.00000E+00        -0.63167E+08
 
   -0.48782E+08         0.50213E+06         0.00000E+00
    0.50213E+06        -0.60265E+08         0.00000E+00
    0.00000E+00         0.00000E+00        -0.63165E+08
 
   -0.49893E+08         0.57618E+06         0.00000E+00
    0.57618E+06        -0.60051E+08         0.00000E+00
    0.00000E+00         0.00000E+00        -0.63162E+08
 
   -0.51284E+08         0.80061E+06         0.00000E+00
    0.80061E+06        -0.59689E+08         0.00000E+00
    0.00000E+00         0.00000E+00        -0.63159E+08
 
   -0.52912E+08         0.12466E+07         0.00000E+00
    0.12466E+07        -0.59196E+08         0.00000E+00
    0.00000E+00         0.00000E+00        -0.63156E+08
 
   -0.54704E+08         0.19533E+07         0.00000E+00
    0.19533E+07        -0.58598E+08         0.00000E+00
    0.00000E+00         0.00000E+00        -0.63153E+08
 
   -0.56587E+08         0.29305E+07         0.00000E+00
    0.29305E+07        -0.57919E+08         0.00000E+00
    0.00000E+00         0.00000E+00        -0.63150E+08
 
   -0.58502E+08         0.41733E+07         0.00000E+00
    0.41733E+07        -0.57173E+08         0.00000E+00
    0.00000E+00         0.00000E+00        -0.63148E+08
 
   -0.60402E+08         0.56730E+07         0.00000E+00
    0.56730E+07        -0.56368E+08         0.00000E+00
    0.00000E+00         0.00000E+00        -0.63146E+08
 
   -0.62244E+08         0.74168E+07         0.00000E+00
    0.74168E+07        -0.55519E+08         0.00000E+00
    0.00000E+00         0.00000E+00        -0.63145E+08
 
   -0.44656E+08         0.14213E+05         0.00000E+00
    0.14213E+05        -0.60009E+08         0.00000E+00
    0.00000E+00         0.00000E+00        -0.61224E+08
 
   -0.45373E+08         0.71353E+05         0.00000E+00
    0.71353E+05        -0.60040E+08         0.00000E+00
    0.00000E+00         0.00000E+00        -0.61223E+08
 
   -0.46022E+08         0.16374E+06         0.00000E+00
    0.16374E+06        -0.60097E+08         0.00000E+00
    0.00000E+00         0.00000E+00        -0.61220E+08
 
   -0.46621E+08         0.27685E+06         0.00000E+00
    0.27685E+06        -0.60173E+08         0.00000E+00
    0.00000E+00         0.00000E+00        -0.61217E+08
 
   -0.47215E+08         0.38991E+06         0.00000E+00
    0.38991E+06        -0.60243E+08         0.00000E+00
    0.00000E+00         0.00000E+00        -0.61213E+08
 
   -0.47877E+08         0.49890E+06         0.00000E+00
    0.49890E+06        -0.60264E+08         0.00000E+00
    0.00000E+00         0.00000E+00        -0.61209E+08
 
   -0.48682E+08         0.63377E+06         0.00000E+00
    0.63377E+06        -0.60193E+08         0.00000E+00
    0.00000E+00         0.00000E+00        -0.61205E+08
 
   -0.49683E+08         0.85000E+06         0.00000E+00
    0.85000E+06        -0.60002E+08         0.00000E+00
    0.00000E+00         0.00000E+00        -0.61201E+08
 
   -0.50892E+08         0.12113E+07         0.00000E+00
    0.12113E+07        -0.59681E+08         0.00000E+00
    0.00000E+00         0.00000E+00        -0.61195E+08
 
   -0.52287E+08         0.17726E+07         0.00000E+00
    0.17726E+07        -0.59241E+08         0.00000E+00
    0.00000E+00         0.00000E+00        -0.61190E+08
 
   -0.53822E+08         0.25694E+07         0.00000E+00
    0.25694E+07        -0.58701E+08         0.00000E+00
    0.00000E+00         0.00000E+00        -0.61185E+08
 
   -0.55444E+08         0.36174E+07         0.00000E+00
    0.36174E+07        -0.58083E+08         0.00000E+00
    0.00000E+00         0.00000E+00        -0.61180E+08
 
   -0.57104E+08         0.49174E+07         0.00000E+00
    0.49174E+07        -0.57404E+08         0.00000E+00
    0.00000E+00         0.00000E+00        -0.61176E+08
 
   -0.58760E+08         0.64613E+07         0.00000E+00
    0.64613E+07        -0.56679E+08         0.00000E+00
    0.00000E+00         0.00000E+00        -0.61173E+08
 
   -0.60376E+08         0.82334E+07         0.00000E+00
    0.82334E+07        -0.55922E+08         0.00000E+00
    0.00000E+00         0.00000E+00        -0.61171E+08
 
   -0.44634E+08        -0.26837E+04         0.00000E+00
   -0.26837E+04        -0.60009E+08         0.00000E+00
    0.00000E+00         0.00000E+00        -0.59255E+08
 
   -0.45310E+08         0.26058E+05         0.00000E+00
    0.26058E+05        -0.60040E+08         0.00000E+00
    0.00000E+00         0.00000E+00        -0.59253E+08
 
   -0.45924E+08         0.97506E+05         0.00000E+00
    0.97506E+05        -0.60094E+08         0.00000E+00
    0.00000E+00         0.00000E+00        -0.59250E+08
 
   -0.46502E+08         0.20526E+06         0.00000E+00
    0.20526E+06        -0.60158E+08         0.00000E+00
    0.00000E+00         0.00000E+00        -0.59246E+08
 
   -0.47083E+08         0.34397E+06         0.00000E+00
    0.34397E+06        -0.60208E+08         0.00000E+00
    0.00000E+00         0.00000E+00        -0.59241E+08
 
   -0.47718E+08         0.51924E+06         0.00000E+00
    0.51924E+06        -0.60215E+08         0.00000E+00
    0.00000E+00         0.00000E+00        -0.59236E+08
 
   -0.48459E+08         0.75446E+06         0.00000E+00
    0.75446E+06        -0.60147E+08         0.00000E+00
    0.00000E+00         0.00000E+00        -0.59230E+08
 
   -0.49342E+08         0.10890E+07         0.00000E+00
    0.10890E+07        -0.59980E+08         0.00000E+00
    0.00000E+00         0.00000E+00        -0.59223E+08
 
   -0.50380E+08         0.15685E+07         0.00000E+00
    0.15685E+07        -0.59706E+08         0.00000E+00
    0.00000E+00         0.00000E+00        -0.59216E+08
 
   -0.51563E+08         0.22345E+07         0.00000E+00
    0.22345E+07        -0.59328E+08         0.00000E+00
    0.00000E+00         0.00000E+00        -0.59209E+08
 
   -0.52863E+08         0.31168E+07         0.00000E+00
    0.31168E+07        -0.58860E+08         0.00000E+00
    0.00000E+00         0.00000E+00        -0.59202E+08
 
   -0.54241E+08         0.42313E+07         0.00000E+00
    0.42313E+07        -0.58319E+08         0.00000E+00
    0.00000E+00         0.00000E+00        -0.59196E+08
 
   -0.55659E+08         0.55813E+07         0.00000E+00
    0.55813E+07        -0.57722E+08         0.00000E+00
    0.00000E+00         0.00000E+00        -0.59191E+08
 
   -0.57085E+08         0.71606E+07         0.00000E+00
    0.71606E+07        -0.57085E+08         0.00000E+00
    0.00000E+00         0.00000E+00        -0.59187E+08
 
   -0.58490E+08         0.89555E+07         0.00000E+00
    0.89555E+07        -0.56421E+08         0.00000E+00
    0.00000E+00         0.00000E+00        -0.59185E+08
 
   -0.44644E+08        -0.19733E+05         0.00000E+00
   -0.19733E+05        -0.60009E+08         0.00000E+00
    0.00000E+00         0.00000E+00        -0.57269E+08
 
   -0.45270E+08        -0.18257E+05         0.00000E+00
   -0.18257E+05        -0.60040E+08         0.00000E+00
    0.00000E+00         0.00000E+00        -0.57267E+08
 
   -0.45837E+08         0.37372E+05         0.00000E+00
    0.37372E+05        -0.60090E+08         0.00000E+00
    0.00000E+00         0.00000E+00        -0.57264E+08
 
   -0.46372E+08         0.14663E+06         0.00000E+00
    0.14663E+06        -0.60147E+08         0.00000E+00
    0.00000E+00         0.00000E+00        -0.57259E+08
 
   -0.46907E+08         0.31184E+06         0.00000E+00
    0.31184E+06        -0.60190E+08         0.00000E+00
    0.00000E+00         0.00000E+00        -0.57253E+08
 
   -0.47482E+08         0.54264E+06         0.00000E+00
    0.54264E+06        -0.60194E+08         0.00000E+00
    0.00000E+00         0.00000E+00        -0.57246E+08
 
   -0.48134E+08         0.85894E+06         0.00000E+00
    0.85894E+06        -0.60137E+08         0.00000E+00
    0.00000E+00         0.00000E+00        -0.57238E+08
 
   -0.48891E+08         0.12898E+07         0.00000E+00
    0.12898E+07        -0.60000E+08         0.00000E+00
    0.00000E+00         0.00000E+00        -0.57230E+08
 
   -0.49764E+08         0.18684E+07         0.00000E+00
    0.18684E+07        -0.59775E+08         0.00000E+00
    0.00000E+00         0.00000E+00        -0.57221E+08
 
   -0.50750E+08         0.26258E+07         0.00000E+00
    0.26258E+07        -0.59462E+08         0.00000E+00
    0.00000E+00         0.00000E+00        -0.57213E+08
 
   -0.51831E+08         0.35855E+07         0.00000E+00
    0.35855E+07        -0.59070E+08         0.00000E+00
    0.00000E+00         0.00000E+00        -0.57204E+08
 
   -0.52981E+08         0.47612E+07         0.00000E+00
    0.47612E+07        -0.58613E+08         0.00000E+00
    0.00000E+00         0.00000E+00        -0.57197E+08
 
   -0.54174E+08         0.61571E+07         0.00000E+00
    0.61571E+07        -0.58104E+08         0.00000E+00
    0.00000E+00         0.00000E+00        -0.57191E+08
 
   -0.55383E+08         0.77687E+07         0.00000E+00
    0.77687E+07        -0.57557E+08         0.00000E+00
    0.00000E+00         0.00000E+00        -0.57186E+08
 
   -0.56585E+08         0.95850E+07         0.00000E+00
    0.95850E+07        -0.56984E+08         0.00000E+00
    0.00000E+00         0.00000E+00        -0.57184E+08
 
   -0.44686E+08        -0.36697E+05         0.00000E+00
   -0.36697E+05        -0.60009E+08         0.00000E+00
    0.00000E+00         0.00000E+00        -0.55268E+08
 
   -0.45252E+08        -0.61571E+05         0.00000E+00
   -0.61571E+05        -0.60039E+08         0.00000E+00
    0.00000E+00         0.00000E+00        -0.55265E+08
 
   -0.45758E+08        -0.19720E+05         0.00000E+00
   -0.19720E+05        -0.60090E+08         0.00000E+00
    0.00000E+00         0.00000E+00        -0.55261E+08
 
   -0.46229E+08         0.92505E+05         0.00000E+00
    0.92505E+05        -0.60146E+08         0.00000E+00
    0.00000E+00         0.00000E+00        -0.55255E+08
 
   -0.46693E+08         0.28145E+06         0.00000E+00
    0.28145E+06        -0.60190E+08         0.00000E+00
    0.00000E+00         0.00000E+00        -0.55248E+08
 
   -0.47184E+08         0.55825E+06         0.00000E+00
    0.55825E+06        -0.60202E+08         0.00000E+00
    0.00000E+00         0.00000E+00        -0.55239E+08
 
   -0.47728E+08         0.93999E+06         0.00000E+00
    0.93999E+06        -0.60165E+08         0.00000E+00
    0.00000E+00         0.00000E+00        -0.55230E+08
 
   -0.48350E+08         0.14489E+07         0.00000E+00
    0.14489E+07        -0.60063E+08         0.00000E+00
    0.00000E+00         0.00000E+00        -0.55220E+08
 
   -0.49059E+08         0.21096E+07         0.00000E+00
    0.21096E+07        -0.59889E+08         0.00000E+00
    0.00000E+00         0.00000E+00        -0.55210E+08
 
   -0.49857E+08         0.29449E+07         0.00000E+00
    0.29449E+07        -0.59642E+08         0.00000E+00
    0.00000E+00         0.00000E+00        -0.55200E+08
 
   -0.50733E+08         0.39728E+07         0.00000E+00
    0.39728E+07        -0.59327E+08         0.00000E+00
    0.00000E+00         0.00000E+00        -0.55191E+08
 
   -0.51671E+08         0.52043E+07         0.00000E+00
    0.52043E+07        -0.58953E+08         0.00000E+00
    0.00000E+00         0.00000E+00        -0.55183E+08
 
   -0.52651E+08         0.66430E+07         0.00000E+00
    0.66430E+07        -0.58533E+08         0.00000E+00
    0.00000E+00         0.00000E+00        -0.55176E+08
 
   -0.53654E+08         0.82855E+07         0.00000E+00
    0.82855E+07        -0.58076E+08         0.00000E+00
    0.00000E+00         0.00000E+00        -0.55171E+08
 
   -0.54663E+08         0.10123E+08         0.00000E+00
    0.10123E+08        -0.57593E+08         0.00000E+00
    0.00000E+00         0.00000E+00        -0.55168E+08
 
   -0.44759E+08        -0.53833E+05         0.00000E+00
   -0.53833E+05        -0.60009E+08         0.00000E+00
    0.00000E+00         0.00000E+00        -0.53249E+08
 
   -0.45255E+08        -0.10564E+06         0.00000E+00
   -0.10564E+06        -0.60041E+08         0.00000E+00
    0.00000E+00         0.00000E+00        -0.53247E+08
 
   -0.45685E+08        -0.78219E+05         0.00000E+00
   -0.78219E+05        -0.60094E+08         0.00000E+00
    0.00000E+00         0.00000E+00        -0.53242E+08
 
   -0.46074E+08         0.35146E+05         0.00000E+00
    0.35146E+05        -0.60155E+08         0.00000E+00
    0.00000E+00         0.00000E+00        -0.53235E+08
 
   -0.46448E+08         0.24300E+06         0.00000E+00
    0.24300E+06        -0.60209E+08         0.00000E+00
    0.00000E+00         0.00000E+00        -0.53227E+08
 
   -0.46834E+08         0.55671E+06         0.00000E+00
    0.55671E+06        -0.60238E+08         0.00000E+00
    0.00000E+00         0.00000E+00        -0.53217E+08
 
   -0.47257E+08         0.99093E+06         0.00000E+00
    0.99093E+06        -0.60228E+08         0.00000E+00
    0.00000E+00         0.00000E+00        -0.53206E+08
 
   -0.47735E+08         0.15630E+07         0.00000E+00
    0.15630E+07        -0.60166E+08         0.00000E+00
    0.00000E+00         0.00000E+00        -0.53195E+08
 
   -0.48280E+08         0.22912E+07         0.00000E+00
    0.22912E+07        -0.60045E+08         0.00000E+00
    0.00000E+00         0.00000E+00        -0.53183E+08
 
   -0.48895E+08         0.31923E+07         0.00000E+00
    0.31923E+07        -0.59863E+08         0.00000E+00
    0.00000E+00         0.00000E+00        -0.53172E+08
 
   -0.49577E+08         0.42797E+07         0.00000E+00
    0.42797E+07        -0.59623E+08         0.00000E+00
    0.00000E+00         0.00000E+00        -0.53162E+08
 
   -0.50313E+08         0.55614E+07         0.00000E+00
    0.55614E+07        -0.59332E+08         0.00000E+00
    0.00000E+00         0.00000E+00        -0.53153E+08
 
   -0.51092E+08         0.70400E+07         0.00000E+00
    0.70400E+07        -0.58997E+08         0.00000E+00
    0.00000E+00         0.00000E+00        -0.53145E+08
 
   -0.51899E+08         0.87128E+07         0.00000E+00
    0.87128E+07        -0.58629E+08         0.00000E+00
    0.00000E+00         0.00000E+00        -0.53140E+08
 
   -0.52722E+08         0.10573E+08         0.00000E+00
    0.10573E+08        -0.58234E+08         0.00000E+00
    0.00000E+00         0.00000E+00        -0.53137E+08
 
   -0.44865E+08        -0.71998E+05         0.00000E+00
   -0.71998E+05        -0.60010E+08         0.00000E+00
    0.00000E+00         0.00000E+00        -0.51214E+08
 
   -0.45279E+08        -0.15313E+06         0.00000E+00
   -0.15313E+06        -0.60045E+08         0.00000E+00
    0.00000E+00         0.00000E+00        -0.51211E+08
 
   -0.45621E+08        -0.14291E+06         0.00000E+00
   -0.14291E+06        -0.60105E+08         0.00000E+00
    0.00000E+00         0.00000E+00        -0.51206E+08
 
   -0.45912E+08        -0.32239E+05         0.00000E+00
   -0.32239E+05        -0.60177E+08         0.00000E+00
    0.00000E+00         0.00000E+00        -0.51198E+08
 
   -0.46179E+08         0.18864E+06         0.00000E+00
    0.18864E+06        -0.60247E+08         0.00000E+00
    0.00000E+00         0.00000E+00        -0.51188E+08
 
   -0.46445E+08         0.53070E+06         0.00000E+00
    0.53070E+06        -0.60299E+08         0.00000E+00
    0.00000E+00         0.00000E+00        -0.51177E+08
 
   -0.46733E+08         0.10064E+07         0.00000E+00
    0.10064E+07        -0.60321E+08         0.00000E+00
    0.00000E+00         0.00000E+00        -0.51165E+08
 
   -0.47060E+08         0.16293E+07         0.00000E+00
    0.16293E+07        -0.60302E+08         0.00000E+00
    0.00000E+00         0.00000E+00        -0.51153E+08
 
   -0.47439E+08         0.24130E+07         0.00000E+00
    0.24130E+07        -0.60235E+08         0.00000E+00
    0.00000E+00         0.00000E+00        -0.51140E+08
 
   -0.47876E+08         0.33696E+07         0.00000E+00
    0.33696E+07        -0.60118E+08         0.00000E+00
    0.00000E+00         0.00000E+00        -0.51128E+08
 
   -0.48368E+08         0.45085E+07         0.00000E+00
    0.45085E+07        -0.59951E+08         0.00000E+00
    0.00000E+00         0.00000E+00        -0.51116E+08
 
   -0.48912E+08         0.58352E+07         0.00000E+00
    0.58352E+07        -0.59739E+08         0.00000E+00
    0.00000E+00         0.00000E+00        -0.51106E+08
 
   -0.49499E+08         0.73510E+07         0.00000E+00
    0.73510E+07        -0.59488E+08         0.00000E+00
    0.00000E+00         0.00000E+00        -0.51098E+08
 
   -0.50119E+08         0.90531E+07         0.00000E+00
    0.90531E+07        -0.59205E+08         0.00000E+00
    0.00000E+00         0.00000E+00        -0.51092E+08
 
   -0.50762E+08         0.10936E+08         0.00000E+00
    0.10936E+08        -0.58896E+08         0.00000E+00
    0.00000E+00         0.00000E+00        -0.51089E+08
 
   -0.45008E+08        -0.92313E+05         0.00000E+00
   -0.92313E+05        -0.60012E+08         0.00000E+00
    0.00000E+00         0.00000E+00        -0.49162E+08
 
   -0.45330E+08        -0.20698E+06         0.00000E+00
   -0.20698E+06        -0.60052E+08         0.00000E+00
    0.00000E+00         0.00000E+00        -0.49159E+08
 
   -0.45569E+08        -0.21831E+06         0.00000E+00
   -0.21831E+06        -0.60122E+08         0.00000E+00
    0.00000E+00         0.00000E+00        -0.49153E+08
 
   -0.45748E+08        -0.11533E+06         0.00000E+00
   -0.11533E+06        -0.60209E+08         0.00000E+00
    0.00000E+00         0.00000E+00        -0.49144E+08
 
   -0.45892E+08         0.11228E+06         0.00000E+00
    0.11228E+06        -0.60300E+08         0.00000E+00
    0.00000E+00         0.00000E+00        -0.49133E+08
 
   -0.46024E+08         0.47476E+06         0.00000E+00
    0.47476E+06        -0.60381E+08         0.00000E+00
    0.00000E+00         0.00000E+00        -0.49121E+08
 
   -0.46167E+08         0.98253E+06         0.00000E+00
    0.98253E+06        -0.60439E+08         0.00000E+00
    0.00000E+00         0.00000E+00        -0.49108E+08
 
   -0.46337E+08         0.16461E+07         0.00000E+00
    0.16461E+07        -0.60466E+08         0.00000E+00
    0.00000E+00         0.00000E+00        -0.49094E+08
 
   -0.46547E+08         0.24752E+07         0.00000E+00
    0.24752E+07        -0.60454E+08         0.00000E+00
    0.00000E+00         0.00000E+00        -0.49080E+08
 
   -0.46806E+08         0.34784E+07         0.00000E+00
    0.34784E+07        -0.60400E+08         0.00000E+00
    0.00000E+00         0.00000E+00        -0.49067E+08
 
   -0.47115E+08         0.46619E+07         0.00000E+00
    0.46619E+07        -0.60303E+08         0.00000E+00
    0.00000E+00         0.00000E+00        -0.49054E+08
 
   -0.47472E+08         0.60288E+07         0.00000E+00
    0.60288E+07        -0.60168E+08         0.00000E+00
    0.00000E+00         0.00000E+00        -0.49043E+08
 
   -0.47874E+08         0.75790E+07         0.00000E+00
    0.75790E+07        -0.59996E+08         0.00000E+00
    0.00000E+00         0.00000E+00        -0.49035E+08
 
   -0.48313E+08         0.93094E+07         0.00000E+00
    0.93094E+07        -0.59795E+08         0.00000E+00
    0.00000E+00         0.00000E+00        -0.49028E+08
 
   -0.48783E+08         0.11214E+08         0.00000E+00
    0.11214E+08        -0.59568E+08         0.00000E+00
    0.00000E+00         0.00000E+00        -0.49025E+08
 
   -0.45192E+08        -0.11589E+06         0.00000E+00
   -0.11589E+06        -0.60014E+08         0.00000E+00
    0.00000E+00         0.00000E+00        -0.47093E+08
 
   -0.45411E+08        -0.26997E+06         0.00000E+00
   -0.26997E+06        -0.60061E+08         0.00000E+00
    0.00000E+00         0.00000E+00        -0.47089E+08
 
   -0.45534E+08        -0.30830E+06         0.00000E+00
   -0.30830E+06        -0.60144E+08         0.00000E+00
    0.00000E+00         0.00000E+00        -0.47082E+08
 
   -0.45587E+08        -0.21863E+06         0.00000E+00
   -0.21863E+06        -0.60251E+08         0.00000E+00
    0.00000E+00         0.00000E+00        -0.47073E+08
 
   -0.45594E+08         0.94523E+04         0.00000E+00
    0.94523E+04        -0.60367E+08         0.00000E+00
    0.00000E+00         0.00000E+00        -0.47061E+08
 
   -0.45581E+08         0.38514E+06         0.00000E+00
    0.38514E+06        -0.60479E+08         0.00000E+00
    0.00000E+00         0.00000E+00        -0.47047E+08
 
   -0.45568E+08         0.91688E+06         0.00000E+00
    0.91688E+06        -0.60576E+08         0.00000E+00
    0.00000E+00         0.00000E+00        -0.47033E+08
 
   -0.45574E+08         0.16125E+07         0.00000E+00
    0.16125E+07        -0.60649E+08         0.00000E+00
    0.00000E+00         0.00000E+00        -0.47018E+08
 
   -0.45613E+08         0.24787E+07         0.00000E+00
    0.24787E+07        -0.60691E+08         0.00000E+00
    0.00000E+00         0.00000E+00        -0.47003E+08
 
   -0.45693E+08         0.35211E+07         0.00000E+00
    0.35211E+07        -0.60698E+08         0.00000E+00
    0.00000E+00         0.00000E+00        -0.46988E+08
 
   -0.45821E+08         0.47430E+07         0.00000E+00
    0.47430E+07        -0.60670E+08         0.00000E+00
    0.00000E+00         0.00000E+00        -0.46975E+08
 
   -0.45997E+08         0.61455E+07         0.00000E+00
    0.61455E+07        -0.60608E+08         0.00000E+00
    0.00000E+00         0.00000E+00        -0.46963E+08
 
   -0.46219E+08         0.77273E+07         0.00000E+00
    0.77273E+07        -0.60513E+08         0.00000E+00
    0.00000E+00         0.00000E+00        -0.46954E+08
 
   -0.46483E+08         0.94847E+07         0.00000E+00
    0.94847E+07        -0.60390E+08         0.00000E+00
    0.00000E+00         0.00000E+00        -0.46947E+08
 
   -0.46784E+08         0.11412E+08         0.00000E+00
    0.11412E+08        -0.60243E+08         0.00000E+00
    0.00000E+00         0.00000E+00        -0.46944E+08
 
   -0.45425E+08        -0.14370E+06         0.00000E+00
   -0.14370E+06        -0.60016E+08         0.00000E+00
    0.00000E+00         0.00000E+00        -0.45006E+08
 
   -0.45529E+08        -0.34438E+06         0.00000E+00
   -0.34438E+06        -0.60071E+08         0.00000E+00
    0.00000E+00         0.00000E+00        -0.45002E+08
 
   -0.45523E+08        -0.41589E+06         0.00000E+00
   -0.41589E+06        -0.60170E+08         0.00000E+00
    0.00000E+00         0.00000E+00        -0.44995E+08
 
   -0.45436E+08        -0.34531E+06         0.00000E+00
   -0.34531E+06        -0.60299E+08         0.00000E+00
    0.00000E+00         0.00000E+00        -0.44984E+08
 
   -0.45293E+08        -0.12273E+06         0.00000E+00
   -0.12273E+06        -0.60442E+08         0.00000E+00
    0.00000E+00         0.00000E+00        -0.44971E+08
 
   -0.45122E+08         0.25971E+06         0.00000E+00
    0.25971E+06        -0.60587E+08         0.00000E+00
    0.00000E+00         0.00000E+00        -0.44956E+08
 
   -0.44945E+08         0.80843E+06         0.00000E+00
    0.80843E+06        -0.60724E+08         0.00000E+00
    0.00000E+00         0.00000E+00        -0.44940E+08
 
   -0.44780E+08         0.15288E+07         0.00000E+00
    0.15288E+07        -0.60843E+08         0.00000E+00
    0.00000E+00         0.00000E+00        -0.44924E+08
 
   -0.44643E+08         0.24249E+07         0.00000E+00
    0.24249E+07        -0.60938E+08         0.00000E+00
    0.00000E+00         0.00000E+00        -0.44907E+08
 
   -0.44545E+08         0.34998E+07         0.00000E+00
    0.34998E+07        -0.61005E+08         0.00000E+00
    0.00000E+00         0.00000E+00        -0.44892E+08
 
   -0.44493E+08         0.47546E+07         0.00000E+00
    0.47546E+07        -0.61042E+08         0.00000E+00
    0.00000E+00         0.00000E+00        -0.44878E+08
 
   -0.44489E+08         0.61887E+07         0.00000E+00
    0.61887E+07        -0.61049E+08         0.00000E+00
    0.00000E+00         0.00000E+00        -0.44866E+08
 
   -0.44535E+08         0.77992E+07         0.00000E+00
    0.77992E+07        -0.61028E+08         0.00000E+00
    0.00000E+00         0.00000E+00        -0.44856E+08
 
   -0.44628E+08         0.95816E+07         0.00000E+00
    0.95816E+07        -0.60982E+08         0.00000E+00
    0.00000E+00         0.00000E+00        -0.44849E+08
 
   -0.44765E+08         0.11530E+08         0.00000E+00
    0.11530E+08        -0.60912E+08         0.00000E+00
    0.00000E+00         0.00000E+00        -0.44845E+08
 
   -0.45715E+08        -0.17647E+06         0.00000E+00
   -0.17647E+06        -0.60018E+08         0.00000E+00
    0.00000E+00         0.00000E+00        -0.42902E+08
 
   -0.45691E+08        -0.43189E+06         0.00000E+00
   -0.43189E+06        -0.60083E+08         0.00000E+00
    0.00000E+00         0.00000E+00        -0.42897E+08
 
   -0.45541E+08        -0.54306E+06         0.00000E+00
   -0.54306E+06        -0.60199E+08         0.00000E+00
    0.00000E+00         0.00000E+00        -0.42889E+08
 
   -0.45299E+08        -0.49722E+06         0.00000E+00
   -0.49722E+06        -0.60350E+08         0.00000E+00
    0.00000E+00         0.00000E+00        -0.42877E+08
 
   -0.44994E+08        -0.28555E+06         0.00000E+00
   -0.28555E+06        -0.60522E+08         0.00000E+00
    0.00000E+00         0.00000E+00        -0.42863E+08
 
   -0.44654E+08         0.98014E+05         0.00000E+00
    0.98014E+05        -0.60701E+08         0.00000E+00
    0.00000E+00         0.00000E+00        -0.42847E+08
 
   -0.44303E+08         0.65766E+06         0.00000E+00
    0.65766E+06        -0.60876E+08         0.00000E+00
    0.00000E+00         0.00000E+00        -0.42829E+08
 
   -0.43962E+08         0.13963E+07         0.00000E+00
    0.13963E+07        -0.61039E+08         0.00000E+00
    0.00000E+00         0.00000E+00        -0.42812E+08
 
   -0.43645E+08         0.23160E+07         0.00000E+00
    0.23160E+07        -0.61185E+08         0.00000E+00
    0.00000E+00         0.00000E+00        -0.42794E+08
 
   -0.43367E+08         0.34173E+07         0.00000E+00
    0.34173E+07        -0.61309E+08         0.00000E+00
    0.00000E+00         0.00000E+00        -0.42778E+08
 
   -0.43134E+08         0.46999E+07         0.00000E+00
    0.46999E+07        -0.61408E+08         0.00000E+00
    0.00000E+00         0.00000E+00        -0.42763E+08
 
   -0.42953E+08         0.61612E+07         0.00000E+00
    0.61612E+07        -0.61482E+08         0.00000E+00
    0.00000E+00         0.00000E+00        -0.42750E+08
 
   -0.42826E+08         0.77972E+07         0.00000E+00
    0.77972E+07        -0.61532E+08         0.00000E+00
    0.00000E+00         0.00000E+00        -0.42740E+08
 
   -0.42751E+08         0.96027E+07         0.00000E+00
    0.96027E+07        -0.61559E+08         0.00000E+00
    0.00000E+00         0.00000E+00        -0.42732E+08
 
   -0.42727E+08         0.11571E+08         0.00000E+00
    0.11571E+08        -0.61566E+08         0.00000E+00
    0.00000E+00         0.00000E+00        -0.42728E+08
 
   -0.46072E+08        -0.21466E+06         0.00000E+00
   -0.21466E+06        -0.60021E+08         0.00000E+00
    0.00000E+00         0.00000E+00        -0.40779E+08
 
   -0.45903E+08        -0.53342E+06         0.00000E+00
   -0.53342E+06        -0.60096E+08         0.00000E+00
    0.00000E+00         0.00000E+00        -0.40774E+08
 
   -0.45594E+08        -0.69065E+06         0.00000E+00
   -0.69065E+06        -0.60229E+08         0.00000E+00
    0.00000E+00         0.00000E+00        -0.40764E+08
 
   -0.45182E+08        -0.67467E+06         0.00000E+00
   -0.67467E+06        -0.60403E+08         0.00000E+00
    0.00000E+00         0.00000E+00        -0.40752E+08
 
   -0.44702E+08        -0.47853E+06         0.00000E+00
   -0.47853E+06        -0.60602E+08         0.00000E+00
    0.00000E+00         0.00000E+00        -0.40736E+08
 
   -0.44182E+08        -0.98600E+05         0.00000E+00
   -0.98600E+05        -0.60812E+08         0.00000E+00
    0.00000E+00         0.00000E+00        -0.40719E+08
 
   -0.43650E+08         0.46674E+06         0.00000E+00
    0.46674E+06        -0.61023E+08         0.00000E+00
    0.00000E+00         0.00000E+00        -0.40700E+08
 
   -0.43125E+08         0.12180E+07         0.00000E+00
    0.12180E+07        -0.61228E+08         0.00000E+00
    0.00000E+00         0.00000E+00        -0.40681E+08
 
   -0.42625E+08         0.21549E+07         0.00000E+00
    0.21549E+07        -0.61420E+08         0.00000E+00
    0.00000E+00         0.00000E+00        -0.40663E+08
 
   -0.42164E+08         0.32767E+07         0.00000E+00
    0.32767E+07        -0.61597E+08         0.00000E+00
    0.00000E+00         0.00000E+00        -0.40645E+08
 
   -0.41750E+08         0.45816E+07         0.00000E+00
    0.45816E+07        -0.61756E+08         0.00000E+00
    0.00000E+00         0.00000E+00        -0.40630E+08
 
   -0.41392E+08         0.60659E+07         0.00000E+00
    0.60659E+07        -0.61895E+08         0.00000E+00
    0.00000E+00         0.00000E+00        -0.40616E+08
 
   -0.41094E+08         0.77240E+07         0.00000E+00
    0.77240E+07        -0.62013E+08         0.00000E+00
    0.00000E+00         0.00000E+00        -0.40605E+08
 
   -0.40853E+08         0.95496E+07         0.00000E+00
    0.95496E+07        -0.62112E+08         0.00000E+00
    0.00000E+00         0.00000E+00        -0.40597E+08
 
   -0.40670E+08         0.11537E+08         0.00000E+00
    0.11537E+08        -0.62193E+08         0.00000E+00
    0.00000E+00         0.00000E+00        -0.40594E+08
 
   -0.46507E+08        -0.25849E+06         0.00000E+00
   -0.25849E+06        -0.60024E+08         0.00000E+00
    0.00000E+00         0.00000E+00        -0.38637E+08
 
   -0.46174E+08        -0.64912E+06         0.00000E+00
   -0.64912E+06        -0.60109E+08         0.00000E+00
    0.00000E+00         0.00000E+00        -0.38631E+08
 
   -0.45687E+08        -0.85824E+06         0.00000E+00
   -0.85824E+06        -0.60259E+08         0.00000E+00
    0.00000E+00         0.00000E+00        -0.38621E+08
 
   -0.45090E+08        -0.87630E+06         0.00000E+00
   -0.87630E+06        -0.60453E+08         0.00000E+00
    0.00000E+00         0.00000E+00        -0.38607E+08
 
   -0.44420E+08        -0.69925E+06         0.00000E+00
   -0.69925E+06        -0.60676E+08         0.00000E+00
    0.00000E+00         0.00000E+00        -0.38591E+08
 
   -0.43711E+08        -0.32668E+06         0.00000E+00
   -0.32668E+06        -0.60914E+08         0.00000E+00
    0.00000E+00         0.00000E+00        -0.38572E+08
 
   -0.42989E+08         0.23986E+06         0.00000E+00
    0.23986E+06        -0.61156E+08         0.00000E+00
    0.00000E+00         0.00000E+00        -0.38552E+08
 
   -0.42276E+08         0.99816E+06         0.00000E+00
    0.99816E+06        -0.61396E+08         0.00000E+00
    0.00000E+00         0.00000E+00        -0.38532E+08
 
   -0.41590E+08         0.19461E+07         0.00000E+00
    0.19461E+07        -0.61630E+08         0.00000E+00
    0.00000E+00         0.00000E+00        -0.38513E+08
 
   -0.40943E+08         0.30815E+07         0.00000E+00
    0.30815E+07        -0.61856E+08         0.00000E+00
    0.00000E+00         0.00000E+00        -0.38494E+08
 
   -0.40347E+08         0.44022E+07         0.00000E+00
    0.44022E+07        -0.62071E+08         0.00000E+00
    0.00000E+00         0.00000E+00        -0.38478E+08
 
   -0.39811E+08         0.59043E+07         0.00000E+00
    0.59043E+07        -0.62273E+08         0.00000E+00
    0.00000E+00         0.00000E+00        -0.38463E+08
 
   -0.39342E+08         0.75811E+07         0.00000E+00
    0.75811E+07        -0.62459E+08         0.00000E+00
    0.00000E+00         0.00000E+00        -0.38452E+08
 
   -0.38938E+08         0.94236E+07         0.00000E+00
    0.94236E+07        -0.62629E+08         0.00000E+00
    0.00000E+00         0.00000E+00        -0.38444E+08
 
   -0.38596E+08         0.11426E+08         0.00000E+00
    0.11426E+08        -0.62785E+08         0.00000E+00
    0.00000E+00         0.00000E+00        -0.38440E+08
 
   -0.47028E+08        -0.30787E+06         0.00000E+00
   -0.30787E+06        -0.60027E+08         0.00000E+00
    0.00000E+00         0.00000E+00        -0.36476E+08
 
   -0.46509E+08        -0.77833E+06         0.00000E+00
   -0.77833E+06        -0.60121E+08         0.00000E+00
    0.00000E+00         0.00000E+00        -0.36470E+08
 
   -0.45825E+08        -0.10441E+07         0.00000E+00
   -0.10441E+07        -0.60285E+08         0.00000E+00
    0.00000E+00         0.00000E+00        -0.36459E+08
 
   -0.45025E+08        -0.10989E+07         0.00000E+00
   -0.10989E+07        -0.60498E+08         0.00000E+00
    0.00000E+00         0.00000E+00        -0.36444E+08
 
   -0.44153E+08        -0.94302E+06         0.00000E+00
   -0.94302E+06        -0.60740E+08         0.00000E+00
    0.00000E+00         0.00000E+00        -0.36426E+08
 
   -0.43244E+08        -0.58031E+06         0.00000E+00
   -0.58031E+06        -0.60998E+08         0.00000E+00
    0.00000E+00         0.00000E+00        -0.36406E+08
 
   -0.42327E+08        -0.16294E+05         0.00000E+00
   -0.16294E+05        -0.61263E+08         0.00000E+00
    0.00000E+00         0.00000E+00        -0.36385E+08
 
   -0.41422E+08         0.74372E+06         0.00000E+00
    0.74372E+06        -0.61531E+08         0.00000E+00
    0.00000E+00         0.00000E+00        -0.36364E+08
 
   -0.40545E+08         0.16956E+07         0.00000E+00
    0.16956E+07        -0.61799E+08         0.00000E+00
    0.00000E+00         0.00000E+00        -0.36343E+08
 
   -0.39711E+08         0.28365E+07         0.00000E+00
    0.28365E+07        -0.62067E+08         0.00000E+00
    0.00000E+00         0.00000E+00        -0.36324E+08
 
   -0.38931E+08         0.41645E+07         0.00000E+00
    0.41645E+07        -0.62334E+08         0.00000E+00
    0.00000E+00         0.00000E+00        -0.36306E+08
 
   -0.38215E+08         0.56765E+07         0.00000E+00
    0.56765E+07        -0.62597E+08         0.00000E+00
    0.00000E+00         0.00000E+00        -0.36292E+08
 
   -0.37574E+08         0.73674E+07         0.00000E+00
    0.73674E+07        -0.62854E+08         0.00000E+00
    0.00000E+00         0.00000E+00        -0.36280E+08
 
   -0.37010E+08         0.92239E+07         0.00000E+00
    0.92239E+07        -0.63099E+08         0.00000E+00
    0.00000E+00         0.00000E+00        -0.36272E+08
 
   -0.36507E+08         0.11236E+08         0.00000E+00
    0.11236E+08        -0.63334E+08         0.00000E+00
    0.00000E+00         0.00000E+00        -0.36268E+08
 
   -0.47647E+08        -0.36250E+06         0.00000E+00
   -0.36250E+06        -0.60029E+08         0.00000E+00
    0.00000E+00         0.00000E+00        -0.34295E+08
 
   -0.46915E+08        -0.91956E+06         0.00000E+00
   -0.91956E+06        -0.60131E+08         0.00000E+00
    0.00000E+00         0.00000E+00        -0.34288E+08
 
   -0.46009E+08        -0.12448E+07         0.00000E+00
   -0.12448E+07        -0.60308E+08         0.00000E+00
    0.00000E+00         0.00000E+00        -0.34277E+08
 
   -0.44988E+08        -0.13372E+07         0.00000E+00
   -0.13372E+07        -0.60532E+08         0.00000E+00
    0.00000E+00         0.00000E+00        -0.34261E+08
 
   -0.43901E+08        -0.12025E+07         0.00000E+00
   -0.12025E+07        -0.60786E+08         0.00000E+00
    0.00000E+00         0.00000E+00        -0.34241E+08
 
   -0.42784E+08        -0.85066E+06         0.00000E+00
   -0.85066E+06        -0.61055E+08         0.00000E+00
    0.00000E+00         0.00000E+00        -0.34220E+08
 
   -0.41666E+08        -0.29204E+06         0.00000E+00
   -0.29204E+06        -0.61333E+08         0.00000E+00
    0.00000E+00         0.00000E+00        -0.34198E+08
 
   -0.40567E+08         0.46432E+06         0.00000E+00
    0.46432E+06        -0.61617E+08         0.00000E+00
    0.00000E+00         0.00000E+00        -0.34176E+08
 
   -0.39501E+08         0.14122E+07         0.00000E+00
    0.14122E+07        -0.61908E+08         0.00000E+00
    0.00000E+00         0.00000E+00        -0.34154E+08
 
   -0.38479E+08         0.25485E+07         0.00000E+00
    0.25485E+07        -0.62209E+08         0.00000E+00
    0.00000E+00         0.00000E+00        -0.34134E+08
 
   -0.37512E+08         0.38724E+07         0.00000E+00
    0.38724E+07        -0.62520E+08         0.00000E+00
    0.00000E+00         0.00000E+00        -0.34116E+08
 
   -0.36612E+08         0.53826E+07         0.00000E+00
    0.53826E+07        -0.62841E+08         0.00000E+00
    0.00000E+00         0.00000E+00        -0.34101E+08
 
   -0.35794E+08         0.70752E+07         0.00000E+00
    0.70752E+07        -0.63170E+08         0.00000E+00
    0.00000E+00         0.00000E+00        -0.34089E+08
 
   -0.35075E+08         0.89425E+07         0.00000E+00
    0.89425E+07        -0.63504E+08         0.00000E+00
    0.00000E+00         0.00000E+00        -0.34081E+08
 
   -0.34410E+08         0.10949E+08         0.00000E+00
    0.10949E+08        -0.63852E+08         0.00000E+00
    0.00000E+00         0.00000E+00        -0.34077E+08
 
   -0.48371E+08        -0.42182E+06         0.00000E+00
   -0.42182E+06        -0.60032E+08         0.00000E+00
    0.00000E+00         0.00000E+00        -0.32093E+08
 
   -0.47394E+08        -0.10704E+07         0.00000E+00
   -0.10704E+07        -0.60140E+08         0.00000E+00
    0.00000E+00         0.00000E+00        -0.32087E+08
 
   -0.46241E+08        -0.14556E+07         0.00000E+00
   -0.14556E+07        -0.60323E+08         0.00000E+00
    0.00000E+00         0.00000E+00        -0.32074E+08
 
   -0.44979E+08        -0.15833E+07         0.00000E+00
   -0.15833E+07        -0.60553E+08         0.00000E+00
    0.00000E+00         0.00000E+00        -0.32057E+08
 
   -0.43663E+08        -0.14675E+07         0.00000E+00
   -0.14675E+07        -0.60807E+08         0.00000E+00
    0.00000E+00         0.00000E+00        -0.32036E+08
 
   -0.42331E+08        -0.11255E+07         0.00000E+00
   -0.11255E+07        -0.61074E+08         0.00000E+00
    0.00000E+00         0.00000E+00        -0.32014E+08
 
   -0.41011E+08        -0.57420E+06         0.00000E+00
   -0.57420E+06        -0.61350E+08         0.00000E+00
    0.00000E+00         0.00000E+00        -0.31991E+08
 
   -0.39720E+08         0.17311E+06         0.00000E+00
    0.17311E+06        -0.61635E+08         0.00000E+00
    0.00000E+00         0.00000E+00        -0.31968E+08
 
   -0.38466E+08         0.11080E+07         0.00000E+00
    0.11080E+07        -0.61935E+08         0.00000E+00
    0.00000E+00         0.00000E+00        -0.31946E+08
 
   -0.37258E+08         0.22273E+07         0.00000E+00
    0.22273E+07        -0.62256E+08         0.00000E+00
    0.00000E+00         0.00000E+00        -0.31925E+08
 
   -0.36103E+08         0.35326E+07         0.00000E+00
    0.35326E+07        -0.62602E+08         0.00000E+00
    0.00000E+00         0.00000E+00        -0.31906E+08
 
   -0.35018E+08         0.50272E+07         0.00000E+00
    0.50272E+07        -0.62974E+08         0.00000E+00
    0.00000E+00         0.00000E+00        -0.31891E+08
 
   -0.34020E+08         0.67057E+07         0.00000E+00
    0.67057E+07        -0.63367E+08         0.00000E+00
    0.00000E+00         0.00000E+00        -0.31879E+08
 
   -0.33135E+08         0.85568E+07         0.00000E+00
    0.85568E+07        -0.63775E+08         0.00000E+00
    0.00000E+00         0.00000E+00        -0.31871E+08
 
   -0.32443E+08         0.10479E+08         0.00000E+00
    0.10479E+08        -0.64282E+08         0.00000E+00
    0.00000E+00         0.00000E+00        -0.32016E+08
 
   -0.49208E+08        -0.48507E+06         0.00000E+00
   -0.48507E+06        -0.60033E+08         0.00000E+00
    0.00000E+00         0.00000E+00        -0.29871E+08
 
   -0.47948E+08        -0.12275E+07         0.00000E+00
   -0.12275E+07        -0.60145E+08         0.00000E+00
    0.00000E+00         0.00000E+00        -0.29863E+08
 
   -0.46517E+08        -0.16693E+07         0.00000E+00
   -0.16693E+07        -0.60330E+08         0.00000E+00
    0.00000E+00         0.00000E+00        -0.29850E+08
 
   -0.44993E+08        -0.18264E+07         0.00000E+00
   -0.18264E+07        -0.60554E+08         0.00000E+00
    0.00000E+00         0.00000E+00        -0.29832E+08
 
   -0.43436E+08        -0.17238E+07         0.00000E+00
   -0.17238E+07        -0.60795E+08         0.00000E+00
    0.00000E+00         0.00000E+00        -0.29810E+08
 
   -0.41886E+08        -0.13888E+07         0.00000E+00
   -0.13888E+07        -0.61043E+08         0.00000E+00
    0.00000E+00         0.00000E+00        -0.29787E+08
 
   -0.40366E+08        -0.84585E+06         0.00000E+00
   -0.84585E+06        -0.61298E+08         0.00000E+00
    0.00000E+00         0.00000E+00        -0.29763E+08
 
   -0.38887E+08        -0.11311E+06         0.00000E+00
   -0.11311E+06        -0.61566E+08         0.00000E+00
    0.00000E+00         0.00000E+00        -0.29740E+08
 
   -0.37452E+08         0.79874E+06         0.00000E+00
    0.79874E+06        -0.61856E+08         0.00000E+00
    0.00000E+00         0.00000E+00        -0.29717E+08
 
   -0.36063E+08         0.18870E+07         0.00000E+00
    0.18870E+07        -0.62180E+08         0.00000E+00
    0.00000E+00         0.00000E+00        -0.29696E+08
 
   -0.34722E+08         0.31559E+07         0.00000E+00
    0.31559E+07        -0.62547E+08         0.00000E+00
    0.00000E+00         0.00000E+00        -0.29677E+08
 
   -0.33442E+08         0.46157E+07         0.00000E+00
    0.46157E+07        -0.62959E+08         0.00000E+00
    0.00000E+00         0.00000E+00        -0.29662E+08
 
   -0.32267E+08         0.62759E+07         0.00000E+00
    0.62759E+07        -0.63407E+08         0.00000E+00
    0.00000E+00         0.00000E+00        -0.29649E+08
 
   -0.31187E+08         0.81056E+07         0.00000E+00
    0.81056E+07        -0.63891E+08         0.00000E+00
    0.00000E+00         0.00000E+00        -0.29647E+08
 
   -0.30775E+08         0.98496E+07         0.00000E+00
    0.98496E+07        -0.64450E+08         0.00000E+00
    0.00000E+00         0.00000E+00        -0.30278E+08
 
   -0.50161E+08        -0.55126E+06         0.00000E+00
   -0.55126E+06        -0.60035E+08         0.00000E+00
    0.00000E+00         0.00000E+00        -0.27626E+08
 
   -0.48574E+08        -0.13862E+07         0.00000E+00
   -0.13862E+07        -0.60147E+08         0.00000E+00
    0.00000E+00         0.00000E+00        -0.27618E+08
 
   -0.46830E+08        -0.18764E+07         0.00000E+00
   -0.18764E+07        -0.60325E+08         0.00000E+00
    0.00000E+00         0.00000E+00        -0.27604E+08
 
   -0.45022E+08        -0.20521E+07         0.00000E+00
   -0.20521E+07        -0.60530E+08         0.00000E+00
    0.00000E+00         0.00000E+00        -0.27585E+08
 
   -0.43215E+08        -0.19535E+07         0.00000E+00
   -0.19535E+07        -0.60738E+08         0.00000E+00
    0.00000E+00         0.00000E+00        -0.27563E+08
 
   -0.41447E+08        -0.16205E+07         0.00000E+00
   -0.16205E+07        -0.60946E+08         0.00000E+00
    0.00000E+00         0.00000E+00        -0.27539E+08
 
   -0.39734E+08        -0.10864E+07         0.00000E+00
   -0.10864E+07        -0.61157E+08         0.00000E+00
    0.00000E+00         0.00000E+00        -0.27515E+08
 
   -0.38078E+08        -0.37434E+06         0.00000E+00
   -0.37434E+06        -0.61386E+08         0.00000E+00
    0.00000E+00         0.00000E+00        -0.27491E+08
 
   -0.36473E+08         0.50321E+06         0.00000E+00
    0.50321E+06        -0.61647E+08         0.00000E+00
    0.00000E+00         0.00000E+00        -0.27469E+08
 
   -0.34911E+08         0.15446E+07         0.00000E+00
    0.15446E+07        -0.61955E+08         0.00000E+00
    0.00000E+00         0.00000E+00        -0.27448E+08
 
   -0.33387E+08         0.27586E+07         0.00000E+00
    0.27586E+07        -0.62325E+08         0.00000E+00
    0.00000E+00         0.00000E+00        -0.27429E+08
 
   -0.31909E+08         0.41616E+07         0.00000E+00
    0.41616E+07        -0.62759E+08         0.00000E+00
    0.00000E+00         0.00000E+00        -0.27413E+08
 
   -0.30512E+08         0.57845E+07         0.00000E+00
    0.57845E+07        -0.63249E+08         0.00000E+00
    0.00000E+00         0.00000E+00        -0.27401E+08
 
   -0.29394E+08         0.75511E+07         0.00000E+00
    0.75511E+07        -0.63814E+08         0.00000E+00
    0.00000E+00         0.00000E+00        -0.27610E+08
 
   -0.29133E+08         0.92264E+07         0.00000E+00
    0.92264E+07        -0.64430E+08         0.00000E+00
    0.00000E+00         0.00000E+00        -0.28578E+08
 
   -0.51234E+08        -0.61921E+06         0.00000E+00
   -0.61921E+06        -0.60035E+08         0.00000E+00
    0.00000E+00         0.00000E+00        -0.25359E+08
 
   -0.49262E+08        -0.15401E+07         0.00000E+00
   -0.15401E+07        -0.60143E+08         0.00000E+00
    0.00000E+00         0.00000E+00        -0.25351E+08
 
   -0.47165E+08        -0.20634E+07         0.00000E+00
   -0.20634E+07        -0.60303E+08         0.00000E+00
    0.00000E+00         0.00000E+00        -0.25335E+08
 
   -0.45052E+08        -0.22407E+07         0.00000E+00
   -0.22407E+07        -0.60468E+08         0.00000E+00
    0.00000E+00         0.00000E+00        -0.25316E+08
 
   -0.42990E+08        -0.21331E+07         0.00000E+00
   -0.21331E+07        -0.60620E+08         0.00000E+00
    0.00000E+00         0.00000E+00        -0.25293E+08
 
   -0.41011E+08        -0.17961E+07         0.00000E+00
   -0.17961E+07        -0.60761E+08         0.00000E+00
    0.00000E+00         0.00000E+00        -0.25270E+08
 
   -0.39118E+08        -0.12722E+07         0.00000E+00
   -0.12722E+07        -0.60904E+08         0.00000E+00
    0.00000E+00         0.00000E+00        -0.25246E+08
 
   -0.37301E+08        -0.58865E+06         0.00000E+00
   -0.58865E+06        -0.61070E+08         0.00000E+00
    0.00000E+00         0.00000E+00        -0.25223E+08
 
   -0.35542E+08         0.24150E+06         0.00000E+00
    0.24150E+06        -0.61280E+08         0.00000E+00
    0.00000E+00         0.00000E+00        -0.25200E+08
 
   -0.33821E+08         0.12184E+07         0.00000E+00
    0.12184E+07        -0.61554E+08         0.00000E+00
    0.00000E+00         0.00000E+00        -0.25180E+08
 
   -0.32120E+08         0.23557E+07         0.00000E+00
    0.23557E+07        -0.61911E+08         0.00000E+00
    0.00000E+00         0.00000E+00        -0.25162E+08
 
   -0.30438E+08         0.36839E+07         0.00000E+00
    0.36839E+07        -0.62358E+08         0.00000E+00
    0.00000E+00         0.00000E+00        -0.25146E+08
 
   -0.28766E+08         0.52470E+07         0.00000E+00
    0.52470E+07        -0.62890E+08         0.00000E+00
    0.00000E+00         0.00000E+00        -0.25135E+08
 
   -0.27770E+08         0.68956E+07         0.00000E+00
    0.68956E+07        -0.63514E+08         0.00000E+00
    0.00000E+00         0.00000E+00        -0.25779E+08
 
   -0.27415E+08         0.85728E+07         0.00000E+00
    0.85728E+07        -0.64198E+08         0.00000E+00
    0.00000E+00         0.00000E+00        -0.26813E+08
 
   -0.52422E+08        -0.68738E+06         0.00000E+00
   -0.68738E+06        -0.60035E+08         0.00000E+00
    0.00000E+00         0.00000E+00        -0.23068E+08
 
   -0.49997E+08        -0.16799E+07         0.00000E+00
   -0.16799E+07        -0.60132E+08         0.00000E+00
    0.00000E+00         0.00000E+00        -0.23059E+08
 
   -0.47502E+08        -0.22109E+07         0.00000E+00
   -0.22109E+07        -0.60255E+08         0.00000E+00
    0.00000E+00         0.00000E+00        -0.23043E+08
 
   -0.45066E+08        -0.23653E+07         0.00000E+00
   -0.23653E+07        -0.60353E+08         0.00000E+00
    0.00000E+00         0.00000E+00        -0.23024E+08
 
   -0.42753E+08        -0.22330E+07         0.00000E+00
   -0.22330E+07        -0.60416E+08         0.00000E+00
    0.00000E+00         0.00000E+00        -0.23001E+08
 
   -0.40577E+08        -0.18873E+07         0.00000E+00
   -0.18873E+07        -0.60458E+08         0.00000E+00
    0.00000E+00         0.00000E+00        -0.22979E+08
 
   -0.38525E+08        -0.13783E+07         0.00000E+00
   -0.13783E+07        -0.60505E+08         0.00000E+00
    0.00000E+00         0.00000E+00        -0.22956E+08
 
   -0.36569E+08        -0.73453E+06         0.00000E+00
   -0.73453E+06        -0.60586E+08         0.00000E+00
    0.00000E+00         0.00000E+00        -0.22933E+08
 
   -0.34677E+08         0.32257E+05         0.00000E+00
    0.32257E+05        -0.60727E+08         0.00000E+00
    0.00000E+00         0.00000E+00        -0.22913E+08
 
   -0.32813E+08         0.92465E+06         0.00000E+00
    0.92465E+06        -0.60952E+08         0.00000E+00
    0.00000E+00         0.00000E+00        -0.22893E+08
 
   -0.30947E+08         0.19596E+07         0.00000E+00
    0.19596E+07        -0.61283E+08         0.00000E+00
    0.00000E+00         0.00000E+00        -0.22876E+08
 
   -0.29050E+08         0.31752E+07         0.00000E+00
    0.31752E+07        -0.61738E+08         0.00000E+00
    0.00000E+00         0.00000E+00        -0.22862E+08
 
   -0.27148E+08         0.46276E+07         0.00000E+00
    0.46276E+07        -0.62328E+08         0.00000E+00
    0.00000E+00         0.00000E+00        -0.22898E+08
 
   -0.26180E+08         0.61832E+07         0.00000E+00
    0.61832E+07        -0.63032E+08         0.00000E+00
    0.00000E+00         0.00000E+00        -0.23880E+08
 
   -0.25658E+08         0.78698E+07         0.00000E+00
    0.78698E+07        -0.63778E+08         0.00000E+00
    0.00000E+00         0.00000E+00        -0.24971E+08
 
   -0.53718E+08        -0.75356E+06         0.00000E+00
   -0.75356E+06        -0.60033E+08         0.00000E+00
    0.00000E+00         0.00000E+00        -0.20752E+08
 
   -0.50749E+08        -0.17902E+07         0.00000E+00
   -0.17902E+07        -0.60108E+08         0.00000E+00
    0.00000E+00         0.00000E+00        -0.20743E+08
 
   -0.47809E+08        -0.22886E+07         0.00000E+00
   -0.22886E+07        -0.60165E+08         0.00000E+00
    0.00000E+00         0.00000E+00        -0.20727E+08
 
   -0.45042E+08        -0.23880E+07         0.00000E+00
   -0.23880E+07        -0.60154E+08         0.00000E+00
    0.00000E+00         0.00000E+00        -0.20708E+08
 
   -0.42494E+08        -0.22166E+07         0.00000E+00
   -0.22166E+07        -0.60086E+08         0.00000E+00
    0.00000E+00         0.00000E+00        -0.20687E+08
 
   -0.40150E+08        -0.18637E+07         0.00000E+00
   -0.18637E+07        -0.59995E+08         0.00000E+00
    0.00000E+00         0.00000E+00        -0.20665E+08
 
   -0.37968E+08        -0.13810E+07         0.00000E+00
   -0.13810E+07        -0.59921E+08         0.00000E+00
    0.00000E+00         0.00000E+00        -0.20644E+08
 
   -0.35899E+08        -0.79410E+06         0.00000E+00
   -0.79410E+06        -0.59898E+08         0.00000E+00
    0.00000E+00         0.00000E+00        -0.20624E+08
 
   -0.33896E+08        -0.11069E+06         0.00000E+00
   -0.11069E+06        -0.59958E+08         0.00000E+00
    0.00000E+00         0.00000E+00        -0.20605E+08
 
   -0.31912E+08         0.67464E+06         0.00000E+00
    0.67464E+06        -0.60124E+08         0.00000E+00
    0.00000E+00         0.00000E+00        -0.20588E+08
 
   -0.29900E+08         0.15800E+07         0.00000E+00
    0.15800E+07        -0.60423E+08         0.00000E+00
    0.00000E+00         0.00000E+00        -0.20572E+08
 
   -0.27801E+08         0.26425E+07         0.00000E+00
    0.26425E+07        -0.60880E+08         0.00000E+00
    0.00000E+00         0.00000E+00        -0.20559E+08
 
   -0.25693E+08         0.39176E+07         0.00000E+00
    0.39176E+07        -0.61522E+08         0.00000E+00
    0.00000E+00         0.00000E+00        -0.20678E+08
 
   -0.24585E+08         0.53868E+07         0.00000E+00
    0.53868E+07        -0.62320E+08         0.00000E+00
    0.00000E+00         0.00000E+00        -0.21849E+08
 
   -0.23870E+08         0.70818E+07         0.00000E+00
    0.70818E+07        -0.63174E+08         0.00000E+00
    0.00000E+00         0.00000E+00        -0.23040E+08
 
   -0.55101E+08        -0.81383E+06         0.00000E+00
   -0.81383E+06        -0.60029E+08         0.00000E+00
    0.00000E+00         0.00000E+00        -0.18410E+08
 
   -0.51470E+08        -0.18428E+07         0.00000E+00
   -0.18428E+07        -0.60058E+08         0.00000E+00
    0.00000E+00         0.00000E+00        -0.18401E+08
 
   -0.48040E+08        -0.22468E+07         0.00000E+00
   -0.22468E+07        -0.59996E+08         0.00000E+00
    0.00000E+00         0.00000E+00        -0.18386E+08
 
   -0.44958E+08        -0.22568E+07         0.00000E+00
   -0.22568E+07        -0.59814E+08         0.00000E+00
    0.00000E+00         0.00000E+00        -0.18368E+08
 
   -0.42215E+08        -0.20430E+07         0.00000E+00
   -0.20430E+07        -0.59565E+08         0.00000E+00
    0.00000E+00         0.00000E+00        -0.18349E+08
 
   -0.39742E+08        -0.16974E+07         0.00000E+00
   -0.16974E+07        -0.59308E+08         0.00000E+00
    0.00000E+00         0.00000E+00        -0.18330E+08
 
   -0.37464E+08        -0.12630E+07         0.00000E+00
   -0.12630E+07        -0.59095E+08         0.00000E+00
    0.00000E+00         0.00000E+00        -0.18312E+08
 
   -0.35311E+08        -0.75698E+06         0.00000E+00
   -0.75698E+06        -0.58961E+08         0.00000E+00
    0.00000E+00         0.00000E+00        -0.18295E+08
 
   -0.33223E+08        -0.18154E+06         0.00000E+00
   -0.18154E+06        -0.58936E+08         0.00000E+00
    0.00000E+00         0.00000E+00        -0.18279E+08
 
   -0.31142E+08         0.47155E+06         0.00000E+00
    0.47155E+06        -0.59045E+08         0.00000E+00
    0.00000E+00         0.00000E+00        -0.18264E+08
 
   -0.29009E+08         0.12192E+07         0.00000E+00
    0.12192E+07        -0.59312E+08         0.00000E+00
    0.00000E+00         0.00000E+00        -0.18251E+08
 
   -0.26750E+08         0.20863E+07         0.00000E+00
    0.20863E+07        -0.59771E+08         0.00000E+00
    0.00000E+00         0.00000E+00        -0.18240E+08
 
   -0.24409E+08         0.31255E+07         0.00000E+00
    0.31255E+07        -0.60461E+08         0.00000E+00
    0.00000E+00         0.00000E+00        -0.18371E+08
 
   -0.23031E+08         0.44762E+07         0.00000E+00
    0.44762E+07        -0.61362E+08         0.00000E+00
    0.00000E+00         0.00000E+00        -0.19654E+08
 
   -0.22049E+08         0.61513E+07         0.00000E+00
    0.61513E+07        -0.62374E+08         0.00000E+00
    0.00000E+00         0.00000E+00        -0.21010E+08
 
   -0.56526E+08        -0.85866E+06         0.00000E+00
   -0.85866E+06        -0.60015E+08         0.00000E+00
    0.00000E+00         0.00000E+00        -0.16041E+08
 
   -0.52073E+08        -0.17767E+07         0.00000E+00
   -0.17767E+07        -0.59945E+08         0.00000E+00
    0.00000E+00         0.00000E+00        -0.16033E+08
 
   -0.48146E+08        -0.20013E+07         0.00000E+00
   -0.20013E+07        -0.59662E+08         0.00000E+00
    0.00000E+00         0.00000E+00        -0.16019E+08
 
   -0.44811E+08        -0.19084E+07         0.00000E+00
   -0.19084E+07        -0.59226E+08         0.00000E+00
    0.00000E+00         0.00000E+00        -0.16004E+08
 
   -0.41934E+08        -0.16767E+07         0.00000E+00
   -0.16767E+07        -0.58754E+08         0.00000E+00
    0.00000E+00         0.00000E+00        -0.15989E+08
 
   -0.39380E+08        -0.13721E+07         0.00000E+00
   -0.13721E+07        -0.58318E+08         0.00000E+00
    0.00000E+00         0.00000E+00        -0.15974E+08
 
   -0.37041E+08        -0.10190E+07         0.00000E+00
   -0.10190E+07        -0.57964E+08         0.00000E+00
    0.00000E+00         0.00000E+00        -0.15960E+08
 
   -0.34833E+08        -0.62404E+06         0.00000E+00
   -0.62404E+06        -0.57724E+08         0.00000E+00
    0.00000E+00         0.00000E+00        -0.15946E+08
 
   -0.32684E+08        -0.18435E+06         0.00000E+00
   -0.18435E+06        -0.57623E+08         0.00000E+00
    0.00000E+00         0.00000E+00        -0.15934E+08
 
   -0.30530E+08         0.30950E+06         0.00000E+00
    0.30950E+06        -0.57682E+08         0.00000E+00
    0.00000E+00         0.00000E+00        -0.15923E+08
 
   -0.28306E+08         0.87183E+06         0.00000E+00
    0.87183E+06        -0.57928E+08         0.00000E+00
    0.00000E+00         0.00000E+00        -0.15913E+08
 
   -0.25939E+08         0.15154E+07         0.00000E+00
    0.15154E+07        -0.58388E+08         0.00000E+00
    0.00000E+00         0.00000E+00        -0.15904E+08
 
   -0.23364E+08         0.22690E+07         0.00000E+00
    0.22690E+07        -0.59118E+08         0.00000E+00
    0.00000E+00         0.00000E+00        -0.15965E+08
 
   -0.21571E+08         0.34030E+07         0.00000E+00
    0.34030E+07        -0.60123E+08         0.00000E+00
    0.00000E+00         0.00000E+00        -0.17255E+08
 
   -0.20217E+08         0.50008E+07         0.00000E+00
    0.50008E+07        -0.61369E+08         0.00000E+00
    0.00000E+00         0.00000E+00        -0.18866E+08
 
   -0.57883E+08        -0.85204E+06         0.00000E+00
   -0.85204E+06        -0.59969E+08         0.00000E+00
    0.00000E+00         0.00000E+00        -0.13644E+08
 
   -0.52429E+08        -0.14372E+07         0.00000E+00
   -0.14372E+07        -0.59622E+08         0.00000E+00
    0.00000E+00         0.00000E+00        -0.13637E+08
 
   -0.48113E+08        -0.14381E+07         0.00000E+00
   -0.14381E+07        -0.58956E+08         0.00000E+00
    0.00000E+00         0.00000E+00        -0.13627E+08
 
   -0.44638E+08        -0.12995E+07         0.00000E+00
   -0.12995E+07        -0.58216E+08         0.00000E+00
    0.00000E+00         0.00000E+00        -0.13617E+08
 
   -0.41696E+08        -0.11106E+07         0.00000E+00
   -0.11106E+07        -0.57523E+08         0.00000E+00
    0.00000E+00         0.00000E+00        -0.13607E+08
 
   -0.39102E+08        -0.89618E+06         0.00000E+00
   -0.89618E+06        -0.56928E+08         0.00000E+00
    0.00000E+00         0.00000E+00        -0.13597E+08
 
   -0.36732E+08        -0.66276E+06         0.00000E+00
   -0.66276E+06        -0.56459E+08         0.00000E+00
    0.00000E+00         0.00000E+00        -0.13588E+08
 
   -0.34492E+08        -0.40980E+06         0.00000E+00
   -0.40980E+06        -0.56136E+08         0.00000E+00
    0.00000E+00         0.00000E+00        -0.13580E+08
 
   -0.32306E+08        -0.13269E+06         0.00000E+00
   -0.13269E+06        -0.55978E+08         0.00000E+00
    0.00000E+00         0.00000E+00        -0.13572E+08
 
   -0.30103E+08         0.17633E+06         0.00000E+00
    0.17633E+06        -0.56004E+08         0.00000E+00
    0.00000E+00         0.00000E+00        -0.13565E+08
 
   -0.27816E+08         0.52761E+06         0.00000E+00
    0.52761E+06        -0.56239E+08         0.00000E+00
    0.00000E+00         0.00000E+00        -0.13559E+08
 
   -0.25381E+08         0.93241E+06         0.00000E+00
    0.93241E+06        -0.56711E+08         0.00000E+00
    0.00000E+00         0.00000E+00        -0.13553E+08
 
   -0.22679E+08         0.13866E+07         0.00000E+00
    0.13866E+07        -0.57471E+08         0.00000E+00
    0.00000E+00         0.00000E+00        -0.13548E+08
 
   -0.20307E+08         0.21270E+07         0.00000E+00
    0.21270E+07        -0.58548E+08         0.00000E+00
    0.00000E+00         0.00000E+00        -0.14590E+08
 
   -0.18440E+08         0.34799E+07         0.00000E+00
    0.34799E+07        -0.60154E+08         0.00000E+00
    0.00000E+00         0.00000E+00        -0.16578E+08
 
   -0.58844E+08        -0.51628E+06         0.00000E+00
   -0.51628E+06        -0.59498E+08         0.00000E+00
    0.00000E+00         0.00000E+00        -0.11219E+08
 
   -0.52481E+08        -0.58521E+06         0.00000E+00
   -0.58521E+06        -0.58579E+08         0.00000E+00
    0.00000E+00         0.00000E+00        -0.11216E+08
 
   -0.48038E+08        -0.53054E+06         0.00000E+00
   -0.53054E+06        -0.57534E+08         0.00000E+00
    0.00000E+00         0.00000E+00        -0.11213E+08
 
   -0.44518E+08        -0.46335E+06         0.00000E+00
   -0.46335E+06        -0.56574E+08         0.00000E+00
    0.00000E+00         0.00000E+00        -0.11209E+08
 
   -0.41556E+08        -0.38935E+06         0.00000E+00
   -0.38935E+06        -0.55741E+08         0.00000E+00
    0.00000E+00         0.00000E+00        -0.11205E+08
 
   -0.38950E+08        -0.31147E+06         0.00000E+00
   -0.31147E+06        -0.55053E+08         0.00000E+00
    0.00000E+00         0.00000E+00        -0.11202E+08
 
   -0.36569E+08        -0.22955E+06         0.00000E+00
   -0.22955E+06        -0.54520E+08         0.00000E+00
    0.00000E+00         0.00000E+00        -0.11199E+08
 
   -0.34315E+08        -0.14230E+06         0.00000E+00
   -0.14230E+06        -0.54154E+08         0.00000E+00
    0.00000E+00         0.00000E+00        -0.11196E+08
 
   -0.32110E+08        -0.47533E+05         0.00000E+00
   -0.47533E+05        -0.53967E+08         0.00000E+00
    0.00000E+00         0.00000E+00        -0.11193E+08
 
   -0.29882E+08         0.57788E+05         0.00000E+00
    0.57788E+05        -0.53979E+08         0.00000E+00
    0.00000E+00         0.00000E+00        -0.11191E+08
 
   -0.27564E+08         0.17749E+06         0.00000E+00
    0.17749E+06        -0.54214E+08         0.00000E+00
    0.00000E+00         0.00000E+00        -0.11189E+08
 
   -0.25084E+08         0.31785E+06         0.00000E+00
    0.31785E+06        -0.54706E+08         0.00000E+00
    0.00000E+00         0.00000E+00        -0.11187E+08
 
   -0.22406E+08         0.47206E+06         0.00000E+00
    0.47206E+06        -0.55486E+08         0.00000E+00
    0.00000E+00         0.00000E+00        -0.11185E+08
 
   -0.19532E+08         0.71837E+06         0.00000E+00
    0.71837E+06        -0.56749E+08         0.00000E+00
    0.00000E+00         0.00000E+00        -0.11630E+08
 
   -0.16902E+08         0.13047E+07         0.00000E+00
    0.13047E+07        -0.58673E+08         0.00000E+00
    0.00000E+00         0.00000E+00        -0.14066E+08
 
SCALARS stresss double 
LOOKUP_TABLE default
  -56541201.6379880     
  -55604467.2635473     
  -55131086.9554151     
  -55209869.2044420     
  -55775739.7518590     
  -56699467.9463659     
  -57903124.7976847     
  -59329589.0546336     
  -60844576.1650790     
  -62396521.1273889     
  -63558166.4033307     
  -64493806.0563425     
  -65309523.0207730     
  -66072763.4791182     
  -66884513.8278928     
  -57069264.3787503     
  -57727540.9420000     
  -58097776.4025469     
  -58347319.1779271     
  -58561256.1066707     
  -58785977.9808808     
  -59099262.6780530     
  -59609776.8641874     
  -60484702.2566804     
  -61497482.4265342     
  -62477315.0943065     
  -63323925.6232775     
  -64077067.3471352     
  -64772807.9923077     
  -65405693.8254863     
  -58001794.4308567     
  -58587871.2854020     
  -58933469.9230267     
  -58924539.4577177     
  -58848474.8860722     
  -58854548.9134224     
  -59013653.2553135     
  -59410928.4945434     
  -60030491.9551461     
  -60766292.3507109     
  -61520779.4798121     
  -62238022.5131311     
  -62895612.6764558     
  -63491764.3352599     
  -64016642.4309540     
  -57278882.3006818     
  -57602623.4640970     
  -57933248.9044596     
  -58137025.5503042     
  -58248010.1184480     
  -58383757.5449629     
  -58615149.2788322     
  -58973990.8960805     
  -59455450.2792612     
  -60020573.0015604     
  -60618113.4905211     
  -61207115.3161612     
  -61762662.4731371     
  -62269404.1073331     
  -62714225.1572165     
  -56644258.1303455     
  -56899856.1429891     
  -57174452.6355552     
  -57400571.3254813     
  -57596465.8315135     
  -57800872.7784592     
  -58056094.0282321     
  -58383990.7168445     
  -58784301.9869443     
  -59239232.9098909     
  -59722026.7108743     
  -60206238.6408651     
  -60670857.2482732     
  -61100386.0727705     
  -61482712.4856375     
  -55965582.0765700     
  -56226724.7394032     
  -56469814.3638797     
  -56699843.2388847     
  -56919406.0406102     
  -57147387.8378542     
  -57403930.7860499     
  -57702324.7806182     
  -58044283.6982878     
  -58421234.8631839     
  -58818307.9237658     
  -59218815.5556664     
  -59607499.7669828     
  -59971897.0634612     
  -60302567.6493172     
  -55296551.8596675     
  -55545236.9430630     
  -55779713.4307506     
  -56003386.0004382     
  -56223658.1226572     
  -56450135.4074386     
  -56693699.1333728     
  -56961836.8249544     
  -57256262.0770297     
  -57572731.7081960     
  -57902726.2170006     
  -58235758.4974137     
  -58561400.1317402     
  -58870631.3354598     
  -59156644.4072070     
  -54632621.7466392     
  -54867795.7460244     
  -55089332.4700223     
  -55301762.2871417     
  -55510744.9155034     
  -55723072.1329048     
  -55945201.6526379     
  -56181735.0472768     
  -56434051.0939020     
  -56700042.8678376     
  -56974792.8560580     
  -57251776.4500904     
  -57524119.1086223     
  -57785637.0420593     
  -58031618.6375476     
  -53974146.9829030     
  -54192470.3553349     
  -54397228.0671132     
  -54592557.2102349     
  -54783202.6586011     
  -54974125.9003585     
  -55169848.0572094     
  -55373577.2642583     
  -55586573.1081017     
  -55807939.5539520     
  -56034928.2584962     
  -56263585.2518825     
  -56489524.2885758     
  -56708654.6840040     
  -56917779.5716037     
  -53320758.2514576     
  -53518941.3295984     
  -53702928.8852374     
  -53876493.0541273     
  -54043673.9901348     
  -54208497.4866336     
  -54374527.6106419     
  -54544396.4199507     
  -54719441.3387682     
  -54899584.7242967     
  -55083482.4073203     
  -55268889.2507644     
  -55453135.3149264     
  -55633609.1348684     
  -55808171.6878470     
  -52672538.8849898     
  -52847400.8163643     
  -53007012.9854415     
  -53154850.4096188     
  -53294574.6305147     
  -53429757.0739461     
  -53563569.4711465     
  -53698483.0084176     
  -53836050.3843617     
  -53976825.9702981     
  -54120445.3845992     
  -54265839.7988383     
  -54411531.4083844     
  -54555946.3928210     
  -54697687.5580314     
  -52029924.1738597     
  -52178550.6440082     
  -52310456.1940944     
  -52429041.2113359     
  -52537862.4073856     
  -52640376.7584703     
  -52739697.6306403     
  -52838382.9446984     
  -52938286.2308102     
  -53040498.1337401     
  -53145387.6798251     
  -53252731.1562556     
  -53361898.0610833     
  -53472053.8833690     
  -53582337.8678286     
  -51393929.5751945     
  -51513485.7484815     
  -51614448.6541251     
  -51700404.1085208     
  -51775059.2750326     
  -51842010.1609682     
  -51904539.3789617     
  -51965451.9723278     
  -52026962.9244304     
  -52090647.9995396     
  -52157461.8576559     
  -52227816.4778480     
  -52301702.2470773     
  -52378825.3553988     
  -52458730.0371530     
  -50766209.3188029     
  -50853664.3788873     
  -50920300.7279534     
  -50970146.6197893     
  -51007289.2124916     
  -51035668.3478995     
  -51058904.7873270     
  -51080166.5722557     
  -51102078.0883292     
  -51126675.3376941     
  -51155408.2472884     
  -51189187.6351996     
  -51228469.5040775     
  -51273360.9753621     
  -51323721.5411456     
  -50149010.1550483     
  -50200852.1948823     
  -50229384.8487125     
  -50239312.7933321     
  -50235305.8483968     
  -50221817.7184541     
  -50202940.0358680     
  -50182293.0548403     
  -50162952.0313265     
  -50147405.9910966     
  -50137546.6851803     
  -50134690.0441195     
  -50139637.5152988     
  -50152778.0068753     
  -50174206.7586516     
  -49545054.7290005     
  -49557032.7049161     
  -49543065.1284667     
  -49508741.2312851     
  -49459490.1783052     
  -49400421.0715601     
  -49336201.0140775     
  -49270970.6667437     
  -49208291.2192485     
  -49151112.1746582     
  -49101745.6535048     
  -49061851.7941350     
  -49032466.4831231     
  -49014115.7395788     
  -49007015.0660204     
  -48957388.6376233     
  -48924286.0800438     
  -48862601.4159948     
  -48778996.3034826     
  -48679813.6199143     
  -48570933.2499892     
  -48457674.3987678     
  -48344742.1144908     
  -48236205.9717806     
  -48135490.9170553     
  -48045354.1590302     
  -47967796.9847881     
  -47903984.4883604     
  -47854342.9016441     
  -47818938.1615514     
  -48389210.2726424     
  -48304642.2419627     
  -48189023.0768425     
  -48050265.6084660     
  -47895764.1791416     
  -47732258.7914580     
  -47565763.6613311     
  -47401556.2110467     
  -47244208.9286056     
  -47097629.6981248     
  -46965070.9458895     
  -46849057.7430457     
  -46750916.7071750     
  -46670506.9147622     
  -46607021.0595182     
  -47843693.7390291     
  -47699910.6007608     
  -47522968.3125778     
  -47322217.2021757     
  -47106231.9989773     
  -46882674.3041804     
  -46658251.3305486     
  -46438764.4808207     
  -46229224.4931365     
  -46033994.0306306     
  -45856867.6953620     
  -45701069.4171064     
  -45569164.6303088     
  -45460258.8592378     
  -45369598.7008471     
  -47323809.9150513     
  -47111483.2910060     
  -46864479.6489759     
  -46593805.1342845     
  -46309345.0464945     
  -46019711.9411829     
  -45732242.1615769     
  -45453127.7074412     
  -45187651.3355754     
  -44940484.8721038     
  -44716004.5584861     
  -44518244.6731877     
  -44351107.7034121     
  -44220200.2575845     
  -44112932.6987147     
  -46832147.0417626     
  -46540100.4920213     
  -46212736.1943906     
  -45863002.0510272     
  -45502236.9815293     
  -45139992.0816508     
  -44784082.7749727     
  -44440838.0974258     
  -44115497.9704642     
  -43812707.8476468     
  -43537118.2973630     
  -43294224.9570351     
  -43088553.8500992     
  -42927097.2491742     
  -42913711.0976885     
  -46370726.9758498     
  -45985552.4609884     
  -45565686.1145566     
  -45126422.3517830     
  -44680718.0770921     
  -44238985.1280988     
  -43809243.2370241     
  -43397546.2335438     
  -43008583.5431388     
  -42646413.5751619     
  -42315251.1455319     
  -42020845.5864755     
  -41774668.2080786     
  -41574996.1195119     
  -41834441.8830844     
  -45940802.4147624     
  -45446266.4555773     
  -44919512.6290195     
  -44378776.1158513     
  -43838808.3013367     
  -43310678.5661513     
  -42802143.1694025     
  -42318361.5415045     
  -41862766.1211285     
  -41437987.8870079     
  -41047000.3248370     
  -40693533.6609607     
  -40387165.2421910     
  -40272625.4477009     
  -40713439.9385765     
  -45542596.1061250     
  -44918673.2865819     
  -44267810.0600565     
  -43612058.8078188     
  -42968083.5944240     
  -42347136.6148442     
  -41755916.8463363     
  -41197804.0554009     
  -40674077.2546232     
  -40185003.8654073     
  -39730840.1699995     
  -39314168.7371603     
  -38930082.9816487     
  -39020917.1402002     
  -39475574.0856821     
  -45174891.6454478     
  -44396126.3714698     
  -43600236.9257016     
  -42814328.3531471     
  -42056797.9967604     
  -41337982.3331447     
  -40662160.3584175     
  -40029701.4306278     
  -39438736.1708796     
  -38886236.5645028     
  -38368774.0637697     
  -37883220.4005263     
  -37457925.5500174     
  -37696971.7701754     
  -38135726.5804337     
  -44834227.5312769     
  -43866870.8970706     
  -42900169.4993600     
  -41967874.5264930     
  -41088817.0329217     
  -40269943.4477553     
  -39510787.7665628     
  -38807113.5167246     
  -38152950.8254983     
  -37541436.8126211     
  -36964857.8327907     
  -36413571.6647040     
  -35964371.6919322     
  -36251146.3349864     
  -36694388.0268458     
  -44513132.4626428     
  -43309642.0548516     
  -42140489.3357669     
  -41046608.7452836     
  -40042708.0286257     
  -39126815.0003146     
  -38290218.8168844     
  -37522424.3421208     
  -36812700.9462693     
  -36150343.2371395     
  -35524027.4584228     
  -34920153.4214807     
  -34413753.6357019     
  -34682368.0855844     
  -35144381.8100561     
  -44194186.6894564     
  -42683591.2906374     
  -41275504.3005635     
  -40013628.1464434     
  -38892117.6282500     
  -37890333.0713915     
  -36988149.3787823     
  -36167782.8092751     
  -35413692.7471391     
  -34711857.5090211     
  -34048875.2547639     
  -33410154.0008822     
  -32815644.8357610     
  -32983029.9308059     
  -33484168.5438586     
  -43831848.1675292     
  -41895975.6358404     
  -40232084.1787473     
  -38823872.9711515     
  -37608603.9784272     
  -36542393.9903438     
  -35593009.7722571     
  -34735968.7747143     
  -33951731.7754108     
  -33223915.1444305     
  -32538085.4398629     
  -31881884.0092371     
  -31232827.0509884     
  -31148412.9068620     
  -31723939.1400342     
  -43187021.2837278     
  -40758789.4262564     
  -38928233.8631646     
  -37433627.4229524     
  -36167607.5279893     
  -35068404.6124922     
  -34095910.0816615     
  -33221555.5444320     
  -32423519.8420194     
  -31684183.1610658     
  -30988891.9531936     
  -30325540.9856317     
  -29692201.8495970     
  -29303757.7624033     
  -29880158.8423975     
SCALARS 2waySource double 
LOOKUP_TABLE default
  4.471321310937595E-004
  4.663146868766028E-004
  4.943905706020750E-004
  5.071538555360966E-004
  5.105681234529231E-004
  5.153127678680427E-004
  5.139476209273660E-004
  5.155048191068796E-004
  5.445384348942845E-004
  5.190838644448651E-004
  5.654446902514363E-004
  5.908104194194900E-004
  6.077771497074425E-004
  6.198300507456706E-004
  6.281561911493873E-004
  4.590692127345450E-004
  4.604154427575315E-004
  4.465608972375208E-004
  4.536028465441744E-004
  4.825199174593268E-004
  5.127240361255436E-004
  5.540464596312475E-004
  5.188657906666071E-004
  5.816205205612861E-004
  5.579846043891083E-004
  5.808813792897928E-004
  5.999048152899946E-004
  6.143530141615843E-004
  6.253609821946907E-004
  6.336202182824395E-004
  5.046621721497583E-004
  5.709460643479265E-004
  5.451618736555256E-004
  6.235392746742396E-004
  6.304361087255592E-004
  6.361029215921779E-004
  6.327343698281224E-004
  6.134701775638938E-004
  5.903997731463572E-004
  5.935662852319123E-004
  5.988478599249674E-004
  6.107069823395599E-004
  6.218327391521784E-004
  6.313978132161460E-004
  6.393759978637081E-004
  6.783887286205131E-004
  6.519950807114007E-004
  6.200019871470859E-004
  6.199055386026739E-004
  6.304120324310703E-004
  6.318198014786640E-004
  6.288207196500988E-004
  6.204120919638300E-004
  6.121978803602624E-004
  6.097057187766921E-004
  6.137556021910166E-004
  6.205550532569133E-004
  6.288097717307893E-004
  6.369100411315044E-004
  6.444769676771881E-004
  6.758861959853101E-004
  6.522950248686346E-004
  6.367878749203675E-004
  6.298386984495714E-004
  6.302001379590366E-004
  6.307961631004806E-004
  6.287589282773704E-004
  6.250561175026750E-004
  6.215544513733264E-004
  6.206399208901384E-004
  6.229486193769982E-004
  6.278438324461104E-004
  6.341067338999867E-004
  6.410027111377561E-004
  6.480991880061081E-004
  6.607122069241485E-004
  6.480094328942484E-004
  6.382229829944590E-004
  6.326942350348157E-004
  6.305301742765505E-004
  6.297248694970749E-004
  6.286051763530638E-004
  6.270028509683927E-004
  6.258040091702241E-004
  6.259739972768984E-004
  6.280461058373239E-004
  6.318779049508482E-004
  6.370232073135449E-004
  6.430240726956184E-004
  6.496380982330269E-004
  6.433567635810418E-004
  6.384937859390403E-004
  6.335590178319347E-004
  6.301344113875199E-004
  6.283190623000337E-004
  6.274556337376466E-004
  6.268939919516444E-004
  6.264562118962578E-004
  6.264462796413708E-004
  6.273365598737046E-004
  6.294363808608493E-004
  6.327916205054925E-004
  6.372455321398646E-004
  6.426009331603086E-004
  6.487335745914548E-004
  6.266063070004373E-004
  6.264902846125246E-004
  6.252730318367268E-004
  6.240921335739263E-004
  6.233956289011471E-004
  6.231489873360057E-004
  6.231871181829745E-004
  6.234723130810145E-004
  6.241552445531507E-004
  6.254786544276172E-004
  6.276442068115624E-004
  6.307360576143472E-004
  6.347350636605469E-004
  6.395793113410340E-004
  6.452315072081013E-004
  6.104387290531253E-004
  6.133894177775658E-004
  6.148453999300391E-004
  6.156021904166563E-004
  6.161508962528173E-004
  6.167068686693985E-004
  6.173509318382637E-004
  6.181611421602525E-004
  6.192688220834655E-004
  6.208396822263466E-004
  6.230227760954546E-004
  6.259139697016420E-004
  6.295531978690419E-004
  6.339497981899276E-004
  6.391151989743805E-004
  5.946871389454749E-004
  5.997268720989158E-004
  6.030787945911046E-004
  6.053448616580364E-004
  6.069810849174131E-004
  6.082881080835734E-004
  6.094617399652639E-004
  6.106554962164444E-004
  6.120182101129413E-004
  6.136982347572928E-004
  6.158281312006032E-004
  6.185095538145558E-004
  6.218107137619397E-004
  6.257765868488326E-004
  6.304447170924492E-004
  5.792795333284448E-004
  5.857435326602012E-004
  5.904044085114745E-004
  5.937577912256456E-004
  5.962186882476750E-004
  5.981090088873653E-004
  5.996739870630069E-004
  6.011102449524736E-004
  6.025878299385618E-004
  6.042587388712833E-004
  6.062550755989975E-004
  6.086847644708742E-004
  6.116310387342648E-004
  6.151572521848791E-004
  6.193144386221488E-004
  5.642023480722539E-004
  5.715764268640464E-004
  5.770731677162453E-004
  5.811270811920169E-004
  5.841208924404268E-004
  5.863759566640288E-004
  5.881564886004711E-004
  5.896816703142500E-004
  5.911377150570190E-004
  5.926851592186883E-004
  5.944612893923289E-004
  5.965804501721099E-004
  5.991350655926567E-004
  6.021984804356237E-004
  6.058288280168282E-004
  5.494672148887989E-004
  5.573191501929860E-004
  5.632469001224342E-004
  5.676480566644320E-004
  5.708823759473906E-004
  5.732647756074962E-004
  5.750653262176423E-004
  5.765141891147462E-004
  5.778080120079198E-004
  5.791151209305057E-004
  5.805787259493968E-004
  5.823188441856482E-004
  5.844340310584708E-004
  5.870034845334741E-004
  5.900892767419405E-004
  5.350970399236023E-004
  5.430435896588580E-004
  5.490397540131044E-004
  5.534606723508908E-004
  5.566507665916425E-004
  5.589183830241311E-004
  5.605343617786732E-004
  5.617337973751202E-004
  5.627194156358588E-004
  5.636651041524190E-004
  5.647188451362098E-004
  5.660050136835058E-004
  5.676263263597659E-004
  5.696656237846138E-004
  5.721873729056324E-004
  5.211216850576216E-004
  5.288095597242240E-004
  5.345378656466955E-004
  5.386691523310296E-004
  5.415386823157948E-004
  5.434500690843787E-004
  5.446734408103701E-004
  5.454458447782695E-004
  5.459731305273136E-004
  5.464324690109643E-004
  5.469749024373666E-004
  5.477276442078140E-004
  5.487960615061491E-004
  5.502653101878974E-004
  5.522015120374669E-004
  5.075768870288964E-004
  5.146697309643929E-004
  5.198091995966073E-004
  5.233527959800173E-004
  5.256317991117706E-004
  5.269475080848117E-004
  5.275693843204845E-004
  5.277349782003294E-004
  5.276512186820570E-004
  5.274965119339455E-004
  5.274231393758092E-004
  5.275595848046393E-004
  5.280125663931039E-004
  5.288686412478472E-004
  5.301952660950223E-004
  4.945037103757137E-004
  5.006720066002678E-004
  5.049084146679810E-004
  5.075717070885926E-004
  5.089937064639118E-004
  5.094758646676674E-004
  5.092875356683671E-004
  5.086659080387244E-004
  5.078173023208534E-004
  5.069193748345484E-004
  5.061237294900908E-004
  5.055584926052604E-004
  5.053305160215674E-004
  5.055270404475502E-004
  5.062167656006010E-004
  4.819476073085401E-004
  4.868601129705482E-004
  4.898787497280338E-004
  4.913692947399362E-004
  4.916682604010057E-004
  4.910795500046342E-004
  4.898729222185777E-004
  4.882842745596434E-004
  4.865174542032278E-004
  4.847470949937748E-004
  4.831218976176952E-004
  4.817678027728021E-004
  4.807905878503807E-004
  4.802775954421714E-004
  4.802987799052041E-004
  4.699568668233541E-004
  4.732727354949093E-004
  4.747517410650771E-004
  4.747723660150072E-004
  4.736798348555160E-004
  4.717825236435480E-004
  4.693506516991673E-004
  4.666172753186755E-004
  4.637811733308456E-004
  4.610109372096862E-004
  4.584494854993907E-004
  4.562182801297156E-004
  4.544206867129248E-004
  4.531439051443872E-004
  4.524593546412957E-004
  4.585804714215317E-004
  4.599413080304582E-004
  4.595449945470018E-004
  4.577890316658184E-004
  4.550315576581217E-004
  4.515870605419563E-004
  4.477253777182719E-004
  4.436739281858248E-004
  4.396224484108085E-004
  4.357291507751356E-004
  4.321271958672115E-004
  4.289305101790270E-004
  4.262382269037698E-004
  4.241373860255734E-004
  4.227024034618805E-004
  4.478654239153442E-004
  4.468863377105474E-004
  4.442578000647461E-004
  4.404041862232178E-004
  4.357013122747297E-004
  4.304708169026894E-004
  4.249797478975566E-004
  4.194449808591618E-004
  4.140410187754107E-004
  4.089093512838074E-004
  4.041677698440294E-004
  3.999184938274006E-004
  3.962541223403141E-004
  3.932610758038290E-004
  3.910184585576310E-004
  4.378535552363918E-004
  4.341118069437546E-004
  4.288638549985236E-004
  4.225718162836293E-004
  4.156349541350274E-004
  4.083819264177025E-004
  4.010718211218032E-004
  3.939026249099460E-004
  3.870240761704393E-004
  3.805517912015822E-004
  3.745804271789404E-004
  3.691946834077029E-004
  3.644776297446826E-004
  3.605145630486136E-004
  3.573886642625092E-004
  4.285776743012576E-004
  4.215965648393263E-004
  4.132995176215357E-004
  4.042026630278528E-004
  3.947358142102664E-004
  3.852318384018682E-004
  3.759316343901430E-004
  3.670004147117744E-004
  3.585488522985668E-004
  3.506539097615836E-004
  3.433767658592049E-004
  3.367770366116222E-004
  3.309236521367844E-004
  3.258992584921549E-004
  3.217925440072574E-004
  4.200565465268789E-004
  4.092803308083624E-004
  3.974443865060906E-004
  3.851446207745896E-004
  3.728492172206413E-004
  3.608859056608714E-004
  3.494575993236925E-004
  3.386741986052858E-004
  3.285867774185958E-004
  3.192167686736786E-004
  3.105786416050433E-004
  3.026973657220307E-004
  2.956214813718712E-004
  2.894277877101360E-004
  2.842162540129685E-004
  4.122874136303758E-004
  3.970388201923921E-004
  3.810877260021229E-004
  3.651513958885303E-004
  3.497409443166204E-004
  3.351528982409420E-004
  3.215145139496274E-004
  3.088454064337891E-004
  2.971100089156120E-004
  2.862539378732090E-004
  2.762291637800514E-004
  2.670133514472036E-004
  2.586255455601662E-004
  2.511335036931332E-004
  2.446556512586470E-004
  4.052317373909072E-004
  3.846352155595682E-004
  3.638663541878500E-004
  3.438331666859535E-004
  3.250708678160012E-004
  3.077780198159080E-004
  2.919368506142581E-004
  2.774283937386358E-004
  2.641006281942346E-004
  2.518028964050246E-004
  2.404069746552162E-004
  2.298269378012486E-004
  2.200375894715880E-004
  2.110921464925930E-004
  2.031304468908309E-004
  3.987859978879023E-004
  3.716074278671141E-004
  3.451460562700008E-004
  3.205834171477176E-004
  2.983743179661975E-004
  2.784506974605955E-004
  2.605423403796278E-004
  2.443431130247623E-004
  2.295614921850540E-004
  2.159364315751925E-004
  2.032439950495046E-004
  1.913087427342198E-004
  1.800396222759709E-004
  1.694522821861742E-004
  1.597086967310192E-004
  3.926611717487498E-004
  3.569907996392608E-004
  3.237743503403627E-004
  2.945204450850673E-004
  2.690915556591589E-004
  2.468404771318733E-004
  2.271597179773464E-004
  2.095325661893893E-004
  1.935257160850624E-004
  1.787686478370651E-004
  1.649357767030908E-004
  1.517385178582295E-004
  1.389402686846655E-004
  1.265069130651381E-004
  1.145526377063158E-004
  3.860126644270687E-004
  3.382747321901618E-004
  2.978411007078994E-004
  2.646278756171231E-004
  2.366743946146569E-004
  2.126668381682562E-004
  1.916679673545085E-004
  1.729817464173351E-004
  1.560610333426117E-004
  1.404479021843970E-004
  1.257297312965665E-004
  1.115016766435988E-004
  9.733577476285789E-005
  8.277177552603702E-005
  6.809515282966817E-005
  3.721319364888559E-004
  3.101439764551190E-004
  2.655109216797522E-004
  2.300907640422392E-004
  2.007620038336761E-004
  1.757826300742061E-004
  1.540361011263256E-004
  1.347326630263618E-004
  1.172669708944633E-004
  1.011354062190738E-004
  8.587646755716986E-005
  7.101230715273280E-005
  5.596584275181405E-005
  3.988622461289975E-005
  2.126089726711191E-005
SCALARS elementIsPlast double 
LOOKUP_TABLE default
   1.00000000000000     
   1.00000000000000     
   1.00000000000000     
   1.00000000000000     
   1.00000000000000     
   1.00000000000000     
   1.00000000000000     
   1.00000000000000     
   1.00000000000000     
  0.000000000000000E+000
  0.000000000000000E+000
  0.000000000000000E+000
  0.000000000000000E+000
  0.000000000000000E+000
  0.000000000000000E+000
   1.00000000000000     
   1.00000000000000     
   1.00000000000000     
   1.00000000000000     
   1.00000000000000     
   1.00000000000000     
   1.00000000000000     
   1.00000000000000     
  0.000000000000000E+000
  0.000000000000000E+000
  0.000000000000000E+000
  0.000000000000000E+000
  0.000000000000000E+000
  0.000000000000000E+000
  0.000000000000000E+000
   1.00000000000000     
   1.00000000000000     
  0.000000000000000E+000
  0.000000000000000E+000
  0.000000000000000E+000
  0.000000000000000E+000
  0.000000000000000E+000
  0.000000000000000E+000
  0.000000000000000E+000
  0.000000000000000E+000
  0.000000000000000E+000
  0.000000000000000E+000
  0.000000000000000E+000
  0.000000000000000E+000
  0.000000000000000E+000
  0.000000000000000E+000
  0.000000000000000E+000
  0.000000000000000E+000
  0.000000000000000E+000
  0.000000000000000E+000
  0.000000000000000E+000
  0.000000000000000E+000
  0.000000000000000E+000
  0.000000000000000E+000
  0.000000000000000E+000
  0.000000000000000E+000
  0.000000000000000E+000
  0.000000000000000E+000
  0.000000000000000E+000
  0.000000000000000E+000
  0.000000000000000E+000
  0.000000000000000E+000
  0.000000000000000E+000
  0.000000000000000E+000
  0.000000000000000E+000
  0.000000000000000E+000
  0.000000000000000E+000
  0.000000000000000E+000
  0.000000000000000E+000
  0.000000000000000E+000
  0.000000000000000E+000
  0.000000000000000E+000
  0.000000000000000E+000
  0.000000000000000E+000
  0.000000000000000E+000
  0.000000000000000E+000
  0.000000000000000E+000
  0.000000000000000E+000
  0.000000000000000E+000
  0.000000000000000E+000
  0.000000000000000E+000
  0.000000000000000E+000
  0.000000000000000E+000
  0.000000000000000E+000
  0.000000000000000E+000
  0.000000000000000E+000
  0.000000000000000E+000
  0.000000000000000E+000
  0.000000000000000E+000
  0.000000000000000E+000
  0.000000000000000E+000
  0.000000000000000E+000
  0.000000000000000E+000
  0.000000000000000E+000
  0.000000000000000E+000
  0.000000000000000E+000
  0.000000000000000E+000
  0.000000000000000E+000
  0.000000000000000E+000
  0.000000000000000E+000
  0.000000000000000E+000
  0.000000000000000E+000
  0.000000000000000E+000
  0.000000000000000E+000
  0.000000000000000E+000
  0.000000000000000E+000
  0.000000000000000E+000
  0.000000000000000E+000
  0.000000000000000E+000
  0.000000000000000E+000
  0.000000000000000E+000
  0.000000000000000E+000
  0.000000000000000E+000
  0.000000000000000E+000
  0.000000000000000E+000
  0.000000000000000E+000
  0.000000000000000E+000
  0.000000000000000E+000
  0.000000000000000E+000
  0.000000000000000E+000
  0.000000000000000E+000
  0.000000000000000E+000
  0.000000000000000E+000
  0.000000000000000E+000
  0.000000000000000E+000
  0.000000000000000E+000
  0.000000000000000E+000
  0.000000000000000E+000
  0.000000000000000E+000
  0.000000000000000E+000
  0.000000000000000E+000
  0.000000000000000E+000
  0.000000000000000E+000
  0.000000000000000E+000
  0.000000000000000E+000
  0.000000000000000E+000
  0.000000000000000E+000
  0.000000000000000E+000
  0.000000000000000E+000
  0.000000000000000E+000
  0.000000000000000E+000
  0.000000000000000E+000
  0.000000000000000E+000
  0.000000000000000E+000
  0.000000000000000E+000
  0.000000000000000E+000
  0.000000000000000E+000
  0.000000000000000E+000
  0.000000000000000E+000
  0.000000000000000E+000
  0.000000000000000E+000
  0.000000000000000E+000
  0.000000000000000E+000
  0.000000000000000E+000
  0.000000000000000E+000
  0.000000000000000E+000
  0.000000000000000E+000
  0.000000000000000E+000
  0.000000000000000E+000
  0.000000000000000E+000
  0.000000000000000E+000
  0.000000000000000E+000
  0.000000000000000E+000
  0.000000000000000E+000
  0.000000000000000E+000
  0.000000000000000E+000
  0.000000000000000E+000
  0.000000000000000E+000
  0.000000000000000E+000
  0.000000000000000E+000
  0.000000000000000E+000
  0.000000000000000E+000
  0.000000000000000E+000
  0.000000000000000E+000
  0.000000000000000E+000
  0.000000000000000E+000
  0.000000000000000E+000
  0.000000000000000E+000
  0.000000000000000E+000
  0.000000000000000E+000
  0.000000000000000E+000
  0.000000000000000E+000
  0.000000000000000E+000
  0.000000000000000E+000
  0.000000000000000E+000
  0.000000000000000E+000
  0.000000000000000E+000
  0.000000000000000E+000
  0.000000000000000E+000
  0.000000000000000E+000
  0.000000000000000E+000
  0.000000000000000E+000
  0.000000000000000E+000
  0.000000000000000E+000
  0.000000000000000E+000
  0.000000000000000E+000
  0.000000000000000E+000
  0.000000000000000E+000
  0.000000000000000E+000
  0.000000000000000E+000
  0.000000000000000E+000
  0.000000000000000E+000
  0.000000000000000E+000
  0.000000000000000E+000
  0.000000000000000E+000
  0.000000000000000E+000
  0.000000000000000E+000
  0.000000000000000E+000
  0.000000000000000E+000
  0.000000000000000E+000
  0.000000000000000E+000
  0.000000000000000E+000
  0.000000000000000E+000
  0.000000000000000E+000
  0.000000000000000E+000
  0.000000000000000E+000
  0.000000000000000E+000
  0.000000000000000E+000
  0.000000000000000E+000
  0.000000000000000E+000
  0.000000000000000E+000
  0.000000000000000E+000
  0.000000000000000E+000
  0.000000000000000E+000
  0.000000000000000E+000
  0.000000000000000E+000
  0.000000000000000E+000
  0.000000000000000E+000
  0.000000000000000E+000
  0.000000000000000E+000
  0.000000000000000E+000
  0.000000000000000E+000
  0.000000000000000E+000
  0.000000000000000E+000
  0.000000000000000E+000
  0.000000000000000E+000
  0.000000000000000E+000
  0.000000000000000E+000
  0.000000000000000E+000
  0.000000000000000E+000
  0.000000000000000E+000
  0.000000000000000E+000
  0.000000000000000E+000
  0.000000000000000E+000
  0.000000000000000E+000
  0.000000000000000E+000
  0.000000000000000E+000
  0.000000000000000E+000
  0.000000000000000E+000
  0.000000000000000E+000
  0.000000000000000E+000
  0.000000000000000E+000
  0.000000000000000E+000
  0.000000000000000E+000
  0.000000000000000E+000
  0.000000000000000E+000
  0.000000000000000E+000
  0.000000000000000E+000
  0.000000000000000E+000
  0.000000000000000E+000
  0.000000000000000E+000
  0.000000000000000E+000
  0.000000000000000E+000
  0.000000000000000E+000
  0.000000000000000E+000
  0.000000000000000E+000
  0.000000000000000E+000
  0.000000000000000E+000
  0.000000000000000E+000
  0.000000000000000E+000
  0.000000000000000E+000
  0.000000000000000E+000
  0.000000000000000E+000
  0.000000000000000E+000
  0.000000000000000E+000
  0.000000000000000E+000
  0.000000000000000E+000
  0.000000000000000E+000
  0.000000000000000E+000
  0.000000000000000E+000
  0.000000000000000E+000
  0.000000000000000E+000
  0.000000000000000E+000
  0.000000000000000E+000
  0.000000000000000E+000
  0.000000000000000E+000
  0.000000000000000E+000
  0.000000000000000E+000
  0.000000000000000E+000
  0.000000000000000E+000
  0.000000000000000E+000
  0.000000000000000E+000
  0.000000000000000E+000
  0.000000000000000E+000
  0.000000000000000E+000
  0.000000000000000E+000
  0.000000000000000E+000
  0.000000000000000E+000
  0.000000000000000E+000
  0.000000000000000E+000
  0.000000000000000E+000
  0.000000000000000E+000
  0.000000000000000E+000
  0.000000000000000E+000
  0.000000000000000E+000
  0.000000000000000E+000
  0.000000000000000E+000
  0.000000000000000E+000
  0.000000000000000E+000
  0.000000000000000E+000
  0.000000000000000E+000
  0.000000000000000E+000
  0.000000000000000E+000
  0.000000000000000E+000
  0.000000000000000E+000
  0.000000000000000E+000
  0.000000000000000E+000
  0.000000000000000E+000
  0.000000000000000E+000
  0.000000000000000E+000
  0.000000000000000E+000
  0.000000000000000E+000
  0.000000000000000E+000
  0.000000000000000E+000
  0.000000000000000E+000
  0.000000000000000E+000
  0.000000000000000E+000
  0.000000000000000E+000
  0.000000000000000E+000
  0.000000000000000E+000
  0.000000000000000E+000
  0.000000000000000E+000
  0.000000000000000E+000
  0.000000000000000E+000
  0.000000000000000E+000
  0.000000000000000E+000
  0.000000000000000E+000
  0.000000000000000E+000
  0.000000000000000E+000
  0.000000000000000E+000
  0.000000000000000E+000
  0.000000000000000E+000
  0.000000000000000E+000
  0.000000000000000E+000
  0.000000000000000E+000
  0.000000000000000E+000
  0.000000000000000E+000
  0.000000000000000E+000
  0.000000000000000E+000
  0.000000000000000E+000
  0.000000000000000E+000
  0.000000000000000E+000
  0.000000000000000E+000
  0.000000000000000E+000
  0.000000000000000E+000
  0.000000000000000E+000
  0.000000000000000E+000
  0.000000000000000E+000
  0.000000000000000E+000
  0.000000000000000E+000
  0.000000000000000E+000
  0.000000000000000E+000
  0.000000000000000E+000
  0.000000000000000E+000
  0.000000000000000E+000
  0.000000000000000E+000
  0.000000000000000E+000
  0.000000000000000E+000
  0.000000000000000E+000
  0.000000000000000E+000
  0.000000000000000E+000
  0.000000000000000E+000
  0.000000000000000E+000
  0.000000000000000E+000
  0.000000000000000E+000
  0.000000000000000E+000
  0.000000000000000E+000
  0.000000000000000E+000
  0.000000000000000E+000
  0.000000000000000E+000
  0.000000000000000E+000
  0.000000000000000E+000
  0.000000000000000E+000
  0.000000000000000E+000
  0.000000000000000E+000
  0.000000000000000E+000
  0.000000000000000E+000
  0.000000000000000E+000
  0.000000000000000E+000
  0.000000000000000E+000
  0.000000000000000E+000
  0.000000000000000E+000
  0.000000000000000E+000
  0.000000000000000E+000
  0.000000000000000E+000
  0.000000000000000E+000
  0.000000000000000E+000
  0.000000000000000E+000
  0.000000000000000E+000
  0.000000000000000E+000
  0.000000000000000E+000
  0.000000000000000E+000
  0.000000000000000E+000
  0.000000000000000E+000
  0.000000000000000E+000
  0.000000000000000E+000
  0.000000000000000E+000
  0.000000000000000E+000
  0.000000000000000E+000
  0.000000000000000E+000
  0.000000000000000E+000
  0.000000000000000E+000
  0.000000000000000E+000
  0.000000000000000E+000
  0.000000000000000E+000
  0.000000000000000E+000
  0.000000000000000E+000
  0.000000000000000E+000
  0.000000000000000E+000
  0.000000000000000E+000
  0.000000000000000E+000
  0.000000000000000E+000
  0.000000000000000E+000
  0.000000000000000E+000
  0.000000000000000E+000
  0.000000000000000E+000
  0.000000000000000E+000
  0.000000000000000E+000
  0.000000000000000E+000
  0.000000000000000E+000
  0.000000000000000E+000
  0.000000000000000E+000
  0.000000000000000E+000
  0.000000000000000E+000
  0.000000000000000E+000
  0.000000000000000E+000
  0.000000000000000E+000
  0.000000000000000E+000
  0.000000000000000E+000
  0.000000000000000E+000
  0.000000000000000E+000
  0.000000000000000E+000
  0.000000000000000E+000
  0.000000000000000E+000
  0.000000000000000E+000
  0.000000000000000E+000
  0.000000000000000E+000
  0.000000000000000E+000
  0.000000000000000E+000
  0.000000000000000E+000
SCALARS poroL double 
LOOKUP_TABLE default
  0.276277219674145     
  0.276369707593574     
  0.274867120087045     
  0.272473092139771     
  0.269622893284259     
  0.266637929927799     
  0.263783895086543     
  0.261205791817807     
  0.259081164222970     
  0.257774616883834     
  0.256927671010551     
  0.256247385362360     
  0.255653740788100     
  0.255095328187365     
  0.254494621994799     
  0.268462775760501     
  0.265565141748429     
  0.263429633428960     
  0.261827381255567     
  0.260668326506424     
  0.259815435637469     
  0.259088340692726     
  0.258432903013773     
  0.257775524457801     
  0.257029886098243     
  0.256309343745624     
  0.255687740251871     
  0.255134170509204     
  0.254620564949913     
  0.254150166791224     
  0.259671090302218     
  0.258021495182849     
  0.257503303951201     
  0.257505871561558     
  0.257563020826260     
  0.257560439278967     
  0.257444791883360     
  0.257152026370548     
  0.256693740233159     
  0.256149027690397     
  0.255590571299505     
  0.255059708971152     
  0.254572496321005     
  0.254129602609454     
  0.253738064856365     
  0.257423276692044     
  0.257074920873926     
  0.256823257088011     
  0.256668868186506     
  0.256585770778221     
  0.256485229052349     
  0.256313690411404     
  0.256046984561502     
  0.255688548089283     
  0.255267520830068     
  0.254822238578085     
  0.254383205701726     
  0.253968803655879     
  0.253590274652083     
  0.253257380247412     
  0.256354052097266     
  0.256160520480020     
  0.255952229120305     
  0.255780982224839     
  0.255633350104309     
  0.255479958546296     
  0.255288691518024     
  0.255042890117543     
  0.254742642481528     
  0.254401313598358     
  0.254039033755848     
  0.253675665381118     
  0.253326953347883     
  0.253004524649116     
  0.252717565903654     
  0.255409021259523     
  0.255212023564546     
  0.255027894475084     
  0.254853479751135     
  0.254687122023823     
  0.254514589487139     
  0.254320569691028     
  0.254094935993284     
  0.253836365918226     
  0.253551366095367     
  0.253251232563512     
  0.252948640138910     
  0.252655187882353     
  0.252380392072064     
  0.252131545254134     
  0.254445572901991     
  0.254257999536019     
  0.254080271248148     
  0.253910147208677     
  0.253742282308621     
  0.253569521049583     
  0.253383656277141     
  0.253179036745505     
  0.252954417962175     
  0.252713112111163     
  0.252461705332506     
  0.252208294931406     
  0.251960949283723     
  0.251726692111301     
  0.251510906039929     
  0.253466535809664     
  0.253288965621423     
  0.253120604147720     
  0.252958275334859     
  0.252797911509928     
  0.252634527382503     
  0.252463343689436     
  0.252280978969149     
  0.252086517147537     
  0.251881720520941     
  0.251670515600936     
  0.251458071793084     
  0.251249841150280     
  0.251050767509285     
  0.250864695955365     
  0.252471352570838     
  0.252306201962736     
  0.252149972376257     
  0.251999765871949     
  0.251852210852766     
  0.251703745803403     
  0.251551123643265     
  0.251392091376983     
  0.251225890739848     
  0.251053425313484     
  0.250877030716952     
  0.250699978265641     
  0.250525881328372     
  0.250358138015930     
  0.250199474596289     
  0.251460109047643     
  0.251309811098142     
  0.251168664407005     
  0.251034062290663     
  0.250903192802536     
  0.250773247270503     
  0.250641761972458     
  0.250506983669312     
  0.250368154390610     
  0.250225608641064     
  0.250080660835393     
  0.249935323612138     
  0.249791940299058     
  0.249652812262007     
  0.249519880320164     
  0.250432584102952     
  0.250299512438208     
  0.250176140233156     
  0.250060117101107     
  0.249948957080675     
  0.249840244337533     
  0.249731867960979     
  0.249622253542356     
  0.249510532714640     
  0.249396606083129     
  0.249281082028900     
  0.249165110365242     
  0.249050152767679     
  0.248937739728613     
  0.248829258977060     
  0.249388292480897     
  0.249274628188622     
  0.249171525407093     
  0.249076731342417     
  0.248987886580588     
  0.248902714108302     
  0.248819201766168     
  0.248735762650500     
  0.248651348646609     
  0.248565494641634     
  0.248478285417312     
  0.248390254400368     
  0.248302238075182     
  0.248215217447850     
  0.248130179022219     
  0.248326297895039     
  0.248234162474418     
  0.248153751092901     
  0.248082718975883     
  0.248018645746845     
  0.247959204152939     
  0.247902308367067     
  0.247846235459272     
  0.247789708745475     
  0.247731933148511     
  0.247672578913279     
  0.247611718856142     
  0.247549732884641     
  0.247487200265986     
  0.247424803801965     
  0.247245160203738     
  0.247176818898390     
  0.247121625716558     
  0.247076956488328     
  0.247040161406378     
  0.247008710862832     
  0.246980318139142     
  0.246953035550046     
  0.246925319701646     
  0.246896062327209     
  0.246864585496120     
  0.246830602925338     
  0.246794153299297     
  0.246755517862452     
  0.246715142157443     
  0.246142964579280     
  0.246101039198851     
  0.246073878718580     
  0.246058410523343     
  0.246051607677778     
  0.246050612790827     
  0.246052838892599     
  0.246056045548158     
  0.246058389968297     
  0.246058454609422     
  0.246055252222369     
  0.246048206542142     
  0.246037103684122     
  0.246022014467326     
  0.246003205372460     
  0.245017405106103     
  0.245005067839490     
  0.245009212831796     
  0.245026171015303     
  0.245052411118967     
  0.245084644504208     
  0.245119906011908     
  0.245155610362830     
  0.245189587500326     
  0.245220103541622     
  0.245245876941314     
  0.245266086062798     
  0.245280345785971     
  0.245288621926850     
  0.245291085437317     
  0.243865896423944     
  0.243887040604014     
  0.243926375082190     
  0.243979503421276     
  0.244042280655098     
  0.244110903461196     
  0.244181971385412     
  0.244252519837681     
  0.244320032392972     
  0.244382445604138     
  0.244438164135408     
  0.244486123070753     
  0.244525843423611     
  0.244557358754394     
  0.244580940143696     
  0.242685698626001     
  0.242745092555588     
  0.242824250196944     
  0.242917925709553     
  0.243021264605445     
  0.243129885078765     
  0.243239918829561     
  0.243348013151445     
  0.243451305509700     
  0.243547393891506     
  0.243634329993468     
  0.243710670159041     
  0.243775819435801     
  0.243830224105936     
  0.243874783443563     
  0.241474047427138     
  0.241577483448633     
  0.241701979639948     
  0.241841315256450     
  0.241989838041462     
  0.242142544453496     
  0.242295098028915     
  0.242443789159605     
  0.242585451158429     
  0.242717358667586     
  0.242837171839758     
  0.242942937786643     
  0.243033147658278     
  0.243108806218494     
  0.243173718190694     
  0.240228285644712     
  0.240382742883172     
  0.240559113381555     
  0.240750054494910     
  0.240949027774983     
  0.241150387832524     
  0.241349373782248     
  0.241542010821107     
  0.241724942447510     
  0.241895219212217     
  0.242050073950075     
  0.242186959668196     
  0.242303385353179     
  0.242395509846684     
  0.242472948089558     
  0.238945994864000     
  0.239159843755280     
  0.239395809113405     
  0.239645231616721     
  0.239900588956960     
  0.240155603230055     
  0.240405194081492     
  0.240645299138633     
  0.240872593356345     
  0.241084139945788     
  0.241276962699080     
  0.241447431807954     
  0.241592610164689     
  0.241707673723168     
  0.241756211827436     
  0.237625130156422     
  0.237908423130715     
  0.238213106708789     
  0.238528924463238     
  0.238847256139927     
  0.239161246217055     
  0.239465688406772     
  0.239756724297995     
  0.240031421448628     
  0.240287257048697     
  0.240521560345782     
  0.240730511313923     
  0.240906012848958     
  0.241051187239877     
  0.241027834174050     
  0.236264168893098     
  0.236629089696914     
  0.237013328801555     
  0.237404613990851     
  0.237793101500502     
  0.238171500773856     
  0.238534810653598     
  0.238879817534483     
  0.239204487845543     
  0.239507320650975     
  0.239786536149144     
  0.240039805797159     
  0.240260507322996     
  0.240398121136365     
  0.240330373851108     
  0.234862302994776     
  0.235323897394282     
  0.235800701880302     
  0.236277801640087     
  0.236744040794171     
  0.237192028423953     
  0.237617533630301     
  0.238018621775173     
  0.238394804779997     
  0.238746283186697     
  0.239073252932692     
  0.239374214145876     
  0.239653400283118     
  0.239751586160119     
  0.239693807773576     
  0.233419742643132     
  0.233997157058852     
  0.234582376468597     
  0.235156947982757     
  0.235708521905758     
  0.236230389222161     
  0.236720067122089     
  0.237177788320007     
  0.237605332587745     
  0.238005282869532     
  0.238380515161033     
  0.238733752715484     
  0.239056408531108     
  0.239131284779995     
  0.239103006437446     
  0.231938318379771     
  0.232656966479564     
  0.233370212474112     
  0.234054891053191     
  0.234698380905815     
  0.235296436590014     
  0.235850008843906     
  0.236362660835223     
  0.236839138746586     
  0.237284804874878     
  0.237705654153331     
  0.238109181644907     
  0.238470814423777     
  0.238557504323447     
  0.238554821581664     
  0.230422804727844     
  0.231318535317900     
  0.232184000961623     
  0.232990897780316     
  0.233729623241594     
  0.234402427655707     
  0.235016262292413     
  0.235579242179845     
  0.236099575425289     
  0.236585416939776     
  0.237045378614533     
  0.237489783506679     
  0.237897438917440     
  0.238023165254001     
  0.238051459808931     
  0.228885389591465     
  0.230011815410078     
  0.231057681370079     
  0.231992679203042     
  0.232822295204686     
  0.233562473194737     
  0.234228524829087     
  0.234833902202215     
  0.235390332724193     
  0.235908390445888     
  0.236398179236130     
  0.236870663103949     
  0.237327332975874     
  0.237525091164287     
  0.237589971137548     
  0.227359379850920     
  0.228806026036619     
  0.230046396533834     
  0.231094712737199     
  0.231998542452514     
  0.232790972366810     
  0.233496245811538     
  0.234132755400130     
  0.234715174818161     
  0.235255809820170     
  0.235765501463486     
  0.236253514165308     
  0.236736610573408     
  0.237054681474194     
  0.237155429802054     
  0.226024233368186     
  0.227843253204493     
  0.229213290140516     
  0.230331420226743     
  0.231278250811967     
  0.232100139720033     
  0.232827175866507     
  0.233480787515818     
  0.234077342025337     
  0.234630057056144     
  0.235149924986190     
  0.235646026166773     
  0.236119753860753     
  0.236516887792968     
  0.236716491390442     
