# vtk DataFile Version 3.0
vtk output
ASCII
DATASET UNSTRUCTURED_GRID
POINTS       496 double 
  0.00000000E+00  3.00000000E+02  0.00000000E+00
  0.00000000E+00  2.80000000E+02  0.00000000E+00
  0.00000000E+00  2.60000000E+02  0.00000000E+00
  0.00000000E+00  2.40000000E+02  0.00000000E+00
  0.00000000E+00  2.20000000E+02  0.00000000E+00
  0.00000000E+00  2.00000000E+02  0.00000000E+00
  0.00000000E+00  1.80000000E+02  0.00000000E+00
  0.00000000E+00  1.60000000E+02  0.00000000E+00
  0.00000000E+00  1.40000000E+02  0.00000000E+00
  0.00000000E+00  1.20000000E+02  0.00000000E+00
  0.00000000E+00  1.00000000E+02  0.00000000E+00
  0.00000000E+00  8.00000000E+01  0.00000000E+00
  0.00000000E+00  6.00000000E+01  0.00000000E+00
  0.00000000E+00  4.00000000E+01  0.00000000E+00
  0.00000000E+00  2.00000000E+01  0.00000000E+00
  0.00000000E+00  4.99600361E-14  0.00000000E+00
  2.00000000E+01  3.00000000E+02  0.00000000E+00
  2.00000000E+01  2.80000000E+02  0.00000000E+00
  2.00000000E+01  2.60000000E+02  0.00000000E+00
  2.00000000E+01  2.40000000E+02  0.00000000E+00
  2.00000000E+01  2.20000000E+02  0.00000000E+00
  2.00000000E+01  2.00000000E+02  0.00000000E+00
  2.00000000E+01  1.80000000E+02  0.00000000E+00
  2.00000000E+01  1.60000000E+02  0.00000000E+00
  2.00000000E+01  1.40000000E+02  0.00000000E+00
  2.00000000E+01  1.20000000E+02  0.00000000E+00
  2.00000000E+01  1.00000000E+02  0.00000000E+00
  2.00000000E+01  8.00000000E+01  0.00000000E+00
  2.00000000E+01  6.00000000E+01  0.00000000E+00
  2.00000000E+01  4.00000000E+01  0.00000000E+00
  2.00000000E+01  2.00000000E+01  0.00000000E+00
  2.00000000E+01  4.99600361E-14  0.00000000E+00
  4.00000000E+01  3.00000000E+02  0.00000000E+00
  4.00000000E+01  2.80000000E+02  0.00000000E+00
  4.00000000E+01  2.60000000E+02  0.00000000E+00
  4.00000000E+01  2.40000000E+02  0.00000000E+00
  4.00000000E+01  2.20000000E+02  0.00000000E+00
  4.00000000E+01  2.00000000E+02  0.00000000E+00
  4.00000000E+01  1.80000000E+02  0.00000000E+00
  4.00000000E+01  1.60000000E+02  0.00000000E+00
  4.00000000E+01  1.40000000E+02  0.00000000E+00
  4.00000000E+01  1.20000000E+02  0.00000000E+00
  4.00000000E+01  1.00000000E+02  0.00000000E+00
  4.00000000E+01  8.00000000E+01  0.00000000E+00
  4.00000000E+01  6.00000000E+01  0.00000000E+00
  4.00000000E+01  4.00000000E+01  0.00000000E+00
  4.00000000E+01  2.00000000E+01  0.00000000E+00
  4.00000000E+01  4.99600361E-14  0.00000000E+00
  6.00000000E+01  3.00000000E+02  0.00000000E+00
  6.00000000E+01  2.80000000E+02  0.00000000E+00
  6.00000000E+01  2.60000000E+02  0.00000000E+00
  6.00000000E+01  2.40000000E+02  0.00000000E+00
  6.00000000E+01  2.20000000E+02  0.00000000E+00
  6.00000000E+01  2.00000000E+02  0.00000000E+00
  6.00000000E+01  1.80000000E+02  0.00000000E+00
  6.00000000E+01  1.60000000E+02  0.00000000E+00
  6.00000000E+01  1.40000000E+02  0.00000000E+00
  6.00000000E+01  1.20000000E+02  0.00000000E+00
  6.00000000E+01  1.00000000E+02  0.00000000E+00
  6.00000000E+01  8.00000000E+01  0.00000000E+00
  6.00000000E+01  6.00000000E+01  0.00000000E+00
  6.00000000E+01  4.00000000E+01  0.00000000E+00
  6.00000000E+01  2.00000000E+01  0.00000000E+00
  6.00000000E+01  4.99600361E-14  0.00000000E+00
  8.00000000E+01  3.00000000E+02  0.00000000E+00
  8.00000000E+01  2.80000000E+02  0.00000000E+00
  8.00000000E+01  2.60000000E+02  0.00000000E+00
  8.00000000E+01  2.40000000E+02  0.00000000E+00
  8.00000000E+01  2.20000000E+02  0.00000000E+00
  8.00000000E+01  2.00000000E+02  0.00000000E+00
  8.00000000E+01  1.80000000E+02  0.00000000E+00
  8.00000000E+01  1.60000000E+02  0.00000000E+00
  8.00000000E+01  1.40000000E+02  0.00000000E+00
  8.00000000E+01  1.20000000E+02  0.00000000E+00
  8.00000000E+01  1.00000000E+02  0.00000000E+00
  8.00000000E+01  8.00000000E+01  0.00000000E+00
  8.00000000E+01  6.00000000E+01  0.00000000E+00
  8.00000000E+01  4.00000000E+01  0.00000000E+00
  8.00000000E+01  2.00000000E+01  0.00000000E+00
  8.00000000E+01  4.99600361E-14  0.00000000E+00
  1.00000000E+02  3.00000000E+02  0.00000000E+00
  1.00000000E+02  2.80000000E+02  0.00000000E+00
  1.00000000E+02  2.60000000E+02  0.00000000E+00
  1.00000000E+02  2.40000000E+02  0.00000000E+00
  1.00000000E+02  2.20000000E+02  0.00000000E+00
  1.00000000E+02  2.00000000E+02  0.00000000E+00
  1.00000000E+02  1.80000000E+02  0.00000000E+00
  1.00000000E+02  1.60000000E+02  0.00000000E+00
  1.00000000E+02  1.40000000E+02  0.00000000E+00
  1.00000000E+02  1.20000000E+02  0.00000000E+00
  1.00000000E+02  1.00000000E+02  0.00000000E+00
  1.00000000E+02  8.00000000E+01  0.00000000E+00
  1.00000000E+02  6.00000000E+01  0.00000000E+00
  1.00000000E+02  4.00000000E+01  0.00000000E+00
  1.00000000E+02  2.00000000E+01  0.00000000E+00
  1.00000000E+02  4.99600361E-14  0.00000000E+00
  1.20000000E+02  3.00000000E+02  0.00000000E+00
  1.20000000E+02  2.80000000E+02  0.00000000E+00
  1.20000000E+02  2.60000000E+02  0.00000000E+00
  1.20000000E+02  2.40000000E+02  0.00000000E+00
  1.20000000E+02  2.20000000E+02  0.00000000E+00
  1.20000000E+02  2.00000000E+02  0.00000000E+00
  1.20000000E+02  1.80000000E+02  0.00000000E+00
  1.20000000E+02  1.60000000E+02  0.00000000E+00
  1.20000000E+02  1.40000000E+02  0.00000000E+00
  1.20000000E+02  1.20000000E+02  0.00000000E+00
  1.20000000E+02  1.00000000E+02  0.00000000E+00
  1.20000000E+02  8.00000000E+01  0.00000000E+00
  1.20000000E+02  6.00000000E+01  0.00000000E+00
  1.20000000E+02  4.00000000E+01  0.00000000E+00
  1.20000000E+02  2.00000000E+01  0.00000000E+00
  1.20000000E+02  4.99600361E-14  0.00000000E+00
  1.40000000E+02  3.00000000E+02  0.00000000E+00
  1.40000000E+02  2.80000000E+02  0.00000000E+00
  1.40000000E+02  2.60000000E+02  0.00000000E+00
  1.40000000E+02  2.40000000E+02  0.00000000E+00
  1.40000000E+02  2.20000000E+02  0.00000000E+00
  1.40000000E+02  2.00000000E+02  0.00000000E+00
  1.40000000E+02  1.80000000E+02  0.00000000E+00
  1.40000000E+02  1.60000000E+02  0.00000000E+00
  1.40000000E+02  1.40000000E+02  0.00000000E+00
  1.40000000E+02  1.20000000E+02  0.00000000E+00
  1.40000000E+02  1.00000000E+02  0.00000000E+00
  1.40000000E+02  8.00000000E+01  0.00000000E+00
  1.40000000E+02  6.00000000E+01  0.00000000E+00
  1.40000000E+02  4.00000000E+01  0.00000000E+00
  1.40000000E+02  2.00000000E+01  0.00000000E+00
  1.40000000E+02  4.99600361E-14  0.00000000E+00
  1.60000000E+02  3.00000000E+02  0.00000000E+00
  1.60000000E+02  2.80000000E+02  0.00000000E+00
  1.60000000E+02  2.60000000E+02  0.00000000E+00
  1.60000000E+02  2.40000000E+02  0.00000000E+00
  1.60000000E+02  2.20000000E+02  0.00000000E+00
  1.60000000E+02  2.00000000E+02  0.00000000E+00
  1.60000000E+02  1.80000000E+02  0.00000000E+00
  1.60000000E+02  1.60000000E+02  0.00000000E+00
  1.60000000E+02  1.40000000E+02  0.00000000E+00
  1.60000000E+02  1.20000000E+02  0.00000000E+00
  1.60000000E+02  1.00000000E+02  0.00000000E+00
  1.60000000E+02  8.00000000E+01  0.00000000E+00
  1.60000000E+02  6.00000000E+01  0.00000000E+00
  1.60000000E+02  4.00000000E+01  0.00000000E+00
  1.60000000E+02  2.00000000E+01  0.00000000E+00
  1.60000000E+02  4.99600361E-14  0.00000000E+00
  1.80000000E+02  3.00000000E+02  0.00000000E+00
  1.80000000E+02  2.80000000E+02  0.00000000E+00
  1.80000000E+02  2.60000000E+02  0.00000000E+00
  1.80000000E+02  2.40000000E+02  0.00000000E+00
  1.80000000E+02  2.20000000E+02  0.00000000E+00
  1.80000000E+02  2.00000000E+02  0.00000000E+00
  1.80000000E+02  1.80000000E+02  0.00000000E+00
  1.80000000E+02  1.60000000E+02  0.00000000E+00
  1.80000000E+02  1.40000000E+02  0.00000000E+00
  1.80000000E+02  1.20000000E+02  0.00000000E+00
  1.80000000E+02  1.00000000E+02  0.00000000E+00
  1.80000000E+02  8.00000000E+01  0.00000000E+00
  1.80000000E+02  6.00000000E+01  0.00000000E+00
  1.80000000E+02  4.00000000E+01  0.00000000E+00
  1.80000000E+02  2.00000000E+01  0.00000000E+00
  1.80000000E+02  4.99600361E-14  0.00000000E+00
  2.00000000E+02  3.00000000E+02  0.00000000E+00
  2.00000000E+02  2.80000000E+02  0.00000000E+00
  2.00000000E+02  2.60000000E+02  0.00000000E+00
  2.00000000E+02  2.40000000E+02  0.00000000E+00
  2.00000000E+02  2.20000000E+02  0.00000000E+00
  2.00000000E+02  2.00000000E+02  0.00000000E+00
  2.00000000E+02  1.80000000E+02  0.00000000E+00
  2.00000000E+02  1.60000000E+02  0.00000000E+00
  2.00000000E+02  1.40000000E+02  0.00000000E+00
  2.00000000E+02  1.20000000E+02  0.00000000E+00
  2.00000000E+02  1.00000000E+02  0.00000000E+00
  2.00000000E+02  8.00000000E+01  0.00000000E+00
  2.00000000E+02  6.00000000E+01  0.00000000E+00
  2.00000000E+02  4.00000000E+01  0.00000000E+00
  2.00000000E+02  2.00000000E+01  0.00000000E+00
  2.00000000E+02  4.99600361E-14  0.00000000E+00
  2.20000000E+02  3.00000000E+02  0.00000000E+00
  2.20000000E+02  2.80000000E+02  0.00000000E+00
  2.20000000E+02  2.60000000E+02  0.00000000E+00
  2.20000000E+02  2.40000000E+02  0.00000000E+00
  2.20000000E+02  2.20000000E+02  0.00000000E+00
  2.20000000E+02  2.00000000E+02  0.00000000E+00
  2.20000000E+02  1.80000000E+02  0.00000000E+00
  2.20000000E+02  1.60000000E+02  0.00000000E+00
  2.20000000E+02  1.40000000E+02  0.00000000E+00
  2.20000000E+02  1.20000000E+02  0.00000000E+00
  2.20000000E+02  1.00000000E+02  0.00000000E+00
  2.20000000E+02  8.00000000E+01  0.00000000E+00
  2.20000000E+02  6.00000000E+01  0.00000000E+00
  2.20000000E+02  4.00000000E+01  0.00000000E+00
  2.20000000E+02  2.00000000E+01  0.00000000E+00
  2.20000000E+02  4.99600361E-14  0.00000000E+00
  2.40000000E+02  3.00000000E+02  0.00000000E+00
  2.40000000E+02  2.80000000E+02  0.00000000E+00
  2.40000000E+02  2.60000000E+02  0.00000000E+00
  2.40000000E+02  2.40000000E+02  0.00000000E+00
  2.40000000E+02  2.20000000E+02  0.00000000E+00
  2.40000000E+02  2.00000000E+02  0.00000000E+00
  2.40000000E+02  1.80000000E+02  0.00000000E+00
  2.40000000E+02  1.60000000E+02  0.00000000E+00
  2.40000000E+02  1.40000000E+02  0.00000000E+00
  2.40000000E+02  1.20000000E+02  0.00000000E+00
  2.40000000E+02  1.00000000E+02  0.00000000E+00
  2.40000000E+02  8.00000000E+01  0.00000000E+00
  2.40000000E+02  6.00000000E+01  0.00000000E+00
  2.40000000E+02  4.00000000E+01  0.00000000E+00
  2.40000000E+02  2.00000000E+01  0.00000000E+00
  2.40000000E+02  4.99600361E-14  0.00000000E+00
  2.60000000E+02  3.00000000E+02  0.00000000E+00
  2.60000000E+02  2.80000000E+02  0.00000000E+00
  2.60000000E+02  2.60000000E+02  0.00000000E+00
  2.60000000E+02  2.40000000E+02  0.00000000E+00
  2.60000000E+02  2.20000000E+02  0.00000000E+00
  2.60000000E+02  2.00000000E+02  0.00000000E+00
  2.60000000E+02  1.80000000E+02  0.00000000E+00
  2.60000000E+02  1.60000000E+02  0.00000000E+00
  2.60000000E+02  1.40000000E+02  0.00000000E+00
  2.60000000E+02  1.20000000E+02  0.00000000E+00
  2.60000000E+02  1.00000000E+02  0.00000000E+00
  2.60000000E+02  8.00000000E+01  0.00000000E+00
  2.60000000E+02  6.00000000E+01  0.00000000E+00
  2.60000000E+02  4.00000000E+01  0.00000000E+00
  2.60000000E+02  2.00000000E+01  0.00000000E+00
  2.60000000E+02  4.99600361E-14  0.00000000E+00
  2.80000000E+02  3.00000000E+02  0.00000000E+00
  2.80000000E+02  2.80000000E+02  0.00000000E+00
  2.80000000E+02  2.60000000E+02  0.00000000E+00
  2.80000000E+02  2.40000000E+02  0.00000000E+00
  2.80000000E+02  2.20000000E+02  0.00000000E+00
  2.80000000E+02  2.00000000E+02  0.00000000E+00
  2.80000000E+02  1.80000000E+02  0.00000000E+00
  2.80000000E+02  1.60000000E+02  0.00000000E+00
  2.80000000E+02  1.40000000E+02  0.00000000E+00
  2.80000000E+02  1.20000000E+02  0.00000000E+00
  2.80000000E+02  1.00000000E+02  0.00000000E+00
  2.80000000E+02  8.00000000E+01  0.00000000E+00
  2.80000000E+02  6.00000000E+01  0.00000000E+00
  2.80000000E+02  4.00000000E+01  0.00000000E+00
  2.80000000E+02  2.00000000E+01  0.00000000E+00
  2.80000000E+02  4.99600361E-14  0.00000000E+00
  3.00000000E+02  3.00000000E+02  0.00000000E+00
  3.00000000E+02  2.80000000E+02  0.00000000E+00
  3.00000000E+02  2.60000000E+02  0.00000000E+00
  3.00000000E+02  2.40000000E+02  0.00000000E+00
  3.00000000E+02  2.20000000E+02  0.00000000E+00
  3.00000000E+02  2.00000000E+02  0.00000000E+00
  3.00000000E+02  1.80000000E+02  0.00000000E+00
  3.00000000E+02  1.60000000E+02  0.00000000E+00
  3.00000000E+02  1.40000000E+02  0.00000000E+00
  3.00000000E+02  1.20000000E+02  0.00000000E+00
  3.00000000E+02  1.00000000E+02  0.00000000E+00
  3.00000000E+02  8.00000000E+01  0.00000000E+00
  3.00000000E+02  6.00000000E+01  0.00000000E+00
  3.00000000E+02  4.00000000E+01  0.00000000E+00
  3.00000000E+02  2.00000000E+01  0.00000000E+00
  3.00000000E+02  4.99600361E-14  0.00000000E+00
  3.20000000E+02  3.00000000E+02  0.00000000E+00
  3.20000000E+02  2.80000000E+02  0.00000000E+00
  3.20000000E+02  2.60000000E+02  0.00000000E+00
  3.20000000E+02  2.40000000E+02  0.00000000E+00
  3.20000000E+02  2.20000000E+02  0.00000000E+00
  3.20000000E+02  2.00000000E+02  0.00000000E+00
  3.20000000E+02  1.80000000E+02  0.00000000E+00
  3.20000000E+02  1.60000000E+02  0.00000000E+00
  3.20000000E+02  1.40000000E+02  0.00000000E+00
  3.20000000E+02  1.20000000E+02  0.00000000E+00
  3.20000000E+02  1.00000000E+02  0.00000000E+00
  3.20000000E+02  8.00000000E+01  0.00000000E+00
  3.20000000E+02  6.00000000E+01  0.00000000E+00
  3.20000000E+02  4.00000000E+01  0.00000000E+00
  3.20000000E+02  2.00000000E+01  0.00000000E+00
  3.20000000E+02  4.99600361E-14  0.00000000E+00
  3.40000000E+02  3.00000000E+02  0.00000000E+00
  3.40000000E+02  2.80000000E+02  0.00000000E+00
  3.40000000E+02  2.60000000E+02  0.00000000E+00
  3.40000000E+02  2.40000000E+02  0.00000000E+00
  3.40000000E+02  2.20000000E+02  0.00000000E+00
  3.40000000E+02  2.00000000E+02  0.00000000E+00
  3.40000000E+02  1.80000000E+02  0.00000000E+00
  3.40000000E+02  1.60000000E+02  0.00000000E+00
  3.40000000E+02  1.40000000E+02  0.00000000E+00
  3.40000000E+02  1.20000000E+02  0.00000000E+00
  3.40000000E+02  1.00000000E+02  0.00000000E+00
  3.40000000E+02  8.00000000E+01  0.00000000E+00
  3.40000000E+02  6.00000000E+01  0.00000000E+00
  3.40000000E+02  4.00000000E+01  0.00000000E+00
  3.40000000E+02  2.00000000E+01  0.00000000E+00
  3.40000000E+02  4.99600361E-14  0.00000000E+00
  3.60000000E+02  3.00000000E+02  0.00000000E+00
  3.60000000E+02  2.80000000E+02  0.00000000E+00
  3.60000000E+02  2.60000000E+02  0.00000000E+00
  3.60000000E+02  2.40000000E+02  0.00000000E+00
  3.60000000E+02  2.20000000E+02  0.00000000E+00
  3.60000000E+02  2.00000000E+02  0.00000000E+00
  3.60000000E+02  1.80000000E+02  0.00000000E+00
  3.60000000E+02  1.60000000E+02  0.00000000E+00
  3.60000000E+02  1.40000000E+02  0.00000000E+00
  3.60000000E+02  1.20000000E+02  0.00000000E+00
  3.60000000E+02  1.00000000E+02  0.00000000E+00
  3.60000000E+02  8.00000000E+01  0.00000000E+00
  3.60000000E+02  6.00000000E+01  0.00000000E+00
  3.60000000E+02  4.00000000E+01  0.00000000E+00
  3.60000000E+02  2.00000000E+01  0.00000000E+00
  3.60000000E+02  4.99600361E-14  0.00000000E+00
  3.80000000E+02  3.00000000E+02  0.00000000E+00
  3.80000000E+02  2.80000000E+02  0.00000000E+00
  3.80000000E+02  2.60000000E+02  0.00000000E+00
  3.80000000E+02  2.40000000E+02  0.00000000E+00
  3.80000000E+02  2.20000000E+02  0.00000000E+00
  3.80000000E+02  2.00000000E+02  0.00000000E+00
  3.80000000E+02  1.80000000E+02  0.00000000E+00
  3.80000000E+02  1.60000000E+02  0.00000000E+00
  3.80000000E+02  1.40000000E+02  0.00000000E+00
  3.80000000E+02  1.20000000E+02  0.00000000E+00
  3.80000000E+02  1.00000000E+02  0.00000000E+00
  3.80000000E+02  8.00000000E+01  0.00000000E+00
  3.80000000E+02  6.00000000E+01  0.00000000E+00
  3.80000000E+02  4.00000000E+01  0.00000000E+00
  3.80000000E+02  2.00000000E+01  0.00000000E+00
  3.80000000E+02  4.99600361E-14  0.00000000E+00
  4.00000000E+02  3.00000000E+02  0.00000000E+00
  4.00000000E+02  2.80000000E+02  0.00000000E+00
  4.00000000E+02  2.60000000E+02  0.00000000E+00
  4.00000000E+02  2.40000000E+02  0.00000000E+00
  4.00000000E+02  2.20000000E+02  0.00000000E+00
  4.00000000E+02  2.00000000E+02  0.00000000E+00
  4.00000000E+02  1.80000000E+02  0.00000000E+00
  4.00000000E+02  1.60000000E+02  0.00000000E+00
  4.00000000E+02  1.40000000E+02  0.00000000E+00
  4.00000000E+02  1.20000000E+02  0.00000000E+00
  4.00000000E+02  1.00000000E+02  0.00000000E+00
  4.00000000E+02  8.00000000E+01  0.00000000E+00
  4.00000000E+02  6.00000000E+01  0.00000000E+00
  4.00000000E+02  4.00000000E+01  0.00000000E+00
  4.00000000E+02  2.00000000E+01  0.00000000E+00
  4.00000000E+02  4.99600361E-14  0.00000000E+00
  4.20000000E+02  3.00000000E+02  0.00000000E+00
  4.20000000E+02  2.80000000E+02  0.00000000E+00
  4.20000000E+02  2.60000000E+02  0.00000000E+00
  4.20000000E+02  2.40000000E+02  0.00000000E+00
  4.20000000E+02  2.20000000E+02  0.00000000E+00
  4.20000000E+02  2.00000000E+02  0.00000000E+00
  4.20000000E+02  1.80000000E+02  0.00000000E+00
  4.20000000E+02  1.60000000E+02  0.00000000E+00
  4.20000000E+02  1.40000000E+02  0.00000000E+00
  4.20000000E+02  1.20000000E+02  0.00000000E+00
  4.20000000E+02  1.00000000E+02  0.00000000E+00
  4.20000000E+02  8.00000000E+01  0.00000000E+00
  4.20000000E+02  6.00000000E+01  0.00000000E+00
  4.20000000E+02  4.00000000E+01  0.00000000E+00
  4.20000000E+02  2.00000000E+01  0.00000000E+00
  4.20000000E+02  4.99600361E-14  0.00000000E+00
  4.40000000E+02  3.00000000E+02  0.00000000E+00
  4.40000000E+02  2.80000000E+02  0.00000000E+00
  4.40000000E+02  2.60000000E+02  0.00000000E+00
  4.40000000E+02  2.40000000E+02  0.00000000E+00
  4.40000000E+02  2.20000000E+02  0.00000000E+00
  4.40000000E+02  2.00000000E+02  0.00000000E+00
  4.40000000E+02  1.80000000E+02  0.00000000E+00
  4.40000000E+02  1.60000000E+02  0.00000000E+00
  4.40000000E+02  1.40000000E+02  0.00000000E+00
  4.40000000E+02  1.20000000E+02  0.00000000E+00
  4.40000000E+02  1.00000000E+02  0.00000000E+00
  4.40000000E+02  8.00000000E+01  0.00000000E+00
  4.40000000E+02  6.00000000E+01  0.00000000E+00
  4.40000000E+02  4.00000000E+01  0.00000000E+00
  4.40000000E+02  2.00000000E+01  0.00000000E+00
  4.40000000E+02  4.99600361E-14  0.00000000E+00
  4.60000000E+02  3.00000000E+02  0.00000000E+00
  4.60000000E+02  2.80000000E+02  0.00000000E+00
  4.60000000E+02  2.60000000E+02  0.00000000E+00
  4.60000000E+02  2.40000000E+02  0.00000000E+00
  4.60000000E+02  2.20000000E+02  0.00000000E+00
  4.60000000E+02  2.00000000E+02  0.00000000E+00
  4.60000000E+02  1.80000000E+02  0.00000000E+00
  4.60000000E+02  1.60000000E+02  0.00000000E+00
  4.60000000E+02  1.40000000E+02  0.00000000E+00
  4.60000000E+02  1.20000000E+02  0.00000000E+00
  4.60000000E+02  1.00000000E+02  0.00000000E+00
  4.60000000E+02  8.00000000E+01  0.00000000E+00
  4.60000000E+02  6.00000000E+01  0.00000000E+00
  4.60000000E+02  4.00000000E+01  0.00000000E+00
  4.60000000E+02  2.00000000E+01  0.00000000E+00
  4.60000000E+02  4.99600361E-14  0.00000000E+00
  4.80000000E+02  3.00000000E+02  0.00000000E+00
  4.80000000E+02  2.80000000E+02  0.00000000E+00
  4.80000000E+02  2.60000000E+02  0.00000000E+00
  4.80000000E+02  2.40000000E+02  0.00000000E+00
  4.80000000E+02  2.20000000E+02  0.00000000E+00
  4.80000000E+02  2.00000000E+02  0.00000000E+00
  4.80000000E+02  1.80000000E+02  0.00000000E+00
  4.80000000E+02  1.60000000E+02  0.00000000E+00
  4.80000000E+02  1.40000000E+02  0.00000000E+00
  4.80000000E+02  1.20000000E+02  0.00000000E+00
  4.80000000E+02  1.00000000E+02  0.00000000E+00
  4.80000000E+02  8.00000000E+01  0.00000000E+00
  4.80000000E+02  6.00000000E+01  0.00000000E+00
  4.80000000E+02  4.00000000E+01  0.00000000E+00
  4.80000000E+02  2.00000000E+01  0.00000000E+00
  4.80000000E+02  4.99600361E-14  0.00000000E+00
  5.00000000E+02  3.00000000E+02  0.00000000E+00
  5.00000000E+02  2.80000000E+02  0.00000000E+00
  5.00000000E+02  2.60000000E+02  0.00000000E+00
  5.00000000E+02  2.40000000E+02  0.00000000E+00
  5.00000000E+02  2.20000000E+02  0.00000000E+00
  5.00000000E+02  2.00000000E+02  0.00000000E+00
  5.00000000E+02  1.80000000E+02  0.00000000E+00
  5.00000000E+02  1.60000000E+02  0.00000000E+00
  5.00000000E+02  1.40000000E+02  0.00000000E+00
  5.00000000E+02  1.20000000E+02  0.00000000E+00
  5.00000000E+02  1.00000000E+02  0.00000000E+00
  5.00000000E+02  8.00000000E+01  0.00000000E+00
  5.00000000E+02  6.00000000E+01  0.00000000E+00
  5.00000000E+02  4.00000000E+01  0.00000000E+00
  5.00000000E+02  2.00000000E+01  0.00000000E+00
  5.00000000E+02  4.99600361E-14  0.00000000E+00
  5.20000000E+02  3.00000000E+02  0.00000000E+00
  5.20000000E+02  2.80000000E+02  0.00000000E+00
  5.20000000E+02  2.60000000E+02  0.00000000E+00
  5.20000000E+02  2.40000000E+02  0.00000000E+00
  5.20000000E+02  2.20000000E+02  0.00000000E+00
  5.20000000E+02  2.00000000E+02  0.00000000E+00
  5.20000000E+02  1.80000000E+02  0.00000000E+00
  5.20000000E+02  1.60000000E+02  0.00000000E+00
  5.20000000E+02  1.40000000E+02  0.00000000E+00
  5.20000000E+02  1.20000000E+02  0.00000000E+00
  5.20000000E+02  1.00000000E+02  0.00000000E+00
  5.20000000E+02  8.00000000E+01  0.00000000E+00
  5.20000000E+02  6.00000000E+01  0.00000000E+00
  5.20000000E+02  4.00000000E+01  0.00000000E+00
  5.20000000E+02  2.00000000E+01  0.00000000E+00
  5.20000000E+02  4.99600361E-14  0.00000000E+00
  5.40000000E+02  3.00000000E+02  0.00000000E+00
  5.40000000E+02  2.80000000E+02  0.00000000E+00
  5.40000000E+02  2.60000000E+02  0.00000000E+00
  5.40000000E+02  2.40000000E+02  0.00000000E+00
  5.40000000E+02  2.20000000E+02  0.00000000E+00
  5.40000000E+02  2.00000000E+02  0.00000000E+00
  5.40000000E+02  1.80000000E+02  0.00000000E+00
  5.40000000E+02  1.60000000E+02  0.00000000E+00
  5.40000000E+02  1.40000000E+02  0.00000000E+00
  5.40000000E+02  1.20000000E+02  0.00000000E+00
  5.40000000E+02  1.00000000E+02  0.00000000E+00
  5.40000000E+02  8.00000000E+01  0.00000000E+00
  5.40000000E+02  6.00000000E+01  0.00000000E+00
  5.40000000E+02  4.00000000E+01  0.00000000E+00
  5.40000000E+02  2.00000000E+01  0.00000000E+00
  5.40000000E+02  4.99600361E-14  0.00000000E+00
  5.60000000E+02  3.00000000E+02  0.00000000E+00
  5.60000000E+02  2.80000000E+02  0.00000000E+00
  5.60000000E+02  2.60000000E+02  0.00000000E+00
  5.60000000E+02  2.40000000E+02  0.00000000E+00
  5.60000000E+02  2.20000000E+02  0.00000000E+00
  5.60000000E+02  2.00000000E+02  0.00000000E+00
  5.60000000E+02  1.80000000E+02  0.00000000E+00
  5.60000000E+02  1.60000000E+02  0.00000000E+00
  5.60000000E+02  1.40000000E+02  0.00000000E+00
  5.60000000E+02  1.20000000E+02  0.00000000E+00
  5.60000000E+02  1.00000000E+02  0.00000000E+00
  5.60000000E+02  8.00000000E+01  0.00000000E+00
  5.60000000E+02  6.00000000E+01  0.00000000E+00
  5.60000000E+02  4.00000000E+01  0.00000000E+00
  5.60000000E+02  2.00000000E+01  0.00000000E+00
  5.60000000E+02  4.99600361E-14  0.00000000E+00
  5.80000000E+02  3.00000000E+02  0.00000000E+00
  5.80000000E+02  2.80000000E+02  0.00000000E+00
  5.80000000E+02  2.60000000E+02  0.00000000E+00
  5.80000000E+02  2.40000000E+02  0.00000000E+00
  5.80000000E+02  2.20000000E+02  0.00000000E+00
  5.80000000E+02  2.00000000E+02  0.00000000E+00
  5.80000000E+02  1.80000000E+02  0.00000000E+00
  5.80000000E+02  1.60000000E+02  0.00000000E+00
  5.80000000E+02  1.40000000E+02  0.00000000E+00
  5.80000000E+02  1.20000000E+02  0.00000000E+00
  5.80000000E+02  1.00000000E+02  0.00000000E+00
  5.80000000E+02  8.00000000E+01  0.00000000E+00
  5.80000000E+02  6.00000000E+01  0.00000000E+00
  5.80000000E+02  4.00000000E+01  0.00000000E+00
  5.80000000E+02  2.00000000E+01  0.00000000E+00
  5.80000000E+02  4.99600361E-14  0.00000000E+00
  6.00000000E+02  3.00000000E+02  0.00000000E+00
  6.00000000E+02  2.80000000E+02  0.00000000E+00
  6.00000000E+02  2.60000000E+02  0.00000000E+00
  6.00000000E+02  2.40000000E+02  0.00000000E+00
  6.00000000E+02  2.20000000E+02  0.00000000E+00
  6.00000000E+02  2.00000000E+02  0.00000000E+00
  6.00000000E+02  1.80000000E+02  0.00000000E+00
  6.00000000E+02  1.60000000E+02  0.00000000E+00
  6.00000000E+02  1.40000000E+02  0.00000000E+00
  6.00000000E+02  1.20000000E+02  0.00000000E+00
  6.00000000E+02  1.00000000E+02  0.00000000E+00
  6.00000000E+02  8.00000000E+01  0.00000000E+00
  6.00000000E+02  6.00000000E+01  0.00000000E+00
  6.00000000E+02  4.00000000E+01  0.00000000E+00
  6.00000000E+02  2.00000000E+01  0.00000000E+00
  6.00000000E+02  4.99600361E-14  0.00000000E+00
CELLS       450      2250
         4           0           1          17          16
         4           1           2          18          17
         4           2           3          19          18
         4           3           4          20          19
         4           4           5          21          20
         4           5           6          22          21
         4           6           7          23          22
         4           7           8          24          23
         4           8           9          25          24
         4           9          10          26          25
         4          10          11          27          26
         4          11          12          28          27
         4          12          13          29          28
         4          13          14          30          29
         4          14          15          31          30
         4          16          17          33          32
         4          17          18          34          33
         4          18          19          35          34
         4          19          20          36          35
         4          20          21          37          36
         4          21          22          38          37
         4          22          23          39          38
         4          23          24          40          39
         4          24          25          41          40
         4          25          26          42          41
         4          26          27          43          42
         4          27          28          44          43
         4          28          29          45          44
         4          29          30          46          45
         4          30          31          47          46
         4          32          33          49          48
         4          33          34          50          49
         4          34          35          51          50
         4          35          36          52          51
         4          36          37          53          52
         4          37          38          54          53
         4          38          39          55          54
         4          39          40          56          55
         4          40          41          57          56
         4          41          42          58          57
         4          42          43          59          58
         4          43          44          60          59
         4          44          45          61          60
         4          45          46          62          61
         4          46          47          63          62
         4          48          49          65          64
         4          49          50          66          65
         4          50          51          67          66
         4          51          52          68          67
         4          52          53          69          68
         4          53          54          70          69
         4          54          55          71          70
         4          55          56          72          71
         4          56          57          73          72
         4          57          58          74          73
         4          58          59          75          74
         4          59          60          76          75
         4          60          61          77          76
         4          61          62          78          77
         4          62          63          79          78
         4          64          65          81          80
         4          65          66          82          81
         4          66          67          83          82
         4          67          68          84          83
         4          68          69          85          84
         4          69          70          86          85
         4          70          71          87          86
         4          71          72          88          87
         4          72          73          89          88
         4          73          74          90          89
         4          74          75          91          90
         4          75          76          92          91
         4          76          77          93          92
         4          77          78          94          93
         4          78          79          95          94
         4          80          81          97          96
         4          81          82          98          97
         4          82          83          99          98
         4          83          84         100          99
         4          84          85         101         100
         4          85          86         102         101
         4          86          87         103         102
         4          87          88         104         103
         4          88          89         105         104
         4          89          90         106         105
         4          90          91         107         106
         4          91          92         108         107
         4          92          93         109         108
         4          93          94         110         109
         4          94          95         111         110
         4          96          97         113         112
         4          97          98         114         113
         4          98          99         115         114
         4          99         100         116         115
         4         100         101         117         116
         4         101         102         118         117
         4         102         103         119         118
         4         103         104         120         119
         4         104         105         121         120
         4         105         106         122         121
         4         106         107         123         122
         4         107         108         124         123
         4         108         109         125         124
         4         109         110         126         125
         4         110         111         127         126
         4         112         113         129         128
         4         113         114         130         129
         4         114         115         131         130
         4         115         116         132         131
         4         116         117         133         132
         4         117         118         134         133
         4         118         119         135         134
         4         119         120         136         135
         4         120         121         137         136
         4         121         122         138         137
         4         122         123         139         138
         4         123         124         140         139
         4         124         125         141         140
         4         125         126         142         141
         4         126         127         143         142
         4         128         129         145         144
         4         129         130         146         145
         4         130         131         147         146
         4         131         132         148         147
         4         132         133         149         148
         4         133         134         150         149
         4         134         135         151         150
         4         135         136         152         151
         4         136         137         153         152
         4         137         138         154         153
         4         138         139         155         154
         4         139         140         156         155
         4         140         141         157         156
         4         141         142         158         157
         4         142         143         159         158
         4         144         145         161         160
         4         145         146         162         161
         4         146         147         163         162
         4         147         148         164         163
         4         148         149         165         164
         4         149         150         166         165
         4         150         151         167         166
         4         151         152         168         167
         4         152         153         169         168
         4         153         154         170         169
         4         154         155         171         170
         4         155         156         172         171
         4         156         157         173         172
         4         157         158         174         173
         4         158         159         175         174
         4         160         161         177         176
         4         161         162         178         177
         4         162         163         179         178
         4         163         164         180         179
         4         164         165         181         180
         4         165         166         182         181
         4         166         167         183         182
         4         167         168         184         183
         4         168         169         185         184
         4         169         170         186         185
         4         170         171         187         186
         4         171         172         188         187
         4         172         173         189         188
         4         173         174         190         189
         4         174         175         191         190
         4         176         177         193         192
         4         177         178         194         193
         4         178         179         195         194
         4         179         180         196         195
         4         180         181         197         196
         4         181         182         198         197
         4         182         183         199         198
         4         183         184         200         199
         4         184         185         201         200
         4         185         186         202         201
         4         186         187         203         202
         4         187         188         204         203
         4         188         189         205         204
         4         189         190         206         205
         4         190         191         207         206
         4         192         193         209         208
         4         193         194         210         209
         4         194         195         211         210
         4         195         196         212         211
         4         196         197         213         212
         4         197         198         214         213
         4         198         199         215         214
         4         199         200         216         215
         4         200         201         217         216
         4         201         202         218         217
         4         202         203         219         218
         4         203         204         220         219
         4         204         205         221         220
         4         205         206         222         221
         4         206         207         223         222
         4         208         209         225         224
         4         209         210         226         225
         4         210         211         227         226
         4         211         212         228         227
         4         212         213         229         228
         4         213         214         230         229
         4         214         215         231         230
         4         215         216         232         231
         4         216         217         233         232
         4         217         218         234         233
         4         218         219         235         234
         4         219         220         236         235
         4         220         221         237         236
         4         221         222         238         237
         4         222         223         239         238
         4         224         225         241         240
         4         225         226         242         241
         4         226         227         243         242
         4         227         228         244         243
         4         228         229         245         244
         4         229         230         246         245
         4         230         231         247         246
         4         231         232         248         247
         4         232         233         249         248
         4         233         234         250         249
         4         234         235         251         250
         4         235         236         252         251
         4         236         237         253         252
         4         237         238         254         253
         4         238         239         255         254
         4         240         241         257         256
         4         241         242         258         257
         4         242         243         259         258
         4         243         244         260         259
         4         244         245         261         260
         4         245         246         262         261
         4         246         247         263         262
         4         247         248         264         263
         4         248         249         265         264
         4         249         250         266         265
         4         250         251         267         266
         4         251         252         268         267
         4         252         253         269         268
         4         253         254         270         269
         4         254         255         271         270
         4         256         257         273         272
         4         257         258         274         273
         4         258         259         275         274
         4         259         260         276         275
         4         260         261         277         276
         4         261         262         278         277
         4         262         263         279         278
         4         263         264         280         279
         4         264         265         281         280
         4         265         266         282         281
         4         266         267         283         282
         4         267         268         284         283
         4         268         269         285         284
         4         269         270         286         285
         4         270         271         287         286
         4         272         273         289         288
         4         273         274         290         289
         4         274         275         291         290
         4         275         276         292         291
         4         276         277         293         292
         4         277         278         294         293
         4         278         279         295         294
         4         279         280         296         295
         4         280         281         297         296
         4         281         282         298         297
         4         282         283         299         298
         4         283         284         300         299
         4         284         285         301         300
         4         285         286         302         301
         4         286         287         303         302
         4         288         289         305         304
         4         289         290         306         305
         4         290         291         307         306
         4         291         292         308         307
         4         292         293         309         308
         4         293         294         310         309
         4         294         295         311         310
         4         295         296         312         311
         4         296         297         313         312
         4         297         298         314         313
         4         298         299         315         314
         4         299         300         316         315
         4         300         301         317         316
         4         301         302         318         317
         4         302         303         319         318
         4         304         305         321         320
         4         305         306         322         321
         4         306         307         323         322
         4         307         308         324         323
         4         308         309         325         324
         4         309         310         326         325
         4         310         311         327         326
         4         311         312         328         327
         4         312         313         329         328
         4         313         314         330         329
         4         314         315         331         330
         4         315         316         332         331
         4         316         317         333         332
         4         317         318         334         333
         4         318         319         335         334
         4         320         321         337         336
         4         321         322         338         337
         4         322         323         339         338
         4         323         324         340         339
         4         324         325         341         340
         4         325         326         342         341
         4         326         327         343         342
         4         327         328         344         343
         4         328         329         345         344
         4         329         330         346         345
         4         330         331         347         346
         4         331         332         348         347
         4         332         333         349         348
         4         333         334         350         349
         4         334         335         351         350
         4         336         337         353         352
         4         337         338         354         353
         4         338         339         355         354
         4         339         340         356         355
         4         340         341         357         356
         4         341         342         358         357
         4         342         343         359         358
         4         343         344         360         359
         4         344         345         361         360
         4         345         346         362         361
         4         346         347         363         362
         4         347         348         364         363
         4         348         349         365         364
         4         349         350         366         365
         4         350         351         367         366
         4         352         353         369         368
         4         353         354         370         369
         4         354         355         371         370
         4         355         356         372         371
         4         356         357         373         372
         4         357         358         374         373
         4         358         359         375         374
         4         359         360         376         375
         4         360         361         377         376
         4         361         362         378         377
         4         362         363         379         378
         4         363         364         380         379
         4         364         365         381         380
         4         365         366         382         381
         4         366         367         383         382
         4         368         369         385         384
         4         369         370         386         385
         4         370         371         387         386
         4         371         372         388         387
         4         372         373         389         388
         4         373         374         390         389
         4         374         375         391         390
         4         375         376         392         391
         4         376         377         393         392
         4         377         378         394         393
         4         378         379         395         394
         4         379         380         396         395
         4         380         381         397         396
         4         381         382         398         397
         4         382         383         399         398
         4         384         385         401         400
         4         385         386         402         401
         4         386         387         403         402
         4         387         388         404         403
         4         388         389         405         404
         4         389         390         406         405
         4         390         391         407         406
         4         391         392         408         407
         4         392         393         409         408
         4         393         394         410         409
         4         394         395         411         410
         4         395         396         412         411
         4         396         397         413         412
         4         397         398         414         413
         4         398         399         415         414
         4         400         401         417         416
         4         401         402         418         417
         4         402         403         419         418
         4         403         404         420         419
         4         404         405         421         420
         4         405         406         422         421
         4         406         407         423         422
         4         407         408         424         423
         4         408         409         425         424
         4         409         410         426         425
         4         410         411         427         426
         4         411         412         428         427
         4         412         413         429         428
         4         413         414         430         429
         4         414         415         431         430
         4         416         417         433         432
         4         417         418         434         433
         4         418         419         435         434
         4         419         420         436         435
         4         420         421         437         436
         4         421         422         438         437
         4         422         423         439         438
         4         423         424         440         439
         4         424         425         441         440
         4         425         426         442         441
         4         426         427         443         442
         4         427         428         444         443
         4         428         429         445         444
         4         429         430         446         445
         4         430         431         447         446
         4         432         433         449         448
         4         433         434         450         449
         4         434         435         451         450
         4         435         436         452         451
         4         436         437         453         452
         4         437         438         454         453
         4         438         439         455         454
         4         439         440         456         455
         4         440         441         457         456
         4         441         442         458         457
         4         442         443         459         458
         4         443         444         460         459
         4         444         445         461         460
         4         445         446         462         461
         4         446         447         463         462
         4         448         449         465         464
         4         449         450         466         465
         4         450         451         467         466
         4         451         452         468         467
         4         452         453         469         468
         4         453         454         470         469
         4         454         455         471         470
         4         455         456         472         471
         4         456         457         473         472
         4         457         458         474         473
         4         458         459         475         474
         4         459         460         476         475
         4         460         461         477         476
         4         461         462         478         477
         4         462         463         479         478
         4         464         465         481         480
         4         465         466         482         481
         4         466         467         483         482
         4         467         468         484         483
         4         468         469         485         484
         4         469         470         486         485
         4         470         471         487         486
         4         471         472         488         487
         4         472         473         489         488
         4         473         474         490         489
         4         474         475         491         490
         4         475         476         492         491
         4         476         477         493         492
         4         477         478         494         493
         4         478         479         495         494
CELL_TYPES        450
9
9
9
9
9
9
9
9
9
9
9
9
9
9
9
9
9
9
9
9
9
9
9
9
9
9
9
9
9
9
9
9
9
9
9
9
9
9
9
9
9
9
9
9
9
9
9
9
9
9
9
9
9
9
9
9
9
9
9
9
9
9
9
9
9
9
9
9
9
9
9
9
9
9
9
9
9
9
9
9
9
9
9
9
9
9
9
9
9
9
9
9
9
9
9
9
9
9
9
9
9
9
9
9
9
9
9
9
9
9
9
9
9
9
9
9
9
9
9
9
9
9
9
9
9
9
9
9
9
9
9
9
9
9
9
9
9
9
9
9
9
9
9
9
9
9
9
9
9
9
9
9
9
9
9
9
9
9
9
9
9
9
9
9
9
9
9
9
9
9
9
9
9
9
9
9
9
9
9
9
9
9
9
9
9
9
9
9
9
9
9
9
9
9
9
9
9
9
9
9
9
9
9
9
9
9
9
9
9
9
9
9
9
9
9
9
9
9
9
9
9
9
9
9
9
9
9
9
9
9
9
9
9
9
9
9
9
9
9
9
9
9
9
9
9
9
9
9
9
9
9
9
9
9
9
9
9
9
9
9
9
9
9
9
9
9
9
9
9
9
9
9
9
9
9
9
9
9
9
9
9
9
9
9
9
9
9
9
9
9
9
9
9
9
9
9
9
9
9
9
9
9
9
9
9
9
9
9
9
9
9
9
9
9
9
9
9
9
9
9
9
9
9
9
9
9
9
9
9
9
9
9
9
9
9
9
9
9
9
9
9
9
9
9
9
9
9
9
9
9
9
9
9
9
9
9
9
9
9
9
9
9
9
9
9
9
9
9
9
9
9
9
9
9
9
9
9
9
9
9
9
9
9
9
9
9
9
9
9
9
9
9
9
9
9
9
9
9
9
9
9
9
9
9
9
9
9
9
9
9
9
9
9
9
9
9
9
9
9
9
9
9
9
9
9
9
9
9
9
9
9
9
9
9
9
9
9
9
9
9
9
9
9
9
9
9
9
9
9
9
POINT_DATA       496
SCALARS p double 
LOOKUP_TABLE default
   72881091.9113532     
   72896247.6449053     
   72935948.3170833     
   72989415.1289813     
   73049267.9149114     
   73111673.5908037     
   73174269.9961947     
   73234912.2554080     
   73290347.8996064     
   73337749.3791663     
   73378151.4183882     
   73413686.9616536     
   73444545.1016153     
   73470266.2061493     
   73489876.6607755     
   73498022.5439314     
   71260704.0343055     
   71268016.1292692     
   71283798.3752109     
   71301865.6221077     
   71322681.6408203     
   71346243.8179404     
   71371329.1331026     
   71396344.9337724     
   71421565.5372415     
   71448166.8954871     
   71474743.9612284     
   71499109.5138599     
   71520250.9162117     
   71537151.2110756     
   71548083.8702921     
   71551772.2406106     
   69503517.4181414     
   69502227.2042350     
   69500880.6578334     
   69501680.9088037     
   69503838.5270736     
   69507177.2631127     
   69512890.4097647     
   69522604.5538269     
   69536005.7796450     
   69551076.4471127     
   69566445.1992493     
   69581141.6809319     
   69593973.6934968     
   69603831.2762123     
   69609845.6367490     
   69611814.0409404     
   67635215.8243228     
   67631749.6408576     
   67625785.5295441     
   67621898.3624733     
   67620225.2658372     
   67620999.0706470     
   67624102.6049305     
   67628956.2605383     
   67635144.3852193     
   67642334.1709111     
   67649956.4766603     
   67657332.1961434     
   67663767.2277017     
   67668589.4008935     
   67671401.9635012     
   67672280.7636888     
   65730321.1034561     
   65728387.4814074     
   65723974.4876950     
   65719896.2666817     
   65717625.5113255     
   65716842.6569428     
   65717059.0025328     
   65718028.5369551     
   65719536.7590338     
   65721441.5298770     
   65723597.9358486     
   65725756.8761868     
   65727603.0959495     
   65728873.0187689     
   65729481.4993770     
   65729625.6913163     
   63808937.2504742     
   63807631.2487810     
   63804750.9173518     
   63801623.2497626     
   63798723.9175839     
   63796242.0957868     
   63794059.0267769     
   63792013.6022374     
   63790060.2692860     
   63788219.2537036     
   63786529.9406525     
   63785005.1564019     
   63783629.8934985     
   63782418.6817953     
   63781492.5136501     
   63781124.3514752     
   61873753.2863246     
   61873085.6211854     
   61871058.6610992     
   61867995.5684101     
   61864390.4182051     
   61860446.2659975     
   61856236.1767052     
   61851794.8134485     
   61847195.8754279     
   61842576.3830611     
   61838106.2582725     
   61833960.7440600     
   61830314.7929715     
   61827364.8264768     
   61825362.3006048     
   61824633.4470926     
   59926014.4860601     
   59925308.8897853     
   59923197.0681394     
   59919785.3403670     
   59915318.3711815     
   59910037.3538054     
   59904115.8557768     
   59897714.6551250     
   59891021.8012682     
   59884267.8017980     
   59877718.0742531     
   59871656.1097175     
   59866375.3195480     
   59862183.4253253     
   59859412.9084024     
   59858425.9981142     
   57964677.6376804     
   57963819.5027522     
   57961289.3775433     
   57957215.3820213     
   57951790.5245893     
   57945245.5877415     
   57937820.3936655     
   57929763.6854294     
   57921350.4874168     
   57912889.6925356     
   57904719.8121716     
   57897198.8196567     
   57890695.2654107     
   57885584.4654634     
   57882247.7849410     
   57881070.5694215     
   55989131.2437724     
   55988086.3353892     
   55985041.7245057     
   55980190.3916273     
   55973755.0271456     
   55965995.4637333     
   55957201.4638374     
   55947689.0937667     
   55937802.2082198     
   55927913.1306032     
   55918417.9830453     
   55909728.2387469     
   55902261.8108286     
   55896435.8135758     
   55892661.0150960     
   55891336.7782614     
   53998840.5721357     
   53997605.8028963     
   53994029.1266220     
   53988373.7026501     
   53980920.9565408     
   53971983.3031015     
   53961905.6261746     
   53951062.8152960     
   53939856.9683889     
   53928713.5816877     
   53918075.4927601     
   53908394.7030997     
   53900123.4761014     
   53893705.9972626     
   53889571.1359338     
   53888126.4068392     
   51993274.7313755     
   51991853.4619127     
   51987749.2143353     
   51981291.7049540     
   51972829.8980692     
   51962740.2260083     
   51951428.3824173     
   51939327.0819472     
   51926891.7871987     
   51914595.0888870     
   51902919.7126846     
   51892350.3777437     
   51883365.1661195     
   51876427.1878391     
   51871977.1408180     
   51870427.2224962     
   49971868.7385130     
   49970263.0537237     
   49965634.7584718     
   49958377.5901371     
   49948910.8407280     
   49937680.1594240     
   49925156.0124321     
   49911829.9205186     
   49898209.1458042     
   49884810.2968099     
   49872152.0836513     
   49860747.4686408     
   49851095.6239066     
   49843674.2036065     
   49838932.4130295     
   49837285.3041037     
   47934010.3588076     
   47932218.0069726     
   47927059.4245066     
   47918993.6366215     
   47908512.6931717     
   47896134.7135656     
   47882397.7023296     
   47867853.3176301     
   47853060.3817813     
   47838578.1048944     
   47824959.0333108     
   47812741.8243325     
   47802444.0889406     
   47794555.6395690     
   47789532.4660203     
   47787791.6789219     
   45879036.4940569     
   45877050.2212777     
   45871343.0352444     
   45862444.9551600     
   45850925.0941862     
   45837377.4995850     
   45822410.1771392     
   45806636.1619263     
   45790665.8880865     
   45775100.3145005     
   45760524.4166046     
   45747500.8657075     
   45736563.9749047     
   45728214.1636502     
   45722913.1494533     
   45721079.8402148     
   43806234.7533945     
   43804042.7025814     
   43797757.3970174     
   43787989.8874090     
   43775393.2917721     
   43760642.1806835     
   43744417.1965650     
   43727393.7253209     
   43710233.5146351     
   43693578.1817590     
   43678043.6845831     
   43664215.1590154     
   43652642.0433512     
   43643833.8470442     
   43638256.8765628     
   43636331.6170855     
   41714847.6974837     
   41712434.3309943     
   41705532.7172040     
   41694849.0490208     
   41681130.1708836     
   41665137.1578787     
   41647626.1426276     
   41629335.2669998     
   41610976.3457107     
   41593229.6227339     
   41576739.9550761     
   41562113.1246045     
   41549911.9414309     
   41540652.9935493     
   41534805.1765004     
   41532789.6718467     
   39604078.4263153     
   39601425.7132815     
   39593864.3935056     
   39582213.8158428     
   39567326.9708342     
   39550058.6760114     
   39531243.3173587     
   39511681.0809135     
   39492130.8948576     
   39473307.8076659     
   39455882.2420651     
   39440478.4815598     
   39427671.1115308     
   39417981.2357765     
   39411876.4178291     
   39409775.5556888     
   37473096.6856108     
   37470185.4412707     
   37461919.9042370     
   37449254.5376932     
   37433163.4714442     
   37414603.4020361     
   37394489.0363719     
   37373679.9576726     
   37352976.5690112     
   37333121.9939017     
   37314806.4623580     
   37298670.2353972     
   37285299.9304220     
   37275219.4828524     
   37268887.8379981     
   37266712.8723200     
   35321044.9501245     
   35317856.2840776     
   35308845.5497903     
   35295128.5720145     
   35277818.0903572     
   35257981.1549140     
   35236613.2549207     
   35214627.6973443     
   35192856.8834579     
   35172061.1756778     
   35152940.7695479     
   35136146.3156783     
   35122281.4357539     
   35111879.9802343     
   35105380.8218542     
   35103155.7567480     
   33147044.1059341     
   33143560.9776564     
   33133772.8668369     
   33118988.2419613     
   33100478.3127846     
   33079428.4245530     
   33056912.3732886     
   33033887.0848363     
   33011202.4275856     
   32989620.0350341     
   32969835.3333389     
   32952497.2787345     
   32938224.2968797     
   32927597.1129453     
   32921044.9238953     
   32918826.0044284     
   30950198.4571928     
   30946407.3811175     
   30935824.6757164     
   30919989.0435433     
   30900352.1862498     
   30878223.6644889     
   30854748.1416592     
   30830909.8038341     
   30807555.2061183     
   30785425.6649372     
   30765192.0498382     
   30747486.4458569     
   30732922.8511915     
   30722133.5471970     
   30715703.5547931     
   30713642.7374132     
   28729599.8504857     
   28725492.8743536     
   28714120.9803686     
   28697298.9517895     
   28676682.3920338     
   28653706.2216382     
   28629570.3530453     
   28605261.2562840     
   28581594.1572467     
   28559263.0072851     
   28538890.2420042     
   28521072.4686877     
   28506417.3535446     
   28495546.4263488     
   28489297.9558350     
   28487459.5177001     
   26484330.7474445     
   26479908.0107109     
   26467785.4443272     
   26450110.7565056     
   26428765.9573278     
   26405302.4100346     
   26380946.3661835     
   26356650.1604726     
   26333162.2266112     
   26311098.0347573     
   26291005.1058302     
   26273422.2295156     
   26258939.6288948     
   26248242.8760487     
   26242184.6863455     
   26240432.1879076     
   24213466.1027306     
   24208739.6767337     
   24195954.2367201     
   24177661.6008434     
   24155985.6205513     
   24132564.9732206     
   24108602.3542414     
   24084965.7527221     
   24062295.8525547     
   24041098.3432167     
   24021819.8054654     
   24004916.4289835     
   23990924.6498441     
   23980572.5064048     
   23974586.7177271     
   23972754.4215193     
   21916073.7677314     
   21911074.6099812     
   21897791.5945523     
   21879268.7963596     
   21857864.4906637     
   21835236.2355819     
   21812482.9072052     
   21790325.4920088     
   21769257.2859541     
   21749650.0597201     
   21731830.7768052     
   21716147.7328006     
   21703048.6430825     
   21693193.6324708     
   21687221.4637493     
   21685260.3620352     
   19591213.6940029     
   19586005.6088821     
   19572523.3335651     
   19554402.7628036     
   19534165.8889302     
   19513349.8706421     
   19492834.8785514     
   19473133.6840332     
   19454568.1047885     
   19437368.9065183     
   19421739.9449228     
   19407909.2869905     
   19396191.1965570     
   19387089.2887096     
   19381268.0894580     
   19379259.3989203     
   17237931.9418366     
   17232650.2649891     
   17219521.9290849     
   17202845.7544407     
   17185077.4811953     
   17167383.9346564     
   17150312.7632901     
   17134144.8725589     
   17119038.6524183     
   17105101.9101259     
   17092432.1189634     
   17081146.9401469     
   17071405.4941496     
   17063457.2498186     
   17058007.1673060     
   17056037.5569765     
   14855277.3696020     
   14850218.0161277     
   14838550.9711207     
   14825061.9697518     
   14811513.6640477     
   14798447.2315618     
   14786084.0296237     
   14774515.5423382     
   14763784.1526285     
   14753916.2781761     
   14744939.2367143     
   14736887.9334402     
   14729812.9876859     
   14723698.8000726     
   14719018.1087136     
   14717160.3236328     
   12442247.9669401     
   12438396.3011123     
   12430649.8098411     
   12422889.4045934     
   12415439.3306114     
   12408429.6120882     
   12401888.6385811     
   12395819.0936394     
   12390216.0367713     
   12385074.9987526     
   12380394.7781478     
   12376176.5277337     
   12372402.8632345     
   12369048.3580807     
   12365898.2699513     
   12364320.9801511     
   10000000.0000000     
   10000000.0000000     
   10000000.0000000     
   10000000.0000000     
   10000000.0000000     
   10000000.0000000     
   10000000.0000000     
   10000000.0000000     
   10000000.0000000     
   10000000.0000000     
   10000000.0000000     
   10000000.0000000     
   10000000.0000000     
  10000000.00000000     
   10000000.0000000     
   10000000.0000000     
VECTORS u double 
    0.00000E+00         0.80798E+00         0.00000E+00
    0.00000E+00         0.81697E+00         0.00000E+00
    0.00000E+00         0.80341E+00         0.00000E+00
    0.00000E+00         0.76583E+00         0.00000E+00
    0.00000E+00         0.71019E+00         0.00000E+00
    0.00000E+00         0.64412E+00         0.00000E+00
    0.00000E+00         0.57407E+00         0.00000E+00
    0.00000E+00         0.50475E+00         0.00000E+00
    0.00000E+00         0.43852E+00         0.00000E+00
    0.00000E+00         0.37697E+00         0.00000E+00
    0.00000E+00         0.31762E+00         0.00000E+00
    0.00000E+00         0.25954E+00         0.00000E+00
    0.00000E+00         0.20088E+00         0.00000E+00
    0.00000E+00         0.13981E+00         0.00000E+00
    0.00000E+00         0.74115E-01         0.00000E+00
    0.00000E+00         0.00000E+00         0.00000E+00
    0.54346E+00         0.80740E+00         0.00000E+00
    0.50561E+00         0.79458E+00         0.00000E+00
    0.44187E+00         0.76646E+00         0.00000E+00
    0.37096E+00         0.72474E+00         0.00000E+00
    0.30348E+00         0.67195E+00         0.00000E+00
    0.24481E+00         0.61174E+00         0.00000E+00
    0.19404E+00         0.54809E+00         0.00000E+00
    0.15082E+00         0.48472E+00         0.00000E+00
    0.11502E+00         0.42404E+00         0.00000E+00
    0.94345E-01         0.36633E+00         0.00000E+00
    0.79983E-01         0.30980E+00         0.00000E+00
    0.66958E-01         0.25363E+00         0.00000E+00
    0.53878E-01         0.19648E+00         0.00000E+00
    0.39706E-01         0.13668E+00         0.00000E+00
    0.23084E-01         0.72147E-01         0.00000E+00
    0.00000E+00         0.00000E+00         0.00000E+00
    0.90051E+00         0.76174E+00         0.00000E+00
    0.80309E+00         0.72203E+00         0.00000E+00
    0.69839E+00         0.68014E+00         0.00000E+00
    0.59397E+00         0.63599E+00         0.00000E+00
    0.49455E+00         0.58885E+00         0.00000E+00
    0.40364E+00         0.53886E+00         0.00000E+00
    0.32489E+00         0.48744E+00         0.00000E+00
    0.26165E+00         0.43650E+00         0.00000E+00
    0.21531E+00         0.38681E+00         0.00000E+00
    0.18030E+00         0.33756E+00         0.00000E+00
    0.15190E+00         0.28772E+00         0.00000E+00
    0.12596E+00         0.23673E+00         0.00000E+00
    0.99962E-01         0.18384E+00         0.00000E+00
    0.72052E-01         0.12782E+00         0.00000E+00
    0.39911E-01         0.67053E-01         0.00000E+00
    0.00000E+00         0.00000E+00         0.00000E+00
    0.10902E+01         0.64606E+00         0.00000E+00
    0.96007E+00         0.60793E+00         0.00000E+00
    0.83657E+00         0.56912E+00         0.00000E+00
    0.71978E+00         0.53019E+00         0.00000E+00
    0.61100E+00         0.49128E+00         0.00000E+00
    0.51445E+00         0.45235E+00         0.00000E+00
    0.43132E+00         0.41362E+00         0.00000E+00
    0.36170E+00         0.37510E+00         0.00000E+00
    0.30483E+00         0.33619E+00         0.00000E+00
    0.25773E+00         0.29615E+00         0.00000E+00
    0.21665E+00         0.25450E+00         0.00000E+00
    0.17827E+00         0.21074E+00         0.00000E+00
    0.13984E+00         0.16429E+00         0.00000E+00
    0.99044E-01         0.11434E+00         0.00000E+00
    0.53390E-01         0.59873E-01         0.00000E+00
    0.00000E+00         0.00000E+00         0.00000E+00
    0.12182E+01         0.50575E+00         0.00000E+00
    0.10796E+01         0.47719E+00         0.00000E+00
    0.94828E+00         0.44786E+00         0.00000E+00
    0.82628E+00         0.41856E+00         0.00000E+00
    0.71523E+00         0.38983E+00         0.00000E+00
    0.61532E+00         0.36171E+00         0.00000E+00
    0.52726E+00         0.33380E+00         0.00000E+00
    0.45083E+00         0.30564E+00         0.00000E+00
    0.38484E+00         0.27659E+00         0.00000E+00
    0.32706E+00         0.24596E+00         0.00000E+00
    0.27464E+00         0.21319E+00         0.00000E+00
    0.22474E+00         0.17783E+00         0.00000E+00
    0.17473E+00         0.13941E+00         0.00000E+00
    0.12219E+00         0.97366E-01         0.00000E+00
    0.64746E-01         0.51064E-01         0.00000E+00
    0.00000E+00         0.00000E+00         0.00000E+00
    0.13272E+01         0.35980E+00         0.00000E+00
    0.11825E+01         0.34082E+00         0.00000E+00
    0.10479E+01         0.32166E+00         0.00000E+00
    0.92350E+00         0.30288E+00         0.00000E+00
    0.80938E+00         0.28453E+00         0.00000E+00
    0.70583E+00         0.26652E+00         0.00000E+00
    0.61284E+00         0.24857E+00         0.00000E+00
    0.52991E+00         0.23016E+00         0.00000E+00
    0.45582E+00         0.21067E+00         0.00000E+00
    0.38871E+00         0.18947E+00         0.00000E+00
    0.32624E+00         0.16602E+00         0.00000E+00
    0.26595E+00         0.13986E+00         0.00000E+00
    0.20542E+00         0.11058E+00         0.00000E+00
    0.14237E+00         0.77766E-01         0.00000E+00
    0.74583E-01         0.41007E-01         0.00000E+00
    0.00000E+00         0.00000E+00         0.00000E+00
    0.14222E+01         0.21032E+00         0.00000E+00
    0.12756E+01         0.20109E+00         0.00000E+00
    0.11383E+01         0.19215E+00         0.00000E+00
    0.10110E+01         0.18347E+00         0.00000E+00
    0.89367E+00         0.17510E+00         0.00000E+00
    0.78630E+00         0.16693E+00         0.00000E+00
    0.68852E+00         0.15866E+00         0.00000E+00
    0.59960E+00         0.14983E+00         0.00000E+00
    0.51835E+00         0.13990E+00         0.00000E+00
    0.44308E+00         0.12830E+00         0.00000E+00
    0.37179E+00         0.11454E+00         0.00000E+00
    0.30231E+00         0.98185E-01         0.00000E+00
    0.23245E+00         0.78855E-01         0.00000E+00
    0.16009E+00         0.56223E-01         0.00000E+00
    0.83217E-01         0.30006E-01         0.00000E+00
    0.00000E+00         0.00000E+00         0.00000E+00
    0.15084E+01         0.57975E-01         0.00000E+00
    0.13589E+01         0.58460E-01         0.00000E+00
    0.12189E+01         0.59240E-01         0.00000E+00
    0.10887E+01         0.60376E-01         0.00000E+00
    0.96817E+00         0.61790E-01         0.00000E+00
    0.85705E+00         0.63326E-01         0.00000E+00
    0.75478E+00         0.64698E-01         0.00000E+00
    0.66047E+00         0.65506E-01         0.00000E+00
    0.57293E+00         0.65280E-01         0.00000E+00
    0.49058E+00         0.63537E-01         0.00000E+00
    0.41164E+00         0.59826E-01         0.00000E+00
    0.33415E+00         0.53753E-01         0.00000E+00
    0.25613E+00         0.44982E-01         0.00000E+00
    0.17563E+00         0.33237E-01         0.00000E+00
    0.90811E-01         0.18295E-01         0.00000E+00
    0.00000E+00         0.00000E+00         0.00000E+00
    0.15853E+01        -0.97915E-01         0.00000E+00
    0.14326E+01        -0.87652E-01         0.00000E+00
    0.12897E+01        -0.77134E-01         0.00000E+00
    0.11566E+01        -0.66276E-01         0.00000E+00
    0.10330E+01        -0.55139E-01         0.00000E+00
    0.91841E+00        -0.43890E-01         0.00000E+00
    0.81205E+00        -0.32793E-01         0.00000E+00
    0.71299E+00        -0.22192E-01         0.00000E+00
    0.62000E+00        -0.12488E-01         0.00000E+00
    0.53159E+00        -0.40950E-02         0.00000E+00
    0.44610E+00         0.25921E-02         0.00000E+00
    0.36174E+00         0.72216E-02         0.00000E+00
    0.27669E+00         0.94942E-02         0.00000E+00
    0.18916E+00         0.91657E-02         0.00000E+00
    0.97452E-01         0.60468E-02         0.00000E+00
    0.00000E+00         0.00000E+00         0.00000E+00
    0.16524E+01        -0.25743E+00         0.00000E+00
    0.14964E+01        -0.23730E+00         0.00000E+00
    0.13507E+01        -0.21697E+00         0.00000E+00
    0.12149E+01        -0.19632E+00         0.00000E+00
    0.10884E+01        -0.17540E+00         0.00000E+00
    0.97062E+00        -0.15434E+00         0.00000E+00
    0.86069E+00        -0.13336E+00         0.00000E+00
    0.75755E+00        -0.11276E+00         0.00000E+00
    0.65994E+00        -0.92874E-01         0.00000E+00
    0.56644E+00        -0.74054E-01         0.00000E+00
    0.47544E+00        -0.56641E-01         0.00000E+00
    0.38530E+00        -0.40947E-01         0.00000E+00
    0.29431E+00        -0.27239E-01         0.00000E+00
    0.20080E+00        -0.15737E-01         0.00000E+00
    0.10319E+00        -0.66138E-02         0.00000E+00
    0.00000E+00         0.00000E+00         0.00000E+00
    0.17091E+01        -0.42038E+00         0.00000E+00
    0.15500E+01        -0.39032E+00         0.00000E+00
    0.14017E+01        -0.36006E+00         0.00000E+00
    0.12634E+01        -0.32952E+00         0.00000E+00
    0.11344E+01        -0.29868E+00         0.00000E+00
    0.10139E+01        -0.26765E+00         0.00000E+00
    0.90098E+00        -0.23661E+00         0.00000E+00
    0.79447E+00        -0.20578E+00         0.00000E+00
    0.69308E+00        -0.17545E+00         0.00000E+00
    0.59541E+00        -0.14593E+00         0.00000E+00
    0.49992E+00        -0.11749E+00         0.00000E+00
    0.40502E+00        -0.90418E-01         0.00000E+00
    0.30912E+00        -0.64949E-01         0.00000E+00
    0.21063E+00        -0.41287E-01         0.00000E+00
    0.10806E+00        -0.19594E-01         0.00000E+00
    0.00000E+00         0.00000E+00         0.00000E+00
    0.17551E+01        -0.58649E+00         0.00000E+00
    0.15934E+01        -0.54640E+00         0.00000E+00
    0.14426E+01        -0.50613E+00         0.00000E+00
    0.13022E+01        -0.46556E+00         0.00000E+00
    0.11711E+01        -0.42466E+00         0.00000E+00
    0.10484E+01        -0.38348E+00         0.00000E+00
    0.93315E+00        -0.34216E+00         0.00000E+00
    0.82400E+00        -0.30088E+00         0.00000E+00
    0.71967E+00        -0.25987E+00         0.00000E+00
    0.61874E+00        -0.21938E+00         0.00000E+00
    0.51972E+00        -0.17965E+00         0.00000E+00
    0.42106E+00        -0.14093E+00         0.00000E+00
    0.32122E+00        -0.10343E+00         0.00000E+00
    0.21872E+00        -0.67344E-01         0.00000E+00
    0.11209E+00        -0.32824E-01         0.00000E+00
    0.00000E+00         0.00000E+00         0.00000E+00
    0.17903E+01        -0.75539E+00         0.00000E+00
    0.16261E+01        -0.70519E+00         0.00000E+00
    0.14734E+01        -0.65480E+00         0.00000E+00
    0.13312E+01        -0.60408E+00         0.00000E+00
    0.11986E+01        -0.55296E+00         0.00000E+00
    0.10744E+01        -0.50146E+00         0.00000E+00
    0.95738E+00        -0.44967E+00         0.00000E+00
    0.84635E+00        -0.39772E+00         0.00000E+00
    0.73991E+00        -0.34580E+00         0.00000E+00
    0.63663E+00        -0.29411E+00         0.00000E+00
    0.53500E+00        -0.24286E+00         0.00000E+00
    0.43353E+00        -0.19227E+00         0.00000E+00
    0.33072E+00        -0.14252E+00         0.00000E+00
    0.22511E+00        -0.93795E-01         0.00000E+00
    0.11530E+00        -0.46246E-01         0.00000E+00
    0.00000E+00         0.00000E+00         0.00000E+00
    0.18142E+01        -0.92669E+00         0.00000E+00
    0.16481E+01        -0.86630E+00         0.00000E+00
    0.14939E+01        -0.80568E+00         0.00000E+00
    0.13505E+01        -0.74468E+00         0.00000E+00
    0.12169E+01        -0.68320E+00         0.00000E+00
    0.10917E+01        -0.62121E+00         0.00000E+00
    0.97376E+00        -0.55876E+00         0.00000E+00
    0.86165E+00        -0.49595E+00         0.00000E+00
    0.75396E+00        -0.43292E+00         0.00000E+00
    0.64921E+00        -0.36984E+00         0.00000E+00
    0.54591E+00        -0.30688E+00         0.00000E+00
    0.44256E+00        -0.24423E+00         0.00000E+00
    0.33768E+00        -0.18206E+00         0.00000E+00
    0.22986E+00        -0.12054E+00         0.00000E+00
    0.11772E+00        -0.59809E-01         0.00000E+00
    0.00000E+00         0.00000E+00         0.00000E+00
    0.18265E+01        -0.10999E+01         0.00000E+00
    0.16590E+01        -0.10293E+01         0.00000E+00
    0.15038E+01        -0.95833E+00         0.00000E+00
    0.13599E+01        -0.88694E+00         0.00000E+00
    0.12259E+01        -0.81495E+00         0.00000E+00
    0.11005E+01        -0.74233E+00         0.00000E+00
    0.98238E+00        -0.66907E+00         0.00000E+00
    0.87001E+00        -0.59523E+00         0.00000E+00
    0.76192E+00        -0.52093E+00         0.00000E+00
    0.65661E+00        -0.44629E+00         0.00000E+00
    0.55254E+00        -0.37147E+00         0.00000E+00
    0.44822E+00        -0.29663E+00         0.00000E+00
    0.34218E+00        -0.22191E+00         0.00000E+00
    0.23301E+00        -0.14748E+00         0.00000E+00
    0.11937E+00        -0.73464E-01         0.00000E+00
    0.00000E+00         0.00000E+00         0.00000E+00
    0.18269E+01        -0.12747E+01         0.00000E+00
    0.16585E+01        -0.11936E+01         0.00000E+00
    0.15030E+01        -0.11123E+01         0.00000E+00
    0.13591E+01        -0.10304E+01         0.00000E+00
    0.12255E+01        -0.94777E+00         0.00000E+00
    0.11008E+01        -0.86438E+00         0.00000E+00
    0.98325E+00        -0.78016E+00         0.00000E+00
    0.87147E+00        -0.69517E+00         0.00000E+00
    0.76388E+00        -0.60947E+00         0.00000E+00
    0.65889E+00        -0.52317E+00         0.00000E+00
    0.55497E+00        -0.43639E+00         0.00000E+00
    0.45058E+00        -0.34926E+00         0.00000E+00
    0.34426E+00        -0.26192E+00         0.00000E+00
    0.23459E+00        -0.17451E+00         0.00000E+00
    0.12025E+00        -0.87163E-01         0.00000E+00
    0.00000E+00         0.00000E+00         0.00000E+00
    0.18151E+01        -0.14504E+01         0.00000E+00
    0.16463E+01        -0.13589E+01         0.00000E+00
    0.14912E+01        -0.12670E+01         0.00000E+00
    0.13482E+01        -0.11745E+01         0.00000E+00
    0.12158E+01        -0.10812E+01         0.00000E+00
    0.10924E+01        -0.98687E+00         0.00000E+00
    0.97636E+00        -0.89161E+00         0.00000E+00
    0.86606E+00        -0.79536E+00         0.00000E+00
    0.75986E+00        -0.69818E+00         0.00000E+00
    0.65612E+00        -0.60015E+00         0.00000E+00
    0.55324E+00        -0.50136E+00         0.00000E+00
    0.44969E+00        -0.40191E+00         0.00000E+00
    0.34396E+00        -0.30193E+00         0.00000E+00
    0.23463E+00        -0.20154E+00         0.00000E+00
    0.12039E+00        -0.10085E+00         0.00000E+00
    0.00000E+00         0.00000E+00         0.00000E+00
    0.17905E+01        -0.16265E+01         0.00000E+00
    0.16221E+01        -0.15244E+01         0.00000E+00
    0.14681E+01        -0.14219E+01         0.00000E+00
    0.13267E+01        -0.13187E+01         0.00000E+00
    0.11964E+01        -0.12145E+01         0.00000E+00
    0.10753E+01        -0.11093E+01         0.00000E+00
    0.96166E+00        -0.10029E+01         0.00000E+00
    0.85377E+00        -0.89532E+00         0.00000E+00
    0.74987E+00        -0.78663E+00         0.00000E+00
    0.64830E+00        -0.67686E+00         0.00000E+00
    0.54739E+00        -0.56607E+00         0.00000E+00
    0.44556E+00        -0.45434E+00         0.00000E+00
    0.34129E+00        -0.34176E+00         0.00000E+00
    0.23315E+00        -0.22844E+00         0.00000E+00
    0.11979E+00        -0.11448E+00         0.00000E+00
    0.00000E+00         0.00000E+00         0.00000E+00
    0.17527E+01        -0.18024E+01         0.00000E+00
    0.15855E+01        -0.16896E+01         0.00000E+00
    0.14334E+01        -0.15764E+01         0.00000E+00
    0.12946E+01        -0.14623E+01         0.00000E+00
    0.11672E+01        -0.13472E+01         0.00000E+00
    0.10494E+01        -0.12310E+01         0.00000E+00
    0.93908E+00        -0.11134E+01         0.00000E+00
    0.83453E+00        -0.99451E+00         0.00000E+00
    0.73389E+00        -0.87434E+00         0.00000E+00
    0.63541E+00        -0.75288E+00         0.00000E+00
    0.53738E+00        -0.63018E+00         0.00000E+00
    0.43819E+00        -0.50627E+00         0.00000E+00
    0.33626E+00        -0.38121E+00         0.00000E+00
    0.23013E+00        -0.25508E+00         0.00000E+00
    0.11846E+00        -0.12798E+00         0.00000E+00
    0.00000E+00         0.00000E+00         0.00000E+00
    0.17011E+01        -0.19772E+01         0.00000E+00
    0.15358E+01        -0.18536E+01         0.00000E+00
    0.13867E+01        -0.17296E+01         0.00000E+00
    0.12515E+01        -0.16046E+01         0.00000E+00
    0.11281E+01        -0.14786E+01         0.00000E+00
    0.10145E+01        -0.13512E+01         0.00000E+00
    0.90853E+00        -0.12225E+01         0.00000E+00
    0.80829E+00        -0.10923E+01         0.00000E+00
    0.71185E+00        -0.96073E+00         0.00000E+00
    0.61740E+00        -0.82773E+00         0.00000E+00
    0.52319E+00        -0.69329E+00         0.00000E+00
    0.42754E+00        -0.55741E+00         0.00000E+00
    0.32885E+00        -0.42008E+00         0.00000E+00
    0.22558E+00        -0.28135E+00         0.00000E+00
    0.11638E+00        -0.14129E+00         0.00000E+00
    0.00000E+00         0.00000E+00         0.00000E+00
    0.16350E+01        -0.21500E+01         0.00000E+00
    0.14728E+01        -0.20156E+01         0.00000E+00
    0.13276E+01        -0.18806E+01         0.00000E+00
    0.11971E+01        -0.17447E+01         0.00000E+00
    0.10788E+01        -0.16076E+01         0.00000E+00
    0.97048E+00        -0.14691E+01         0.00000E+00
    0.86989E+00        -0.13293E+01         0.00000E+00
    0.77493E+00        -0.11880E+01         0.00000E+00
    0.68364E+00        -0.10452E+01         0.00000E+00
    0.59416E+00        -0.90084E+00         0.00000E+00
    0.50470E+00        -0.75495E+00         0.00000E+00
    0.41354E+00        -0.60741E+00         0.00000E+00
    0.31900E+00        -0.45815E+00         0.00000E+00
    0.21947E+00        -0.30713E+00         0.00000E+00
    0.11353E+00        -0.15437E+00         0.00000E+00
    0.00000E+00         0.00000E+00         0.00000E+00
    0.15537E+01        -0.23199E+01         0.00000E+00
    0.13957E+01        -0.21745E+01         0.00000E+00
    0.12558E+01        -0.20285E+01         0.00000E+00
    0.11311E+01        -0.18815E+01         0.00000E+00
    0.10192E+01        -0.17333E+01         0.00000E+00
    0.91723E+00        -0.15838E+01         0.00000E+00
    0.82302E+00        -0.14329E+01         0.00000E+00
    0.73433E+00        -0.12806E+01         0.00000E+00
    0.64914E+00        -0.11268E+01         0.00000E+00
    0.56555E+00        -0.97154E+00         0.00000E+00
    0.48176E+00        -0.81461E+00         0.00000E+00
    0.39602E+00        -0.65588E+00         0.00000E+00
    0.30660E+00        -0.49520E+00         0.00000E+00
    0.21177E+00        -0.33240E+00         0.00000E+00
    0.10986E+00        -0.16736E+00         0.00000E+00
    0.00000E+00         0.00000E+00         0.00000E+00
    0.14565E+01        -0.24855E+01         0.00000E+00
    0.13041E+01        -0.23290E+01         0.00000E+00
    0.11708E+01        -0.21719E+01         0.00000E+00
    0.10534E+01        -0.20138E+01         0.00000E+00
    0.94896E+00        -0.18545E+01         0.00000E+00
    0.85459E+00        -0.16940E+01         0.00000E+00
    0.76779E+00        -0.15322E+01         0.00000E+00
    0.68633E+00        -0.13692E+01         0.00000E+00
    0.60814E+00        -0.12049E+01         0.00000E+00
    0.53134E+00        -0.10391E+01         0.00000E+00
    0.45413E+00        -0.87161E+00         0.00000E+00
    0.37474E+00        -0.70231E+00         0.00000E+00
    0.29142E+00        -0.53089E+00         0.00000E+00
    0.20235E+00        -0.35711E+00         0.00000E+00
    0.10543E+00        -0.18077E+00         0.00000E+00
    0.00000E+00         0.00000E+00         0.00000E+00
    0.13424E+01        -0.26454E+01         0.00000E+00
    0.11973E+01        -0.24777E+01         0.00000E+00
    0.10723E+01        -0.23093E+01         0.00000E+00
    0.96370E+00        -0.21400E+01         0.00000E+00
    0.86808E+00        -0.19697E+01         0.00000E+00
    0.78241E+00        -0.17983E+01         0.00000E+00
    0.70406E+00        -0.16260E+01         0.00000E+00
    0.63073E+00        -0.14526E+01         0.00000E+00
    0.56041E+00        -0.12782E+01         0.00000E+00
    0.49124E+00        -0.11025E+01         0.00000E+00
    0.42147E+00        -0.92521E+00         0.00000E+00
    0.34937E+00        -0.74608E+00         0.00000E+00
    0.27314E+00        -0.56473E+00         0.00000E+00
    0.19087E+00        -0.38080E+00         0.00000E+00
    0.10060E+00        -0.19399E+00         0.00000E+00
    0.00000E+00         0.00000E+00         0.00000E+00
    0.12108E+01        -0.27978E+01         0.00000E+00
    0.10749E+01        -0.26187E+01         0.00000E+00
    0.95998E+00        -0.24390E+01         0.00000E+00
    0.86178E+00        -0.22585E+01         0.00000E+00
    0.77641E+00        -0.20773E+01         0.00000E+00
    0.70061E+00        -0.18953E+01         0.00000E+00
    0.63166E+00        -0.17127E+01         0.00000E+00
    0.56732E+00        -0.15296E+01         0.00000E+00
    0.50563E+00        -0.13456E+01         0.00000E+00
    0.44486E+00        -0.11607E+01         0.00000E+00
    0.38335E+00        -0.97451E+00         0.00000E+00
    0.31944E+00        -0.78647E+00         0.00000E+00
    0.25135E+00        -0.59612E+00         0.00000E+00
    0.17705E+00        -0.40292E+00         0.00000E+00
    0.94629E-01        -0.20635E+00         0.00000E+00
    0.00000E+00         0.00000E+00         0.00000E+00
    0.10605E+01        -0.29406E+01         0.00000E+00
    0.93620E+00        -0.27500E+01         0.00000E+00
    0.83362E+00        -0.25589E+01         0.00000E+00
    0.74764E+00        -0.23672E+01         0.00000E+00
    0.67394E+00        -0.21752E+01         0.00000E+00
    0.60910E+00        -0.19830E+01         0.00000E+00
    0.55043E+00        -0.17908E+01         0.00000E+00
    0.49580E+00        -0.15985E+01         0.00000E+00
    0.44343E+00        -0.14060E+01         0.00000E+00
    0.39174E+00        -0.12128E+01         0.00000E+00
    0.33923E+00        -0.10186E+01         0.00000E+00
    0.28438E+00        -0.82266E+00         0.00000E+00
    0.22547E+00        -0.62441E+00         0.00000E+00
    0.16052E+00        -0.42310E+00         0.00000E+00
    0.87222E-01        -0.21735E+00         0.00000E+00
    0.00000E+00         0.00000E+00         0.00000E+00
    0.89082E+00        -0.30711E+01         0.00000E+00
    0.78096E+00        -0.28688E+01         0.00000E+00
    0.69320E+00        -0.26663E+01         0.00000E+00
    0.62136E+00        -0.24636E+01         0.00000E+00
    0.56071E+00        -0.22612E+01         0.00000E+00
    0.50780E+00        -0.20594E+01         0.00000E+00
    0.46013E+00        -0.18583E+01         0.00000E+00
    0.41581E+00        -0.16579E+01         0.00000E+00
    0.37331E+00        -0.14578E+01         0.00000E+00
    0.33128E+00        -0.12575E+01         0.00000E+00
    0.28843E+00        -0.10564E+01         0.00000E+00
    0.24342E+00        -0.85379E+00         0.00000E+00
    0.19475E+00        -0.64884E+00         0.00000E+00
    0.14054E+00        -0.44059E+00         0.00000E+00
    0.78072E-01        -0.22694E+00         0.00000E+00
    0.00000E+00         0.00000E+00         0.00000E+00
    0.70062E+00        -0.31859E+01         0.00000E+00
    0.60893E+00        -0.29719E+01         0.00000E+00
    0.53893E+00        -0.27579E+01         0.00000E+00
    0.48320E+00        -0.25445E+01         0.00000E+00
    0.43680E+00        -0.23325E+01         0.00000E+00
    0.39658E+00        -0.21222E+01         0.00000E+00
    0.36046E+00        -0.19135E+01         0.00000E+00
    0.32690E+00        -0.17062E+01         0.00000E+00
    0.29469E+00        -0.14998E+01         0.00000E+00
    0.26277E+00        -0.12936E+01         0.00000E+00
    0.23012E+00        -0.10870E+01         0.00000E+00
    0.19567E+00        -0.87903E+00         0.00000E+00
    0.15818E+00        -0.66871E+00         0.00000E+00
    0.11610E+00        -0.45487E+00         0.00000E+00
    0.66380E-01        -0.23498E+00         0.00000E+00
    0.00000E+00         0.00000E+00         0.00000E+00
    0.48898E+00        -0.32805E+01         0.00000E+00
    0.42039E+00        -0.30547E+01         0.00000E+00
    0.37145E+00        -0.28296E+01         0.00000E+00
    0.33351E+00        -0.26066E+01         0.00000E+00
    0.30223E+00        -0.23865E+01         0.00000E+00
    0.27521E+00        -0.21692E+01         0.00000E+00
    0.25098E+00        -0.19545E+01         0.00000E+00
    0.22847E+00        -0.17420E+01         0.00000E+00
    0.20684E+00        -0.15308E+01         0.00000E+00
    0.18537E+00        -0.13203E+01         0.00000E+00
    0.16335E+00        -0.11095E+01         0.00000E+00
    0.14004E+00        -0.89764E+00         0.00000E+00
    0.11454E+00        -0.68339E+00         0.00000E+00
    0.85734E-01        -0.46542E+00         0.00000E+00
    0.51043E-01        -0.24131E+00         0.00000E+00
    0.00000E+00         0.00000E+00         0.00000E+00
    0.25500E+00        -0.33484E+01         0.00000E+00
    0.21663E+00        -0.31109E+01         0.00000E+00
    0.19167E+00        -0.28762E+01         0.00000E+00
    0.17252E+00        -0.26460E+01         0.00000E+00
    0.15680E+00        -0.24202E+01         0.00000E+00
    0.14324E+00        -0.21984E+01         0.00000E+00
    0.13108E+00        -0.19799E+01         0.00000E+00
    0.11979E+00        -0.17639E+01         0.00000E+00
    0.10892E+00        -0.15498E+01         0.00000E+00
    0.98123E-01        -0.13366E+01         0.00000E+00
    0.87034E-01        -0.11234E+01         0.00000E+00
    0.75266E-01        -0.90905E+00         0.00000E+00
    0.62358E-01        -0.69240E+00         0.00000E+00
    0.47676E-01        -0.47192E+00         0.00000E+00
    0.30102E-01        -0.24549E+00         0.00000E+00
    0.00000E+00         0.00000E+00         0.00000E+00
    0.00000E+00        -0.33766E+01         0.00000E+00
    0.00000E+00        -0.31313E+01         0.00000E+00
    0.00000E+00        -0.28924E+01         0.00000E+00
    0.00000E+00        -0.26595E+01         0.00000E+00
    0.00000E+00        -0.24317E+01         0.00000E+00
    0.00000E+00        -0.22083E+01         0.00000E+00
    0.00000E+00        -0.19884E+01         0.00000E+00
    0.00000E+00        -0.17713E+01         0.00000E+00
    0.00000E+00        -0.15562E+01         0.00000E+00
    0.00000E+00        -0.13421E+01         0.00000E+00
    0.00000E+00        -0.11280E+01         0.00000E+00
    0.00000E+00        -0.91289E+00         0.00000E+00
    0.00000E+00        -0.69545E+00         0.00000E+00
    0.00000E+00        -0.47412E+00         0.00000E+00
    0.00000E+00        -0.24699E+00         0.00000E+00
    0.00000E+00         0.00000E+00         0.00000E+00
CELL_DATA        450
VECTORS vDarcy double 
    0.11691E-05         0.80858E-08         0.00000E+00
    0.11646E-05         0.19697E-07         0.00000E+00
    0.11615E-05         0.24878E-07         0.00000E+00
    0.11600E-05         0.27409E-07         0.00000E+00
    0.11592E-05         0.28537E-07         0.00000E+00
    0.11586E-05         0.28469E-07         0.00000E+00
    0.11579E-05         0.27237E-07         0.00000E+00
    0.11570E-05         0.25172E-07         0.00000E+00
    0.11568E-05         0.22778E-07         0.00000E+00
    0.11576E-05         0.20442E-07         0.00000E+00
    0.11578E-05         0.18164E-07         0.00000E+00
    0.11577E-05         0.15681E-07         0.00000E+00
    0.11575E-05         0.12789E-07         0.00000E+00
    0.11571E-05         0.91202E-08         0.00000E+00
    0.11547E-05         0.35146E-08         0.00000E+00
    0.11775E-05         0.20128E-08         0.00000E+00
    0.11651E-05         0.47395E-08         0.00000E+00
    0.11615E-05         0.61159E-08         0.00000E+00
    0.11599E-05         0.73633E-08         0.00000E+00
    0.11586E-05         0.85204E-08         0.00000E+00
    0.11570E-05         0.96370E-08         0.00000E+00
    0.11556E-05         0.10753E-07         0.00000E+00
    0.11554E-05         0.11871E-07         0.00000E+00
    0.11553E-05         0.12727E-07         0.00000E+00
    0.11547E-05         0.12728E-07         0.00000E+00
    0.11542E-05         0.11783E-07         0.00000E+00
    0.11536E-05         0.10195E-07         0.00000E+00
    0.11528E-05         0.79919E-08         0.00000E+00
    0.11511E-05         0.50389E-08         0.00000E+00
    0.11483E-05         0.16749E-08         0.00000E+00
    0.11748E-05        -0.14946E-08         0.00000E+00
    0.11649E-05        -0.22737E-08         0.00000E+00
    0.11608E-05        -0.95434E-09         0.00000E+00
    0.11589E-05         0.14921E-09         0.00000E+00
    0.11578E-05         0.12630E-08         0.00000E+00
    0.11570E-05         0.27023E-08         0.00000E+00
    0.11562E-05         0.44530E-08         0.00000E+00
    0.11551E-05         0.59633E-08         0.00000E+00
    0.11539E-05         0.67426E-08         0.00000E+00
    0.11527E-05         0.69284E-08         0.00000E+00
    0.11516E-05         0.66186E-08         0.00000E+00
    0.11504E-05         0.57509E-08         0.00000E+00
    0.11489E-05         0.43631E-08         0.00000E+00
    0.11468E-05         0.26133E-08         0.00000E+00
    0.11441E-05         0.84000E-09         0.00000E+00
    0.11692E-05        -0.16578E-08         0.00000E+00
    0.11643E-05        -0.31751E-08         0.00000E+00
    0.11604E-05        -0.24299E-08         0.00000E+00
    0.11585E-05        -0.12009E-08         0.00000E+00
    0.11575E-05        -0.27517E-11         0.00000E+00
    0.11565E-05         0.10074E-08         0.00000E+00
    0.11555E-05         0.17623E-08         0.00000E+00
    0.11541E-05         0.23213E-08         0.00000E+00
    0.11526E-05         0.27323E-08         0.00000E+00
    0.11510E-05         0.29256E-08         0.00000E+00
    0.11495E-05         0.28408E-08         0.00000E+00
    0.11478E-05         0.24576E-08         0.00000E+00
    0.11460E-05         0.18013E-08         0.00000E+00
    0.11438E-05         0.10081E-08         0.00000E+00
    0.11413E-05         0.30056E-09         0.00000E+00
    0.11650E-05        -0.98233E-09         0.00000E+00
    0.11621E-05        -0.22073E-08         0.00000E+00
    0.11597E-05        -0.21777E-08         0.00000E+00
    0.11579E-05        -0.15601E-08         0.00000E+00
    0.11566E-05        -0.98341E-09         0.00000E+00
    0.11554E-05        -0.59122E-09         0.00000E+00
    0.11542E-05        -0.32263E-09         0.00000E+00
    0.11528E-05        -0.13309E-09         0.00000E+00
    0.11512E-05         0.19001E-10         0.00000E+00
    0.11495E-05         0.13873E-09         0.00000E+00
    0.11477E-05         0.18769E-09         0.00000E+00
    0.11459E-05         0.13892E-09         0.00000E+00
    0.11439E-05         0.17263E-10         0.00000E+00
    0.11418E-05        -0.93141E-10         0.00000E+00
    0.11395E-05        -0.65497E-10         0.00000E+00
    0.11619E-05        -0.59259E-09         0.00000E+00
    0.11602E-05        -0.14718E-08         0.00000E+00
    0.11583E-05        -0.18541E-08         0.00000E+00
    0.11566E-05        -0.19450E-08         0.00000E+00
    0.11553E-05        -0.19182E-08         0.00000E+00
    0.11540E-05        -0.19046E-08         0.00000E+00
    0.11527E-05        -0.19282E-08         0.00000E+00
    0.11513E-05        -0.19427E-08         0.00000E+00
    0.11497E-05        -0.19102E-08         0.00000E+00
    0.11480E-05        -0.18159E-08         0.00000E+00
    0.11463E-05        -0.16668E-08         0.00000E+00
    0.11444E-05        -0.14718E-08         0.00000E+00
    0.11425E-05        -0.12164E-08         0.00000E+00
    0.11405E-05        -0.85398E-09         0.00000E+00
    0.11384E-05        -0.31917E-09         0.00000E+00
    0.11596E-05        -0.40879E-09         0.00000E+00
    0.11580E-05        -0.12303E-08         0.00000E+00
    0.11564E-05        -0.19219E-08         0.00000E+00
    0.11550E-05        -0.23922E-08         0.00000E+00
    0.11537E-05        -0.27293E-08         0.00000E+00
    0.11525E-05        -0.29920E-08         0.00000E+00
    0.11512E-05        -0.31954E-08         0.00000E+00
    0.11498E-05        -0.33204E-08         0.00000E+00
    0.11484E-05        -0.33366E-08         0.00000E+00
    0.11468E-05        -0.32249E-08         0.00000E+00
    0.11451E-05        -0.29798E-08         0.00000E+00
    0.11434E-05        -0.25996E-08         0.00000E+00
    0.11416E-05        -0.20750E-08         0.00000E+00
    0.11397E-05        -0.13838E-08         0.00000E+00
    0.11378E-05        -0.49647E-09         0.00000E+00
    0.11575E-05        -0.46140E-09         0.00000E+00
    0.11559E-05        -0.13676E-08         0.00000E+00
    0.11545E-05        -0.22021E-08         0.00000E+00
    0.11532E-05        -0.29055E-08         0.00000E+00
    0.11520E-05        -0.34681E-08         0.00000E+00
    0.11509E-05        -0.39074E-08         0.00000E+00
    0.11497E-05        -0.42251E-08         0.00000E+00
    0.11485E-05        -0.44060E-08         0.00000E+00
    0.11472E-05        -0.44288E-08         0.00000E+00
    0.11458E-05        -0.42757E-08         0.00000E+00
    0.11443E-05        -0.39373E-08         0.00000E+00
    0.11427E-05        -0.34089E-08         0.00000E+00
    0.11411E-05        -0.26858E-08         0.00000E+00
    0.11394E-05        -0.17600E-08         0.00000E+00
    0.11377E-05        -0.62261E-09         0.00000E+00
    0.11554E-05        -0.55647E-09         0.00000E+00
    0.11538E-05        -0.16276E-08         0.00000E+00
    0.11526E-05        -0.26021E-08         0.00000E+00
    0.11514E-05        -0.34528E-08         0.00000E+00
    0.11504E-05        -0.41583E-08         0.00000E+00
    0.11494E-05        -0.47078E-08         0.00000E+00
    0.11484E-05        -0.50915E-08         0.00000E+00
    0.11473E-05        -0.52945E-08         0.00000E+00
    0.11462E-05        -0.52998E-08         0.00000E+00
    0.11450E-05        -0.50931E-08         0.00000E+00
    0.11437E-05        -0.46656E-08         0.00000E+00
    0.11423E-05        -0.40138E-08         0.00000E+00
    0.11409E-05        -0.31371E-08         0.00000E+00
    0.11395E-05        -0.20367E-08         0.00000E+00
    0.11380E-05        -0.71537E-09         0.00000E+00
    0.11533E-05        -0.66046E-09         0.00000E+00
    0.11519E-05        -0.19156E-08         0.00000E+00
    0.11507E-05        -0.30355E-08         0.00000E+00
    0.11497E-05        -0.40072E-08         0.00000E+00
    0.11488E-05        -0.48114E-08         0.00000E+00
    0.11480E-05        -0.54308E-08         0.00000E+00
    0.11472E-05        -0.58497E-08         0.00000E+00
    0.11464E-05        -0.60532E-08         0.00000E+00
    0.11455E-05        -0.60273E-08         0.00000E+00
    0.11445E-05        -0.57612E-08         0.00000E+00
    0.11434E-05        -0.52492E-08         0.00000E+00
    0.11423E-05        -0.44905E-08         0.00000E+00
    0.11411E-05        -0.34887E-08         0.00000E+00
    0.11399E-05        -0.22508E-08         0.00000E+00
    0.11387E-05        -0.78700E-09         0.00000E+00
    0.11512E-05        -0.76226E-09         0.00000E+00
    0.11499E-05        -0.22015E-08         0.00000E+00
    0.11489E-05        -0.34676E-08         0.00000E+00
    0.11481E-05        -0.45507E-08         0.00000E+00
    0.11474E-05        -0.54346E-08         0.00000E+00
    0.11468E-05        -0.61025E-08         0.00000E+00
    0.11463E-05        -0.65386E-08         0.00000E+00
    0.11456E-05        -0.67296E-08         0.00000E+00
    0.11450E-05        -0.66646E-08         0.00000E+00
    0.11443E-05        -0.63369E-08         0.00000E+00
    0.11435E-05        -0.57442E-08         0.00000E+00
    0.11426E-05        -0.48894E-08         0.00000E+00
    0.11417E-05        -0.37799E-08         0.00000E+00
    0.11407E-05        -0.24271E-08         0.00000E+00
    0.11397E-05        -0.84579E-09         0.00000E+00
    0.11492E-05        -0.86036E-09         0.00000E+00
    0.11481E-05        -0.24793E-08         0.00000E+00
    0.11473E-05        -0.38898E-08         0.00000E+00
    0.11467E-05        -0.50800E-08         0.00000E+00
    0.11462E-05        -0.60355E-08         0.00000E+00
    0.11458E-05        -0.67416E-08         0.00000E+00
    0.11455E-05        -0.71853E-08         0.00000E+00
    0.11452E-05        -0.73565E-08         0.00000E+00
    0.11448E-05        -0.72482E-08         0.00000E+00
    0.11444E-05        -0.68579E-08         0.00000E+00
    0.11439E-05        -0.61874E-08         0.00000E+00
    0.11433E-05        -0.52431E-08         0.00000E+00
    0.11426E-05        -0.40362E-08         0.00000E+00
    0.11419E-05        -0.25815E-08         0.00000E+00
    0.11411E-05        -0.89716E-09         0.00000E+00
    0.11471E-05        -0.95636E-09         0.00000E+00
    0.11463E-05        -0.27519E-08         0.00000E+00
    0.11457E-05        -0.43049E-08         0.00000E+00
    0.11453E-05        -0.56000E-08         0.00000E+00
    0.11452E-05        -0.66232E-08         0.00000E+00
    0.11451E-05        -0.73626E-08         0.00000E+00
    0.11450E-05        -0.78089E-08         0.00000E+00
    0.11450E-05        -0.79562E-08         0.00000E+00
    0.11449E-05        -0.78022E-08         0.00000E+00
    0.11448E-05        -0.73488E-08         0.00000E+00
    0.11446E-05        -0.66020E-08         0.00000E+00
    0.11442E-05        -0.55722E-08         0.00000E+00
    0.11438E-05        -0.42736E-08         0.00000E+00
    0.11433E-05        -0.27241E-08         0.00000E+00
    0.11428E-05        -0.94453E-09         0.00000E+00
    0.11452E-05        -0.10528E-08         0.00000E+00
    0.11445E-05        -0.30252E-08         0.00000E+00
    0.11442E-05        -0.47202E-08         0.00000E+00
    0.11442E-05        -0.61186E-08         0.00000E+00
    0.11443E-05        -0.72070E-08         0.00000E+00
    0.11445E-05        -0.79764E-08         0.00000E+00
    0.11448E-05        -0.84220E-08         0.00000E+00
    0.11451E-05        -0.85426E-08         0.00000E+00
    0.11453E-05        -0.83411E-08         0.00000E+00
    0.11455E-05        -0.78240E-08         0.00000E+00
    0.11456E-05        -0.70017E-08         0.00000E+00
    0.11455E-05        -0.58882E-08         0.00000E+00
    0.11454E-05        -0.45010E-08         0.00000E+00
    0.11451E-05        -0.28606E-08         0.00000E+00
    0.11448E-05        -0.98989E-09         0.00000E+00
    0.11432E-05        -0.11522E-08         0.00000E+00
    0.11429E-05        -0.33054E-08         0.00000E+00
    0.11429E-05        -0.51428E-08         0.00000E+00
    0.11432E-05        -0.66431E-08         0.00000E+00
    0.11436E-05        -0.77940E-08         0.00000E+00
    0.11442E-05        -0.85901E-08         0.00000E+00
    0.11448E-05        -0.90317E-08         0.00000E+00
    0.11454E-05        -0.91229E-08         0.00000E+00
    0.11460E-05        -0.88720E-08         0.00000E+00
    0.11465E-05        -0.82903E-08         0.00000E+00
    0.11469E-05        -0.73926E-08         0.00000E+00
    0.11471E-05        -0.61964E-08         0.00000E+00
    0.11473E-05        -0.47224E-08         0.00000E+00
    0.11472E-05        -0.29934E-08         0.00000E+00
    0.11471E-05        -0.10341E-08         0.00000E+00
    0.11413E-05        -0.12565E-08         0.00000E+00
    0.11413E-05        -0.35971E-08         0.00000E+00
    0.11416E-05        -0.55784E-08         0.00000E+00
    0.11423E-05        -0.71785E-08         0.00000E+00
    0.11431E-05        -0.83880E-08         0.00000E+00
    0.11440E-05        -0.92063E-08         0.00000E+00
    0.11450E-05        -0.96395E-08         0.00000E+00
    0.11460E-05        -0.96980E-08         0.00000E+00
    0.11469E-05        -0.93954E-08         0.00000E+00
    0.11478E-05        -0.87480E-08         0.00000E+00
    0.11485E-05        -0.77746E-08         0.00000E+00
    0.11490E-05        -0.64966E-08         0.00000E+00
    0.11494E-05        -0.49375E-08         0.00000E+00
    0.11496E-05        -0.31223E-08         0.00000E+00
    0.11497E-05        -0.10770E-08         0.00000E+00
    0.11393E-05        -0.13672E-08         0.00000E+00
    0.11397E-05        -0.39035E-08         0.00000E+00
    0.11404E-05        -0.60297E-08         0.00000E+00
    0.11415E-05        -0.77260E-08         0.00000E+00
    0.11428E-05        -0.89880E-08         0.00000E+00
    0.11441E-05        -0.98220E-08         0.00000E+00
    0.11455E-05        -0.10241E-07         0.00000E+00
    0.11469E-05        -0.10262E-07         0.00000E+00
    0.11481E-05        -0.99055E-08         0.00000E+00
    0.11493E-05        -0.91915E-08         0.00000E+00
    0.11503E-05        -0.81426E-08         0.00000E+00
    0.11512E-05        -0.67837E-08         0.00000E+00
    0.11518E-05        -0.51417E-08         0.00000E+00
    0.11523E-05        -0.32441E-08         0.00000E+00
    0.11526E-05        -0.11174E-08         0.00000E+00
    0.11373E-05        -0.14847E-08         0.00000E+00
    0.11381E-05        -0.42252E-08         0.00000E+00
    0.11393E-05        -0.64958E-08         0.00000E+00
    0.11408E-05        -0.82821E-08         0.00000E+00
    0.11425E-05        -0.95876E-08         0.00000E+00
    0.11443E-05        -0.10428E-07         0.00000E+00
    0.11462E-05        -0.10824E-07         0.00000E+00
    0.11479E-05        -0.10803E-07         0.00000E+00
    0.11496E-05        -0.10390E-07         0.00000E+00
    0.11511E-05        -0.96096E-08         0.00000E+00
    0.11524E-05        -0.84868E-08         0.00000E+00
    0.11536E-05        -0.70488E-08         0.00000E+00
    0.11545E-05        -0.53266E-08         0.00000E+00
    0.11552E-05        -0.33523E-08         0.00000E+00
    0.11558E-05        -0.11530E-08         0.00000E+00
    0.11352E-05        -0.16088E-08         0.00000E+00
    0.11365E-05        -0.45605E-08         0.00000E+00
    0.11382E-05        -0.69720E-08         0.00000E+00
    0.11403E-05        -0.88380E-08         0.00000E+00
    0.11425E-05        -0.10173E-07         0.00000E+00
    0.11447E-05        -0.11006E-07         0.00000E+00
    0.11470E-05        -0.11370E-07         0.00000E+00
    0.11492E-05        -0.11301E-07         0.00000E+00
    0.11512E-05        -0.10830E-07         0.00000E+00
    0.11531E-05        -0.99856E-08         0.00000E+00
    0.11548E-05        -0.87937E-08         0.00000E+00
    0.11562E-05        -0.72800E-08         0.00000E+00
    0.11574E-05        -0.54795E-08         0.00000E+00
    0.11584E-05        -0.34350E-08         0.00000E+00
    0.11591E-05        -0.11786E-08         0.00000E+00
    0.11330E-05        -0.17385E-08         0.00000E+00
    0.11349E-05        -0.49051E-08         0.00000E+00
    0.11372E-05        -0.74488E-08         0.00000E+00
    0.11398E-05        -0.93781E-08         0.00000E+00
    0.11425E-05        -0.10724E-07         0.00000E+00
    0.11453E-05        -0.11532E-07         0.00000E+00
    0.11480E-05        -0.11850E-07         0.00000E+00
    0.11506E-05        -0.11725E-07         0.00000E+00
    0.11530E-05        -0.11197E-07         0.00000E+00
    0.11553E-05        -0.10295E-07         0.00000E+00
    0.11573E-05        -0.90457E-08         0.00000E+00
    0.11590E-05        -0.74668E-08         0.00000E+00
    0.11605E-05        -0.55865E-08         0.00000E+00
    0.11617E-05        -0.34705E-08         0.00000E+00
    0.11626E-05        -0.11826E-08         0.00000E+00
    0.11306E-05        -0.18717E-08         0.00000E+00
    0.11331E-05        -0.52520E-08         0.00000E+00
    0.11361E-05        -0.79119E-08         0.00000E+00
    0.11393E-05        -0.98798E-08         0.00000E+00
    0.11427E-05        -0.11210E-07         0.00000E+00
    0.11460E-05        -0.11969E-07         0.00000E+00
    0.11491E-05        -0.12225E-07         0.00000E+00
    0.11521E-05        -0.12037E-07         0.00000E+00
    0.11550E-05        -0.11454E-07         0.00000E+00
    0.11575E-05        -0.10507E-07         0.00000E+00
    0.11599E-05        -0.92178E-08         0.00000E+00
    0.11620E-05        -0.75976E-08         0.00000E+00
    0.11638E-05        -0.56506E-08         0.00000E+00
    0.11651E-05        -0.34292E-08         0.00000E+00
    0.11661E-05        -0.11315E-08         0.00000E+00
    0.11280E-05        -0.20059E-08         0.00000E+00
    0.11313E-05        -0.55907E-08         0.00000E+00
    0.11350E-05        -0.83404E-08         0.00000E+00
    0.11390E-05        -0.10311E-07         0.00000E+00
    0.11429E-05        -0.11589E-07         0.00000E+00
    0.11468E-05        -0.12270E-07         0.00000E+00
    0.11504E-05        -0.12445E-07         0.00000E+00
    0.11538E-05        -0.12188E-07         0.00000E+00
    0.11570E-05        -0.11554E-07         0.00000E+00
    0.11599E-05        -0.10578E-07         0.00000E+00
    0.11626E-05        -0.92750E-08         0.00000E+00
    0.11650E-05        -0.76444E-08         0.00000E+00
    0.11671E-05        -0.56770E-08         0.00000E+00
    0.11688E-05        -0.33276E-08         0.00000E+00
    0.11695E-05        -0.10241E-08         0.00000E+00
    0.11251E-05        -0.21370E-08         0.00000E+00
    0.11294E-05        -0.59070E-08         0.00000E+00
    0.11340E-05        -0.87054E-08         0.00000E+00
    0.11387E-05        -0.10629E-07         0.00000E+00
    0.11433E-05        -0.11808E-07         0.00000E+00
    0.11476E-05        -0.12375E-07         0.00000E+00
    0.11517E-05        -0.12448E-07         0.00000E+00
    0.11555E-05        -0.12117E-07         0.00000E+00
    0.11590E-05        -0.11443E-07         0.00000E+00
    0.11623E-05        -0.10461E-07         0.00000E+00
    0.11653E-05        -0.91761E-08         0.00000E+00
    0.11680E-05        -0.75711E-08         0.00000E+00
    0.11705E-05        -0.56163E-08         0.00000E+00
    0.11726E-05        -0.32109E-08         0.00000E+00
    0.11726E-05        -0.93696E-09         0.00000E+00
    0.11220E-05        -0.22600E-08         0.00000E+00
    0.11273E-05        -0.61806E-08         0.00000E+00
    0.11329E-05        -0.89667E-08         0.00000E+00
    0.11384E-05        -0.10775E-07         0.00000E+00
    0.11437E-05        -0.11797E-07         0.00000E+00
    0.11486E-05        -0.12211E-07         0.00000E+00
    0.11531E-05        -0.12164E-07         0.00000E+00
    0.11573E-05        -0.11759E-07         0.00000E+00
    0.11611E-05        -0.11062E-07         0.00000E+00
    0.11646E-05        -0.10101E-07         0.00000E+00
    0.11679E-05        -0.88757E-08         0.00000E+00
    0.11709E-05        -0.73496E-08         0.00000E+00
    0.11738E-05        -0.54472E-08         0.00000E+00
    0.11764E-05        -0.31242E-08         0.00000E+00
    0.11756E-05        -0.92924E-09         0.00000E+00
    0.11185E-05        -0.23674E-08         0.00000E+00
    0.11251E-05        -0.63820E-08         0.00000E+00
    0.11319E-05        -0.90655E-08         0.00000E+00
    0.11383E-05        -0.10669E-07         0.00000E+00
    0.11443E-05        -0.11466E-07         0.00000E+00
    0.11497E-05        -0.11693E-07         0.00000E+00
    0.11546E-05        -0.11517E-07         0.00000E+00
    0.11590E-05        -0.11049E-07         0.00000E+00
    0.11630E-05        -0.10351E-07         0.00000E+00
    0.11667E-05        -0.94476E-08         0.00000E+00
    0.11703E-05        -0.83286E-08         0.00000E+00
    0.11737E-05        -0.69473E-08         0.00000E+00
    0.11769E-05        -0.51981E-08         0.00000E+00
    0.11799E-05        -0.30842E-08         0.00000E+00
    0.11786E-05        -0.97729E-09         0.00000E+00
    0.11147E-05        -0.24470E-08         0.00000E+00
    0.11229E-05        -0.64632E-08         0.00000E+00
    0.11310E-05        -0.89122E-08         0.00000E+00
    0.11384E-05        -0.10197E-07         0.00000E+00
    0.11450E-05        -0.10708E-07         0.00000E+00
    0.11508E-05        -0.10728E-07         0.00000E+00
    0.11560E-05        -0.10435E-07         0.00000E+00
    0.11606E-05        -0.99308E-08         0.00000E+00
    0.11648E-05        -0.92655E-08         0.00000E+00
    0.11687E-05        -0.84568E-08         0.00000E+00
    0.11724E-05        -0.74923E-08         0.00000E+00
    0.11761E-05        -0.63241E-08         0.00000E+00
    0.11798E-05        -0.48482E-08         0.00000E+00
    0.11830E-05        -0.30251E-08         0.00000E+00
    0.11816E-05        -0.10171E-08         0.00000E+00
    0.11107E-05        -0.24755E-08         0.00000E+00
    0.11208E-05        -0.63375E-08         0.00000E+00
    0.11303E-05        -0.83603E-08         0.00000E+00
    0.11386E-05        -0.92060E-08         0.00000E+00
    0.11458E-05        -0.93979E-08         0.00000E+00
    0.11519E-05        -0.92346E-08         0.00000E+00
    0.11573E-05        -0.88669E-08         0.00000E+00
    0.11620E-05        -0.83703E-08         0.00000E+00
    0.11663E-05        -0.77798E-08         0.00000E+00
    0.11703E-05        -0.71047E-08         0.00000E+00
    0.11742E-05        -0.63338E-08         0.00000E+00
    0.11780E-05        -0.54347E-08         0.00000E+00
    0.11821E-05        -0.43357E-08         0.00000E+00
    0.11857E-05        -0.28759E-08         0.00000E+00
    0.11845E-05        -0.10141E-08         0.00000E+00
    0.11065E-05        -0.24013E-08         0.00000E+00
    0.11191E-05        -0.58252E-08         0.00000E+00
    0.11301E-05        -0.71633E-08         0.00000E+00
    0.11391E-05        -0.75081E-08         0.00000E+00
    0.11466E-05        -0.74370E-08         0.00000E+00
    0.11529E-05        -0.71698E-08         0.00000E+00
    0.11584E-05        -0.68016E-08         0.00000E+00
    0.11632E-05        -0.63744E-08         0.00000E+00
    0.11676E-05        -0.59054E-08         0.00000E+00
    0.11716E-05        -0.53977E-08         0.00000E+00
    0.11755E-05        -0.48449E-08         0.00000E+00
    0.11795E-05        -0.42329E-08         0.00000E+00
    0.11837E-05        -0.35557E-08         0.00000E+00
    0.11879E-05        -0.25720E-08         0.00000E+00
    0.11871E-05        -0.97128E-09         0.00000E+00
    0.11024E-05        -0.20361E-08         0.00000E+00
    0.11180E-05        -0.45034E-08         0.00000E+00
    0.11302E-05        -0.49931E-08         0.00000E+00
    0.11397E-05        -0.49876E-08         0.00000E+00
    0.11473E-05        -0.48127E-08         0.00000E+00
    0.11537E-05        -0.45684E-08         0.00000E+00
    0.11592E-05        -0.42929E-08         0.00000E+00
    0.11641E-05        -0.40011E-08         0.00000E+00
    0.11684E-05        -0.36979E-08         0.00000E+00
    0.11725E-05        -0.33830E-08         0.00000E+00
    0.11765E-05        -0.30548E-08         0.00000E+00
    0.11804E-05        -0.27142E-08         0.00000E+00
    0.11846E-05        -0.23804E-08         0.00000E+00
    0.11892E-05        -0.19782E-08         0.00000E+00
    0.11894E-05        -0.86820E-09         0.00000E+00
    0.10994E-05        -0.86760E-09         0.00000E+00
    0.11180E-05        -0.17788E-08         0.00000E+00
    0.11305E-05        -0.18076E-08         0.00000E+00
    0.11401E-05        -0.17555E-08         0.00000E+00
    0.11478E-05        -0.16679E-08         0.00000E+00
    0.11542E-05        -0.15694E-08         0.00000E+00
    0.11597E-05        -0.14671E-08         0.00000E+00
    0.11645E-05        -0.13633E-08         0.00000E+00
    0.11689E-05        -0.12584E-08         0.00000E+00
    0.11730E-05        -0.11520E-08         0.00000E+00
    0.11769E-05        -0.10437E-08         0.00000E+00
    0.11809E-05        -0.93843E-09         0.00000E+00
    0.11850E-05        -0.83839E-09         0.00000E+00
    0.11895E-05        -0.79139E-09         0.00000E+00
    0.11911E-05        -0.39718E-09         0.00000E+00
POINT_DATA        496
VECTORS vDarcyNodal double 
    0.11663E-05         0.10909E-07         0.00000E+00
    0.11640E-05         0.19549E-07         0.00000E+00
    0.11611E-05         0.32689E-07         0.00000E+00
    0.11603E-05         0.38930E-07         0.00000E+00
    0.11598E-05         0.41052E-07         0.00000E+00
    0.11592E-05         0.41039E-07         0.00000E+00
    0.11587E-05         0.39607E-07         0.00000E+00
    0.11584E-05         0.36584E-07         0.00000E+00
    0.11584E-05         0.31891E-07         0.00000E+00
    0.11583E-05         0.26921E-07         0.00000E+00
    0.11581E-05         0.23107E-07         0.00000E+00
    0.11579E-05         0.20082E-07         0.00000E+00
    0.11577E-05         0.17024E-07         0.00000E+00
    0.11573E-05         0.13574E-07         0.00000E+00
    0.11565E-05         0.82750E-08         0.00000E+00
    0.11560E-05         0.48385E-08         0.00000E+00
    0.11705E-05         0.50755E-08         0.00000E+00
    0.11670E-05         0.79300E-08         0.00000E+00
    0.11622E-05         0.11462E-07         0.00000E+00
    0.11604E-05         0.12942E-07         0.00000E+00
    0.11594E-05         0.14514E-07         0.00000E+00
    0.11586E-05         0.15639E-07         0.00000E+00
    0.11578E-05         0.15847E-07         0.00000E+00
    0.11572E-05         0.15661E-07         0.00000E+00
    0.11569E-05         0.15968E-07         0.00000E+00
    0.11567E-05         0.16244E-07         0.00000E+00
    0.11564E-05         0.15457E-07         0.00000E+00
    0.11560E-05         0.13729E-07         0.00000E+00
    0.11556E-05         0.11419E-07         0.00000E+00
    0.11548E-05         0.83170E-08         0.00000E+00
    0.11533E-05         0.43513E-08         0.00000E+00
    0.11524E-05         0.21875E-08         0.00000E+00
    0.11744E-05        -0.83667E-09         0.00000E+00
    0.11697E-05        -0.84877E-09         0.00000E+00
    0.11631E-05        -0.17704E-09         0.00000E+00
    0.11603E-05         0.93139E-09         0.00000E+00
    0.11588E-05         0.17194E-08         0.00000E+00
    0.11577E-05         0.28108E-08         0.00000E+00
    0.11566E-05         0.47579E-08         0.00000E+00
    0.11557E-05         0.70878E-08         0.00000E+00
    0.11549E-05         0.86831E-08         0.00000E+00
    0.11542E-05         0.92312E-08         0.00000E+00
    0.11534E-05         0.90674E-08         0.00000E+00
    0.11526E-05         0.82605E-08         0.00000E+00
    0.11516E-05         0.67775E-08         0.00000E+00
    0.11502E-05         0.47215E-08         0.00000E+00
    0.11480E-05         0.23662E-08         0.00000E+00
    0.11466E-05         0.11635E-08         0.00000E+00
    0.11719E-05        -0.21533E-08         0.00000E+00
    0.11681E-05        -0.29165E-08         0.00000E+00
    0.11625E-05        -0.30336E-08         0.00000E+00
    0.11597E-05        -0.17061E-08         0.00000E+00
    0.11582E-05        -0.27587E-09         0.00000E+00
    0.11571E-05         0.11830E-08         0.00000E+00
    0.11561E-05         0.24228E-08         0.00000E+00
    0.11550E-05         0.33514E-08         0.00000E+00
    0.11539E-05         0.40440E-08         0.00000E+00
    0.11526E-05         0.44576E-08         0.00000E+00
    0.11513E-05         0.44934E-08         0.00000E+00
    0.11499E-05         0.41199E-08         0.00000E+00
    0.11485E-05         0.33448E-08         0.00000E+00
    0.11466E-05         0.22603E-08         0.00000E+00
    0.11443E-05         0.10895E-08         0.00000E+00
    0.11430E-05         0.51746E-09         0.00000E+00
    0.11674E-05        -0.11799E-08         0.00000E+00
    0.11652E-05        -0.19329E-08         0.00000E+00
    0.11615E-05        -0.25812E-08         0.00000E+00
    0.11590E-05        -0.19266E-08         0.00000E+00
    0.11575E-05        -0.92525E-09         0.00000E+00
    0.11564E-05        -0.17158E-09         0.00000E+00
    0.11553E-05         0.35742E-09         0.00000E+00
    0.11541E-05         0.74500E-09         0.00000E+00
    0.11526E-05         0.10229E-08         0.00000E+00
    0.11511E-05         0.12128E-08         0.00000E+00
    0.11495E-05         0.12839E-08         0.00000E+00
    0.11478E-05         0.11874E-08         0.00000E+00
    0.11460E-05         0.92069E-09         0.00000E+00
    0.11441E-05         0.55330E-09         0.00000E+00
    0.11418E-05         0.22112E-09         0.00000E+00
    0.11406E-05         0.84531E-10         0.00000E+00
    0.11636E-05        -0.78814E-09         0.00000E+00
    0.11624E-05        -0.12619E-08         0.00000E+00
    0.11600E-05        -0.18088E-08         0.00000E+00
    0.11580E-05        -0.18119E-08         0.00000E+00
    0.11564E-05        -0.16152E-08         0.00000E+00
    0.11552E-05        -0.13975E-08         0.00000E+00
    0.11540E-05        -0.12640E-08         0.00000E+00
    0.11527E-05        -0.11923E-08         0.00000E+00
    0.11512E-05        -0.11281E-08         0.00000E+00
    0.11496E-05        -0.10464E-08         0.00000E+00
    0.11479E-05        -0.94963E-09         0.00000E+00
    0.11461E-05        -0.85414E-09         0.00000E+00
    0.11443E-05        -0.75949E-09         0.00000E+00
    0.11423E-05        -0.62590E-09         0.00000E+00
    0.11401E-05        -0.37819E-09         0.00000E+00
    0.11390E-05        -0.21478E-09         0.00000E+00
    0.11608E-05        -0.39921E-09         0.00000E+00
    0.11599E-05        -0.80483E-09         0.00000E+00
    0.11581E-05        -0.15185E-08         0.00000E+00
    0.11565E-05        -0.19865E-08         0.00000E+00
    0.11551E-05        -0.22454E-08         0.00000E+00
    0.11538E-05        -0.24209E-08         0.00000E+00
    0.11525E-05        -0.25633E-08         0.00000E+00
    0.11512E-05        -0.26725E-08         0.00000E+00
    0.11498E-05        -0.27185E-08         0.00000E+00
    0.11482E-05        -0.26735E-08         0.00000E+00
    0.11466E-05        -0.25274E-08         0.00000E+00
    0.11448E-05        -0.22796E-08         0.00000E+00
    0.11430E-05        -0.19249E-08         0.00000E+00
    0.11411E-05        -0.14419E-08         0.00000E+00
    0.11392E-05        -0.79372E-09         0.00000E+00
    0.11382E-05        -0.42295E-09         0.00000E+00
    0.11585E-05        -0.41823E-09         0.00000E+00
    0.11577E-05        -0.83407E-09         0.00000E+00
    0.11562E-05        -0.16331E-08         0.00000E+00
    0.11547E-05        -0.23261E-08         0.00000E+00
    0.11534E-05        -0.28735E-08         0.00000E+00
    0.11522E-05        -0.32967E-08         0.00000E+00
    0.11510E-05        -0.36197E-08         0.00000E+00
    0.11498E-05        -0.38387E-08         0.00000E+00
    0.11485E-05        -0.39338E-08         0.00000E+00
    0.11470E-05        -0.38833E-08         0.00000E+00
    0.11455E-05        -0.36730E-08         0.00000E+00
    0.11439E-05        -0.32961E-08         0.00000E+00
    0.11422E-05        -0.27468E-08         0.00000E+00
    0.11405E-05        -0.20149E-08         0.00000E+00
    0.11387E-05        -0.10856E-08         0.00000E+00
    0.11378E-05        -0.56950E-09         0.00000E+00
    0.11564E-05        -0.50413E-09         0.00000E+00
    0.11556E-05        -0.99412E-09         0.00000E+00
    0.11542E-05        -0.19352E-08         0.00000E+00
    0.11529E-05        -0.27795E-08         0.00000E+00
    0.11517E-05        -0.34974E-08         0.00000E+00
    0.11506E-05        -0.40755E-08         0.00000E+00
    0.11496E-05        -0.45092E-08         0.00000E+00
    0.11485E-05        -0.47886E-08         0.00000E+00
    0.11473E-05        -0.48972E-08         0.00000E+00
    0.11460E-05        -0.48176E-08         0.00000E+00
    0.11447E-05        -0.45367E-08         0.00000E+00
    0.11433E-05        -0.40473E-08         0.00000E+00
    0.11418E-05        -0.33457E-08         0.00000E+00
    0.11403E-05        -0.24293E-08         0.00000E+00
    0.11387E-05        -0.12962E-08         0.00000E+00
    0.11379E-05        -0.67534E-09         0.00000E+00
    0.11543E-05        -0.60827E-09         0.00000E+00
    0.11536E-05        -0.11890E-08         0.00000E+00
    0.11522E-05        -0.22929E-08         0.00000E+00
    0.11511E-05        -0.32732E-08         0.00000E+00
    0.11501E-05        -0.41110E-08         0.00000E+00
    0.11491E-05        -0.47874E-08         0.00000E+00
    0.11482E-05        -0.52868E-08         0.00000E+00
    0.11473E-05        -0.55941E-08         0.00000E+00
    0.11463E-05        -0.56939E-08         0.00000E+00
    0.11453E-05        -0.55724E-08         0.00000E+00
    0.11442E-05        -0.52193E-08         0.00000E+00
    0.11430E-05        -0.46298E-08         0.00000E+00
    0.11417E-05        -0.38034E-08         0.00000E+00
    0.11404E-05        -0.27432E-08         0.00000E+00
    0.11391E-05        -0.14552E-08         0.00000E+00
    0.11384E-05        -0.75508E-09         0.00000E+00
    0.11522E-05        -0.71210E-09         0.00000E+00
    0.11515E-05        -0.13860E-08         0.00000E+00
    0.11503E-05        -0.26564E-08         0.00000E+00
    0.11493E-05        -0.37672E-08         0.00000E+00
    0.11485E-05        -0.47048E-08         0.00000E+00
    0.11478E-05        -0.54518E-08         0.00000E+00
    0.11471E-05        -0.59907E-08         0.00000E+00
    0.11464E-05        -0.63058E-08         0.00000E+00
    0.11456E-05        -0.63837E-08         0.00000E+00
    0.11448E-05        -0.62135E-08         0.00000E+00
    0.11439E-05        -0.57888E-08         0.00000E+00
    0.11430E-05        -0.51079E-08         0.00000E+00
    0.11420E-05        -0.41742E-08         0.00000E+00
    0.11409E-05        -0.29953E-08         0.00000E+00
    0.11398E-05        -0.15822E-08         0.00000E+00
    0.11392E-05        -0.81867E-09         0.00000E+00
    0.11501E-05        -0.81187E-09         0.00000E+00
    0.11495E-05        -0.15767E-08         0.00000E+00
    0.11485E-05        -0.30109E-08         0.00000E+00
    0.11477E-05        -0.42487E-08         0.00000E+00
    0.11471E-05        -0.52776E-08         0.00000E+00
    0.11466E-05        -0.60824E-08         0.00000E+00
    0.11461E-05        -0.66475E-08         0.00000E+00
    0.11457E-05        -0.69594E-08         0.00000E+00
    0.11452E-05        -0.70078E-08         0.00000E+00
    0.11446E-05        -0.67855E-08         0.00000E+00
    0.11440E-05        -0.62902E-08         0.00000E+00
    0.11433E-05        -0.55239E-08         0.00000E+00
    0.11426E-05        -0.44937E-08         0.00000E+00
    0.11418E-05        -0.32108E-08         0.00000E+00
    0.11409E-05        -0.16903E-08         0.00000E+00
    0.11404E-05        -0.87269E-09         0.00000E+00
    0.11481E-05        -0.90830E-09         0.00000E+00
    0.11476E-05        -0.17619E-08         0.00000E+00
    0.11468E-05        -0.33563E-08         0.00000E+00
    0.11462E-05        -0.47186E-08         0.00000E+00
    0.11458E-05        -0.58350E-08         0.00000E+00
    0.11456E-05        -0.66917E-08         0.00000E+00
    0.11454E-05        -0.72765E-08         0.00000E+00
    0.11452E-05        -0.75795E-08         0.00000E+00
    0.11450E-05        -0.75943E-08         0.00000E+00
    0.11447E-05        -0.73183E-08         0.00000E+00
    0.11444E-05        -0.67531E-08         0.00000E+00
    0.11440E-05        -0.59050E-08         0.00000E+00
    0.11435E-05        -0.47844E-08         0.00000E+00
    0.11429E-05        -0.34061E-08         0.00000E+00
    0.11423E-05        -0.17880E-08         0.00000E+00
    0.11419E-05        -0.92143E-09         0.00000E+00
    0.11461E-05        -0.10038E-08         0.00000E+00
    0.11457E-05        -0.19453E-08         0.00000E+00
    0.11451E-05        -0.36985E-08         0.00000E+00
    0.11448E-05        -0.51838E-08         0.00000E+00
    0.11447E-05        -0.63854E-08         0.00000E+00
    0.11448E-05        -0.72910E-08         0.00000E+00
    0.11449E-05        -0.78919E-08         0.00000E+00
    0.11450E-05        -0.81827E-08         0.00000E+00
    0.11451E-05        -0.81615E-08         0.00000E+00
    0.11451E-05        -0.78305E-08         0.00000E+00
    0.11451E-05        -0.71958E-08         0.00000E+00
    0.11450E-05        -0.62677E-08         0.00000E+00
    0.11448E-05        -0.50602E-08         0.00000E+00
    0.11445E-05        -0.35908E-08         0.00000E+00
    0.11440E-05        -0.18803E-08         0.00000E+00
    0.11438E-05        -0.96746E-09         0.00000E+00
    0.11441E-05        -0.11011E-08         0.00000E+00
    0.11439E-05        -0.21316E-08         0.00000E+00
    0.11436E-05        -0.40448E-08         0.00000E+00
    0.11436E-05        -0.56523E-08         0.00000E+00
    0.11438E-05        -0.69372E-08         0.00000E+00
    0.11441E-05        -0.78892E-08         0.00000E+00
    0.11446E-05        -0.85033E-08         0.00000E+00
    0.11450E-05        -0.87790E-08         0.00000E+00
    0.11455E-05        -0.87196E-08         0.00000E+00
    0.11458E-05        -0.83324E-08         0.00000E+00
    0.11461E-05        -0.76281E-08         0.00000E+00
    0.11463E-05        -0.66208E-08         0.00000E+00
    0.11464E-05        -0.53280E-08         0.00000E+00
    0.11463E-05        -0.37701E-08         0.00000E+00
    0.11461E-05        -0.19698E-08         0.00000E+00
    0.11460E-05        -0.10121E-08         0.00000E+00
    0.11422E-05        -0.12025E-08         0.00000E+00
    0.11421E-05        -0.23247E-08         0.00000E+00
    0.11421E-05        -0.44012E-08         0.00000E+00
    0.11425E-05        -0.61307E-08         0.00000E+00
    0.11430E-05        -0.74967E-08         0.00000E+00
    0.11437E-05        -0.84916E-08         0.00000E+00
    0.11445E-05        -0.91153E-08         0.00000E+00
    0.11453E-05        -0.93727E-08         0.00000E+00
    0.11461E-05        -0.92727E-08         0.00000E+00
    0.11468E-05        -0.88277E-08         0.00000E+00
    0.11474E-05        -0.80530E-08         0.00000E+00
    0.11479E-05        -0.69668E-08         0.00000E+00
    0.11482E-05        -0.55899E-08         0.00000E+00
    0.11484E-05        -0.39451E-08         0.00000E+00
    0.11485E-05        -0.20573E-08         0.00000E+00
    0.11484E-05        -0.10558E-08         0.00000E+00
    0.11402E-05        -0.13098E-08         0.00000E+00
    0.11403E-05        -0.25276E-08         0.00000E+00
    0.11407E-05        -0.47719E-08         0.00000E+00
    0.11414E-05        -0.66230E-08         0.00000E+00
    0.11424E-05        -0.80664E-08         0.00000E+00
    0.11435E-05        -0.90992E-08         0.00000E+00
    0.11447E-05        -0.97273E-08         0.00000E+00
    0.11459E-05        -0.99619E-08         0.00000E+00
    0.11470E-05        -0.98182E-08         0.00000E+00
    0.11481E-05        -0.93136E-08         0.00000E+00
    0.11490E-05        -0.84679E-08         0.00000E+00
    0.11498E-05        -0.73030E-08         0.00000E+00
    0.11504E-05        -0.58432E-08         0.00000E+00
    0.11508E-05        -0.41140E-08         0.00000E+00
    0.11511E-05        -0.21417E-08         0.00000E+00
    0.11512E-05        -0.10979E-08         0.00000E+00
    0.11383E-05        -0.14237E-08         0.00000E+00
    0.11386E-05        -0.27416E-08         0.00000E+00
    0.11394E-05        -0.51585E-08         0.00000E+00
    0.11405E-05        -0.71293E-08         0.00000E+00
    0.11419E-05        -0.86441E-08         0.00000E+00
    0.11434E-05        -0.97072E-08         0.00000E+00
    0.11450E-05        -0.10332E-07         0.00000E+00
    0.11466E-05        -0.10538E-07         0.00000E+00
    0.11481E-05        -0.10347E-07         0.00000E+00
    0.11495E-05        -0.97814E-08         0.00000E+00
    0.11508E-05        -0.88646E-08         0.00000E+00
    0.11519E-05        -0.76221E-08         0.00000E+00
    0.11528E-05        -0.60814E-08         0.00000E+00
    0.11535E-05        -0.42713E-08         0.00000E+00
    0.11540E-05        -0.22197E-08         0.00000E+00
    0.11542E-05        -0.11368E-08         0.00000E+00
    0.11362E-05        -0.15447E-08         0.00000E+00
    0.11367E-05        -0.29666E-08         0.00000E+00
    0.11380E-05        -0.55595E-08         0.00000E+00
    0.11396E-05        -0.76451E-08         0.00000E+00
    0.11415E-05        -0.92220E-08         0.00000E+00
    0.11435E-05        -0.10304E-07         0.00000E+00
    0.11456E-05        -0.10916E-07         0.00000E+00
    0.11476E-05        -0.11087E-07         0.00000E+00
    0.11495E-05        -0.10844E-07         0.00000E+00
    0.11513E-05        -0.10216E-07         0.00000E+00
    0.11529E-05        -0.92304E-08         0.00000E+00
    0.11543E-05        -0.79125E-08         0.00000E+00
    0.11555E-05        -0.62934E-08         0.00000E+00
    0.11564E-05        -0.44073E-08         0.00000E+00
    0.11571E-05        -0.22855E-08         0.00000E+00
    0.11574E-05        -0.11691E-08         0.00000E+00
    0.11341E-05        -0.16719E-08         0.00000E+00
    0.11349E-05        -0.32008E-08         0.00000E+00
    0.11367E-05        -0.59698E-08         0.00000E+00
    0.11389E-05        -0.81611E-08         0.00000E+00
    0.11413E-05        -0.97857E-08         0.00000E+00
    0.11438E-05        -0.10872E-07         0.00000E+00
    0.11463E-05        -0.11457E-07         0.00000E+00
    0.11487E-05        -0.11582E-07         0.00000E+00
    0.11510E-05        -0.11285E-07         0.00000E+00
    0.11532E-05        -0.10597E-07         0.00000E+00
    0.11551E-05        -0.95478E-08         0.00000E+00
    0.11568E-05        -0.81605E-08         0.00000E+00
    0.11583E-05        -0.64657E-08         0.00000E+00
    0.11595E-05        -0.45071E-08         0.00000E+00
    0.11604E-05        -0.23282E-08         0.00000E+00
    0.11608E-05        -0.11882E-08         0.00000E+00
    0.11317E-05        -0.18038E-08         0.00000E+00
    0.11329E-05        -0.34407E-08         0.00000E+00
    0.11353E-05        -0.63808E-08         0.00000E+00
    0.11381E-05        -0.86621E-08         0.00000E+00
    0.11411E-05        -0.10313E-07         0.00000E+00
    0.11441E-05        -0.11381E-07         0.00000E+00
    0.11471E-05        -0.11923E-07         0.00000E+00
    0.11500E-05        -0.11991E-07         0.00000E+00
    0.11527E-05        -0.11636E-07         0.00000E+00
    0.11552E-05        -0.10894E-07         0.00000E+00
    0.11575E-05        -0.97928E-08         0.00000E+00
    0.11596E-05        -0.83518E-08         0.00000E+00
    0.11613E-05        -0.65876E-08         0.00000E+00
    0.11628E-05        -0.45501E-08         0.00000E+00
    0.11639E-05        -0.23251E-08         0.00000E+00
    0.11643E-05        -0.11771E-08         0.00000E+00
    0.11292E-05        -0.19383E-08         0.00000E+00
    0.11307E-05        -0.36808E-08         0.00000E+00
    0.11339E-05        -0.67796E-08         0.00000E+00
    0.11374E-05        -0.91260E-08         0.00000E+00
    0.11410E-05        -0.10773E-07         0.00000E+00
    0.11446E-05        -0.11795E-07         0.00000E+00
    0.11481E-05        -0.12270E-07         0.00000E+00
    0.11514E-05        -0.12270E-07         0.00000E+00
    0.11545E-05        -0.11854E-07         0.00000E+00
    0.11574E-05        -0.11066E-07         0.00000E+00
    0.11600E-05        -0.99317E-08         0.00000E+00
    0.11624E-05        -0.84637E-08         0.00000E+00
    0.11645E-05        -0.66609E-08         0.00000E+00
    0.11662E-05        -0.45303E-08         0.00000E+00
    0.11674E-05        -0.22361E-08         0.00000E+00
    0.11677E-05        -0.10861E-08         0.00000E+00
    0.11265E-05        -0.20720E-08         0.00000E+00
    0.11284E-05        -0.39135E-08         0.00000E+00
    0.11324E-05        -0.71481E-08         0.00000E+00
    0.11367E-05        -0.95224E-08         0.00000E+00
    0.11410E-05        -0.11125E-07         0.00000E+00
    0.11452E-05        -0.12063E-07         0.00000E+00
    0.11492E-05        -0.12444E-07         0.00000E+00
    0.11529E-05        -0.12362E-07         0.00000E+00
    0.11564E-05        -0.11887E-07         0.00000E+00
    0.11596E-05        -0.11067E-07         0.00000E+00
    0.11625E-05        -0.99223E-08         0.00000E+00
    0.11652E-05        -0.84564E-08         0.00000E+00
    0.11677E-05        -0.66611E-08         0.00000E+00
    0.11698E-05        -0.44752E-08         0.00000E+00
    0.11709E-05        -0.21164E-08         0.00000E+00
    0.11710E-05        -0.96256E-09         0.00000E+00
    0.11235E-05        -0.22006E-08         0.00000E+00
    0.11259E-05        -0.41282E-08         0.00000E+00
    0.11309E-05        -0.74613E-08         0.00000E+00
    0.11360E-05        -0.98099E-08         0.00000E+00
    0.11411E-05        -0.11311E-07         0.00000E+00
    0.11459E-05        -0.12120E-07         0.00000E+00
    0.11503E-05        -0.12379E-07         0.00000E+00
    0.11544E-05        -0.12204E-07         0.00000E+00
    0.11582E-05        -0.11674E-07         0.00000E+00
    0.11617E-05        -0.10839E-07         0.00000E+00
    0.11650E-05        -0.97161E-08         0.00000E+00
    0.11680E-05        -0.82921E-08         0.00000E+00
    0.11708E-05        -0.65275E-08         0.00000E+00
    0.11733E-05        -0.43529E-08         0.00000E+00
    0.11743E-05        -0.20318E-08         0.00000E+00
    0.11741E-05        -0.91155E-09         0.00000E+00
    0.11202E-05        -0.23180E-08         0.00000E+00
    0.11232E-05        -0.43103E-08         0.00000E+00
    0.11293E-05        -0.76837E-08         0.00000E+00
    0.11354E-05        -0.99310E-08         0.00000E+00
    0.11413E-05        -0.11261E-07         0.00000E+00
    0.11466E-05        -0.11889E-07         0.00000E+00
    0.11515E-05        -0.11998E-07         0.00000E+00
    0.11560E-05        -0.11723E-07         0.00000E+00
    0.11601E-05        -0.11150E-07         0.00000E+00
    0.11638E-05        -0.10327E-07         0.00000E+00
    0.11673E-05        -0.92632E-08         0.00000E+00
    0.11706E-05        -0.79351E-08         0.00000E+00
    0.11738E-05        -0.62708E-08         0.00000E+00
    0.11767E-05        -0.42193E-08         0.00000E+00
    0.11776E-05        -0.20218E-08         0.00000E+00
    0.11771E-05        -0.94702E-09         0.00000E+00
    0.11166E-05        -0.24153E-08         0.00000E+00
    0.11203E-05        -0.44374E-08         0.00000E+00
    0.11278E-05        -0.77628E-08         0.00000E+00
    0.11350E-05        -0.98043E-08         0.00000E+00
    0.11416E-05        -0.10877E-07         0.00000E+00
    0.11475E-05        -0.11274E-07         0.00000E+00
    0.11528E-05        -0.11216E-07         0.00000E+00
    0.11575E-05        -0.10849E-07         0.00000E+00
    0.11618E-05        -0.10256E-07         0.00000E+00
    0.11658E-05        -0.94766E-08         0.00000E+00
    0.11695E-05        -0.85165E-08         0.00000E+00
    0.11730E-05        -0.73434E-08         0.00000E+00
    0.11765E-05        -0.58764E-08         0.00000E+00
    0.11798E-05        -0.40639E-08         0.00000E+00
    0.11808E-05        -0.20400E-08         0.00000E+00
    0.11801E-05        -0.10077E-08         0.00000E+00
    0.11127E-05        -0.24776E-08         0.00000E+00
    0.11173E-05        -0.44721E-08         0.00000E+00
    0.11264E-05        -0.76137E-08         0.00000E+00
    0.11347E-05        -0.93093E-08         0.00000E+00
    0.11420E-05        -0.10034E-07         0.00000E+00
    0.11484E-05        -0.10169E-07         0.00000E+00
    0.11540E-05        -0.99542E-08         0.00000E+00
    0.11590E-05        -0.95243E-08         0.00000E+00
    0.11634E-05        -0.89471E-08         0.00000E+00
    0.11675E-05        -0.82512E-08         0.00000E+00
    0.11714E-05        -0.74371E-08         0.00000E+00
    0.11751E-05        -0.64763E-08         0.00000E+00
    0.11789E-05        -0.52981E-08         0.00000E+00
    0.11825E-05        -0.38104E-08         0.00000E+00
    0.11837E-05        -0.20026E-08         0.00000E+00
    0.11830E-05        -0.10267E-08         0.00000E+00
    0.11086E-05        -0.24729E-08         0.00000E+00
    0.11144E-05        -0.43419E-08         0.00000E+00
    0.11252E-05        -0.70888E-08         0.00000E+00
    0.11347E-05        -0.82653E-08         0.00000E+00
    0.11426E-05        -0.85799E-08         0.00000E+00
    0.11493E-05        -0.84742E-08         0.00000E+00
    0.11551E-05        -0.81570E-08         0.00000E+00
    0.11602E-05        -0.77217E-08         0.00000E+00
    0.11647E-05        -0.72109E-08         0.00000E+00
    0.11689E-05        -0.66399E-08         0.00000E+00
    0.11729E-05        -0.60068E-08         0.00000E+00
    0.11767E-05        -0.52963E-08         0.00000E+00
    0.11807E-05        -0.44750E-08         0.00000E+00
    0.11847E-05        -0.34026E-08         0.00000E+00
    0.11862E-05        -0.18881E-08         0.00000E+00
    0.11858E-05        -0.10019E-08         0.00000E+00
    0.11046E-05        -0.23308E-08         0.00000E+00
    0.11117E-05        -0.38891E-08         0.00000E+00
    0.11246E-05        -0.59101E-08         0.00000E+00
    0.11349E-05        -0.64195E-08         0.00000E+00
    0.11432E-05        -0.63788E-08         0.00000E+00
    0.11502E-05        -0.61453E-08         0.00000E+00
    0.11561E-05        -0.58258E-08         0.00000E+00
    0.11612E-05        -0.54643E-08         0.00000E+00
    0.11658E-05        -0.50777E-08         0.00000E+00
    0.11700E-05        -0.46707E-08         0.00000E+00
    0.11740E-05        -0.42420E-08         0.00000E+00
    0.11779E-05        -0.37864E-08         0.00000E+00
    0.11820E-05        -0.33170E-08         0.00000E+00
    0.11862E-05        -0.27269E-08         0.00000E+00
    0.11883E-05        -0.16559E-08         0.00000E+00
    0.11882E-05        -0.94100E-09         0.00000E+00
    0.11015E-05        -0.17477E-08         0.00000E+00
    0.11099E-05        -0.26617E-08         0.00000E+00
    0.11243E-05        -0.36034E-08         0.00000E+00
    0.11351E-05        -0.35781E-08         0.00000E+00
    0.11437E-05        -0.34367E-08         0.00000E+00
    0.11507E-05        -0.32492E-08         0.00000E+00
    0.11567E-05        -0.30472E-08         0.00000E+00
    0.11618E-05        -0.28400E-08         0.00000E+00
    0.11664E-05        -0.26304E-08         0.00000E+00
    0.11706E-05        -0.24182E-08         0.00000E+00
    0.11747E-05        -0.22026E-08         0.00000E+00
    0.11786E-05        -0.19883E-08         0.00000E+00
    0.11827E-05        -0.17821E-08         0.00000E+00
    0.11870E-05        -0.16344E-08         0.00000E+00
    0.11897E-05        -0.11915E-08         0.00000E+00
    0.11900E-05        -0.79584E-09         0.00000E+00
    0.11003E-05         0.00000E+00         0.00000E+00
    0.11092E-05         0.00000E+00         0.00000E+00
    0.11243E-05        -0.32540E-20         0.00000E+00
    0.11353E-05         0.37839E-22         0.00000E+00
    0.11439E-05         0.35661E-20         0.00000E+00
    0.11509E-05         0.00000E+00         0.00000E+00
    0.11569E-05         0.00000E+00         0.00000E+00
    0.11620E-05        -0.33990E-20         0.00000E+00
    0.11666E-05        -0.31158E-20         0.00000E+00
    0.11709E-05         0.31520E-20         0.00000E+00
    0.11749E-05         0.34385E-20         0.00000E+00
    0.11788E-05        -0.34740E-20         0.00000E+00
    0.11829E-05        -0.27496E-21         0.00000E+00
    0.11873E-05         0.34945E-20         0.00000E+00
    0.11901E-05         0.58493E-21         0.00000E+00
    0.11907E-05         0.00000E+00         0.00000E+00
CELL_DATA        450
TENSORS stressef double 
    0.27291E+08         0.26046E+06         0.00000E+00
    0.26046E+06         0.13097E+08         0.00000E+00
    0.00000E+00         0.00000E+00         0.14246E+08
 
    0.27348E+08         0.18797E+06         0.00000E+00
    0.18797E+06         0.13465E+08         0.00000E+00
    0.00000E+00         0.00000E+00         0.14062E+08
 
    0.27184E+08        -0.26105E+05         0.00000E+00
   -0.26105E+05         0.13449E+08         0.00000E+00
    0.00000E+00         0.00000E+00         0.13111E+08
 
    0.26796E+08        -0.16796E+06         0.00000E+00
   -0.16796E+06         0.13129E+08         0.00000E+00
    0.00000E+00         0.00000E+00         0.11526E+08
 
    0.26199E+08        -0.21140E+06         0.00000E+00
   -0.21140E+06         0.12690E+08         0.00000E+00
    0.00000E+00         0.00000E+00         0.94414E+07
 
    0.25394E+08        -0.21450E+06         0.00000E+00
   -0.21450E+06         0.12273E+08         0.00000E+00
    0.00000E+00         0.00000E+00         0.70180E+07
 
    0.24358E+08        -0.88407E+05         0.00000E+00
   -0.88407E+05         0.11989E+08         0.00000E+00
    0.00000E+00         0.00000E+00         0.43646E+07
 
    0.23100E+08         0.86290E+05         0.00000E+00
    0.86290E+05         0.11984E+08         0.00000E+00
    0.00000E+00         0.00000E+00         0.16930E+07
 
    0.20937E+08        -0.22233E+06         0.00000E+00
   -0.22233E+06         0.11926E+08         0.00000E+00
    0.00000E+00         0.00000E+00         0.00000E+00
 
    0.17433E+08        -0.20538E+06         0.00000E+00
   -0.20538E+06         0.11587E+08         0.00000E+00
    0.00000E+00         0.00000E+00         0.00000E+00
 
    0.14694E+08        -0.35096E+05         0.00000E+00
   -0.35096E+05         0.11426E+08         0.00000E+00
    0.00000E+00         0.00000E+00         0.00000E+00
 
    0.12084E+08         0.13884E+06         0.00000E+00
    0.13884E+06         0.11580E+08         0.00000E+00
    0.00000E+00         0.00000E+00         0.00000E+00
 
    0.93584E+07         0.33243E+06         0.00000E+00
    0.33243E+06         0.12088E+08         0.00000E+00
    0.00000E+00         0.00000E+00         0.00000E+00
 
    0.62789E+07         0.57659E+06         0.00000E+00
    0.57659E+06         0.13023E+08         0.00000E+00
    0.00000E+00         0.00000E+00         0.00000E+00
 
    0.23084E+07         0.10558E+07         0.00000E+00
    0.10558E+07         0.14626E+08         0.00000E+00
    0.00000E+00         0.00000E+00         0.00000E+00
 
    0.25822E+08         0.35338E+06         0.00000E+00
    0.35338E+06         0.97570E+07         0.00000E+00
    0.00000E+00         0.00000E+00         0.91741E+07
 
    0.25509E+08         0.25170E+06         0.00000E+00
    0.25170E+06         0.93862E+07         0.00000E+00
    0.00000E+00         0.00000E+00         0.78610E+07
 
    0.25262E+08         0.51260E+05         0.00000E+00
    0.51260E+05         0.94599E+07         0.00000E+00
    0.00000E+00         0.00000E+00         0.67985E+07
 
    0.24936E+08        -0.15063E+06         0.00000E+00
   -0.15063E+06         0.98283E+07         0.00000E+00
    0.00000E+00         0.00000E+00         0.56108E+07
 
    0.24404E+08        -0.16751E+06         0.00000E+00
   -0.16751E+06         0.10305E+08         0.00000E+00
    0.00000E+00         0.00000E+00         0.40918E+07
 
    0.23633E+08        -0.11946E+06         0.00000E+00
   -0.11946E+06         0.10794E+08         0.00000E+00
    0.00000E+00         0.00000E+00         0.23297E+07
 
    0.22793E+08        -0.85560E+05         0.00000E+00
   -0.85560E+05         0.11162E+08         0.00000E+00
    0.00000E+00         0.00000E+00         0.66332E+06
 
    0.21111E+08        -0.16585E+06         0.00000E+00
   -0.16585E+06         0.11036E+08         0.00000E+00
    0.00000E+00         0.00000E+00         0.00000E+00
 
    0.18624E+08        -0.51597E+06         0.00000E+00
   -0.51597E+06         0.10696E+08         0.00000E+00
    0.00000E+00         0.00000E+00         0.00000E+00
 
    0.15787E+08        -0.40386E+06         0.00000E+00
   -0.40386E+06         0.10636E+08         0.00000E+00
    0.00000E+00         0.00000E+00         0.00000E+00
 
    0.13091E+08        -0.91598E+03         0.00000E+00
   -0.91598E+03         0.10716E+08         0.00000E+00
    0.00000E+00         0.00000E+00         0.00000E+00
 
    0.10508E+08         0.47642E+06         0.00000E+00
    0.47642E+06         0.11004E+08         0.00000E+00
    0.00000E+00         0.00000E+00         0.00000E+00
 
    0.78430E+07         0.10289E+07         0.00000E+00
    0.10289E+07         0.11582E+08         0.00000E+00
    0.00000E+00         0.00000E+00         0.00000E+00
 
    0.49173E+07         0.17404E+07         0.00000E+00
    0.17404E+07         0.12530E+08         0.00000E+00
    0.00000E+00         0.00000E+00         0.00000E+00
 
    0.16827E+07         0.28950E+07         0.00000E+00
    0.28950E+07         0.13920E+08         0.00000E+00
    0.00000E+00         0.00000E+00         0.00000E+00
 
    0.24156E+08        -0.66207E+05         0.00000E+00
   -0.66207E+05         0.80233E+07         0.00000E+00
    0.00000E+00         0.00000E+00         0.32978E+07
 
    0.23727E+08         0.11896E+06         0.00000E+00
    0.11896E+06         0.80269E+07         0.00000E+00
    0.00000E+00         0.00000E+00         0.19632E+07
 
    0.23383E+08         0.23401E+06         0.00000E+00
    0.23401E+06         0.82350E+07         0.00000E+00
    0.00000E+00         0.00000E+00         0.10636E+07
 
    0.23032E+08         0.26930E+06         0.00000E+00
    0.26930E+06         0.85685E+07         0.00000E+00
    0.00000E+00         0.00000E+00         0.42770E+06
 
    0.22598E+08         0.17212E+06         0.00000E+00
    0.17212E+06         0.88788E+07         0.00000E+00
    0.00000E+00         0.00000E+00         0.52469E+05
 
    0.21724E+08         0.76854E+05         0.00000E+00
    0.76854E+05         0.90153E+07         0.00000E+00
    0.00000E+00         0.00000E+00         0.00000E+00
 
    0.20647E+08        -0.11798E+06         0.00000E+00
   -0.11798E+06         0.89465E+07         0.00000E+00
    0.00000E+00         0.00000E+00         0.00000E+00
 
    0.18958E+08        -0.44021E+06         0.00000E+00
   -0.44021E+06         0.88599E+07         0.00000E+00
    0.00000E+00         0.00000E+00         0.00000E+00
 
    0.16695E+08        -0.49595E+06         0.00000E+00
   -0.49595E+06         0.89283E+07         0.00000E+00
    0.00000E+00         0.00000E+00         0.00000E+00
 
    0.14218E+08        -0.25703E+06         0.00000E+00
   -0.25703E+06         0.91491E+07         0.00000E+00
    0.00000E+00         0.00000E+00         0.00000E+00
 
    0.11706E+08         0.25554E+06         0.00000E+00
    0.25554E+06         0.94757E+07         0.00000E+00
    0.00000E+00         0.00000E+00         0.00000E+00
 
    0.92189E+07         0.94385E+06         0.00000E+00
    0.94385E+06         0.99332E+07         0.00000E+00
    0.00000E+00         0.00000E+00         0.00000E+00
 
    0.66873E+07         0.17843E+07         0.00000E+00
    0.17843E+07         0.10597E+08         0.00000E+00
    0.00000E+00         0.00000E+00         0.00000E+00
 
    0.40471E+07         0.28568E+07         0.00000E+00
    0.28568E+07         0.11524E+08         0.00000E+00
    0.00000E+00         0.00000E+00         0.00000E+00
 
    0.13480E+07         0.43060E+07         0.00000E+00
    0.43060E+07         0.12693E+08         0.00000E+00
    0.00000E+00         0.00000E+00         0.00000E+00
 
    0.22404E+08        -0.93604E+05         0.00000E+00
   -0.93604E+05         0.67698E+07         0.00000E+00
    0.00000E+00         0.00000E+00         0.69642E+06
 
    0.21961E+08         0.15684E+06         0.00000E+00
    0.15684E+06         0.68573E+07         0.00000E+00
    0.00000E+00         0.00000E+00         0.34924E+06
 
    0.21617E+08         0.30234E+06         0.00000E+00
    0.30234E+06         0.68309E+07         0.00000E+00
    0.00000E+00         0.00000E+00         0.61650E+05
 
    0.21072E+08         0.33755E+06         0.00000E+00
    0.33755E+06         0.67647E+07         0.00000E+00
    0.00000E+00         0.00000E+00         0.00000E+00
 
    0.20509E+08         0.21870E+06         0.00000E+00
    0.21870E+06         0.67044E+07         0.00000E+00
    0.00000E+00         0.00000E+00         0.00000E+00
 
    0.19680E+08         0.36743E+05         0.00000E+00
    0.36743E+05         0.66640E+07         0.00000E+00
    0.00000E+00         0.00000E+00         0.00000E+00
 
    0.18507E+08        -0.16122E+06         0.00000E+00
   -0.16122E+06         0.66681E+07         0.00000E+00
    0.00000E+00         0.00000E+00         0.00000E+00
 
    0.16913E+08        -0.30984E+06         0.00000E+00
   -0.30984E+06         0.67958E+07         0.00000E+00
    0.00000E+00         0.00000E+00         0.00000E+00
 
    0.14933E+08        -0.24564E+06         0.00000E+00
   -0.24564E+06         0.70667E+07         0.00000E+00
    0.00000E+00         0.00000E+00         0.00000E+00
 
    0.12732E+08         0.99153E+05         0.00000E+00
    0.99153E+05         0.74427E+07         0.00000E+00
    0.00000E+00         0.00000E+00         0.00000E+00
 
    0.10447E+08         0.70368E+06         0.00000E+00
    0.70368E+06         0.79121E+07         0.00000E+00
    0.00000E+00         0.00000E+00         0.00000E+00
 
    0.81356E+07         0.15325E+07         0.00000E+00
    0.15325E+07         0.84859E+07         0.00000E+00
    0.00000E+00         0.00000E+00         0.00000E+00
 
    0.58026E+07         0.25741E+07         0.00000E+00
    0.25741E+07         0.91998E+07         0.00000E+00
    0.00000E+00         0.00000E+00         0.00000E+00
 
    0.34499E+07         0.38655E+07         0.00000E+00
    0.38655E+07         0.10077E+08         0.00000E+00
    0.00000E+00         0.00000E+00         0.00000E+00
 
    0.11355E+07         0.54664E+07         0.00000E+00
    0.54664E+07         0.11094E+08         0.00000E+00
    0.00000E+00         0.00000E+00         0.00000E+00
 
    0.20561E+08         0.60986E+05         0.00000E+00
    0.60986E+05         0.48104E+07         0.00000E+00
    0.00000E+00         0.00000E+00         0.16314E+06
 
    0.20264E+08         0.16505E+06         0.00000E+00
    0.16505E+06         0.48486E+07         0.00000E+00
    0.00000E+00         0.00000E+00         0.00000E+00
 
    0.19689E+08         0.22858E+06         0.00000E+00
    0.22858E+06         0.48083E+07         0.00000E+00
    0.00000E+00         0.00000E+00         0.00000E+00
 
    0.19138E+08         0.21021E+06         0.00000E+00
    0.21021E+06         0.47080E+07         0.00000E+00
    0.00000E+00         0.00000E+00         0.00000E+00
 
    0.18467E+08         0.14871E+06         0.00000E+00
    0.14871E+06         0.46135E+07         0.00000E+00
    0.00000E+00         0.00000E+00         0.00000E+00
 
    0.17610E+08         0.31066E+05         0.00000E+00
    0.31066E+05         0.45859E+07         0.00000E+00
    0.00000E+00         0.00000E+00         0.00000E+00
 
    0.16466E+08        -0.68001E+05         0.00000E+00
   -0.68001E+05         0.46572E+07         0.00000E+00
    0.00000E+00         0.00000E+00         0.00000E+00
 
    0.15007E+08        -0.66546E+05         0.00000E+00
   -0.66546E+05         0.48539E+07         0.00000E+00
    0.00000E+00         0.00000E+00         0.00000E+00
 
    0.13264E+08         0.12389E+06         0.00000E+00
    0.12389E+06         0.51830E+07         0.00000E+00
    0.00000E+00         0.00000E+00         0.00000E+00
 
    0.11324E+08         0.56092E+06         0.00000E+00
    0.56092E+06         0.56223E+07         0.00000E+00
    0.00000E+00         0.00000E+00         0.00000E+00
 
    0.92800E+07         0.12528E+07         0.00000E+00
    0.12528E+07         0.61513E+07         0.00000E+00
    0.00000E+00         0.00000E+00         0.00000E+00
 
    0.71904E+07         0.21868E+07         0.00000E+00
    0.21868E+07         0.67694E+07         0.00000E+00
    0.00000E+00         0.00000E+00         0.00000E+00
 
    0.50878E+07         0.33581E+07         0.00000E+00
    0.33581E+07         0.74866E+07         0.00000E+00
    0.00000E+00         0.00000E+00         0.00000E+00
 
    0.30018E+07         0.47785E+07         0.00000E+00
    0.47785E+07         0.83060E+07         0.00000E+00
    0.00000E+00         0.00000E+00         0.00000E+00
 
    0.98377E+06         0.64636E+07         0.00000E+00
    0.64636E+07         0.92071E+07         0.00000E+00
    0.00000E+00         0.00000E+00         0.00000E+00
 
    0.18796E+08         0.10360E+06         0.00000E+00
    0.10360E+06         0.28215E+07         0.00000E+00
    0.00000E+00         0.00000E+00         0.00000E+00
 
    0.18339E+08         0.13183E+06         0.00000E+00
    0.13183E+06         0.28090E+07         0.00000E+00
    0.00000E+00         0.00000E+00         0.00000E+00
 
    0.17782E+08         0.14176E+06         0.00000E+00
    0.14176E+06         0.27460E+07         0.00000E+00
    0.00000E+00         0.00000E+00         0.00000E+00
 
    0.17177E+08         0.12916E+06         0.00000E+00
    0.12916E+06         0.26716E+07         0.00000E+00
    0.00000E+00         0.00000E+00         0.00000E+00
 
    0.16475E+08         0.95270E+05         0.00000E+00
    0.95270E+05         0.26187E+07         0.00000E+00
    0.00000E+00         0.00000E+00         0.00000E+00
 
    0.15614E+08         0.64164E+05         0.00000E+00
    0.64164E+05         0.26225E+07         0.00000E+00
    0.00000E+00         0.00000E+00         0.00000E+00
 
    0.14537E+08         0.80728E+05         0.00000E+00
    0.80728E+05         0.27237E+07         0.00000E+00
    0.00000E+00         0.00000E+00         0.00000E+00
 
    0.13222E+08         0.21244E+06         0.00000E+00
    0.21244E+06         0.29423E+07         0.00000E+00
    0.00000E+00         0.00000E+00         0.00000E+00
 
    0.11690E+08         0.52286E+06         0.00000E+00
    0.52286E+06         0.32793E+07         0.00000E+00
    0.00000E+00         0.00000E+00         0.00000E+00
 
    0.99925E+07         0.10562E+07         0.00000E+00
    0.10562E+07         0.37211E+07         0.00000E+00
    0.00000E+00         0.00000E+00         0.00000E+00
 
    0.81912E+07         0.18312E+07         0.00000E+00
    0.18312E+07         0.42515E+07         0.00000E+00
    0.00000E+00         0.00000E+00         0.00000E+00
 
    0.63384E+07         0.28489E+07         0.00000E+00
    0.28489E+07         0.48607E+07         0.00000E+00
    0.00000E+00         0.00000E+00         0.00000E+00
 
    0.44742E+07         0.41072E+07         0.00000E+00
    0.41072E+07         0.55450E+07         0.00000E+00
    0.00000E+00         0.00000E+00         0.00000E+00
 
    0.26352E+07         0.56055E+07         0.00000E+00
    0.56055E+07         0.62975E+07         0.00000E+00
    0.00000E+00         0.00000E+00         0.00000E+00
 
    0.86340E+06         0.73400E+07         0.00000E+00
    0.73400E+07         0.71013E+07         0.00000E+00
    0.00000E+00         0.00000E+00         0.00000E+00
 
    0.16963E+08         0.55421E+05         0.00000E+00
    0.55421E+05         0.87461E+06         0.00000E+00
    0.00000E+00         0.00000E+00         0.00000E+00
 
    0.16400E+08         0.88033E+05         0.00000E+00
    0.88033E+05         0.81559E+06         0.00000E+00
    0.00000E+00         0.00000E+00         0.00000E+00
 
    0.15836E+08         0.77535E+05         0.00000E+00
    0.77535E+05         0.75436E+06         0.00000E+00
    0.00000E+00         0.00000E+00         0.00000E+00
 
    0.15222E+08         0.71081E+05         0.00000E+00
    0.71081E+05         0.69534E+06         0.00000E+00
    0.00000E+00         0.00000E+00         0.00000E+00
 
    0.14526E+08         0.78901E+05         0.00000E+00
    0.78901E+05         0.66342E+06         0.00000E+00
    0.00000E+00         0.00000E+00         0.00000E+00
 
    0.13702E+08         0.12447E+06         0.00000E+00
    0.12447E+06         0.69010E+06         0.00000E+00
    0.00000E+00         0.00000E+00         0.00000E+00
 
    0.12713E+08         0.24641E+06         0.00000E+00
    0.24641E+06         0.80196E+06         0.00000E+00
    0.00000E+00         0.00000E+00         0.00000E+00
 
    0.11545E+08         0.49288E+06         0.00000E+00
    0.49288E+06         0.10158E+07         0.00000E+00
    0.00000E+00         0.00000E+00         0.00000E+00
 
    0.10208E+08         0.91136E+06         0.00000E+00
    0.91136E+06         0.13338E+07         0.00000E+00
    0.00000E+00         0.00000E+00         0.00000E+00
 
    0.87350E+07         0.15375E+07         0.00000E+00
    0.15375E+07         0.17472E+07         0.00000E+00
    0.00000E+00         0.00000E+00         0.00000E+00
 
    0.71691E+07         0.23911E+07         0.00000E+00
    0.23911E+07         0.22432E+07         0.00000E+00
    0.00000E+00         0.00000E+00         0.00000E+00
 
    0.55522E+07         0.34789E+07         0.00000E+00
    0.34789E+07         0.28100E+07         0.00000E+00
    0.00000E+00         0.00000E+00         0.00000E+00
 
    0.39222E+07         0.48000E+07         0.00000E+00
    0.48000E+07         0.34378E+07         0.00000E+00
    0.00000E+00         0.00000E+00         0.00000E+00
 
    0.23135E+07         0.63494E+07         0.00000E+00
    0.63494E+07         0.41158E+07         0.00000E+00
    0.00000E+00         0.00000E+00         0.00000E+00
 
    0.75937E+06         0.81159E+07         0.00000E+00
    0.81159E+07         0.48302E+07         0.00000E+00
    0.00000E+00         0.00000E+00         0.00000E+00
 
    0.15058E+08         0.11476E+05         0.00000E+00
    0.11476E+05        -0.10748E+07         0.00000E+00
    0.00000E+00         0.00000E+00         0.00000E+00
 
    0.14447E+08         0.19001E+05         0.00000E+00
    0.19001E+05        -0.11298E+07         0.00000E+00
    0.00000E+00         0.00000E+00         0.00000E+00
 
    0.13876E+08         0.15577E+05         0.00000E+00
    0.15577E+05        -0.11994E+07         0.00000E+00
    0.00000E+00         0.00000E+00         0.00000E+00
 
    0.13281E+08         0.27856E+05         0.00000E+00
    0.27856E+05        -0.12552E+07         0.00000E+00
    0.00000E+00         0.00000E+00         0.00000E+00
 
    0.12621E+08         0.80028E+05         0.00000E+00
    0.80028E+05        -0.12784E+07         0.00000E+00
    0.00000E+00         0.00000E+00         0.00000E+00
 
    0.11862E+08         0.19630E+06         0.00000E+00
    0.19630E+06        -0.12470E+07         0.00000E+00
    0.00000E+00         0.00000E+00         0.00000E+00
 
    0.10979E+08         0.40861E+06         0.00000E+00
    0.40861E+06        -0.11409E+07         0.00000E+00
    0.00000E+00         0.00000E+00         0.00000E+00
 
    0.99589E+07         0.75383E+06         0.00000E+00
    0.75383E+06        -0.94784E+06         0.00000E+00
    0.00000E+00         0.00000E+00         0.00000E+00
 
    0.88079E+07         0.12676E+07         0.00000E+00
    0.12676E+07        -0.66498E+06         0.00000E+00
    0.00000E+00         0.00000E+00         0.00000E+00
 
    0.75467E+07         0.19784E+07         0.00000E+00
    0.19784E+07        -0.29760E+06         0.00000E+00
    0.00000E+00         0.00000E+00         0.00000E+00
 
    0.62051E+07         0.29041E+07         0.00000E+00
    0.29041E+07         0.14440E+06         0.00000E+00
    0.00000E+00         0.00000E+00         0.00000E+00
 
    0.48156E+07         0.40525E+07         0.00000E+00
    0.40525E+07         0.64978E+06         0.00000E+00
    0.00000E+00         0.00000E+00         0.00000E+00
 
    0.34100E+07         0.54234E+07         0.00000E+00
    0.54234E+07         0.12074E+07         0.00000E+00
    0.00000E+00         0.00000E+00         0.00000E+00
 
    0.20176E+07         0.70104E+07         0.00000E+00
    0.70104E+07         0.18060E+07         0.00000E+00
    0.00000E+00         0.00000E+00         0.00000E+00
 
    0.66405E+06         0.88007E+07         0.00000E+00
    0.88007E+07         0.24342E+07         0.00000E+00
    0.00000E+00         0.00000E+00         0.00000E+00
 
    0.13079E+08        -0.21623E+05         0.00000E+00
   -0.21623E+05        -0.30386E+07         0.00000E+00
    0.00000E+00         0.00000E+00         0.00000E+00
 
    0.12471E+08        -0.46360E+05         0.00000E+00
   -0.46360E+05        -0.30854E+07         0.00000E+00
    0.00000E+00         0.00000E+00         0.00000E+00
 
    0.11915E+08        -0.47557E+05         0.00000E+00
   -0.47557E+05        -0.31503E+07         0.00000E+00
    0.00000E+00         0.00000E+00         0.00000E+00
 
    0.11356E+08        -0.11104E+05         0.00000E+00
   -0.11104E+05        -0.32059E+07         0.00000E+00
    0.00000E+00         0.00000E+00         0.00000E+00
 
    0.10757E+08         0.84475E+05         0.00000E+00
    0.84475E+05        -0.32310E+07         0.00000E+00
    0.00000E+00         0.00000E+00         0.00000E+00
 
    0.10085E+08         0.26346E+06         0.00000E+00
    0.26346E+06        -0.32075E+07         0.00000E+00
    0.00000E+00         0.00000E+00         0.00000E+00
 
    0.93197E+07         0.55302E+06         0.00000E+00
    0.55302E+06        -0.31201E+07         0.00000E+00
    0.00000E+00         0.00000E+00         0.00000E+00
 
    0.84506E+07         0.98221E+06         0.00000E+00
    0.98221E+06        -0.29590E+07         0.00000E+00
    0.00000E+00         0.00000E+00         0.00000E+00
 
    0.74796E+07         0.15786E+07         0.00000E+00
    0.15786E+07        -0.27213E+07         0.00000E+00
    0.00000E+00         0.00000E+00         0.00000E+00
 
    0.64195E+07         0.23645E+07         0.00000E+00
    0.23645E+07        -0.24099E+07         0.00000E+00
    0.00000E+00         0.00000E+00         0.00000E+00
 
    0.52910E+07         0.33549E+07         0.00000E+00
    0.33549E+07        -0.20324E+07         0.00000E+00
    0.00000E+00         0.00000E+00         0.00000E+00
 
    0.41182E+07         0.45568E+07         0.00000E+00
    0.45568E+07        -0.15981E+07         0.00000E+00
    0.00000E+00         0.00000E+00         0.00000E+00
 
    0.29260E+07         0.59700E+07         0.00000E+00
    0.59700E+07        -0.11174E+07         0.00000E+00
    0.00000E+00         0.00000E+00         0.00000E+00
 
    0.17379E+07         0.75881E+07         0.00000E+00
    0.75881E+07        -0.60041E+06         0.00000E+00
    0.00000E+00         0.00000E+00         0.00000E+00
 
    0.57382E+06         0.93990E+07         0.00000E+00
    0.93990E+07        -0.56701E+05         0.00000E+00
    0.00000E+00         0.00000E+00         0.00000E+00
 
    0.11037E+08        -0.47252E+05         0.00000E+00
   -0.47252E+05        -0.50188E+07         0.00000E+00
    0.00000E+00         0.00000E+00         0.00000E+00
 
    0.10466E+08        -0.10276E+06         0.00000E+00
   -0.10276E+06        -0.50589E+07         0.00000E+00
    0.00000E+00         0.00000E+00         0.00000E+00
 
    0.99501E+07        -0.10739E+06         0.00000E+00
   -0.10739E+06        -0.51189E+07         0.00000E+00
    0.00000E+00         0.00000E+00         0.00000E+00
 
    0.94492E+07        -0.51627E+05         0.00000E+00
   -0.51627E+05        -0.51758E+07         0.00000E+00
    0.00000E+00         0.00000E+00         0.00000E+00
 
    0.89279E+07         0.81945E+05         0.00000E+00
    0.81945E+05        -0.52092E+07         0.00000E+00
    0.00000E+00         0.00000E+00         0.00000E+00
 
    0.83583E+07         0.31454E+06         0.00000E+00
    0.31454E+06        -0.52025E+07         0.00000E+00
    0.00000E+00         0.00000E+00         0.00000E+00
 
    0.77212E+07         0.66924E+06         0.00000E+00
    0.66924E+06        -0.51427E+07         0.00000E+00
    0.00000E+00         0.00000E+00         0.00000E+00
 
    0.70059E+07         0.11694E+07         0.00000E+00
    0.11694E+07        -0.50212E+07         0.00000E+00
    0.00000E+00         0.00000E+00         0.00000E+00
 
    0.62113E+07         0.18365E+07         0.00000E+00
    0.18365E+07        -0.48348E+07         0.00000E+00
    0.00000E+00         0.00000E+00         0.00000E+00
 
    0.53446E+07         0.26881E+07         0.00000E+00
    0.26881E+07        -0.45849E+07         0.00000E+00
    0.00000E+00         0.00000E+00         0.00000E+00
 
    0.44193E+07         0.37360E+07         0.00000E+00
    0.37360E+07        -0.42767E+07         0.00000E+00
    0.00000E+00         0.00000E+00         0.00000E+00
 
    0.34527E+07         0.49857E+07         0.00000E+00
    0.49857E+07        -0.39177E+07         0.00000E+00
    0.00000E+00         0.00000E+00         0.00000E+00
 
    0.24636E+07         0.64367E+07         0.00000E+00
    0.64367E+07        -0.35164E+07         0.00000E+00
    0.00000E+00         0.00000E+00         0.00000E+00
 
    0.14699E+07         0.80828E+07         0.00000E+00
    0.80828E+07        -0.30815E+07         0.00000E+00
    0.00000E+00         0.00000E+00         0.00000E+00
 
    0.48703E+06         0.99135E+07         0.00000E+00
    0.99135E+07        -0.26208E+07         0.00000E+00
    0.00000E+00         0.00000E+00         0.00000E+00
 
    0.89388E+07        -0.68492E+05         0.00000E+00
   -0.68492E+05        -0.70153E+07         0.00000E+00
    0.00000E+00         0.00000E+00         0.00000E+00
 
    0.84275E+07        -0.15303E+06         0.00000E+00
   -0.15303E+06        -0.70524E+07         0.00000E+00
    0.00000E+00         0.00000E+00         0.00000E+00
 
    0.79760E+07        -0.16577E+06         0.00000E+00
   -0.16577E+06        -0.71115E+07         0.00000E+00
    0.00000E+00         0.00000E+00         0.00000E+00
 
    0.75521E+07        -0.97833E+05         0.00000E+00
   -0.97833E+05        -0.71736E+07         0.00000E+00
    0.00000E+00         0.00000E+00         0.00000E+00
 
    0.71257E+07         0.65392E+05         0.00000E+00
    0.65392E+05        -0.72206E+07         0.00000E+00
    0.00000E+00         0.00000E+00         0.00000E+00
 
    0.66715E+07         0.34173E+06         0.00000E+00
    0.34173E+06        -0.72369E+07         0.00000E+00
    0.00000E+00         0.00000E+00         0.00000E+00
 
    0.61708E+07         0.75026E+06         0.00000E+00
    0.75026E+06        -0.72107E+07         0.00000E+00
    0.00000E+00         0.00000E+00         0.00000E+00
 
    0.56124E+07         0.13097E+07         0.00000E+00
    0.13097E+07        -0.71337E+07         0.00000E+00
    0.00000E+00         0.00000E+00         0.00000E+00
 
    0.49922E+07         0.20370E+07         0.00000E+00
    0.20370E+07        -0.70022E+07         0.00000E+00
    0.00000E+00         0.00000E+00         0.00000E+00
 
    0.43131E+07         0.29455E+07         0.00000E+00
    0.29455E+07        -0.68163E+07         0.00000E+00
    0.00000E+00         0.00000E+00         0.00000E+00
 
    0.35831E+07         0.40442E+07         0.00000E+00
    0.40442E+07        -0.65793E+07         0.00000E+00
    0.00000E+00         0.00000E+00         0.00000E+00
 
    0.28139E+07         0.53370E+07         0.00000E+00
    0.53370E+07        -0.62966E+07         0.00000E+00
    0.00000E+00         0.00000E+00         0.00000E+00
 
    0.20188E+07         0.68227E+07         0.00000E+00
    0.68227E+07        -0.59750E+07         0.00000E+00
    0.00000E+00         0.00000E+00         0.00000E+00
 
    0.12112E+07         0.84955E+07         0.00000E+00
    0.84955E+07        -0.56213E+07         0.00000E+00
    0.00000E+00         0.00000E+00         0.00000E+00
 
    0.40297E+06         0.10346E+08         0.00000E+00
    0.10346E+08        -0.52418E+07         0.00000E+00
    0.00000E+00         0.00000E+00         0.00000E+00
 
    0.67876E+07        -0.88011E+05         0.00000E+00
   -0.88011E+05        -0.90286E+07         0.00000E+00
    0.00000E+00         0.00000E+00         0.00000E+00
 
    0.63536E+07        -0.20186E+06         0.00000E+00
   -0.20186E+06        -0.90663E+07         0.00000E+00
    0.00000E+00         0.00000E+00         0.00000E+00
 
    0.59855E+07        -0.22733E+06         0.00000E+00
   -0.22733E+06        -0.91294E+07         0.00000E+00
    0.00000E+00         0.00000E+00         0.00000E+00
 
    0.56567E+07        -0.15459E+06         0.00000E+00
   -0.15459E+06        -0.92018E+07         0.00000E+00
    0.00000E+00         0.00000E+00         0.00000E+00
 
    0.53404E+07         0.29406E+05         0.00000E+00
    0.29406E+05        -0.92673E+07         0.00000E+00
    0.00000E+00         0.00000E+00         0.00000E+00
 
    0.50133E+07         0.33960E+06         0.00000E+00
    0.33960E+06        -0.93115E+07         0.00000E+00
    0.00000E+00         0.00000E+00         0.00000E+00
 
    0.46569E+07         0.79152E+06         0.00000E+00
    0.79152E+06        -0.93229E+07         0.00000E+00
    0.00000E+00         0.00000E+00         0.00000E+00
 
    0.42588E+07         0.14000E+07         0.00000E+00
    0.14000E+07        -0.92934E+07         0.00000E+00
    0.00000E+00         0.00000E+00         0.00000E+00
 
    0.38125E+07         0.21780E+07         0.00000E+00
    0.21780E+07        -0.92186E+07         0.00000E+00
    0.00000E+00         0.00000E+00         0.00000E+00
 
    0.33171E+07         0.31356E+07         0.00000E+00
    0.31356E+07        -0.90974E+07         0.00000E+00
    0.00000E+00         0.00000E+00         0.00000E+00
 
    0.27763E+07         0.42792E+07         0.00000E+00
    0.42792E+07        -0.89314E+07         0.00000E+00
    0.00000E+00         0.00000E+00         0.00000E+00
 
    0.21973E+07         0.56110E+07         0.00000E+00
    0.56110E+07        -0.87244E+07         0.00000E+00
    0.00000E+00         0.00000E+00         0.00000E+00
 
    0.15889E+07         0.71291E+07         0.00000E+00
    0.71291E+07        -0.84811E+07         0.00000E+00
    0.00000E+00         0.00000E+00         0.00000E+00
 
    0.96058E+06         0.88279E+07         0.00000E+00
    0.88279E+07        -0.82070E+07         0.00000E+00
    0.00000E+00         0.00000E+00         0.00000E+00
 
    0.32132E+06         0.10699E+08         0.00000E+00
    0.10699E+08        -0.79070E+07         0.00000E+00
    0.00000E+00         0.00000E+00         0.00000E+00
 
    0.45835E+07        -0.10806E+06         0.00000E+00
   -0.10806E+06        -0.11059E+08         0.00000E+00
    0.00000E+00         0.00000E+00         0.00000E+00
 
    0.42401E+07        -0.25393E+06         0.00000E+00
   -0.25393E+06        -0.11101E+08         0.00000E+00
    0.00000E+00         0.00000E+00         0.00000E+00
 
    0.39719E+07        -0.29728E+06         0.00000E+00
   -0.29728E+06        -0.11172E+08         0.00000E+00
    0.00000E+00         0.00000E+00         0.00000E+00
 
    0.37542E+07        -0.22686E+06         0.00000E+00
   -0.22686E+06        -0.11260E+08         0.00000E+00
    0.00000E+00         0.00000E+00         0.00000E+00
 
    0.35623E+07        -0.30549E+05         0.00000E+00
   -0.30549E+05        -0.11349E+08         0.00000E+00
    0.00000E+00         0.00000E+00         0.00000E+00
 
    0.33734E+07         0.30431E+06         0.00000E+00
    0.30431E+06        -0.11424E+08         0.00000E+00
    0.00000E+00         0.00000E+00         0.00000E+00
 
    0.31689E+07         0.79017E+06         0.00000E+00
    0.79017E+06        -0.11476E+08         0.00000E+00
    0.00000E+00         0.00000E+00         0.00000E+00
 
    0.29350E+07         0.14385E+07         0.00000E+00
    0.14385E+07        -0.11495E+08         0.00000E+00
    0.00000E+00         0.00000E+00         0.00000E+00
 
    0.26631E+07         0.22589E+07         0.00000E+00
    0.22589E+07        -0.11478E+08         0.00000E+00
    0.00000E+00         0.00000E+00         0.00000E+00
 
    0.23492E+07         0.32587E+07         0.00000E+00
    0.32587E+07        -0.11421E+08         0.00000E+00
    0.00000E+00         0.00000E+00         0.00000E+00
 
    0.19934E+07         0.44418E+07         0.00000E+00
    0.44418E+07        -0.11325E+08         0.00000E+00
    0.00000E+00         0.00000E+00         0.00000E+00
 
    0.15991E+07         0.58090E+07         0.00000E+00
    0.58090E+07        -0.11191E+08         0.00000E+00
    0.00000E+00         0.00000E+00         0.00000E+00
 
    0.11715E+07         0.73576E+07         0.00000E+00
    0.73576E+07        -0.11025E+08         0.00000E+00
    0.00000E+00         0.00000E+00         0.00000E+00
 
    0.71695E+06         0.90818E+07         0.00000E+00
    0.90818E+07        -0.10828E+08         0.00000E+00
    0.00000E+00         0.00000E+00         0.00000E+00
 
    0.24186E+06         0.10973E+08         0.00000E+00
    0.10973E+08        -0.10605E+08         0.00000E+00
    0.00000E+00         0.00000E+00         0.00000E+00
 
    0.23227E+07        -0.13047E+06         0.00000E+00
   -0.13047E+06        -0.13107E+08         0.00000E+00
    0.00000E+00         0.00000E+00         0.00000E+00
 
    0.20820E+07        -0.31325E+06         0.00000E+00
   -0.31325E+06        -0.13155E+08         0.00000E+00
    0.00000E+00         0.00000E+00         0.00000E+00
 
    0.19281E+07        -0.38026E+06         0.00000E+00
   -0.38026E+06        -0.13240E+08         0.00000E+00
    0.00000E+00         0.00000E+00         0.00000E+00
 
    0.18365E+07        -0.31902E+06         0.00000E+00
   -0.31902E+06        -0.13346E+08         0.00000E+00
    0.00000E+00         0.00000E+00         0.00000E+00
 
    0.17821E+07        -0.11809E+06         0.00000E+00
   -0.11809E+06        -0.13461E+08         0.00000E+00
    0.00000E+00         0.00000E+00         0.00000E+00
 
    0.17422E+07         0.23324E+06         0.00000E+00
    0.23324E+06        -0.13571E+08         0.00000E+00
    0.00000E+00         0.00000E+00         0.00000E+00
 
    0.16972E+07         0.74472E+06         0.00000E+00
    0.74472E+06        -0.13664E+08         0.00000E+00
    0.00000E+00         0.00000E+00         0.00000E+00
 
    0.16320E+07         0.14248E+07         0.00000E+00
    0.14248E+07        -0.13733E+08         0.00000E+00
    0.00000E+00         0.00000E+00         0.00000E+00
 
    0.15360E+07         0.22804E+07         0.00000E+00
    0.22804E+07        -0.13772E+08         0.00000E+00
    0.00000E+00         0.00000E+00         0.00000E+00
 
    0.14027E+07         0.33161E+07         0.00000E+00
    0.33161E+07        -0.13778E+08         0.00000E+00
    0.00000E+00         0.00000E+00         0.00000E+00
 
    0.12293E+07         0.45339E+07         0.00000E+00
    0.45339E+07        -0.13750E+08         0.00000E+00
    0.00000E+00         0.00000E+00         0.00000E+00
 
    0.10159E+07         0.59332E+07         0.00000E+00
    0.59332E+07        -0.13688E+08         0.00000E+00
    0.00000E+00         0.00000E+00         0.00000E+00
 
    0.76471E+06         0.75104E+07         0.00000E+00
    0.75104E+07        -0.13596E+08         0.00000E+00
    0.00000E+00         0.00000E+00         0.00000E+00
 
    0.47942E+06         0.92594E+07         0.00000E+00
    0.92594E+07        -0.13474E+08         0.00000E+00
    0.00000E+00         0.00000E+00         0.00000E+00
 
    0.16438E+06         0.11172E+08         0.00000E+00
    0.11172E+08        -0.13327E+08         0.00000E+00
    0.00000E+00         0.00000E+00         0.00000E+00
 
   -0.15270E+04        -0.15663E+06         0.00000E+00
   -0.15663E+06        -0.15173E+08         0.00000E+00
    0.00000E+00         0.00000E+00         0.00000E+00
 
   -0.12741E+06        -0.38296E+06         0.00000E+00
   -0.38296E+06        -0.15230E+08         0.00000E+00
    0.00000E+00         0.00000E+00         0.00000E+00
 
   -0.15274E+06        -0.47995E+06         0.00000E+00
   -0.47995E+06        -0.15330E+08         0.00000E+00
    0.00000E+00         0.00000E+00         0.00000E+00
 
   -0.10426E+06        -0.43441E+06         0.00000E+00
   -0.43441E+06        -0.15459E+08         0.00000E+00
    0.00000E+00         0.00000E+00         0.00000E+00
 
   -0.82759E+04        -0.23569E+06         0.00000E+00
   -0.23569E+06        -0.15602E+08         0.00000E+00
    0.00000E+00         0.00000E+00         0.00000E+00
 
    0.11115E+06         0.12498E+06         0.00000E+00
    0.12498E+06        -0.15747E+08         0.00000E+00
    0.00000E+00         0.00000E+00         0.00000E+00
 
    0.23339E+06         0.65487E+06         0.00000E+00
    0.65487E+06        -0.15883E+08         0.00000E+00
    0.00000E+00         0.00000E+00         0.00000E+00
 
    0.34186E+06         0.13598E+07         0.00000E+00
    0.13598E+07        -0.16000E+08         0.00000E+00
    0.00000E+00         0.00000E+00         0.00000E+00
 
    0.42412E+06         0.22440E+07         0.00000E+00
    0.22440E+07        -0.16094E+08         0.00000E+00
    0.00000E+00         0.00000E+00         0.00000E+00
 
    0.47160E+06         0.33099E+07         0.00000E+00
    0.33099E+07        -0.16160E+08         0.00000E+00
    0.00000E+00         0.00000E+00         0.00000E+00
 
    0.47906E+06         0.45579E+07         0.00000E+00
    0.45579E+07        -0.16197E+08         0.00000E+00
    0.00000E+00         0.00000E+00         0.00000E+00
 
    0.44404E+06         0.59859E+07         0.00000E+00
    0.59859E+07        -0.16205E+08         0.00000E+00
    0.00000E+00         0.00000E+00         0.00000E+00
 
    0.36624E+06         0.75897E+07         0.00000E+00
    0.75897E+07        -0.16185E+08         0.00000E+00
    0.00000E+00         0.00000E+00         0.00000E+00
 
    0.24694E+06         0.93626E+07         0.00000E+00
    0.93626E+07        -0.16136E+08         0.00000E+00
    0.00000E+00         0.00000E+00         0.00000E+00
 
    0.88580E+05         0.11296E+08         0.00000E+00
    0.11296E+08        -0.16063E+08         0.00000E+00
    0.00000E+00         0.00000E+00         0.00000E+00
 
   -0.23979E+07        -0.18754E+06         0.00000E+00
   -0.18754E+06        -0.17258E+08         0.00000E+00
    0.00000E+00         0.00000E+00         0.00000E+00
 
   -0.23956E+07        -0.46530E+06         0.00000E+00
   -0.46530E+06        -0.17324E+08         0.00000E+00
    0.00000E+00         0.00000E+00         0.00000E+00
 
   -0.22778E+07        -0.59885E+06         0.00000E+00
   -0.59885E+06        -0.17442E+08         0.00000E+00
    0.00000E+00         0.00000E+00         0.00000E+00
 
   -0.20751E+07        -0.57503E+06         0.00000E+00
   -0.57503E+06        -0.17595E+08         0.00000E+00
    0.00000E+00         0.00000E+00         0.00000E+00
 
   -0.18162E+07        -0.38447E+06         0.00000E+00
   -0.38447E+06        -0.17768E+08         0.00000E+00
    0.00000E+00         0.00000E+00         0.00000E+00
 
   -0.15271E+07        -0.20484E+05         0.00000E+00
   -0.20484E+05        -0.17948E+08         0.00000E+00
    0.00000E+00         0.00000E+00         0.00000E+00
 
   -0.12300E+07         0.52165E+06         0.00000E+00
    0.52165E+06        -0.18124E+08         0.00000E+00
    0.00000E+00         0.00000E+00         0.00000E+00
 
   -0.94280E+06         0.12452E+07         0.00000E+00
    0.12452E+07        -0.18288E+08         0.00000E+00
    0.00000E+00         0.00000E+00         0.00000E+00
 
   -0.67940E+06         0.21521E+07         0.00000E+00
    0.21521E+07        -0.18434E+08         0.00000E+00
    0.00000E+00         0.00000E+00         0.00000E+00
 
   -0.45007E+06         0.32428E+07         0.00000E+00
    0.32428E+07        -0.18558E+08         0.00000E+00
    0.00000E+00         0.00000E+00         0.00000E+00
 
   -0.26202E+06         0.45164E+07         0.00000E+00
    0.45164E+07        -0.18657E+08         0.00000E+00
    0.00000E+00         0.00000E+00         0.00000E+00
 
   -0.11990E+06         0.59698E+07         0.00000E+00
    0.59698E+07        -0.18732E+08         0.00000E+00
    0.00000E+00         0.00000E+00         0.00000E+00
 
   -0.26236E+05         0.75979E+07         0.00000E+00
    0.75979E+07        -0.18780E+08         0.00000E+00
    0.00000E+00         0.00000E+00         0.00000E+00
 
    0.18216E+05         0.93935E+07         0.00000E+00
    0.93935E+07        -0.18803E+08         0.00000E+00
    0.00000E+00         0.00000E+00         0.00000E+00
 
    0.14073E+05         0.11348E+08         0.00000E+00
    0.11348E+08        -0.18802E+08         0.00000E+00
    0.00000E+00         0.00000E+00         0.00000E+00
 
   -0.48767E+07        -0.22384E+06         0.00000E+00
   -0.22384E+06        -0.19362E+08         0.00000E+00
    0.00000E+00         0.00000E+00         0.00000E+00
 
   -0.47306E+07        -0.56158E+06         0.00000E+00
   -0.56158E+06        -0.19438E+08         0.00000E+00
    0.00000E+00         0.00000E+00         0.00000E+00
 
   -0.44539E+07        -0.73818E+06         0.00000E+00
   -0.73818E+06        -0.19574E+08         0.00000E+00
    0.00000E+00         0.00000E+00         0.00000E+00
 
   -0.40822E+07        -0.74143E+06         0.00000E+00
   -0.74143E+06        -0.19751E+08         0.00000E+00
    0.00000E+00         0.00000E+00         0.00000E+00
 
   -0.36477E+07        -0.56391E+06         0.00000E+00
   -0.56391E+06        -0.19953E+08         0.00000E+00
    0.00000E+00         0.00000E+00         0.00000E+00
 
   -0.31789E+07        -0.20154E+06         0.00000E+00
   -0.20154E+06        -0.20166E+08         0.00000E+00
    0.00000E+00         0.00000E+00         0.00000E+00
 
   -0.26995E+07         0.34763E+06         0.00000E+00
    0.34763E+06        -0.20380E+08         0.00000E+00
    0.00000E+00         0.00000E+00         0.00000E+00
 
   -0.22286E+07         0.10842E+07         0.00000E+00
    0.10842E+07        -0.20587E+08         0.00000E+00
    0.00000E+00         0.00000E+00         0.00000E+00
 
   -0.17810E+07         0.20081E+07         0.00000E+00
    0.20081E+07        -0.20781E+08         0.00000E+00
    0.00000E+00         0.00000E+00         0.00000E+00
 
   -0.13682E+07         0.31182E+07         0.00000E+00
    0.31182E+07        -0.20959E+08         0.00000E+00
    0.00000E+00         0.00000E+00         0.00000E+00
 
   -0.99891E+06         0.44125E+07         0.00000E+00
    0.44125E+07        -0.21118E+08         0.00000E+00
    0.00000E+00         0.00000E+00         0.00000E+00
 
   -0.67978E+06         0.58873E+07         0.00000E+00
    0.58873E+07        -0.21256E+08         0.00000E+00
    0.00000E+00         0.00000E+00         0.00000E+00
 
   -0.41540E+06         0.75369E+07         0.00000E+00
    0.75369E+07        -0.21372E+08         0.00000E+00
    0.00000E+00         0.00000E+00         0.00000E+00
 
   -0.20835E+06         0.93536E+07         0.00000E+00
    0.93536E+07        -0.21464E+08         0.00000E+00
    0.00000E+00         0.00000E+00         0.00000E+00
 
   -0.59685E+05         0.11328E+08         0.00000E+00
    0.11328E+08        -0.21533E+08         0.00000E+00
    0.00000E+00         0.00000E+00         0.00000E+00
 
   -0.74490E+07        -0.26585E+06         0.00000E+00
   -0.26585E+06        -0.21486E+08         0.00000E+00
    0.00000E+00         0.00000E+00         0.00000E+00
 
   -0.71404E+07        -0.67221E+06         0.00000E+00
   -0.67221E+06        -0.21573E+08         0.00000E+00
    0.00000E+00         0.00000E+00         0.00000E+00
 
   -0.66873E+07        -0.89781E+06         0.00000E+00
   -0.89781E+06        -0.21726E+08         0.00000E+00
    0.00000E+00         0.00000E+00         0.00000E+00
 
   -0.61310E+07        -0.93246E+06         0.00000E+00
   -0.93246E+06        -0.21926E+08         0.00000E+00
    0.00000E+00         0.00000E+00         0.00000E+00
 
   -0.55081E+07        -0.77166E+06         0.00000E+00
   -0.77166E+06        -0.22154E+08         0.00000E+00
    0.00000E+00         0.00000E+00         0.00000E+00
 
   -0.48497E+07        -0.41465E+06         0.00000E+00
   -0.41465E+06        -0.22396E+08         0.00000E+00
    0.00000E+00         0.00000E+00         0.00000E+00
 
   -0.41810E+07         0.13723E+06         0.00000E+00
    0.13723E+06        -0.22643E+08         0.00000E+00
    0.00000E+00         0.00000E+00         0.00000E+00
 
   -0.35218E+07         0.88178E+06         0.00000E+00
    0.88178E+06        -0.22887E+08         0.00000E+00
    0.00000E+00         0.00000E+00         0.00000E+00
 
   -0.28873E+07         0.18167E+07         0.00000E+00
    0.18167E+07        -0.23123E+08         0.00000E+00
    0.00000E+00         0.00000E+00         0.00000E+00
 
   -0.22891E+07         0.29400E+07         0.00000E+00
    0.29400E+07        -0.23350E+08         0.00000E+00
    0.00000E+00         0.00000E+00         0.00000E+00
 
   -0.17372E+07         0.42491E+07         0.00000E+00
    0.42491E+07        -0.23564E+08         0.00000E+00
    0.00000E+00         0.00000E+00         0.00000E+00
 
   -0.12400E+07         0.57406E+07         0.00000E+00
    0.57406E+07        -0.23763E+08         0.00000E+00
    0.00000E+00         0.00000E+00         0.00000E+00
 
   -0.80435E+06         0.74084E+07         0.00000E+00
    0.74084E+07        -0.23945E+08         0.00000E+00
    0.00000E+00         0.00000E+00         0.00000E+00
 
   -0.43477E+06         0.92440E+07         0.00000E+00
    0.92440E+07        -0.24106E+08         0.00000E+00
    0.00000E+00         0.00000E+00         0.00000E+00
 
   -0.13343E+06         0.11238E+08         0.00000E+00
    0.11238E+08        -0.24245E+08         0.00000E+00
    0.00000E+00         0.00000E+00         0.00000E+00
 
   -0.10126E+08        -0.31357E+06         0.00000E+00
   -0.31357E+06        -0.23631E+08         0.00000E+00
    0.00000E+00         0.00000E+00         0.00000E+00
 
   -0.96328E+07        -0.79675E+06         0.00000E+00
   -0.79675E+06        -0.23727E+08         0.00000E+00
    0.00000E+00         0.00000E+00         0.00000E+00
 
   -0.89832E+07        -0.10762E+07         0.00000E+00
   -0.10762E+07        -0.23897E+08         0.00000E+00
    0.00000E+00         0.00000E+00         0.00000E+00
 
   -0.82254E+07        -0.11451E+07         0.00000E+00
   -0.11451E+07        -0.24116E+08         0.00000E+00
    0.00000E+00         0.00000E+00         0.00000E+00
 
   -0.74009E+07        -0.10032E+07         0.00000E+00
   -0.10032E+07        -0.24365E+08         0.00000E+00
    0.00000E+00         0.00000E+00         0.00000E+00
 
   -0.65436E+07        -0.65394E+06         0.00000E+00
   -0.65394E+06        -0.24631E+08         0.00000E+00
    0.00000E+00         0.00000E+00         0.00000E+00
 
   -0.56797E+07        -0.10284E+06         0.00000E+00
   -0.10284E+06        -0.24902E+08         0.00000E+00
    0.00000E+00         0.00000E+00         0.00000E+00
 
   -0.48289E+07         0.64474E+06         0.00000E+00
    0.64474E+06        -0.25175E+08         0.00000E+00
    0.00000E+00         0.00000E+00         0.00000E+00
 
   -0.40054E+07         0.15844E+07         0.00000E+00
    0.15844E+07        -0.25446E+08         0.00000E+00
    0.00000E+00         0.00000E+00         0.00000E+00
 
   -0.32206E+07         0.27133E+07         0.00000E+00
    0.27133E+07        -0.25714E+08         0.00000E+00
    0.00000E+00         0.00000E+00         0.00000E+00
 
   -0.24840E+07         0.40294E+07         0.00000E+00
    0.40294E+07        -0.25980E+08         0.00000E+00
    0.00000E+00         0.00000E+00         0.00000E+00
 
   -0.18058E+07         0.55309E+07         0.00000E+00
    0.55309E+07        -0.26238E+08         0.00000E+00
    0.00000E+00         0.00000E+00         0.00000E+00
 
   -0.11966E+07         0.72127E+07         0.00000E+00
    0.72127E+07        -0.26486E+08         0.00000E+00
    0.00000E+00         0.00000E+00         0.00000E+00
 
   -0.66343E+06         0.90648E+07         0.00000E+00
    0.90648E+07        -0.26716E+08         0.00000E+00
    0.00000E+00         0.00000E+00         0.00000E+00
 
   -0.20817E+06         0.11076E+08         0.00000E+00
    0.11076E+08        -0.26927E+08         0.00000E+00
    0.00000E+00         0.00000E+00         0.00000E+00
 
   -0.12918E+08        -0.36676E+06         0.00000E+00
   -0.36676E+06        -0.25796E+08         0.00000E+00
    0.00000E+00         0.00000E+00         0.00000E+00
 
   -0.12214E+08        -0.93384E+06         0.00000E+00
   -0.93384E+06        -0.25902E+08         0.00000E+00
    0.00000E+00         0.00000E+00         0.00000E+00
 
   -0.11345E+08        -0.12703E+07         0.00000E+00
   -0.12703E+07        -0.26085E+08         0.00000E+00
    0.00000E+00         0.00000E+00         0.00000E+00
 
   -0.10368E+08        -0.13744E+07         0.00000E+00
   -0.13744E+07        -0.26319E+08         0.00000E+00
    0.00000E+00         0.00000E+00         0.00000E+00
 
   -0.93283E+07        -0.12514E+07         0.00000E+00
   -0.12514E+07        -0.26582E+08         0.00000E+00
    0.00000E+00         0.00000E+00         0.00000E+00
 
   -0.82637E+07        -0.91082E+06         0.00000E+00
   -0.91082E+06        -0.26860E+08         0.00000E+00
    0.00000E+00         0.00000E+00         0.00000E+00
 
   -0.72002E+07        -0.36309E+06         0.00000E+00
   -0.36309E+06        -0.27146E+08         0.00000E+00
    0.00000E+00         0.00000E+00         0.00000E+00
 
   -0.61562E+07         0.38264E+06         0.00000E+00
    0.38264E+06        -0.27437E+08         0.00000E+00
    0.00000E+00         0.00000E+00         0.00000E+00
 
   -0.51438E+07         0.13198E+07         0.00000E+00
    0.13198E+07        -0.27732E+08         0.00000E+00
    0.00000E+00         0.00000E+00         0.00000E+00
 
   -0.41720E+07         0.24449E+07         0.00000E+00
    0.24449E+07        -0.28033E+08         0.00000E+00
    0.00000E+00         0.00000E+00         0.00000E+00
 
   -0.32490E+07         0.37573E+07         0.00000E+00
    0.37573E+07        -0.28342E+08         0.00000E+00
    0.00000E+00         0.00000E+00         0.00000E+00
 
   -0.23852E+07         0.52580E+07         0.00000E+00
    0.52580E+07        -0.28659E+08         0.00000E+00
    0.00000E+00         0.00000E+00         0.00000E+00
 
   -0.15960E+07         0.69470E+07         0.00000E+00
    0.69470E+07        -0.28976E+08         0.00000E+00
    0.00000E+00         0.00000E+00         0.00000E+00
 
   -0.89659E+06         0.88142E+07         0.00000E+00
    0.88142E+07        -0.29281E+08         0.00000E+00
    0.00000E+00         0.00000E+00         0.00000E+00
 
   -0.28535E+06         0.10841E+08         0.00000E+00
    0.10841E+08        -0.29567E+08         0.00000E+00
    0.00000E+00         0.00000E+00         0.00000E+00
 
   -0.15836E+08        -0.42491E+06         0.00000E+00
   -0.42491E+06        -0.27984E+08         0.00000E+00
    0.00000E+00         0.00000E+00         0.00000E+00
 
   -0.14889E+08        -0.10812E+07         0.00000E+00
   -0.10812E+07        -0.28097E+08         0.00000E+00
    0.00000E+00         0.00000E+00         0.00000E+00
 
   -0.13774E+08        -0.14754E+07         0.00000E+00
   -0.14754E+07        -0.28290E+08         0.00000E+00
    0.00000E+00         0.00000E+00         0.00000E+00
 
   -0.12557E+08        -0.16126E+07         0.00000E+00
   -0.16126E+07        -0.28530E+08         0.00000E+00
    0.00000E+00         0.00000E+00         0.00000E+00
 
   -0.11290E+08        -0.15062E+07         0.00000E+00
   -0.15062E+07        -0.28797E+08         0.00000E+00
    0.00000E+00         0.00000E+00         0.00000E+00
 
   -0.10012E+08        -0.11734E+07         0.00000E+00
   -0.11734E+07        -0.29076E+08         0.00000E+00
    0.00000E+00         0.00000E+00         0.00000E+00
 
   -0.87467E+07        -0.63084E+06         0.00000E+00
   -0.63084E+06        -0.29362E+08         0.00000E+00
    0.00000E+00         0.00000E+00         0.00000E+00
 
   -0.75107E+07         0.10805E+06         0.00000E+00
    0.10805E+06        -0.29655E+08         0.00000E+00
    0.00000E+00         0.00000E+00         0.00000E+00
 
   -0.63119E+07         0.10344E+07         0.00000E+00
    0.10344E+07        -0.29961E+08         0.00000E+00
    0.00000E+00         0.00000E+00         0.00000E+00
 
   -0.51552E+07         0.21444E+07         0.00000E+00
    0.21444E+07        -0.30283E+08         0.00000E+00
    0.00000E+00         0.00000E+00         0.00000E+00
 
   -0.40458E+07         0.34389E+07         0.00000E+00
    0.34389E+07        -0.30627E+08         0.00000E+00
    0.00000E+00         0.00000E+00         0.00000E+00
 
   -0.29918E+07         0.49222E+07         0.00000E+00
    0.49222E+07        -0.30994E+08         0.00000E+00
    0.00000E+00         0.00000E+00         0.00000E+00
 
   -0.20101E+07         0.66017E+07         0.00000E+00
    0.66017E+07        -0.31382E+08         0.00000E+00
    0.00000E+00         0.00000E+00         0.00000E+00
 
   -0.11363E+07         0.84796E+07         0.00000E+00
    0.84796E+07        -0.31780E+08         0.00000E+00
    0.00000E+00         0.00000E+00         0.00000E+00
 
   -0.36624E+06         0.10520E+08         0.00000E+00
    0.10520E+08        -0.32173E+08         0.00000E+00
    0.00000E+00         0.00000E+00         0.00000E+00
 
   -0.18887E+08        -0.48728E+06         0.00000E+00
   -0.48728E+06        -0.30195E+08         0.00000E+00
    0.00000E+00         0.00000E+00         0.00000E+00
 
   -0.17660E+08        -0.12356E+07         0.00000E+00
   -0.12356E+07        -0.30313E+08         0.00000E+00
    0.00000E+00         0.00000E+00         0.00000E+00
 
   -0.16269E+08        -0.16845E+07         0.00000E+00
   -0.16845E+07        -0.30508E+08         0.00000E+00
    0.00000E+00         0.00000E+00         0.00000E+00
 
   -0.14791E+08        -0.18492E+07         0.00000E+00
   -0.18492E+07        -0.30746E+08         0.00000E+00
    0.00000E+00         0.00000E+00         0.00000E+00
 
   -0.13284E+08        -0.17541E+07         0.00000E+00
   -0.17541E+07        -0.31002E+08         0.00000E+00
    0.00000E+00         0.00000E+00         0.00000E+00
 
   -0.11788E+08        -0.14263E+07         0.00000E+00
   -0.14263E+07        -0.31264E+08         0.00000E+00
    0.00000E+00         0.00000E+00         0.00000E+00
 
   -0.10323E+08        -0.88985E+06         0.00000E+00
   -0.88985E+06        -0.31532E+08         0.00000E+00
    0.00000E+00         0.00000E+00         0.00000E+00
 
   -0.88999E+07        -0.16321E+06         0.00000E+00
   -0.16321E+06        -0.31811E+08         0.00000E+00
    0.00000E+00         0.00000E+00         0.00000E+00
 
   -0.75208E+07         0.74264E+06         0.00000E+00
    0.74264E+06        -0.32110E+08         0.00000E+00
    0.00000E+00         0.00000E+00         0.00000E+00
 
   -0.61845E+07         0.18241E+07         0.00000E+00
    0.18241E+07        -0.32438E+08         0.00000E+00
    0.00000E+00         0.00000E+00         0.00000E+00
 
   -0.48911E+07         0.30844E+07         0.00000E+00
    0.30844E+07        -0.32803E+08         0.00000E+00
    0.00000E+00         0.00000E+00         0.00000E+00
 
   -0.36458E+07         0.45314E+07         0.00000E+00
    0.45314E+07        -0.33210E+08         0.00000E+00
    0.00000E+00         0.00000E+00         0.00000E+00
 
   -0.24604E+07         0.61753E+07         0.00000E+00
    0.61753E+07        -0.33658E+08         0.00000E+00
    0.00000E+00         0.00000E+00         0.00000E+00
 
   -0.13854E+07         0.80352E+07         0.00000E+00
    0.80352E+07        -0.34139E+08         0.00000E+00
    0.00000E+00         0.00000E+00         0.00000E+00
 
   -0.58532E+06         0.10016E+08         0.00000E+00
    0.10016E+08        -0.34691E+08         0.00000E+00
    0.00000E+00         0.00000E+00        -0.14381E+06
 
   -0.22078E+08        -0.55291E+06         0.00000E+00
   -0.55291E+06        -0.32430E+08         0.00000E+00
    0.00000E+00         0.00000E+00         0.00000E+00
 
   -0.20525E+08        -0.13924E+07         0.00000E+00
   -0.13924E+07        -0.32549E+08         0.00000E+00
    0.00000E+00         0.00000E+00         0.00000E+00
 
   -0.18823E+08        -0.18881E+07         0.00000E+00
   -0.18881E+07        -0.32739E+08         0.00000E+00
    0.00000E+00         0.00000E+00         0.00000E+00
 
   -0.17062E+08        -0.20698E+07         0.00000E+00
   -0.20698E+07        -0.32959E+08         0.00000E+00
    0.00000E+00         0.00000E+00         0.00000E+00
 
   -0.15306E+08        -0.19771E+07         0.00000E+00
   -0.19771E+07        -0.33185E+08         0.00000E+00
    0.00000E+00         0.00000E+00         0.00000E+00
 
   -0.13591E+08        -0.16495E+07         0.00000E+00
   -0.16495E+07        -0.33410E+08         0.00000E+00
    0.00000E+00         0.00000E+00         0.00000E+00
 
   -0.11933E+08        -0.11202E+07         0.00000E+00
   -0.11202E+07        -0.33638E+08         0.00000E+00
    0.00000E+00         0.00000E+00         0.00000E+00
 
   -0.10333E+08        -0.41232E+06         0.00000E+00
   -0.41232E+06        -0.33881E+08         0.00000E+00
    0.00000E+00         0.00000E+00         0.00000E+00
 
   -0.87835E+07         0.46157E+06         0.00000E+00
    0.46157E+06        -0.34153E+08         0.00000E+00
    0.00000E+00         0.00000E+00         0.00000E+00
 
   -0.72761E+07         0.14989E+07         0.00000E+00
    0.14989E+07        -0.34470E+08         0.00000E+00
    0.00000E+00         0.00000E+00         0.00000E+00
 
   -0.58033E+07         0.27060E+07         0.00000E+00
    0.27060E+07        -0.34842E+08         0.00000E+00
    0.00000E+00         0.00000E+00         0.00000E+00
 
   -0.43654E+07         0.40974E+07         0.00000E+00
    0.40974E+07        -0.35278E+08         0.00000E+00
    0.00000E+00         0.00000E+00         0.00000E+00
 
   -0.29755E+07         0.56907E+07         0.00000E+00
    0.56907E+07        -0.35772E+08         0.00000E+00
    0.00000E+00         0.00000E+00         0.00000E+00
 
   -0.16307E+07         0.75137E+07         0.00000E+00
    0.75137E+07        -0.36315E+08         0.00000E+00
    0.00000E+00         0.00000E+00         0.00000E+00
 
   -0.10971E+07         0.93371E+07         0.00000E+00
    0.93371E+07        -0.36939E+08         0.00000E+00
    0.00000E+00         0.00000E+00        -0.62641E+06
 
   -0.25412E+08        -0.62057E+06         0.00000E+00
   -0.62057E+06        -0.34689E+08         0.00000E+00
    0.00000E+00         0.00000E+00         0.00000E+00
 
   -0.23477E+08        -0.15451E+07         0.00000E+00
   -0.15451E+07        -0.34805E+08         0.00000E+00
    0.00000E+00         0.00000E+00         0.00000E+00
 
   -0.21423E+08        -0.20728E+07         0.00000E+00
   -0.20728E+07        -0.34978E+08         0.00000E+00
    0.00000E+00         0.00000E+00         0.00000E+00
 
   -0.19358E+08        -0.22548E+07         0.00000E+00
   -0.22548E+07        -0.35161E+08         0.00000E+00
    0.00000E+00         0.00000E+00         0.00000E+00
 
   -0.17347E+08        -0.21518E+07         0.00000E+00
   -0.21518E+07        -0.35332E+08         0.00000E+00
    0.00000E+00         0.00000E+00         0.00000E+00
 
   -0.15420E+08        -0.18191E+07         0.00000E+00
   -0.18191E+07        -0.35491E+08         0.00000E+00
    0.00000E+00         0.00000E+00         0.00000E+00
 
   -0.13581E+08        -0.12989E+07         0.00000E+00
   -0.12989E+07        -0.35653E+08         0.00000E+00
    0.00000E+00         0.00000E+00         0.00000E+00
 
   -0.11819E+08        -0.61832E+06         0.00000E+00
   -0.61832E+06        -0.35837E+08         0.00000E+00
    0.00000E+00         0.00000E+00         0.00000E+00
 
   -0.10115E+08         0.20961E+06         0.00000E+00
    0.20961E+06        -0.36062E+08         0.00000E+00
    0.00000E+00         0.00000E+00         0.00000E+00
 
   -0.84488E+07         0.11843E+07         0.00000E+00
    0.11843E+07        -0.36350E+08         0.00000E+00
    0.00000E+00         0.00000E+00         0.00000E+00
 
   -0.68041E+07         0.23162E+07         0.00000E+00
    0.23162E+07        -0.36716E+08         0.00000E+00
    0.00000E+00         0.00000E+00         0.00000E+00
 
   -0.51716E+07         0.36272E+07         0.00000E+00
    0.36272E+07        -0.37170E+08         0.00000E+00
    0.00000E+00         0.00000E+00         0.00000E+00
 
   -0.35604E+07         0.51518E+07         0.00000E+00
    0.51518E+07        -0.37713E+08         0.00000E+00
    0.00000E+00         0.00000E+00         0.00000E+00
 
   -0.19787E+07         0.69098E+07         0.00000E+00
    0.69098E+07        -0.38338E+08         0.00000E+00
    0.00000E+00         0.00000E+00         0.00000E+00
 
   -0.17353E+07         0.86339E+07         0.00000E+00
    0.86339E+07        -0.39025E+08         0.00000E+00
    0.00000E+00         0.00000E+00        -0.11656E+07
 
   -0.28888E+08        -0.68868E+06         0.00000E+00
   -0.68868E+06        -0.36973E+08         0.00000E+00
    0.00000E+00         0.00000E+00         0.00000E+00
 
   -0.26500E+08        -0.16842E+07         0.00000E+00
   -0.16842E+07        -0.37079E+08         0.00000E+00
    0.00000E+00         0.00000E+00         0.00000E+00
 
   -0.24050E+08        -0.22187E+07         0.00000E+00
   -0.22187E+07        -0.37216E+08         0.00000E+00
    0.00000E+00         0.00000E+00         0.00000E+00
 
   -0.21661E+08        -0.23768E+07         0.00000E+00
   -0.23768E+07        -0.37333E+08         0.00000E+00
    0.00000E+00         0.00000E+00         0.00000E+00
 
   -0.19398E+08        -0.22483E+07         0.00000E+00
   -0.22483E+07        -0.37416E+08         0.00000E+00
    0.00000E+00         0.00000E+00         0.00000E+00
 
   -0.17275E+08        -0.19063E+07         0.00000E+00
   -0.19063E+07        -0.37478E+08         0.00000E+00
    0.00000E+00         0.00000E+00         0.00000E+00
 
   -0.15276E+08        -0.14006E+07         0.00000E+00
   -0.14006E+07        -0.37545E+08         0.00000E+00
    0.00000E+00         0.00000E+00         0.00000E+00
 
   -0.13372E+08        -0.75984E+06         0.00000E+00
   -0.75984E+06        -0.37645E+08         0.00000E+00
    0.00000E+00         0.00000E+00         0.00000E+00
 
   -0.11533E+08         0.46722E+04         0.00000E+00
    0.46722E+04        -0.37805E+08         0.00000E+00
    0.00000E+00         0.00000E+00         0.00000E+00
 
   -0.97242E+07         0.89517E+06         0.00000E+00
    0.89517E+06        -0.38048E+08         0.00000E+00
    0.00000E+00         0.00000E+00         0.00000E+00
 
   -0.79186E+07         0.19264E+07         0.00000E+00
    0.19264E+07        -0.38394E+08         0.00000E+00
    0.00000E+00         0.00000E+00         0.00000E+00
 
   -0.60942E+07         0.31263E+07         0.00000E+00
    0.31263E+07        -0.38859E+08         0.00000E+00
    0.00000E+00         0.00000E+00         0.00000E+00
 
   -0.42407E+07         0.45390E+07         0.00000E+00
    0.45390E+07        -0.39451E+08         0.00000E+00
    0.00000E+00         0.00000E+00         0.00000E+00
 
   -0.24804E+07         0.61999E+07         0.00000E+00
    0.61999E+07        -0.40151E+08         0.00000E+00
    0.00000E+00         0.00000E+00        -0.94447E+05
 
   -0.23402E+07         0.78945E+07         0.00000E+00
    0.78945E+07        -0.40933E+08         0.00000E+00
    0.00000E+00         0.00000E+00        -0.16469E+07
 
   -0.32497E+08        -0.75491E+06         0.00000E+00
   -0.75491E+06        -0.39282E+08         0.00000E+00
    0.00000E+00         0.00000E+00         0.00000E+00
 
   -0.29567E+08        -0.17943E+07         0.00000E+00
   -0.17943E+07        -0.39366E+08         0.00000E+00
    0.00000E+00         0.00000E+00         0.00000E+00
 
   -0.26671E+08        -0.22954E+07         0.00000E+00
   -0.22954E+07        -0.39438E+08         0.00000E+00
    0.00000E+00         0.00000E+00         0.00000E+00
 
   -0.23951E+08        -0.23978E+07         0.00000E+00
   -0.23978E+07        -0.39446E+08         0.00000E+00
    0.00000E+00         0.00000E+00         0.00000E+00
 
   -0.21453E+08        -0.22296E+07         0.00000E+00
   -0.22296E+07        -0.39397E+08         0.00000E+00
    0.00000E+00         0.00000E+00         0.00000E+00
 
   -0.19160E+08        -0.18801E+07         0.00000E+00
   -0.18801E+07        -0.39325E+08         0.00000E+00
    0.00000E+00         0.00000E+00         0.00000E+00
 
   -0.17028E+08        -0.14011E+07         0.00000E+00
   -0.14011E+07        -0.39271E+08         0.00000E+00
    0.00000E+00         0.00000E+00         0.00000E+00
 
   -0.15010E+08        -0.81795E+06         0.00000E+00
   -0.81795E+06        -0.39267E+08         0.00000E+00
    0.00000E+00         0.00000E+00         0.00000E+00
 
   -0.13058E+08        -0.13833E+06         0.00000E+00
   -0.13833E+06        -0.39346E+08         0.00000E+00
    0.00000E+00         0.00000E+00         0.00000E+00
 
   -0.11127E+08         0.64355E+06         0.00000E+00
    0.64355E+06        -0.39533E+08         0.00000E+00
    0.00000E+00         0.00000E+00         0.00000E+00
 
   -0.91757E+07         0.15458E+07         0.00000E+00
    0.15458E+07        -0.39850E+08         0.00000E+00
    0.00000E+00         0.00000E+00         0.00000E+00
 
   -0.71675E+07         0.26006E+07         0.00000E+00
    0.26006E+07        -0.40319E+08         0.00000E+00
    0.00000E+00         0.00000E+00         0.00000E+00
 
   -0.50706E+07         0.38618E+07         0.00000E+00
    0.38618E+07        -0.40956E+08         0.00000E+00
    0.00000E+00         0.00000E+00         0.00000E+00
 
   -0.31107E+07         0.53800E+07         0.00000E+00
    0.53800E+07        -0.41750E+08         0.00000E+00
    0.00000E+00         0.00000E+00        -0.21990E+06
 
   -0.28823E+07         0.70679E+07         0.00000E+00
    0.70679E+07        -0.42638E+08         0.00000E+00
    0.00000E+00         0.00000E+00        -0.20399E+07
 
   -0.36222E+08        -0.81525E+06         0.00000E+00
   -0.81525E+06        -0.41617E+08         0.00000E+00
    0.00000E+00         0.00000E+00         0.00000E+00
 
   -0.32629E+08        -0.18466E+07         0.00000E+00
   -0.18466E+07        -0.41655E+08         0.00000E+00
    0.00000E+00         0.00000E+00         0.00000E+00
 
   -0.29243E+08        -0.22528E+07         0.00000E+00
   -0.22528E+07        -0.41608E+08         0.00000E+00
    0.00000E+00         0.00000E+00         0.00000E+00
 
   -0.26208E+08        -0.22651E+07         0.00000E+00
   -0.22651E+07        -0.41443E+08         0.00000E+00
    0.00000E+00         0.00000E+00         0.00000E+00
 
   -0.23512E+08        -0.20539E+07         0.00000E+00
   -0.20539E+07        -0.41211E+08         0.00000E+00
    0.00000E+00         0.00000E+00         0.00000E+00
 
   -0.21088E+08        -0.17116E+07         0.00000E+00
   -0.17116E+07        -0.40971E+08         0.00000E+00
    0.00000E+00         0.00000E+00         0.00000E+00
 
   -0.18858E+08        -0.12812E+07         0.00000E+00
   -0.12812E+07        -0.40774E+08         0.00000E+00
    0.00000E+00         0.00000E+00         0.00000E+00
 
   -0.16753E+08        -0.78010E+06         0.00000E+00
   -0.78010E+06        -0.40656E+08         0.00000E+00
    0.00000E+00         0.00000E+00         0.00000E+00
 
   -0.14714E+08        -0.21053E+06         0.00000E+00
   -0.21053E+06        -0.40647E+08         0.00000E+00
    0.00000E+00         0.00000E+00         0.00000E+00
 
   -0.12682E+08         0.43631E+06         0.00000E+00
    0.43631E+06        -0.40772E+08         0.00000E+00
    0.00000E+00         0.00000E+00         0.00000E+00
 
   -0.10606E+08         0.11799E+07         0.00000E+00
    0.11799E+07        -0.41056E+08         0.00000E+00
    0.00000E+00         0.00000E+00         0.00000E+00
 
   -0.84318E+07         0.20529E+07         0.00000E+00
    0.20529E+07        -0.41526E+08         0.00000E+00
    0.00000E+00         0.00000E+00         0.00000E+00
 
   -0.61011E+07         0.31076E+07         0.00000E+00
    0.31076E+07        -0.42210E+08         0.00000E+00
    0.00000E+00         0.00000E+00         0.00000E+00
 
   -0.38573E+07         0.44380E+07         0.00000E+00
    0.44380E+07        -0.43115E+08         0.00000E+00
    0.00000E+00         0.00000E+00        -0.27891E+06
 
   -0.33838E+07         0.61152E+07         0.00000E+00
    0.61152E+07        -0.44146E+08         0.00000E+00
    0.00000E+00         0.00000E+00        -0.23203E+07
 
   -0.40018E+08        -0.86007E+06         0.00000E+00
   -0.86007E+06        -0.43971E+08         0.00000E+00
    0.00000E+00         0.00000E+00         0.00000E+00
 
   -0.35602E+08        -0.17800E+07         0.00000E+00
   -0.17800E+07        -0.43909E+08         0.00000E+00
    0.00000E+00         0.00000E+00         0.00000E+00
 
   -0.31717E+08        -0.20062E+07         0.00000E+00
   -0.20062E+07        -0.43639E+08         0.00000E+00
    0.00000E+00         0.00000E+00         0.00000E+00
 
   -0.28426E+08        -0.19149E+07         0.00000E+00
   -0.19149E+07        -0.43217E+08         0.00000E+00
    0.00000E+00         0.00000E+00         0.00000E+00
 
   -0.25594E+08        -0.16854E+07         0.00000E+00
   -0.16854E+07        -0.42758E+08         0.00000E+00
    0.00000E+00         0.00000E+00         0.00000E+00
 
   -0.23085E+08        -0.13836E+07         0.00000E+00
   -0.13836E+07        -0.42334E+08         0.00000E+00
    0.00000E+00         0.00000E+00         0.00000E+00
 
   -0.20791E+08        -0.10343E+07         0.00000E+00
   -0.10343E+07        -0.41991E+08         0.00000E+00
    0.00000E+00         0.00000E+00         0.00000E+00
 
   -0.18628E+08        -0.64462E+06         0.00000E+00
   -0.64462E+06        -0.41761E+08         0.00000E+00
    0.00000E+00         0.00000E+00         0.00000E+00
 
   -0.16525E+08        -0.21190E+06         0.00000E+00
   -0.21190E+06        -0.41667E+08         0.00000E+00
    0.00000E+00         0.00000E+00         0.00000E+00
 
   -0.14417E+08         0.27365E+06         0.00000E+00
    0.27365E+06        -0.41735E+08         0.00000E+00
    0.00000E+00         0.00000E+00         0.00000E+00
 
   -0.12241E+08         0.82969E+06         0.00000E+00
    0.82969E+06        -0.41988E+08         0.00000E+00
    0.00000E+00         0.00000E+00         0.00000E+00
 
   -0.99283E+07         0.14849E+07         0.00000E+00
    0.14849E+07        -0.42457E+08         0.00000E+00
    0.00000E+00         0.00000E+00         0.00000E+00
 
   -0.74008E+07         0.22830E+07         0.00000E+00
    0.22830E+07        -0.43181E+08         0.00000E+00
    0.00000E+00         0.00000E+00         0.00000E+00
 
   -0.47616E+07         0.33430E+07         0.00000E+00
    0.33430E+07        -0.44207E+08         0.00000E+00
    0.00000E+00         0.00000E+00        -0.22687E+06
 
   -0.38521E+07         0.49534E+07         0.00000E+00
    0.49534E+07        -0.45449E+08         0.00000E+00
    0.00000E+00         0.00000E+00        -0.24656E+07
 
   -0.43774E+08        -0.85325E+06         0.00000E+00
   -0.85325E+06        -0.46322E+08         0.00000E+00
    0.00000E+00         0.00000E+00         0.00000E+00
 
   -0.38354E+08        -0.14397E+07         0.00000E+00
   -0.14397E+07        -0.45982E+08         0.00000E+00
    0.00000E+00         0.00000E+00         0.00000E+00
 
   -0.34077E+08        -0.14414E+07         0.00000E+00
   -0.14414E+07        -0.45324E+08         0.00000E+00
    0.00000E+00         0.00000E+00         0.00000E+00
 
   -0.30642E+08        -0.13037E+07         0.00000E+00
   -0.13037E+07        -0.44593E+08         0.00000E+00
    0.00000E+00         0.00000E+00         0.00000E+00
 
   -0.27740E+08        -0.11162E+07         0.00000E+00
   -0.11162E+07        -0.43907E+08         0.00000E+00
    0.00000E+00         0.00000E+00         0.00000E+00
 
   -0.25187E+08        -0.90377E+06         0.00000E+00
   -0.90377E+06        -0.43317E+08         0.00000E+00
    0.00000E+00         0.00000E+00         0.00000E+00
 
   -0.22858E+08        -0.67321E+06         0.00000E+00
   -0.67321E+06        -0.42852E+08         0.00000E+00
    0.00000E+00         0.00000E+00         0.00000E+00
 
   -0.20660E+08        -0.42438E+06         0.00000E+00
   -0.42438E+06        -0.42531E+08         0.00000E+00
    0.00000E+00         0.00000E+00         0.00000E+00
 
   -0.18516E+08        -0.15308E+06         0.00000E+00
   -0.15308E+06        -0.42372E+08         0.00000E+00
    0.00000E+00         0.00000E+00         0.00000E+00
 
   -0.16356E+08         0.14851E+06         0.00000E+00
    0.14851E+06        -0.42394E+08         0.00000E+00
    0.00000E+00         0.00000E+00         0.00000E+00
 
   -0.14109E+08         0.49275E+06         0.00000E+00
    0.49275E+06        -0.42622E+08         0.00000E+00
    0.00000E+00         0.00000E+00         0.00000E+00
 
   -0.11695E+08         0.89895E+06         0.00000E+00
    0.89895E+06        -0.43090E+08         0.00000E+00
    0.00000E+00         0.00000E+00         0.00000E+00
 
   -0.90238E+07         0.13985E+07         0.00000E+00
    0.13985E+07        -0.43846E+08         0.00000E+00
    0.00000E+00         0.00000E+00         0.00000E+00
 
   -0.59593E+07         0.20731E+07         0.00000E+00
    0.20731E+07        -0.44992E+08         0.00000E+00
    0.00000E+00         0.00000E+00        -0.74051E+05
 
   -0.43373E+07         0.34458E+07         0.00000E+00
    0.34458E+07        -0.46527E+08         0.00000E+00
    0.00000E+00         0.00000E+00        -0.24337E+07
 
   -0.47163E+08        -0.51688E+06         0.00000E+00
   -0.51688E+06        -0.48277E+08         0.00000E+00
    0.00000E+00         0.00000E+00         0.00000E+00
 
   -0.40830E+08        -0.58613E+06         0.00000E+00
   -0.58613E+06        -0.47360E+08         0.00000E+00
    0.00000E+00         0.00000E+00         0.00000E+00
 
   -0.36419E+08        -0.53169E+06         0.00000E+00
   -0.53169E+06        -0.46317E+08         0.00000E+00
    0.00000E+00         0.00000E+00         0.00000E+00
 
   -0.32932E+08        -0.46481E+06         0.00000E+00
   -0.46481E+06        -0.45358E+08         0.00000E+00
    0.00000E+00         0.00000E+00         0.00000E+00
 
   -0.30004E+08        -0.39130E+06         0.00000E+00
   -0.39130E+06        -0.44525E+08         0.00000E+00
    0.00000E+00         0.00000E+00         0.00000E+00
 
   -0.27433E+08        -0.31414E+06         0.00000E+00
   -0.31414E+06        -0.43836E+08         0.00000E+00
    0.00000E+00         0.00000E+00         0.00000E+00
 
   -0.25087E+08        -0.23328E+06         0.00000E+00
   -0.23328E+06        -0.43300E+08         0.00000E+00
    0.00000E+00         0.00000E+00         0.00000E+00
 
   -0.22871E+08        -0.14760E+06         0.00000E+00
   -0.14760E+06        -0.42928E+08         0.00000E+00
    0.00000E+00         0.00000E+00         0.00000E+00
 
   -0.20704E+08        -0.55103E+05         0.00000E+00
   -0.55103E+05        -0.42732E+08         0.00000E+00
    0.00000E+00         0.00000E+00         0.00000E+00
 
   -0.18516E+08         0.47194E+05         0.00000E+00
    0.47194E+05        -0.42729E+08         0.00000E+00
    0.00000E+00         0.00000E+00         0.00000E+00
 
   -0.16230E+08         0.16374E+06         0.00000E+00
    0.16374E+06        -0.42943E+08         0.00000E+00
    0.00000E+00         0.00000E+00         0.00000E+00
 
   -0.13762E+08         0.30107E+06         0.00000E+00
    0.30107E+06        -0.43410E+08         0.00000E+00
    0.00000E+00         0.00000E+00         0.00000E+00
 
   -0.11003E+08         0.47206E+06         0.00000E+00
    0.47206E+06        -0.44182E+08         0.00000E+00
    0.00000E+00         0.00000E+00         0.00000E+00
 
   -0.77777E+07         0.69380E+06         0.00000E+00
    0.69380E+06        -0.45356E+08         0.00000E+00
    0.00000E+00         0.00000E+00         0.00000E+00
 
   -0.49619E+07         0.12989E+07         0.00000E+00
    0.12989E+07        -0.47333E+08         0.00000E+00
    0.00000E+00         0.00000E+00        -0.21787E+07
 
TENSORS stresstot double 
   -0.44786E+08         0.26046E+06         0.00000E+00
    0.26046E+06        -0.58980E+08         0.00000E+00
    0.00000E+00         0.00000E+00        -0.57830E+08
 
   -0.44748E+08         0.18797E+06         0.00000E+00
    0.18797E+06        -0.58631E+08         0.00000E+00
    0.00000E+00         0.00000E+00        -0.58034E+08
 
   -0.44944E+08        -0.26105E+05         0.00000E+00
   -0.26105E+05        -0.58679E+08         0.00000E+00
    0.00000E+00         0.00000E+00        -0.59016E+08
 
   -0.45370E+08        -0.16796E+06         0.00000E+00
   -0.16796E+06        -0.59036E+08         0.00000E+00
    0.00000E+00         0.00000E+00        -0.60640E+08
 
   -0.46009E+08        -0.21140E+06         0.00000E+00
   -0.21140E+06        -0.59518E+08         0.00000E+00
    0.00000E+00         0.00000E+00        -0.62766E+08
 
   -0.46857E+08        -0.21450E+06         0.00000E+00
   -0.21450E+06        -0.59977E+08         0.00000E+00
    0.00000E+00         0.00000E+00        -0.65233E+08
 
   -0.47936E+08        -0.88407E+05         0.00000E+00
   -0.88407E+05        -0.60305E+08         0.00000E+00
    0.00000E+00         0.00000E+00        -0.67930E+08
 
   -0.49236E+08         0.86290E+05         0.00000E+00
    0.86290E+05        -0.60351E+08         0.00000E+00
    0.00000E+00         0.00000E+00        -0.70643E+08
 
   -0.51438E+08        -0.22233E+06         0.00000E+00
   -0.22233E+06        -0.60448E+08         0.00000E+00
    0.00000E+00         0.00000E+00        -0.72374E+08
 
   -0.54977E+08        -0.20538E+06         0.00000E+00
   -0.20538E+06        -0.60822E+08         0.00000E+00
    0.00000E+00         0.00000E+00        -0.72410E+08
 
   -0.57747E+08        -0.35096E+05         0.00000E+00
   -0.35096E+05        -0.61016E+08         0.00000E+00
    0.00000E+00         0.00000E+00        -0.72441E+08
 
   -0.60386E+08         0.13884E+06         0.00000E+00
    0.13884E+06        -0.60889E+08         0.00000E+00
    0.00000E+00         0.00000E+00        -0.72469E+08
 
   -0.63135E+08         0.33243E+06         0.00000E+00
    0.33243E+06        -0.60405E+08         0.00000E+00
    0.00000E+00         0.00000E+00        -0.72493E+08
 
   -0.66232E+08         0.57659E+06         0.00000E+00
    0.57659E+06        -0.59489E+08         0.00000E+00
    0.00000E+00         0.00000E+00        -0.72511E+08
 
   -0.70214E+08         0.10558E+07         0.00000E+00
    0.10558E+07        -0.57896E+08         0.00000E+00
    0.00000E+00         0.00000E+00        -0.72522E+08
 
   -0.44562E+08         0.35338E+06         0.00000E+00
    0.35338E+06        -0.60627E+08         0.00000E+00
    0.00000E+00         0.00000E+00        -0.61210E+08
 
   -0.44879E+08         0.25170E+06         0.00000E+00
    0.25170E+06        -0.61003E+08         0.00000E+00
    0.00000E+00         0.00000E+00        -0.62528E+08
 
   -0.45135E+08         0.51260E+05         0.00000E+00
    0.51260E+05        -0.60937E+08         0.00000E+00
    0.00000E+00         0.00000E+00        -0.63599E+08
 
   -0.45471E+08        -0.15063E+06         0.00000E+00
   -0.15063E+06        -0.60579E+08         0.00000E+00
    0.00000E+00         0.00000E+00        -0.64797E+08
 
   -0.46016E+08        -0.16751E+06         0.00000E+00
   -0.16751E+06        -0.60115E+08         0.00000E+00
    0.00000E+00         0.00000E+00        -0.66328E+08
 
   -0.46801E+08        -0.11946E+06         0.00000E+00
   -0.11946E+06        -0.59640E+08         0.00000E+00
    0.00000E+00         0.00000E+00        -0.68105E+08
 
   -0.47658E+08        -0.85560E+05         0.00000E+00
   -0.85560E+05        -0.59289E+08         0.00000E+00
    0.00000E+00         0.00000E+00        -0.69787E+08
 
   -0.49358E+08        -0.16585E+06         0.00000E+00
   -0.16585E+06        -0.59433E+08         0.00000E+00
    0.00000E+00         0.00000E+00        -0.70469E+08
 
   -0.51865E+08        -0.51597E+06         0.00000E+00
   -0.51597E+06        -0.59793E+08         0.00000E+00
    0.00000E+00         0.00000E+00        -0.70489E+08
 
   -0.54723E+08        -0.40386E+06         0.00000E+00
   -0.40386E+06        -0.59874E+08         0.00000E+00
    0.00000E+00         0.00000E+00        -0.70510E+08
 
   -0.57439E+08        -0.91598E+03         0.00000E+00
   -0.91598E+03        -0.59814E+08         0.00000E+00
    0.00000E+00         0.00000E+00        -0.70530E+08
 
   -0.60040E+08         0.47642E+06         0.00000E+00
    0.47642E+06        -0.59545E+08         0.00000E+00
    0.00000E+00         0.00000E+00        -0.70549E+08
 
   -0.62721E+08         0.10289E+07         0.00000E+00
    0.10289E+07        -0.58982E+08         0.00000E+00
    0.00000E+00         0.00000E+00        -0.70564E+08
 
   -0.65657E+08         0.17404E+07         0.00000E+00
    0.17404E+07        -0.58044E+08         0.00000E+00
    0.00000E+00         0.00000E+00        -0.70575E+08
 
   -0.68898E+08         0.28950E+07         0.00000E+00
    0.28950E+07        -0.56660E+08         0.00000E+00
    0.00000E+00         0.00000E+00        -0.70580E+08
 
   -0.44412E+08        -0.66207E+05         0.00000E+00
   -0.66207E+05        -0.60545E+08         0.00000E+00
    0.00000E+00         0.00000E+00        -0.65270E+08
 
   -0.44838E+08         0.11896E+06         0.00000E+00
    0.11896E+06        -0.60538E+08         0.00000E+00
    0.00000E+00         0.00000E+00        -0.66602E+08
 
   -0.45179E+08         0.23401E+06         0.00000E+00
    0.23401E+06        -0.60328E+08         0.00000E+00
    0.00000E+00         0.00000E+00        -0.67499E+08
 
   -0.45530E+08         0.26930E+06         0.00000E+00
    0.26930E+06        -0.59993E+08         0.00000E+00
    0.00000E+00         0.00000E+00        -0.68134E+08
 
   -0.45965E+08         0.17212E+06         0.00000E+00
    0.17212E+06        -0.59684E+08         0.00000E+00
    0.00000E+00         0.00000E+00        -0.68511E+08
 
   -0.46842E+08         0.76854E+05         0.00000E+00
    0.76854E+05        -0.59551E+08         0.00000E+00
    0.00000E+00         0.00000E+00        -0.68566E+08
 
   -0.47925E+08        -0.11798E+06         0.00000E+00
   -0.11798E+06        -0.59626E+08         0.00000E+00
    0.00000E+00         0.00000E+00        -0.68572E+08
 
   -0.49623E+08        -0.44021E+06         0.00000E+00
   -0.44021E+06        -0.59721E+08         0.00000E+00
    0.00000E+00         0.00000E+00        -0.68581E+08
 
   -0.51896E+08        -0.49595E+06         0.00000E+00
   -0.49595E+06        -0.59663E+08         0.00000E+00
    0.00000E+00         0.00000E+00        -0.68591E+08
 
   -0.54384E+08        -0.25703E+06         0.00000E+00
   -0.25703E+06        -0.59453E+08         0.00000E+00
    0.00000E+00         0.00000E+00        -0.68602E+08
 
   -0.56908E+08         0.25554E+06         0.00000E+00
    0.25554E+06        -0.59138E+08         0.00000E+00
    0.00000E+00         0.00000E+00        -0.68614E+08
 
   -0.59405E+08         0.94385E+06         0.00000E+00
    0.94385E+06        -0.58691E+08         0.00000E+00
    0.00000E+00         0.00000E+00        -0.68624E+08
 
   -0.61945E+08         0.17843E+07         0.00000E+00
    0.17843E+07        -0.58036E+08         0.00000E+00
    0.00000E+00         0.00000E+00        -0.68633E+08
 
   -0.64591E+08         0.28568E+07         0.00000E+00
    0.28568E+07        -0.57114E+08         0.00000E+00
    0.00000E+00         0.00000E+00        -0.68638E+08
 
   -0.67293E+08         0.43060E+07         0.00000E+00
    0.43060E+07        -0.55949E+08         0.00000E+00
    0.00000E+00         0.00000E+00        -0.68641E+08
 
   -0.44278E+08        -0.93604E+05         0.00000E+00
   -0.93604E+05        -0.59912E+08         0.00000E+00
    0.00000E+00         0.00000E+00        -0.65985E+08
 
   -0.44716E+08         0.15684E+06         0.00000E+00
    0.15684E+06        -0.59820E+08         0.00000E+00
    0.00000E+00         0.00000E+00        -0.66328E+08
 
   -0.45056E+08         0.30234E+06         0.00000E+00
    0.30234E+06        -0.59842E+08         0.00000E+00
    0.00000E+00         0.00000E+00        -0.66611E+08
 
   -0.45598E+08         0.33755E+06         0.00000E+00
    0.33755E+06        -0.59905E+08         0.00000E+00
    0.00000E+00         0.00000E+00        -0.66670E+08
 
   -0.46160E+08         0.21870E+06         0.00000E+00
    0.21870E+06        -0.59965E+08         0.00000E+00
    0.00000E+00         0.00000E+00        -0.66669E+08
 
   -0.46989E+08         0.36743E+05         0.00000E+00
    0.36743E+05        -0.60006E+08         0.00000E+00
    0.00000E+00         0.00000E+00        -0.66670E+08
 
   -0.48165E+08        -0.16122E+06         0.00000E+00
   -0.16122E+06        -0.60004E+08         0.00000E+00
    0.00000E+00         0.00000E+00        -0.66672E+08
 
   -0.49762E+08        -0.30984E+06         0.00000E+00
   -0.30984E+06        -0.59880E+08         0.00000E+00
    0.00000E+00         0.00000E+00        -0.66675E+08
 
   -0.51747E+08        -0.24564E+06         0.00000E+00
   -0.24564E+06        -0.59613E+08         0.00000E+00
    0.00000E+00         0.00000E+00        -0.66680E+08
 
   -0.53953E+08         0.99153E+05         0.00000E+00
    0.99153E+05        -0.59242E+08         0.00000E+00
    0.00000E+00         0.00000E+00        -0.66684E+08
 
   -0.56242E+08         0.70368E+06         0.00000E+00
    0.70368E+06        -0.58777E+08         0.00000E+00
    0.00000E+00         0.00000E+00        -0.66689E+08
 
   -0.58558E+08         0.15325E+07         0.00000E+00
    0.15325E+07        -0.58208E+08         0.00000E+00
    0.00000E+00         0.00000E+00        -0.66694E+08
 
   -0.60895E+08         0.25741E+07         0.00000E+00
    0.25741E+07        -0.57497E+08         0.00000E+00
    0.00000E+00         0.00000E+00        -0.66697E+08
 
   -0.63250E+08         0.38655E+07         0.00000E+00
    0.38655E+07        -0.56622E+08         0.00000E+00
    0.00000E+00         0.00000E+00        -0.66700E+08
 
   -0.65565E+08         0.54664E+07         0.00000E+00
    0.54664E+07        -0.55607E+08         0.00000E+00
    0.00000E+00         0.00000E+00        -0.66701E+08
 
   -0.44208E+08         0.60986E+05         0.00000E+00
    0.60986E+05        -0.59958E+08         0.00000E+00
    0.00000E+00         0.00000E+00        -0.64606E+08
 
   -0.44502E+08         0.16505E+06         0.00000E+00
    0.16505E+06        -0.59918E+08         0.00000E+00
    0.00000E+00         0.00000E+00        -0.64766E+08
 
   -0.45074E+08         0.22858E+06         0.00000E+00
    0.22858E+06        -0.59954E+08         0.00000E+00
    0.00000E+00         0.00000E+00        -0.64763E+08
 
   -0.45622E+08         0.21021E+06         0.00000E+00
    0.21021E+06        -0.60051E+08         0.00000E+00
    0.00000E+00         0.00000E+00        -0.64759E+08
 
   -0.46290E+08         0.14871E+06         0.00000E+00
    0.14871E+06        -0.60144E+08         0.00000E+00
    0.00000E+00         0.00000E+00        -0.64757E+08
 
   -0.47146E+08         0.31066E+05         0.00000E+00
    0.31066E+05        -0.60170E+08         0.00000E+00
    0.00000E+00         0.00000E+00        -0.64756E+08
 
   -0.48289E+08        -0.68001E+05         0.00000E+00
   -0.68001E+05        -0.60098E+08         0.00000E+00
    0.00000E+00         0.00000E+00        -0.64755E+08
 
   -0.49748E+08        -0.66546E+05         0.00000E+00
   -0.66546E+05        -0.59901E+08         0.00000E+00
    0.00000E+00         0.00000E+00        -0.64755E+08
 
   -0.51491E+08         0.12389E+06         0.00000E+00
    0.12389E+06        -0.59572E+08         0.00000E+00
    0.00000E+00         0.00000E+00        -0.64755E+08
 
   -0.53431E+08         0.56092E+06         0.00000E+00
    0.56092E+06        -0.59133E+08         0.00000E+00
    0.00000E+00         0.00000E+00        -0.64755E+08
 
   -0.55475E+08         0.12528E+07         0.00000E+00
    0.12528E+07        -0.58604E+08         0.00000E+00
    0.00000E+00         0.00000E+00        -0.64755E+08
 
   -0.57565E+08         0.21868E+07         0.00000E+00
    0.21868E+07        -0.57986E+08         0.00000E+00
    0.00000E+00         0.00000E+00        -0.64755E+08
 
   -0.59668E+08         0.33581E+07         0.00000E+00
    0.33581E+07        -0.57269E+08         0.00000E+00
    0.00000E+00         0.00000E+00        -0.64756E+08
 
   -0.61754E+08         0.47785E+07         0.00000E+00
    0.47785E+07        -0.56450E+08         0.00000E+00
    0.00000E+00         0.00000E+00        -0.64756E+08
 
   -0.63772E+08         0.64636E+07         0.00000E+00
    0.64636E+07        -0.55548E+08         0.00000E+00
    0.00000E+00         0.00000E+00        -0.64755E+08
 
   -0.44045E+08         0.10360E+06         0.00000E+00
    0.10360E+06        -0.60019E+08         0.00000E+00
    0.00000E+00         0.00000E+00        -0.62841E+08
 
   -0.44501E+08         0.13183E+06         0.00000E+00
    0.13183E+06        -0.60030E+08         0.00000E+00
    0.00000E+00         0.00000E+00        -0.62839E+08
 
   -0.45054E+08         0.14176E+06         0.00000E+00
    0.14176E+06        -0.60090E+08         0.00000E+00
    0.00000E+00         0.00000E+00        -0.62836E+08
 
   -0.45657E+08         0.12916E+06         0.00000E+00
    0.12916E+06        -0.60162E+08         0.00000E+00
    0.00000E+00         0.00000E+00        -0.62833E+08
 
   -0.46355E+08         0.95270E+05         0.00000E+00
    0.95270E+05        -0.60211E+08         0.00000E+00
    0.00000E+00         0.00000E+00        -0.62830E+08
 
   -0.47213E+08         0.64164E+05         0.00000E+00
    0.64164E+05        -0.60204E+08         0.00000E+00
    0.00000E+00         0.00000E+00        -0.62827E+08
 
   -0.48286E+08         0.80728E+05         0.00000E+00
    0.80728E+05        -0.60100E+08         0.00000E+00
    0.00000E+00         0.00000E+00        -0.62824E+08
 
   -0.49598E+08         0.21244E+06         0.00000E+00
    0.21244E+06        -0.59878E+08         0.00000E+00
    0.00000E+00         0.00000E+00        -0.62820E+08
 
   -0.51127E+08         0.52286E+06         0.00000E+00
    0.52286E+06        -0.59538E+08         0.00000E+00
    0.00000E+00         0.00000E+00        -0.62817E+08
 
   -0.52821E+08         0.10562E+07         0.00000E+00
    0.10562E+07        -0.59093E+08         0.00000E+00
    0.00000E+00         0.00000E+00        -0.62814E+08
 
   -0.54620E+08         0.18312E+07         0.00000E+00
    0.18312E+07        -0.58559E+08         0.00000E+00
    0.00000E+00         0.00000E+00        -0.62811E+08
 
   -0.56470E+08         0.28489E+07         0.00000E+00
    0.28489E+07        -0.57947E+08         0.00000E+00
    0.00000E+00         0.00000E+00        -0.62808E+08
 
   -0.58332E+08         0.41072E+07         0.00000E+00
    0.41072E+07        -0.57261E+08         0.00000E+00
    0.00000E+00         0.00000E+00        -0.62806E+08
 
   -0.60169E+08         0.56055E+07         0.00000E+00
    0.56055E+07        -0.56507E+08         0.00000E+00
    0.00000E+00         0.00000E+00        -0.62804E+08
 
   -0.61940E+08         0.73400E+07         0.00000E+00
    0.73400E+07        -0.55702E+08         0.00000E+00
    0.00000E+00         0.00000E+00        -0.62803E+08
 
   -0.43937E+08         0.55421E+05         0.00000E+00
    0.55421E+05        -0.60025E+08         0.00000E+00
    0.00000E+00         0.00000E+00        -0.60900E+08
 
   -0.44498E+08         0.88033E+05         0.00000E+00
    0.88033E+05        -0.60083E+08         0.00000E+00
    0.00000E+00         0.00000E+00        -0.60898E+08
 
   -0.45059E+08         0.77535E+05         0.00000E+00
    0.77535E+05        -0.60141E+08         0.00000E+00
    0.00000E+00         0.00000E+00        -0.60896E+08
 
   -0.45670E+08         0.71081E+05         0.00000E+00
    0.71081E+05        -0.60197E+08         0.00000E+00
    0.00000E+00         0.00000E+00        -0.60892E+08
 
   -0.46362E+08         0.78901E+05         0.00000E+00
    0.78901E+05        -0.60224E+08         0.00000E+00
    0.00000E+00         0.00000E+00        -0.60888E+08
 
   -0.47181E+08         0.12447E+06         0.00000E+00
    0.12447E+06        -0.60193E+08         0.00000E+00
    0.00000E+00         0.00000E+00        -0.60883E+08
 
   -0.48164E+08         0.24641E+06         0.00000E+00
    0.24641E+06        -0.60076E+08         0.00000E+00
    0.00000E+00         0.00000E+00        -0.60877E+08
 
   -0.49327E+08         0.49288E+06         0.00000E+00
    0.49288E+06        -0.59856E+08         0.00000E+00
    0.00000E+00         0.00000E+00        -0.60872E+08
 
   -0.50659E+08         0.91136E+06         0.00000E+00
    0.91136E+06        -0.59532E+08         0.00000E+00
    0.00000E+00         0.00000E+00        -0.60866E+08
 
   -0.52126E+08         0.15375E+07         0.00000E+00
    0.15375E+07        -0.59113E+08         0.00000E+00
    0.00000E+00         0.00000E+00        -0.60861E+08
 
   -0.53686E+08         0.23911E+07         0.00000E+00
    0.23911E+07        -0.58612E+08         0.00000E+00
    0.00000E+00         0.00000E+00        -0.60855E+08
 
   -0.55298E+08         0.34789E+07         0.00000E+00
    0.34789E+07        -0.58041E+08         0.00000E+00
    0.00000E+00         0.00000E+00        -0.60851E+08
 
   -0.56924E+08         0.48000E+07         0.00000E+00
    0.48000E+07        -0.57409E+08         0.00000E+00
    0.00000E+00         0.00000E+00        -0.60847E+08
 
   -0.58530E+08         0.63494E+07         0.00000E+00
    0.63494E+07        -0.56728E+08         0.00000E+00
    0.00000E+00         0.00000E+00        -0.60844E+08
 
   -0.60083E+08         0.81159E+07         0.00000E+00
    0.81159E+07        -0.56012E+08         0.00000E+00
    0.00000E+00         0.00000E+00        -0.60842E+08
 
   -0.43887E+08         0.11476E+05         0.00000E+00
    0.11476E+05        -0.60020E+08         0.00000E+00
    0.00000E+00         0.00000E+00        -0.58945E+08
 
   -0.44496E+08         0.19001E+05         0.00000E+00
    0.19001E+05        -0.60073E+08         0.00000E+00
    0.00000E+00         0.00000E+00        -0.58943E+08
 
   -0.45065E+08         0.15577E+05         0.00000E+00
    0.15577E+05        -0.60140E+08         0.00000E+00
    0.00000E+00         0.00000E+00        -0.58940E+08
 
   -0.45655E+08         0.27856E+05         0.00000E+00
    0.27856E+05        -0.60191E+08         0.00000E+00
    0.00000E+00         0.00000E+00        -0.58936E+08
 
   -0.46310E+08         0.80028E+05         0.00000E+00
    0.80028E+05        -0.60209E+08         0.00000E+00
    0.00000E+00         0.00000E+00        -0.58931E+08
 
   -0.47062E+08         0.19630E+06         0.00000E+00
    0.19630E+06        -0.60171E+08         0.00000E+00
    0.00000E+00         0.00000E+00        -0.58924E+08
 
   -0.47938E+08         0.40861E+06         0.00000E+00
    0.40861E+06        -0.60058E+08         0.00000E+00
    0.00000E+00         0.00000E+00        -0.58917E+08
 
   -0.48951E+08         0.75383E+06         0.00000E+00
    0.75383E+06        -0.59858E+08         0.00000E+00
    0.00000E+00         0.00000E+00        -0.58910E+08
 
   -0.50095E+08         0.12676E+07         0.00000E+00
    0.12676E+07        -0.59567E+08         0.00000E+00
    0.00000E+00         0.00000E+00        -0.58902E+08
 
   -0.51348E+08         0.19784E+07         0.00000E+00
    0.19784E+07        -0.59192E+08         0.00000E+00
    0.00000E+00         0.00000E+00        -0.58895E+08
 
   -0.52683E+08         0.29041E+07         0.00000E+00
    0.29041E+07        -0.58743E+08         0.00000E+00
    0.00000E+00         0.00000E+00        -0.58888E+08
 
   -0.54066E+08         0.40525E+07         0.00000E+00
    0.40525E+07        -0.58232E+08         0.00000E+00
    0.00000E+00         0.00000E+00        -0.58881E+08
 
   -0.55466E+08         0.54234E+07         0.00000E+00
    0.54234E+07        -0.57669E+08         0.00000E+00
    0.00000E+00         0.00000E+00        -0.58876E+08
 
   -0.56855E+08         0.70104E+07         0.00000E+00
    0.70104E+07        -0.57066E+08         0.00000E+00
    0.00000E+00         0.00000E+00        -0.58872E+08
 
   -0.58206E+08         0.88007E+07         0.00000E+00
    0.88007E+07        -0.56436E+08         0.00000E+00
    0.00000E+00         0.00000E+00        -0.58870E+08
 
   -0.43897E+08        -0.21623E+05         0.00000E+00
   -0.21623E+05        -0.60015E+08         0.00000E+00
    0.00000E+00         0.00000E+00        -0.56976E+08
 
   -0.44503E+08        -0.46360E+05         0.00000E+00
   -0.46360E+05        -0.60060E+08         0.00000E+00
    0.00000E+00         0.00000E+00        -0.56975E+08
 
   -0.45056E+08        -0.47557E+05         0.00000E+00
   -0.47557E+05        -0.60121E+08         0.00000E+00
    0.00000E+00         0.00000E+00        -0.56971E+08
 
   -0.45609E+08        -0.11104E+05         0.00000E+00
   -0.11104E+05        -0.60172E+08         0.00000E+00
    0.00000E+00         0.00000E+00        -0.56966E+08
 
   -0.46202E+08         0.84475E+05         0.00000E+00
    0.84475E+05        -0.60190E+08         0.00000E+00
    0.00000E+00         0.00000E+00        -0.56959E+08
 
   -0.46867E+08         0.26346E+06         0.00000E+00
    0.26346E+06        -0.60159E+08         0.00000E+00
    0.00000E+00         0.00000E+00        -0.56952E+08
 
   -0.47623E+08         0.55302E+06         0.00000E+00
    0.55302E+06        -0.60063E+08         0.00000E+00
    0.00000E+00         0.00000E+00        -0.56943E+08
 
   -0.48484E+08         0.98221E+06         0.00000E+00
    0.98221E+06        -0.59893E+08         0.00000E+00
    0.00000E+00         0.00000E+00        -0.56934E+08
 
   -0.49445E+08         0.15786E+07         0.00000E+00
    0.15786E+07        -0.59646E+08         0.00000E+00
    0.00000E+00         0.00000E+00        -0.56925E+08
 
   -0.50496E+08         0.23645E+07         0.00000E+00
    0.23645E+07        -0.59326E+08         0.00000E+00
    0.00000E+00         0.00000E+00        -0.56916E+08
 
   -0.51617E+08         0.33549E+07         0.00000E+00
    0.33549E+07        -0.58940E+08         0.00000E+00
    0.00000E+00         0.00000E+00        -0.56908E+08
 
   -0.52782E+08         0.45568E+07         0.00000E+00
    0.45568E+07        -0.58498E+08         0.00000E+00
    0.00000E+00         0.00000E+00        -0.56900E+08
 
   -0.53968E+08         0.59700E+07         0.00000E+00
    0.59700E+07        -0.58011E+08         0.00000E+00
    0.00000E+00         0.00000E+00        -0.56894E+08
 
   -0.55151E+08         0.75881E+07         0.00000E+00
    0.75881E+07        -0.57490E+08         0.00000E+00
    0.00000E+00         0.00000E+00        -0.56889E+08
 
   -0.56313E+08         0.93990E+07         0.00000E+00
    0.93990E+07        -0.56944E+08         0.00000E+00
    0.00000E+00         0.00000E+00        -0.56887E+08
 
   -0.43956E+08        -0.47252E+05         0.00000E+00
   -0.47252E+05        -0.60012E+08         0.00000E+00
    0.00000E+00         0.00000E+00        -0.54993E+08
 
   -0.44525E+08        -0.10276E+06         0.00000E+00
   -0.10276E+06        -0.60050E+08         0.00000E+00
    0.00000E+00         0.00000E+00        -0.54991E+08
 
   -0.45037E+08        -0.10739E+06         0.00000E+00
   -0.10739E+06        -0.60106E+08         0.00000E+00
    0.00000E+00         0.00000E+00        -0.54987E+08
 
   -0.45532E+08        -0.51627E+05         0.00000E+00
   -0.51627E+05        -0.60157E+08         0.00000E+00
    0.00000E+00         0.00000E+00        -0.54981E+08
 
   -0.46045E+08         0.81945E+05         0.00000E+00
    0.81945E+05        -0.60182E+08         0.00000E+00
    0.00000E+00         0.00000E+00        -0.54973E+08
 
   -0.46606E+08         0.31454E+06         0.00000E+00
    0.31454E+06        -0.60167E+08         0.00000E+00
    0.00000E+00         0.00000E+00        -0.54964E+08
 
   -0.47233E+08         0.66924E+06         0.00000E+00
    0.66924E+06        -0.60097E+08         0.00000E+00
    0.00000E+00         0.00000E+00        -0.54954E+08
 
   -0.47938E+08         0.11694E+07         0.00000E+00
    0.11694E+07        -0.59965E+08         0.00000E+00
    0.00000E+00         0.00000E+00        -0.54944E+08
 
   -0.48722E+08         0.18365E+07         0.00000E+00
    0.18365E+07        -0.59768E+08         0.00000E+00
    0.00000E+00         0.00000E+00        -0.54934E+08
 
   -0.49579E+08         0.26881E+07         0.00000E+00
    0.26881E+07        -0.59508E+08         0.00000E+00
    0.00000E+00         0.00000E+00        -0.54923E+08
 
   -0.50494E+08         0.37360E+07         0.00000E+00
    0.37360E+07        -0.59190E+08         0.00000E+00
    0.00000E+00         0.00000E+00        -0.54914E+08
 
   -0.51452E+08         0.49857E+07         0.00000E+00
    0.49857E+07        -0.58823E+08         0.00000E+00
    0.00000E+00         0.00000E+00        -0.54905E+08
 
   -0.52435E+08         0.64367E+07         0.00000E+00
    0.64367E+07        -0.58415E+08         0.00000E+00
    0.00000E+00         0.00000E+00        -0.54898E+08
 
   -0.53423E+08         0.80828E+07         0.00000E+00
    0.80828E+07        -0.57975E+08         0.00000E+00
    0.00000E+00         0.00000E+00        -0.54893E+08
 
   -0.54403E+08         0.99135E+07         0.00000E+00
    0.99135E+07        -0.57511E+08         0.00000E+00
    0.00000E+00         0.00000E+00        -0.54890E+08
 
   -0.44057E+08        -0.68492E+05         0.00000E+00
   -0.68492E+05        -0.60011E+08         0.00000E+00
    0.00000E+00         0.00000E+00        -0.52995E+08
 
   -0.44565E+08        -0.15303E+06         0.00000E+00
   -0.15303E+06        -0.60045E+08         0.00000E+00
    0.00000E+00         0.00000E+00        -0.52993E+08
 
   -0.45012E+08        -0.16577E+06         0.00000E+00
   -0.16577E+06        -0.60099E+08         0.00000E+00
    0.00000E+00         0.00000E+00        -0.52988E+08
 
   -0.45429E+08        -0.97833E+05         0.00000E+00
   -0.97833E+05        -0.60154E+08         0.00000E+00
    0.00000E+00         0.00000E+00        -0.52981E+08
 
   -0.45846E+08         0.65392E+05         0.00000E+00
    0.65392E+05        -0.60193E+08         0.00000E+00
    0.00000E+00         0.00000E+00        -0.52972E+08
 
   -0.46291E+08         0.34173E+06         0.00000E+00
    0.34173E+06        -0.60199E+08         0.00000E+00
    0.00000E+00         0.00000E+00        -0.52962E+08
 
   -0.46780E+08         0.75026E+06         0.00000E+00
    0.75026E+06        -0.60162E+08         0.00000E+00
    0.00000E+00         0.00000E+00        -0.52951E+08
 
   -0.47327E+08         0.13097E+07         0.00000E+00
    0.13097E+07        -0.60073E+08         0.00000E+00
    0.00000E+00         0.00000E+00        -0.52939E+08
 
   -0.47935E+08         0.20370E+07         0.00000E+00
    0.20370E+07        -0.59930E+08         0.00000E+00
    0.00000E+00         0.00000E+00        -0.52928E+08
 
   -0.48603E+08         0.29455E+07         0.00000E+00
    0.29455E+07        -0.59732E+08         0.00000E+00
    0.00000E+00         0.00000E+00        -0.52916E+08
 
   -0.49322E+08         0.40442E+07         0.00000E+00
    0.40442E+07        -0.59485E+08         0.00000E+00
    0.00000E+00         0.00000E+00        -0.52905E+08
 
   -0.50082E+08         0.53370E+07         0.00000E+00
    0.53370E+07        -0.59193E+08         0.00000E+00
    0.00000E+00         0.00000E+00        -0.52896E+08
 
   -0.50870E+08         0.68227E+07         0.00000E+00
    0.68227E+07        -0.58863E+08         0.00000E+00
    0.00000E+00         0.00000E+00        -0.52888E+08
 
   -0.51672E+08         0.84955E+07         0.00000E+00
    0.84955E+07        -0.58504E+08         0.00000E+00
    0.00000E+00         0.00000E+00        -0.52883E+08
 
   -0.52477E+08         0.10346E+08         0.00000E+00
    0.10346E+08        -0.58122E+08         0.00000E+00
    0.00000E+00         0.00000E+00        -0.52880E+08
 
   -0.44194E+08        -0.88011E+05         0.00000E+00
   -0.88011E+05        -0.60010E+08         0.00000E+00
    0.00000E+00         0.00000E+00        -0.50982E+08
 
   -0.44625E+08        -0.20186E+06         0.00000E+00
   -0.20186E+06        -0.60045E+08         0.00000E+00
    0.00000E+00         0.00000E+00        -0.50979E+08
 
   -0.44988E+08        -0.22733E+06         0.00000E+00
   -0.22733E+06        -0.60103E+08         0.00000E+00
    0.00000E+00         0.00000E+00        -0.50973E+08
 
   -0.45309E+08        -0.15459E+06         0.00000E+00
   -0.15459E+06        -0.60167E+08         0.00000E+00
    0.00000E+00         0.00000E+00        -0.50965E+08
 
   -0.45615E+08         0.29406E+05         0.00000E+00
    0.29406E+05        -0.60223E+08         0.00000E+00
    0.00000E+00         0.00000E+00        -0.50956E+08
 
   -0.45931E+08         0.33960E+06         0.00000E+00
    0.33960E+06        -0.60256E+08         0.00000E+00
    0.00000E+00         0.00000E+00        -0.50944E+08
 
   -0.46275E+08         0.79152E+06         0.00000E+00
    0.79152E+06        -0.60255E+08         0.00000E+00
    0.00000E+00         0.00000E+00        -0.50932E+08
 
   -0.46660E+08         0.14000E+07         0.00000E+00
    0.14000E+07        -0.60212E+08         0.00000E+00
    0.00000E+00         0.00000E+00        -0.50919E+08
 
   -0.47094E+08         0.21780E+07         0.00000E+00
    0.21780E+07        -0.60125E+08         0.00000E+00
    0.00000E+00         0.00000E+00        -0.50906E+08
 
   -0.47577E+08         0.31356E+07         0.00000E+00
    0.31356E+07        -0.59991E+08         0.00000E+00
    0.00000E+00         0.00000E+00        -0.50894E+08
 
   -0.48106E+08         0.42792E+07         0.00000E+00
    0.42792E+07        -0.59813E+08         0.00000E+00
    0.00000E+00         0.00000E+00        -0.50882E+08
 
   -0.48675E+08         0.56110E+07         0.00000E+00
    0.56110E+07        -0.59596E+08         0.00000E+00
    0.00000E+00         0.00000E+00        -0.50872E+08
 
   -0.49275E+08         0.71291E+07         0.00000E+00
    0.71291E+07        -0.59345E+08         0.00000E+00
    0.00000E+00         0.00000E+00        -0.50864E+08
 
   -0.49897E+08         0.88279E+07         0.00000E+00
    0.88279E+07        -0.59065E+08         0.00000E+00
    0.00000E+00         0.00000E+00        -0.50858E+08
 
   -0.50533E+08         0.10699E+08         0.00000E+00
    0.10699E+08        -0.58762E+08         0.00000E+00
    0.00000E+00         0.00000E+00        -0.50855E+08
 
   -0.44369E+08        -0.10806E+06         0.00000E+00
   -0.10806E+06        -0.60011E+08         0.00000E+00
    0.00000E+00         0.00000E+00        -0.48952E+08
 
   -0.44709E+08        -0.25393E+06         0.00000E+00
   -0.25393E+06        -0.60049E+08         0.00000E+00
    0.00000E+00         0.00000E+00        -0.48949E+08
 
   -0.44971E+08        -0.29728E+06         0.00000E+00
   -0.29728E+06        -0.60115E+08         0.00000E+00
    0.00000E+00         0.00000E+00        -0.48943E+08
 
   -0.45179E+08        -0.22686E+06         0.00000E+00
   -0.22686E+06        -0.60194E+08         0.00000E+00
    0.00000E+00         0.00000E+00        -0.48934E+08
 
   -0.45361E+08        -0.30549E+05         0.00000E+00
   -0.30549E+05        -0.60271E+08         0.00000E+00
    0.00000E+00         0.00000E+00        -0.48923E+08
 
   -0.45537E+08         0.30431E+06         0.00000E+00
    0.30431E+06        -0.60334E+08         0.00000E+00
    0.00000E+00         0.00000E+00        -0.48910E+08
 
   -0.45728E+08         0.79017E+06         0.00000E+00
    0.79017E+06        -0.60373E+08         0.00000E+00
    0.00000E+00         0.00000E+00        -0.48897E+08
 
   -0.45948E+08         0.14385E+07         0.00000E+00
    0.14385E+07        -0.60378E+08         0.00000E+00
    0.00000E+00         0.00000E+00        -0.48883E+08
 
   -0.46206E+08         0.22589E+07         0.00000E+00
    0.22589E+07        -0.60346E+08         0.00000E+00
    0.00000E+00         0.00000E+00        -0.48869E+08
 
   -0.46506E+08         0.32587E+07         0.00000E+00
    0.32587E+07        -0.60276E+08         0.00000E+00
    0.00000E+00         0.00000E+00        -0.48855E+08
 
   -0.46849E+08         0.44418E+07         0.00000E+00
    0.44418E+07        -0.60167E+08         0.00000E+00
    0.00000E+00         0.00000E+00        -0.48843E+08
 
   -0.47233E+08         0.58090E+07         0.00000E+00
    0.58090E+07        -0.60023E+08         0.00000E+00
    0.00000E+00         0.00000E+00        -0.48832E+08
 
   -0.47651E+08         0.73576E+07         0.00000E+00
    0.73576E+07        -0.59848E+08         0.00000E+00
    0.00000E+00         0.00000E+00        -0.48823E+08
 
   -0.48100E+08         0.90818E+07         0.00000E+00
    0.90818E+07        -0.59645E+08         0.00000E+00
    0.00000E+00         0.00000E+00        -0.48817E+08
 
   -0.48572E+08         0.10973E+08         0.00000E+00
    0.10973E+08        -0.59419E+08         0.00000E+00
    0.00000E+00         0.00000E+00        -0.48813E+08
 
   -0.44583E+08        -0.13047E+06         0.00000E+00
   -0.13047E+06        -0.60013E+08         0.00000E+00
    0.00000E+00         0.00000E+00        -0.46906E+08
 
   -0.44820E+08        -0.31325E+06         0.00000E+00
   -0.31325E+06        -0.60057E+08         0.00000E+00
    0.00000E+00         0.00000E+00        -0.46902E+08
 
   -0.44967E+08        -0.38026E+06         0.00000E+00
   -0.38026E+06        -0.60135E+08         0.00000E+00
    0.00000E+00         0.00000E+00        -0.46895E+08
 
   -0.45049E+08        -0.31902E+06         0.00000E+00
   -0.31902E+06        -0.60232E+08         0.00000E+00
    0.00000E+00         0.00000E+00        -0.46885E+08
 
   -0.45091E+08        -0.11809E+06         0.00000E+00
   -0.11809E+06        -0.60335E+08         0.00000E+00
    0.00000E+00         0.00000E+00        -0.46873E+08
 
   -0.45117E+08         0.23324E+06         0.00000E+00
    0.23324E+06        -0.60431E+08         0.00000E+00
    0.00000E+00         0.00000E+00        -0.46860E+08
 
   -0.45148E+08         0.74472E+06         0.00000E+00
    0.74472E+06        -0.60509E+08         0.00000E+00
    0.00000E+00         0.00000E+00        -0.46845E+08
 
   -0.45198E+08         0.14248E+07         0.00000E+00
    0.14248E+07        -0.60563E+08         0.00000E+00
    0.00000E+00         0.00000E+00        -0.46830E+08
 
   -0.45278E+08         0.22804E+07         0.00000E+00
    0.22804E+07        -0.60586E+08         0.00000E+00
    0.00000E+00         0.00000E+00        -0.46814E+08
 
   -0.45397E+08         0.33161E+07         0.00000E+00
    0.33161E+07        -0.60578E+08         0.00000E+00
    0.00000E+00         0.00000E+00        -0.46800E+08
 
   -0.45557E+08         0.45339E+07         0.00000E+00
    0.45339E+07        -0.60536E+08         0.00000E+00
    0.00000E+00         0.00000E+00        -0.46786E+08
 
   -0.45759E+08         0.59332E+07         0.00000E+00
    0.59332E+07        -0.60463E+08         0.00000E+00
    0.00000E+00         0.00000E+00        -0.46775E+08
 
   -0.46001E+08         0.75104E+07         0.00000E+00
    0.75104E+07        -0.60361E+08         0.00000E+00
    0.00000E+00         0.00000E+00        -0.46765E+08
 
   -0.46279E+08         0.92594E+07         0.00000E+00
    0.92594E+07        -0.60233E+08         0.00000E+00
    0.00000E+00         0.00000E+00        -0.46759E+08
 
   -0.46591E+08         0.11172E+08         0.00000E+00
    0.11172E+08        -0.60083E+08         0.00000E+00
    0.00000E+00         0.00000E+00        -0.46755E+08
 
   -0.44843E+08        -0.15663E+06         0.00000E+00
   -0.15663E+06        -0.60015E+08         0.00000E+00
    0.00000E+00         0.00000E+00        -0.44842E+08
 
   -0.44965E+08        -0.38296E+06         0.00000E+00
   -0.38296E+06        -0.60067E+08         0.00000E+00
    0.00000E+00         0.00000E+00        -0.44838E+08
 
   -0.44983E+08        -0.47995E+06         0.00000E+00
   -0.47995E+06        -0.60160E+08         0.00000E+00
    0.00000E+00         0.00000E+00        -0.44830E+08
 
   -0.44923E+08        -0.43441E+06         0.00000E+00
   -0.43441E+06        -0.60278E+08         0.00000E+00
    0.00000E+00         0.00000E+00        -0.44819E+08
 
   -0.44814E+08        -0.23569E+06         0.00000E+00
   -0.23569E+06        -0.60408E+08         0.00000E+00
    0.00000E+00         0.00000E+00        -0.44806E+08
 
   -0.44680E+08         0.12498E+06         0.00000E+00
    0.12498E+06        -0.60539E+08         0.00000E+00
    0.00000E+00         0.00000E+00        -0.44791E+08
 
   -0.44542E+08         0.65487E+06         0.00000E+00
    0.65487E+06        -0.60658E+08         0.00000E+00
    0.00000E+00         0.00000E+00        -0.44775E+08
 
   -0.44417E+08         0.13598E+07         0.00000E+00
    0.13598E+07        -0.60759E+08         0.00000E+00
    0.00000E+00         0.00000E+00        -0.44759E+08
 
   -0.44318E+08         0.22440E+07         0.00000E+00
    0.22440E+07        -0.60836E+08         0.00000E+00
    0.00000E+00         0.00000E+00        -0.44742E+08
 
   -0.44255E+08         0.33099E+07         0.00000E+00
    0.33099E+07        -0.60887E+08         0.00000E+00
    0.00000E+00         0.00000E+00        -0.44727E+08
 
   -0.44234E+08         0.45579E+07         0.00000E+00
    0.45579E+07        -0.60910E+08         0.00000E+00
    0.00000E+00         0.00000E+00        -0.44713E+08
 
   -0.44256E+08         0.59859E+07         0.00000E+00
    0.59859E+07        -0.60906E+08         0.00000E+00
    0.00000E+00         0.00000E+00        -0.44700E+08
 
   -0.44324E+08         0.75897E+07         0.00000E+00
    0.75897E+07        -0.60875E+08         0.00000E+00
    0.00000E+00         0.00000E+00        -0.44690E+08
 
   -0.44436E+08         0.93626E+07         0.00000E+00
    0.93626E+07        -0.60820E+08         0.00000E+00
    0.00000E+00         0.00000E+00        -0.44683E+08
 
   -0.44591E+08         0.11296E+08         0.00000E+00
    0.11296E+08        -0.60742E+08         0.00000E+00
    0.00000E+00         0.00000E+00        -0.44680E+08
 
   -0.45157E+08        -0.18754E+06         0.00000E+00
   -0.18754E+06        -0.60018E+08         0.00000E+00
    0.00000E+00         0.00000E+00        -0.42759E+08
 
   -0.45151E+08        -0.46530E+06         0.00000E+00
   -0.46530E+06        -0.60079E+08         0.00000E+00
    0.00000E+00         0.00000E+00        -0.42755E+08
 
   -0.45024E+08        -0.59885E+06         0.00000E+00
   -0.59885E+06        -0.60188E+08         0.00000E+00
    0.00000E+00         0.00000E+00        -0.42747E+08
 
   -0.44810E+08        -0.57503E+06         0.00000E+00
   -0.57503E+06        -0.60329E+08         0.00000E+00
    0.00000E+00         0.00000E+00        -0.42735E+08
 
   -0.44537E+08        -0.38447E+06         0.00000E+00
   -0.38447E+06        -0.60488E+08         0.00000E+00
    0.00000E+00         0.00000E+00        -0.42721E+08
 
   -0.44232E+08        -0.20484E+05         0.00000E+00
   -0.20484E+05        -0.60652E+08         0.00000E+00
    0.00000E+00         0.00000E+00        -0.42704E+08
 
   -0.43917E+08         0.52165E+06         0.00000E+00
    0.52165E+06        -0.60811E+08         0.00000E+00
    0.00000E+00         0.00000E+00        -0.42687E+08
 
   -0.43612E+08         0.12452E+07         0.00000E+00
    0.12452E+07        -0.60957E+08         0.00000E+00
    0.00000E+00         0.00000E+00        -0.42669E+08
 
   -0.43331E+08         0.21521E+07         0.00000E+00
    0.21521E+07        -0.61086E+08         0.00000E+00
    0.00000E+00         0.00000E+00        -0.42652E+08
 
   -0.43085E+08         0.32428E+07         0.00000E+00
    0.32428E+07        -0.61193E+08         0.00000E+00
    0.00000E+00         0.00000E+00        -0.42635E+08
 
   -0.42882E+08         0.45164E+07         0.00000E+00
    0.45164E+07        -0.61278E+08         0.00000E+00
    0.00000E+00         0.00000E+00        -0.42620E+08
 
   -0.42727E+08         0.59698E+07         0.00000E+00
    0.59698E+07        -0.61339E+08         0.00000E+00
    0.00000E+00         0.00000E+00        -0.42607E+08
 
   -0.42623E+08         0.75979E+07         0.00000E+00
    0.75979E+07        -0.61377E+08         0.00000E+00
    0.00000E+00         0.00000E+00        -0.42597E+08
 
   -0.42571E+08         0.93935E+07         0.00000E+00
    0.93935E+07        -0.61393E+08         0.00000E+00
    0.00000E+00         0.00000E+00        -0.42589E+08
 
   -0.42571E+08         0.11348E+08         0.00000E+00
    0.11348E+08        -0.61387E+08         0.00000E+00
    0.00000E+00         0.00000E+00        -0.42586E+08
 
   -0.45535E+08        -0.22384E+06         0.00000E+00
   -0.22384E+06        -0.60020E+08         0.00000E+00
    0.00000E+00         0.00000E+00        -0.40658E+08
 
   -0.45384E+08        -0.56158E+06         0.00000E+00
   -0.56158E+06        -0.60092E+08         0.00000E+00
    0.00000E+00         0.00000E+00        -0.40653E+08
 
   -0.45098E+08        -0.73818E+06         0.00000E+00
   -0.73818E+06        -0.60218E+08         0.00000E+00
    0.00000E+00         0.00000E+00        -0.40644E+08
 
   -0.44714E+08        -0.74143E+06         0.00000E+00
   -0.74143E+06        -0.60382E+08         0.00000E+00
    0.00000E+00         0.00000E+00        -0.40631E+08
 
   -0.44264E+08        -0.56391E+06         0.00000E+00
   -0.56391E+06        -0.60569E+08         0.00000E+00
    0.00000E+00         0.00000E+00        -0.40616E+08
 
   -0.43777E+08        -0.20154E+06         0.00000E+00
   -0.20154E+06        -0.60765E+08         0.00000E+00
    0.00000E+00         0.00000E+00        -0.40599E+08
 
   -0.43279E+08         0.34763E+06         0.00000E+00
    0.34763E+06        -0.60960E+08         0.00000E+00
    0.00000E+00         0.00000E+00        -0.40580E+08
 
   -0.42790E+08         0.10842E+07         0.00000E+00
    0.10842E+07        -0.61148E+08         0.00000E+00
    0.00000E+00         0.00000E+00        -0.40561E+08
 
   -0.42323E+08         0.20081E+07         0.00000E+00
    0.20081E+07        -0.61323E+08         0.00000E+00
    0.00000E+00         0.00000E+00        -0.40542E+08
 
   -0.41893E+08         0.31182E+07         0.00000E+00
    0.31182E+07        -0.61483E+08         0.00000E+00
    0.00000E+00         0.00000E+00        -0.40525E+08
 
   -0.41508E+08         0.44125E+07         0.00000E+00
    0.44125E+07        -0.61626E+08         0.00000E+00
    0.00000E+00         0.00000E+00        -0.40509E+08
 
   -0.41175E+08         0.58873E+07         0.00000E+00
    0.58873E+07        -0.61751E+08         0.00000E+00
    0.00000E+00         0.00000E+00        -0.40495E+08
 
   -0.40899E+08         0.75369E+07         0.00000E+00
    0.75369E+07        -0.61856E+08         0.00000E+00
    0.00000E+00         0.00000E+00        -0.40484E+08
 
   -0.40685E+08         0.93536E+07         0.00000E+00
    0.93536E+07        -0.61941E+08         0.00000E+00
    0.00000E+00         0.00000E+00        -0.40476E+08
 
   -0.40532E+08         0.11328E+08         0.00000E+00
    0.11328E+08        -0.62005E+08         0.00000E+00
    0.00000E+00         0.00000E+00        -0.40472E+08
 
   -0.45986E+08        -0.26585E+06         0.00000E+00
   -0.26585E+06        -0.60023E+08         0.00000E+00
    0.00000E+00         0.00000E+00        -0.38537E+08
 
   -0.45672E+08        -0.67221E+06         0.00000E+00
   -0.67221E+06        -0.60105E+08         0.00000E+00
    0.00000E+00         0.00000E+00        -0.38532E+08
 
   -0.45209E+08        -0.89781E+06         0.00000E+00
   -0.89781E+06        -0.60248E+08         0.00000E+00
    0.00000E+00         0.00000E+00        -0.38522E+08
 
   -0.44639E+08        -0.93246E+06         0.00000E+00
   -0.93246E+06        -0.60434E+08         0.00000E+00
    0.00000E+00         0.00000E+00        -0.38508E+08
 
   -0.43999E+08        -0.77166E+06         0.00000E+00
   -0.77166E+06        -0.60645E+08         0.00000E+00
    0.00000E+00         0.00000E+00        -0.38491E+08
 
   -0.43322E+08        -0.41465E+06         0.00000E+00
   -0.41465E+06        -0.60869E+08         0.00000E+00
    0.00000E+00         0.00000E+00        -0.38473E+08
 
   -0.42634E+08         0.13723E+06         0.00000E+00
    0.13723E+06        -0.61096E+08         0.00000E+00
    0.00000E+00         0.00000E+00        -0.38453E+08
 
   -0.41954E+08         0.88178E+06         0.00000E+00
    0.88178E+06        -0.61319E+08         0.00000E+00
    0.00000E+00         0.00000E+00        -0.38433E+08
 
   -0.41300E+08         0.18167E+07         0.00000E+00
    0.18167E+07        -0.61536E+08         0.00000E+00
    0.00000E+00         0.00000E+00        -0.38413E+08
 
   -0.40683E+08         0.29400E+07         0.00000E+00
    0.29400E+07        -0.61744E+08         0.00000E+00
    0.00000E+00         0.00000E+00        -0.38394E+08
 
   -0.40115E+08         0.42491E+07         0.00000E+00
    0.42491E+07        -0.61941E+08         0.00000E+00
    0.00000E+00         0.00000E+00        -0.38377E+08
 
   -0.39603E+08         0.57406E+07         0.00000E+00
    0.57406E+07        -0.62127E+08         0.00000E+00
    0.00000E+00         0.00000E+00        -0.38363E+08
 
   -0.39156E+08         0.74084E+07         0.00000E+00
    0.74084E+07        -0.62297E+08         0.00000E+00
    0.00000E+00         0.00000E+00        -0.38352E+08
 
   -0.38778E+08         0.92440E+07         0.00000E+00
    0.92440E+07        -0.62450E+08         0.00000E+00
    0.00000E+00         0.00000E+00        -0.38343E+08
 
   -0.38473E+08         0.11238E+08         0.00000E+00
    0.11238E+08        -0.62585E+08         0.00000E+00
    0.00000E+00         0.00000E+00        -0.38339E+08
 
   -0.46521E+08        -0.31357E+06         0.00000E+00
   -0.31357E+06        -0.60026E+08         0.00000E+00
    0.00000E+00         0.00000E+00        -0.36396E+08
 
   -0.46022E+08        -0.79675E+06         0.00000E+00
   -0.79675E+06        -0.60117E+08         0.00000E+00
    0.00000E+00         0.00000E+00        -0.36390E+08
 
   -0.45362E+08        -0.10762E+07         0.00000E+00
   -0.10762E+07        -0.60276E+08         0.00000E+00
    0.00000E+00         0.00000E+00        -0.36379E+08
 
   -0.44589E+08        -0.11451E+07         0.00000E+00
   -0.11451E+07        -0.60480E+08         0.00000E+00
    0.00000E+00         0.00000E+00        -0.36364E+08
 
   -0.43747E+08        -0.10032E+07         0.00000E+00
   -0.10032E+07        -0.60711E+08         0.00000E+00
    0.00000E+00         0.00000E+00        -0.36346E+08
 
   -0.42870E+08        -0.65394E+06         0.00000E+00
   -0.65394E+06        -0.60957E+08         0.00000E+00
    0.00000E+00         0.00000E+00        -0.36326E+08
 
   -0.41985E+08        -0.10284E+06         0.00000E+00
   -0.10284E+06        -0.61207E+08         0.00000E+00
    0.00000E+00         0.00000E+00        -0.36305E+08
 
   -0.41112E+08         0.64474E+06         0.00000E+00
    0.64474E+06        -0.61458E+08         0.00000E+00
    0.00000E+00         0.00000E+00        -0.36284E+08
 
   -0.40268E+08         0.15844E+07         0.00000E+00
    0.15844E+07        -0.61709E+08         0.00000E+00
    0.00000E+00         0.00000E+00        -0.36263E+08
 
   -0.39464E+08         0.27133E+07         0.00000E+00
    0.27133E+07        -0.61958E+08         0.00000E+00
    0.00000E+00         0.00000E+00        -0.36243E+08
 
   -0.38710E+08         0.40294E+07         0.00000E+00
    0.40294E+07        -0.62205E+08         0.00000E+00
    0.00000E+00         0.00000E+00        -0.36226E+08
 
   -0.38016E+08         0.55309E+07         0.00000E+00
    0.55309E+07        -0.62449E+08         0.00000E+00
    0.00000E+00         0.00000E+00        -0.36211E+08
 
   -0.37395E+08         0.72127E+07         0.00000E+00
    0.72127E+07        -0.62685E+08         0.00000E+00
    0.00000E+00         0.00000E+00        -0.36199E+08
 
   -0.36854E+08         0.90648E+07         0.00000E+00
    0.90648E+07        -0.62907E+08         0.00000E+00
    0.00000E+00         0.00000E+00        -0.36190E+08
 
   -0.36394E+08         0.11076E+08         0.00000E+00
    0.11076E+08        -0.63113E+08         0.00000E+00
    0.00000E+00         0.00000E+00        -0.36186E+08
 
   -0.47151E+08        -0.36676E+06         0.00000E+00
   -0.36676E+06        -0.60029E+08         0.00000E+00
    0.00000E+00         0.00000E+00        -0.34232E+08
 
   -0.46440E+08        -0.93384E+06         0.00000E+00
   -0.93384E+06        -0.60128E+08         0.00000E+00
    0.00000E+00         0.00000E+00        -0.34226E+08
 
   -0.45559E+08        -0.12703E+07         0.00000E+00
   -0.12703E+07        -0.60299E+08         0.00000E+00
    0.00000E+00         0.00000E+00        -0.34214E+08
 
   -0.44566E+08        -0.13744E+07         0.00000E+00
   -0.13744E+07        -0.60517E+08         0.00000E+00
    0.00000E+00         0.00000E+00        -0.34198E+08
 
   -0.43507E+08        -0.12514E+07         0.00000E+00
   -0.12514E+07        -0.60761E+08         0.00000E+00
    0.00000E+00         0.00000E+00        -0.34179E+08
 
   -0.42421E+08        -0.91082E+06         0.00000E+00
   -0.91082E+06        -0.61018E+08         0.00000E+00
    0.00000E+00         0.00000E+00        -0.34158E+08
 
   -0.41336E+08        -0.36309E+06         0.00000E+00
   -0.36309E+06        -0.61282E+08         0.00000E+00
    0.00000E+00         0.00000E+00        -0.34136E+08
 
   -0.40269E+08         0.38264E+06         0.00000E+00
    0.38264E+06        -0.61550E+08         0.00000E+00
    0.00000E+00         0.00000E+00        -0.34113E+08
 
   -0.39235E+08         0.13198E+07         0.00000E+00
    0.13198E+07        -0.61823E+08         0.00000E+00
    0.00000E+00         0.00000E+00        -0.34091E+08
 
   -0.38243E+08         0.24449E+07         0.00000E+00
    0.24449E+07        -0.62104E+08         0.00000E+00
    0.00000E+00         0.00000E+00        -0.34071E+08
 
   -0.37302E+08         0.37573E+07         0.00000E+00
    0.37573E+07        -0.62395E+08         0.00000E+00
    0.00000E+00         0.00000E+00        -0.34053E+08
 
   -0.36422E+08         0.52580E+07         0.00000E+00
    0.52580E+07        -0.62696E+08         0.00000E+00
    0.00000E+00         0.00000E+00        -0.34037E+08
 
   -0.35621E+08         0.69470E+07         0.00000E+00
    0.69470E+07        -0.63001E+08         0.00000E+00
    0.00000E+00         0.00000E+00        -0.34025E+08
 
   -0.34913E+08         0.88142E+07         0.00000E+00
    0.88142E+07        -0.63297E+08         0.00000E+00
    0.00000E+00         0.00000E+00        -0.34016E+08
 
   -0.34297E+08         0.10841E+08         0.00000E+00
    0.10841E+08        -0.63579E+08         0.00000E+00
    0.00000E+00         0.00000E+00        -0.34012E+08
 
   -0.47883E+08        -0.42491E+06         0.00000E+00
   -0.42491E+06        -0.60031E+08         0.00000E+00
    0.00000E+00         0.00000E+00        -0.32047E+08
 
   -0.46929E+08        -0.10812E+07         0.00000E+00
   -0.10812E+07        -0.60137E+08         0.00000E+00
    0.00000E+00         0.00000E+00        -0.32040E+08
 
   -0.45801E+08        -0.14754E+07         0.00000E+00
   -0.14754E+07        -0.60317E+08         0.00000E+00
    0.00000E+00         0.00000E+00        -0.32027E+08
 
   -0.44567E+08        -0.16126E+07         0.00000E+00
   -0.16126E+07        -0.60540E+08         0.00000E+00
    0.00000E+00         0.00000E+00        -0.32010E+08
 
   -0.43280E+08        -0.15062E+07         0.00000E+00
   -0.15062E+07        -0.60786E+08         0.00000E+00
    0.00000E+00         0.00000E+00        -0.31990E+08
 
   -0.41979E+08        -0.11734E+07         0.00000E+00
   -0.11734E+07        -0.61043E+08         0.00000E+00
    0.00000E+00         0.00000E+00        -0.31967E+08
 
   -0.40691E+08        -0.63084E+06         0.00000E+00
   -0.63084E+06        -0.61306E+08         0.00000E+00
    0.00000E+00         0.00000E+00        -0.31944E+08
 
   -0.39432E+08         0.10805E+06         0.00000E+00
    0.10805E+06        -0.61576E+08         0.00000E+00
    0.00000E+00         0.00000E+00        -0.31921E+08
 
   -0.38210E+08         0.10344E+07         0.00000E+00
    0.10344E+07        -0.61859E+08         0.00000E+00
    0.00000E+00         0.00000E+00        -0.31898E+08
 
   -0.37033E+08         0.21444E+07         0.00000E+00
    0.21444E+07        -0.62160E+08         0.00000E+00
    0.00000E+00         0.00000E+00        -0.31878E+08
 
   -0.35905E+08         0.34389E+07         0.00000E+00
    0.34389E+07        -0.62485E+08         0.00000E+00
    0.00000E+00         0.00000E+00        -0.31859E+08
 
   -0.34835E+08         0.49222E+07         0.00000E+00
    0.49222E+07        -0.62837E+08         0.00000E+00
    0.00000E+00         0.00000E+00        -0.31843E+08
 
   -0.33840E+08         0.66017E+07         0.00000E+00
    0.66017E+07        -0.63213E+08         0.00000E+00
    0.00000E+00         0.00000E+00        -0.31830E+08
 
   -0.32958E+08         0.84796E+07         0.00000E+00
    0.84796E+07        -0.63601E+08         0.00000E+00
    0.00000E+00         0.00000E+00        -0.31822E+08
 
   -0.32184E+08         0.10520E+08         0.00000E+00
    0.10520E+08        -0.63990E+08         0.00000E+00
    0.00000E+00         0.00000E+00        -0.31817E+08
 
   -0.48725E+08        -0.48728E+06         0.00000E+00
   -0.48728E+06        -0.60033E+08         0.00000E+00
    0.00000E+00         0.00000E+00        -0.29838E+08
 
   -0.47491E+08        -0.12356E+07         0.00000E+00
   -0.12356E+07        -0.60143E+08         0.00000E+00
    0.00000E+00         0.00000E+00        -0.29830E+08
 
   -0.46086E+08        -0.16845E+07         0.00000E+00
   -0.16845E+07        -0.60325E+08         0.00000E+00
    0.00000E+00         0.00000E+00        -0.29817E+08
 
   -0.44590E+08        -0.18492E+07         0.00000E+00
   -0.18492E+07        -0.60545E+08         0.00000E+00
    0.00000E+00         0.00000E+00        -0.29799E+08
 
   -0.43062E+08        -0.17541E+07         0.00000E+00
   -0.17541E+07        -0.60779E+08         0.00000E+00
    0.00000E+00         0.00000E+00        -0.29777E+08
 
   -0.41542E+08        -0.14263E+07         0.00000E+00
   -0.14263E+07        -0.61018E+08         0.00000E+00
    0.00000E+00         0.00000E+00        -0.29754E+08
 
   -0.40053E+08        -0.88985E+06         0.00000E+00
   -0.88985E+06        -0.61262E+08         0.00000E+00
    0.00000E+00         0.00000E+00        -0.29730E+08
 
   -0.38606E+08        -0.16321E+06         0.00000E+00
   -0.16321E+06        -0.61517E+08         0.00000E+00
    0.00000E+00         0.00000E+00        -0.29706E+08
 
   -0.37204E+08         0.74264E+06         0.00000E+00
    0.74264E+06        -0.61793E+08         0.00000E+00
    0.00000E+00         0.00000E+00        -0.29683E+08
 
   -0.35847E+08         0.18241E+07         0.00000E+00
    0.18241E+07        -0.62100E+08         0.00000E+00
    0.00000E+00         0.00000E+00        -0.29662E+08
 
   -0.34534E+08         0.30844E+07         0.00000E+00
    0.30844E+07        -0.62446E+08         0.00000E+00
    0.00000E+00         0.00000E+00        -0.29643E+08
 
   -0.33273E+08         0.45314E+07         0.00000E+00
    0.45314E+07        -0.62837E+08         0.00000E+00
    0.00000E+00         0.00000E+00        -0.29627E+08
 
   -0.32075E+08         0.61753E+07         0.00000E+00
    0.61753E+07        -0.63273E+08         0.00000E+00
    0.00000E+00         0.00000E+00        -0.29614E+08
 
   -0.30991E+08         0.80352E+07         0.00000E+00
    0.80352E+07        -0.63744E+08         0.00000E+00
    0.00000E+00         0.00000E+00        -0.29606E+08
 
   -0.30187E+08         0.10016E+08         0.00000E+00
    0.10016E+08        -0.64293E+08         0.00000E+00
    0.00000E+00         0.00000E+00        -0.29745E+08
 
   -0.49683E+08        -0.55291E+06         0.00000E+00
   -0.55291E+06        -0.60034E+08         0.00000E+00
    0.00000E+00         0.00000E+00        -0.27605E+08
 
   -0.48122E+08        -0.13924E+07         0.00000E+00
   -0.13924E+07        -0.60146E+08         0.00000E+00
    0.00000E+00         0.00000E+00        -0.27597E+08
 
   -0.46405E+08        -0.18881E+07         0.00000E+00
   -0.18881E+07        -0.60322E+08         0.00000E+00
    0.00000E+00         0.00000E+00        -0.27582E+08
 
   -0.44625E+08        -0.20698E+07         0.00000E+00
   -0.20698E+07        -0.60523E+08         0.00000E+00
    0.00000E+00         0.00000E+00        -0.27563E+08
 
   -0.42847E+08        -0.19771E+07         0.00000E+00
   -0.19771E+07        -0.60726E+08         0.00000E+00
    0.00000E+00         0.00000E+00        -0.27541E+08
 
   -0.41108E+08        -0.16495E+07         0.00000E+00
   -0.16495E+07        -0.60927E+08         0.00000E+00
    0.00000E+00         0.00000E+00        -0.27517E+08
 
   -0.39426E+08        -0.11202E+07         0.00000E+00
   -0.11202E+07        -0.61131E+08         0.00000E+00
    0.00000E+00         0.00000E+00        -0.27493E+08
 
   -0.37802E+08        -0.41232E+06         0.00000E+00
   -0.41232E+06        -0.61350E+08         0.00000E+00
    0.00000E+00         0.00000E+00        -0.27469E+08
 
   -0.36230E+08         0.46157E+06         0.00000E+00
    0.46157E+06        -0.61599E+08         0.00000E+00
    0.00000E+00         0.00000E+00        -0.27446E+08
 
   -0.34701E+08         0.14989E+07         0.00000E+00
    0.14989E+07        -0.61895E+08         0.00000E+00
    0.00000E+00         0.00000E+00        -0.27425E+08
 
   -0.33209E+08         0.27060E+07         0.00000E+00
    0.27060E+07        -0.62248E+08         0.00000E+00
    0.00000E+00         0.00000E+00        -0.27406E+08
 
   -0.31755E+08         0.40974E+07         0.00000E+00
    0.40974E+07        -0.62668E+08         0.00000E+00
    0.00000E+00         0.00000E+00        -0.27390E+08
 
   -0.30353E+08         0.56907E+07         0.00000E+00
    0.56907E+07        -0.63149E+08         0.00000E+00
    0.00000E+00         0.00000E+00        -0.27377E+08
 
   -0.29000E+08         0.75137E+07         0.00000E+00
    0.75137E+07        -0.63684E+08         0.00000E+00
    0.00000E+00         0.00000E+00        -0.27369E+08
 
   -0.28462E+08         0.93371E+07         0.00000E+00
    0.93371E+07        -0.64304E+08         0.00000E+00
    0.00000E+00         0.00000E+00        -0.27991E+08
 
   -0.50759E+08        -0.62057E+06         0.00000E+00
   -0.62057E+06        -0.60035E+08         0.00000E+00
    0.00000E+00         0.00000E+00        -0.25347E+08
 
   -0.48815E+08        -0.15451E+07         0.00000E+00
   -0.15451E+07        -0.60143E+08         0.00000E+00
    0.00000E+00         0.00000E+00        -0.25338E+08
 
   -0.46746E+08        -0.20728E+07         0.00000E+00
   -0.20728E+07        -0.60301E+08         0.00000E+00
    0.00000E+00         0.00000E+00        -0.25323E+08
 
   -0.44661E+08        -0.22548E+07         0.00000E+00
   -0.22548E+07        -0.60464E+08         0.00000E+00
    0.00000E+00         0.00000E+00        -0.25303E+08
 
   -0.42627E+08        -0.21518E+07         0.00000E+00
   -0.21518E+07        -0.60612E+08         0.00000E+00
    0.00000E+00         0.00000E+00        -0.25281E+08
 
   -0.40677E+08        -0.18191E+07         0.00000E+00
   -0.18191E+07        -0.60748E+08         0.00000E+00
    0.00000E+00         0.00000E+00        -0.25257E+08
 
   -0.38814E+08        -0.12989E+07         0.00000E+00
   -0.12989E+07        -0.60886E+08         0.00000E+00
    0.00000E+00         0.00000E+00        -0.25233E+08
 
   -0.37028E+08        -0.61832E+06         0.00000E+00
   -0.61832E+06        -0.61046E+08         0.00000E+00
    0.00000E+00         0.00000E+00        -0.25209E+08
 
   -0.35302E+08         0.20961E+06         0.00000E+00
    0.20961E+06        -0.61249E+08         0.00000E+00
    0.00000E+00         0.00000E+00        -0.25187E+08
 
   -0.33615E+08         0.11843E+07         0.00000E+00
    0.11843E+07        -0.61516E+08         0.00000E+00
    0.00000E+00         0.00000E+00        -0.25166E+08
 
   -0.31952E+08         0.23162E+07         0.00000E+00
    0.23162E+07        -0.61864E+08         0.00000E+00
    0.00000E+00         0.00000E+00        -0.25148E+08
 
   -0.30304E+08         0.36272E+07         0.00000E+00
    0.36272E+07        -0.62302E+08         0.00000E+00
    0.00000E+00         0.00000E+00        -0.25132E+08
 
   -0.28680E+08         0.51518E+07         0.00000E+00
    0.51518E+07        -0.62833E+08         0.00000E+00
    0.00000E+00         0.00000E+00        -0.25120E+08
 
   -0.27090E+08         0.69098E+07         0.00000E+00
    0.69098E+07        -0.63450E+08         0.00000E+00
    0.00000E+00         0.00000E+00        -0.25111E+08
 
   -0.26843E+08         0.86339E+07         0.00000E+00
    0.86339E+07        -0.64133E+08         0.00000E+00
    0.00000E+00         0.00000E+00        -0.26273E+08
 
   -0.51950E+08        -0.68868E+06         0.00000E+00
   -0.68868E+06        -0.60035E+08         0.00000E+00
    0.00000E+00         0.00000E+00        -0.23062E+08
 
   -0.49554E+08        -0.16842E+07         0.00000E+00
   -0.16842E+07        -0.60132E+08         0.00000E+00
    0.00000E+00         0.00000E+00        -0.23053E+08
 
   -0.47087E+08        -0.22187E+07         0.00000E+00
   -0.22187E+07        -0.60254E+08         0.00000E+00
    0.00000E+00         0.00000E+00        -0.23038E+08
 
   -0.44679E+08        -0.23768E+07         0.00000E+00
   -0.23768E+07        -0.60351E+08         0.00000E+00
    0.00000E+00         0.00000E+00        -0.23018E+08
 
   -0.42394E+08        -0.22483E+07         0.00000E+00
   -0.22483E+07        -0.60411E+08         0.00000E+00
    0.00000E+00         0.00000E+00        -0.22995E+08
 
   -0.40247E+08        -0.19063E+07         0.00000E+00
   -0.19063E+07        -0.60450E+08         0.00000E+00
    0.00000E+00         0.00000E+00        -0.22972E+08
 
   -0.38225E+08        -0.14006E+07         0.00000E+00
   -0.14006E+07        -0.60494E+08         0.00000E+00
    0.00000E+00         0.00000E+00        -0.22949E+08
 
   -0.36299E+08        -0.75984E+06         0.00000E+00
   -0.75984E+06        -0.60572E+08         0.00000E+00
    0.00000E+00         0.00000E+00        -0.22927E+08
 
   -0.34438E+08         0.46722E+04         0.00000E+00
    0.46722E+04        -0.60711E+08         0.00000E+00
    0.00000E+00         0.00000E+00        -0.22906E+08
 
   -0.32610E+08         0.89517E+06         0.00000E+00
    0.89517E+06        -0.60934E+08         0.00000E+00
    0.00000E+00         0.00000E+00        -0.22886E+08
 
   -0.30787E+08         0.19264E+07         0.00000E+00
    0.19264E+07        -0.61263E+08         0.00000E+00
    0.00000E+00         0.00000E+00        -0.22869E+08
 
   -0.28948E+08         0.31263E+07         0.00000E+00
    0.31263E+07        -0.61713E+08         0.00000E+00
    0.00000E+00         0.00000E+00        -0.22854E+08
 
   -0.27083E+08         0.45390E+07         0.00000E+00
    0.45390E+07        -0.62292E+08         0.00000E+00
    0.00000E+00         0.00000E+00        -0.22842E+08
 
   -0.25314E+08         0.61999E+07         0.00000E+00
    0.61999E+07        -0.62984E+08         0.00000E+00
    0.00000E+00         0.00000E+00        -0.22928E+08
 
   -0.25170E+08         0.78945E+07         0.00000E+00
    0.78945E+07        -0.63763E+08         0.00000E+00
    0.00000E+00         0.00000E+00        -0.24477E+08
 
   -0.53248E+08        -0.75491E+06         0.00000E+00
   -0.75491E+06        -0.60033E+08         0.00000E+00
    0.00000E+00         0.00000E+00        -0.20751E+08
 
   -0.50309E+08        -0.17943E+07         0.00000E+00
   -0.17943E+07        -0.60108E+08         0.00000E+00
    0.00000E+00         0.00000E+00        -0.20742E+08
 
   -0.47397E+08        -0.22954E+07         0.00000E+00
   -0.22954E+07        -0.60164E+08         0.00000E+00
    0.00000E+00         0.00000E+00        -0.20726E+08
 
   -0.44658E+08        -0.23978E+07         0.00000E+00
   -0.23978E+07        -0.60152E+08         0.00000E+00
    0.00000E+00         0.00000E+00        -0.20706E+08
 
   -0.42139E+08        -0.22296E+07         0.00000E+00
   -0.22296E+07        -0.60082E+08         0.00000E+00
    0.00000E+00         0.00000E+00        -0.20685E+08
 
   -0.39823E+08        -0.18801E+07         0.00000E+00
   -0.18801E+07        -0.59989E+08         0.00000E+00
    0.00000E+00         0.00000E+00        -0.20663E+08
 
   -0.37670E+08        -0.14011E+07         0.00000E+00
   -0.14011E+07        -0.59913E+08         0.00000E+00
    0.00000E+00         0.00000E+00        -0.20642E+08
 
   -0.35632E+08        -0.81795E+06         0.00000E+00
   -0.81795E+06        -0.59889E+08         0.00000E+00
    0.00000E+00         0.00000E+00        -0.20622E+08
 
   -0.33660E+08        -0.13833E+06         0.00000E+00
   -0.13833E+06        -0.59949E+08         0.00000E+00
    0.00000E+00         0.00000E+00        -0.20603E+08
 
   -0.31712E+08         0.64355E+06         0.00000E+00
    0.64355E+06        -0.60118E+08         0.00000E+00
    0.00000E+00         0.00000E+00        -0.20585E+08
 
   -0.29745E+08         0.15458E+07         0.00000E+00
    0.15458E+07        -0.60420E+08         0.00000E+00
    0.00000E+00         0.00000E+00        -0.20569E+08
 
   -0.27723E+08         0.26006E+07         0.00000E+00
    0.26006E+07        -0.60875E+08         0.00000E+00
    0.00000E+00         0.00000E+00        -0.20556E+08
 
   -0.25615E+08         0.38618E+07         0.00000E+00
    0.38618E+07        -0.61501E+08         0.00000E+00
    0.00000E+00         0.00000E+00        -0.20545E+08
 
   -0.23648E+08         0.53800E+07         0.00000E+00
    0.53800E+07        -0.62288E+08         0.00000E+00
    0.00000E+00         0.00000E+00        -0.20757E+08
 
   -0.23416E+08         0.70679E+07         0.00000E+00
    0.70679E+07        -0.63171E+08         0.00000E+00
    0.00000E+00         0.00000E+00        -0.22573E+08
 
   -0.54634E+08        -0.81525E+06         0.00000E+00
   -0.81525E+06        -0.60029E+08         0.00000E+00
    0.00000E+00         0.00000E+00        -0.18412E+08
 
   -0.51032E+08        -0.18466E+07         0.00000E+00
   -0.18466E+07        -0.60058E+08         0.00000E+00
    0.00000E+00         0.00000E+00        -0.18403E+08
 
   -0.47630E+08        -0.22528E+07         0.00000E+00
   -0.22528E+07        -0.59995E+08         0.00000E+00
    0.00000E+00         0.00000E+00        -0.18387E+08
 
   -0.44577E+08        -0.22651E+07         0.00000E+00
   -0.22651E+07        -0.59812E+08         0.00000E+00
    0.00000E+00         0.00000E+00        -0.18369E+08
 
   -0.41862E+08        -0.20539E+07         0.00000E+00
   -0.20539E+07        -0.59561E+08         0.00000E+00
    0.00000E+00         0.00000E+00        -0.18350E+08
 
   -0.39419E+08        -0.17116E+07         0.00000E+00
   -0.17116E+07        -0.59302E+08         0.00000E+00
    0.00000E+00         0.00000E+00        -0.18331E+08
 
   -0.37170E+08        -0.12812E+07         0.00000E+00
   -0.12812E+07        -0.59087E+08         0.00000E+00
    0.00000E+00         0.00000E+00        -0.18313E+08
 
   -0.35049E+08        -0.78010E+06         0.00000E+00
   -0.78010E+06        -0.58951E+08         0.00000E+00
    0.00000E+00         0.00000E+00        -0.18295E+08
 
   -0.32993E+08        -0.21053E+06         0.00000E+00
   -0.21053E+06        -0.58926E+08         0.00000E+00
    0.00000E+00         0.00000E+00        -0.18279E+08
 
   -0.30946E+08         0.43631E+06         0.00000E+00
    0.43631E+06        -0.59036E+08         0.00000E+00
    0.00000E+00         0.00000E+00        -0.18264E+08
 
   -0.28857E+08         0.11799E+07         0.00000E+00
    0.11799E+07        -0.59307E+08         0.00000E+00
    0.00000E+00         0.00000E+00        -0.18251E+08
 
   -0.26671E+08         0.20529E+07         0.00000E+00
    0.20529E+07        -0.59765E+08         0.00000E+00
    0.00000E+00         0.00000E+00        -0.18239E+08
 
   -0.24331E+08         0.31076E+07         0.00000E+00
    0.31076E+07        -0.60439E+08         0.00000E+00
    0.00000E+00         0.00000E+00        -0.18230E+08
 
   -0.22080E+08         0.44380E+07         0.00000E+00
    0.44380E+07        -0.61337E+08         0.00000E+00
    0.00000E+00         0.00000E+00        -0.18501E+08
 
   -0.21602E+08         0.61152E+07         0.00000E+00
    0.61152E+07        -0.62364E+08         0.00000E+00
    0.00000E+00         0.00000E+00        -0.20539E+08
 
   -0.56062E+08        -0.86007E+06         0.00000E+00
   -0.86007E+06        -0.60015E+08         0.00000E+00
    0.00000E+00         0.00000E+00        -0.16044E+08
 
   -0.51637E+08        -0.17800E+07         0.00000E+00
   -0.17800E+07        -0.59945E+08         0.00000E+00
    0.00000E+00         0.00000E+00        -0.16035E+08
 
   -0.47738E+08        -0.20062E+07         0.00000E+00
   -0.20062E+07        -0.59660E+08         0.00000E+00
    0.00000E+00         0.00000E+00        -0.16021E+08
 
   -0.44432E+08        -0.19149E+07         0.00000E+00
   -0.19149E+07        -0.59223E+08         0.00000E+00
    0.00000E+00         0.00000E+00        -0.16006E+08
 
   -0.41585E+08        -0.16854E+07         0.00000E+00
   -0.16854E+07        -0.58748E+08         0.00000E+00
    0.00000E+00         0.00000E+00        -0.15991E+08
 
   -0.39060E+08        -0.13836E+07         0.00000E+00
   -0.13836E+07        -0.58309E+08         0.00000E+00
    0.00000E+00         0.00000E+00        -0.15976E+08
 
   -0.36752E+08        -0.10343E+07         0.00000E+00
   -0.10343E+07        -0.57952E+08         0.00000E+00
    0.00000E+00         0.00000E+00        -0.15961E+08
 
   -0.34576E+08        -0.64462E+06         0.00000E+00
   -0.64462E+06        -0.57708E+08         0.00000E+00
    0.00000E+00         0.00000E+00        -0.15948E+08
 
   -0.32461E+08        -0.21190E+06         0.00000E+00
   -0.21190E+06        -0.57603E+08         0.00000E+00
    0.00000E+00         0.00000E+00        -0.15935E+08
 
   -0.30341E+08         0.27365E+06         0.00000E+00
    0.27365E+06        -0.57659E+08         0.00000E+00
    0.00000E+00         0.00000E+00        -0.15924E+08
 
   -0.28155E+08         0.82969E+06         0.00000E+00
    0.82969E+06        -0.57901E+08         0.00000E+00
    0.00000E+00         0.00000E+00        -0.15914E+08
 
   -0.25833E+08         0.14849E+07         0.00000E+00
    0.14849E+07        -0.58362E+08         0.00000E+00
    0.00000E+00         0.00000E+00        -0.15905E+08
 
   -0.23298E+08         0.22830E+07         0.00000E+00
    0.22830E+07        -0.59079E+08         0.00000E+00
    0.00000E+00         0.00000E+00        -0.15897E+08
 
   -0.20653E+08         0.33430E+07         0.00000E+00
    0.33430E+07        -0.60098E+08         0.00000E+00
    0.00000E+00         0.00000E+00        -0.16118E+08
 
   -0.19740E+08         0.49534E+07         0.00000E+00
    0.49534E+07        -0.61336E+08         0.00000E+00
    0.00000E+00         0.00000E+00        -0.18353E+08
 
   -0.57421E+08        -0.85325E+06         0.00000E+00
   -0.85325E+06        -0.59968E+08         0.00000E+00
    0.00000E+00         0.00000E+00        -0.13647E+08
 
   -0.51994E+08        -0.14397E+07         0.00000E+00
   -0.14397E+07        -0.59621E+08         0.00000E+00
    0.00000E+00         0.00000E+00        -0.13639E+08
 
   -0.47707E+08        -0.14414E+07         0.00000E+00
   -0.14414E+07        -0.58953E+08         0.00000E+00
    0.00000E+00         0.00000E+00        -0.13629E+08
 
   -0.44261E+08        -0.13037E+07         0.00000E+00
   -0.13037E+07        -0.58212E+08         0.00000E+00
    0.00000E+00         0.00000E+00        -0.13619E+08
 
   -0.41348E+08        -0.11162E+07         0.00000E+00
   -0.11162E+07        -0.57515E+08         0.00000E+00
    0.00000E+00         0.00000E+00        -0.13608E+08
 
   -0.38786E+08        -0.90377E+06         0.00000E+00
   -0.90377E+06        -0.56916E+08         0.00000E+00
    0.00000E+00         0.00000E+00        -0.13599E+08
 
   -0.36448E+08        -0.67321E+06         0.00000E+00
   -0.67321E+06        -0.56442E+08         0.00000E+00
    0.00000E+00         0.00000E+00        -0.13590E+08
 
   -0.34241E+08        -0.42438E+06         0.00000E+00
   -0.42438E+06        -0.56112E+08         0.00000E+00
    0.00000E+00         0.00000E+00        -0.13581E+08
 
   -0.32089E+08        -0.15308E+06         0.00000E+00
   -0.15308E+06        -0.55945E+08         0.00000E+00
    0.00000E+00         0.00000E+00        -0.13573E+08
 
   -0.29922E+08         0.14851E+06         0.00000E+00
    0.14851E+06        -0.55960E+08         0.00000E+00
    0.00000E+00         0.00000E+00        -0.13566E+08
 
   -0.27668E+08         0.49275E+06         0.00000E+00
    0.49275E+06        -0.56182E+08         0.00000E+00
    0.00000E+00         0.00000E+00        -0.13560E+08
 
   -0.25249E+08         0.89895E+06         0.00000E+00
    0.89895E+06        -0.56644E+08         0.00000E+00
    0.00000E+00         0.00000E+00        -0.13554E+08
 
   -0.22573E+08         0.13985E+07         0.00000E+00
    0.13985E+07        -0.57394E+08         0.00000E+00
    0.00000E+00         0.00000E+00        -0.13549E+08
 
   -0.19504E+08         0.20731E+07         0.00000E+00
    0.20731E+07        -0.58536E+08         0.00000E+00
    0.00000E+00         0.00000E+00        -0.13618E+08
 
   -0.17879E+08         0.34458E+07         0.00000E+00
    0.34458E+07        -0.60069E+08         0.00000E+00
    0.00000E+00         0.00000E+00        -0.15975E+08
 
   -0.58383E+08        -0.51688E+06         0.00000E+00
   -0.51688E+06        -0.59497E+08         0.00000E+00
    0.00000E+00         0.00000E+00        -0.11220E+08
 
   -0.52047E+08        -0.58613E+06         0.00000E+00
   -0.58613E+06        -0.58577E+08         0.00000E+00
    0.00000E+00         0.00000E+00        -0.11217E+08
 
   -0.47632E+08        -0.53169E+06         0.00000E+00
   -0.53169E+06        -0.57530E+08         0.00000E+00
    0.00000E+00         0.00000E+00        -0.11213E+08
 
   -0.44141E+08        -0.46481E+06         0.00000E+00
   -0.46481E+06        -0.56567E+08         0.00000E+00
    0.00000E+00         0.00000E+00        -0.11210E+08
 
   -0.41210E+08        -0.39130E+06         0.00000E+00
   -0.39130E+06        -0.55731E+08         0.00000E+00
    0.00000E+00         0.00000E+00        -0.11206E+08
 
   -0.38635E+08        -0.31414E+06         0.00000E+00
   -0.31414E+06        -0.55038E+08         0.00000E+00
    0.00000E+00         0.00000E+00        -0.11203E+08
 
   -0.36286E+08        -0.23328E+06         0.00000E+00
   -0.23328E+06        -0.54500E+08         0.00000E+00
    0.00000E+00         0.00000E+00        -0.11199E+08
 
   -0.34067E+08        -0.14760E+06         0.00000E+00
   -0.14760E+06        -0.54124E+08         0.00000E+00
    0.00000E+00         0.00000E+00        -0.11197E+08
 
   -0.31898E+08        -0.55103E+05         0.00000E+00
   -0.55103E+05        -0.53926E+08         0.00000E+00
    0.00000E+00         0.00000E+00        -0.11194E+08
 
   -0.29707E+08         0.47194E+05         0.00000E+00
    0.47194E+05        -0.53920E+08         0.00000E+00
    0.00000E+00         0.00000E+00        -0.11191E+08
 
   -0.27419E+08         0.16374E+06         0.00000E+00
    0.16374E+06        -0.54132E+08         0.00000E+00
    0.00000E+00         0.00000E+00        -0.11189E+08
 
   -0.24950E+08         0.30107E+06         0.00000E+00
    0.30107E+06        -0.54597E+08         0.00000E+00
    0.00000E+00         0.00000E+00        -0.11187E+08
 
   -0.22189E+08         0.47206E+06         0.00000E+00
    0.47206E+06        -0.55367E+08         0.00000E+00
    0.00000E+00         0.00000E+00        -0.11185E+08
 
   -0.18961E+08         0.69380E+06         0.00000E+00
    0.69380E+06        -0.56540E+08         0.00000E+00
    0.00000E+00         0.00000E+00        -0.11184E+08
 
   -0.16144E+08         0.12989E+07         0.00000E+00
    0.12989E+07        -0.58516E+08         0.00000E+00
    0.00000E+00         0.00000E+00        -0.13361E+08
 
SCALARS stresss double 
LOOKUP_TABLE default
  -53865180.9043439     
  -53804303.6344353     
  -54212939.8667284     
  -55015517.7460623     
  -56097528.3904137     
  -57355859.0474415     
  -58723594.9327966     
  -60076820.1625776     
  -61420066.3588699     
  -62736330.1176737     
  -63734826.8886057     
  -64581460.1081088     
  -65344324.0716485     
  -66077460.3838651     
  -66877091.9009865     
  -55466057.0340578     
  -56136523.2503082     
  -56556845.8282413     
  -56949035.3760979     
  -57486474.4409870     
  -58182146.3398925     
  -58911592.5818420     
  -59753167.7650370     
  -60715809.3276509     
  -61702238.1224522     
  -62594554.0731009     
  -63377833.4974179     
  -64088876.2431389     
  -64758788.5230124     
  -65379480.8497598     
  -56742374.8768676     
  -57326133.0063353     
  -57668646.3045117     
  -57885915.3113334     
  -58053441.9735320     
  -58319809.9991489     
  -58707468.3612920     
  -59308196.3948365     
  -60049880.9818657     
  -60813292.6410357     
  -61553070.8086641     
  -62240019.0896705     
  -62871184.6536396     
  -63448053.9671198     
  -63961166.7320828     
  -56724723.4455150     
  -56954902.3345972     
  -57169830.9012635     
  -57390911.8564898     
  -57597894.3380111     
  -57888319.8068695     
  -58280308.5445001     
  -58772367.8599908     
  -59346497.4366261     
  -59959568.3282974     
  -60569580.1176948     
  -61153116.3443062     
  -61696416.5986455     
  -62190527.9144202     
  -62624295.1702639     
  -56257203.0034151     
  -56395354.0618005     
  -56596912.6536885     
  -56810933.6373767     
  -57063783.0116802     
  -57357408.0106778     
  -57714211.0646745     
  -58134708.6915657     
  -58605838.3543047     
  -59106035.4206893     
  -59611476.6032742     
  -60102229.5600636     
  -60564177.7061938     
  -60986276.3122789     
  -61358469.2162540     
  -55634931.3649762     
  -55789949.7812890     
  -55993670.1362417     
  -56217130.5254366     
  -56465267.2600419     
  -56747950.6136896     
  -57069883.3111583     
  -57432081.3605059     
  -57827256.1858760     
  -58242645.3505494     
  -58663345.7339523     
  -59075197.6096226     
  -59466206.7670081     
  -59826590.7760109     
  -60148235.4766047     
  -54953752.2215408     
  -55159467.8181297     
  -55365290.7289237     
  -55586023.1626237     
  -55824427.5182614     
  -56085443.4459731     
  -56372485.5048130     
  -56685142.6037514     
  -57019117.4480609     
  -57366595.8138370     
  -57717912.4789296     
  -58063153.4387071     
  -58393251.7906116     
  -58700495.9283026     
  -58978779.8406012     
  -54284013.9489868     
  -54504296.6229391     
  -54714872.4757062     
  -54927566.6655930     
  -55149836.1524180     
  -55385847.7143432     
  -55637996.9519184     
  -55906287.9583172     
  -56188082.1020622     
  -56478527.3848192     
  -56771327.1078614     
  -57059680.7980602     
  -57337071.5177082     
  -57597826.8920591     
  -57837532.4513381     
  -53629501.4406769     
  -53845964.6329507     
  -54049498.1708125     
  -54248886.3217847     
  -54450638.0051840     
  -54659094.7908727     
  -54876599.2434631     
  -55103644.1099582     
  -55338897.8823452     
  -55579454.3004517     
  -55821311.4859328     
  -56059943.7640156     
  -56290858.0654476     
  -56510063.2911477     
  -56714456.0776519     
  -52987249.1474513     
  -53188912.1317145     
  -53376529.8688225     
  -53556325.4556693     
  -53733610.5550271     
  -53912328.3409685     
  -54094961.3437908     
  -54282539.5743938     
  -54474735.1886969     
  -54670051.4775537     
  -54866127.4958576     
  -55060115.6315482     
  -55249069.9961092     
  -55430302.7367469     
  -55601686.6886066     
  -52354236.0665083     
  -52534448.9681087     
  -52699699.7146076     
  -52854675.4039819     
  -53003746.4030399     
  -53150508.6655615     
  -53297552.3996791     
  -53446394.0742316     
  -53597513.5897276     
  -53750481.7470780     
  -53904162.4580205     
  -54056966.0866701     
  -54207120.4661976     
  -54352928.0652805     
  -54492985.6606910     
  -51728814.5120719     
  -51883117.1636422     
  -52021236.6394149     
  -52147080.0204374     
  -52264520.6202000     
  -52376994.4702496     
  -52487255.6943699     
  -52597262.8926822     
  -52708168.9199830     
  -52820390.2869295     
  -52933737.5039302     
  -53047585.4707862     
  -53161060.7620274     
  -53273222.4431667     
  -53383215.1177336     
  -51110618.0782177     
  -51235596.5153155     
  -51342705.7544257     
  -51435657.4520262     
  -51518228.0690221     
  -51593927.1143696     
  -51665772.0085427     
  -51736163.4737636     
  -51806846.1311552     
  -51878937.2490402     
  -51953006.3560416     
  -52029188.4042555     
  -52107312.5131609     
  -52187028.0020107     
  -52267909.7078847     
  -50500416.1882201     
  -50592927.9765874     
  -50665435.2759543     
  -50721895.4832164     
  -50766323.2737539     
  -50802521.3642051     
  -50833886.2502785     
  -50863289.7075780     
  -50893028.1927790     
  -50924827.7182319     
  -50959890.4075827     
  -50998969.0758483     
  -51042456.4635342     
  -51090475.2007804     
  -51142953.0939197     
  -49899894.7440633     
  -49956533.7982171     
  -49990680.2929995     
  -50006875.6131133     
  -50009643.7360980     
  -50003271.4176838     
  -49991645.4873630     
  -49978150.0913146     
  -49965618.3893986     
  -49956328.1159074     
  -49952029.0415180     
  -49953992.1673749     
  -49963073.1646134     
  -49979781.9297901     
  -50004345.5592507     
  -49311425.9109372     
  -49328135.9350756     
  -49319651.5378948     
  -49291364.8032791     
  -49248528.3621828     
  -49196071.5953092     
  -49138467.2399502     
  -49079650.8431692     
  -49022986.7966024     
  -48971268.0897285     
  -48926735.5869545     
  -48891108.5115633     
  -48865627.2504341     
  -48851114.6733002     
  -48848047.8272647     
  -48737843.0098450     
  -48709625.4395659     
  -48653461.5766272     
  -48575815.7860018     
  -48482850.2919370     
  -48380264.8903898     
  -48273190.5158712     
  -48166137.6728125     
  -48062990.6667080     
  -47967029.3130873     
  -47880951.8856565     
  -47806883.4544614     
  -47746385.9656473     
  -47700506.9233729     
  -47669896.8204818     
  -48182227.4451677     
  -48102903.8506485     
  -47993015.4833411     
  -47860298.7903950     
  -47711981.0682808     
  -47554631.5826349     
  -47394081.0963394     
  -47235408.6070142     
  -47082981.8427571     
  -46940527.4919565     
  -46811191.2222457     
  -46697516.9331241     
  -46601352.2112270     
  -46523842.2410633     
  -46465613.3980711     
  -47647707.6470852     
  -47509703.5203301     
  -47338855.7280876     
  -47144374.3603379     
  -46934694.3482863     
  -46717325.5063597     
  -46498799.6926341     
  -46284709.6526285     
  -46079819.5799099     
  -45888216.7864866     
  -45713467.9929980     
  -45558683.9393208     
  -45426166.1565849     
  -45316904.9133941     
  -45231011.6734574     
  -47137267.2165018     
  -46931383.9252949     
  -46690958.1731501     
  -46426904.5189410     
  -46149007.7015503     
  -45865758.7263913     
  -45584336.8730795     
  -45310722.2851746     
  -45049906.4971931     
  -44806163.3578596     
  -44583341.1666896     
  -44385202.2119743     
  -44215511.6967933     
  -44075668.8464963     
  -43962731.7068448     
  -46653557.4164278     
  -46368691.3591612     
  -46048462.6366943     
  -45705786.2762807     
  -45351950.4184441     
  -44996427.8555273     
  -44646913.0500125     
  -44309545.1686024     
  -43989258.4658776     
  -43690206.0650703     
  -43416226.4731562     
  -43171324.3301313     
  -42961038.6298478     
  -42793653.5401197     
  -42663772.7269924     
  -46198705.3646616     
  -45821455.2827220     
  -45409302.9691598     
  -44977574.6274709     
  -44539233.5332174     
  -44104668.7126647     
  -43681837.5607675     
  -43276666.7121565     
  -42893599.2015058     
  -42536205.0921842     
  -42207820.0063007     
  -41912206.0566141     
  -41653840.4781975     
  -41446991.1928350     
  -41408261.7892426     
  -45774100.1871406     
  -45288168.6411709     
  -44769670.9261241     
  -44236937.9886501     
  -43704785.9969469     
  -43184323.8149794     
  -42683322.9300182     
  -42206923.5586941     
  -41758463.7688881     
  -41340307.1311137     
  -40954637.4490972     
  -40604290.8102743     
  -40293039.4571812     
  -40017425.4440827     
  -40252499.2601572     
  -45380117.2811451     
  -44765346.8175055     
  -44123191.0361524     
  -43475852.6816918     
  -42840111.3673925     
  -42227316.9643886     
  -41644265.7355885     
  -41094451.2228551     
  -40579293.3397852     
  -40099187.4644935     
  -39654412.3298381     
  -39245966.7420963     
  -38877560.3454337     
  -38550338.6138100     
  -39082821.1018000     
  -45015691.8216331     
  -44246438.8348804     
  -43459573.7207181     
  -42682388.0685892     
  -41933427.8136095     
  -41223166.9510229     
  -40556044.3691127     
  -39932659.5695815     
  -39351517.2653689     
  -38810230.0533063     
  -38306360.2647977     
  -37838260.9032382     
  -37405684.1334477     
  -37075669.4398514     
  -37803376.9091354     
  -44677496.6086237     
  -43719789.6688880     
  -42762269.8379953     
  -41838885.5295629     
  -40968623.0217054     
  -40158574.7412934     
  -39408453.7294440     
  -38714301.3039545     
  -38070645.1199865     
  -37471584.7616908     
  -36911365.4941848     
  -36384673.1646793     
  -35887056.7961174     
  -35564196.8708908     
  -36386633.6922492     
  -44358166.2578011     
  -43164233.6214307     
  -42004259.5479252     
  -40919356.6185994     
  -39924362.7906608     
  -39017422.7087892     
  -38189968.6110921     
  -37431731.4567762     
  -36732401.4468326     
  -36082136.2385649     
  -35471598.3181650     
  -34891733.5222722     
  -34333184.4716615     
  -33972737.0607653     
  -34835182.1382900     
  -44040354.0228740     
  -42539017.6508446     
  -41139974.3643173     
  -39887052.7353236     
  -38774476.9696113     
  -37781662.8070097     
  -36888548.8410588     
  -36077440.5773314     
  -35332949.3402886     
  -34641377.9565585     
  -33990019.0909180     
  -33366552.5577484     
  -32757861.3598741     
  -32289420.1984873     
  -33143012.9791005     
  -43678556.3720545     
  -41751482.4913539     
  -40096438.4422970     
  -38697127.8609178     
  -37490786.6261772     
  -36433517.8898909     
  -35493063.1841789     
  -34644867.8908992     
  -33869210.9411549     
  -33149282.3708307     
  -32469756.4140695     
  -31815513.6870621     
  -31171871.2389927     
  -30552874.0887231     
  -31307739.5188841     
  -43033602.2843423     
  -40613701.5903226     
  -38791873.1589210     
  -37306144.1115027     
  -36049057.7470033     
  -34958785.4366622     
  -33995136.6151864     
  -33129365.2130031     
  -32339240.2163678     
  -31606209.7515096     
  -30913487.4907784     
  -30244494.7853679     
  -29580400.0542399     
  -28894960.9261429     
  -29340447.8264311     
SCALARS 2waySource double 
LOOKUP_TABLE default
  0.000000000000000E+000
  0.000000000000000E+000
  0.000000000000000E+000
  0.000000000000000E+000
  0.000000000000000E+000
  0.000000000000000E+000
  0.000000000000000E+000
  0.000000000000000E+000
  0.000000000000000E+000
  0.000000000000000E+000
  0.000000000000000E+000
  0.000000000000000E+000
  0.000000000000000E+000
  0.000000000000000E+000
  0.000000000000000E+000
  0.000000000000000E+000
  0.000000000000000E+000
  0.000000000000000E+000
  0.000000000000000E+000
  0.000000000000000E+000
  0.000000000000000E+000
  0.000000000000000E+000
  0.000000000000000E+000
  0.000000000000000E+000
  0.000000000000000E+000
  0.000000000000000E+000
  0.000000000000000E+000
  0.000000000000000E+000
  0.000000000000000E+000
  0.000000000000000E+000
  0.000000000000000E+000
  0.000000000000000E+000
  0.000000000000000E+000
  0.000000000000000E+000
  0.000000000000000E+000
  0.000000000000000E+000
  0.000000000000000E+000
  0.000000000000000E+000
  0.000000000000000E+000
  0.000000000000000E+000
  0.000000000000000E+000
  0.000000000000000E+000
  0.000000000000000E+000
  0.000000000000000E+000
  0.000000000000000E+000
  0.000000000000000E+000
  0.000000000000000E+000
  0.000000000000000E+000
  0.000000000000000E+000
  0.000000000000000E+000
  0.000000000000000E+000
  0.000000000000000E+000
  0.000000000000000E+000
  0.000000000000000E+000
  0.000000000000000E+000
  0.000000000000000E+000
  0.000000000000000E+000
  0.000000000000000E+000
  0.000000000000000E+000
  0.000000000000000E+000
  0.000000000000000E+000
  0.000000000000000E+000
  0.000000000000000E+000
  0.000000000000000E+000
  0.000000000000000E+000
  0.000000000000000E+000
  0.000000000000000E+000
  0.000000000000000E+000
  0.000000000000000E+000
  0.000000000000000E+000
  0.000000000000000E+000
  0.000000000000000E+000
  0.000000000000000E+000
  0.000000000000000E+000
  0.000000000000000E+000
  0.000000000000000E+000
  0.000000000000000E+000
  0.000000000000000E+000
  0.000000000000000E+000
  0.000000000000000E+000
  0.000000000000000E+000
  0.000000000000000E+000
  0.000000000000000E+000
  0.000000000000000E+000
  0.000000000000000E+000
  0.000000000000000E+000
  0.000000000000000E+000
  0.000000000000000E+000
  0.000000000000000E+000
  0.000000000000000E+000
  0.000000000000000E+000
  0.000000000000000E+000
  0.000000000000000E+000
  0.000000000000000E+000
  0.000000000000000E+000
  0.000000000000000E+000
  0.000000000000000E+000
  0.000000000000000E+000
  0.000000000000000E+000
  0.000000000000000E+000
  0.000000000000000E+000
  0.000000000000000E+000
  0.000000000000000E+000
  0.000000000000000E+000
  0.000000000000000E+000
  0.000000000000000E+000
  0.000000000000000E+000
  0.000000000000000E+000
  0.000000000000000E+000
  0.000000000000000E+000
  0.000000000000000E+000
  0.000000000000000E+000
  0.000000000000000E+000
  0.000000000000000E+000
  0.000000000000000E+000
  0.000000000000000E+000
  0.000000000000000E+000
  0.000000000000000E+000
  0.000000000000000E+000
  0.000000000000000E+000
  0.000000000000000E+000
  0.000000000000000E+000
  0.000000000000000E+000
  0.000000000000000E+000
  0.000000000000000E+000
  0.000000000000000E+000
  0.000000000000000E+000
  0.000000000000000E+000
  0.000000000000000E+000
  0.000000000000000E+000
  0.000000000000000E+000
  0.000000000000000E+000
  0.000000000000000E+000
  0.000000000000000E+000
  0.000000000000000E+000
  0.000000000000000E+000
  0.000000000000000E+000
  0.000000000000000E+000
  0.000000000000000E+000
  0.000000000000000E+000
  0.000000000000000E+000
  0.000000000000000E+000
  0.000000000000000E+000
  0.000000000000000E+000
  0.000000000000000E+000
  0.000000000000000E+000
  0.000000000000000E+000
  0.000000000000000E+000
  0.000000000000000E+000
  0.000000000000000E+000
  0.000000000000000E+000
  0.000000000000000E+000
  0.000000000000000E+000
  0.000000000000000E+000
  0.000000000000000E+000
  0.000000000000000E+000
  0.000000000000000E+000
  0.000000000000000E+000
  0.000000000000000E+000
  0.000000000000000E+000
  0.000000000000000E+000
  0.000000000000000E+000
  0.000000000000000E+000
  0.000000000000000E+000
  0.000000000000000E+000
  0.000000000000000E+000
  0.000000000000000E+000
  0.000000000000000E+000
  0.000000000000000E+000
  0.000000000000000E+000
  0.000000000000000E+000
  0.000000000000000E+000
  0.000000000000000E+000
  0.000000000000000E+000
  0.000000000000000E+000
  0.000000000000000E+000
  0.000000000000000E+000
  0.000000000000000E+000
  0.000000000000000E+000
  0.000000000000000E+000
  0.000000000000000E+000
  0.000000000000000E+000
  0.000000000000000E+000
  0.000000000000000E+000
  0.000000000000000E+000
  0.000000000000000E+000
  0.000000000000000E+000
  0.000000000000000E+000
  0.000000000000000E+000
  0.000000000000000E+000
  0.000000000000000E+000
  0.000000000000000E+000
  0.000000000000000E+000
  0.000000000000000E+000
  0.000000000000000E+000
  0.000000000000000E+000
  0.000000000000000E+000
  0.000000000000000E+000
  0.000000000000000E+000
  0.000000000000000E+000
  0.000000000000000E+000
  0.000000000000000E+000
  0.000000000000000E+000
  0.000000000000000E+000
  0.000000000000000E+000
  0.000000000000000E+000
  0.000000000000000E+000
  0.000000000000000E+000
  0.000000000000000E+000
  0.000000000000000E+000
  0.000000000000000E+000
  0.000000000000000E+000
  0.000000000000000E+000
  0.000000000000000E+000
  0.000000000000000E+000
  0.000000000000000E+000
  0.000000000000000E+000
  0.000000000000000E+000
  0.000000000000000E+000
  0.000000000000000E+000
  0.000000000000000E+000
  0.000000000000000E+000
  0.000000000000000E+000
  0.000000000000000E+000
  0.000000000000000E+000
  0.000000000000000E+000
  0.000000000000000E+000
  0.000000000000000E+000
  0.000000000000000E+000
  0.000000000000000E+000
  0.000000000000000E+000
  0.000000000000000E+000
  0.000000000000000E+000
  0.000000000000000E+000
  0.000000000000000E+000
  0.000000000000000E+000
  0.000000000000000E+000
  0.000000000000000E+000
  0.000000000000000E+000
  0.000000000000000E+000
  0.000000000000000E+000
  0.000000000000000E+000
  0.000000000000000E+000
  0.000000000000000E+000
  0.000000000000000E+000
  0.000000000000000E+000
  0.000000000000000E+000
  0.000000000000000E+000
  0.000000000000000E+000
  0.000000000000000E+000
  0.000000000000000E+000
  0.000000000000000E+000
  0.000000000000000E+000
  0.000000000000000E+000
  0.000000000000000E+000
  0.000000000000000E+000
  0.000000000000000E+000
  0.000000000000000E+000
  0.000000000000000E+000
  0.000000000000000E+000
  0.000000000000000E+000
  0.000000000000000E+000
  0.000000000000000E+000
  0.000000000000000E+000
  0.000000000000000E+000
  0.000000000000000E+000
  0.000000000000000E+000
  0.000000000000000E+000
  0.000000000000000E+000
  0.000000000000000E+000
  0.000000000000000E+000
  0.000000000000000E+000
  0.000000000000000E+000
  0.000000000000000E+000
  0.000000000000000E+000
  0.000000000000000E+000
  0.000000000000000E+000
  0.000000000000000E+000
  0.000000000000000E+000
  0.000000000000000E+000
  0.000000000000000E+000
  0.000000000000000E+000
  0.000000000000000E+000
  0.000000000000000E+000
  0.000000000000000E+000
  0.000000000000000E+000
  0.000000000000000E+000
  0.000000000000000E+000
  0.000000000000000E+000
  0.000000000000000E+000
  0.000000000000000E+000
  0.000000000000000E+000
  0.000000000000000E+000
  0.000000000000000E+000
  0.000000000000000E+000
  0.000000000000000E+000
  0.000000000000000E+000
  0.000000000000000E+000
  0.000000000000000E+000
  0.000000000000000E+000
  0.000000000000000E+000
  0.000000000000000E+000
  0.000000000000000E+000
  0.000000000000000E+000
  0.000000000000000E+000
  0.000000000000000E+000
  0.000000000000000E+000
  0.000000000000000E+000
  0.000000000000000E+000
  0.000000000000000E+000
  0.000000000000000E+000
  0.000000000000000E+000
  0.000000000000000E+000
  0.000000000000000E+000
  0.000000000000000E+000
  0.000000000000000E+000
  0.000000000000000E+000
  0.000000000000000E+000
  0.000000000000000E+000
  0.000000000000000E+000
  0.000000000000000E+000
  0.000000000000000E+000
  0.000000000000000E+000
  0.000000000000000E+000
  0.000000000000000E+000
  0.000000000000000E+000
  0.000000000000000E+000
  0.000000000000000E+000
  0.000000000000000E+000
  0.000000000000000E+000
  0.000000000000000E+000
  0.000000000000000E+000
  0.000000000000000E+000
  0.000000000000000E+000
  0.000000000000000E+000
  0.000000000000000E+000
  0.000000000000000E+000
  0.000000000000000E+000
  0.000000000000000E+000
  0.000000000000000E+000
  0.000000000000000E+000
  0.000000000000000E+000
  0.000000000000000E+000
  0.000000000000000E+000
  0.000000000000000E+000
  0.000000000000000E+000
  0.000000000000000E+000
  0.000000000000000E+000
  0.000000000000000E+000
  0.000000000000000E+000
  0.000000000000000E+000
  0.000000000000000E+000
  0.000000000000000E+000
  0.000000000000000E+000
  0.000000000000000E+000
  0.000000000000000E+000
  0.000000000000000E+000
  0.000000000000000E+000
  0.000000000000000E+000
  0.000000000000000E+000
  0.000000000000000E+000
  0.000000000000000E+000
  0.000000000000000E+000
  0.000000000000000E+000
  0.000000000000000E+000
  0.000000000000000E+000
  0.000000000000000E+000
  0.000000000000000E+000
  0.000000000000000E+000
  0.000000000000000E+000
  0.000000000000000E+000
  0.000000000000000E+000
  0.000000000000000E+000
  0.000000000000000E+000
  0.000000000000000E+000
  0.000000000000000E+000
  0.000000000000000E+000
  0.000000000000000E+000
  0.000000000000000E+000
  0.000000000000000E+000
  0.000000000000000E+000
  0.000000000000000E+000
  0.000000000000000E+000
  0.000000000000000E+000
  0.000000000000000E+000
  0.000000000000000E+000
  0.000000000000000E+000
  0.000000000000000E+000
  0.000000000000000E+000
  0.000000000000000E+000
  0.000000000000000E+000
  0.000000000000000E+000
  0.000000000000000E+000
  0.000000000000000E+000
  0.000000000000000E+000
  0.000000000000000E+000
  0.000000000000000E+000
  0.000000000000000E+000
  0.000000000000000E+000
  0.000000000000000E+000
  0.000000000000000E+000
  0.000000000000000E+000
  0.000000000000000E+000
  0.000000000000000E+000
  0.000000000000000E+000
  0.000000000000000E+000
  0.000000000000000E+000
  0.000000000000000E+000
  0.000000000000000E+000
  0.000000000000000E+000
  0.000000000000000E+000
  0.000000000000000E+000
  0.000000000000000E+000
  0.000000000000000E+000
  0.000000000000000E+000
  0.000000000000000E+000
  0.000000000000000E+000
  0.000000000000000E+000
  0.000000000000000E+000
  0.000000000000000E+000
  0.000000000000000E+000
  0.000000000000000E+000
  0.000000000000000E+000
  0.000000000000000E+000
  0.000000000000000E+000
  0.000000000000000E+000
  0.000000000000000E+000
  0.000000000000000E+000
  0.000000000000000E+000
  0.000000000000000E+000
  0.000000000000000E+000
  0.000000000000000E+000
  0.000000000000000E+000
  0.000000000000000E+000
  0.000000000000000E+000
  0.000000000000000E+000
  0.000000000000000E+000
  0.000000000000000E+000
  0.000000000000000E+000
  0.000000000000000E+000
  0.000000000000000E+000
  0.000000000000000E+000
  0.000000000000000E+000
  0.000000000000000E+000
  0.000000000000000E+000
  0.000000000000000E+000
  0.000000000000000E+000
  0.000000000000000E+000
  0.000000000000000E+000
  0.000000000000000E+000
SCALARS elementIsPlast double 
LOOKUP_TABLE default
   1.00000000000000     
   1.00000000000000     
   1.00000000000000     
   1.00000000000000     
   1.00000000000000     
   1.00000000000000     
   1.00000000000000     
   1.00000000000000     
  0.000000000000000E+000
  0.000000000000000E+000
  0.000000000000000E+000
  0.000000000000000E+000
  0.000000000000000E+000
  0.000000000000000E+000
  0.000000000000000E+000
   1.00000000000000     
   1.00000000000000     
   1.00000000000000     
   1.00000000000000     
   1.00000000000000     
   1.00000000000000     
   1.00000000000000     
  0.000000000000000E+000
  0.000000000000000E+000
  0.000000000000000E+000
  0.000000000000000E+000
  0.000000000000000E+000
  0.000000000000000E+000
  0.000000000000000E+000
  0.000000000000000E+000
   1.00000000000000     
   1.00000000000000     
   1.00000000000000     
   1.00000000000000     
  0.000000000000000E+000
  0.000000000000000E+000
  0.000000000000000E+000
  0.000000000000000E+000
  0.000000000000000E+000
  0.000000000000000E+000
  0.000000000000000E+000
  0.000000000000000E+000
  0.000000000000000E+000
  0.000000000000000E+000
  0.000000000000000E+000
  0.000000000000000E+000
  0.000000000000000E+000
  0.000000000000000E+000
  0.000000000000000E+000
  0.000000000000000E+000
  0.000000000000000E+000
  0.000000000000000E+000
  0.000000000000000E+000
  0.000000000000000E+000
  0.000000000000000E+000
  0.000000000000000E+000
  0.000000000000000E+000
  0.000000000000000E+000
  0.000000000000000E+000
  0.000000000000000E+000
  0.000000000000000E+000
  0.000000000000000E+000
  0.000000000000000E+000
  0.000000000000000E+000
  0.000000000000000E+000
  0.000000000000000E+000
  0.000000000000000E+000
  0.000000000000000E+000
  0.000000000000000E+000
  0.000000000000000E+000
  0.000000000000000E+000
  0.000000000000000E+000
  0.000000000000000E+000
  0.000000000000000E+000
  0.000000000000000E+000
  0.000000000000000E+000
  0.000000000000000E+000
  0.000000000000000E+000
  0.000000000000000E+000
  0.000000000000000E+000
  0.000000000000000E+000
  0.000000000000000E+000
  0.000000000000000E+000
  0.000000000000000E+000
  0.000000000000000E+000
  0.000000000000000E+000
  0.000000000000000E+000
  0.000000000000000E+000
  0.000000000000000E+000
  0.000000000000000E+000
  0.000000000000000E+000
  0.000000000000000E+000
  0.000000000000000E+000
  0.000000000000000E+000
  0.000000000000000E+000
  0.000000000000000E+000
  0.000000000000000E+000
  0.000000000000000E+000
  0.000000000000000E+000
  0.000000000000000E+000
  0.000000000000000E+000
  0.000000000000000E+000
  0.000000000000000E+000
  0.000000000000000E+000
  0.000000000000000E+000
  0.000000000000000E+000
  0.000000000000000E+000
  0.000000000000000E+000
  0.000000000000000E+000
  0.000000000000000E+000
  0.000000000000000E+000
  0.000000000000000E+000
  0.000000000000000E+000
  0.000000000000000E+000
  0.000000000000000E+000
  0.000000000000000E+000
  0.000000000000000E+000
  0.000000000000000E+000
  0.000000000000000E+000
  0.000000000000000E+000
  0.000000000000000E+000
  0.000000000000000E+000
  0.000000000000000E+000
  0.000000000000000E+000
  0.000000000000000E+000
  0.000000000000000E+000
  0.000000000000000E+000
  0.000000000000000E+000
  0.000000000000000E+000
  0.000000000000000E+000
  0.000000000000000E+000
  0.000000000000000E+000
  0.000000000000000E+000
  0.000000000000000E+000
  0.000000000000000E+000
  0.000000000000000E+000
  0.000000000000000E+000
  0.000000000000000E+000
  0.000000000000000E+000
  0.000000000000000E+000
  0.000000000000000E+000
  0.000000000000000E+000
  0.000000000000000E+000
  0.000000000000000E+000
  0.000000000000000E+000
  0.000000000000000E+000
  0.000000000000000E+000
  0.000000000000000E+000
  0.000000000000000E+000
  0.000000000000000E+000
  0.000000000000000E+000
  0.000000000000000E+000
  0.000000000000000E+000
  0.000000000000000E+000
  0.000000000000000E+000
  0.000000000000000E+000
  0.000000000000000E+000
  0.000000000000000E+000
  0.000000000000000E+000
  0.000000000000000E+000
  0.000000000000000E+000
  0.000000000000000E+000
  0.000000000000000E+000
  0.000000000000000E+000
  0.000000000000000E+000
  0.000000000000000E+000
  0.000000000000000E+000
  0.000000000000000E+000
  0.000000000000000E+000
  0.000000000000000E+000
  0.000000000000000E+000
  0.000000000000000E+000
  0.000000000000000E+000
  0.000000000000000E+000
  0.000000000000000E+000
  0.000000000000000E+000
  0.000000000000000E+000
  0.000000000000000E+000
  0.000000000000000E+000
  0.000000000000000E+000
  0.000000000000000E+000
  0.000000000000000E+000
  0.000000000000000E+000
  0.000000000000000E+000
  0.000000000000000E+000
  0.000000000000000E+000
  0.000000000000000E+000
  0.000000000000000E+000
  0.000000000000000E+000
  0.000000000000000E+000
  0.000000000000000E+000
  0.000000000000000E+000
  0.000000000000000E+000
  0.000000000000000E+000
  0.000000000000000E+000
  0.000000000000000E+000
  0.000000000000000E+000
  0.000000000000000E+000
  0.000000000000000E+000
  0.000000000000000E+000
  0.000000000000000E+000
  0.000000000000000E+000
  0.000000000000000E+000
  0.000000000000000E+000
  0.000000000000000E+000
  0.000000000000000E+000
  0.000000000000000E+000
  0.000000000000000E+000
  0.000000000000000E+000
  0.000000000000000E+000
  0.000000000000000E+000
  0.000000000000000E+000
  0.000000000000000E+000
  0.000000000000000E+000
  0.000000000000000E+000
  0.000000000000000E+000
  0.000000000000000E+000
  0.000000000000000E+000
  0.000000000000000E+000
  0.000000000000000E+000
  0.000000000000000E+000
  0.000000000000000E+000
  0.000000000000000E+000
  0.000000000000000E+000
  0.000000000000000E+000
  0.000000000000000E+000
  0.000000000000000E+000
  0.000000000000000E+000
  0.000000000000000E+000
  0.000000000000000E+000
  0.000000000000000E+000
  0.000000000000000E+000
  0.000000000000000E+000
  0.000000000000000E+000
  0.000000000000000E+000
  0.000000000000000E+000
  0.000000000000000E+000
  0.000000000000000E+000
  0.000000000000000E+000
  0.000000000000000E+000
  0.000000000000000E+000
  0.000000000000000E+000
  0.000000000000000E+000
  0.000000000000000E+000
  0.000000000000000E+000
  0.000000000000000E+000
  0.000000000000000E+000
  0.000000000000000E+000
  0.000000000000000E+000
  0.000000000000000E+000
  0.000000000000000E+000
  0.000000000000000E+000
  0.000000000000000E+000
  0.000000000000000E+000
  0.000000000000000E+000
  0.000000000000000E+000
  0.000000000000000E+000
  0.000000000000000E+000
  0.000000000000000E+000
  0.000000000000000E+000
  0.000000000000000E+000
  0.000000000000000E+000
  0.000000000000000E+000
  0.000000000000000E+000
  0.000000000000000E+000
  0.000000000000000E+000
  0.000000000000000E+000
  0.000000000000000E+000
  0.000000000000000E+000
  0.000000000000000E+000
  0.000000000000000E+000
  0.000000000000000E+000
  0.000000000000000E+000
  0.000000000000000E+000
  0.000000000000000E+000
  0.000000000000000E+000
  0.000000000000000E+000
  0.000000000000000E+000
  0.000000000000000E+000
  0.000000000000000E+000
  0.000000000000000E+000
  0.000000000000000E+000
  0.000000000000000E+000
  0.000000000000000E+000
  0.000000000000000E+000
  0.000000000000000E+000
  0.000000000000000E+000
  0.000000000000000E+000
  0.000000000000000E+000
  0.000000000000000E+000
  0.000000000000000E+000
  0.000000000000000E+000
  0.000000000000000E+000
  0.000000000000000E+000
  0.000000000000000E+000
  0.000000000000000E+000
  0.000000000000000E+000
  0.000000000000000E+000
  0.000000000000000E+000
  0.000000000000000E+000
  0.000000000000000E+000
  0.000000000000000E+000
  0.000000000000000E+000
  0.000000000000000E+000
  0.000000000000000E+000
  0.000000000000000E+000
  0.000000000000000E+000
  0.000000000000000E+000
  0.000000000000000E+000
  0.000000000000000E+000
  0.000000000000000E+000
  0.000000000000000E+000
  0.000000000000000E+000
  0.000000000000000E+000
  0.000000000000000E+000
  0.000000000000000E+000
  0.000000000000000E+000
  0.000000000000000E+000
  0.000000000000000E+000
  0.000000000000000E+000
  0.000000000000000E+000
  0.000000000000000E+000
  0.000000000000000E+000
  0.000000000000000E+000
  0.000000000000000E+000
  0.000000000000000E+000
  0.000000000000000E+000
  0.000000000000000E+000
  0.000000000000000E+000
   1.00000000000000     
  0.000000000000000E+000
  0.000000000000000E+000
  0.000000000000000E+000
  0.000000000000000E+000
  0.000000000000000E+000
  0.000000000000000E+000
  0.000000000000000E+000
  0.000000000000000E+000
  0.000000000000000E+000
  0.000000000000000E+000
  0.000000000000000E+000
  0.000000000000000E+000
  0.000000000000000E+000
  0.000000000000000E+000
   1.00000000000000     
  0.000000000000000E+000
  0.000000000000000E+000
  0.000000000000000E+000
  0.000000000000000E+000
  0.000000000000000E+000
  0.000000000000000E+000
  0.000000000000000E+000
  0.000000000000000E+000
  0.000000000000000E+000
  0.000000000000000E+000
  0.000000000000000E+000
  0.000000000000000E+000
  0.000000000000000E+000
  0.000000000000000E+000
   1.00000000000000     
  0.000000000000000E+000
  0.000000000000000E+000
  0.000000000000000E+000
  0.000000000000000E+000
  0.000000000000000E+000
  0.000000000000000E+000
  0.000000000000000E+000
  0.000000000000000E+000
  0.000000000000000E+000
  0.000000000000000E+000
  0.000000000000000E+000
  0.000000000000000E+000
  0.000000000000000E+000
   1.00000000000000     
   1.00000000000000     
  0.000000000000000E+000
  0.000000000000000E+000
  0.000000000000000E+000
  0.000000000000000E+000
  0.000000000000000E+000
  0.000000000000000E+000
  0.000000000000000E+000
  0.000000000000000E+000
  0.000000000000000E+000
  0.000000000000000E+000
  0.000000000000000E+000
  0.000000000000000E+000
  0.000000000000000E+000
   1.00000000000000     
   1.00000000000000     
  0.000000000000000E+000
  0.000000000000000E+000
  0.000000000000000E+000
  0.000000000000000E+000
  0.000000000000000E+000
  0.000000000000000E+000
  0.000000000000000E+000
  0.000000000000000E+000
  0.000000000000000E+000
  0.000000000000000E+000
  0.000000000000000E+000
  0.000000000000000E+000
  0.000000000000000E+000
   1.00000000000000     
   1.00000000000000     
  0.000000000000000E+000
  0.000000000000000E+000
  0.000000000000000E+000
  0.000000000000000E+000
  0.000000000000000E+000
  0.000000000000000E+000
  0.000000000000000E+000
  0.000000000000000E+000
  0.000000000000000E+000
  0.000000000000000E+000
  0.000000000000000E+000
  0.000000000000000E+000
  0.000000000000000E+000
   1.00000000000000     
   1.00000000000000     
  0.000000000000000E+000
  0.000000000000000E+000
  0.000000000000000E+000
  0.000000000000000E+000
  0.000000000000000E+000
  0.000000000000000E+000
  0.000000000000000E+000
  0.000000000000000E+000
  0.000000000000000E+000
  0.000000000000000E+000
  0.000000000000000E+000
  0.000000000000000E+000
  0.000000000000000E+000
   1.00000000000000     
   1.00000000000000     
  0.000000000000000E+000
  0.000000000000000E+000
  0.000000000000000E+000
  0.000000000000000E+000
  0.000000000000000E+000
  0.000000000000000E+000
  0.000000000000000E+000
  0.000000000000000E+000
  0.000000000000000E+000
  0.000000000000000E+000
  0.000000000000000E+000
  0.000000000000000E+000
  0.000000000000000E+000
  0.000000000000000E+000
   1.00000000000000     
SCALARS poroL double 
LOOKUP_TABLE default
  0.276322397364406     
  0.274729256758794     
  0.272303162526399     
  0.269572185462827     
  0.266863952532809     
  0.264313871717628     
  0.261938944672355     
  0.259818745141445     
  0.258215793301754     
  0.257255029596920     
  0.256529947056383     
  0.255915953511420     
  0.255361546965336     
  0.254825413077406     
  0.254233635195937     
  0.267676140046295     
  0.265600332328433     
  0.264134493285941     
  0.262850605648824     
  0.261502121130173     
  0.260118571744521     
  0.258900113681042     
  0.258036971827063     
  0.257330045752916     
  0.256605902502488     
  0.255951854511787     
  0.255378089090280     
  0.254856194148333     
  0.254361954606677     
  0.253900673573041     
  0.260613955867893     
  0.259396649586104     
  0.258676694171885     
  0.258208090518177     
  0.257904331452361     
  0.257684861753474     
  0.257398502571980     
  0.256954361012478     
  0.256405944410392     
  0.255841870324336     
  0.255295486059687     
  0.254788025957424     
  0.254321016809452     
  0.253892772326664     
  0.253510126651853     
  0.257854968381511     
  0.257483732484856     
  0.257161189528568     
  0.256959249621317     
  0.256803271591133     
  0.256586073270170     
  0.256293796042554     
  0.255927286469084     
  0.255499837580976     
  0.255043573150020     
  0.254589685565136     
  0.254155373878517     
  0.253750593690387     
  0.253381793917161     
  0.253057301731905     
  0.256487984116218     
  0.256278123979006     
  0.256124236432513     
  0.255961400199221     
  0.255770181650297     
  0.255548982013624     
  0.255280809233088     
  0.254965150825234     
  0.254611732074003     
  0.254236683808248     
  0.253857809405499     
  0.253489951896584     
  0.253143590099732     
  0.252826967587089     
  0.252547721348275     
  0.255404440365036     
  0.255286886373111     
  0.255132015222186     
  0.254962039572290     
  0.254773512560764     
  0.254559096458220     
  0.254315231945225     
  0.254041138584696     
  0.253742317569620     
  0.253428409456280     
  0.253110666093171     
  0.252799772527833     
  0.252504793961258     
  0.252233176603466     
  0.251991188257451     
  0.254459341261974     
  0.254304021056442     
  0.254147663822935     
  0.253979386946438     
  0.253797340438027     
  0.253597949100324     
  0.253378734902838     
  0.253140091886925     
  0.252885361012996     
  0.252620553486632     
  0.252353085863235     
  0.252090567477150     
  0.251839980850352     
  0.251607313702675     
  0.251397384117214     
  0.253495705885062     
  0.253329330314962     
  0.253169124487234     
  0.253006345554210     
  0.252835571355184     
  0.252653842812553     
  0.252459517521686     
  0.252252756024245     
  0.252035725257769     
  0.251812278595278     
  0.251587372072066     
  0.251366350435392     
  0.251154353575921     
  0.250955897690480     
  0.250774567647911     
  0.252510195429416     
  0.252346445951573     
  0.252191077036084     
  0.252037638632171     
  0.251881418984214     
  0.251719353202279     
  0.251549889561784     
  0.251372880444063     
  0.251189568248011     
  0.251002398140603     
  0.250814653545604     
  0.250630020452234     
  0.250452164705029     
  0.250284376733966     
  0.250129279719459     
  0.251504625130823     
  0.251351708961729     
  0.251207784150647     
  0.251068363422866     
  0.250929664849452     
  0.250788957342432     
  0.250644627554483     
  0.250496172397768     
  0.250344127212646     
  0.250189921427103     
  0.250035644956417     
  0.249883758569234     
  0.249736796333750     
  0.249597093065290     
  0.249466552859070     
  0.250480868181679     
  0.250343770325000     
  0.250216120916900     
  0.250094633996179     
  0.249976279144667     
  0.249858629289148     
  0.249740033932585     
  0.249619667941732     
  0.249497500575110     
  0.249374195666445     
  0.249250954460164     
  0.249129319258072     
  0.249010963742975     
  0.248897494225137     
  0.248790279861873     
  0.249439750363232     
  0.249321818468852     
  0.249214020008170     
  0.249113704366026     
  0.249018264745643     
  0.248925442543616     
  0.248833509741219     
  0.248741351193389     
  0.248648468244769     
  0.248554921756434     
  0.248461228680062     
  0.248368228141237     
  0.248276934837505     
  0.248188397719867     
  0.248103580301784     
  0.248381103970965     
  0.248284897971702     
  0.248199857948506     
  0.248123530928604     
  0.248053436149525     
  0.247987311274426     
  0.247923277922264     
  0.247859931038252     
  0.247796363763375     
  0.247732140722970     
  0.247667232809832     
  0.247601926635400     
  0.247536722406884     
  0.247472234258909     
  0.247409106818226     
  0.247303871936544     
  0.247231742271560     
  0.247172143740197     
  0.247122492708676     
  0.247080185669780     
  0.247042793994212     
  0.247008203567108     
  0.246974698172334     
  0.246940992234652     
  0.246906222061822     
  0.246869905845555     
  0.246831882709467     
  0.246792241002424     
  0.246751246490420     
  0.246709282142300     
  0.246206272224073     
  0.246160760905610     
  0.246129402644281     
  0.246109234520514     
  0.246097330585344     
  0.246090955259357     
  0.246087676620906     
  0.246085436673383     
  0.246082582064010     
  0.246077862650091     
  0.246070406492470     
  0.246059678757527     
  0.246045430256968     
  0.246027641934541     
  0.246006474858684     
  0.245085972970132     
  0.245070104388905     
  0.245070160543576     
  0.245082606847369     
  0.245104035503591     
  0.245131288055597     
  0.245161544382196     
  0.245192375402498     
  0.245221763214705     
  0.245248097328482     
  0.245270156795399     
  0.245287084041653     
  0.245298349716932     
  0.245303704412585     
  0.245303123506176     
  0.243940265149130     
  0.243957766636885     
  0.243992990062950     
  0.244041673161733     
  0.244099797213974     
  0.244163688574809     
  0.244230085702078     
  0.244296169918231     
  0.244359565375775     
  0.244418320445348     
  0.244470888673877     
  0.244516120157740     
  0.244553251266193     
  0.244581866524406     
  0.244601811163738     
  0.242766226841089     
  0.242821708759319     
  0.242896598259609     
  0.242985768181419     
  0.243084480296351     
  0.243188475268982     
  0.243294019188805     
  0.243397906388950     
  0.243497426855201     
  0.243590314100906     
  0.243674701099824     
  0.243749134754952     
  0.243812643046689     
  0.243864736751913     
  0.243905274829666     
  0.241560878644889     
  0.241659998705885     
  0.241779948559635     
  0.241914600105655     
  0.242058397886051     
  0.242206447154276     
  0.242354539595457     
  0.242499119218182     
  0.242637200931702     
  0.242766261860414     
  0.242884129714561     
  0.242988936654994     
  0.243079378038048     
  0.243155077838006     
  0.243216266986579     
  0.240321332022210     
  0.240470968745722     
  0.240642419225875     
  0.240828399089004     
  0.241022439095576     
  0.241218981306646     
  0.241413379922139     
  0.241601815928599     
  0.241781146474934     
  0.241948713227905     
  0.242102135318226     
  0.242239063839840     
  0.242357113007245     
  0.242455605147427     
  0.242537027627415     
  0.239044933985536     
  0.239253400087128     
  0.239484010802740     
  0.239728124252391     
  0.239978252671431     
  0.240228175221603     
  0.240472900975669     
  0.240708507596493     
  0.240931894275656     
  0.241140484154288     
  0.241331894727839     
  0.241503593791026     
  0.241651885616654     
  0.241770974683441     
  0.241865148683605     
  0.237729414457094     
  0.238006754646375     
  0.238305629082771     
  0.238615754511950     
  0.238928505687164     
  0.239237045036907     
  0.239536213620954     
  0.239822247545286     
  0.240092395230543     
  0.240344490736624     
  0.240576505221472     
  0.240786076542405     
  0.240970310924780     
  0.241119009383656     
  0.241186148461213     
  0.236373049512706     
  0.236731493639702     
  0.237109493580343     
  0.237494707394323     
  0.237877246186234     
  0.238249793142059     
  0.238607338077984     
  0.238946682543595     
  0.239265861690690     
  0.239563567724767     
  0.239838595046809     
  0.240089254082415     
  0.240313185335521     
  0.240513544406546     
  0.240510425537967     
  0.234974870389945     
  0.235429562518463     
  0.235899765230085     
  0.236370458726586     
  0.236830407529668     
  0.237272152796149     
  0.237691394067112     
  0.238086112956426     
  0.238455715205875     
  0.238800300893368     
  0.239120033921958     
  0.239414562994160     
  0.239681582177398     
  0.239920793562116     
  0.239842215087358     
  0.233534985038246     
  0.234105213395962     
  0.234683571502301     
  0.235251480293886     
  0.235796488762296     
  0.236311790999905     
  0.236794787318074     
  0.237245538644671     
  0.237665543589994     
  0.238056902269747     
  0.238421738815912     
  0.238761623845330     
  0.239077188043377     
  0.239343474288397     
  0.239222170804253     
  0.232055196483644     
  0.232766544338393     
  0.233472795087869     
  0.234150654966345     
  0.234787398324812     
  0.235378675923776     
  0.235925305383254     
  0.236430639878306     
  0.236899049476944     
  0.237335171995226     
  0.237743531080896     
  0.238128363287634     
  0.238493367920566     
  0.238786635512534     
  0.238663995602427     
  0.230540338089720     
  0.231428831247025     
  0.232287297922786     
  0.233087324764932     
  0.233819223627396     
  0.234485160739747     
  0.235091978453887     
  0.235647617403755     
  0.236159963459973     
  0.236636518361176     
  0.237084406565943     
  0.237510572280392     
  0.237922263501735     
  0.238258117231092     
  0.238159757833152     
  0.229002749031449     
  0.230122163233364     
  0.231161140593837     
  0.232089303986526     
  0.232912096456191     
  0.233645420637080     
  0.234304536595670     
  0.234902822670741     
  0.235451883181036     
  0.235962039572077     
  0.236442874349799     
  0.236903695585830     
  0.237354424204793     
  0.237757689676267     
  0.237709326009099     
  0.227475983906043     
  0.228915978462397     
  0.230149637197397     
  0.231191198673500     
  0.232088253125050     
  0.232873895866055     
  0.233572385231400     
  0.234202161861584     
  0.234778027694070     
  0.235312599214088     
  0.235817382403705     
  0.236303729793221     
  0.236782652134957     
  0.237261592501424     
  0.237306489381455     
  0.226139919087003     
  0.227952669953062     
  0.229316133733516     
  0.230427578554224     
  0.231367682116504     
  0.232182845594504     
  0.232903217738402     
  0.233550357677200     
  0.234140936906885     
  0.234688868269537     
  0.235206741501769     
  0.235706987546781     
  0.236203722063317     
  0.236716581798149     
  0.236935613820216     
