# vtk DataFile Version 3.0
vtk output
ASCII
DATASET UNSTRUCTURED_GRID
POINTS      5151 double 
  0.00000000E+00  3.00000000E+02  0.00000000E+00
  0.00000000E+00  2.94000000E+02  0.00000000E+00
  0.00000000E+00  2.88000000E+02  0.00000000E+00
  0.00000000E+00  2.82000000E+02  0.00000000E+00
  0.00000000E+00  2.76000000E+02  0.00000000E+00
  0.00000000E+00  2.70000000E+02  0.00000000E+00
  0.00000000E+00  2.64000000E+02  0.00000000E+00
  0.00000000E+00  2.58000000E+02  0.00000000E+00
  0.00000000E+00  2.52000000E+02  0.00000000E+00
  0.00000000E+00  2.46000000E+02  0.00000000E+00
  0.00000000E+00  2.40000000E+02  0.00000000E+00
  0.00000000E+00  2.34000000E+02  0.00000000E+00
  0.00000000E+00  2.28000000E+02  0.00000000E+00
  0.00000000E+00  2.22000000E+02  0.00000000E+00
  0.00000000E+00  2.16000000E+02  0.00000000E+00
  0.00000000E+00  2.10000000E+02  0.00000000E+00
  0.00000000E+00  2.04000000E+02  0.00000000E+00
  0.00000000E+00  1.98000000E+02  0.00000000E+00
  0.00000000E+00  1.92000000E+02  0.00000000E+00
  0.00000000E+00  1.86000000E+02  0.00000000E+00
  0.00000000E+00  1.80000000E+02  0.00000000E+00
  0.00000000E+00  1.74000000E+02  0.00000000E+00
  0.00000000E+00  1.68000000E+02  0.00000000E+00
  0.00000000E+00  1.62000000E+02  0.00000000E+00
  0.00000000E+00  1.56000000E+02  0.00000000E+00
  0.00000000E+00  1.50000000E+02  0.00000000E+00
  0.00000000E+00  1.44000000E+02  0.00000000E+00
  0.00000000E+00  1.38000000E+02  0.00000000E+00
  0.00000000E+00  1.32000000E+02  0.00000000E+00
  0.00000000E+00  1.26000000E+02  0.00000000E+00
  0.00000000E+00  1.20000000E+02  0.00000000E+00
  0.00000000E+00  1.14000000E+02  0.00000000E+00
  0.00000000E+00  1.08000000E+02  0.00000000E+00
  0.00000000E+00  1.02000000E+02  0.00000000E+00
  0.00000000E+00  9.60000000E+01  0.00000000E+00
  0.00000000E+00  9.00000000E+01  0.00000000E+00
  0.00000000E+00  8.40000000E+01  0.00000000E+00
  0.00000000E+00  7.80000000E+01  0.00000000E+00
  0.00000000E+00  7.20000000E+01  0.00000000E+00
  0.00000000E+00  6.60000000E+01  0.00000000E+00
  0.00000000E+00  6.00000000E+01  0.00000000E+00
  0.00000000E+00  5.40000000E+01  0.00000000E+00
  0.00000000E+00  4.80000000E+01  0.00000000E+00
  0.00000000E+00  4.20000000E+01  0.00000000E+00
  0.00000000E+00  3.60000000E+01  0.00000000E+00
  0.00000000E+00  3.00000000E+01  0.00000000E+00
  0.00000000E+00  2.40000000E+01  0.00000000E+00
  0.00000000E+00  1.80000000E+01  0.00000000E+00
  0.00000000E+00  1.20000000E+01  0.00000000E+00
  0.00000000E+00  6.00000000E+00  0.00000000E+00
  0.00000000E+00 -9.99200722E-14  0.00000000E+00
  6.00000000E+00  3.00000000E+02  0.00000000E+00
  6.00000000E+00  2.94000000E+02  0.00000000E+00
  6.00000000E+00  2.88000000E+02  0.00000000E+00
  6.00000000E+00  2.82000000E+02  0.00000000E+00
  6.00000000E+00  2.76000000E+02  0.00000000E+00
  6.00000000E+00  2.70000000E+02  0.00000000E+00
  6.00000000E+00  2.64000000E+02  0.00000000E+00
  6.00000000E+00  2.58000000E+02  0.00000000E+00
  6.00000000E+00  2.52000000E+02  0.00000000E+00
  6.00000000E+00  2.46000000E+02  0.00000000E+00
  6.00000000E+00  2.40000000E+02  0.00000000E+00
  6.00000000E+00  2.34000000E+02  0.00000000E+00
  6.00000000E+00  2.28000000E+02  0.00000000E+00
  6.00000000E+00  2.22000000E+02  0.00000000E+00
  6.00000000E+00  2.16000000E+02  0.00000000E+00
  6.00000000E+00  2.10000000E+02  0.00000000E+00
  6.00000000E+00  2.04000000E+02  0.00000000E+00
  6.00000000E+00  1.98000000E+02  0.00000000E+00
  6.00000000E+00  1.92000000E+02  0.00000000E+00
  6.00000000E+00  1.86000000E+02  0.00000000E+00
  6.00000000E+00  1.80000000E+02  0.00000000E+00
  6.00000000E+00  1.74000000E+02  0.00000000E+00
  6.00000000E+00  1.68000000E+02  0.00000000E+00
  6.00000000E+00  1.62000000E+02  0.00000000E+00
  6.00000000E+00  1.56000000E+02  0.00000000E+00
  6.00000000E+00  1.50000000E+02  0.00000000E+00
  6.00000000E+00  1.44000000E+02  0.00000000E+00
  6.00000000E+00  1.38000000E+02  0.00000000E+00
  6.00000000E+00  1.32000000E+02  0.00000000E+00
  6.00000000E+00  1.26000000E+02  0.00000000E+00
  6.00000000E+00  1.20000000E+02  0.00000000E+00
  6.00000000E+00  1.14000000E+02  0.00000000E+00
  6.00000000E+00  1.08000000E+02  0.00000000E+00
  6.00000000E+00  1.02000000E+02  0.00000000E+00
  6.00000000E+00  9.60000000E+01  0.00000000E+00
  6.00000000E+00  9.00000000E+01  0.00000000E+00
  6.00000000E+00  8.40000000E+01  0.00000000E+00
  6.00000000E+00  7.80000000E+01  0.00000000E+00
  6.00000000E+00  7.20000000E+01  0.00000000E+00
  6.00000000E+00  6.60000000E+01  0.00000000E+00
  6.00000000E+00  6.00000000E+01  0.00000000E+00
  6.00000000E+00  5.40000000E+01  0.00000000E+00
  6.00000000E+00  4.80000000E+01  0.00000000E+00
  6.00000000E+00  4.20000000E+01  0.00000000E+00
  6.00000000E+00  3.60000000E+01  0.00000000E+00
  6.00000000E+00  3.00000000E+01  0.00000000E+00
  6.00000000E+00  2.40000000E+01  0.00000000E+00
  6.00000000E+00  1.80000000E+01  0.00000000E+00
  6.00000000E+00  1.20000000E+01  0.00000000E+00
  6.00000000E+00  6.00000000E+00  0.00000000E+00
  6.00000000E+00 -9.99200722E-14  0.00000000E+00
  1.20000000E+01  3.00000000E+02  0.00000000E+00
  1.20000000E+01  2.94000000E+02  0.00000000E+00
  1.20000000E+01  2.88000000E+02  0.00000000E+00
  1.20000000E+01  2.82000000E+02  0.00000000E+00
  1.20000000E+01  2.76000000E+02  0.00000000E+00
  1.20000000E+01  2.70000000E+02  0.00000000E+00
  1.20000000E+01  2.64000000E+02  0.00000000E+00
  1.20000000E+01  2.58000000E+02  0.00000000E+00
  1.20000000E+01  2.52000000E+02  0.00000000E+00
  1.20000000E+01  2.46000000E+02  0.00000000E+00
  1.20000000E+01  2.40000000E+02  0.00000000E+00
  1.20000000E+01  2.34000000E+02  0.00000000E+00
  1.20000000E+01  2.28000000E+02  0.00000000E+00
  1.20000000E+01  2.22000000E+02  0.00000000E+00
  1.20000000E+01  2.16000000E+02  0.00000000E+00
  1.20000000E+01  2.10000000E+02  0.00000000E+00
  1.20000000E+01  2.04000000E+02  0.00000000E+00
  1.20000000E+01  1.98000000E+02  0.00000000E+00
  1.20000000E+01  1.92000000E+02  0.00000000E+00
  1.20000000E+01  1.86000000E+02  0.00000000E+00
  1.20000000E+01  1.80000000E+02  0.00000000E+00
  1.20000000E+01  1.74000000E+02  0.00000000E+00
  1.20000000E+01  1.68000000E+02  0.00000000E+00
  1.20000000E+01  1.62000000E+02  0.00000000E+00
  1.20000000E+01  1.56000000E+02  0.00000000E+00
  1.20000000E+01  1.50000000E+02  0.00000000E+00
  1.20000000E+01  1.44000000E+02  0.00000000E+00
  1.20000000E+01  1.38000000E+02  0.00000000E+00
  1.20000000E+01  1.32000000E+02  0.00000000E+00
  1.20000000E+01  1.26000000E+02  0.00000000E+00
  1.20000000E+01  1.20000000E+02  0.00000000E+00
  1.20000000E+01  1.14000000E+02  0.00000000E+00
  1.20000000E+01  1.08000000E+02  0.00000000E+00
  1.20000000E+01  1.02000000E+02  0.00000000E+00
  1.20000000E+01  9.60000000E+01  0.00000000E+00
  1.20000000E+01  9.00000000E+01  0.00000000E+00
  1.20000000E+01  8.40000000E+01  0.00000000E+00
  1.20000000E+01  7.80000000E+01  0.00000000E+00
  1.20000000E+01  7.20000000E+01  0.00000000E+00
  1.20000000E+01  6.60000000E+01  0.00000000E+00
  1.20000000E+01  6.00000000E+01  0.00000000E+00
  1.20000000E+01  5.40000000E+01  0.00000000E+00
  1.20000000E+01  4.80000000E+01  0.00000000E+00
  1.20000000E+01  4.20000000E+01  0.00000000E+00
  1.20000000E+01  3.60000000E+01  0.00000000E+00
  1.20000000E+01  3.00000000E+01  0.00000000E+00
  1.20000000E+01  2.40000000E+01  0.00000000E+00
  1.20000000E+01  1.80000000E+01  0.00000000E+00
  1.20000000E+01  1.20000000E+01  0.00000000E+00
  1.20000000E+01  6.00000000E+00  0.00000000E+00
  1.20000000E+01 -9.99200722E-14  0.00000000E+00
  1.80000000E+01  3.00000000E+02  0.00000000E+00
  1.80000000E+01  2.94000000E+02  0.00000000E+00
  1.80000000E+01  2.88000000E+02  0.00000000E+00
  1.80000000E+01  2.82000000E+02  0.00000000E+00
  1.80000000E+01  2.76000000E+02  0.00000000E+00
  1.80000000E+01  2.70000000E+02  0.00000000E+00
  1.80000000E+01  2.64000000E+02  0.00000000E+00
  1.80000000E+01  2.58000000E+02  0.00000000E+00
  1.80000000E+01  2.52000000E+02  0.00000000E+00
  1.80000000E+01  2.46000000E+02  0.00000000E+00
  1.80000000E+01  2.40000000E+02  0.00000000E+00
  1.80000000E+01  2.34000000E+02  0.00000000E+00
  1.80000000E+01  2.28000000E+02  0.00000000E+00
  1.80000000E+01  2.22000000E+02  0.00000000E+00
  1.80000000E+01  2.16000000E+02  0.00000000E+00
  1.80000000E+01  2.10000000E+02  0.00000000E+00
  1.80000000E+01  2.04000000E+02  0.00000000E+00
  1.80000000E+01  1.98000000E+02  0.00000000E+00
  1.80000000E+01  1.92000000E+02  0.00000000E+00
  1.80000000E+01  1.86000000E+02  0.00000000E+00
  1.80000000E+01  1.80000000E+02  0.00000000E+00
  1.80000000E+01  1.74000000E+02  0.00000000E+00
  1.80000000E+01  1.68000000E+02  0.00000000E+00
  1.80000000E+01  1.62000000E+02  0.00000000E+00
  1.80000000E+01  1.56000000E+02  0.00000000E+00
  1.80000000E+01  1.50000000E+02  0.00000000E+00
  1.80000000E+01  1.44000000E+02  0.00000000E+00
  1.80000000E+01  1.38000000E+02  0.00000000E+00
  1.80000000E+01  1.32000000E+02  0.00000000E+00
  1.80000000E+01  1.26000000E+02  0.00000000E+00
  1.80000000E+01  1.20000000E+02  0.00000000E+00
  1.80000000E+01  1.14000000E+02  0.00000000E+00
  1.80000000E+01  1.08000000E+02  0.00000000E+00
  1.80000000E+01  1.02000000E+02  0.00000000E+00
  1.80000000E+01  9.60000000E+01  0.00000000E+00
  1.80000000E+01  9.00000000E+01  0.00000000E+00
  1.80000000E+01  8.40000000E+01  0.00000000E+00
  1.80000000E+01  7.80000000E+01  0.00000000E+00
  1.80000000E+01  7.20000000E+01  0.00000000E+00
  1.80000000E+01  6.60000000E+01  0.00000000E+00
  1.80000000E+01  6.00000000E+01  0.00000000E+00
  1.80000000E+01  5.40000000E+01  0.00000000E+00
  1.80000000E+01  4.80000000E+01  0.00000000E+00
  1.80000000E+01  4.20000000E+01  0.00000000E+00
  1.80000000E+01  3.60000000E+01  0.00000000E+00
  1.80000000E+01  3.00000000E+01  0.00000000E+00
  1.80000000E+01  2.40000000E+01  0.00000000E+00
  1.80000000E+01  1.80000000E+01  0.00000000E+00
  1.80000000E+01  1.20000000E+01  0.00000000E+00
  1.80000000E+01  6.00000000E+00  0.00000000E+00
  1.80000000E+01 -9.99200722E-14  0.00000000E+00
  2.40000000E+01  3.00000000E+02  0.00000000E+00
  2.40000000E+01  2.94000000E+02  0.00000000E+00
  2.40000000E+01  2.88000000E+02  0.00000000E+00
  2.40000000E+01  2.82000000E+02  0.00000000E+00
  2.40000000E+01  2.76000000E+02  0.00000000E+00
  2.40000000E+01  2.70000000E+02  0.00000000E+00
  2.40000000E+01  2.64000000E+02  0.00000000E+00
  2.40000000E+01  2.58000000E+02  0.00000000E+00
  2.40000000E+01  2.52000000E+02  0.00000000E+00
  2.40000000E+01  2.46000000E+02  0.00000000E+00
  2.40000000E+01  2.40000000E+02  0.00000000E+00
  2.40000000E+01  2.34000000E+02  0.00000000E+00
  2.40000000E+01  2.28000000E+02  0.00000000E+00
  2.40000000E+01  2.22000000E+02  0.00000000E+00
  2.40000000E+01  2.16000000E+02  0.00000000E+00
  2.40000000E+01  2.10000000E+02  0.00000000E+00
  2.40000000E+01  2.04000000E+02  0.00000000E+00
  2.40000000E+01  1.98000000E+02  0.00000000E+00
  2.40000000E+01  1.92000000E+02  0.00000000E+00
  2.40000000E+01  1.86000000E+02  0.00000000E+00
  2.40000000E+01  1.80000000E+02  0.00000000E+00
  2.40000000E+01  1.74000000E+02  0.00000000E+00
  2.40000000E+01  1.68000000E+02  0.00000000E+00
  2.40000000E+01  1.62000000E+02  0.00000000E+00
  2.40000000E+01  1.56000000E+02  0.00000000E+00
  2.40000000E+01  1.50000000E+02  0.00000000E+00
  2.40000000E+01  1.44000000E+02  0.00000000E+00
  2.40000000E+01  1.38000000E+02  0.00000000E+00
  2.40000000E+01  1.32000000E+02  0.00000000E+00
  2.40000000E+01  1.26000000E+02  0.00000000E+00
  2.40000000E+01  1.20000000E+02  0.00000000E+00
  2.40000000E+01  1.14000000E+02  0.00000000E+00
  2.40000000E+01  1.08000000E+02  0.00000000E+00
  2.40000000E+01  1.02000000E+02  0.00000000E+00
  2.40000000E+01  9.60000000E+01  0.00000000E+00
  2.40000000E+01  9.00000000E+01  0.00000000E+00
  2.40000000E+01  8.40000000E+01  0.00000000E+00
  2.40000000E+01  7.80000000E+01  0.00000000E+00
  2.40000000E+01  7.20000000E+01  0.00000000E+00
  2.40000000E+01  6.60000000E+01  0.00000000E+00
  2.40000000E+01  6.00000000E+01  0.00000000E+00
  2.40000000E+01  5.40000000E+01  0.00000000E+00
  2.40000000E+01  4.80000000E+01  0.00000000E+00
  2.40000000E+01  4.20000000E+01  0.00000000E+00
  2.40000000E+01  3.60000000E+01  0.00000000E+00
  2.40000000E+01  3.00000000E+01  0.00000000E+00
  2.40000000E+01  2.40000000E+01  0.00000000E+00
  2.40000000E+01  1.80000000E+01  0.00000000E+00
  2.40000000E+01  1.20000000E+01  0.00000000E+00
  2.40000000E+01  6.00000000E+00  0.00000000E+00
  2.40000000E+01 -9.99200722E-14  0.00000000E+00
  3.00000000E+01  3.00000000E+02  0.00000000E+00
  3.00000000E+01  2.94000000E+02  0.00000000E+00
  3.00000000E+01  2.88000000E+02  0.00000000E+00
  3.00000000E+01  2.82000000E+02  0.00000000E+00
  3.00000000E+01  2.76000000E+02  0.00000000E+00
  3.00000000E+01  2.70000000E+02  0.00000000E+00
  3.00000000E+01  2.64000000E+02  0.00000000E+00
  3.00000000E+01  2.58000000E+02  0.00000000E+00
  3.00000000E+01  2.52000000E+02  0.00000000E+00
  3.00000000E+01  2.46000000E+02  0.00000000E+00
  3.00000000E+01  2.40000000E+02  0.00000000E+00
  3.00000000E+01  2.34000000E+02  0.00000000E+00
  3.00000000E+01  2.28000000E+02  0.00000000E+00
  3.00000000E+01  2.22000000E+02  0.00000000E+00
  3.00000000E+01  2.16000000E+02  0.00000000E+00
  3.00000000E+01  2.10000000E+02  0.00000000E+00
  3.00000000E+01  2.04000000E+02  0.00000000E+00
  3.00000000E+01  1.98000000E+02  0.00000000E+00
  3.00000000E+01  1.92000000E+02  0.00000000E+00
  3.00000000E+01  1.86000000E+02  0.00000000E+00
  3.00000000E+01  1.80000000E+02  0.00000000E+00
  3.00000000E+01  1.74000000E+02  0.00000000E+00
  3.00000000E+01  1.68000000E+02  0.00000000E+00
  3.00000000E+01  1.62000000E+02  0.00000000E+00
  3.00000000E+01  1.56000000E+02  0.00000000E+00
  3.00000000E+01  1.50000000E+02  0.00000000E+00
  3.00000000E+01  1.44000000E+02  0.00000000E+00
  3.00000000E+01  1.38000000E+02  0.00000000E+00
  3.00000000E+01  1.32000000E+02  0.00000000E+00
  3.00000000E+01  1.26000000E+02  0.00000000E+00
  3.00000000E+01  1.20000000E+02  0.00000000E+00
  3.00000000E+01  1.14000000E+02  0.00000000E+00
  3.00000000E+01  1.08000000E+02  0.00000000E+00
  3.00000000E+01  1.02000000E+02  0.00000000E+00
  3.00000000E+01  9.60000000E+01  0.00000000E+00
  3.00000000E+01  9.00000000E+01  0.00000000E+00
  3.00000000E+01  8.40000000E+01  0.00000000E+00
  3.00000000E+01  7.80000000E+01  0.00000000E+00
  3.00000000E+01  7.20000000E+01  0.00000000E+00
  3.00000000E+01  6.60000000E+01  0.00000000E+00
  3.00000000E+01  6.00000000E+01  0.00000000E+00
  3.00000000E+01  5.40000000E+01  0.00000000E+00
  3.00000000E+01  4.80000000E+01  0.00000000E+00
  3.00000000E+01  4.20000000E+01  0.00000000E+00
  3.00000000E+01  3.60000000E+01  0.00000000E+00
  3.00000000E+01  3.00000000E+01  0.00000000E+00
  3.00000000E+01  2.40000000E+01  0.00000000E+00
  3.00000000E+01  1.80000000E+01  0.00000000E+00
  3.00000000E+01  1.20000000E+01  0.00000000E+00
  3.00000000E+01  6.00000000E+00  0.00000000E+00
  3.00000000E+01 -9.99200722E-14  0.00000000E+00
  3.60000000E+01  3.00000000E+02  0.00000000E+00
  3.60000000E+01  2.94000000E+02  0.00000000E+00
  3.60000000E+01  2.88000000E+02  0.00000000E+00
  3.60000000E+01  2.82000000E+02  0.00000000E+00
  3.60000000E+01  2.76000000E+02  0.00000000E+00
  3.60000000E+01  2.70000000E+02  0.00000000E+00
  3.60000000E+01  2.64000000E+02  0.00000000E+00
  3.60000000E+01  2.58000000E+02  0.00000000E+00
  3.60000000E+01  2.52000000E+02  0.00000000E+00
  3.60000000E+01  2.46000000E+02  0.00000000E+00
  3.60000000E+01  2.40000000E+02  0.00000000E+00
  3.60000000E+01  2.34000000E+02  0.00000000E+00
  3.60000000E+01  2.28000000E+02  0.00000000E+00
  3.60000000E+01  2.22000000E+02  0.00000000E+00
  3.60000000E+01  2.16000000E+02  0.00000000E+00
  3.60000000E+01  2.10000000E+02  0.00000000E+00
  3.60000000E+01  2.04000000E+02  0.00000000E+00
  3.60000000E+01  1.98000000E+02  0.00000000E+00
  3.60000000E+01  1.92000000E+02  0.00000000E+00
  3.60000000E+01  1.86000000E+02  0.00000000E+00
  3.60000000E+01  1.80000000E+02  0.00000000E+00
  3.60000000E+01  1.74000000E+02  0.00000000E+00
  3.60000000E+01  1.68000000E+02  0.00000000E+00
  3.60000000E+01  1.62000000E+02  0.00000000E+00
  3.60000000E+01  1.56000000E+02  0.00000000E+00
  3.60000000E+01  1.50000000E+02  0.00000000E+00
  3.60000000E+01  1.44000000E+02  0.00000000E+00
  3.60000000E+01  1.38000000E+02  0.00000000E+00
  3.60000000E+01  1.32000000E+02  0.00000000E+00
  3.60000000E+01  1.26000000E+02  0.00000000E+00
  3.60000000E+01  1.20000000E+02  0.00000000E+00
  3.60000000E+01  1.14000000E+02  0.00000000E+00
  3.60000000E+01  1.08000000E+02  0.00000000E+00
  3.60000000E+01  1.02000000E+02  0.00000000E+00
  3.60000000E+01  9.60000000E+01  0.00000000E+00
  3.60000000E+01  9.00000000E+01  0.00000000E+00
  3.60000000E+01  8.40000000E+01  0.00000000E+00
  3.60000000E+01  7.80000000E+01  0.00000000E+00
  3.60000000E+01  7.20000000E+01  0.00000000E+00
  3.60000000E+01  6.60000000E+01  0.00000000E+00
  3.60000000E+01  6.00000000E+01  0.00000000E+00
  3.60000000E+01  5.40000000E+01  0.00000000E+00
  3.60000000E+01  4.80000000E+01  0.00000000E+00
  3.60000000E+01  4.20000000E+01  0.00000000E+00
  3.60000000E+01  3.60000000E+01  0.00000000E+00
  3.60000000E+01  3.00000000E+01  0.00000000E+00
  3.60000000E+01  2.40000000E+01  0.00000000E+00
  3.60000000E+01  1.80000000E+01  0.00000000E+00
  3.60000000E+01  1.20000000E+01  0.00000000E+00
  3.60000000E+01  6.00000000E+00  0.00000000E+00
  3.60000000E+01 -9.99200722E-14  0.00000000E+00
  4.20000000E+01  3.00000000E+02  0.00000000E+00
  4.20000000E+01  2.94000000E+02  0.00000000E+00
  4.20000000E+01  2.88000000E+02  0.00000000E+00
  4.20000000E+01  2.82000000E+02  0.00000000E+00
  4.20000000E+01  2.76000000E+02  0.00000000E+00
  4.20000000E+01  2.70000000E+02  0.00000000E+00
  4.20000000E+01  2.64000000E+02  0.00000000E+00
  4.20000000E+01  2.58000000E+02  0.00000000E+00
  4.20000000E+01  2.52000000E+02  0.00000000E+00
  4.20000000E+01  2.46000000E+02  0.00000000E+00
  4.20000000E+01  2.40000000E+02  0.00000000E+00
  4.20000000E+01  2.34000000E+02  0.00000000E+00
  4.20000000E+01  2.28000000E+02  0.00000000E+00
  4.20000000E+01  2.22000000E+02  0.00000000E+00
  4.20000000E+01  2.16000000E+02  0.00000000E+00
  4.20000000E+01  2.10000000E+02  0.00000000E+00
  4.20000000E+01  2.04000000E+02  0.00000000E+00
  4.20000000E+01  1.98000000E+02  0.00000000E+00
  4.20000000E+01  1.92000000E+02  0.00000000E+00
  4.20000000E+01  1.86000000E+02  0.00000000E+00
  4.20000000E+01  1.80000000E+02  0.00000000E+00
  4.20000000E+01  1.74000000E+02  0.00000000E+00
  4.20000000E+01  1.68000000E+02  0.00000000E+00
  4.20000000E+01  1.62000000E+02  0.00000000E+00
  4.20000000E+01  1.56000000E+02  0.00000000E+00
  4.20000000E+01  1.50000000E+02  0.00000000E+00
  4.20000000E+01  1.44000000E+02  0.00000000E+00
  4.20000000E+01  1.38000000E+02  0.00000000E+00
  4.20000000E+01  1.32000000E+02  0.00000000E+00
  4.20000000E+01  1.26000000E+02  0.00000000E+00
  4.20000000E+01  1.20000000E+02  0.00000000E+00
  4.20000000E+01  1.14000000E+02  0.00000000E+00
  4.20000000E+01  1.08000000E+02  0.00000000E+00
  4.20000000E+01  1.02000000E+02  0.00000000E+00
  4.20000000E+01  9.60000000E+01  0.00000000E+00
  4.20000000E+01  9.00000000E+01  0.00000000E+00
  4.20000000E+01  8.40000000E+01  0.00000000E+00
  4.20000000E+01  7.80000000E+01  0.00000000E+00
  4.20000000E+01  7.20000000E+01  0.00000000E+00
  4.20000000E+01  6.60000000E+01  0.00000000E+00
  4.20000000E+01  6.00000000E+01  0.00000000E+00
  4.20000000E+01  5.40000000E+01  0.00000000E+00
  4.20000000E+01  4.80000000E+01  0.00000000E+00
  4.20000000E+01  4.20000000E+01  0.00000000E+00
  4.20000000E+01  3.60000000E+01  0.00000000E+00
  4.20000000E+01  3.00000000E+01  0.00000000E+00
  4.20000000E+01  2.40000000E+01  0.00000000E+00
  4.20000000E+01  1.80000000E+01  0.00000000E+00
  4.20000000E+01  1.20000000E+01  0.00000000E+00
  4.20000000E+01  6.00000000E+00  0.00000000E+00
  4.20000000E+01 -9.99200722E-14  0.00000000E+00
  4.80000000E+01  3.00000000E+02  0.00000000E+00
  4.80000000E+01  2.94000000E+02  0.00000000E+00
  4.80000000E+01  2.88000000E+02  0.00000000E+00
  4.80000000E+01  2.82000000E+02  0.00000000E+00
  4.80000000E+01  2.76000000E+02  0.00000000E+00
  4.80000000E+01  2.70000000E+02  0.00000000E+00
  4.80000000E+01  2.64000000E+02  0.00000000E+00
  4.80000000E+01  2.58000000E+02  0.00000000E+00
  4.80000000E+01  2.52000000E+02  0.00000000E+00
  4.80000000E+01  2.46000000E+02  0.00000000E+00
  4.80000000E+01  2.40000000E+02  0.00000000E+00
  4.80000000E+01  2.34000000E+02  0.00000000E+00
  4.80000000E+01  2.28000000E+02  0.00000000E+00
  4.80000000E+01  2.22000000E+02  0.00000000E+00
  4.80000000E+01  2.16000000E+02  0.00000000E+00
  4.80000000E+01  2.10000000E+02  0.00000000E+00
  4.80000000E+01  2.04000000E+02  0.00000000E+00
  4.80000000E+01  1.98000000E+02  0.00000000E+00
  4.80000000E+01  1.92000000E+02  0.00000000E+00
  4.80000000E+01  1.86000000E+02  0.00000000E+00
  4.80000000E+01  1.80000000E+02  0.00000000E+00
  4.80000000E+01  1.74000000E+02  0.00000000E+00
  4.80000000E+01  1.68000000E+02  0.00000000E+00
  4.80000000E+01  1.62000000E+02  0.00000000E+00
  4.80000000E+01  1.56000000E+02  0.00000000E+00
  4.80000000E+01  1.50000000E+02  0.00000000E+00
  4.80000000E+01  1.44000000E+02  0.00000000E+00
  4.80000000E+01  1.38000000E+02  0.00000000E+00
  4.80000000E+01  1.32000000E+02  0.00000000E+00
  4.80000000E+01  1.26000000E+02  0.00000000E+00
  4.80000000E+01  1.20000000E+02  0.00000000E+00
  4.80000000E+01  1.14000000E+02  0.00000000E+00
  4.80000000E+01  1.08000000E+02  0.00000000E+00
  4.80000000E+01  1.02000000E+02  0.00000000E+00
  4.80000000E+01  9.60000000E+01  0.00000000E+00
  4.80000000E+01  9.00000000E+01  0.00000000E+00
  4.80000000E+01  8.40000000E+01  0.00000000E+00
  4.80000000E+01  7.80000000E+01  0.00000000E+00
  4.80000000E+01  7.20000000E+01  0.00000000E+00
  4.80000000E+01  6.60000000E+01  0.00000000E+00
  4.80000000E+01  6.00000000E+01  0.00000000E+00
  4.80000000E+01  5.40000000E+01  0.00000000E+00
  4.80000000E+01  4.80000000E+01  0.00000000E+00
  4.80000000E+01  4.20000000E+01  0.00000000E+00
  4.80000000E+01  3.60000000E+01  0.00000000E+00
  4.80000000E+01  3.00000000E+01  0.00000000E+00
  4.80000000E+01  2.40000000E+01  0.00000000E+00
  4.80000000E+01  1.80000000E+01  0.00000000E+00
  4.80000000E+01  1.20000000E+01  0.00000000E+00
  4.80000000E+01  6.00000000E+00  0.00000000E+00
  4.80000000E+01 -9.99200722E-14  0.00000000E+00
  5.40000000E+01  3.00000000E+02  0.00000000E+00
  5.40000000E+01  2.94000000E+02  0.00000000E+00
  5.40000000E+01  2.88000000E+02  0.00000000E+00
  5.40000000E+01  2.82000000E+02  0.00000000E+00
  5.40000000E+01  2.76000000E+02  0.00000000E+00
  5.40000000E+01  2.70000000E+02  0.00000000E+00
  5.40000000E+01  2.64000000E+02  0.00000000E+00
  5.40000000E+01  2.58000000E+02  0.00000000E+00
  5.40000000E+01  2.52000000E+02  0.00000000E+00
  5.40000000E+01  2.46000000E+02  0.00000000E+00
  5.40000000E+01  2.40000000E+02  0.00000000E+00
  5.40000000E+01  2.34000000E+02  0.00000000E+00
  5.40000000E+01  2.28000000E+02  0.00000000E+00
  5.40000000E+01  2.22000000E+02  0.00000000E+00
  5.40000000E+01  2.16000000E+02  0.00000000E+00
  5.40000000E+01  2.10000000E+02  0.00000000E+00
  5.40000000E+01  2.04000000E+02  0.00000000E+00
  5.40000000E+01  1.98000000E+02  0.00000000E+00
  5.40000000E+01  1.92000000E+02  0.00000000E+00
  5.40000000E+01  1.86000000E+02  0.00000000E+00
  5.40000000E+01  1.80000000E+02  0.00000000E+00
  5.40000000E+01  1.74000000E+02  0.00000000E+00
  5.40000000E+01  1.68000000E+02  0.00000000E+00
  5.40000000E+01  1.62000000E+02  0.00000000E+00
  5.40000000E+01  1.56000000E+02  0.00000000E+00
  5.40000000E+01  1.50000000E+02  0.00000000E+00
  5.40000000E+01  1.44000000E+02  0.00000000E+00
  5.40000000E+01  1.38000000E+02  0.00000000E+00
  5.40000000E+01  1.32000000E+02  0.00000000E+00
  5.40000000E+01  1.26000000E+02  0.00000000E+00
  5.40000000E+01  1.20000000E+02  0.00000000E+00
  5.40000000E+01  1.14000000E+02  0.00000000E+00
  5.40000000E+01  1.08000000E+02  0.00000000E+00
  5.40000000E+01  1.02000000E+02  0.00000000E+00
  5.40000000E+01  9.60000000E+01  0.00000000E+00
  5.40000000E+01  9.00000000E+01  0.00000000E+00
  5.40000000E+01  8.40000000E+01  0.00000000E+00
  5.40000000E+01  7.80000000E+01  0.00000000E+00
  5.40000000E+01  7.20000000E+01  0.00000000E+00
  5.40000000E+01  6.60000000E+01  0.00000000E+00
  5.40000000E+01  6.00000000E+01  0.00000000E+00
  5.40000000E+01  5.40000000E+01  0.00000000E+00
  5.40000000E+01  4.80000000E+01  0.00000000E+00
  5.40000000E+01  4.20000000E+01  0.00000000E+00
  5.40000000E+01  3.60000000E+01  0.00000000E+00
  5.40000000E+01  3.00000000E+01  0.00000000E+00
  5.40000000E+01  2.40000000E+01  0.00000000E+00
  5.40000000E+01  1.80000000E+01  0.00000000E+00
  5.40000000E+01  1.20000000E+01  0.00000000E+00
  5.40000000E+01  6.00000000E+00  0.00000000E+00
  5.40000000E+01 -9.99200722E-14  0.00000000E+00
  6.00000000E+01  3.00000000E+02  0.00000000E+00
  6.00000000E+01  2.94000000E+02  0.00000000E+00
  6.00000000E+01  2.88000000E+02  0.00000000E+00
  6.00000000E+01  2.82000000E+02  0.00000000E+00
  6.00000000E+01  2.76000000E+02  0.00000000E+00
  6.00000000E+01  2.70000000E+02  0.00000000E+00
  6.00000000E+01  2.64000000E+02  0.00000000E+00
  6.00000000E+01  2.58000000E+02  0.00000000E+00
  6.00000000E+01  2.52000000E+02  0.00000000E+00
  6.00000000E+01  2.46000000E+02  0.00000000E+00
  6.00000000E+01  2.40000000E+02  0.00000000E+00
  6.00000000E+01  2.34000000E+02  0.00000000E+00
  6.00000000E+01  2.28000000E+02  0.00000000E+00
  6.00000000E+01  2.22000000E+02  0.00000000E+00
  6.00000000E+01  2.16000000E+02  0.00000000E+00
  6.00000000E+01  2.10000000E+02  0.00000000E+00
  6.00000000E+01  2.04000000E+02  0.00000000E+00
  6.00000000E+01  1.98000000E+02  0.00000000E+00
  6.00000000E+01  1.92000000E+02  0.00000000E+00
  6.00000000E+01  1.86000000E+02  0.00000000E+00
  6.00000000E+01  1.80000000E+02  0.00000000E+00
  6.00000000E+01  1.74000000E+02  0.00000000E+00
  6.00000000E+01  1.68000000E+02  0.00000000E+00
  6.00000000E+01  1.62000000E+02  0.00000000E+00
  6.00000000E+01  1.56000000E+02  0.00000000E+00
  6.00000000E+01  1.50000000E+02  0.00000000E+00
  6.00000000E+01  1.44000000E+02  0.00000000E+00
  6.00000000E+01  1.38000000E+02  0.00000000E+00
  6.00000000E+01  1.32000000E+02  0.00000000E+00
  6.00000000E+01  1.26000000E+02  0.00000000E+00
  6.00000000E+01  1.20000000E+02  0.00000000E+00
  6.00000000E+01  1.14000000E+02  0.00000000E+00
  6.00000000E+01  1.08000000E+02  0.00000000E+00
  6.00000000E+01  1.02000000E+02  0.00000000E+00
  6.00000000E+01  9.60000000E+01  0.00000000E+00
  6.00000000E+01  9.00000000E+01  0.00000000E+00
  6.00000000E+01  8.40000000E+01  0.00000000E+00
  6.00000000E+01  7.80000000E+01  0.00000000E+00
  6.00000000E+01  7.20000000E+01  0.00000000E+00
  6.00000000E+01  6.60000000E+01  0.00000000E+00
  6.00000000E+01  6.00000000E+01  0.00000000E+00
  6.00000000E+01  5.40000000E+01  0.00000000E+00
  6.00000000E+01  4.80000000E+01  0.00000000E+00
  6.00000000E+01  4.20000000E+01  0.00000000E+00
  6.00000000E+01  3.60000000E+01  0.00000000E+00
  6.00000000E+01  3.00000000E+01  0.00000000E+00
  6.00000000E+01  2.40000000E+01  0.00000000E+00
  6.00000000E+01  1.80000000E+01  0.00000000E+00
  6.00000000E+01  1.20000000E+01  0.00000000E+00
  6.00000000E+01  6.00000000E+00  0.00000000E+00
  6.00000000E+01 -9.99200722E-14  0.00000000E+00
  6.60000000E+01  3.00000000E+02  0.00000000E+00
  6.60000000E+01  2.94000000E+02  0.00000000E+00
  6.60000000E+01  2.88000000E+02  0.00000000E+00
  6.60000000E+01  2.82000000E+02  0.00000000E+00
  6.60000000E+01  2.76000000E+02  0.00000000E+00
  6.60000000E+01  2.70000000E+02  0.00000000E+00
  6.60000000E+01  2.64000000E+02  0.00000000E+00
  6.60000000E+01  2.58000000E+02  0.00000000E+00
  6.60000000E+01  2.52000000E+02  0.00000000E+00
  6.60000000E+01  2.46000000E+02  0.00000000E+00
  6.60000000E+01  2.40000000E+02  0.00000000E+00
  6.60000000E+01  2.34000000E+02  0.00000000E+00
  6.60000000E+01  2.28000000E+02  0.00000000E+00
  6.60000000E+01  2.22000000E+02  0.00000000E+00
  6.60000000E+01  2.16000000E+02  0.00000000E+00
  6.60000000E+01  2.10000000E+02  0.00000000E+00
  6.60000000E+01  2.04000000E+02  0.00000000E+00
  6.60000000E+01  1.98000000E+02  0.00000000E+00
  6.60000000E+01  1.92000000E+02  0.00000000E+00
  6.60000000E+01  1.86000000E+02  0.00000000E+00
  6.60000000E+01  1.80000000E+02  0.00000000E+00
  6.60000000E+01  1.74000000E+02  0.00000000E+00
  6.60000000E+01  1.68000000E+02  0.00000000E+00
  6.60000000E+01  1.62000000E+02  0.00000000E+00
  6.60000000E+01  1.56000000E+02  0.00000000E+00
  6.60000000E+01  1.50000000E+02  0.00000000E+00
  6.60000000E+01  1.44000000E+02  0.00000000E+00
  6.60000000E+01  1.38000000E+02  0.00000000E+00
  6.60000000E+01  1.32000000E+02  0.00000000E+00
  6.60000000E+01  1.26000000E+02  0.00000000E+00
  6.60000000E+01  1.20000000E+02  0.00000000E+00
  6.60000000E+01  1.14000000E+02  0.00000000E+00
  6.60000000E+01  1.08000000E+02  0.00000000E+00
  6.60000000E+01  1.02000000E+02  0.00000000E+00
  6.60000000E+01  9.60000000E+01  0.00000000E+00
  6.60000000E+01  9.00000000E+01  0.00000000E+00
  6.60000000E+01  8.40000000E+01  0.00000000E+00
  6.60000000E+01  7.80000000E+01  0.00000000E+00
  6.60000000E+01  7.20000000E+01  0.00000000E+00
  6.60000000E+01  6.60000000E+01  0.00000000E+00
  6.60000000E+01  6.00000000E+01  0.00000000E+00
  6.60000000E+01  5.40000000E+01  0.00000000E+00
  6.60000000E+01  4.80000000E+01  0.00000000E+00
  6.60000000E+01  4.20000000E+01  0.00000000E+00
  6.60000000E+01  3.60000000E+01  0.00000000E+00
  6.60000000E+01  3.00000000E+01  0.00000000E+00
  6.60000000E+01  2.40000000E+01  0.00000000E+00
  6.60000000E+01  1.80000000E+01  0.00000000E+00
  6.60000000E+01  1.20000000E+01  0.00000000E+00
  6.60000000E+01  6.00000000E+00  0.00000000E+00
  6.60000000E+01 -9.99200722E-14  0.00000000E+00
  7.20000000E+01  3.00000000E+02  0.00000000E+00
  7.20000000E+01  2.94000000E+02  0.00000000E+00
  7.20000000E+01  2.88000000E+02  0.00000000E+00
  7.20000000E+01  2.82000000E+02  0.00000000E+00
  7.20000000E+01  2.76000000E+02  0.00000000E+00
  7.20000000E+01  2.70000000E+02  0.00000000E+00
  7.20000000E+01  2.64000000E+02  0.00000000E+00
  7.20000000E+01  2.58000000E+02  0.00000000E+00
  7.20000000E+01  2.52000000E+02  0.00000000E+00
  7.20000000E+01  2.46000000E+02  0.00000000E+00
  7.20000000E+01  2.40000000E+02  0.00000000E+00
  7.20000000E+01  2.34000000E+02  0.00000000E+00
  7.20000000E+01  2.28000000E+02  0.00000000E+00
  7.20000000E+01  2.22000000E+02  0.00000000E+00
  7.20000000E+01  2.16000000E+02  0.00000000E+00
  7.20000000E+01  2.10000000E+02  0.00000000E+00
  7.20000000E+01  2.04000000E+02  0.00000000E+00
  7.20000000E+01  1.98000000E+02  0.00000000E+00
  7.20000000E+01  1.92000000E+02  0.00000000E+00
  7.20000000E+01  1.86000000E+02  0.00000000E+00
  7.20000000E+01  1.80000000E+02  0.00000000E+00
  7.20000000E+01  1.74000000E+02  0.00000000E+00
  7.20000000E+01  1.68000000E+02  0.00000000E+00
  7.20000000E+01  1.62000000E+02  0.00000000E+00
  7.20000000E+01  1.56000000E+02  0.00000000E+00
  7.20000000E+01  1.50000000E+02  0.00000000E+00
  7.20000000E+01  1.44000000E+02  0.00000000E+00
  7.20000000E+01  1.38000000E+02  0.00000000E+00
  7.20000000E+01  1.32000000E+02  0.00000000E+00
  7.20000000E+01  1.26000000E+02  0.00000000E+00
  7.20000000E+01  1.20000000E+02  0.00000000E+00
  7.20000000E+01  1.14000000E+02  0.00000000E+00
  7.20000000E+01  1.08000000E+02  0.00000000E+00
  7.20000000E+01  1.02000000E+02  0.00000000E+00
  7.20000000E+01  9.60000000E+01  0.00000000E+00
  7.20000000E+01  9.00000000E+01  0.00000000E+00
  7.20000000E+01  8.40000000E+01  0.00000000E+00
  7.20000000E+01  7.80000000E+01  0.00000000E+00
  7.20000000E+01  7.20000000E+01  0.00000000E+00
  7.20000000E+01  6.60000000E+01  0.00000000E+00
  7.20000000E+01  6.00000000E+01  0.00000000E+00
  7.20000000E+01  5.40000000E+01  0.00000000E+00
  7.20000000E+01  4.80000000E+01  0.00000000E+00
  7.20000000E+01  4.20000000E+01  0.00000000E+00
  7.20000000E+01  3.60000000E+01  0.00000000E+00
  7.20000000E+01  3.00000000E+01  0.00000000E+00
  7.20000000E+01  2.40000000E+01  0.00000000E+00
  7.20000000E+01  1.80000000E+01  0.00000000E+00
  7.20000000E+01  1.20000000E+01  0.00000000E+00
  7.20000000E+01  6.00000000E+00  0.00000000E+00
  7.20000000E+01 -9.99200722E-14  0.00000000E+00
  7.80000000E+01  3.00000000E+02  0.00000000E+00
  7.80000000E+01  2.94000000E+02  0.00000000E+00
  7.80000000E+01  2.88000000E+02  0.00000000E+00
  7.80000000E+01  2.82000000E+02  0.00000000E+00
  7.80000000E+01  2.76000000E+02  0.00000000E+00
  7.80000000E+01  2.70000000E+02  0.00000000E+00
  7.80000000E+01  2.64000000E+02  0.00000000E+00
  7.80000000E+01  2.58000000E+02  0.00000000E+00
  7.80000000E+01  2.52000000E+02  0.00000000E+00
  7.80000000E+01  2.46000000E+02  0.00000000E+00
  7.80000000E+01  2.40000000E+02  0.00000000E+00
  7.80000000E+01  2.34000000E+02  0.00000000E+00
  7.80000000E+01  2.28000000E+02  0.00000000E+00
  7.80000000E+01  2.22000000E+02  0.00000000E+00
  7.80000000E+01  2.16000000E+02  0.00000000E+00
  7.80000000E+01  2.10000000E+02  0.00000000E+00
  7.80000000E+01  2.04000000E+02  0.00000000E+00
  7.80000000E+01  1.98000000E+02  0.00000000E+00
  7.80000000E+01  1.92000000E+02  0.00000000E+00
  7.80000000E+01  1.86000000E+02  0.00000000E+00
  7.80000000E+01  1.80000000E+02  0.00000000E+00
  7.80000000E+01  1.74000000E+02  0.00000000E+00
  7.80000000E+01  1.68000000E+02  0.00000000E+00
  7.80000000E+01  1.62000000E+02  0.00000000E+00
  7.80000000E+01  1.56000000E+02  0.00000000E+00
  7.80000000E+01  1.50000000E+02  0.00000000E+00
  7.80000000E+01  1.44000000E+02  0.00000000E+00
  7.80000000E+01  1.38000000E+02  0.00000000E+00
  7.80000000E+01  1.32000000E+02  0.00000000E+00
  7.80000000E+01  1.26000000E+02  0.00000000E+00
  7.80000000E+01  1.20000000E+02  0.00000000E+00
  7.80000000E+01  1.14000000E+02  0.00000000E+00
  7.80000000E+01  1.08000000E+02  0.00000000E+00
  7.80000000E+01  1.02000000E+02  0.00000000E+00
  7.80000000E+01  9.60000000E+01  0.00000000E+00
  7.80000000E+01  9.00000000E+01  0.00000000E+00
  7.80000000E+01  8.40000000E+01  0.00000000E+00
  7.80000000E+01  7.80000000E+01  0.00000000E+00
  7.80000000E+01  7.20000000E+01  0.00000000E+00
  7.80000000E+01  6.60000000E+01  0.00000000E+00
  7.80000000E+01  6.00000000E+01  0.00000000E+00
  7.80000000E+01  5.40000000E+01  0.00000000E+00
  7.80000000E+01  4.80000000E+01  0.00000000E+00
  7.80000000E+01  4.20000000E+01  0.00000000E+00
  7.80000000E+01  3.60000000E+01  0.00000000E+00
  7.80000000E+01  3.00000000E+01  0.00000000E+00
  7.80000000E+01  2.40000000E+01  0.00000000E+00
  7.80000000E+01  1.80000000E+01  0.00000000E+00
  7.80000000E+01  1.20000000E+01  0.00000000E+00
  7.80000000E+01  6.00000000E+00  0.00000000E+00
  7.80000000E+01 -9.99200722E-14  0.00000000E+00
  8.40000000E+01  3.00000000E+02  0.00000000E+00
  8.40000000E+01  2.94000000E+02  0.00000000E+00
  8.40000000E+01  2.88000000E+02  0.00000000E+00
  8.40000000E+01  2.82000000E+02  0.00000000E+00
  8.40000000E+01  2.76000000E+02  0.00000000E+00
  8.40000000E+01  2.70000000E+02  0.00000000E+00
  8.40000000E+01  2.64000000E+02  0.00000000E+00
  8.40000000E+01  2.58000000E+02  0.00000000E+00
  8.40000000E+01  2.52000000E+02  0.00000000E+00
  8.40000000E+01  2.46000000E+02  0.00000000E+00
  8.40000000E+01  2.40000000E+02  0.00000000E+00
  8.40000000E+01  2.34000000E+02  0.00000000E+00
  8.40000000E+01  2.28000000E+02  0.00000000E+00
  8.40000000E+01  2.22000000E+02  0.00000000E+00
  8.40000000E+01  2.16000000E+02  0.00000000E+00
  8.40000000E+01  2.10000000E+02  0.00000000E+00
  8.40000000E+01  2.04000000E+02  0.00000000E+00
  8.40000000E+01  1.98000000E+02  0.00000000E+00
  8.40000000E+01  1.92000000E+02  0.00000000E+00
  8.40000000E+01  1.86000000E+02  0.00000000E+00
  8.40000000E+01  1.80000000E+02  0.00000000E+00
  8.40000000E+01  1.74000000E+02  0.00000000E+00
  8.40000000E+01  1.68000000E+02  0.00000000E+00
  8.40000000E+01  1.62000000E+02  0.00000000E+00
  8.40000000E+01  1.56000000E+02  0.00000000E+00
  8.40000000E+01  1.50000000E+02  0.00000000E+00
  8.40000000E+01  1.44000000E+02  0.00000000E+00
  8.40000000E+01  1.38000000E+02  0.00000000E+00
  8.40000000E+01  1.32000000E+02  0.00000000E+00
  8.40000000E+01  1.26000000E+02  0.00000000E+00
  8.40000000E+01  1.20000000E+02  0.00000000E+00
  8.40000000E+01  1.14000000E+02  0.00000000E+00
  8.40000000E+01  1.08000000E+02  0.00000000E+00
  8.40000000E+01  1.02000000E+02  0.00000000E+00
  8.40000000E+01  9.60000000E+01  0.00000000E+00
  8.40000000E+01  9.00000000E+01  0.00000000E+00
  8.40000000E+01  8.40000000E+01  0.00000000E+00
  8.40000000E+01  7.80000000E+01  0.00000000E+00
  8.40000000E+01  7.20000000E+01  0.00000000E+00
  8.40000000E+01  6.60000000E+01  0.00000000E+00
  8.40000000E+01  6.00000000E+01  0.00000000E+00
  8.40000000E+01  5.40000000E+01  0.00000000E+00
  8.40000000E+01  4.80000000E+01  0.00000000E+00
  8.40000000E+01  4.20000000E+01  0.00000000E+00
  8.40000000E+01  3.60000000E+01  0.00000000E+00
  8.40000000E+01  3.00000000E+01  0.00000000E+00
  8.40000000E+01  2.40000000E+01  0.00000000E+00
  8.40000000E+01  1.80000000E+01  0.00000000E+00
  8.40000000E+01  1.20000000E+01  0.00000000E+00
  8.40000000E+01  6.00000000E+00  0.00000000E+00
  8.40000000E+01 -9.99200722E-14  0.00000000E+00
  9.00000000E+01  3.00000000E+02  0.00000000E+00
  9.00000000E+01  2.94000000E+02  0.00000000E+00
  9.00000000E+01  2.88000000E+02  0.00000000E+00
  9.00000000E+01  2.82000000E+02  0.00000000E+00
  9.00000000E+01  2.76000000E+02  0.00000000E+00
  9.00000000E+01  2.70000000E+02  0.00000000E+00
  9.00000000E+01  2.64000000E+02  0.00000000E+00
  9.00000000E+01  2.58000000E+02  0.00000000E+00
  9.00000000E+01  2.52000000E+02  0.00000000E+00
  9.00000000E+01  2.46000000E+02  0.00000000E+00
  9.00000000E+01  2.40000000E+02  0.00000000E+00
  9.00000000E+01  2.34000000E+02  0.00000000E+00
  9.00000000E+01  2.28000000E+02  0.00000000E+00
  9.00000000E+01  2.22000000E+02  0.00000000E+00
  9.00000000E+01  2.16000000E+02  0.00000000E+00
  9.00000000E+01  2.10000000E+02  0.00000000E+00
  9.00000000E+01  2.04000000E+02  0.00000000E+00
  9.00000000E+01  1.98000000E+02  0.00000000E+00
  9.00000000E+01  1.92000000E+02  0.00000000E+00
  9.00000000E+01  1.86000000E+02  0.00000000E+00
  9.00000000E+01  1.80000000E+02  0.00000000E+00
  9.00000000E+01  1.74000000E+02  0.00000000E+00
  9.00000000E+01  1.68000000E+02  0.00000000E+00
  9.00000000E+01  1.62000000E+02  0.00000000E+00
  9.00000000E+01  1.56000000E+02  0.00000000E+00
  9.00000000E+01  1.50000000E+02  0.00000000E+00
  9.00000000E+01  1.44000000E+02  0.00000000E+00
  9.00000000E+01  1.38000000E+02  0.00000000E+00
  9.00000000E+01  1.32000000E+02  0.00000000E+00
  9.00000000E+01  1.26000000E+02  0.00000000E+00
  9.00000000E+01  1.20000000E+02  0.00000000E+00
  9.00000000E+01  1.14000000E+02  0.00000000E+00
  9.00000000E+01  1.08000000E+02  0.00000000E+00
  9.00000000E+01  1.02000000E+02  0.00000000E+00
  9.00000000E+01  9.60000000E+01  0.00000000E+00
  9.00000000E+01  9.00000000E+01  0.00000000E+00
  9.00000000E+01  8.40000000E+01  0.00000000E+00
  9.00000000E+01  7.80000000E+01  0.00000000E+00
  9.00000000E+01  7.20000000E+01  0.00000000E+00
  9.00000000E+01  6.60000000E+01  0.00000000E+00
  9.00000000E+01  6.00000000E+01  0.00000000E+00
  9.00000000E+01  5.40000000E+01  0.00000000E+00
  9.00000000E+01  4.80000000E+01  0.00000000E+00
  9.00000000E+01  4.20000000E+01  0.00000000E+00
  9.00000000E+01  3.60000000E+01  0.00000000E+00
  9.00000000E+01  3.00000000E+01  0.00000000E+00
  9.00000000E+01  2.40000000E+01  0.00000000E+00
  9.00000000E+01  1.80000000E+01  0.00000000E+00
  9.00000000E+01  1.20000000E+01  0.00000000E+00
  9.00000000E+01  6.00000000E+00  0.00000000E+00
  9.00000000E+01 -9.99200722E-14  0.00000000E+00
  9.60000000E+01  3.00000000E+02  0.00000000E+00
  9.60000000E+01  2.94000000E+02  0.00000000E+00
  9.60000000E+01  2.88000000E+02  0.00000000E+00
  9.60000000E+01  2.82000000E+02  0.00000000E+00
  9.60000000E+01  2.76000000E+02  0.00000000E+00
  9.60000000E+01  2.70000000E+02  0.00000000E+00
  9.60000000E+01  2.64000000E+02  0.00000000E+00
  9.60000000E+01  2.58000000E+02  0.00000000E+00
  9.60000000E+01  2.52000000E+02  0.00000000E+00
  9.60000000E+01  2.46000000E+02  0.00000000E+00
  9.60000000E+01  2.40000000E+02  0.00000000E+00
  9.60000000E+01  2.34000000E+02  0.00000000E+00
  9.60000000E+01  2.28000000E+02  0.00000000E+00
  9.60000000E+01  2.22000000E+02  0.00000000E+00
  9.60000000E+01  2.16000000E+02  0.00000000E+00
  9.60000000E+01  2.10000000E+02  0.00000000E+00
  9.60000000E+01  2.04000000E+02  0.00000000E+00
  9.60000000E+01  1.98000000E+02  0.00000000E+00
  9.60000000E+01  1.92000000E+02  0.00000000E+00
  9.60000000E+01  1.86000000E+02  0.00000000E+00
  9.60000000E+01  1.80000000E+02  0.00000000E+00
  9.60000000E+01  1.74000000E+02  0.00000000E+00
  9.60000000E+01  1.68000000E+02  0.00000000E+00
  9.60000000E+01  1.62000000E+02  0.00000000E+00
  9.60000000E+01  1.56000000E+02  0.00000000E+00
  9.60000000E+01  1.50000000E+02  0.00000000E+00
  9.60000000E+01  1.44000000E+02  0.00000000E+00
  9.60000000E+01  1.38000000E+02  0.00000000E+00
  9.60000000E+01  1.32000000E+02  0.00000000E+00
  9.60000000E+01  1.26000000E+02  0.00000000E+00
  9.60000000E+01  1.20000000E+02  0.00000000E+00
  9.60000000E+01  1.14000000E+02  0.00000000E+00
  9.60000000E+01  1.08000000E+02  0.00000000E+00
  9.60000000E+01  1.02000000E+02  0.00000000E+00
  9.60000000E+01  9.60000000E+01  0.00000000E+00
  9.60000000E+01  9.00000000E+01  0.00000000E+00
  9.60000000E+01  8.40000000E+01  0.00000000E+00
  9.60000000E+01  7.80000000E+01  0.00000000E+00
  9.60000000E+01  7.20000000E+01  0.00000000E+00
  9.60000000E+01  6.60000000E+01  0.00000000E+00
  9.60000000E+01  6.00000000E+01  0.00000000E+00
  9.60000000E+01  5.40000000E+01  0.00000000E+00
  9.60000000E+01  4.80000000E+01  0.00000000E+00
  9.60000000E+01  4.20000000E+01  0.00000000E+00
  9.60000000E+01  3.60000000E+01  0.00000000E+00
  9.60000000E+01  3.00000000E+01  0.00000000E+00
  9.60000000E+01  2.40000000E+01  0.00000000E+00
  9.60000000E+01  1.80000000E+01  0.00000000E+00
  9.60000000E+01  1.20000000E+01  0.00000000E+00
  9.60000000E+01  6.00000000E+00  0.00000000E+00
  9.60000000E+01 -9.99200722E-14  0.00000000E+00
  1.02000000E+02  3.00000000E+02  0.00000000E+00
  1.02000000E+02  2.94000000E+02  0.00000000E+00
  1.02000000E+02  2.88000000E+02  0.00000000E+00
  1.02000000E+02  2.82000000E+02  0.00000000E+00
  1.02000000E+02  2.76000000E+02  0.00000000E+00
  1.02000000E+02  2.70000000E+02  0.00000000E+00
  1.02000000E+02  2.64000000E+02  0.00000000E+00
  1.02000000E+02  2.58000000E+02  0.00000000E+00
  1.02000000E+02  2.52000000E+02  0.00000000E+00
  1.02000000E+02  2.46000000E+02  0.00000000E+00
  1.02000000E+02  2.40000000E+02  0.00000000E+00
  1.02000000E+02  2.34000000E+02  0.00000000E+00
  1.02000000E+02  2.28000000E+02  0.00000000E+00
  1.02000000E+02  2.22000000E+02  0.00000000E+00
  1.02000000E+02  2.16000000E+02  0.00000000E+00
  1.02000000E+02  2.10000000E+02  0.00000000E+00
  1.02000000E+02  2.04000000E+02  0.00000000E+00
  1.02000000E+02  1.98000000E+02  0.00000000E+00
  1.02000000E+02  1.92000000E+02  0.00000000E+00
  1.02000000E+02  1.86000000E+02  0.00000000E+00
  1.02000000E+02  1.80000000E+02  0.00000000E+00
  1.02000000E+02  1.74000000E+02  0.00000000E+00
  1.02000000E+02  1.68000000E+02  0.00000000E+00
  1.02000000E+02  1.62000000E+02  0.00000000E+00
  1.02000000E+02  1.56000000E+02  0.00000000E+00
  1.02000000E+02  1.50000000E+02  0.00000000E+00
  1.02000000E+02  1.44000000E+02  0.00000000E+00
  1.02000000E+02  1.38000000E+02  0.00000000E+00
  1.02000000E+02  1.32000000E+02  0.00000000E+00
  1.02000000E+02  1.26000000E+02  0.00000000E+00
  1.02000000E+02  1.20000000E+02  0.00000000E+00
  1.02000000E+02  1.14000000E+02  0.00000000E+00
  1.02000000E+02  1.08000000E+02  0.00000000E+00
  1.02000000E+02  1.02000000E+02  0.00000000E+00
  1.02000000E+02  9.60000000E+01  0.00000000E+00
  1.02000000E+02  9.00000000E+01  0.00000000E+00
  1.02000000E+02  8.40000000E+01  0.00000000E+00
  1.02000000E+02  7.80000000E+01  0.00000000E+00
  1.02000000E+02  7.20000000E+01  0.00000000E+00
  1.02000000E+02  6.60000000E+01  0.00000000E+00
  1.02000000E+02  6.00000000E+01  0.00000000E+00
  1.02000000E+02  5.40000000E+01  0.00000000E+00
  1.02000000E+02  4.80000000E+01  0.00000000E+00
  1.02000000E+02  4.20000000E+01  0.00000000E+00
  1.02000000E+02  3.60000000E+01  0.00000000E+00
  1.02000000E+02  3.00000000E+01  0.00000000E+00
  1.02000000E+02  2.40000000E+01  0.00000000E+00
  1.02000000E+02  1.80000000E+01  0.00000000E+00
  1.02000000E+02  1.20000000E+01  0.00000000E+00
  1.02000000E+02  6.00000000E+00  0.00000000E+00
  1.02000000E+02 -9.99200722E-14  0.00000000E+00
  1.08000000E+02  3.00000000E+02  0.00000000E+00
  1.08000000E+02  2.94000000E+02  0.00000000E+00
  1.08000000E+02  2.88000000E+02  0.00000000E+00
  1.08000000E+02  2.82000000E+02  0.00000000E+00
  1.08000000E+02  2.76000000E+02  0.00000000E+00
  1.08000000E+02  2.70000000E+02  0.00000000E+00
  1.08000000E+02  2.64000000E+02  0.00000000E+00
  1.08000000E+02  2.58000000E+02  0.00000000E+00
  1.08000000E+02  2.52000000E+02  0.00000000E+00
  1.08000000E+02  2.46000000E+02  0.00000000E+00
  1.08000000E+02  2.40000000E+02  0.00000000E+00
  1.08000000E+02  2.34000000E+02  0.00000000E+00
  1.08000000E+02  2.28000000E+02  0.00000000E+00
  1.08000000E+02  2.22000000E+02  0.00000000E+00
  1.08000000E+02  2.16000000E+02  0.00000000E+00
  1.08000000E+02  2.10000000E+02  0.00000000E+00
  1.08000000E+02  2.04000000E+02  0.00000000E+00
  1.08000000E+02  1.98000000E+02  0.00000000E+00
  1.08000000E+02  1.92000000E+02  0.00000000E+00
  1.08000000E+02  1.86000000E+02  0.00000000E+00
  1.08000000E+02  1.80000000E+02  0.00000000E+00
  1.08000000E+02  1.74000000E+02  0.00000000E+00
  1.08000000E+02  1.68000000E+02  0.00000000E+00
  1.08000000E+02  1.62000000E+02  0.00000000E+00
  1.08000000E+02  1.56000000E+02  0.00000000E+00
  1.08000000E+02  1.50000000E+02  0.00000000E+00
  1.08000000E+02  1.44000000E+02  0.00000000E+00
  1.08000000E+02  1.38000000E+02  0.00000000E+00
  1.08000000E+02  1.32000000E+02  0.00000000E+00
  1.08000000E+02  1.26000000E+02  0.00000000E+00
  1.08000000E+02  1.20000000E+02  0.00000000E+00
  1.08000000E+02  1.14000000E+02  0.00000000E+00
  1.08000000E+02  1.08000000E+02  0.00000000E+00
  1.08000000E+02  1.02000000E+02  0.00000000E+00
  1.08000000E+02  9.60000000E+01  0.00000000E+00
  1.08000000E+02  9.00000000E+01  0.00000000E+00
  1.08000000E+02  8.40000000E+01  0.00000000E+00
  1.08000000E+02  7.80000000E+01  0.00000000E+00
  1.08000000E+02  7.20000000E+01  0.00000000E+00
  1.08000000E+02  6.60000000E+01  0.00000000E+00
  1.08000000E+02  6.00000000E+01  0.00000000E+00
  1.08000000E+02  5.40000000E+01  0.00000000E+00
  1.08000000E+02  4.80000000E+01  0.00000000E+00
  1.08000000E+02  4.20000000E+01  0.00000000E+00
  1.08000000E+02  3.60000000E+01  0.00000000E+00
  1.08000000E+02  3.00000000E+01  0.00000000E+00
  1.08000000E+02  2.40000000E+01  0.00000000E+00
  1.08000000E+02  1.80000000E+01  0.00000000E+00
  1.08000000E+02  1.20000000E+01  0.00000000E+00
  1.08000000E+02  6.00000000E+00  0.00000000E+00
  1.08000000E+02 -9.99200722E-14  0.00000000E+00
  1.14000000E+02  3.00000000E+02  0.00000000E+00
  1.14000000E+02  2.94000000E+02  0.00000000E+00
  1.14000000E+02  2.88000000E+02  0.00000000E+00
  1.14000000E+02  2.82000000E+02  0.00000000E+00
  1.14000000E+02  2.76000000E+02  0.00000000E+00
  1.14000000E+02  2.70000000E+02  0.00000000E+00
  1.14000000E+02  2.64000000E+02  0.00000000E+00
  1.14000000E+02  2.58000000E+02  0.00000000E+00
  1.14000000E+02  2.52000000E+02  0.00000000E+00
  1.14000000E+02  2.46000000E+02  0.00000000E+00
  1.14000000E+02  2.40000000E+02  0.00000000E+00
  1.14000000E+02  2.34000000E+02  0.00000000E+00
  1.14000000E+02  2.28000000E+02  0.00000000E+00
  1.14000000E+02  2.22000000E+02  0.00000000E+00
  1.14000000E+02  2.16000000E+02  0.00000000E+00
  1.14000000E+02  2.10000000E+02  0.00000000E+00
  1.14000000E+02  2.04000000E+02  0.00000000E+00
  1.14000000E+02  1.98000000E+02  0.00000000E+00
  1.14000000E+02  1.92000000E+02  0.00000000E+00
  1.14000000E+02  1.86000000E+02  0.00000000E+00
  1.14000000E+02  1.80000000E+02  0.00000000E+00
  1.14000000E+02  1.74000000E+02  0.00000000E+00
  1.14000000E+02  1.68000000E+02  0.00000000E+00
  1.14000000E+02  1.62000000E+02  0.00000000E+00
  1.14000000E+02  1.56000000E+02  0.00000000E+00
  1.14000000E+02  1.50000000E+02  0.00000000E+00
  1.14000000E+02  1.44000000E+02  0.00000000E+00
  1.14000000E+02  1.38000000E+02  0.00000000E+00
  1.14000000E+02  1.32000000E+02  0.00000000E+00
  1.14000000E+02  1.26000000E+02  0.00000000E+00
  1.14000000E+02  1.20000000E+02  0.00000000E+00
  1.14000000E+02  1.14000000E+02  0.00000000E+00
  1.14000000E+02  1.08000000E+02  0.00000000E+00
  1.14000000E+02  1.02000000E+02  0.00000000E+00
  1.14000000E+02  9.60000000E+01  0.00000000E+00
  1.14000000E+02  9.00000000E+01  0.00000000E+00
  1.14000000E+02  8.40000000E+01  0.00000000E+00
  1.14000000E+02  7.80000000E+01  0.00000000E+00
  1.14000000E+02  7.20000000E+01  0.00000000E+00
  1.14000000E+02  6.60000000E+01  0.00000000E+00
  1.14000000E+02  6.00000000E+01  0.00000000E+00
  1.14000000E+02  5.40000000E+01  0.00000000E+00
  1.14000000E+02  4.80000000E+01  0.00000000E+00
  1.14000000E+02  4.20000000E+01  0.00000000E+00
  1.14000000E+02  3.60000000E+01  0.00000000E+00
  1.14000000E+02  3.00000000E+01  0.00000000E+00
  1.14000000E+02  2.40000000E+01  0.00000000E+00
  1.14000000E+02  1.80000000E+01  0.00000000E+00
  1.14000000E+02  1.20000000E+01  0.00000000E+00
  1.14000000E+02  6.00000000E+00  0.00000000E+00
  1.14000000E+02 -9.99200722E-14  0.00000000E+00
  1.20000000E+02  3.00000000E+02  0.00000000E+00
  1.20000000E+02  2.94000000E+02  0.00000000E+00
  1.20000000E+02  2.88000000E+02  0.00000000E+00
  1.20000000E+02  2.82000000E+02  0.00000000E+00
  1.20000000E+02  2.76000000E+02  0.00000000E+00
  1.20000000E+02  2.70000000E+02  0.00000000E+00
  1.20000000E+02  2.64000000E+02  0.00000000E+00
  1.20000000E+02  2.58000000E+02  0.00000000E+00
  1.20000000E+02  2.52000000E+02  0.00000000E+00
  1.20000000E+02  2.46000000E+02  0.00000000E+00
  1.20000000E+02  2.40000000E+02  0.00000000E+00
  1.20000000E+02  2.34000000E+02  0.00000000E+00
  1.20000000E+02  2.28000000E+02  0.00000000E+00
  1.20000000E+02  2.22000000E+02  0.00000000E+00
  1.20000000E+02  2.16000000E+02  0.00000000E+00
  1.20000000E+02  2.10000000E+02  0.00000000E+00
  1.20000000E+02  2.04000000E+02  0.00000000E+00
  1.20000000E+02  1.98000000E+02  0.00000000E+00
  1.20000000E+02  1.92000000E+02  0.00000000E+00
  1.20000000E+02  1.86000000E+02  0.00000000E+00
  1.20000000E+02  1.80000000E+02  0.00000000E+00
  1.20000000E+02  1.74000000E+02  0.00000000E+00
  1.20000000E+02  1.68000000E+02  0.00000000E+00
  1.20000000E+02  1.62000000E+02  0.00000000E+00
  1.20000000E+02  1.56000000E+02  0.00000000E+00
  1.20000000E+02  1.50000000E+02  0.00000000E+00
  1.20000000E+02  1.44000000E+02  0.00000000E+00
  1.20000000E+02  1.38000000E+02  0.00000000E+00
  1.20000000E+02  1.32000000E+02  0.00000000E+00
  1.20000000E+02  1.26000000E+02  0.00000000E+00
  1.20000000E+02  1.20000000E+02  0.00000000E+00
  1.20000000E+02  1.14000000E+02  0.00000000E+00
  1.20000000E+02  1.08000000E+02  0.00000000E+00
  1.20000000E+02  1.02000000E+02  0.00000000E+00
  1.20000000E+02  9.60000000E+01  0.00000000E+00
  1.20000000E+02  9.00000000E+01  0.00000000E+00
  1.20000000E+02  8.40000000E+01  0.00000000E+00
  1.20000000E+02  7.80000000E+01  0.00000000E+00
  1.20000000E+02  7.20000000E+01  0.00000000E+00
  1.20000000E+02  6.60000000E+01  0.00000000E+00
  1.20000000E+02  6.00000000E+01  0.00000000E+00
  1.20000000E+02  5.40000000E+01  0.00000000E+00
  1.20000000E+02  4.80000000E+01  0.00000000E+00
  1.20000000E+02  4.20000000E+01  0.00000000E+00
  1.20000000E+02  3.60000000E+01  0.00000000E+00
  1.20000000E+02  3.00000000E+01  0.00000000E+00
  1.20000000E+02  2.40000000E+01  0.00000000E+00
  1.20000000E+02  1.80000000E+01  0.00000000E+00
  1.20000000E+02  1.20000000E+01  0.00000000E+00
  1.20000000E+02  6.00000000E+00  0.00000000E+00
  1.20000000E+02 -9.99200722E-14  0.00000000E+00
  1.26000000E+02  3.00000000E+02  0.00000000E+00
  1.26000000E+02  2.94000000E+02  0.00000000E+00
  1.26000000E+02  2.88000000E+02  0.00000000E+00
  1.26000000E+02  2.82000000E+02  0.00000000E+00
  1.26000000E+02  2.76000000E+02  0.00000000E+00
  1.26000000E+02  2.70000000E+02  0.00000000E+00
  1.26000000E+02  2.64000000E+02  0.00000000E+00
  1.26000000E+02  2.58000000E+02  0.00000000E+00
  1.26000000E+02  2.52000000E+02  0.00000000E+00
  1.26000000E+02  2.46000000E+02  0.00000000E+00
  1.26000000E+02  2.40000000E+02  0.00000000E+00
  1.26000000E+02  2.34000000E+02  0.00000000E+00
  1.26000000E+02  2.28000000E+02  0.00000000E+00
  1.26000000E+02  2.22000000E+02  0.00000000E+00
  1.26000000E+02  2.16000000E+02  0.00000000E+00
  1.26000000E+02  2.10000000E+02  0.00000000E+00
  1.26000000E+02  2.04000000E+02  0.00000000E+00
  1.26000000E+02  1.98000000E+02  0.00000000E+00
  1.26000000E+02  1.92000000E+02  0.00000000E+00
  1.26000000E+02  1.86000000E+02  0.00000000E+00
  1.26000000E+02  1.80000000E+02  0.00000000E+00
  1.26000000E+02  1.74000000E+02  0.00000000E+00
  1.26000000E+02  1.68000000E+02  0.00000000E+00
  1.26000000E+02  1.62000000E+02  0.00000000E+00
  1.26000000E+02  1.56000000E+02  0.00000000E+00
  1.26000000E+02  1.50000000E+02  0.00000000E+00
  1.26000000E+02  1.44000000E+02  0.00000000E+00
  1.26000000E+02  1.38000000E+02  0.00000000E+00
  1.26000000E+02  1.32000000E+02  0.00000000E+00
  1.26000000E+02  1.26000000E+02  0.00000000E+00
  1.26000000E+02  1.20000000E+02  0.00000000E+00
  1.26000000E+02  1.14000000E+02  0.00000000E+00
  1.26000000E+02  1.08000000E+02  0.00000000E+00
  1.26000000E+02  1.02000000E+02  0.00000000E+00
  1.26000000E+02  9.60000000E+01  0.00000000E+00
  1.26000000E+02  9.00000000E+01  0.00000000E+00
  1.26000000E+02  8.40000000E+01  0.00000000E+00
  1.26000000E+02  7.80000000E+01  0.00000000E+00
  1.26000000E+02  7.20000000E+01  0.00000000E+00
  1.26000000E+02  6.60000000E+01  0.00000000E+00
  1.26000000E+02  6.00000000E+01  0.00000000E+00
  1.26000000E+02  5.40000000E+01  0.00000000E+00
  1.26000000E+02  4.80000000E+01  0.00000000E+00
  1.26000000E+02  4.20000000E+01  0.00000000E+00
  1.26000000E+02  3.60000000E+01  0.00000000E+00
  1.26000000E+02  3.00000000E+01  0.00000000E+00
  1.26000000E+02  2.40000000E+01  0.00000000E+00
  1.26000000E+02  1.80000000E+01  0.00000000E+00
  1.26000000E+02  1.20000000E+01  0.00000000E+00
  1.26000000E+02  6.00000000E+00  0.00000000E+00
  1.26000000E+02 -9.99200722E-14  0.00000000E+00
  1.32000000E+02  3.00000000E+02  0.00000000E+00
  1.32000000E+02  2.94000000E+02  0.00000000E+00
  1.32000000E+02  2.88000000E+02  0.00000000E+00
  1.32000000E+02  2.82000000E+02  0.00000000E+00
  1.32000000E+02  2.76000000E+02  0.00000000E+00
  1.32000000E+02  2.70000000E+02  0.00000000E+00
  1.32000000E+02  2.64000000E+02  0.00000000E+00
  1.32000000E+02  2.58000000E+02  0.00000000E+00
  1.32000000E+02  2.52000000E+02  0.00000000E+00
  1.32000000E+02  2.46000000E+02  0.00000000E+00
  1.32000000E+02  2.40000000E+02  0.00000000E+00
  1.32000000E+02  2.34000000E+02  0.00000000E+00
  1.32000000E+02  2.28000000E+02  0.00000000E+00
  1.32000000E+02  2.22000000E+02  0.00000000E+00
  1.32000000E+02  2.16000000E+02  0.00000000E+00
  1.32000000E+02  2.10000000E+02  0.00000000E+00
  1.32000000E+02  2.04000000E+02  0.00000000E+00
  1.32000000E+02  1.98000000E+02  0.00000000E+00
  1.32000000E+02  1.92000000E+02  0.00000000E+00
  1.32000000E+02  1.86000000E+02  0.00000000E+00
  1.32000000E+02  1.80000000E+02  0.00000000E+00
  1.32000000E+02  1.74000000E+02  0.00000000E+00
  1.32000000E+02  1.68000000E+02  0.00000000E+00
  1.32000000E+02  1.62000000E+02  0.00000000E+00
  1.32000000E+02  1.56000000E+02  0.00000000E+00
  1.32000000E+02  1.50000000E+02  0.00000000E+00
  1.32000000E+02  1.44000000E+02  0.00000000E+00
  1.32000000E+02  1.38000000E+02  0.00000000E+00
  1.32000000E+02  1.32000000E+02  0.00000000E+00
  1.32000000E+02  1.26000000E+02  0.00000000E+00
  1.32000000E+02  1.20000000E+02  0.00000000E+00
  1.32000000E+02  1.14000000E+02  0.00000000E+00
  1.32000000E+02  1.08000000E+02  0.00000000E+00
  1.32000000E+02  1.02000000E+02  0.00000000E+00
  1.32000000E+02  9.60000000E+01  0.00000000E+00
  1.32000000E+02  9.00000000E+01  0.00000000E+00
  1.32000000E+02  8.40000000E+01  0.00000000E+00
  1.32000000E+02  7.80000000E+01  0.00000000E+00
  1.32000000E+02  7.20000000E+01  0.00000000E+00
  1.32000000E+02  6.60000000E+01  0.00000000E+00
  1.32000000E+02  6.00000000E+01  0.00000000E+00
  1.32000000E+02  5.40000000E+01  0.00000000E+00
  1.32000000E+02  4.80000000E+01  0.00000000E+00
  1.32000000E+02  4.20000000E+01  0.00000000E+00
  1.32000000E+02  3.60000000E+01  0.00000000E+00
  1.32000000E+02  3.00000000E+01  0.00000000E+00
  1.32000000E+02  2.40000000E+01  0.00000000E+00
  1.32000000E+02  1.80000000E+01  0.00000000E+00
  1.32000000E+02  1.20000000E+01  0.00000000E+00
  1.32000000E+02  6.00000000E+00  0.00000000E+00
  1.32000000E+02 -9.99200722E-14  0.00000000E+00
  1.38000000E+02  3.00000000E+02  0.00000000E+00
  1.38000000E+02  2.94000000E+02  0.00000000E+00
  1.38000000E+02  2.88000000E+02  0.00000000E+00
  1.38000000E+02  2.82000000E+02  0.00000000E+00
  1.38000000E+02  2.76000000E+02  0.00000000E+00
  1.38000000E+02  2.70000000E+02  0.00000000E+00
  1.38000000E+02  2.64000000E+02  0.00000000E+00
  1.38000000E+02  2.58000000E+02  0.00000000E+00
  1.38000000E+02  2.52000000E+02  0.00000000E+00
  1.38000000E+02  2.46000000E+02  0.00000000E+00
  1.38000000E+02  2.40000000E+02  0.00000000E+00
  1.38000000E+02  2.34000000E+02  0.00000000E+00
  1.38000000E+02  2.28000000E+02  0.00000000E+00
  1.38000000E+02  2.22000000E+02  0.00000000E+00
  1.38000000E+02  2.16000000E+02  0.00000000E+00
  1.38000000E+02  2.10000000E+02  0.00000000E+00
  1.38000000E+02  2.04000000E+02  0.00000000E+00
  1.38000000E+02  1.98000000E+02  0.00000000E+00
  1.38000000E+02  1.92000000E+02  0.00000000E+00
  1.38000000E+02  1.86000000E+02  0.00000000E+00
  1.38000000E+02  1.80000000E+02  0.00000000E+00
  1.38000000E+02  1.74000000E+02  0.00000000E+00
  1.38000000E+02  1.68000000E+02  0.00000000E+00
  1.38000000E+02  1.62000000E+02  0.00000000E+00
  1.38000000E+02  1.56000000E+02  0.00000000E+00
  1.38000000E+02  1.50000000E+02  0.00000000E+00
  1.38000000E+02  1.44000000E+02  0.00000000E+00
  1.38000000E+02  1.38000000E+02  0.00000000E+00
  1.38000000E+02  1.32000000E+02  0.00000000E+00
  1.38000000E+02  1.26000000E+02  0.00000000E+00
  1.38000000E+02  1.20000000E+02  0.00000000E+00
  1.38000000E+02  1.14000000E+02  0.00000000E+00
  1.38000000E+02  1.08000000E+02  0.00000000E+00
  1.38000000E+02  1.02000000E+02  0.00000000E+00
  1.38000000E+02  9.60000000E+01  0.00000000E+00
  1.38000000E+02  9.00000000E+01  0.00000000E+00
  1.38000000E+02  8.40000000E+01  0.00000000E+00
  1.38000000E+02  7.80000000E+01  0.00000000E+00
  1.38000000E+02  7.20000000E+01  0.00000000E+00
  1.38000000E+02  6.60000000E+01  0.00000000E+00
  1.38000000E+02  6.00000000E+01  0.00000000E+00
  1.38000000E+02  5.40000000E+01  0.00000000E+00
  1.38000000E+02  4.80000000E+01  0.00000000E+00
  1.38000000E+02  4.20000000E+01  0.00000000E+00
  1.38000000E+02  3.60000000E+01  0.00000000E+00
  1.38000000E+02  3.00000000E+01  0.00000000E+00
  1.38000000E+02  2.40000000E+01  0.00000000E+00
  1.38000000E+02  1.80000000E+01  0.00000000E+00
  1.38000000E+02  1.20000000E+01  0.00000000E+00
  1.38000000E+02  6.00000000E+00  0.00000000E+00
  1.38000000E+02 -9.99200722E-14  0.00000000E+00
  1.44000000E+02  3.00000000E+02  0.00000000E+00
  1.44000000E+02  2.94000000E+02  0.00000000E+00
  1.44000000E+02  2.88000000E+02  0.00000000E+00
  1.44000000E+02  2.82000000E+02  0.00000000E+00
  1.44000000E+02  2.76000000E+02  0.00000000E+00
  1.44000000E+02  2.70000000E+02  0.00000000E+00
  1.44000000E+02  2.64000000E+02  0.00000000E+00
  1.44000000E+02  2.58000000E+02  0.00000000E+00
  1.44000000E+02  2.52000000E+02  0.00000000E+00
  1.44000000E+02  2.46000000E+02  0.00000000E+00
  1.44000000E+02  2.40000000E+02  0.00000000E+00
  1.44000000E+02  2.34000000E+02  0.00000000E+00
  1.44000000E+02  2.28000000E+02  0.00000000E+00
  1.44000000E+02  2.22000000E+02  0.00000000E+00
  1.44000000E+02  2.16000000E+02  0.00000000E+00
  1.44000000E+02  2.10000000E+02  0.00000000E+00
  1.44000000E+02  2.04000000E+02  0.00000000E+00
  1.44000000E+02  1.98000000E+02  0.00000000E+00
  1.44000000E+02  1.92000000E+02  0.00000000E+00
  1.44000000E+02  1.86000000E+02  0.00000000E+00
  1.44000000E+02  1.80000000E+02  0.00000000E+00
  1.44000000E+02  1.74000000E+02  0.00000000E+00
  1.44000000E+02  1.68000000E+02  0.00000000E+00
  1.44000000E+02  1.62000000E+02  0.00000000E+00
  1.44000000E+02  1.56000000E+02  0.00000000E+00
  1.44000000E+02  1.50000000E+02  0.00000000E+00
  1.44000000E+02  1.44000000E+02  0.00000000E+00
  1.44000000E+02  1.38000000E+02  0.00000000E+00
  1.44000000E+02  1.32000000E+02  0.00000000E+00
  1.44000000E+02  1.26000000E+02  0.00000000E+00
  1.44000000E+02  1.20000000E+02  0.00000000E+00
  1.44000000E+02  1.14000000E+02  0.00000000E+00
  1.44000000E+02  1.08000000E+02  0.00000000E+00
  1.44000000E+02  1.02000000E+02  0.00000000E+00
  1.44000000E+02  9.60000000E+01  0.00000000E+00
  1.44000000E+02  9.00000000E+01  0.00000000E+00
  1.44000000E+02  8.40000000E+01  0.00000000E+00
  1.44000000E+02  7.80000000E+01  0.00000000E+00
  1.44000000E+02  7.20000000E+01  0.00000000E+00
  1.44000000E+02  6.60000000E+01  0.00000000E+00
  1.44000000E+02  6.00000000E+01  0.00000000E+00
  1.44000000E+02  5.40000000E+01  0.00000000E+00
  1.44000000E+02  4.80000000E+01  0.00000000E+00
  1.44000000E+02  4.20000000E+01  0.00000000E+00
  1.44000000E+02  3.60000000E+01  0.00000000E+00
  1.44000000E+02  3.00000000E+01  0.00000000E+00
  1.44000000E+02  2.40000000E+01  0.00000000E+00
  1.44000000E+02  1.80000000E+01  0.00000000E+00
  1.44000000E+02  1.20000000E+01  0.00000000E+00
  1.44000000E+02  6.00000000E+00  0.00000000E+00
  1.44000000E+02 -9.99200722E-14  0.00000000E+00
  1.50000000E+02  3.00000000E+02  0.00000000E+00
  1.50000000E+02  2.94000000E+02  0.00000000E+00
  1.50000000E+02  2.88000000E+02  0.00000000E+00
  1.50000000E+02  2.82000000E+02  0.00000000E+00
  1.50000000E+02  2.76000000E+02  0.00000000E+00
  1.50000000E+02  2.70000000E+02  0.00000000E+00
  1.50000000E+02  2.64000000E+02  0.00000000E+00
  1.50000000E+02  2.58000000E+02  0.00000000E+00
  1.50000000E+02  2.52000000E+02  0.00000000E+00
  1.50000000E+02  2.46000000E+02  0.00000000E+00
  1.50000000E+02  2.40000000E+02  0.00000000E+00
  1.50000000E+02  2.34000000E+02  0.00000000E+00
  1.50000000E+02  2.28000000E+02  0.00000000E+00
  1.50000000E+02  2.22000000E+02  0.00000000E+00
  1.50000000E+02  2.16000000E+02  0.00000000E+00
  1.50000000E+02  2.10000000E+02  0.00000000E+00
  1.50000000E+02  2.04000000E+02  0.00000000E+00
  1.50000000E+02  1.98000000E+02  0.00000000E+00
  1.50000000E+02  1.92000000E+02  0.00000000E+00
  1.50000000E+02  1.86000000E+02  0.00000000E+00
  1.50000000E+02  1.80000000E+02  0.00000000E+00
  1.50000000E+02  1.74000000E+02  0.00000000E+00
  1.50000000E+02  1.68000000E+02  0.00000000E+00
  1.50000000E+02  1.62000000E+02  0.00000000E+00
  1.50000000E+02  1.56000000E+02  0.00000000E+00
  1.50000000E+02  1.50000000E+02  0.00000000E+00
  1.50000000E+02  1.44000000E+02  0.00000000E+00
  1.50000000E+02  1.38000000E+02  0.00000000E+00
  1.50000000E+02  1.32000000E+02  0.00000000E+00
  1.50000000E+02  1.26000000E+02  0.00000000E+00
  1.50000000E+02  1.20000000E+02  0.00000000E+00
  1.50000000E+02  1.14000000E+02  0.00000000E+00
  1.50000000E+02  1.08000000E+02  0.00000000E+00
  1.50000000E+02  1.02000000E+02  0.00000000E+00
  1.50000000E+02  9.60000000E+01  0.00000000E+00
  1.50000000E+02  9.00000000E+01  0.00000000E+00
  1.50000000E+02  8.40000000E+01  0.00000000E+00
  1.50000000E+02  7.80000000E+01  0.00000000E+00
  1.50000000E+02  7.20000000E+01  0.00000000E+00
  1.50000000E+02  6.60000000E+01  0.00000000E+00
  1.50000000E+02  6.00000000E+01  0.00000000E+00
  1.50000000E+02  5.40000000E+01  0.00000000E+00
  1.50000000E+02  4.80000000E+01  0.00000000E+00
  1.50000000E+02  4.20000000E+01  0.00000000E+00
  1.50000000E+02  3.60000000E+01  0.00000000E+00
  1.50000000E+02  3.00000000E+01  0.00000000E+00
  1.50000000E+02  2.40000000E+01  0.00000000E+00
  1.50000000E+02  1.80000000E+01  0.00000000E+00
  1.50000000E+02  1.20000000E+01  0.00000000E+00
  1.50000000E+02  6.00000000E+00  0.00000000E+00
  1.50000000E+02 -9.99200722E-14  0.00000000E+00
  1.56000000E+02  3.00000000E+02  0.00000000E+00
  1.56000000E+02  2.94000000E+02  0.00000000E+00
  1.56000000E+02  2.88000000E+02  0.00000000E+00
  1.56000000E+02  2.82000000E+02  0.00000000E+00
  1.56000000E+02  2.76000000E+02  0.00000000E+00
  1.56000000E+02  2.70000000E+02  0.00000000E+00
  1.56000000E+02  2.64000000E+02  0.00000000E+00
  1.56000000E+02  2.58000000E+02  0.00000000E+00
  1.56000000E+02  2.52000000E+02  0.00000000E+00
  1.56000000E+02  2.46000000E+02  0.00000000E+00
  1.56000000E+02  2.40000000E+02  0.00000000E+00
  1.56000000E+02  2.34000000E+02  0.00000000E+00
  1.56000000E+02  2.28000000E+02  0.00000000E+00
  1.56000000E+02  2.22000000E+02  0.00000000E+00
  1.56000000E+02  2.16000000E+02  0.00000000E+00
  1.56000000E+02  2.10000000E+02  0.00000000E+00
  1.56000000E+02  2.04000000E+02  0.00000000E+00
  1.56000000E+02  1.98000000E+02  0.00000000E+00
  1.56000000E+02  1.92000000E+02  0.00000000E+00
  1.56000000E+02  1.86000000E+02  0.00000000E+00
  1.56000000E+02  1.80000000E+02  0.00000000E+00
  1.56000000E+02  1.74000000E+02  0.00000000E+00
  1.56000000E+02  1.68000000E+02  0.00000000E+00
  1.56000000E+02  1.62000000E+02  0.00000000E+00
  1.56000000E+02  1.56000000E+02  0.00000000E+00
  1.56000000E+02  1.50000000E+02  0.00000000E+00
  1.56000000E+02  1.44000000E+02  0.00000000E+00
  1.56000000E+02  1.38000000E+02  0.00000000E+00
  1.56000000E+02  1.32000000E+02  0.00000000E+00
  1.56000000E+02  1.26000000E+02  0.00000000E+00
  1.56000000E+02  1.20000000E+02  0.00000000E+00
  1.56000000E+02  1.14000000E+02  0.00000000E+00
  1.56000000E+02  1.08000000E+02  0.00000000E+00
  1.56000000E+02  1.02000000E+02  0.00000000E+00
  1.56000000E+02  9.60000000E+01  0.00000000E+00
  1.56000000E+02  9.00000000E+01  0.00000000E+00
  1.56000000E+02  8.40000000E+01  0.00000000E+00
  1.56000000E+02  7.80000000E+01  0.00000000E+00
  1.56000000E+02  7.20000000E+01  0.00000000E+00
  1.56000000E+02  6.60000000E+01  0.00000000E+00
  1.56000000E+02  6.00000000E+01  0.00000000E+00
  1.56000000E+02  5.40000000E+01  0.00000000E+00
  1.56000000E+02  4.80000000E+01  0.00000000E+00
  1.56000000E+02  4.20000000E+01  0.00000000E+00
  1.56000000E+02  3.60000000E+01  0.00000000E+00
  1.56000000E+02  3.00000000E+01  0.00000000E+00
  1.56000000E+02  2.40000000E+01  0.00000000E+00
  1.56000000E+02  1.80000000E+01  0.00000000E+00
  1.56000000E+02  1.20000000E+01  0.00000000E+00
  1.56000000E+02  6.00000000E+00  0.00000000E+00
  1.56000000E+02 -9.99200722E-14  0.00000000E+00
  1.62000000E+02  3.00000000E+02  0.00000000E+00
  1.62000000E+02  2.94000000E+02  0.00000000E+00
  1.62000000E+02  2.88000000E+02  0.00000000E+00
  1.62000000E+02  2.82000000E+02  0.00000000E+00
  1.62000000E+02  2.76000000E+02  0.00000000E+00
  1.62000000E+02  2.70000000E+02  0.00000000E+00
  1.62000000E+02  2.64000000E+02  0.00000000E+00
  1.62000000E+02  2.58000000E+02  0.00000000E+00
  1.62000000E+02  2.52000000E+02  0.00000000E+00
  1.62000000E+02  2.46000000E+02  0.00000000E+00
  1.62000000E+02  2.40000000E+02  0.00000000E+00
  1.62000000E+02  2.34000000E+02  0.00000000E+00
  1.62000000E+02  2.28000000E+02  0.00000000E+00
  1.62000000E+02  2.22000000E+02  0.00000000E+00
  1.62000000E+02  2.16000000E+02  0.00000000E+00
  1.62000000E+02  2.10000000E+02  0.00000000E+00
  1.62000000E+02  2.04000000E+02  0.00000000E+00
  1.62000000E+02  1.98000000E+02  0.00000000E+00
  1.62000000E+02  1.92000000E+02  0.00000000E+00
  1.62000000E+02  1.86000000E+02  0.00000000E+00
  1.62000000E+02  1.80000000E+02  0.00000000E+00
  1.62000000E+02  1.74000000E+02  0.00000000E+00
  1.62000000E+02  1.68000000E+02  0.00000000E+00
  1.62000000E+02  1.62000000E+02  0.00000000E+00
  1.62000000E+02  1.56000000E+02  0.00000000E+00
  1.62000000E+02  1.50000000E+02  0.00000000E+00
  1.62000000E+02  1.44000000E+02  0.00000000E+00
  1.62000000E+02  1.38000000E+02  0.00000000E+00
  1.62000000E+02  1.32000000E+02  0.00000000E+00
  1.62000000E+02  1.26000000E+02  0.00000000E+00
  1.62000000E+02  1.20000000E+02  0.00000000E+00
  1.62000000E+02  1.14000000E+02  0.00000000E+00
  1.62000000E+02  1.08000000E+02  0.00000000E+00
  1.62000000E+02  1.02000000E+02  0.00000000E+00
  1.62000000E+02  9.60000000E+01  0.00000000E+00
  1.62000000E+02  9.00000000E+01  0.00000000E+00
  1.62000000E+02  8.40000000E+01  0.00000000E+00
  1.62000000E+02  7.80000000E+01  0.00000000E+00
  1.62000000E+02  7.20000000E+01  0.00000000E+00
  1.62000000E+02  6.60000000E+01  0.00000000E+00
  1.62000000E+02  6.00000000E+01  0.00000000E+00
  1.62000000E+02  5.40000000E+01  0.00000000E+00
  1.62000000E+02  4.80000000E+01  0.00000000E+00
  1.62000000E+02  4.20000000E+01  0.00000000E+00
  1.62000000E+02  3.60000000E+01  0.00000000E+00
  1.62000000E+02  3.00000000E+01  0.00000000E+00
  1.62000000E+02  2.40000000E+01  0.00000000E+00
  1.62000000E+02  1.80000000E+01  0.00000000E+00
  1.62000000E+02  1.20000000E+01  0.00000000E+00
  1.62000000E+02  6.00000000E+00  0.00000000E+00
  1.62000000E+02 -9.99200722E-14  0.00000000E+00
  1.68000000E+02  3.00000000E+02  0.00000000E+00
  1.68000000E+02  2.94000000E+02  0.00000000E+00
  1.68000000E+02  2.88000000E+02  0.00000000E+00
  1.68000000E+02  2.82000000E+02  0.00000000E+00
  1.68000000E+02  2.76000000E+02  0.00000000E+00
  1.68000000E+02  2.70000000E+02  0.00000000E+00
  1.68000000E+02  2.64000000E+02  0.00000000E+00
  1.68000000E+02  2.58000000E+02  0.00000000E+00
  1.68000000E+02  2.52000000E+02  0.00000000E+00
  1.68000000E+02  2.46000000E+02  0.00000000E+00
  1.68000000E+02  2.40000000E+02  0.00000000E+00
  1.68000000E+02  2.34000000E+02  0.00000000E+00
  1.68000000E+02  2.28000000E+02  0.00000000E+00
  1.68000000E+02  2.22000000E+02  0.00000000E+00
  1.68000000E+02  2.16000000E+02  0.00000000E+00
  1.68000000E+02  2.10000000E+02  0.00000000E+00
  1.68000000E+02  2.04000000E+02  0.00000000E+00
  1.68000000E+02  1.98000000E+02  0.00000000E+00
  1.68000000E+02  1.92000000E+02  0.00000000E+00
  1.68000000E+02  1.86000000E+02  0.00000000E+00
  1.68000000E+02  1.80000000E+02  0.00000000E+00
  1.68000000E+02  1.74000000E+02  0.00000000E+00
  1.68000000E+02  1.68000000E+02  0.00000000E+00
  1.68000000E+02  1.62000000E+02  0.00000000E+00
  1.68000000E+02  1.56000000E+02  0.00000000E+00
  1.68000000E+02  1.50000000E+02  0.00000000E+00
  1.68000000E+02  1.44000000E+02  0.00000000E+00
  1.68000000E+02  1.38000000E+02  0.00000000E+00
  1.68000000E+02  1.32000000E+02  0.00000000E+00
  1.68000000E+02  1.26000000E+02  0.00000000E+00
  1.68000000E+02  1.20000000E+02  0.00000000E+00
  1.68000000E+02  1.14000000E+02  0.00000000E+00
  1.68000000E+02  1.08000000E+02  0.00000000E+00
  1.68000000E+02  1.02000000E+02  0.00000000E+00
  1.68000000E+02  9.60000000E+01  0.00000000E+00
  1.68000000E+02  9.00000000E+01  0.00000000E+00
  1.68000000E+02  8.40000000E+01  0.00000000E+00
  1.68000000E+02  7.80000000E+01  0.00000000E+00
  1.68000000E+02  7.20000000E+01  0.00000000E+00
  1.68000000E+02  6.60000000E+01  0.00000000E+00
  1.68000000E+02  6.00000000E+01  0.00000000E+00
  1.68000000E+02  5.40000000E+01  0.00000000E+00
  1.68000000E+02  4.80000000E+01  0.00000000E+00
  1.68000000E+02  4.20000000E+01  0.00000000E+00
  1.68000000E+02  3.60000000E+01  0.00000000E+00
  1.68000000E+02  3.00000000E+01  0.00000000E+00
  1.68000000E+02  2.40000000E+01  0.00000000E+00
  1.68000000E+02  1.80000000E+01  0.00000000E+00
  1.68000000E+02  1.20000000E+01  0.00000000E+00
  1.68000000E+02  6.00000000E+00  0.00000000E+00
  1.68000000E+02 -9.99200722E-14  0.00000000E+00
  1.74000000E+02  3.00000000E+02  0.00000000E+00
  1.74000000E+02  2.94000000E+02  0.00000000E+00
  1.74000000E+02  2.88000000E+02  0.00000000E+00
  1.74000000E+02  2.82000000E+02  0.00000000E+00
  1.74000000E+02  2.76000000E+02  0.00000000E+00
  1.74000000E+02  2.70000000E+02  0.00000000E+00
  1.74000000E+02  2.64000000E+02  0.00000000E+00
  1.74000000E+02  2.58000000E+02  0.00000000E+00
  1.74000000E+02  2.52000000E+02  0.00000000E+00
  1.74000000E+02  2.46000000E+02  0.00000000E+00
  1.74000000E+02  2.40000000E+02  0.00000000E+00
  1.74000000E+02  2.34000000E+02  0.00000000E+00
  1.74000000E+02  2.28000000E+02  0.00000000E+00
  1.74000000E+02  2.22000000E+02  0.00000000E+00
  1.74000000E+02  2.16000000E+02  0.00000000E+00
  1.74000000E+02  2.10000000E+02  0.00000000E+00
  1.74000000E+02  2.04000000E+02  0.00000000E+00
  1.74000000E+02  1.98000000E+02  0.00000000E+00
  1.74000000E+02  1.92000000E+02  0.00000000E+00
  1.74000000E+02  1.86000000E+02  0.00000000E+00
  1.74000000E+02  1.80000000E+02  0.00000000E+00
  1.74000000E+02  1.74000000E+02  0.00000000E+00
  1.74000000E+02  1.68000000E+02  0.00000000E+00
  1.74000000E+02  1.62000000E+02  0.00000000E+00
  1.74000000E+02  1.56000000E+02  0.00000000E+00
  1.74000000E+02  1.50000000E+02  0.00000000E+00
  1.74000000E+02  1.44000000E+02  0.00000000E+00
  1.74000000E+02  1.38000000E+02  0.00000000E+00
  1.74000000E+02  1.32000000E+02  0.00000000E+00
  1.74000000E+02  1.26000000E+02  0.00000000E+00
  1.74000000E+02  1.20000000E+02  0.00000000E+00
  1.74000000E+02  1.14000000E+02  0.00000000E+00
  1.74000000E+02  1.08000000E+02  0.00000000E+00
  1.74000000E+02  1.02000000E+02  0.00000000E+00
  1.74000000E+02  9.60000000E+01  0.00000000E+00
  1.74000000E+02  9.00000000E+01  0.00000000E+00
  1.74000000E+02  8.40000000E+01  0.00000000E+00
  1.74000000E+02  7.80000000E+01  0.00000000E+00
  1.74000000E+02  7.20000000E+01  0.00000000E+00
  1.74000000E+02  6.60000000E+01  0.00000000E+00
  1.74000000E+02  6.00000000E+01  0.00000000E+00
  1.74000000E+02  5.40000000E+01  0.00000000E+00
  1.74000000E+02  4.80000000E+01  0.00000000E+00
  1.74000000E+02  4.20000000E+01  0.00000000E+00
  1.74000000E+02  3.60000000E+01  0.00000000E+00
  1.74000000E+02  3.00000000E+01  0.00000000E+00
  1.74000000E+02  2.40000000E+01  0.00000000E+00
  1.74000000E+02  1.80000000E+01  0.00000000E+00
  1.74000000E+02  1.20000000E+01  0.00000000E+00
  1.74000000E+02  6.00000000E+00  0.00000000E+00
  1.74000000E+02 -9.99200722E-14  0.00000000E+00
  1.80000000E+02  3.00000000E+02  0.00000000E+00
  1.80000000E+02  2.94000000E+02  0.00000000E+00
  1.80000000E+02  2.88000000E+02  0.00000000E+00
  1.80000000E+02  2.82000000E+02  0.00000000E+00
  1.80000000E+02  2.76000000E+02  0.00000000E+00
  1.80000000E+02  2.70000000E+02  0.00000000E+00
  1.80000000E+02  2.64000000E+02  0.00000000E+00
  1.80000000E+02  2.58000000E+02  0.00000000E+00
  1.80000000E+02  2.52000000E+02  0.00000000E+00
  1.80000000E+02  2.46000000E+02  0.00000000E+00
  1.80000000E+02  2.40000000E+02  0.00000000E+00
  1.80000000E+02  2.34000000E+02  0.00000000E+00
  1.80000000E+02  2.28000000E+02  0.00000000E+00
  1.80000000E+02  2.22000000E+02  0.00000000E+00
  1.80000000E+02  2.16000000E+02  0.00000000E+00
  1.80000000E+02  2.10000000E+02  0.00000000E+00
  1.80000000E+02  2.04000000E+02  0.00000000E+00
  1.80000000E+02  1.98000000E+02  0.00000000E+00
  1.80000000E+02  1.92000000E+02  0.00000000E+00
  1.80000000E+02  1.86000000E+02  0.00000000E+00
  1.80000000E+02  1.80000000E+02  0.00000000E+00
  1.80000000E+02  1.74000000E+02  0.00000000E+00
  1.80000000E+02  1.68000000E+02  0.00000000E+00
  1.80000000E+02  1.62000000E+02  0.00000000E+00
  1.80000000E+02  1.56000000E+02  0.00000000E+00
  1.80000000E+02  1.50000000E+02  0.00000000E+00
  1.80000000E+02  1.44000000E+02  0.00000000E+00
  1.80000000E+02  1.38000000E+02  0.00000000E+00
  1.80000000E+02  1.32000000E+02  0.00000000E+00
  1.80000000E+02  1.26000000E+02  0.00000000E+00
  1.80000000E+02  1.20000000E+02  0.00000000E+00
  1.80000000E+02  1.14000000E+02  0.00000000E+00
  1.80000000E+02  1.08000000E+02  0.00000000E+00
  1.80000000E+02  1.02000000E+02  0.00000000E+00
  1.80000000E+02  9.60000000E+01  0.00000000E+00
  1.80000000E+02  9.00000000E+01  0.00000000E+00
  1.80000000E+02  8.40000000E+01  0.00000000E+00
  1.80000000E+02  7.80000000E+01  0.00000000E+00
  1.80000000E+02  7.20000000E+01  0.00000000E+00
  1.80000000E+02  6.60000000E+01  0.00000000E+00
  1.80000000E+02  6.00000000E+01  0.00000000E+00
  1.80000000E+02  5.40000000E+01  0.00000000E+00
  1.80000000E+02  4.80000000E+01  0.00000000E+00
  1.80000000E+02  4.20000000E+01  0.00000000E+00
  1.80000000E+02  3.60000000E+01  0.00000000E+00
  1.80000000E+02  3.00000000E+01  0.00000000E+00
  1.80000000E+02  2.40000000E+01  0.00000000E+00
  1.80000000E+02  1.80000000E+01  0.00000000E+00
  1.80000000E+02  1.20000000E+01  0.00000000E+00
  1.80000000E+02  6.00000000E+00  0.00000000E+00
  1.80000000E+02 -9.99200722E-14  0.00000000E+00
  1.86000000E+02  3.00000000E+02  0.00000000E+00
  1.86000000E+02  2.94000000E+02  0.00000000E+00
  1.86000000E+02  2.88000000E+02  0.00000000E+00
  1.86000000E+02  2.82000000E+02  0.00000000E+00
  1.86000000E+02  2.76000000E+02  0.00000000E+00
  1.86000000E+02  2.70000000E+02  0.00000000E+00
  1.86000000E+02  2.64000000E+02  0.00000000E+00
  1.86000000E+02  2.58000000E+02  0.00000000E+00
  1.86000000E+02  2.52000000E+02  0.00000000E+00
  1.86000000E+02  2.46000000E+02  0.00000000E+00
  1.86000000E+02  2.40000000E+02  0.00000000E+00
  1.86000000E+02  2.34000000E+02  0.00000000E+00
  1.86000000E+02  2.28000000E+02  0.00000000E+00
  1.86000000E+02  2.22000000E+02  0.00000000E+00
  1.86000000E+02  2.16000000E+02  0.00000000E+00
  1.86000000E+02  2.10000000E+02  0.00000000E+00
  1.86000000E+02  2.04000000E+02  0.00000000E+00
  1.86000000E+02  1.98000000E+02  0.00000000E+00
  1.86000000E+02  1.92000000E+02  0.00000000E+00
  1.86000000E+02  1.86000000E+02  0.00000000E+00
  1.86000000E+02  1.80000000E+02  0.00000000E+00
  1.86000000E+02  1.74000000E+02  0.00000000E+00
  1.86000000E+02  1.68000000E+02  0.00000000E+00
  1.86000000E+02  1.62000000E+02  0.00000000E+00
  1.86000000E+02  1.56000000E+02  0.00000000E+00
  1.86000000E+02  1.50000000E+02  0.00000000E+00
  1.86000000E+02  1.44000000E+02  0.00000000E+00
  1.86000000E+02  1.38000000E+02  0.00000000E+00
  1.86000000E+02  1.32000000E+02  0.00000000E+00
  1.86000000E+02  1.26000000E+02  0.00000000E+00
  1.86000000E+02  1.20000000E+02  0.00000000E+00
  1.86000000E+02  1.14000000E+02  0.00000000E+00
  1.86000000E+02  1.08000000E+02  0.00000000E+00
  1.86000000E+02  1.02000000E+02  0.00000000E+00
  1.86000000E+02  9.60000000E+01  0.00000000E+00
  1.86000000E+02  9.00000000E+01  0.00000000E+00
  1.86000000E+02  8.40000000E+01  0.00000000E+00
  1.86000000E+02  7.80000000E+01  0.00000000E+00
  1.86000000E+02  7.20000000E+01  0.00000000E+00
  1.86000000E+02  6.60000000E+01  0.00000000E+00
  1.86000000E+02  6.00000000E+01  0.00000000E+00
  1.86000000E+02  5.40000000E+01  0.00000000E+00
  1.86000000E+02  4.80000000E+01  0.00000000E+00
  1.86000000E+02  4.20000000E+01  0.00000000E+00
  1.86000000E+02  3.60000000E+01  0.00000000E+00
  1.86000000E+02  3.00000000E+01  0.00000000E+00
  1.86000000E+02  2.40000000E+01  0.00000000E+00
  1.86000000E+02  1.80000000E+01  0.00000000E+00
  1.86000000E+02  1.20000000E+01  0.00000000E+00
  1.86000000E+02  6.00000000E+00  0.00000000E+00
  1.86000000E+02 -9.99200722E-14  0.00000000E+00
  1.92000000E+02  3.00000000E+02  0.00000000E+00
  1.92000000E+02  2.94000000E+02  0.00000000E+00
  1.92000000E+02  2.88000000E+02  0.00000000E+00
  1.92000000E+02  2.82000000E+02  0.00000000E+00
  1.92000000E+02  2.76000000E+02  0.00000000E+00
  1.92000000E+02  2.70000000E+02  0.00000000E+00
  1.92000000E+02  2.64000000E+02  0.00000000E+00
  1.92000000E+02  2.58000000E+02  0.00000000E+00
  1.92000000E+02  2.52000000E+02  0.00000000E+00
  1.92000000E+02  2.46000000E+02  0.00000000E+00
  1.92000000E+02  2.40000000E+02  0.00000000E+00
  1.92000000E+02  2.34000000E+02  0.00000000E+00
  1.92000000E+02  2.28000000E+02  0.00000000E+00
  1.92000000E+02  2.22000000E+02  0.00000000E+00
  1.92000000E+02  2.16000000E+02  0.00000000E+00
  1.92000000E+02  2.10000000E+02  0.00000000E+00
  1.92000000E+02  2.04000000E+02  0.00000000E+00
  1.92000000E+02  1.98000000E+02  0.00000000E+00
  1.92000000E+02  1.92000000E+02  0.00000000E+00
  1.92000000E+02  1.86000000E+02  0.00000000E+00
  1.92000000E+02  1.80000000E+02  0.00000000E+00
  1.92000000E+02  1.74000000E+02  0.00000000E+00
  1.92000000E+02  1.68000000E+02  0.00000000E+00
  1.92000000E+02  1.62000000E+02  0.00000000E+00
  1.92000000E+02  1.56000000E+02  0.00000000E+00
  1.92000000E+02  1.50000000E+02  0.00000000E+00
  1.92000000E+02  1.44000000E+02  0.00000000E+00
  1.92000000E+02  1.38000000E+02  0.00000000E+00
  1.92000000E+02  1.32000000E+02  0.00000000E+00
  1.92000000E+02  1.26000000E+02  0.00000000E+00
  1.92000000E+02  1.20000000E+02  0.00000000E+00
  1.92000000E+02  1.14000000E+02  0.00000000E+00
  1.92000000E+02  1.08000000E+02  0.00000000E+00
  1.92000000E+02  1.02000000E+02  0.00000000E+00
  1.92000000E+02  9.60000000E+01  0.00000000E+00
  1.92000000E+02  9.00000000E+01  0.00000000E+00
  1.92000000E+02  8.40000000E+01  0.00000000E+00
  1.92000000E+02  7.80000000E+01  0.00000000E+00
  1.92000000E+02  7.20000000E+01  0.00000000E+00
  1.92000000E+02  6.60000000E+01  0.00000000E+00
  1.92000000E+02  6.00000000E+01  0.00000000E+00
  1.92000000E+02  5.40000000E+01  0.00000000E+00
  1.92000000E+02  4.80000000E+01  0.00000000E+00
  1.92000000E+02  4.20000000E+01  0.00000000E+00
  1.92000000E+02  3.60000000E+01  0.00000000E+00
  1.92000000E+02  3.00000000E+01  0.00000000E+00
  1.92000000E+02  2.40000000E+01  0.00000000E+00
  1.92000000E+02  1.80000000E+01  0.00000000E+00
  1.92000000E+02  1.20000000E+01  0.00000000E+00
  1.92000000E+02  6.00000000E+00  0.00000000E+00
  1.92000000E+02 -9.99200722E-14  0.00000000E+00
  1.98000000E+02  3.00000000E+02  0.00000000E+00
  1.98000000E+02  2.94000000E+02  0.00000000E+00
  1.98000000E+02  2.88000000E+02  0.00000000E+00
  1.98000000E+02  2.82000000E+02  0.00000000E+00
  1.98000000E+02  2.76000000E+02  0.00000000E+00
  1.98000000E+02  2.70000000E+02  0.00000000E+00
  1.98000000E+02  2.64000000E+02  0.00000000E+00
  1.98000000E+02  2.58000000E+02  0.00000000E+00
  1.98000000E+02  2.52000000E+02  0.00000000E+00
  1.98000000E+02  2.46000000E+02  0.00000000E+00
  1.98000000E+02  2.40000000E+02  0.00000000E+00
  1.98000000E+02  2.34000000E+02  0.00000000E+00
  1.98000000E+02  2.28000000E+02  0.00000000E+00
  1.98000000E+02  2.22000000E+02  0.00000000E+00
  1.98000000E+02  2.16000000E+02  0.00000000E+00
  1.98000000E+02  2.10000000E+02  0.00000000E+00
  1.98000000E+02  2.04000000E+02  0.00000000E+00
  1.98000000E+02  1.98000000E+02  0.00000000E+00
  1.98000000E+02  1.92000000E+02  0.00000000E+00
  1.98000000E+02  1.86000000E+02  0.00000000E+00
  1.98000000E+02  1.80000000E+02  0.00000000E+00
  1.98000000E+02  1.74000000E+02  0.00000000E+00
  1.98000000E+02  1.68000000E+02  0.00000000E+00
  1.98000000E+02  1.62000000E+02  0.00000000E+00
  1.98000000E+02  1.56000000E+02  0.00000000E+00
  1.98000000E+02  1.50000000E+02  0.00000000E+00
  1.98000000E+02  1.44000000E+02  0.00000000E+00
  1.98000000E+02  1.38000000E+02  0.00000000E+00
  1.98000000E+02  1.32000000E+02  0.00000000E+00
  1.98000000E+02  1.26000000E+02  0.00000000E+00
  1.98000000E+02  1.20000000E+02  0.00000000E+00
  1.98000000E+02  1.14000000E+02  0.00000000E+00
  1.98000000E+02  1.08000000E+02  0.00000000E+00
  1.98000000E+02  1.02000000E+02  0.00000000E+00
  1.98000000E+02  9.60000000E+01  0.00000000E+00
  1.98000000E+02  9.00000000E+01  0.00000000E+00
  1.98000000E+02  8.40000000E+01  0.00000000E+00
  1.98000000E+02  7.80000000E+01  0.00000000E+00
  1.98000000E+02  7.20000000E+01  0.00000000E+00
  1.98000000E+02  6.60000000E+01  0.00000000E+00
  1.98000000E+02  6.00000000E+01  0.00000000E+00
  1.98000000E+02  5.40000000E+01  0.00000000E+00
  1.98000000E+02  4.80000000E+01  0.00000000E+00
  1.98000000E+02  4.20000000E+01  0.00000000E+00
  1.98000000E+02  3.60000000E+01  0.00000000E+00
  1.98000000E+02  3.00000000E+01  0.00000000E+00
  1.98000000E+02  2.40000000E+01  0.00000000E+00
  1.98000000E+02  1.80000000E+01  0.00000000E+00
  1.98000000E+02  1.20000000E+01  0.00000000E+00
  1.98000000E+02  6.00000000E+00  0.00000000E+00
  1.98000000E+02 -9.99200722E-14  0.00000000E+00
  2.04000000E+02  3.00000000E+02  0.00000000E+00
  2.04000000E+02  2.94000000E+02  0.00000000E+00
  2.04000000E+02  2.88000000E+02  0.00000000E+00
  2.04000000E+02  2.82000000E+02  0.00000000E+00
  2.04000000E+02  2.76000000E+02  0.00000000E+00
  2.04000000E+02  2.70000000E+02  0.00000000E+00
  2.04000000E+02  2.64000000E+02  0.00000000E+00
  2.04000000E+02  2.58000000E+02  0.00000000E+00
  2.04000000E+02  2.52000000E+02  0.00000000E+00
  2.04000000E+02  2.46000000E+02  0.00000000E+00
  2.04000000E+02  2.40000000E+02  0.00000000E+00
  2.04000000E+02  2.34000000E+02  0.00000000E+00
  2.04000000E+02  2.28000000E+02  0.00000000E+00
  2.04000000E+02  2.22000000E+02  0.00000000E+00
  2.04000000E+02  2.16000000E+02  0.00000000E+00
  2.04000000E+02  2.10000000E+02  0.00000000E+00
  2.04000000E+02  2.04000000E+02  0.00000000E+00
  2.04000000E+02  1.98000000E+02  0.00000000E+00
  2.04000000E+02  1.92000000E+02  0.00000000E+00
  2.04000000E+02  1.86000000E+02  0.00000000E+00
  2.04000000E+02  1.80000000E+02  0.00000000E+00
  2.04000000E+02  1.74000000E+02  0.00000000E+00
  2.04000000E+02  1.68000000E+02  0.00000000E+00
  2.04000000E+02  1.62000000E+02  0.00000000E+00
  2.04000000E+02  1.56000000E+02  0.00000000E+00
  2.04000000E+02  1.50000000E+02  0.00000000E+00
  2.04000000E+02  1.44000000E+02  0.00000000E+00
  2.04000000E+02  1.38000000E+02  0.00000000E+00
  2.04000000E+02  1.32000000E+02  0.00000000E+00
  2.04000000E+02  1.26000000E+02  0.00000000E+00
  2.04000000E+02  1.20000000E+02  0.00000000E+00
  2.04000000E+02  1.14000000E+02  0.00000000E+00
  2.04000000E+02  1.08000000E+02  0.00000000E+00
  2.04000000E+02  1.02000000E+02  0.00000000E+00
  2.04000000E+02  9.60000000E+01  0.00000000E+00
  2.04000000E+02  9.00000000E+01  0.00000000E+00
  2.04000000E+02  8.40000000E+01  0.00000000E+00
  2.04000000E+02  7.80000000E+01  0.00000000E+00
  2.04000000E+02  7.20000000E+01  0.00000000E+00
  2.04000000E+02  6.60000000E+01  0.00000000E+00
  2.04000000E+02  6.00000000E+01  0.00000000E+00
  2.04000000E+02  5.40000000E+01  0.00000000E+00
  2.04000000E+02  4.80000000E+01  0.00000000E+00
  2.04000000E+02  4.20000000E+01  0.00000000E+00
  2.04000000E+02  3.60000000E+01  0.00000000E+00
  2.04000000E+02  3.00000000E+01  0.00000000E+00
  2.04000000E+02  2.40000000E+01  0.00000000E+00
  2.04000000E+02  1.80000000E+01  0.00000000E+00
  2.04000000E+02  1.20000000E+01  0.00000000E+00
  2.04000000E+02  6.00000000E+00  0.00000000E+00
  2.04000000E+02 -9.99200722E-14  0.00000000E+00
  2.10000000E+02  3.00000000E+02  0.00000000E+00
  2.10000000E+02  2.94000000E+02  0.00000000E+00
  2.10000000E+02  2.88000000E+02  0.00000000E+00
  2.10000000E+02  2.82000000E+02  0.00000000E+00
  2.10000000E+02  2.76000000E+02  0.00000000E+00
  2.10000000E+02  2.70000000E+02  0.00000000E+00
  2.10000000E+02  2.64000000E+02  0.00000000E+00
  2.10000000E+02  2.58000000E+02  0.00000000E+00
  2.10000000E+02  2.52000000E+02  0.00000000E+00
  2.10000000E+02  2.46000000E+02  0.00000000E+00
  2.10000000E+02  2.40000000E+02  0.00000000E+00
  2.10000000E+02  2.34000000E+02  0.00000000E+00
  2.10000000E+02  2.28000000E+02  0.00000000E+00
  2.10000000E+02  2.22000000E+02  0.00000000E+00
  2.10000000E+02  2.16000000E+02  0.00000000E+00
  2.10000000E+02  2.10000000E+02  0.00000000E+00
  2.10000000E+02  2.04000000E+02  0.00000000E+00
  2.10000000E+02  1.98000000E+02  0.00000000E+00
  2.10000000E+02  1.92000000E+02  0.00000000E+00
  2.10000000E+02  1.86000000E+02  0.00000000E+00
  2.10000000E+02  1.80000000E+02  0.00000000E+00
  2.10000000E+02  1.74000000E+02  0.00000000E+00
  2.10000000E+02  1.68000000E+02  0.00000000E+00
  2.10000000E+02  1.62000000E+02  0.00000000E+00
  2.10000000E+02  1.56000000E+02  0.00000000E+00
  2.10000000E+02  1.50000000E+02  0.00000000E+00
  2.10000000E+02  1.44000000E+02  0.00000000E+00
  2.10000000E+02  1.38000000E+02  0.00000000E+00
  2.10000000E+02  1.32000000E+02  0.00000000E+00
  2.10000000E+02  1.26000000E+02  0.00000000E+00
  2.10000000E+02  1.20000000E+02  0.00000000E+00
  2.10000000E+02  1.14000000E+02  0.00000000E+00
  2.10000000E+02  1.08000000E+02  0.00000000E+00
  2.10000000E+02  1.02000000E+02  0.00000000E+00
  2.10000000E+02  9.60000000E+01  0.00000000E+00
  2.10000000E+02  9.00000000E+01  0.00000000E+00
  2.10000000E+02  8.40000000E+01  0.00000000E+00
  2.10000000E+02  7.80000000E+01  0.00000000E+00
  2.10000000E+02  7.20000000E+01  0.00000000E+00
  2.10000000E+02  6.60000000E+01  0.00000000E+00
  2.10000000E+02  6.00000000E+01  0.00000000E+00
  2.10000000E+02  5.40000000E+01  0.00000000E+00
  2.10000000E+02  4.80000000E+01  0.00000000E+00
  2.10000000E+02  4.20000000E+01  0.00000000E+00
  2.10000000E+02  3.60000000E+01  0.00000000E+00
  2.10000000E+02  3.00000000E+01  0.00000000E+00
  2.10000000E+02  2.40000000E+01  0.00000000E+00
  2.10000000E+02  1.80000000E+01  0.00000000E+00
  2.10000000E+02  1.20000000E+01  0.00000000E+00
  2.10000000E+02  6.00000000E+00  0.00000000E+00
  2.10000000E+02 -9.99200722E-14  0.00000000E+00
  2.16000000E+02  3.00000000E+02  0.00000000E+00
  2.16000000E+02  2.94000000E+02  0.00000000E+00
  2.16000000E+02  2.88000000E+02  0.00000000E+00
  2.16000000E+02  2.82000000E+02  0.00000000E+00
  2.16000000E+02  2.76000000E+02  0.00000000E+00
  2.16000000E+02  2.70000000E+02  0.00000000E+00
  2.16000000E+02  2.64000000E+02  0.00000000E+00
  2.16000000E+02  2.58000000E+02  0.00000000E+00
  2.16000000E+02  2.52000000E+02  0.00000000E+00
  2.16000000E+02  2.46000000E+02  0.00000000E+00
  2.16000000E+02  2.40000000E+02  0.00000000E+00
  2.16000000E+02  2.34000000E+02  0.00000000E+00
  2.16000000E+02  2.28000000E+02  0.00000000E+00
  2.16000000E+02  2.22000000E+02  0.00000000E+00
  2.16000000E+02  2.16000000E+02  0.00000000E+00
  2.16000000E+02  2.10000000E+02  0.00000000E+00
  2.16000000E+02  2.04000000E+02  0.00000000E+00
  2.16000000E+02  1.98000000E+02  0.00000000E+00
  2.16000000E+02  1.92000000E+02  0.00000000E+00
  2.16000000E+02  1.86000000E+02  0.00000000E+00
  2.16000000E+02  1.80000000E+02  0.00000000E+00
  2.16000000E+02  1.74000000E+02  0.00000000E+00
  2.16000000E+02  1.68000000E+02  0.00000000E+00
  2.16000000E+02  1.62000000E+02  0.00000000E+00
  2.16000000E+02  1.56000000E+02  0.00000000E+00
  2.16000000E+02  1.50000000E+02  0.00000000E+00
  2.16000000E+02  1.44000000E+02  0.00000000E+00
  2.16000000E+02  1.38000000E+02  0.00000000E+00
  2.16000000E+02  1.32000000E+02  0.00000000E+00
  2.16000000E+02  1.26000000E+02  0.00000000E+00
  2.16000000E+02  1.20000000E+02  0.00000000E+00
  2.16000000E+02  1.14000000E+02  0.00000000E+00
  2.16000000E+02  1.08000000E+02  0.00000000E+00
  2.16000000E+02  1.02000000E+02  0.00000000E+00
  2.16000000E+02  9.60000000E+01  0.00000000E+00
  2.16000000E+02  9.00000000E+01  0.00000000E+00
  2.16000000E+02  8.40000000E+01  0.00000000E+00
  2.16000000E+02  7.80000000E+01  0.00000000E+00
  2.16000000E+02  7.20000000E+01  0.00000000E+00
  2.16000000E+02  6.60000000E+01  0.00000000E+00
  2.16000000E+02  6.00000000E+01  0.00000000E+00
  2.16000000E+02  5.40000000E+01  0.00000000E+00
  2.16000000E+02  4.80000000E+01  0.00000000E+00
  2.16000000E+02  4.20000000E+01  0.00000000E+00
  2.16000000E+02  3.60000000E+01  0.00000000E+00
  2.16000000E+02  3.00000000E+01  0.00000000E+00
  2.16000000E+02  2.40000000E+01  0.00000000E+00
  2.16000000E+02  1.80000000E+01  0.00000000E+00
  2.16000000E+02  1.20000000E+01  0.00000000E+00
  2.16000000E+02  6.00000000E+00  0.00000000E+00
  2.16000000E+02 -9.99200722E-14  0.00000000E+00
  2.22000000E+02  3.00000000E+02  0.00000000E+00
  2.22000000E+02  2.94000000E+02  0.00000000E+00
  2.22000000E+02  2.88000000E+02  0.00000000E+00
  2.22000000E+02  2.82000000E+02  0.00000000E+00
  2.22000000E+02  2.76000000E+02  0.00000000E+00
  2.22000000E+02  2.70000000E+02  0.00000000E+00
  2.22000000E+02  2.64000000E+02  0.00000000E+00
  2.22000000E+02  2.58000000E+02  0.00000000E+00
  2.22000000E+02  2.52000000E+02  0.00000000E+00
  2.22000000E+02  2.46000000E+02  0.00000000E+00
  2.22000000E+02  2.40000000E+02  0.00000000E+00
  2.22000000E+02  2.34000000E+02  0.00000000E+00
  2.22000000E+02  2.28000000E+02  0.00000000E+00
  2.22000000E+02  2.22000000E+02  0.00000000E+00
  2.22000000E+02  2.16000000E+02  0.00000000E+00
  2.22000000E+02  2.10000000E+02  0.00000000E+00
  2.22000000E+02  2.04000000E+02  0.00000000E+00
  2.22000000E+02  1.98000000E+02  0.00000000E+00
  2.22000000E+02  1.92000000E+02  0.00000000E+00
  2.22000000E+02  1.86000000E+02  0.00000000E+00
  2.22000000E+02  1.80000000E+02  0.00000000E+00
  2.22000000E+02  1.74000000E+02  0.00000000E+00
  2.22000000E+02  1.68000000E+02  0.00000000E+00
  2.22000000E+02  1.62000000E+02  0.00000000E+00
  2.22000000E+02  1.56000000E+02  0.00000000E+00
  2.22000000E+02  1.50000000E+02  0.00000000E+00
  2.22000000E+02  1.44000000E+02  0.00000000E+00
  2.22000000E+02  1.38000000E+02  0.00000000E+00
  2.22000000E+02  1.32000000E+02  0.00000000E+00
  2.22000000E+02  1.26000000E+02  0.00000000E+00
  2.22000000E+02  1.20000000E+02  0.00000000E+00
  2.22000000E+02  1.14000000E+02  0.00000000E+00
  2.22000000E+02  1.08000000E+02  0.00000000E+00
  2.22000000E+02  1.02000000E+02  0.00000000E+00
  2.22000000E+02  9.60000000E+01  0.00000000E+00
  2.22000000E+02  9.00000000E+01  0.00000000E+00
  2.22000000E+02  8.40000000E+01  0.00000000E+00
  2.22000000E+02  7.80000000E+01  0.00000000E+00
  2.22000000E+02  7.20000000E+01  0.00000000E+00
  2.22000000E+02  6.60000000E+01  0.00000000E+00
  2.22000000E+02  6.00000000E+01  0.00000000E+00
  2.22000000E+02  5.40000000E+01  0.00000000E+00
  2.22000000E+02  4.80000000E+01  0.00000000E+00
  2.22000000E+02  4.20000000E+01  0.00000000E+00
  2.22000000E+02  3.60000000E+01  0.00000000E+00
  2.22000000E+02  3.00000000E+01  0.00000000E+00
  2.22000000E+02  2.40000000E+01  0.00000000E+00
  2.22000000E+02  1.80000000E+01  0.00000000E+00
  2.22000000E+02  1.20000000E+01  0.00000000E+00
  2.22000000E+02  6.00000000E+00  0.00000000E+00
  2.22000000E+02 -9.99200722E-14  0.00000000E+00
  2.28000000E+02  3.00000000E+02  0.00000000E+00
  2.28000000E+02  2.94000000E+02  0.00000000E+00
  2.28000000E+02  2.88000000E+02  0.00000000E+00
  2.28000000E+02  2.82000000E+02  0.00000000E+00
  2.28000000E+02  2.76000000E+02  0.00000000E+00
  2.28000000E+02  2.70000000E+02  0.00000000E+00
  2.28000000E+02  2.64000000E+02  0.00000000E+00
  2.28000000E+02  2.58000000E+02  0.00000000E+00
  2.28000000E+02  2.52000000E+02  0.00000000E+00
  2.28000000E+02  2.46000000E+02  0.00000000E+00
  2.28000000E+02  2.40000000E+02  0.00000000E+00
  2.28000000E+02  2.34000000E+02  0.00000000E+00
  2.28000000E+02  2.28000000E+02  0.00000000E+00
  2.28000000E+02  2.22000000E+02  0.00000000E+00
  2.28000000E+02  2.16000000E+02  0.00000000E+00
  2.28000000E+02  2.10000000E+02  0.00000000E+00
  2.28000000E+02  2.04000000E+02  0.00000000E+00
  2.28000000E+02  1.98000000E+02  0.00000000E+00
  2.28000000E+02  1.92000000E+02  0.00000000E+00
  2.28000000E+02  1.86000000E+02  0.00000000E+00
  2.28000000E+02  1.80000000E+02  0.00000000E+00
  2.28000000E+02  1.74000000E+02  0.00000000E+00
  2.28000000E+02  1.68000000E+02  0.00000000E+00
  2.28000000E+02  1.62000000E+02  0.00000000E+00
  2.28000000E+02  1.56000000E+02  0.00000000E+00
  2.28000000E+02  1.50000000E+02  0.00000000E+00
  2.28000000E+02  1.44000000E+02  0.00000000E+00
  2.28000000E+02  1.38000000E+02  0.00000000E+00
  2.28000000E+02  1.32000000E+02  0.00000000E+00
  2.28000000E+02  1.26000000E+02  0.00000000E+00
  2.28000000E+02  1.20000000E+02  0.00000000E+00
  2.28000000E+02  1.14000000E+02  0.00000000E+00
  2.28000000E+02  1.08000000E+02  0.00000000E+00
  2.28000000E+02  1.02000000E+02  0.00000000E+00
  2.28000000E+02  9.60000000E+01  0.00000000E+00
  2.28000000E+02  9.00000000E+01  0.00000000E+00
  2.28000000E+02  8.40000000E+01  0.00000000E+00
  2.28000000E+02  7.80000000E+01  0.00000000E+00
  2.28000000E+02  7.20000000E+01  0.00000000E+00
  2.28000000E+02  6.60000000E+01  0.00000000E+00
  2.28000000E+02  6.00000000E+01  0.00000000E+00
  2.28000000E+02  5.40000000E+01  0.00000000E+00
  2.28000000E+02  4.80000000E+01  0.00000000E+00
  2.28000000E+02  4.20000000E+01  0.00000000E+00
  2.28000000E+02  3.60000000E+01  0.00000000E+00
  2.28000000E+02  3.00000000E+01  0.00000000E+00
  2.28000000E+02  2.40000000E+01  0.00000000E+00
  2.28000000E+02  1.80000000E+01  0.00000000E+00
  2.28000000E+02  1.20000000E+01  0.00000000E+00
  2.28000000E+02  6.00000000E+00  0.00000000E+00
  2.28000000E+02 -9.99200722E-14  0.00000000E+00
  2.34000000E+02  3.00000000E+02  0.00000000E+00
  2.34000000E+02  2.94000000E+02  0.00000000E+00
  2.34000000E+02  2.88000000E+02  0.00000000E+00
  2.34000000E+02  2.82000000E+02  0.00000000E+00
  2.34000000E+02  2.76000000E+02  0.00000000E+00
  2.34000000E+02  2.70000000E+02  0.00000000E+00
  2.34000000E+02  2.64000000E+02  0.00000000E+00
  2.34000000E+02  2.58000000E+02  0.00000000E+00
  2.34000000E+02  2.52000000E+02  0.00000000E+00
  2.34000000E+02  2.46000000E+02  0.00000000E+00
  2.34000000E+02  2.40000000E+02  0.00000000E+00
  2.34000000E+02  2.34000000E+02  0.00000000E+00
  2.34000000E+02  2.28000000E+02  0.00000000E+00
  2.34000000E+02  2.22000000E+02  0.00000000E+00
  2.34000000E+02  2.16000000E+02  0.00000000E+00
  2.34000000E+02  2.10000000E+02  0.00000000E+00
  2.34000000E+02  2.04000000E+02  0.00000000E+00
  2.34000000E+02  1.98000000E+02  0.00000000E+00
  2.34000000E+02  1.92000000E+02  0.00000000E+00
  2.34000000E+02  1.86000000E+02  0.00000000E+00
  2.34000000E+02  1.80000000E+02  0.00000000E+00
  2.34000000E+02  1.74000000E+02  0.00000000E+00
  2.34000000E+02  1.68000000E+02  0.00000000E+00
  2.34000000E+02  1.62000000E+02  0.00000000E+00
  2.34000000E+02  1.56000000E+02  0.00000000E+00
  2.34000000E+02  1.50000000E+02  0.00000000E+00
  2.34000000E+02  1.44000000E+02  0.00000000E+00
  2.34000000E+02  1.38000000E+02  0.00000000E+00
  2.34000000E+02  1.32000000E+02  0.00000000E+00
  2.34000000E+02  1.26000000E+02  0.00000000E+00
  2.34000000E+02  1.20000000E+02  0.00000000E+00
  2.34000000E+02  1.14000000E+02  0.00000000E+00
  2.34000000E+02  1.08000000E+02  0.00000000E+00
  2.34000000E+02  1.02000000E+02  0.00000000E+00
  2.34000000E+02  9.60000000E+01  0.00000000E+00
  2.34000000E+02  9.00000000E+01  0.00000000E+00
  2.34000000E+02  8.40000000E+01  0.00000000E+00
  2.34000000E+02  7.80000000E+01  0.00000000E+00
  2.34000000E+02  7.20000000E+01  0.00000000E+00
  2.34000000E+02  6.60000000E+01  0.00000000E+00
  2.34000000E+02  6.00000000E+01  0.00000000E+00
  2.34000000E+02  5.40000000E+01  0.00000000E+00
  2.34000000E+02  4.80000000E+01  0.00000000E+00
  2.34000000E+02  4.20000000E+01  0.00000000E+00
  2.34000000E+02  3.60000000E+01  0.00000000E+00
  2.34000000E+02  3.00000000E+01  0.00000000E+00
  2.34000000E+02  2.40000000E+01  0.00000000E+00
  2.34000000E+02  1.80000000E+01  0.00000000E+00
  2.34000000E+02  1.20000000E+01  0.00000000E+00
  2.34000000E+02  6.00000000E+00  0.00000000E+00
  2.34000000E+02 -9.99200722E-14  0.00000000E+00
  2.40000000E+02  3.00000000E+02  0.00000000E+00
  2.40000000E+02  2.94000000E+02  0.00000000E+00
  2.40000000E+02  2.88000000E+02  0.00000000E+00
  2.40000000E+02  2.82000000E+02  0.00000000E+00
  2.40000000E+02  2.76000000E+02  0.00000000E+00
  2.40000000E+02  2.70000000E+02  0.00000000E+00
  2.40000000E+02  2.64000000E+02  0.00000000E+00
  2.40000000E+02  2.58000000E+02  0.00000000E+00
  2.40000000E+02  2.52000000E+02  0.00000000E+00
  2.40000000E+02  2.46000000E+02  0.00000000E+00
  2.40000000E+02  2.40000000E+02  0.00000000E+00
  2.40000000E+02  2.34000000E+02  0.00000000E+00
  2.40000000E+02  2.28000000E+02  0.00000000E+00
  2.40000000E+02  2.22000000E+02  0.00000000E+00
  2.40000000E+02  2.16000000E+02  0.00000000E+00
  2.40000000E+02  2.10000000E+02  0.00000000E+00
  2.40000000E+02  2.04000000E+02  0.00000000E+00
  2.40000000E+02  1.98000000E+02  0.00000000E+00
  2.40000000E+02  1.92000000E+02  0.00000000E+00
  2.40000000E+02  1.86000000E+02  0.00000000E+00
  2.40000000E+02  1.80000000E+02  0.00000000E+00
  2.40000000E+02  1.74000000E+02  0.00000000E+00
  2.40000000E+02  1.68000000E+02  0.00000000E+00
  2.40000000E+02  1.62000000E+02  0.00000000E+00
  2.40000000E+02  1.56000000E+02  0.00000000E+00
  2.40000000E+02  1.50000000E+02  0.00000000E+00
  2.40000000E+02  1.44000000E+02  0.00000000E+00
  2.40000000E+02  1.38000000E+02  0.00000000E+00
  2.40000000E+02  1.32000000E+02  0.00000000E+00
  2.40000000E+02  1.26000000E+02  0.00000000E+00
  2.40000000E+02  1.20000000E+02  0.00000000E+00
  2.40000000E+02  1.14000000E+02  0.00000000E+00
  2.40000000E+02  1.08000000E+02  0.00000000E+00
  2.40000000E+02  1.02000000E+02  0.00000000E+00
  2.40000000E+02  9.60000000E+01  0.00000000E+00
  2.40000000E+02  9.00000000E+01  0.00000000E+00
  2.40000000E+02  8.40000000E+01  0.00000000E+00
  2.40000000E+02  7.80000000E+01  0.00000000E+00
  2.40000000E+02  7.20000000E+01  0.00000000E+00
  2.40000000E+02  6.60000000E+01  0.00000000E+00
  2.40000000E+02  6.00000000E+01  0.00000000E+00
  2.40000000E+02  5.40000000E+01  0.00000000E+00
  2.40000000E+02  4.80000000E+01  0.00000000E+00
  2.40000000E+02  4.20000000E+01  0.00000000E+00
  2.40000000E+02  3.60000000E+01  0.00000000E+00
  2.40000000E+02  3.00000000E+01  0.00000000E+00
  2.40000000E+02  2.40000000E+01  0.00000000E+00
  2.40000000E+02  1.80000000E+01  0.00000000E+00
  2.40000000E+02  1.20000000E+01  0.00000000E+00
  2.40000000E+02  6.00000000E+00  0.00000000E+00
  2.40000000E+02 -9.99200722E-14  0.00000000E+00
  2.46000000E+02  3.00000000E+02  0.00000000E+00
  2.46000000E+02  2.94000000E+02  0.00000000E+00
  2.46000000E+02  2.88000000E+02  0.00000000E+00
  2.46000000E+02  2.82000000E+02  0.00000000E+00
  2.46000000E+02  2.76000000E+02  0.00000000E+00
  2.46000000E+02  2.70000000E+02  0.00000000E+00
  2.46000000E+02  2.64000000E+02  0.00000000E+00
  2.46000000E+02  2.58000000E+02  0.00000000E+00
  2.46000000E+02  2.52000000E+02  0.00000000E+00
  2.46000000E+02  2.46000000E+02  0.00000000E+00
  2.46000000E+02  2.40000000E+02  0.00000000E+00
  2.46000000E+02  2.34000000E+02  0.00000000E+00
  2.46000000E+02  2.28000000E+02  0.00000000E+00
  2.46000000E+02  2.22000000E+02  0.00000000E+00
  2.46000000E+02  2.16000000E+02  0.00000000E+00
  2.46000000E+02  2.10000000E+02  0.00000000E+00
  2.46000000E+02  2.04000000E+02  0.00000000E+00
  2.46000000E+02  1.98000000E+02  0.00000000E+00
  2.46000000E+02  1.92000000E+02  0.00000000E+00
  2.46000000E+02  1.86000000E+02  0.00000000E+00
  2.46000000E+02  1.80000000E+02  0.00000000E+00
  2.46000000E+02  1.74000000E+02  0.00000000E+00
  2.46000000E+02  1.68000000E+02  0.00000000E+00
  2.46000000E+02  1.62000000E+02  0.00000000E+00
  2.46000000E+02  1.56000000E+02  0.00000000E+00
  2.46000000E+02  1.50000000E+02  0.00000000E+00
  2.46000000E+02  1.44000000E+02  0.00000000E+00
  2.46000000E+02  1.38000000E+02  0.00000000E+00
  2.46000000E+02  1.32000000E+02  0.00000000E+00
  2.46000000E+02  1.26000000E+02  0.00000000E+00
  2.46000000E+02  1.20000000E+02  0.00000000E+00
  2.46000000E+02  1.14000000E+02  0.00000000E+00
  2.46000000E+02  1.08000000E+02  0.00000000E+00
  2.46000000E+02  1.02000000E+02  0.00000000E+00
  2.46000000E+02  9.60000000E+01  0.00000000E+00
  2.46000000E+02  9.00000000E+01  0.00000000E+00
  2.46000000E+02  8.40000000E+01  0.00000000E+00
  2.46000000E+02  7.80000000E+01  0.00000000E+00
  2.46000000E+02  7.20000000E+01  0.00000000E+00
  2.46000000E+02  6.60000000E+01  0.00000000E+00
  2.46000000E+02  6.00000000E+01  0.00000000E+00
  2.46000000E+02  5.40000000E+01  0.00000000E+00
  2.46000000E+02  4.80000000E+01  0.00000000E+00
  2.46000000E+02  4.20000000E+01  0.00000000E+00
  2.46000000E+02  3.60000000E+01  0.00000000E+00
  2.46000000E+02  3.00000000E+01  0.00000000E+00
  2.46000000E+02  2.40000000E+01  0.00000000E+00
  2.46000000E+02  1.80000000E+01  0.00000000E+00
  2.46000000E+02  1.20000000E+01  0.00000000E+00
  2.46000000E+02  6.00000000E+00  0.00000000E+00
  2.46000000E+02 -9.99200722E-14  0.00000000E+00
  2.52000000E+02  3.00000000E+02  0.00000000E+00
  2.52000000E+02  2.94000000E+02  0.00000000E+00
  2.52000000E+02  2.88000000E+02  0.00000000E+00
  2.52000000E+02  2.82000000E+02  0.00000000E+00
  2.52000000E+02  2.76000000E+02  0.00000000E+00
  2.52000000E+02  2.70000000E+02  0.00000000E+00
  2.52000000E+02  2.64000000E+02  0.00000000E+00
  2.52000000E+02  2.58000000E+02  0.00000000E+00
  2.52000000E+02  2.52000000E+02  0.00000000E+00
  2.52000000E+02  2.46000000E+02  0.00000000E+00
  2.52000000E+02  2.40000000E+02  0.00000000E+00
  2.52000000E+02  2.34000000E+02  0.00000000E+00
  2.52000000E+02  2.28000000E+02  0.00000000E+00
  2.52000000E+02  2.22000000E+02  0.00000000E+00
  2.52000000E+02  2.16000000E+02  0.00000000E+00
  2.52000000E+02  2.10000000E+02  0.00000000E+00
  2.52000000E+02  2.04000000E+02  0.00000000E+00
  2.52000000E+02  1.98000000E+02  0.00000000E+00
  2.52000000E+02  1.92000000E+02  0.00000000E+00
  2.52000000E+02  1.86000000E+02  0.00000000E+00
  2.52000000E+02  1.80000000E+02  0.00000000E+00
  2.52000000E+02  1.74000000E+02  0.00000000E+00
  2.52000000E+02  1.68000000E+02  0.00000000E+00
  2.52000000E+02  1.62000000E+02  0.00000000E+00
  2.52000000E+02  1.56000000E+02  0.00000000E+00
  2.52000000E+02  1.50000000E+02  0.00000000E+00
  2.52000000E+02  1.44000000E+02  0.00000000E+00
  2.52000000E+02  1.38000000E+02  0.00000000E+00
  2.52000000E+02  1.32000000E+02  0.00000000E+00
  2.52000000E+02  1.26000000E+02  0.00000000E+00
  2.52000000E+02  1.20000000E+02  0.00000000E+00
  2.52000000E+02  1.14000000E+02  0.00000000E+00
  2.52000000E+02  1.08000000E+02  0.00000000E+00
  2.52000000E+02  1.02000000E+02  0.00000000E+00
  2.52000000E+02  9.60000000E+01  0.00000000E+00
  2.52000000E+02  9.00000000E+01  0.00000000E+00
  2.52000000E+02  8.40000000E+01  0.00000000E+00
  2.52000000E+02  7.80000000E+01  0.00000000E+00
  2.52000000E+02  7.20000000E+01  0.00000000E+00
  2.52000000E+02  6.60000000E+01  0.00000000E+00
  2.52000000E+02  6.00000000E+01  0.00000000E+00
  2.52000000E+02  5.40000000E+01  0.00000000E+00
  2.52000000E+02  4.80000000E+01  0.00000000E+00
  2.52000000E+02  4.20000000E+01  0.00000000E+00
  2.52000000E+02  3.60000000E+01  0.00000000E+00
  2.52000000E+02  3.00000000E+01  0.00000000E+00
  2.52000000E+02  2.40000000E+01  0.00000000E+00
  2.52000000E+02  1.80000000E+01  0.00000000E+00
  2.52000000E+02  1.20000000E+01  0.00000000E+00
  2.52000000E+02  6.00000000E+00  0.00000000E+00
  2.52000000E+02 -9.99200722E-14  0.00000000E+00
  2.58000000E+02  3.00000000E+02  0.00000000E+00
  2.58000000E+02  2.94000000E+02  0.00000000E+00
  2.58000000E+02  2.88000000E+02  0.00000000E+00
  2.58000000E+02  2.82000000E+02  0.00000000E+00
  2.58000000E+02  2.76000000E+02  0.00000000E+00
  2.58000000E+02  2.70000000E+02  0.00000000E+00
  2.58000000E+02  2.64000000E+02  0.00000000E+00
  2.58000000E+02  2.58000000E+02  0.00000000E+00
  2.58000000E+02  2.52000000E+02  0.00000000E+00
  2.58000000E+02  2.46000000E+02  0.00000000E+00
  2.58000000E+02  2.40000000E+02  0.00000000E+00
  2.58000000E+02  2.34000000E+02  0.00000000E+00
  2.58000000E+02  2.28000000E+02  0.00000000E+00
  2.58000000E+02  2.22000000E+02  0.00000000E+00
  2.58000000E+02  2.16000000E+02  0.00000000E+00
  2.58000000E+02  2.10000000E+02  0.00000000E+00
  2.58000000E+02  2.04000000E+02  0.00000000E+00
  2.58000000E+02  1.98000000E+02  0.00000000E+00
  2.58000000E+02  1.92000000E+02  0.00000000E+00
  2.58000000E+02  1.86000000E+02  0.00000000E+00
  2.58000000E+02  1.80000000E+02  0.00000000E+00
  2.58000000E+02  1.74000000E+02  0.00000000E+00
  2.58000000E+02  1.68000000E+02  0.00000000E+00
  2.58000000E+02  1.62000000E+02  0.00000000E+00
  2.58000000E+02  1.56000000E+02  0.00000000E+00
  2.58000000E+02  1.50000000E+02  0.00000000E+00
  2.58000000E+02  1.44000000E+02  0.00000000E+00
  2.58000000E+02  1.38000000E+02  0.00000000E+00
  2.58000000E+02  1.32000000E+02  0.00000000E+00
  2.58000000E+02  1.26000000E+02  0.00000000E+00
  2.58000000E+02  1.20000000E+02  0.00000000E+00
  2.58000000E+02  1.14000000E+02  0.00000000E+00
  2.58000000E+02  1.08000000E+02  0.00000000E+00
  2.58000000E+02  1.02000000E+02  0.00000000E+00
  2.58000000E+02  9.60000000E+01  0.00000000E+00
  2.58000000E+02  9.00000000E+01  0.00000000E+00
  2.58000000E+02  8.40000000E+01  0.00000000E+00
  2.58000000E+02  7.80000000E+01  0.00000000E+00
  2.58000000E+02  7.20000000E+01  0.00000000E+00
  2.58000000E+02  6.60000000E+01  0.00000000E+00
  2.58000000E+02  6.00000000E+01  0.00000000E+00
  2.58000000E+02  5.40000000E+01  0.00000000E+00
  2.58000000E+02  4.80000000E+01  0.00000000E+00
  2.58000000E+02  4.20000000E+01  0.00000000E+00
  2.58000000E+02  3.60000000E+01  0.00000000E+00
  2.58000000E+02  3.00000000E+01  0.00000000E+00
  2.58000000E+02  2.40000000E+01  0.00000000E+00
  2.58000000E+02  1.80000000E+01  0.00000000E+00
  2.58000000E+02  1.20000000E+01  0.00000000E+00
  2.58000000E+02  6.00000000E+00  0.00000000E+00
  2.58000000E+02 -9.99200722E-14  0.00000000E+00
  2.64000000E+02  3.00000000E+02  0.00000000E+00
  2.64000000E+02  2.94000000E+02  0.00000000E+00
  2.64000000E+02  2.88000000E+02  0.00000000E+00
  2.64000000E+02  2.82000000E+02  0.00000000E+00
  2.64000000E+02  2.76000000E+02  0.00000000E+00
  2.64000000E+02  2.70000000E+02  0.00000000E+00
  2.64000000E+02  2.64000000E+02  0.00000000E+00
  2.64000000E+02  2.58000000E+02  0.00000000E+00
  2.64000000E+02  2.52000000E+02  0.00000000E+00
  2.64000000E+02  2.46000000E+02  0.00000000E+00
  2.64000000E+02  2.40000000E+02  0.00000000E+00
  2.64000000E+02  2.34000000E+02  0.00000000E+00
  2.64000000E+02  2.28000000E+02  0.00000000E+00
  2.64000000E+02  2.22000000E+02  0.00000000E+00
  2.64000000E+02  2.16000000E+02  0.00000000E+00
  2.64000000E+02  2.10000000E+02  0.00000000E+00
  2.64000000E+02  2.04000000E+02  0.00000000E+00
  2.64000000E+02  1.98000000E+02  0.00000000E+00
  2.64000000E+02  1.92000000E+02  0.00000000E+00
  2.64000000E+02  1.86000000E+02  0.00000000E+00
  2.64000000E+02  1.80000000E+02  0.00000000E+00
  2.64000000E+02  1.74000000E+02  0.00000000E+00
  2.64000000E+02  1.68000000E+02  0.00000000E+00
  2.64000000E+02  1.62000000E+02  0.00000000E+00
  2.64000000E+02  1.56000000E+02  0.00000000E+00
  2.64000000E+02  1.50000000E+02  0.00000000E+00
  2.64000000E+02  1.44000000E+02  0.00000000E+00
  2.64000000E+02  1.38000000E+02  0.00000000E+00
  2.64000000E+02  1.32000000E+02  0.00000000E+00
  2.64000000E+02  1.26000000E+02  0.00000000E+00
  2.64000000E+02  1.20000000E+02  0.00000000E+00
  2.64000000E+02  1.14000000E+02  0.00000000E+00
  2.64000000E+02  1.08000000E+02  0.00000000E+00
  2.64000000E+02  1.02000000E+02  0.00000000E+00
  2.64000000E+02  9.60000000E+01  0.00000000E+00
  2.64000000E+02  9.00000000E+01  0.00000000E+00
  2.64000000E+02  8.40000000E+01  0.00000000E+00
  2.64000000E+02  7.80000000E+01  0.00000000E+00
  2.64000000E+02  7.20000000E+01  0.00000000E+00
  2.64000000E+02  6.60000000E+01  0.00000000E+00
  2.64000000E+02  6.00000000E+01  0.00000000E+00
  2.64000000E+02  5.40000000E+01  0.00000000E+00
  2.64000000E+02  4.80000000E+01  0.00000000E+00
  2.64000000E+02  4.20000000E+01  0.00000000E+00
  2.64000000E+02  3.60000000E+01  0.00000000E+00
  2.64000000E+02  3.00000000E+01  0.00000000E+00
  2.64000000E+02  2.40000000E+01  0.00000000E+00
  2.64000000E+02  1.80000000E+01  0.00000000E+00
  2.64000000E+02  1.20000000E+01  0.00000000E+00
  2.64000000E+02  6.00000000E+00  0.00000000E+00
  2.64000000E+02 -9.99200722E-14  0.00000000E+00
  2.70000000E+02  3.00000000E+02  0.00000000E+00
  2.70000000E+02  2.94000000E+02  0.00000000E+00
  2.70000000E+02  2.88000000E+02  0.00000000E+00
  2.70000000E+02  2.82000000E+02  0.00000000E+00
  2.70000000E+02  2.76000000E+02  0.00000000E+00
  2.70000000E+02  2.70000000E+02  0.00000000E+00
  2.70000000E+02  2.64000000E+02  0.00000000E+00
  2.70000000E+02  2.58000000E+02  0.00000000E+00
  2.70000000E+02  2.52000000E+02  0.00000000E+00
  2.70000000E+02  2.46000000E+02  0.00000000E+00
  2.70000000E+02  2.40000000E+02  0.00000000E+00
  2.70000000E+02  2.34000000E+02  0.00000000E+00
  2.70000000E+02  2.28000000E+02  0.00000000E+00
  2.70000000E+02  2.22000000E+02  0.00000000E+00
  2.70000000E+02  2.16000000E+02  0.00000000E+00
  2.70000000E+02  2.10000000E+02  0.00000000E+00
  2.70000000E+02  2.04000000E+02  0.00000000E+00
  2.70000000E+02  1.98000000E+02  0.00000000E+00
  2.70000000E+02  1.92000000E+02  0.00000000E+00
  2.70000000E+02  1.86000000E+02  0.00000000E+00
  2.70000000E+02  1.80000000E+02  0.00000000E+00
  2.70000000E+02  1.74000000E+02  0.00000000E+00
  2.70000000E+02  1.68000000E+02  0.00000000E+00
  2.70000000E+02  1.62000000E+02  0.00000000E+00
  2.70000000E+02  1.56000000E+02  0.00000000E+00
  2.70000000E+02  1.50000000E+02  0.00000000E+00
  2.70000000E+02  1.44000000E+02  0.00000000E+00
  2.70000000E+02  1.38000000E+02  0.00000000E+00
  2.70000000E+02  1.32000000E+02  0.00000000E+00
  2.70000000E+02  1.26000000E+02  0.00000000E+00
  2.70000000E+02  1.20000000E+02  0.00000000E+00
  2.70000000E+02  1.14000000E+02  0.00000000E+00
  2.70000000E+02  1.08000000E+02  0.00000000E+00
  2.70000000E+02  1.02000000E+02  0.00000000E+00
  2.70000000E+02  9.60000000E+01  0.00000000E+00
  2.70000000E+02  9.00000000E+01  0.00000000E+00
  2.70000000E+02  8.40000000E+01  0.00000000E+00
  2.70000000E+02  7.80000000E+01  0.00000000E+00
  2.70000000E+02  7.20000000E+01  0.00000000E+00
  2.70000000E+02  6.60000000E+01  0.00000000E+00
  2.70000000E+02  6.00000000E+01  0.00000000E+00
  2.70000000E+02  5.40000000E+01  0.00000000E+00
  2.70000000E+02  4.80000000E+01  0.00000000E+00
  2.70000000E+02  4.20000000E+01  0.00000000E+00
  2.70000000E+02  3.60000000E+01  0.00000000E+00
  2.70000000E+02  3.00000000E+01  0.00000000E+00
  2.70000000E+02  2.40000000E+01  0.00000000E+00
  2.70000000E+02  1.80000000E+01  0.00000000E+00
  2.70000000E+02  1.20000000E+01  0.00000000E+00
  2.70000000E+02  6.00000000E+00  0.00000000E+00
  2.70000000E+02 -9.99200722E-14  0.00000000E+00
  2.76000000E+02  3.00000000E+02  0.00000000E+00
  2.76000000E+02  2.94000000E+02  0.00000000E+00
  2.76000000E+02  2.88000000E+02  0.00000000E+00
  2.76000000E+02  2.82000000E+02  0.00000000E+00
  2.76000000E+02  2.76000000E+02  0.00000000E+00
  2.76000000E+02  2.70000000E+02  0.00000000E+00
  2.76000000E+02  2.64000000E+02  0.00000000E+00
  2.76000000E+02  2.58000000E+02  0.00000000E+00
  2.76000000E+02  2.52000000E+02  0.00000000E+00
  2.76000000E+02  2.46000000E+02  0.00000000E+00
  2.76000000E+02  2.40000000E+02  0.00000000E+00
  2.76000000E+02  2.34000000E+02  0.00000000E+00
  2.76000000E+02  2.28000000E+02  0.00000000E+00
  2.76000000E+02  2.22000000E+02  0.00000000E+00
  2.76000000E+02  2.16000000E+02  0.00000000E+00
  2.76000000E+02  2.10000000E+02  0.00000000E+00
  2.76000000E+02  2.04000000E+02  0.00000000E+00
  2.76000000E+02  1.98000000E+02  0.00000000E+00
  2.76000000E+02  1.92000000E+02  0.00000000E+00
  2.76000000E+02  1.86000000E+02  0.00000000E+00
  2.76000000E+02  1.80000000E+02  0.00000000E+00
  2.76000000E+02  1.74000000E+02  0.00000000E+00
  2.76000000E+02  1.68000000E+02  0.00000000E+00
  2.76000000E+02  1.62000000E+02  0.00000000E+00
  2.76000000E+02  1.56000000E+02  0.00000000E+00
  2.76000000E+02  1.50000000E+02  0.00000000E+00
  2.76000000E+02  1.44000000E+02  0.00000000E+00
  2.76000000E+02  1.38000000E+02  0.00000000E+00
  2.76000000E+02  1.32000000E+02  0.00000000E+00
  2.76000000E+02  1.26000000E+02  0.00000000E+00
  2.76000000E+02  1.20000000E+02  0.00000000E+00
  2.76000000E+02  1.14000000E+02  0.00000000E+00
  2.76000000E+02  1.08000000E+02  0.00000000E+00
  2.76000000E+02  1.02000000E+02  0.00000000E+00
  2.76000000E+02  9.60000000E+01  0.00000000E+00
  2.76000000E+02  9.00000000E+01  0.00000000E+00
  2.76000000E+02  8.40000000E+01  0.00000000E+00
  2.76000000E+02  7.80000000E+01  0.00000000E+00
  2.76000000E+02  7.20000000E+01  0.00000000E+00
  2.76000000E+02  6.60000000E+01  0.00000000E+00
  2.76000000E+02  6.00000000E+01  0.00000000E+00
  2.76000000E+02  5.40000000E+01  0.00000000E+00
  2.76000000E+02  4.80000000E+01  0.00000000E+00
  2.76000000E+02  4.20000000E+01  0.00000000E+00
  2.76000000E+02  3.60000000E+01  0.00000000E+00
  2.76000000E+02  3.00000000E+01  0.00000000E+00
  2.76000000E+02  2.40000000E+01  0.00000000E+00
  2.76000000E+02  1.80000000E+01  0.00000000E+00
  2.76000000E+02  1.20000000E+01  0.00000000E+00
  2.76000000E+02  6.00000000E+00  0.00000000E+00
  2.76000000E+02 -9.99200722E-14  0.00000000E+00
  2.82000000E+02  3.00000000E+02  0.00000000E+00
  2.82000000E+02  2.94000000E+02  0.00000000E+00
  2.82000000E+02  2.88000000E+02  0.00000000E+00
  2.82000000E+02  2.82000000E+02  0.00000000E+00
  2.82000000E+02  2.76000000E+02  0.00000000E+00
  2.82000000E+02  2.70000000E+02  0.00000000E+00
  2.82000000E+02  2.64000000E+02  0.00000000E+00
  2.82000000E+02  2.58000000E+02  0.00000000E+00
  2.82000000E+02  2.52000000E+02  0.00000000E+00
  2.82000000E+02  2.46000000E+02  0.00000000E+00
  2.82000000E+02  2.40000000E+02  0.00000000E+00
  2.82000000E+02  2.34000000E+02  0.00000000E+00
  2.82000000E+02  2.28000000E+02  0.00000000E+00
  2.82000000E+02  2.22000000E+02  0.00000000E+00
  2.82000000E+02  2.16000000E+02  0.00000000E+00
  2.82000000E+02  2.10000000E+02  0.00000000E+00
  2.82000000E+02  2.04000000E+02  0.00000000E+00
  2.82000000E+02  1.98000000E+02  0.00000000E+00
  2.82000000E+02  1.92000000E+02  0.00000000E+00
  2.82000000E+02  1.86000000E+02  0.00000000E+00
  2.82000000E+02  1.80000000E+02  0.00000000E+00
  2.82000000E+02  1.74000000E+02  0.00000000E+00
  2.82000000E+02  1.68000000E+02  0.00000000E+00
  2.82000000E+02  1.62000000E+02  0.00000000E+00
  2.82000000E+02  1.56000000E+02  0.00000000E+00
  2.82000000E+02  1.50000000E+02  0.00000000E+00
  2.82000000E+02  1.44000000E+02  0.00000000E+00
  2.82000000E+02  1.38000000E+02  0.00000000E+00
  2.82000000E+02  1.32000000E+02  0.00000000E+00
  2.82000000E+02  1.26000000E+02  0.00000000E+00
  2.82000000E+02  1.20000000E+02  0.00000000E+00
  2.82000000E+02  1.14000000E+02  0.00000000E+00
  2.82000000E+02  1.08000000E+02  0.00000000E+00
  2.82000000E+02  1.02000000E+02  0.00000000E+00
  2.82000000E+02  9.60000000E+01  0.00000000E+00
  2.82000000E+02  9.00000000E+01  0.00000000E+00
  2.82000000E+02  8.40000000E+01  0.00000000E+00
  2.82000000E+02  7.80000000E+01  0.00000000E+00
  2.82000000E+02  7.20000000E+01  0.00000000E+00
  2.82000000E+02  6.60000000E+01  0.00000000E+00
  2.82000000E+02  6.00000000E+01  0.00000000E+00
  2.82000000E+02  5.40000000E+01  0.00000000E+00
  2.82000000E+02  4.80000000E+01  0.00000000E+00
  2.82000000E+02  4.20000000E+01  0.00000000E+00
  2.82000000E+02  3.60000000E+01  0.00000000E+00
  2.82000000E+02  3.00000000E+01  0.00000000E+00
  2.82000000E+02  2.40000000E+01  0.00000000E+00
  2.82000000E+02  1.80000000E+01  0.00000000E+00
  2.82000000E+02  1.20000000E+01  0.00000000E+00
  2.82000000E+02  6.00000000E+00  0.00000000E+00
  2.82000000E+02 -9.99200722E-14  0.00000000E+00
  2.88000000E+02  3.00000000E+02  0.00000000E+00
  2.88000000E+02  2.94000000E+02  0.00000000E+00
  2.88000000E+02  2.88000000E+02  0.00000000E+00
  2.88000000E+02  2.82000000E+02  0.00000000E+00
  2.88000000E+02  2.76000000E+02  0.00000000E+00
  2.88000000E+02  2.70000000E+02  0.00000000E+00
  2.88000000E+02  2.64000000E+02  0.00000000E+00
  2.88000000E+02  2.58000000E+02  0.00000000E+00
  2.88000000E+02  2.52000000E+02  0.00000000E+00
  2.88000000E+02  2.46000000E+02  0.00000000E+00
  2.88000000E+02  2.40000000E+02  0.00000000E+00
  2.88000000E+02  2.34000000E+02  0.00000000E+00
  2.88000000E+02  2.28000000E+02  0.00000000E+00
  2.88000000E+02  2.22000000E+02  0.00000000E+00
  2.88000000E+02  2.16000000E+02  0.00000000E+00
  2.88000000E+02  2.10000000E+02  0.00000000E+00
  2.88000000E+02  2.04000000E+02  0.00000000E+00
  2.88000000E+02  1.98000000E+02  0.00000000E+00
  2.88000000E+02  1.92000000E+02  0.00000000E+00
  2.88000000E+02  1.86000000E+02  0.00000000E+00
  2.88000000E+02  1.80000000E+02  0.00000000E+00
  2.88000000E+02  1.74000000E+02  0.00000000E+00
  2.88000000E+02  1.68000000E+02  0.00000000E+00
  2.88000000E+02  1.62000000E+02  0.00000000E+00
  2.88000000E+02  1.56000000E+02  0.00000000E+00
  2.88000000E+02  1.50000000E+02  0.00000000E+00
  2.88000000E+02  1.44000000E+02  0.00000000E+00
  2.88000000E+02  1.38000000E+02  0.00000000E+00
  2.88000000E+02  1.32000000E+02  0.00000000E+00
  2.88000000E+02  1.26000000E+02  0.00000000E+00
  2.88000000E+02  1.20000000E+02  0.00000000E+00
  2.88000000E+02  1.14000000E+02  0.00000000E+00
  2.88000000E+02  1.08000000E+02  0.00000000E+00
  2.88000000E+02  1.02000000E+02  0.00000000E+00
  2.88000000E+02  9.60000000E+01  0.00000000E+00
  2.88000000E+02  9.00000000E+01  0.00000000E+00
  2.88000000E+02  8.40000000E+01  0.00000000E+00
  2.88000000E+02  7.80000000E+01  0.00000000E+00
  2.88000000E+02  7.20000000E+01  0.00000000E+00
  2.88000000E+02  6.60000000E+01  0.00000000E+00
  2.88000000E+02  6.00000000E+01  0.00000000E+00
  2.88000000E+02  5.40000000E+01  0.00000000E+00
  2.88000000E+02  4.80000000E+01  0.00000000E+00
  2.88000000E+02  4.20000000E+01  0.00000000E+00
  2.88000000E+02  3.60000000E+01  0.00000000E+00
  2.88000000E+02  3.00000000E+01  0.00000000E+00
  2.88000000E+02  2.40000000E+01  0.00000000E+00
  2.88000000E+02  1.80000000E+01  0.00000000E+00
  2.88000000E+02  1.20000000E+01  0.00000000E+00
  2.88000000E+02  6.00000000E+00  0.00000000E+00
  2.88000000E+02 -9.99200722E-14  0.00000000E+00
  2.94000000E+02  3.00000000E+02  0.00000000E+00
  2.94000000E+02  2.94000000E+02  0.00000000E+00
  2.94000000E+02  2.88000000E+02  0.00000000E+00
  2.94000000E+02  2.82000000E+02  0.00000000E+00
  2.94000000E+02  2.76000000E+02  0.00000000E+00
  2.94000000E+02  2.70000000E+02  0.00000000E+00
  2.94000000E+02  2.64000000E+02  0.00000000E+00
  2.94000000E+02  2.58000000E+02  0.00000000E+00
  2.94000000E+02  2.52000000E+02  0.00000000E+00
  2.94000000E+02  2.46000000E+02  0.00000000E+00
  2.94000000E+02  2.40000000E+02  0.00000000E+00
  2.94000000E+02  2.34000000E+02  0.00000000E+00
  2.94000000E+02  2.28000000E+02  0.00000000E+00
  2.94000000E+02  2.22000000E+02  0.00000000E+00
  2.94000000E+02  2.16000000E+02  0.00000000E+00
  2.94000000E+02  2.10000000E+02  0.00000000E+00
  2.94000000E+02  2.04000000E+02  0.00000000E+00
  2.94000000E+02  1.98000000E+02  0.00000000E+00
  2.94000000E+02  1.92000000E+02  0.00000000E+00
  2.94000000E+02  1.86000000E+02  0.00000000E+00
  2.94000000E+02  1.80000000E+02  0.00000000E+00
  2.94000000E+02  1.74000000E+02  0.00000000E+00
  2.94000000E+02  1.68000000E+02  0.00000000E+00
  2.94000000E+02  1.62000000E+02  0.00000000E+00
  2.94000000E+02  1.56000000E+02  0.00000000E+00
  2.94000000E+02  1.50000000E+02  0.00000000E+00
  2.94000000E+02  1.44000000E+02  0.00000000E+00
  2.94000000E+02  1.38000000E+02  0.00000000E+00
  2.94000000E+02  1.32000000E+02  0.00000000E+00
  2.94000000E+02  1.26000000E+02  0.00000000E+00
  2.94000000E+02  1.20000000E+02  0.00000000E+00
  2.94000000E+02  1.14000000E+02  0.00000000E+00
  2.94000000E+02  1.08000000E+02  0.00000000E+00
  2.94000000E+02  1.02000000E+02  0.00000000E+00
  2.94000000E+02  9.60000000E+01  0.00000000E+00
  2.94000000E+02  9.00000000E+01  0.00000000E+00
  2.94000000E+02  8.40000000E+01  0.00000000E+00
  2.94000000E+02  7.80000000E+01  0.00000000E+00
  2.94000000E+02  7.20000000E+01  0.00000000E+00
  2.94000000E+02  6.60000000E+01  0.00000000E+00
  2.94000000E+02  6.00000000E+01  0.00000000E+00
  2.94000000E+02  5.40000000E+01  0.00000000E+00
  2.94000000E+02  4.80000000E+01  0.00000000E+00
  2.94000000E+02  4.20000000E+01  0.00000000E+00
  2.94000000E+02  3.60000000E+01  0.00000000E+00
  2.94000000E+02  3.00000000E+01  0.00000000E+00
  2.94000000E+02  2.40000000E+01  0.00000000E+00
  2.94000000E+02  1.80000000E+01  0.00000000E+00
  2.94000000E+02  1.20000000E+01  0.00000000E+00
  2.94000000E+02  6.00000000E+00  0.00000000E+00
  2.94000000E+02 -9.99200722E-14  0.00000000E+00
  3.00000000E+02  3.00000000E+02  0.00000000E+00
  3.00000000E+02  2.94000000E+02  0.00000000E+00
  3.00000000E+02  2.88000000E+02  0.00000000E+00
  3.00000000E+02  2.82000000E+02  0.00000000E+00
  3.00000000E+02  2.76000000E+02  0.00000000E+00
  3.00000000E+02  2.70000000E+02  0.00000000E+00
  3.00000000E+02  2.64000000E+02  0.00000000E+00
  3.00000000E+02  2.58000000E+02  0.00000000E+00
  3.00000000E+02  2.52000000E+02  0.00000000E+00
  3.00000000E+02  2.46000000E+02  0.00000000E+00
  3.00000000E+02  2.40000000E+02  0.00000000E+00
  3.00000000E+02  2.34000000E+02  0.00000000E+00
  3.00000000E+02  2.28000000E+02  0.00000000E+00
  3.00000000E+02  2.22000000E+02  0.00000000E+00
  3.00000000E+02  2.16000000E+02  0.00000000E+00
  3.00000000E+02  2.10000000E+02  0.00000000E+00
  3.00000000E+02  2.04000000E+02  0.00000000E+00
  3.00000000E+02  1.98000000E+02  0.00000000E+00
  3.00000000E+02  1.92000000E+02  0.00000000E+00
  3.00000000E+02  1.86000000E+02  0.00000000E+00
  3.00000000E+02  1.80000000E+02  0.00000000E+00
  3.00000000E+02  1.74000000E+02  0.00000000E+00
  3.00000000E+02  1.68000000E+02  0.00000000E+00
  3.00000000E+02  1.62000000E+02  0.00000000E+00
  3.00000000E+02  1.56000000E+02  0.00000000E+00
  3.00000000E+02  1.50000000E+02  0.00000000E+00
  3.00000000E+02  1.44000000E+02  0.00000000E+00
  3.00000000E+02  1.38000000E+02  0.00000000E+00
  3.00000000E+02  1.32000000E+02  0.00000000E+00
  3.00000000E+02  1.26000000E+02  0.00000000E+00
  3.00000000E+02  1.20000000E+02  0.00000000E+00
  3.00000000E+02  1.14000000E+02  0.00000000E+00
  3.00000000E+02  1.08000000E+02  0.00000000E+00
  3.00000000E+02  1.02000000E+02  0.00000000E+00
  3.00000000E+02  9.60000000E+01  0.00000000E+00
  3.00000000E+02  9.00000000E+01  0.00000000E+00
  3.00000000E+02  8.40000000E+01  0.00000000E+00
  3.00000000E+02  7.80000000E+01  0.00000000E+00
  3.00000000E+02  7.20000000E+01  0.00000000E+00
  3.00000000E+02  6.60000000E+01  0.00000000E+00
  3.00000000E+02  6.00000000E+01  0.00000000E+00
  3.00000000E+02  5.40000000E+01  0.00000000E+00
  3.00000000E+02  4.80000000E+01  0.00000000E+00
  3.00000000E+02  4.20000000E+01  0.00000000E+00
  3.00000000E+02  3.60000000E+01  0.00000000E+00
  3.00000000E+02  3.00000000E+01  0.00000000E+00
  3.00000000E+02  2.40000000E+01  0.00000000E+00
  3.00000000E+02  1.80000000E+01  0.00000000E+00
  3.00000000E+02  1.20000000E+01  0.00000000E+00
  3.00000000E+02  6.00000000E+00  0.00000000E+00
  3.00000000E+02 -9.99200722E-14  0.00000000E+00
  3.06000000E+02  3.00000000E+02  0.00000000E+00
  3.06000000E+02  2.94000000E+02  0.00000000E+00
  3.06000000E+02  2.88000000E+02  0.00000000E+00
  3.06000000E+02  2.82000000E+02  0.00000000E+00
  3.06000000E+02  2.76000000E+02  0.00000000E+00
  3.06000000E+02  2.70000000E+02  0.00000000E+00
  3.06000000E+02  2.64000000E+02  0.00000000E+00
  3.06000000E+02  2.58000000E+02  0.00000000E+00
  3.06000000E+02  2.52000000E+02  0.00000000E+00
  3.06000000E+02  2.46000000E+02  0.00000000E+00
  3.06000000E+02  2.40000000E+02  0.00000000E+00
  3.06000000E+02  2.34000000E+02  0.00000000E+00
  3.06000000E+02  2.28000000E+02  0.00000000E+00
  3.06000000E+02  2.22000000E+02  0.00000000E+00
  3.06000000E+02  2.16000000E+02  0.00000000E+00
  3.06000000E+02  2.10000000E+02  0.00000000E+00
  3.06000000E+02  2.04000000E+02  0.00000000E+00
  3.06000000E+02  1.98000000E+02  0.00000000E+00
  3.06000000E+02  1.92000000E+02  0.00000000E+00
  3.06000000E+02  1.86000000E+02  0.00000000E+00
  3.06000000E+02  1.80000000E+02  0.00000000E+00
  3.06000000E+02  1.74000000E+02  0.00000000E+00
  3.06000000E+02  1.68000000E+02  0.00000000E+00
  3.06000000E+02  1.62000000E+02  0.00000000E+00
  3.06000000E+02  1.56000000E+02  0.00000000E+00
  3.06000000E+02  1.50000000E+02  0.00000000E+00
  3.06000000E+02  1.44000000E+02  0.00000000E+00
  3.06000000E+02  1.38000000E+02  0.00000000E+00
  3.06000000E+02  1.32000000E+02  0.00000000E+00
  3.06000000E+02  1.26000000E+02  0.00000000E+00
  3.06000000E+02  1.20000000E+02  0.00000000E+00
  3.06000000E+02  1.14000000E+02  0.00000000E+00
  3.06000000E+02  1.08000000E+02  0.00000000E+00
  3.06000000E+02  1.02000000E+02  0.00000000E+00
  3.06000000E+02  9.60000000E+01  0.00000000E+00
  3.06000000E+02  9.00000000E+01  0.00000000E+00
  3.06000000E+02  8.40000000E+01  0.00000000E+00
  3.06000000E+02  7.80000000E+01  0.00000000E+00
  3.06000000E+02  7.20000000E+01  0.00000000E+00
  3.06000000E+02  6.60000000E+01  0.00000000E+00
  3.06000000E+02  6.00000000E+01  0.00000000E+00
  3.06000000E+02  5.40000000E+01  0.00000000E+00
  3.06000000E+02  4.80000000E+01  0.00000000E+00
  3.06000000E+02  4.20000000E+01  0.00000000E+00
  3.06000000E+02  3.60000000E+01  0.00000000E+00
  3.06000000E+02  3.00000000E+01  0.00000000E+00
  3.06000000E+02  2.40000000E+01  0.00000000E+00
  3.06000000E+02  1.80000000E+01  0.00000000E+00
  3.06000000E+02  1.20000000E+01  0.00000000E+00
  3.06000000E+02  6.00000000E+00  0.00000000E+00
  3.06000000E+02 -9.99200722E-14  0.00000000E+00
  3.12000000E+02  3.00000000E+02  0.00000000E+00
  3.12000000E+02  2.94000000E+02  0.00000000E+00
  3.12000000E+02  2.88000000E+02  0.00000000E+00
  3.12000000E+02  2.82000000E+02  0.00000000E+00
  3.12000000E+02  2.76000000E+02  0.00000000E+00
  3.12000000E+02  2.70000000E+02  0.00000000E+00
  3.12000000E+02  2.64000000E+02  0.00000000E+00
  3.12000000E+02  2.58000000E+02  0.00000000E+00
  3.12000000E+02  2.52000000E+02  0.00000000E+00
  3.12000000E+02  2.46000000E+02  0.00000000E+00
  3.12000000E+02  2.40000000E+02  0.00000000E+00
  3.12000000E+02  2.34000000E+02  0.00000000E+00
  3.12000000E+02  2.28000000E+02  0.00000000E+00
  3.12000000E+02  2.22000000E+02  0.00000000E+00
  3.12000000E+02  2.16000000E+02  0.00000000E+00
  3.12000000E+02  2.10000000E+02  0.00000000E+00
  3.12000000E+02  2.04000000E+02  0.00000000E+00
  3.12000000E+02  1.98000000E+02  0.00000000E+00
  3.12000000E+02  1.92000000E+02  0.00000000E+00
  3.12000000E+02  1.86000000E+02  0.00000000E+00
  3.12000000E+02  1.80000000E+02  0.00000000E+00
  3.12000000E+02  1.74000000E+02  0.00000000E+00
  3.12000000E+02  1.68000000E+02  0.00000000E+00
  3.12000000E+02  1.62000000E+02  0.00000000E+00
  3.12000000E+02  1.56000000E+02  0.00000000E+00
  3.12000000E+02  1.50000000E+02  0.00000000E+00
  3.12000000E+02  1.44000000E+02  0.00000000E+00
  3.12000000E+02  1.38000000E+02  0.00000000E+00
  3.12000000E+02  1.32000000E+02  0.00000000E+00
  3.12000000E+02  1.26000000E+02  0.00000000E+00
  3.12000000E+02  1.20000000E+02  0.00000000E+00
  3.12000000E+02  1.14000000E+02  0.00000000E+00
  3.12000000E+02  1.08000000E+02  0.00000000E+00
  3.12000000E+02  1.02000000E+02  0.00000000E+00
  3.12000000E+02  9.60000000E+01  0.00000000E+00
  3.12000000E+02  9.00000000E+01  0.00000000E+00
  3.12000000E+02  8.40000000E+01  0.00000000E+00
  3.12000000E+02  7.80000000E+01  0.00000000E+00
  3.12000000E+02  7.20000000E+01  0.00000000E+00
  3.12000000E+02  6.60000000E+01  0.00000000E+00
  3.12000000E+02  6.00000000E+01  0.00000000E+00
  3.12000000E+02  5.40000000E+01  0.00000000E+00
  3.12000000E+02  4.80000000E+01  0.00000000E+00
  3.12000000E+02  4.20000000E+01  0.00000000E+00
  3.12000000E+02  3.60000000E+01  0.00000000E+00
  3.12000000E+02  3.00000000E+01  0.00000000E+00
  3.12000000E+02  2.40000000E+01  0.00000000E+00
  3.12000000E+02  1.80000000E+01  0.00000000E+00
  3.12000000E+02  1.20000000E+01  0.00000000E+00
  3.12000000E+02  6.00000000E+00  0.00000000E+00
  3.12000000E+02 -9.99200722E-14  0.00000000E+00
  3.18000000E+02  3.00000000E+02  0.00000000E+00
  3.18000000E+02  2.94000000E+02  0.00000000E+00
  3.18000000E+02  2.88000000E+02  0.00000000E+00
  3.18000000E+02  2.82000000E+02  0.00000000E+00
  3.18000000E+02  2.76000000E+02  0.00000000E+00
  3.18000000E+02  2.70000000E+02  0.00000000E+00
  3.18000000E+02  2.64000000E+02  0.00000000E+00
  3.18000000E+02  2.58000000E+02  0.00000000E+00
  3.18000000E+02  2.52000000E+02  0.00000000E+00
  3.18000000E+02  2.46000000E+02  0.00000000E+00
  3.18000000E+02  2.40000000E+02  0.00000000E+00
  3.18000000E+02  2.34000000E+02  0.00000000E+00
  3.18000000E+02  2.28000000E+02  0.00000000E+00
  3.18000000E+02  2.22000000E+02  0.00000000E+00
  3.18000000E+02  2.16000000E+02  0.00000000E+00
  3.18000000E+02  2.10000000E+02  0.00000000E+00
  3.18000000E+02  2.04000000E+02  0.00000000E+00
  3.18000000E+02  1.98000000E+02  0.00000000E+00
  3.18000000E+02  1.92000000E+02  0.00000000E+00
  3.18000000E+02  1.86000000E+02  0.00000000E+00
  3.18000000E+02  1.80000000E+02  0.00000000E+00
  3.18000000E+02  1.74000000E+02  0.00000000E+00
  3.18000000E+02  1.68000000E+02  0.00000000E+00
  3.18000000E+02  1.62000000E+02  0.00000000E+00
  3.18000000E+02  1.56000000E+02  0.00000000E+00
  3.18000000E+02  1.50000000E+02  0.00000000E+00
  3.18000000E+02  1.44000000E+02  0.00000000E+00
  3.18000000E+02  1.38000000E+02  0.00000000E+00
  3.18000000E+02  1.32000000E+02  0.00000000E+00
  3.18000000E+02  1.26000000E+02  0.00000000E+00
  3.18000000E+02  1.20000000E+02  0.00000000E+00
  3.18000000E+02  1.14000000E+02  0.00000000E+00
  3.18000000E+02  1.08000000E+02  0.00000000E+00
  3.18000000E+02  1.02000000E+02  0.00000000E+00
  3.18000000E+02  9.60000000E+01  0.00000000E+00
  3.18000000E+02  9.00000000E+01  0.00000000E+00
  3.18000000E+02  8.40000000E+01  0.00000000E+00
  3.18000000E+02  7.80000000E+01  0.00000000E+00
  3.18000000E+02  7.20000000E+01  0.00000000E+00
  3.18000000E+02  6.60000000E+01  0.00000000E+00
  3.18000000E+02  6.00000000E+01  0.00000000E+00
  3.18000000E+02  5.40000000E+01  0.00000000E+00
  3.18000000E+02  4.80000000E+01  0.00000000E+00
  3.18000000E+02  4.20000000E+01  0.00000000E+00
  3.18000000E+02  3.60000000E+01  0.00000000E+00
  3.18000000E+02  3.00000000E+01  0.00000000E+00
  3.18000000E+02  2.40000000E+01  0.00000000E+00
  3.18000000E+02  1.80000000E+01  0.00000000E+00
  3.18000000E+02  1.20000000E+01  0.00000000E+00
  3.18000000E+02  6.00000000E+00  0.00000000E+00
  3.18000000E+02 -9.99200722E-14  0.00000000E+00
  3.24000000E+02  3.00000000E+02  0.00000000E+00
  3.24000000E+02  2.94000000E+02  0.00000000E+00
  3.24000000E+02  2.88000000E+02  0.00000000E+00
  3.24000000E+02  2.82000000E+02  0.00000000E+00
  3.24000000E+02  2.76000000E+02  0.00000000E+00
  3.24000000E+02  2.70000000E+02  0.00000000E+00
  3.24000000E+02  2.64000000E+02  0.00000000E+00
  3.24000000E+02  2.58000000E+02  0.00000000E+00
  3.24000000E+02  2.52000000E+02  0.00000000E+00
  3.24000000E+02  2.46000000E+02  0.00000000E+00
  3.24000000E+02  2.40000000E+02  0.00000000E+00
  3.24000000E+02  2.34000000E+02  0.00000000E+00
  3.24000000E+02  2.28000000E+02  0.00000000E+00
  3.24000000E+02  2.22000000E+02  0.00000000E+00
  3.24000000E+02  2.16000000E+02  0.00000000E+00
  3.24000000E+02  2.10000000E+02  0.00000000E+00
  3.24000000E+02  2.04000000E+02  0.00000000E+00
  3.24000000E+02  1.98000000E+02  0.00000000E+00
  3.24000000E+02  1.92000000E+02  0.00000000E+00
  3.24000000E+02  1.86000000E+02  0.00000000E+00
  3.24000000E+02  1.80000000E+02  0.00000000E+00
  3.24000000E+02  1.74000000E+02  0.00000000E+00
  3.24000000E+02  1.68000000E+02  0.00000000E+00
  3.24000000E+02  1.62000000E+02  0.00000000E+00
  3.24000000E+02  1.56000000E+02  0.00000000E+00
  3.24000000E+02  1.50000000E+02  0.00000000E+00
  3.24000000E+02  1.44000000E+02  0.00000000E+00
  3.24000000E+02  1.38000000E+02  0.00000000E+00
  3.24000000E+02  1.32000000E+02  0.00000000E+00
  3.24000000E+02  1.26000000E+02  0.00000000E+00
  3.24000000E+02  1.20000000E+02  0.00000000E+00
  3.24000000E+02  1.14000000E+02  0.00000000E+00
  3.24000000E+02  1.08000000E+02  0.00000000E+00
  3.24000000E+02  1.02000000E+02  0.00000000E+00
  3.24000000E+02  9.60000000E+01  0.00000000E+00
  3.24000000E+02  9.00000000E+01  0.00000000E+00
  3.24000000E+02  8.40000000E+01  0.00000000E+00
  3.24000000E+02  7.80000000E+01  0.00000000E+00
  3.24000000E+02  7.20000000E+01  0.00000000E+00
  3.24000000E+02  6.60000000E+01  0.00000000E+00
  3.24000000E+02  6.00000000E+01  0.00000000E+00
  3.24000000E+02  5.40000000E+01  0.00000000E+00
  3.24000000E+02  4.80000000E+01  0.00000000E+00
  3.24000000E+02  4.20000000E+01  0.00000000E+00
  3.24000000E+02  3.60000000E+01  0.00000000E+00
  3.24000000E+02  3.00000000E+01  0.00000000E+00
  3.24000000E+02  2.40000000E+01  0.00000000E+00
  3.24000000E+02  1.80000000E+01  0.00000000E+00
  3.24000000E+02  1.20000000E+01  0.00000000E+00
  3.24000000E+02  6.00000000E+00  0.00000000E+00
  3.24000000E+02 -9.99200722E-14  0.00000000E+00
  3.30000000E+02  3.00000000E+02  0.00000000E+00
  3.30000000E+02  2.94000000E+02  0.00000000E+00
  3.30000000E+02  2.88000000E+02  0.00000000E+00
  3.30000000E+02  2.82000000E+02  0.00000000E+00
  3.30000000E+02  2.76000000E+02  0.00000000E+00
  3.30000000E+02  2.70000000E+02  0.00000000E+00
  3.30000000E+02  2.64000000E+02  0.00000000E+00
  3.30000000E+02  2.58000000E+02  0.00000000E+00
  3.30000000E+02  2.52000000E+02  0.00000000E+00
  3.30000000E+02  2.46000000E+02  0.00000000E+00
  3.30000000E+02  2.40000000E+02  0.00000000E+00
  3.30000000E+02  2.34000000E+02  0.00000000E+00
  3.30000000E+02  2.28000000E+02  0.00000000E+00
  3.30000000E+02  2.22000000E+02  0.00000000E+00
  3.30000000E+02  2.16000000E+02  0.00000000E+00
  3.30000000E+02  2.10000000E+02  0.00000000E+00
  3.30000000E+02  2.04000000E+02  0.00000000E+00
  3.30000000E+02  1.98000000E+02  0.00000000E+00
  3.30000000E+02  1.92000000E+02  0.00000000E+00
  3.30000000E+02  1.86000000E+02  0.00000000E+00
  3.30000000E+02  1.80000000E+02  0.00000000E+00
  3.30000000E+02  1.74000000E+02  0.00000000E+00
  3.30000000E+02  1.68000000E+02  0.00000000E+00
  3.30000000E+02  1.62000000E+02  0.00000000E+00
  3.30000000E+02  1.56000000E+02  0.00000000E+00
  3.30000000E+02  1.50000000E+02  0.00000000E+00
  3.30000000E+02  1.44000000E+02  0.00000000E+00
  3.30000000E+02  1.38000000E+02  0.00000000E+00
  3.30000000E+02  1.32000000E+02  0.00000000E+00
  3.30000000E+02  1.26000000E+02  0.00000000E+00
  3.30000000E+02  1.20000000E+02  0.00000000E+00
  3.30000000E+02  1.14000000E+02  0.00000000E+00
  3.30000000E+02  1.08000000E+02  0.00000000E+00
  3.30000000E+02  1.02000000E+02  0.00000000E+00
  3.30000000E+02  9.60000000E+01  0.00000000E+00
  3.30000000E+02  9.00000000E+01  0.00000000E+00
  3.30000000E+02  8.40000000E+01  0.00000000E+00
  3.30000000E+02  7.80000000E+01  0.00000000E+00
  3.30000000E+02  7.20000000E+01  0.00000000E+00
  3.30000000E+02  6.60000000E+01  0.00000000E+00
  3.30000000E+02  6.00000000E+01  0.00000000E+00
  3.30000000E+02  5.40000000E+01  0.00000000E+00
  3.30000000E+02  4.80000000E+01  0.00000000E+00
  3.30000000E+02  4.20000000E+01  0.00000000E+00
  3.30000000E+02  3.60000000E+01  0.00000000E+00
  3.30000000E+02  3.00000000E+01  0.00000000E+00
  3.30000000E+02  2.40000000E+01  0.00000000E+00
  3.30000000E+02  1.80000000E+01  0.00000000E+00
  3.30000000E+02  1.20000000E+01  0.00000000E+00
  3.30000000E+02  6.00000000E+00  0.00000000E+00
  3.30000000E+02 -9.99200722E-14  0.00000000E+00
  3.36000000E+02  3.00000000E+02  0.00000000E+00
  3.36000000E+02  2.94000000E+02  0.00000000E+00
  3.36000000E+02  2.88000000E+02  0.00000000E+00
  3.36000000E+02  2.82000000E+02  0.00000000E+00
  3.36000000E+02  2.76000000E+02  0.00000000E+00
  3.36000000E+02  2.70000000E+02  0.00000000E+00
  3.36000000E+02  2.64000000E+02  0.00000000E+00
  3.36000000E+02  2.58000000E+02  0.00000000E+00
  3.36000000E+02  2.52000000E+02  0.00000000E+00
  3.36000000E+02  2.46000000E+02  0.00000000E+00
  3.36000000E+02  2.40000000E+02  0.00000000E+00
  3.36000000E+02  2.34000000E+02  0.00000000E+00
  3.36000000E+02  2.28000000E+02  0.00000000E+00
  3.36000000E+02  2.22000000E+02  0.00000000E+00
  3.36000000E+02  2.16000000E+02  0.00000000E+00
  3.36000000E+02  2.10000000E+02  0.00000000E+00
  3.36000000E+02  2.04000000E+02  0.00000000E+00
  3.36000000E+02  1.98000000E+02  0.00000000E+00
  3.36000000E+02  1.92000000E+02  0.00000000E+00
  3.36000000E+02  1.86000000E+02  0.00000000E+00
  3.36000000E+02  1.80000000E+02  0.00000000E+00
  3.36000000E+02  1.74000000E+02  0.00000000E+00
  3.36000000E+02  1.68000000E+02  0.00000000E+00
  3.36000000E+02  1.62000000E+02  0.00000000E+00
  3.36000000E+02  1.56000000E+02  0.00000000E+00
  3.36000000E+02  1.50000000E+02  0.00000000E+00
  3.36000000E+02  1.44000000E+02  0.00000000E+00
  3.36000000E+02  1.38000000E+02  0.00000000E+00
  3.36000000E+02  1.32000000E+02  0.00000000E+00
  3.36000000E+02  1.26000000E+02  0.00000000E+00
  3.36000000E+02  1.20000000E+02  0.00000000E+00
  3.36000000E+02  1.14000000E+02  0.00000000E+00
  3.36000000E+02  1.08000000E+02  0.00000000E+00
  3.36000000E+02  1.02000000E+02  0.00000000E+00
  3.36000000E+02  9.60000000E+01  0.00000000E+00
  3.36000000E+02  9.00000000E+01  0.00000000E+00
  3.36000000E+02  8.40000000E+01  0.00000000E+00
  3.36000000E+02  7.80000000E+01  0.00000000E+00
  3.36000000E+02  7.20000000E+01  0.00000000E+00
  3.36000000E+02  6.60000000E+01  0.00000000E+00
  3.36000000E+02  6.00000000E+01  0.00000000E+00
  3.36000000E+02  5.40000000E+01  0.00000000E+00
  3.36000000E+02  4.80000000E+01  0.00000000E+00
  3.36000000E+02  4.20000000E+01  0.00000000E+00
  3.36000000E+02  3.60000000E+01  0.00000000E+00
  3.36000000E+02  3.00000000E+01  0.00000000E+00
  3.36000000E+02  2.40000000E+01  0.00000000E+00
  3.36000000E+02  1.80000000E+01  0.00000000E+00
  3.36000000E+02  1.20000000E+01  0.00000000E+00
  3.36000000E+02  6.00000000E+00  0.00000000E+00
  3.36000000E+02 -9.99200722E-14  0.00000000E+00
  3.42000000E+02  3.00000000E+02  0.00000000E+00
  3.42000000E+02  2.94000000E+02  0.00000000E+00
  3.42000000E+02  2.88000000E+02  0.00000000E+00
  3.42000000E+02  2.82000000E+02  0.00000000E+00
  3.42000000E+02  2.76000000E+02  0.00000000E+00
  3.42000000E+02  2.70000000E+02  0.00000000E+00
  3.42000000E+02  2.64000000E+02  0.00000000E+00
  3.42000000E+02  2.58000000E+02  0.00000000E+00
  3.42000000E+02  2.52000000E+02  0.00000000E+00
  3.42000000E+02  2.46000000E+02  0.00000000E+00
  3.42000000E+02  2.40000000E+02  0.00000000E+00
  3.42000000E+02  2.34000000E+02  0.00000000E+00
  3.42000000E+02  2.28000000E+02  0.00000000E+00
  3.42000000E+02  2.22000000E+02  0.00000000E+00
  3.42000000E+02  2.16000000E+02  0.00000000E+00
  3.42000000E+02  2.10000000E+02  0.00000000E+00
  3.42000000E+02  2.04000000E+02  0.00000000E+00
  3.42000000E+02  1.98000000E+02  0.00000000E+00
  3.42000000E+02  1.92000000E+02  0.00000000E+00
  3.42000000E+02  1.86000000E+02  0.00000000E+00
  3.42000000E+02  1.80000000E+02  0.00000000E+00
  3.42000000E+02  1.74000000E+02  0.00000000E+00
  3.42000000E+02  1.68000000E+02  0.00000000E+00
  3.42000000E+02  1.62000000E+02  0.00000000E+00
  3.42000000E+02  1.56000000E+02  0.00000000E+00
  3.42000000E+02  1.50000000E+02  0.00000000E+00
  3.42000000E+02  1.44000000E+02  0.00000000E+00
  3.42000000E+02  1.38000000E+02  0.00000000E+00
  3.42000000E+02  1.32000000E+02  0.00000000E+00
  3.42000000E+02  1.26000000E+02  0.00000000E+00
  3.42000000E+02  1.20000000E+02  0.00000000E+00
  3.42000000E+02  1.14000000E+02  0.00000000E+00
  3.42000000E+02  1.08000000E+02  0.00000000E+00
  3.42000000E+02  1.02000000E+02  0.00000000E+00
  3.42000000E+02  9.60000000E+01  0.00000000E+00
  3.42000000E+02  9.00000000E+01  0.00000000E+00
  3.42000000E+02  8.40000000E+01  0.00000000E+00
  3.42000000E+02  7.80000000E+01  0.00000000E+00
  3.42000000E+02  7.20000000E+01  0.00000000E+00
  3.42000000E+02  6.60000000E+01  0.00000000E+00
  3.42000000E+02  6.00000000E+01  0.00000000E+00
  3.42000000E+02  5.40000000E+01  0.00000000E+00
  3.42000000E+02  4.80000000E+01  0.00000000E+00
  3.42000000E+02  4.20000000E+01  0.00000000E+00
  3.42000000E+02  3.60000000E+01  0.00000000E+00
  3.42000000E+02  3.00000000E+01  0.00000000E+00
  3.42000000E+02  2.40000000E+01  0.00000000E+00
  3.42000000E+02  1.80000000E+01  0.00000000E+00
  3.42000000E+02  1.20000000E+01  0.00000000E+00
  3.42000000E+02  6.00000000E+00  0.00000000E+00
  3.42000000E+02 -9.99200722E-14  0.00000000E+00
  3.48000000E+02  3.00000000E+02  0.00000000E+00
  3.48000000E+02  2.94000000E+02  0.00000000E+00
  3.48000000E+02  2.88000000E+02  0.00000000E+00
  3.48000000E+02  2.82000000E+02  0.00000000E+00
  3.48000000E+02  2.76000000E+02  0.00000000E+00
  3.48000000E+02  2.70000000E+02  0.00000000E+00
  3.48000000E+02  2.64000000E+02  0.00000000E+00
  3.48000000E+02  2.58000000E+02  0.00000000E+00
  3.48000000E+02  2.52000000E+02  0.00000000E+00
  3.48000000E+02  2.46000000E+02  0.00000000E+00
  3.48000000E+02  2.40000000E+02  0.00000000E+00
  3.48000000E+02  2.34000000E+02  0.00000000E+00
  3.48000000E+02  2.28000000E+02  0.00000000E+00
  3.48000000E+02  2.22000000E+02  0.00000000E+00
  3.48000000E+02  2.16000000E+02  0.00000000E+00
  3.48000000E+02  2.10000000E+02  0.00000000E+00
  3.48000000E+02  2.04000000E+02  0.00000000E+00
  3.48000000E+02  1.98000000E+02  0.00000000E+00
  3.48000000E+02  1.92000000E+02  0.00000000E+00
  3.48000000E+02  1.86000000E+02  0.00000000E+00
  3.48000000E+02  1.80000000E+02  0.00000000E+00
  3.48000000E+02  1.74000000E+02  0.00000000E+00
  3.48000000E+02  1.68000000E+02  0.00000000E+00
  3.48000000E+02  1.62000000E+02  0.00000000E+00
  3.48000000E+02  1.56000000E+02  0.00000000E+00
  3.48000000E+02  1.50000000E+02  0.00000000E+00
  3.48000000E+02  1.44000000E+02  0.00000000E+00
  3.48000000E+02  1.38000000E+02  0.00000000E+00
  3.48000000E+02  1.32000000E+02  0.00000000E+00
  3.48000000E+02  1.26000000E+02  0.00000000E+00
  3.48000000E+02  1.20000000E+02  0.00000000E+00
  3.48000000E+02  1.14000000E+02  0.00000000E+00
  3.48000000E+02  1.08000000E+02  0.00000000E+00
  3.48000000E+02  1.02000000E+02  0.00000000E+00
  3.48000000E+02  9.60000000E+01  0.00000000E+00
  3.48000000E+02  9.00000000E+01  0.00000000E+00
  3.48000000E+02  8.40000000E+01  0.00000000E+00
  3.48000000E+02  7.80000000E+01  0.00000000E+00
  3.48000000E+02  7.20000000E+01  0.00000000E+00
  3.48000000E+02  6.60000000E+01  0.00000000E+00
  3.48000000E+02  6.00000000E+01  0.00000000E+00
  3.48000000E+02  5.40000000E+01  0.00000000E+00
  3.48000000E+02  4.80000000E+01  0.00000000E+00
  3.48000000E+02  4.20000000E+01  0.00000000E+00
  3.48000000E+02  3.60000000E+01  0.00000000E+00
  3.48000000E+02  3.00000000E+01  0.00000000E+00
  3.48000000E+02  2.40000000E+01  0.00000000E+00
  3.48000000E+02  1.80000000E+01  0.00000000E+00
  3.48000000E+02  1.20000000E+01  0.00000000E+00
  3.48000000E+02  6.00000000E+00  0.00000000E+00
  3.48000000E+02 -9.99200722E-14  0.00000000E+00
  3.54000000E+02  3.00000000E+02  0.00000000E+00
  3.54000000E+02  2.94000000E+02  0.00000000E+00
  3.54000000E+02  2.88000000E+02  0.00000000E+00
  3.54000000E+02  2.82000000E+02  0.00000000E+00
  3.54000000E+02  2.76000000E+02  0.00000000E+00
  3.54000000E+02  2.70000000E+02  0.00000000E+00
  3.54000000E+02  2.64000000E+02  0.00000000E+00
  3.54000000E+02  2.58000000E+02  0.00000000E+00
  3.54000000E+02  2.52000000E+02  0.00000000E+00
  3.54000000E+02  2.46000000E+02  0.00000000E+00
  3.54000000E+02  2.40000000E+02  0.00000000E+00
  3.54000000E+02  2.34000000E+02  0.00000000E+00
  3.54000000E+02  2.28000000E+02  0.00000000E+00
  3.54000000E+02  2.22000000E+02  0.00000000E+00
  3.54000000E+02  2.16000000E+02  0.00000000E+00
  3.54000000E+02  2.10000000E+02  0.00000000E+00
  3.54000000E+02  2.04000000E+02  0.00000000E+00
  3.54000000E+02  1.98000000E+02  0.00000000E+00
  3.54000000E+02  1.92000000E+02  0.00000000E+00
  3.54000000E+02  1.86000000E+02  0.00000000E+00
  3.54000000E+02  1.80000000E+02  0.00000000E+00
  3.54000000E+02  1.74000000E+02  0.00000000E+00
  3.54000000E+02  1.68000000E+02  0.00000000E+00
  3.54000000E+02  1.62000000E+02  0.00000000E+00
  3.54000000E+02  1.56000000E+02  0.00000000E+00
  3.54000000E+02  1.50000000E+02  0.00000000E+00
  3.54000000E+02  1.44000000E+02  0.00000000E+00
  3.54000000E+02  1.38000000E+02  0.00000000E+00
  3.54000000E+02  1.32000000E+02  0.00000000E+00
  3.54000000E+02  1.26000000E+02  0.00000000E+00
  3.54000000E+02  1.20000000E+02  0.00000000E+00
  3.54000000E+02  1.14000000E+02  0.00000000E+00
  3.54000000E+02  1.08000000E+02  0.00000000E+00
  3.54000000E+02  1.02000000E+02  0.00000000E+00
  3.54000000E+02  9.60000000E+01  0.00000000E+00
  3.54000000E+02  9.00000000E+01  0.00000000E+00
  3.54000000E+02  8.40000000E+01  0.00000000E+00
  3.54000000E+02  7.80000000E+01  0.00000000E+00
  3.54000000E+02  7.20000000E+01  0.00000000E+00
  3.54000000E+02  6.60000000E+01  0.00000000E+00
  3.54000000E+02  6.00000000E+01  0.00000000E+00
  3.54000000E+02  5.40000000E+01  0.00000000E+00
  3.54000000E+02  4.80000000E+01  0.00000000E+00
  3.54000000E+02  4.20000000E+01  0.00000000E+00
  3.54000000E+02  3.60000000E+01  0.00000000E+00
  3.54000000E+02  3.00000000E+01  0.00000000E+00
  3.54000000E+02  2.40000000E+01  0.00000000E+00
  3.54000000E+02  1.80000000E+01  0.00000000E+00
  3.54000000E+02  1.20000000E+01  0.00000000E+00
  3.54000000E+02  6.00000000E+00  0.00000000E+00
  3.54000000E+02 -9.99200722E-14  0.00000000E+00
  3.60000000E+02  3.00000000E+02  0.00000000E+00
  3.60000000E+02  2.94000000E+02  0.00000000E+00
  3.60000000E+02  2.88000000E+02  0.00000000E+00
  3.60000000E+02  2.82000000E+02  0.00000000E+00
  3.60000000E+02  2.76000000E+02  0.00000000E+00
  3.60000000E+02  2.70000000E+02  0.00000000E+00
  3.60000000E+02  2.64000000E+02  0.00000000E+00
  3.60000000E+02  2.58000000E+02  0.00000000E+00
  3.60000000E+02  2.52000000E+02  0.00000000E+00
  3.60000000E+02  2.46000000E+02  0.00000000E+00
  3.60000000E+02  2.40000000E+02  0.00000000E+00
  3.60000000E+02  2.34000000E+02  0.00000000E+00
  3.60000000E+02  2.28000000E+02  0.00000000E+00
  3.60000000E+02  2.22000000E+02  0.00000000E+00
  3.60000000E+02  2.16000000E+02  0.00000000E+00
  3.60000000E+02  2.10000000E+02  0.00000000E+00
  3.60000000E+02  2.04000000E+02  0.00000000E+00
  3.60000000E+02  1.98000000E+02  0.00000000E+00
  3.60000000E+02  1.92000000E+02  0.00000000E+00
  3.60000000E+02  1.86000000E+02  0.00000000E+00
  3.60000000E+02  1.80000000E+02  0.00000000E+00
  3.60000000E+02  1.74000000E+02  0.00000000E+00
  3.60000000E+02  1.68000000E+02  0.00000000E+00
  3.60000000E+02  1.62000000E+02  0.00000000E+00
  3.60000000E+02  1.56000000E+02  0.00000000E+00
  3.60000000E+02  1.50000000E+02  0.00000000E+00
  3.60000000E+02  1.44000000E+02  0.00000000E+00
  3.60000000E+02  1.38000000E+02  0.00000000E+00
  3.60000000E+02  1.32000000E+02  0.00000000E+00
  3.60000000E+02  1.26000000E+02  0.00000000E+00
  3.60000000E+02  1.20000000E+02  0.00000000E+00
  3.60000000E+02  1.14000000E+02  0.00000000E+00
  3.60000000E+02  1.08000000E+02  0.00000000E+00
  3.60000000E+02  1.02000000E+02  0.00000000E+00
  3.60000000E+02  9.60000000E+01  0.00000000E+00
  3.60000000E+02  9.00000000E+01  0.00000000E+00
  3.60000000E+02  8.40000000E+01  0.00000000E+00
  3.60000000E+02  7.80000000E+01  0.00000000E+00
  3.60000000E+02  7.20000000E+01  0.00000000E+00
  3.60000000E+02  6.60000000E+01  0.00000000E+00
  3.60000000E+02  6.00000000E+01  0.00000000E+00
  3.60000000E+02  5.40000000E+01  0.00000000E+00
  3.60000000E+02  4.80000000E+01  0.00000000E+00
  3.60000000E+02  4.20000000E+01  0.00000000E+00
  3.60000000E+02  3.60000000E+01  0.00000000E+00
  3.60000000E+02  3.00000000E+01  0.00000000E+00
  3.60000000E+02  2.40000000E+01  0.00000000E+00
  3.60000000E+02  1.80000000E+01  0.00000000E+00
  3.60000000E+02  1.20000000E+01  0.00000000E+00
  3.60000000E+02  6.00000000E+00  0.00000000E+00
  3.60000000E+02 -9.99200722E-14  0.00000000E+00
  3.66000000E+02  3.00000000E+02  0.00000000E+00
  3.66000000E+02  2.94000000E+02  0.00000000E+00
  3.66000000E+02  2.88000000E+02  0.00000000E+00
  3.66000000E+02  2.82000000E+02  0.00000000E+00
  3.66000000E+02  2.76000000E+02  0.00000000E+00
  3.66000000E+02  2.70000000E+02  0.00000000E+00
  3.66000000E+02  2.64000000E+02  0.00000000E+00
  3.66000000E+02  2.58000000E+02  0.00000000E+00
  3.66000000E+02  2.52000000E+02  0.00000000E+00
  3.66000000E+02  2.46000000E+02  0.00000000E+00
  3.66000000E+02  2.40000000E+02  0.00000000E+00
  3.66000000E+02  2.34000000E+02  0.00000000E+00
  3.66000000E+02  2.28000000E+02  0.00000000E+00
  3.66000000E+02  2.22000000E+02  0.00000000E+00
  3.66000000E+02  2.16000000E+02  0.00000000E+00
  3.66000000E+02  2.10000000E+02  0.00000000E+00
  3.66000000E+02  2.04000000E+02  0.00000000E+00
  3.66000000E+02  1.98000000E+02  0.00000000E+00
  3.66000000E+02  1.92000000E+02  0.00000000E+00
  3.66000000E+02  1.86000000E+02  0.00000000E+00
  3.66000000E+02  1.80000000E+02  0.00000000E+00
  3.66000000E+02  1.74000000E+02  0.00000000E+00
  3.66000000E+02  1.68000000E+02  0.00000000E+00
  3.66000000E+02  1.62000000E+02  0.00000000E+00
  3.66000000E+02  1.56000000E+02  0.00000000E+00
  3.66000000E+02  1.50000000E+02  0.00000000E+00
  3.66000000E+02  1.44000000E+02  0.00000000E+00
  3.66000000E+02  1.38000000E+02  0.00000000E+00
  3.66000000E+02  1.32000000E+02  0.00000000E+00
  3.66000000E+02  1.26000000E+02  0.00000000E+00
  3.66000000E+02  1.20000000E+02  0.00000000E+00
  3.66000000E+02  1.14000000E+02  0.00000000E+00
  3.66000000E+02  1.08000000E+02  0.00000000E+00
  3.66000000E+02  1.02000000E+02  0.00000000E+00
  3.66000000E+02  9.60000000E+01  0.00000000E+00
  3.66000000E+02  9.00000000E+01  0.00000000E+00
  3.66000000E+02  8.40000000E+01  0.00000000E+00
  3.66000000E+02  7.80000000E+01  0.00000000E+00
  3.66000000E+02  7.20000000E+01  0.00000000E+00
  3.66000000E+02  6.60000000E+01  0.00000000E+00
  3.66000000E+02  6.00000000E+01  0.00000000E+00
  3.66000000E+02  5.40000000E+01  0.00000000E+00
  3.66000000E+02  4.80000000E+01  0.00000000E+00
  3.66000000E+02  4.20000000E+01  0.00000000E+00
  3.66000000E+02  3.60000000E+01  0.00000000E+00
  3.66000000E+02  3.00000000E+01  0.00000000E+00
  3.66000000E+02  2.40000000E+01  0.00000000E+00
  3.66000000E+02  1.80000000E+01  0.00000000E+00
  3.66000000E+02  1.20000000E+01  0.00000000E+00
  3.66000000E+02  6.00000000E+00  0.00000000E+00
  3.66000000E+02 -9.99200722E-14  0.00000000E+00
  3.72000000E+02  3.00000000E+02  0.00000000E+00
  3.72000000E+02  2.94000000E+02  0.00000000E+00
  3.72000000E+02  2.88000000E+02  0.00000000E+00
  3.72000000E+02  2.82000000E+02  0.00000000E+00
  3.72000000E+02  2.76000000E+02  0.00000000E+00
  3.72000000E+02  2.70000000E+02  0.00000000E+00
  3.72000000E+02  2.64000000E+02  0.00000000E+00
  3.72000000E+02  2.58000000E+02  0.00000000E+00
  3.72000000E+02  2.52000000E+02  0.00000000E+00
  3.72000000E+02  2.46000000E+02  0.00000000E+00
  3.72000000E+02  2.40000000E+02  0.00000000E+00
  3.72000000E+02  2.34000000E+02  0.00000000E+00
  3.72000000E+02  2.28000000E+02  0.00000000E+00
  3.72000000E+02  2.22000000E+02  0.00000000E+00
  3.72000000E+02  2.16000000E+02  0.00000000E+00
  3.72000000E+02  2.10000000E+02  0.00000000E+00
  3.72000000E+02  2.04000000E+02  0.00000000E+00
  3.72000000E+02  1.98000000E+02  0.00000000E+00
  3.72000000E+02  1.92000000E+02  0.00000000E+00
  3.72000000E+02  1.86000000E+02  0.00000000E+00
  3.72000000E+02  1.80000000E+02  0.00000000E+00
  3.72000000E+02  1.74000000E+02  0.00000000E+00
  3.72000000E+02  1.68000000E+02  0.00000000E+00
  3.72000000E+02  1.62000000E+02  0.00000000E+00
  3.72000000E+02  1.56000000E+02  0.00000000E+00
  3.72000000E+02  1.50000000E+02  0.00000000E+00
  3.72000000E+02  1.44000000E+02  0.00000000E+00
  3.72000000E+02  1.38000000E+02  0.00000000E+00
  3.72000000E+02  1.32000000E+02  0.00000000E+00
  3.72000000E+02  1.26000000E+02  0.00000000E+00
  3.72000000E+02  1.20000000E+02  0.00000000E+00
  3.72000000E+02  1.14000000E+02  0.00000000E+00
  3.72000000E+02  1.08000000E+02  0.00000000E+00
  3.72000000E+02  1.02000000E+02  0.00000000E+00
  3.72000000E+02  9.60000000E+01  0.00000000E+00
  3.72000000E+02  9.00000000E+01  0.00000000E+00
  3.72000000E+02  8.40000000E+01  0.00000000E+00
  3.72000000E+02  7.80000000E+01  0.00000000E+00
  3.72000000E+02  7.20000000E+01  0.00000000E+00
  3.72000000E+02  6.60000000E+01  0.00000000E+00
  3.72000000E+02  6.00000000E+01  0.00000000E+00
  3.72000000E+02  5.40000000E+01  0.00000000E+00
  3.72000000E+02  4.80000000E+01  0.00000000E+00
  3.72000000E+02  4.20000000E+01  0.00000000E+00
  3.72000000E+02  3.60000000E+01  0.00000000E+00
  3.72000000E+02  3.00000000E+01  0.00000000E+00
  3.72000000E+02  2.40000000E+01  0.00000000E+00
  3.72000000E+02  1.80000000E+01  0.00000000E+00
  3.72000000E+02  1.20000000E+01  0.00000000E+00
  3.72000000E+02  6.00000000E+00  0.00000000E+00
  3.72000000E+02 -9.99200722E-14  0.00000000E+00
  3.78000000E+02  3.00000000E+02  0.00000000E+00
  3.78000000E+02  2.94000000E+02  0.00000000E+00
  3.78000000E+02  2.88000000E+02  0.00000000E+00
  3.78000000E+02  2.82000000E+02  0.00000000E+00
  3.78000000E+02  2.76000000E+02  0.00000000E+00
  3.78000000E+02  2.70000000E+02  0.00000000E+00
  3.78000000E+02  2.64000000E+02  0.00000000E+00
  3.78000000E+02  2.58000000E+02  0.00000000E+00
  3.78000000E+02  2.52000000E+02  0.00000000E+00
  3.78000000E+02  2.46000000E+02  0.00000000E+00
  3.78000000E+02  2.40000000E+02  0.00000000E+00
  3.78000000E+02  2.34000000E+02  0.00000000E+00
  3.78000000E+02  2.28000000E+02  0.00000000E+00
  3.78000000E+02  2.22000000E+02  0.00000000E+00
  3.78000000E+02  2.16000000E+02  0.00000000E+00
  3.78000000E+02  2.10000000E+02  0.00000000E+00
  3.78000000E+02  2.04000000E+02  0.00000000E+00
  3.78000000E+02  1.98000000E+02  0.00000000E+00
  3.78000000E+02  1.92000000E+02  0.00000000E+00
  3.78000000E+02  1.86000000E+02  0.00000000E+00
  3.78000000E+02  1.80000000E+02  0.00000000E+00
  3.78000000E+02  1.74000000E+02  0.00000000E+00
  3.78000000E+02  1.68000000E+02  0.00000000E+00
  3.78000000E+02  1.62000000E+02  0.00000000E+00
  3.78000000E+02  1.56000000E+02  0.00000000E+00
  3.78000000E+02  1.50000000E+02  0.00000000E+00
  3.78000000E+02  1.44000000E+02  0.00000000E+00
  3.78000000E+02  1.38000000E+02  0.00000000E+00
  3.78000000E+02  1.32000000E+02  0.00000000E+00
  3.78000000E+02  1.26000000E+02  0.00000000E+00
  3.78000000E+02  1.20000000E+02  0.00000000E+00
  3.78000000E+02  1.14000000E+02  0.00000000E+00
  3.78000000E+02  1.08000000E+02  0.00000000E+00
  3.78000000E+02  1.02000000E+02  0.00000000E+00
  3.78000000E+02  9.60000000E+01  0.00000000E+00
  3.78000000E+02  9.00000000E+01  0.00000000E+00
  3.78000000E+02  8.40000000E+01  0.00000000E+00
  3.78000000E+02  7.80000000E+01  0.00000000E+00
  3.78000000E+02  7.20000000E+01  0.00000000E+00
  3.78000000E+02  6.60000000E+01  0.00000000E+00
  3.78000000E+02  6.00000000E+01  0.00000000E+00
  3.78000000E+02  5.40000000E+01  0.00000000E+00
  3.78000000E+02  4.80000000E+01  0.00000000E+00
  3.78000000E+02  4.20000000E+01  0.00000000E+00
  3.78000000E+02  3.60000000E+01  0.00000000E+00
  3.78000000E+02  3.00000000E+01  0.00000000E+00
  3.78000000E+02  2.40000000E+01  0.00000000E+00
  3.78000000E+02  1.80000000E+01  0.00000000E+00
  3.78000000E+02  1.20000000E+01  0.00000000E+00
  3.78000000E+02  6.00000000E+00  0.00000000E+00
  3.78000000E+02 -9.99200722E-14  0.00000000E+00
  3.84000000E+02  3.00000000E+02  0.00000000E+00
  3.84000000E+02  2.94000000E+02  0.00000000E+00
  3.84000000E+02  2.88000000E+02  0.00000000E+00
  3.84000000E+02  2.82000000E+02  0.00000000E+00
  3.84000000E+02  2.76000000E+02  0.00000000E+00
  3.84000000E+02  2.70000000E+02  0.00000000E+00
  3.84000000E+02  2.64000000E+02  0.00000000E+00
  3.84000000E+02  2.58000000E+02  0.00000000E+00
  3.84000000E+02  2.52000000E+02  0.00000000E+00
  3.84000000E+02  2.46000000E+02  0.00000000E+00
  3.84000000E+02  2.40000000E+02  0.00000000E+00
  3.84000000E+02  2.34000000E+02  0.00000000E+00
  3.84000000E+02  2.28000000E+02  0.00000000E+00
  3.84000000E+02  2.22000000E+02  0.00000000E+00
  3.84000000E+02  2.16000000E+02  0.00000000E+00
  3.84000000E+02  2.10000000E+02  0.00000000E+00
  3.84000000E+02  2.04000000E+02  0.00000000E+00
  3.84000000E+02  1.98000000E+02  0.00000000E+00
  3.84000000E+02  1.92000000E+02  0.00000000E+00
  3.84000000E+02  1.86000000E+02  0.00000000E+00
  3.84000000E+02  1.80000000E+02  0.00000000E+00
  3.84000000E+02  1.74000000E+02  0.00000000E+00
  3.84000000E+02  1.68000000E+02  0.00000000E+00
  3.84000000E+02  1.62000000E+02  0.00000000E+00
  3.84000000E+02  1.56000000E+02  0.00000000E+00
  3.84000000E+02  1.50000000E+02  0.00000000E+00
  3.84000000E+02  1.44000000E+02  0.00000000E+00
  3.84000000E+02  1.38000000E+02  0.00000000E+00
  3.84000000E+02  1.32000000E+02  0.00000000E+00
  3.84000000E+02  1.26000000E+02  0.00000000E+00
  3.84000000E+02  1.20000000E+02  0.00000000E+00
  3.84000000E+02  1.14000000E+02  0.00000000E+00
  3.84000000E+02  1.08000000E+02  0.00000000E+00
  3.84000000E+02  1.02000000E+02  0.00000000E+00
  3.84000000E+02  9.60000000E+01  0.00000000E+00
  3.84000000E+02  9.00000000E+01  0.00000000E+00
  3.84000000E+02  8.40000000E+01  0.00000000E+00
  3.84000000E+02  7.80000000E+01  0.00000000E+00
  3.84000000E+02  7.20000000E+01  0.00000000E+00
  3.84000000E+02  6.60000000E+01  0.00000000E+00
  3.84000000E+02  6.00000000E+01  0.00000000E+00
  3.84000000E+02  5.40000000E+01  0.00000000E+00
  3.84000000E+02  4.80000000E+01  0.00000000E+00
  3.84000000E+02  4.20000000E+01  0.00000000E+00
  3.84000000E+02  3.60000000E+01  0.00000000E+00
  3.84000000E+02  3.00000000E+01  0.00000000E+00
  3.84000000E+02  2.40000000E+01  0.00000000E+00
  3.84000000E+02  1.80000000E+01  0.00000000E+00
  3.84000000E+02  1.20000000E+01  0.00000000E+00
  3.84000000E+02  6.00000000E+00  0.00000000E+00
  3.84000000E+02 -9.99200722E-14  0.00000000E+00
  3.90000000E+02  3.00000000E+02  0.00000000E+00
  3.90000000E+02  2.94000000E+02  0.00000000E+00
  3.90000000E+02  2.88000000E+02  0.00000000E+00
  3.90000000E+02  2.82000000E+02  0.00000000E+00
  3.90000000E+02  2.76000000E+02  0.00000000E+00
  3.90000000E+02  2.70000000E+02  0.00000000E+00
  3.90000000E+02  2.64000000E+02  0.00000000E+00
  3.90000000E+02  2.58000000E+02  0.00000000E+00
  3.90000000E+02  2.52000000E+02  0.00000000E+00
  3.90000000E+02  2.46000000E+02  0.00000000E+00
  3.90000000E+02  2.40000000E+02  0.00000000E+00
  3.90000000E+02  2.34000000E+02  0.00000000E+00
  3.90000000E+02  2.28000000E+02  0.00000000E+00
  3.90000000E+02  2.22000000E+02  0.00000000E+00
  3.90000000E+02  2.16000000E+02  0.00000000E+00
  3.90000000E+02  2.10000000E+02  0.00000000E+00
  3.90000000E+02  2.04000000E+02  0.00000000E+00
  3.90000000E+02  1.98000000E+02  0.00000000E+00
  3.90000000E+02  1.92000000E+02  0.00000000E+00
  3.90000000E+02  1.86000000E+02  0.00000000E+00
  3.90000000E+02  1.80000000E+02  0.00000000E+00
  3.90000000E+02  1.74000000E+02  0.00000000E+00
  3.90000000E+02  1.68000000E+02  0.00000000E+00
  3.90000000E+02  1.62000000E+02  0.00000000E+00
  3.90000000E+02  1.56000000E+02  0.00000000E+00
  3.90000000E+02  1.50000000E+02  0.00000000E+00
  3.90000000E+02  1.44000000E+02  0.00000000E+00
  3.90000000E+02  1.38000000E+02  0.00000000E+00
  3.90000000E+02  1.32000000E+02  0.00000000E+00
  3.90000000E+02  1.26000000E+02  0.00000000E+00
  3.90000000E+02  1.20000000E+02  0.00000000E+00
  3.90000000E+02  1.14000000E+02  0.00000000E+00
  3.90000000E+02  1.08000000E+02  0.00000000E+00
  3.90000000E+02  1.02000000E+02  0.00000000E+00
  3.90000000E+02  9.60000000E+01  0.00000000E+00
  3.90000000E+02  9.00000000E+01  0.00000000E+00
  3.90000000E+02  8.40000000E+01  0.00000000E+00
  3.90000000E+02  7.80000000E+01  0.00000000E+00
  3.90000000E+02  7.20000000E+01  0.00000000E+00
  3.90000000E+02  6.60000000E+01  0.00000000E+00
  3.90000000E+02  6.00000000E+01  0.00000000E+00
  3.90000000E+02  5.40000000E+01  0.00000000E+00
  3.90000000E+02  4.80000000E+01  0.00000000E+00
  3.90000000E+02  4.20000000E+01  0.00000000E+00
  3.90000000E+02  3.60000000E+01  0.00000000E+00
  3.90000000E+02  3.00000000E+01  0.00000000E+00
  3.90000000E+02  2.40000000E+01  0.00000000E+00
  3.90000000E+02  1.80000000E+01  0.00000000E+00
  3.90000000E+02  1.20000000E+01  0.00000000E+00
  3.90000000E+02  6.00000000E+00  0.00000000E+00
  3.90000000E+02 -9.99200722E-14  0.00000000E+00
  3.96000000E+02  3.00000000E+02  0.00000000E+00
  3.96000000E+02  2.94000000E+02  0.00000000E+00
  3.96000000E+02  2.88000000E+02  0.00000000E+00
  3.96000000E+02  2.82000000E+02  0.00000000E+00
  3.96000000E+02  2.76000000E+02  0.00000000E+00
  3.96000000E+02  2.70000000E+02  0.00000000E+00
  3.96000000E+02  2.64000000E+02  0.00000000E+00
  3.96000000E+02  2.58000000E+02  0.00000000E+00
  3.96000000E+02  2.52000000E+02  0.00000000E+00
  3.96000000E+02  2.46000000E+02  0.00000000E+00
  3.96000000E+02  2.40000000E+02  0.00000000E+00
  3.96000000E+02  2.34000000E+02  0.00000000E+00
  3.96000000E+02  2.28000000E+02  0.00000000E+00
  3.96000000E+02  2.22000000E+02  0.00000000E+00
  3.96000000E+02  2.16000000E+02  0.00000000E+00
  3.96000000E+02  2.10000000E+02  0.00000000E+00
  3.96000000E+02  2.04000000E+02  0.00000000E+00
  3.96000000E+02  1.98000000E+02  0.00000000E+00
  3.96000000E+02  1.92000000E+02  0.00000000E+00
  3.96000000E+02  1.86000000E+02  0.00000000E+00
  3.96000000E+02  1.80000000E+02  0.00000000E+00
  3.96000000E+02  1.74000000E+02  0.00000000E+00
  3.96000000E+02  1.68000000E+02  0.00000000E+00
  3.96000000E+02  1.62000000E+02  0.00000000E+00
  3.96000000E+02  1.56000000E+02  0.00000000E+00
  3.96000000E+02  1.50000000E+02  0.00000000E+00
  3.96000000E+02  1.44000000E+02  0.00000000E+00
  3.96000000E+02  1.38000000E+02  0.00000000E+00
  3.96000000E+02  1.32000000E+02  0.00000000E+00
  3.96000000E+02  1.26000000E+02  0.00000000E+00
  3.96000000E+02  1.20000000E+02  0.00000000E+00
  3.96000000E+02  1.14000000E+02  0.00000000E+00
  3.96000000E+02  1.08000000E+02  0.00000000E+00
  3.96000000E+02  1.02000000E+02  0.00000000E+00
  3.96000000E+02  9.60000000E+01  0.00000000E+00
  3.96000000E+02  9.00000000E+01  0.00000000E+00
  3.96000000E+02  8.40000000E+01  0.00000000E+00
  3.96000000E+02  7.80000000E+01  0.00000000E+00
  3.96000000E+02  7.20000000E+01  0.00000000E+00
  3.96000000E+02  6.60000000E+01  0.00000000E+00
  3.96000000E+02  6.00000000E+01  0.00000000E+00
  3.96000000E+02  5.40000000E+01  0.00000000E+00
  3.96000000E+02  4.80000000E+01  0.00000000E+00
  3.96000000E+02  4.20000000E+01  0.00000000E+00
  3.96000000E+02  3.60000000E+01  0.00000000E+00
  3.96000000E+02  3.00000000E+01  0.00000000E+00
  3.96000000E+02  2.40000000E+01  0.00000000E+00
  3.96000000E+02  1.80000000E+01  0.00000000E+00
  3.96000000E+02  1.20000000E+01  0.00000000E+00
  3.96000000E+02  6.00000000E+00  0.00000000E+00
  3.96000000E+02 -9.99200722E-14  0.00000000E+00
  4.02000000E+02  3.00000000E+02  0.00000000E+00
  4.02000000E+02  2.94000000E+02  0.00000000E+00
  4.02000000E+02  2.88000000E+02  0.00000000E+00
  4.02000000E+02  2.82000000E+02  0.00000000E+00
  4.02000000E+02  2.76000000E+02  0.00000000E+00
  4.02000000E+02  2.70000000E+02  0.00000000E+00
  4.02000000E+02  2.64000000E+02  0.00000000E+00
  4.02000000E+02  2.58000000E+02  0.00000000E+00
  4.02000000E+02  2.52000000E+02  0.00000000E+00
  4.02000000E+02  2.46000000E+02  0.00000000E+00
  4.02000000E+02  2.40000000E+02  0.00000000E+00
  4.02000000E+02  2.34000000E+02  0.00000000E+00
  4.02000000E+02  2.28000000E+02  0.00000000E+00
  4.02000000E+02  2.22000000E+02  0.00000000E+00
  4.02000000E+02  2.16000000E+02  0.00000000E+00
  4.02000000E+02  2.10000000E+02  0.00000000E+00
  4.02000000E+02  2.04000000E+02  0.00000000E+00
  4.02000000E+02  1.98000000E+02  0.00000000E+00
  4.02000000E+02  1.92000000E+02  0.00000000E+00
  4.02000000E+02  1.86000000E+02  0.00000000E+00
  4.02000000E+02  1.80000000E+02  0.00000000E+00
  4.02000000E+02  1.74000000E+02  0.00000000E+00
  4.02000000E+02  1.68000000E+02  0.00000000E+00
  4.02000000E+02  1.62000000E+02  0.00000000E+00
  4.02000000E+02  1.56000000E+02  0.00000000E+00
  4.02000000E+02  1.50000000E+02  0.00000000E+00
  4.02000000E+02  1.44000000E+02  0.00000000E+00
  4.02000000E+02  1.38000000E+02  0.00000000E+00
  4.02000000E+02  1.32000000E+02  0.00000000E+00
  4.02000000E+02  1.26000000E+02  0.00000000E+00
  4.02000000E+02  1.20000000E+02  0.00000000E+00
  4.02000000E+02  1.14000000E+02  0.00000000E+00
  4.02000000E+02  1.08000000E+02  0.00000000E+00
  4.02000000E+02  1.02000000E+02  0.00000000E+00
  4.02000000E+02  9.60000000E+01  0.00000000E+00
  4.02000000E+02  9.00000000E+01  0.00000000E+00
  4.02000000E+02  8.40000000E+01  0.00000000E+00
  4.02000000E+02  7.80000000E+01  0.00000000E+00
  4.02000000E+02  7.20000000E+01  0.00000000E+00
  4.02000000E+02  6.60000000E+01  0.00000000E+00
  4.02000000E+02  6.00000000E+01  0.00000000E+00
  4.02000000E+02  5.40000000E+01  0.00000000E+00
  4.02000000E+02  4.80000000E+01  0.00000000E+00
  4.02000000E+02  4.20000000E+01  0.00000000E+00
  4.02000000E+02  3.60000000E+01  0.00000000E+00
  4.02000000E+02  3.00000000E+01  0.00000000E+00
  4.02000000E+02  2.40000000E+01  0.00000000E+00
  4.02000000E+02  1.80000000E+01  0.00000000E+00
  4.02000000E+02  1.20000000E+01  0.00000000E+00
  4.02000000E+02  6.00000000E+00  0.00000000E+00
  4.02000000E+02 -9.99200722E-14  0.00000000E+00
  4.08000000E+02  3.00000000E+02  0.00000000E+00
  4.08000000E+02  2.94000000E+02  0.00000000E+00
  4.08000000E+02  2.88000000E+02  0.00000000E+00
  4.08000000E+02  2.82000000E+02  0.00000000E+00
  4.08000000E+02  2.76000000E+02  0.00000000E+00
  4.08000000E+02  2.70000000E+02  0.00000000E+00
  4.08000000E+02  2.64000000E+02  0.00000000E+00
  4.08000000E+02  2.58000000E+02  0.00000000E+00
  4.08000000E+02  2.52000000E+02  0.00000000E+00
  4.08000000E+02  2.46000000E+02  0.00000000E+00
  4.08000000E+02  2.40000000E+02  0.00000000E+00
  4.08000000E+02  2.34000000E+02  0.00000000E+00
  4.08000000E+02  2.28000000E+02  0.00000000E+00
  4.08000000E+02  2.22000000E+02  0.00000000E+00
  4.08000000E+02  2.16000000E+02  0.00000000E+00
  4.08000000E+02  2.10000000E+02  0.00000000E+00
  4.08000000E+02  2.04000000E+02  0.00000000E+00
  4.08000000E+02  1.98000000E+02  0.00000000E+00
  4.08000000E+02  1.92000000E+02  0.00000000E+00
  4.08000000E+02  1.86000000E+02  0.00000000E+00
  4.08000000E+02  1.80000000E+02  0.00000000E+00
  4.08000000E+02  1.74000000E+02  0.00000000E+00
  4.08000000E+02  1.68000000E+02  0.00000000E+00
  4.08000000E+02  1.62000000E+02  0.00000000E+00
  4.08000000E+02  1.56000000E+02  0.00000000E+00
  4.08000000E+02  1.50000000E+02  0.00000000E+00
  4.08000000E+02  1.44000000E+02  0.00000000E+00
  4.08000000E+02  1.38000000E+02  0.00000000E+00
  4.08000000E+02  1.32000000E+02  0.00000000E+00
  4.08000000E+02  1.26000000E+02  0.00000000E+00
  4.08000000E+02  1.20000000E+02  0.00000000E+00
  4.08000000E+02  1.14000000E+02  0.00000000E+00
  4.08000000E+02  1.08000000E+02  0.00000000E+00
  4.08000000E+02  1.02000000E+02  0.00000000E+00
  4.08000000E+02  9.60000000E+01  0.00000000E+00
  4.08000000E+02  9.00000000E+01  0.00000000E+00
  4.08000000E+02  8.40000000E+01  0.00000000E+00
  4.08000000E+02  7.80000000E+01  0.00000000E+00
  4.08000000E+02  7.20000000E+01  0.00000000E+00
  4.08000000E+02  6.60000000E+01  0.00000000E+00
  4.08000000E+02  6.00000000E+01  0.00000000E+00
  4.08000000E+02  5.40000000E+01  0.00000000E+00
  4.08000000E+02  4.80000000E+01  0.00000000E+00
  4.08000000E+02  4.20000000E+01  0.00000000E+00
  4.08000000E+02  3.60000000E+01  0.00000000E+00
  4.08000000E+02  3.00000000E+01  0.00000000E+00
  4.08000000E+02  2.40000000E+01  0.00000000E+00
  4.08000000E+02  1.80000000E+01  0.00000000E+00
  4.08000000E+02  1.20000000E+01  0.00000000E+00
  4.08000000E+02  6.00000000E+00  0.00000000E+00
  4.08000000E+02 -9.99200722E-14  0.00000000E+00
  4.14000000E+02  3.00000000E+02  0.00000000E+00
  4.14000000E+02  2.94000000E+02  0.00000000E+00
  4.14000000E+02  2.88000000E+02  0.00000000E+00
  4.14000000E+02  2.82000000E+02  0.00000000E+00
  4.14000000E+02  2.76000000E+02  0.00000000E+00
  4.14000000E+02  2.70000000E+02  0.00000000E+00
  4.14000000E+02  2.64000000E+02  0.00000000E+00
  4.14000000E+02  2.58000000E+02  0.00000000E+00
  4.14000000E+02  2.52000000E+02  0.00000000E+00
  4.14000000E+02  2.46000000E+02  0.00000000E+00
  4.14000000E+02  2.40000000E+02  0.00000000E+00
  4.14000000E+02  2.34000000E+02  0.00000000E+00
  4.14000000E+02  2.28000000E+02  0.00000000E+00
  4.14000000E+02  2.22000000E+02  0.00000000E+00
  4.14000000E+02  2.16000000E+02  0.00000000E+00
  4.14000000E+02  2.10000000E+02  0.00000000E+00
  4.14000000E+02  2.04000000E+02  0.00000000E+00
  4.14000000E+02  1.98000000E+02  0.00000000E+00
  4.14000000E+02  1.92000000E+02  0.00000000E+00
  4.14000000E+02  1.86000000E+02  0.00000000E+00
  4.14000000E+02  1.80000000E+02  0.00000000E+00
  4.14000000E+02  1.74000000E+02  0.00000000E+00
  4.14000000E+02  1.68000000E+02  0.00000000E+00
  4.14000000E+02  1.62000000E+02  0.00000000E+00
  4.14000000E+02  1.56000000E+02  0.00000000E+00
  4.14000000E+02  1.50000000E+02  0.00000000E+00
  4.14000000E+02  1.44000000E+02  0.00000000E+00
  4.14000000E+02  1.38000000E+02  0.00000000E+00
  4.14000000E+02  1.32000000E+02  0.00000000E+00
  4.14000000E+02  1.26000000E+02  0.00000000E+00
  4.14000000E+02  1.20000000E+02  0.00000000E+00
  4.14000000E+02  1.14000000E+02  0.00000000E+00
  4.14000000E+02  1.08000000E+02  0.00000000E+00
  4.14000000E+02  1.02000000E+02  0.00000000E+00
  4.14000000E+02  9.60000000E+01  0.00000000E+00
  4.14000000E+02  9.00000000E+01  0.00000000E+00
  4.14000000E+02  8.40000000E+01  0.00000000E+00
  4.14000000E+02  7.80000000E+01  0.00000000E+00
  4.14000000E+02  7.20000000E+01  0.00000000E+00
  4.14000000E+02  6.60000000E+01  0.00000000E+00
  4.14000000E+02  6.00000000E+01  0.00000000E+00
  4.14000000E+02  5.40000000E+01  0.00000000E+00
  4.14000000E+02  4.80000000E+01  0.00000000E+00
  4.14000000E+02  4.20000000E+01  0.00000000E+00
  4.14000000E+02  3.60000000E+01  0.00000000E+00
  4.14000000E+02  3.00000000E+01  0.00000000E+00
  4.14000000E+02  2.40000000E+01  0.00000000E+00
  4.14000000E+02  1.80000000E+01  0.00000000E+00
  4.14000000E+02  1.20000000E+01  0.00000000E+00
  4.14000000E+02  6.00000000E+00  0.00000000E+00
  4.14000000E+02 -9.99200722E-14  0.00000000E+00
  4.20000000E+02  3.00000000E+02  0.00000000E+00
  4.20000000E+02  2.94000000E+02  0.00000000E+00
  4.20000000E+02  2.88000000E+02  0.00000000E+00
  4.20000000E+02  2.82000000E+02  0.00000000E+00
  4.20000000E+02  2.76000000E+02  0.00000000E+00
  4.20000000E+02  2.70000000E+02  0.00000000E+00
  4.20000000E+02  2.64000000E+02  0.00000000E+00
  4.20000000E+02  2.58000000E+02  0.00000000E+00
  4.20000000E+02  2.52000000E+02  0.00000000E+00
  4.20000000E+02  2.46000000E+02  0.00000000E+00
  4.20000000E+02  2.40000000E+02  0.00000000E+00
  4.20000000E+02  2.34000000E+02  0.00000000E+00
  4.20000000E+02  2.28000000E+02  0.00000000E+00
  4.20000000E+02  2.22000000E+02  0.00000000E+00
  4.20000000E+02  2.16000000E+02  0.00000000E+00
  4.20000000E+02  2.10000000E+02  0.00000000E+00
  4.20000000E+02  2.04000000E+02  0.00000000E+00
  4.20000000E+02  1.98000000E+02  0.00000000E+00
  4.20000000E+02  1.92000000E+02  0.00000000E+00
  4.20000000E+02  1.86000000E+02  0.00000000E+00
  4.20000000E+02  1.80000000E+02  0.00000000E+00
  4.20000000E+02  1.74000000E+02  0.00000000E+00
  4.20000000E+02  1.68000000E+02  0.00000000E+00
  4.20000000E+02  1.62000000E+02  0.00000000E+00
  4.20000000E+02  1.56000000E+02  0.00000000E+00
  4.20000000E+02  1.50000000E+02  0.00000000E+00
  4.20000000E+02  1.44000000E+02  0.00000000E+00
  4.20000000E+02  1.38000000E+02  0.00000000E+00
  4.20000000E+02  1.32000000E+02  0.00000000E+00
  4.20000000E+02  1.26000000E+02  0.00000000E+00
  4.20000000E+02  1.20000000E+02  0.00000000E+00
  4.20000000E+02  1.14000000E+02  0.00000000E+00
  4.20000000E+02  1.08000000E+02  0.00000000E+00
  4.20000000E+02  1.02000000E+02  0.00000000E+00
  4.20000000E+02  9.60000000E+01  0.00000000E+00
  4.20000000E+02  9.00000000E+01  0.00000000E+00
  4.20000000E+02  8.40000000E+01  0.00000000E+00
  4.20000000E+02  7.80000000E+01  0.00000000E+00
  4.20000000E+02  7.20000000E+01  0.00000000E+00
  4.20000000E+02  6.60000000E+01  0.00000000E+00
  4.20000000E+02  6.00000000E+01  0.00000000E+00
  4.20000000E+02  5.40000000E+01  0.00000000E+00
  4.20000000E+02  4.80000000E+01  0.00000000E+00
  4.20000000E+02  4.20000000E+01  0.00000000E+00
  4.20000000E+02  3.60000000E+01  0.00000000E+00
  4.20000000E+02  3.00000000E+01  0.00000000E+00
  4.20000000E+02  2.40000000E+01  0.00000000E+00
  4.20000000E+02  1.80000000E+01  0.00000000E+00
  4.20000000E+02  1.20000000E+01  0.00000000E+00
  4.20000000E+02  6.00000000E+00  0.00000000E+00
  4.20000000E+02 -9.99200722E-14  0.00000000E+00
  4.26000000E+02  3.00000000E+02  0.00000000E+00
  4.26000000E+02  2.94000000E+02  0.00000000E+00
  4.26000000E+02  2.88000000E+02  0.00000000E+00
  4.26000000E+02  2.82000000E+02  0.00000000E+00
  4.26000000E+02  2.76000000E+02  0.00000000E+00
  4.26000000E+02  2.70000000E+02  0.00000000E+00
  4.26000000E+02  2.64000000E+02  0.00000000E+00
  4.26000000E+02  2.58000000E+02  0.00000000E+00
  4.26000000E+02  2.52000000E+02  0.00000000E+00
  4.26000000E+02  2.46000000E+02  0.00000000E+00
  4.26000000E+02  2.40000000E+02  0.00000000E+00
  4.26000000E+02  2.34000000E+02  0.00000000E+00
  4.26000000E+02  2.28000000E+02  0.00000000E+00
  4.26000000E+02  2.22000000E+02  0.00000000E+00
  4.26000000E+02  2.16000000E+02  0.00000000E+00
  4.26000000E+02  2.10000000E+02  0.00000000E+00
  4.26000000E+02  2.04000000E+02  0.00000000E+00
  4.26000000E+02  1.98000000E+02  0.00000000E+00
  4.26000000E+02  1.92000000E+02  0.00000000E+00
  4.26000000E+02  1.86000000E+02  0.00000000E+00
  4.26000000E+02  1.80000000E+02  0.00000000E+00
  4.26000000E+02  1.74000000E+02  0.00000000E+00
  4.26000000E+02  1.68000000E+02  0.00000000E+00
  4.26000000E+02  1.62000000E+02  0.00000000E+00
  4.26000000E+02  1.56000000E+02  0.00000000E+00
  4.26000000E+02  1.50000000E+02  0.00000000E+00
  4.26000000E+02  1.44000000E+02  0.00000000E+00
  4.26000000E+02  1.38000000E+02  0.00000000E+00
  4.26000000E+02  1.32000000E+02  0.00000000E+00
  4.26000000E+02  1.26000000E+02  0.00000000E+00
  4.26000000E+02  1.20000000E+02  0.00000000E+00
  4.26000000E+02  1.14000000E+02  0.00000000E+00
  4.26000000E+02  1.08000000E+02  0.00000000E+00
  4.26000000E+02  1.02000000E+02  0.00000000E+00
  4.26000000E+02  9.60000000E+01  0.00000000E+00
  4.26000000E+02  9.00000000E+01  0.00000000E+00
  4.26000000E+02  8.40000000E+01  0.00000000E+00
  4.26000000E+02  7.80000000E+01  0.00000000E+00
  4.26000000E+02  7.20000000E+01  0.00000000E+00
  4.26000000E+02  6.60000000E+01  0.00000000E+00
  4.26000000E+02  6.00000000E+01  0.00000000E+00
  4.26000000E+02  5.40000000E+01  0.00000000E+00
  4.26000000E+02  4.80000000E+01  0.00000000E+00
  4.26000000E+02  4.20000000E+01  0.00000000E+00
  4.26000000E+02  3.60000000E+01  0.00000000E+00
  4.26000000E+02  3.00000000E+01  0.00000000E+00
  4.26000000E+02  2.40000000E+01  0.00000000E+00
  4.26000000E+02  1.80000000E+01  0.00000000E+00
  4.26000000E+02  1.20000000E+01  0.00000000E+00
  4.26000000E+02  6.00000000E+00  0.00000000E+00
  4.26000000E+02 -9.99200722E-14  0.00000000E+00
  4.32000000E+02  3.00000000E+02  0.00000000E+00
  4.32000000E+02  2.94000000E+02  0.00000000E+00
  4.32000000E+02  2.88000000E+02  0.00000000E+00
  4.32000000E+02  2.82000000E+02  0.00000000E+00
  4.32000000E+02  2.76000000E+02  0.00000000E+00
  4.32000000E+02  2.70000000E+02  0.00000000E+00
  4.32000000E+02  2.64000000E+02  0.00000000E+00
  4.32000000E+02  2.58000000E+02  0.00000000E+00
  4.32000000E+02  2.52000000E+02  0.00000000E+00
  4.32000000E+02  2.46000000E+02  0.00000000E+00
  4.32000000E+02  2.40000000E+02  0.00000000E+00
  4.32000000E+02  2.34000000E+02  0.00000000E+00
  4.32000000E+02  2.28000000E+02  0.00000000E+00
  4.32000000E+02  2.22000000E+02  0.00000000E+00
  4.32000000E+02  2.16000000E+02  0.00000000E+00
  4.32000000E+02  2.10000000E+02  0.00000000E+00
  4.32000000E+02  2.04000000E+02  0.00000000E+00
  4.32000000E+02  1.98000000E+02  0.00000000E+00
  4.32000000E+02  1.92000000E+02  0.00000000E+00
  4.32000000E+02  1.86000000E+02  0.00000000E+00
  4.32000000E+02  1.80000000E+02  0.00000000E+00
  4.32000000E+02  1.74000000E+02  0.00000000E+00
  4.32000000E+02  1.68000000E+02  0.00000000E+00
  4.32000000E+02  1.62000000E+02  0.00000000E+00
  4.32000000E+02  1.56000000E+02  0.00000000E+00
  4.32000000E+02  1.50000000E+02  0.00000000E+00
  4.32000000E+02  1.44000000E+02  0.00000000E+00
  4.32000000E+02  1.38000000E+02  0.00000000E+00
  4.32000000E+02  1.32000000E+02  0.00000000E+00
  4.32000000E+02  1.26000000E+02  0.00000000E+00
  4.32000000E+02  1.20000000E+02  0.00000000E+00
  4.32000000E+02  1.14000000E+02  0.00000000E+00
  4.32000000E+02  1.08000000E+02  0.00000000E+00
  4.32000000E+02  1.02000000E+02  0.00000000E+00
  4.32000000E+02  9.60000000E+01  0.00000000E+00
  4.32000000E+02  9.00000000E+01  0.00000000E+00
  4.32000000E+02  8.40000000E+01  0.00000000E+00
  4.32000000E+02  7.80000000E+01  0.00000000E+00
  4.32000000E+02  7.20000000E+01  0.00000000E+00
  4.32000000E+02  6.60000000E+01  0.00000000E+00
  4.32000000E+02  6.00000000E+01  0.00000000E+00
  4.32000000E+02  5.40000000E+01  0.00000000E+00
  4.32000000E+02  4.80000000E+01  0.00000000E+00
  4.32000000E+02  4.20000000E+01  0.00000000E+00
  4.32000000E+02  3.60000000E+01  0.00000000E+00
  4.32000000E+02  3.00000000E+01  0.00000000E+00
  4.32000000E+02  2.40000000E+01  0.00000000E+00
  4.32000000E+02  1.80000000E+01  0.00000000E+00
  4.32000000E+02  1.20000000E+01  0.00000000E+00
  4.32000000E+02  6.00000000E+00  0.00000000E+00
  4.32000000E+02 -9.99200722E-14  0.00000000E+00
  4.38000000E+02  3.00000000E+02  0.00000000E+00
  4.38000000E+02  2.94000000E+02  0.00000000E+00
  4.38000000E+02  2.88000000E+02  0.00000000E+00
  4.38000000E+02  2.82000000E+02  0.00000000E+00
  4.38000000E+02  2.76000000E+02  0.00000000E+00
  4.38000000E+02  2.70000000E+02  0.00000000E+00
  4.38000000E+02  2.64000000E+02  0.00000000E+00
  4.38000000E+02  2.58000000E+02  0.00000000E+00
  4.38000000E+02  2.52000000E+02  0.00000000E+00
  4.38000000E+02  2.46000000E+02  0.00000000E+00
  4.38000000E+02  2.40000000E+02  0.00000000E+00
  4.38000000E+02  2.34000000E+02  0.00000000E+00
  4.38000000E+02  2.28000000E+02  0.00000000E+00
  4.38000000E+02  2.22000000E+02  0.00000000E+00
  4.38000000E+02  2.16000000E+02  0.00000000E+00
  4.38000000E+02  2.10000000E+02  0.00000000E+00
  4.38000000E+02  2.04000000E+02  0.00000000E+00
  4.38000000E+02  1.98000000E+02  0.00000000E+00
  4.38000000E+02  1.92000000E+02  0.00000000E+00
  4.38000000E+02  1.86000000E+02  0.00000000E+00
  4.38000000E+02  1.80000000E+02  0.00000000E+00
  4.38000000E+02  1.74000000E+02  0.00000000E+00
  4.38000000E+02  1.68000000E+02  0.00000000E+00
  4.38000000E+02  1.62000000E+02  0.00000000E+00
  4.38000000E+02  1.56000000E+02  0.00000000E+00
  4.38000000E+02  1.50000000E+02  0.00000000E+00
  4.38000000E+02  1.44000000E+02  0.00000000E+00
  4.38000000E+02  1.38000000E+02  0.00000000E+00
  4.38000000E+02  1.32000000E+02  0.00000000E+00
  4.38000000E+02  1.26000000E+02  0.00000000E+00
  4.38000000E+02  1.20000000E+02  0.00000000E+00
  4.38000000E+02  1.14000000E+02  0.00000000E+00
  4.38000000E+02  1.08000000E+02  0.00000000E+00
  4.38000000E+02  1.02000000E+02  0.00000000E+00
  4.38000000E+02  9.60000000E+01  0.00000000E+00
  4.38000000E+02  9.00000000E+01  0.00000000E+00
  4.38000000E+02  8.40000000E+01  0.00000000E+00
  4.38000000E+02  7.80000000E+01  0.00000000E+00
  4.38000000E+02  7.20000000E+01  0.00000000E+00
  4.38000000E+02  6.60000000E+01  0.00000000E+00
  4.38000000E+02  6.00000000E+01  0.00000000E+00
  4.38000000E+02  5.40000000E+01  0.00000000E+00
  4.38000000E+02  4.80000000E+01  0.00000000E+00
  4.38000000E+02  4.20000000E+01  0.00000000E+00
  4.38000000E+02  3.60000000E+01  0.00000000E+00
  4.38000000E+02  3.00000000E+01  0.00000000E+00
  4.38000000E+02  2.40000000E+01  0.00000000E+00
  4.38000000E+02  1.80000000E+01  0.00000000E+00
  4.38000000E+02  1.20000000E+01  0.00000000E+00
  4.38000000E+02  6.00000000E+00  0.00000000E+00
  4.38000000E+02 -9.99200722E-14  0.00000000E+00
  4.44000000E+02  3.00000000E+02  0.00000000E+00
  4.44000000E+02  2.94000000E+02  0.00000000E+00
  4.44000000E+02  2.88000000E+02  0.00000000E+00
  4.44000000E+02  2.82000000E+02  0.00000000E+00
  4.44000000E+02  2.76000000E+02  0.00000000E+00
  4.44000000E+02  2.70000000E+02  0.00000000E+00
  4.44000000E+02  2.64000000E+02  0.00000000E+00
  4.44000000E+02  2.58000000E+02  0.00000000E+00
  4.44000000E+02  2.52000000E+02  0.00000000E+00
  4.44000000E+02  2.46000000E+02  0.00000000E+00
  4.44000000E+02  2.40000000E+02  0.00000000E+00
  4.44000000E+02  2.34000000E+02  0.00000000E+00
  4.44000000E+02  2.28000000E+02  0.00000000E+00
  4.44000000E+02  2.22000000E+02  0.00000000E+00
  4.44000000E+02  2.16000000E+02  0.00000000E+00
  4.44000000E+02  2.10000000E+02  0.00000000E+00
  4.44000000E+02  2.04000000E+02  0.00000000E+00
  4.44000000E+02  1.98000000E+02  0.00000000E+00
  4.44000000E+02  1.92000000E+02  0.00000000E+00
  4.44000000E+02  1.86000000E+02  0.00000000E+00
  4.44000000E+02  1.80000000E+02  0.00000000E+00
  4.44000000E+02  1.74000000E+02  0.00000000E+00
  4.44000000E+02  1.68000000E+02  0.00000000E+00
  4.44000000E+02  1.62000000E+02  0.00000000E+00
  4.44000000E+02  1.56000000E+02  0.00000000E+00
  4.44000000E+02  1.50000000E+02  0.00000000E+00
  4.44000000E+02  1.44000000E+02  0.00000000E+00
  4.44000000E+02  1.38000000E+02  0.00000000E+00
  4.44000000E+02  1.32000000E+02  0.00000000E+00
  4.44000000E+02  1.26000000E+02  0.00000000E+00
  4.44000000E+02  1.20000000E+02  0.00000000E+00
  4.44000000E+02  1.14000000E+02  0.00000000E+00
  4.44000000E+02  1.08000000E+02  0.00000000E+00
  4.44000000E+02  1.02000000E+02  0.00000000E+00
  4.44000000E+02  9.60000000E+01  0.00000000E+00
  4.44000000E+02  9.00000000E+01  0.00000000E+00
  4.44000000E+02  8.40000000E+01  0.00000000E+00
  4.44000000E+02  7.80000000E+01  0.00000000E+00
  4.44000000E+02  7.20000000E+01  0.00000000E+00
  4.44000000E+02  6.60000000E+01  0.00000000E+00
  4.44000000E+02  6.00000000E+01  0.00000000E+00
  4.44000000E+02  5.40000000E+01  0.00000000E+00
  4.44000000E+02  4.80000000E+01  0.00000000E+00
  4.44000000E+02  4.20000000E+01  0.00000000E+00
  4.44000000E+02  3.60000000E+01  0.00000000E+00
  4.44000000E+02  3.00000000E+01  0.00000000E+00
  4.44000000E+02  2.40000000E+01  0.00000000E+00
  4.44000000E+02  1.80000000E+01  0.00000000E+00
  4.44000000E+02  1.20000000E+01  0.00000000E+00
  4.44000000E+02  6.00000000E+00  0.00000000E+00
  4.44000000E+02 -9.99200722E-14  0.00000000E+00
  4.50000000E+02  3.00000000E+02  0.00000000E+00
  4.50000000E+02  2.94000000E+02  0.00000000E+00
  4.50000000E+02  2.88000000E+02  0.00000000E+00
  4.50000000E+02  2.82000000E+02  0.00000000E+00
  4.50000000E+02  2.76000000E+02  0.00000000E+00
  4.50000000E+02  2.70000000E+02  0.00000000E+00
  4.50000000E+02  2.64000000E+02  0.00000000E+00
  4.50000000E+02  2.58000000E+02  0.00000000E+00
  4.50000000E+02  2.52000000E+02  0.00000000E+00
  4.50000000E+02  2.46000000E+02  0.00000000E+00
  4.50000000E+02  2.40000000E+02  0.00000000E+00
  4.50000000E+02  2.34000000E+02  0.00000000E+00
  4.50000000E+02  2.28000000E+02  0.00000000E+00
  4.50000000E+02  2.22000000E+02  0.00000000E+00
  4.50000000E+02  2.16000000E+02  0.00000000E+00
  4.50000000E+02  2.10000000E+02  0.00000000E+00
  4.50000000E+02  2.04000000E+02  0.00000000E+00
  4.50000000E+02  1.98000000E+02  0.00000000E+00
  4.50000000E+02  1.92000000E+02  0.00000000E+00
  4.50000000E+02  1.86000000E+02  0.00000000E+00
  4.50000000E+02  1.80000000E+02  0.00000000E+00
  4.50000000E+02  1.74000000E+02  0.00000000E+00
  4.50000000E+02  1.68000000E+02  0.00000000E+00
  4.50000000E+02  1.62000000E+02  0.00000000E+00
  4.50000000E+02  1.56000000E+02  0.00000000E+00
  4.50000000E+02  1.50000000E+02  0.00000000E+00
  4.50000000E+02  1.44000000E+02  0.00000000E+00
  4.50000000E+02  1.38000000E+02  0.00000000E+00
  4.50000000E+02  1.32000000E+02  0.00000000E+00
  4.50000000E+02  1.26000000E+02  0.00000000E+00
  4.50000000E+02  1.20000000E+02  0.00000000E+00
  4.50000000E+02  1.14000000E+02  0.00000000E+00
  4.50000000E+02  1.08000000E+02  0.00000000E+00
  4.50000000E+02  1.02000000E+02  0.00000000E+00
  4.50000000E+02  9.60000000E+01  0.00000000E+00
  4.50000000E+02  9.00000000E+01  0.00000000E+00
  4.50000000E+02  8.40000000E+01  0.00000000E+00
  4.50000000E+02  7.80000000E+01  0.00000000E+00
  4.50000000E+02  7.20000000E+01  0.00000000E+00
  4.50000000E+02  6.60000000E+01  0.00000000E+00
  4.50000000E+02  6.00000000E+01  0.00000000E+00
  4.50000000E+02  5.40000000E+01  0.00000000E+00
  4.50000000E+02  4.80000000E+01  0.00000000E+00
  4.50000000E+02  4.20000000E+01  0.00000000E+00
  4.50000000E+02  3.60000000E+01  0.00000000E+00
  4.50000000E+02  3.00000000E+01  0.00000000E+00
  4.50000000E+02  2.40000000E+01  0.00000000E+00
  4.50000000E+02  1.80000000E+01  0.00000000E+00
  4.50000000E+02  1.20000000E+01  0.00000000E+00
  4.50000000E+02  6.00000000E+00  0.00000000E+00
  4.50000000E+02 -9.99200722E-14  0.00000000E+00
  4.56000000E+02  3.00000000E+02  0.00000000E+00
  4.56000000E+02  2.94000000E+02  0.00000000E+00
  4.56000000E+02  2.88000000E+02  0.00000000E+00
  4.56000000E+02  2.82000000E+02  0.00000000E+00
  4.56000000E+02  2.76000000E+02  0.00000000E+00
  4.56000000E+02  2.70000000E+02  0.00000000E+00
  4.56000000E+02  2.64000000E+02  0.00000000E+00
  4.56000000E+02  2.58000000E+02  0.00000000E+00
  4.56000000E+02  2.52000000E+02  0.00000000E+00
  4.56000000E+02  2.46000000E+02  0.00000000E+00
  4.56000000E+02  2.40000000E+02  0.00000000E+00
  4.56000000E+02  2.34000000E+02  0.00000000E+00
  4.56000000E+02  2.28000000E+02  0.00000000E+00
  4.56000000E+02  2.22000000E+02  0.00000000E+00
  4.56000000E+02  2.16000000E+02  0.00000000E+00
  4.56000000E+02  2.10000000E+02  0.00000000E+00
  4.56000000E+02  2.04000000E+02  0.00000000E+00
  4.56000000E+02  1.98000000E+02  0.00000000E+00
  4.56000000E+02  1.92000000E+02  0.00000000E+00
  4.56000000E+02  1.86000000E+02  0.00000000E+00
  4.56000000E+02  1.80000000E+02  0.00000000E+00
  4.56000000E+02  1.74000000E+02  0.00000000E+00
  4.56000000E+02  1.68000000E+02  0.00000000E+00
  4.56000000E+02  1.62000000E+02  0.00000000E+00
  4.56000000E+02  1.56000000E+02  0.00000000E+00
  4.56000000E+02  1.50000000E+02  0.00000000E+00
  4.56000000E+02  1.44000000E+02  0.00000000E+00
  4.56000000E+02  1.38000000E+02  0.00000000E+00
  4.56000000E+02  1.32000000E+02  0.00000000E+00
  4.56000000E+02  1.26000000E+02  0.00000000E+00
  4.56000000E+02  1.20000000E+02  0.00000000E+00
  4.56000000E+02  1.14000000E+02  0.00000000E+00
  4.56000000E+02  1.08000000E+02  0.00000000E+00
  4.56000000E+02  1.02000000E+02  0.00000000E+00
  4.56000000E+02  9.60000000E+01  0.00000000E+00
  4.56000000E+02  9.00000000E+01  0.00000000E+00
  4.56000000E+02  8.40000000E+01  0.00000000E+00
  4.56000000E+02  7.80000000E+01  0.00000000E+00
  4.56000000E+02  7.20000000E+01  0.00000000E+00
  4.56000000E+02  6.60000000E+01  0.00000000E+00
  4.56000000E+02  6.00000000E+01  0.00000000E+00
  4.56000000E+02  5.40000000E+01  0.00000000E+00
  4.56000000E+02  4.80000000E+01  0.00000000E+00
  4.56000000E+02  4.20000000E+01  0.00000000E+00
  4.56000000E+02  3.60000000E+01  0.00000000E+00
  4.56000000E+02  3.00000000E+01  0.00000000E+00
  4.56000000E+02  2.40000000E+01  0.00000000E+00
  4.56000000E+02  1.80000000E+01  0.00000000E+00
  4.56000000E+02  1.20000000E+01  0.00000000E+00
  4.56000000E+02  6.00000000E+00  0.00000000E+00
  4.56000000E+02 -9.99200722E-14  0.00000000E+00
  4.62000000E+02  3.00000000E+02  0.00000000E+00
  4.62000000E+02  2.94000000E+02  0.00000000E+00
  4.62000000E+02  2.88000000E+02  0.00000000E+00
  4.62000000E+02  2.82000000E+02  0.00000000E+00
  4.62000000E+02  2.76000000E+02  0.00000000E+00
  4.62000000E+02  2.70000000E+02  0.00000000E+00
  4.62000000E+02  2.64000000E+02  0.00000000E+00
  4.62000000E+02  2.58000000E+02  0.00000000E+00
  4.62000000E+02  2.52000000E+02  0.00000000E+00
  4.62000000E+02  2.46000000E+02  0.00000000E+00
  4.62000000E+02  2.40000000E+02  0.00000000E+00
  4.62000000E+02  2.34000000E+02  0.00000000E+00
  4.62000000E+02  2.28000000E+02  0.00000000E+00
  4.62000000E+02  2.22000000E+02  0.00000000E+00
  4.62000000E+02  2.16000000E+02  0.00000000E+00
  4.62000000E+02  2.10000000E+02  0.00000000E+00
  4.62000000E+02  2.04000000E+02  0.00000000E+00
  4.62000000E+02  1.98000000E+02  0.00000000E+00
  4.62000000E+02  1.92000000E+02  0.00000000E+00
  4.62000000E+02  1.86000000E+02  0.00000000E+00
  4.62000000E+02  1.80000000E+02  0.00000000E+00
  4.62000000E+02  1.74000000E+02  0.00000000E+00
  4.62000000E+02  1.68000000E+02  0.00000000E+00
  4.62000000E+02  1.62000000E+02  0.00000000E+00
  4.62000000E+02  1.56000000E+02  0.00000000E+00
  4.62000000E+02  1.50000000E+02  0.00000000E+00
  4.62000000E+02  1.44000000E+02  0.00000000E+00
  4.62000000E+02  1.38000000E+02  0.00000000E+00
  4.62000000E+02  1.32000000E+02  0.00000000E+00
  4.62000000E+02  1.26000000E+02  0.00000000E+00
  4.62000000E+02  1.20000000E+02  0.00000000E+00
  4.62000000E+02  1.14000000E+02  0.00000000E+00
  4.62000000E+02  1.08000000E+02  0.00000000E+00
  4.62000000E+02  1.02000000E+02  0.00000000E+00
  4.62000000E+02  9.60000000E+01  0.00000000E+00
  4.62000000E+02  9.00000000E+01  0.00000000E+00
  4.62000000E+02  8.40000000E+01  0.00000000E+00
  4.62000000E+02  7.80000000E+01  0.00000000E+00
  4.62000000E+02  7.20000000E+01  0.00000000E+00
  4.62000000E+02  6.60000000E+01  0.00000000E+00
  4.62000000E+02  6.00000000E+01  0.00000000E+00
  4.62000000E+02  5.40000000E+01  0.00000000E+00
  4.62000000E+02  4.80000000E+01  0.00000000E+00
  4.62000000E+02  4.20000000E+01  0.00000000E+00
  4.62000000E+02  3.60000000E+01  0.00000000E+00
  4.62000000E+02  3.00000000E+01  0.00000000E+00
  4.62000000E+02  2.40000000E+01  0.00000000E+00
  4.62000000E+02  1.80000000E+01  0.00000000E+00
  4.62000000E+02  1.20000000E+01  0.00000000E+00
  4.62000000E+02  6.00000000E+00  0.00000000E+00
  4.62000000E+02 -9.99200722E-14  0.00000000E+00
  4.68000000E+02  3.00000000E+02  0.00000000E+00
  4.68000000E+02  2.94000000E+02  0.00000000E+00
  4.68000000E+02  2.88000000E+02  0.00000000E+00
  4.68000000E+02  2.82000000E+02  0.00000000E+00
  4.68000000E+02  2.76000000E+02  0.00000000E+00
  4.68000000E+02  2.70000000E+02  0.00000000E+00
  4.68000000E+02  2.64000000E+02  0.00000000E+00
  4.68000000E+02  2.58000000E+02  0.00000000E+00
  4.68000000E+02  2.52000000E+02  0.00000000E+00
  4.68000000E+02  2.46000000E+02  0.00000000E+00
  4.68000000E+02  2.40000000E+02  0.00000000E+00
  4.68000000E+02  2.34000000E+02  0.00000000E+00
  4.68000000E+02  2.28000000E+02  0.00000000E+00
  4.68000000E+02  2.22000000E+02  0.00000000E+00
  4.68000000E+02  2.16000000E+02  0.00000000E+00
  4.68000000E+02  2.10000000E+02  0.00000000E+00
  4.68000000E+02  2.04000000E+02  0.00000000E+00
  4.68000000E+02  1.98000000E+02  0.00000000E+00
  4.68000000E+02  1.92000000E+02  0.00000000E+00
  4.68000000E+02  1.86000000E+02  0.00000000E+00
  4.68000000E+02  1.80000000E+02  0.00000000E+00
  4.68000000E+02  1.74000000E+02  0.00000000E+00
  4.68000000E+02  1.68000000E+02  0.00000000E+00
  4.68000000E+02  1.62000000E+02  0.00000000E+00
  4.68000000E+02  1.56000000E+02  0.00000000E+00
  4.68000000E+02  1.50000000E+02  0.00000000E+00
  4.68000000E+02  1.44000000E+02  0.00000000E+00
  4.68000000E+02  1.38000000E+02  0.00000000E+00
  4.68000000E+02  1.32000000E+02  0.00000000E+00
  4.68000000E+02  1.26000000E+02  0.00000000E+00
  4.68000000E+02  1.20000000E+02  0.00000000E+00
  4.68000000E+02  1.14000000E+02  0.00000000E+00
  4.68000000E+02  1.08000000E+02  0.00000000E+00
  4.68000000E+02  1.02000000E+02  0.00000000E+00
  4.68000000E+02  9.60000000E+01  0.00000000E+00
  4.68000000E+02  9.00000000E+01  0.00000000E+00
  4.68000000E+02  8.40000000E+01  0.00000000E+00
  4.68000000E+02  7.80000000E+01  0.00000000E+00
  4.68000000E+02  7.20000000E+01  0.00000000E+00
  4.68000000E+02  6.60000000E+01  0.00000000E+00
  4.68000000E+02  6.00000000E+01  0.00000000E+00
  4.68000000E+02  5.40000000E+01  0.00000000E+00
  4.68000000E+02  4.80000000E+01  0.00000000E+00
  4.68000000E+02  4.20000000E+01  0.00000000E+00
  4.68000000E+02  3.60000000E+01  0.00000000E+00
  4.68000000E+02  3.00000000E+01  0.00000000E+00
  4.68000000E+02  2.40000000E+01  0.00000000E+00
  4.68000000E+02  1.80000000E+01  0.00000000E+00
  4.68000000E+02  1.20000000E+01  0.00000000E+00
  4.68000000E+02  6.00000000E+00  0.00000000E+00
  4.68000000E+02 -9.99200722E-14  0.00000000E+00
  4.74000000E+02  3.00000000E+02  0.00000000E+00
  4.74000000E+02  2.94000000E+02  0.00000000E+00
  4.74000000E+02  2.88000000E+02  0.00000000E+00
  4.74000000E+02  2.82000000E+02  0.00000000E+00
  4.74000000E+02  2.76000000E+02  0.00000000E+00
  4.74000000E+02  2.70000000E+02  0.00000000E+00
  4.74000000E+02  2.64000000E+02  0.00000000E+00
  4.74000000E+02  2.58000000E+02  0.00000000E+00
  4.74000000E+02  2.52000000E+02  0.00000000E+00
  4.74000000E+02  2.46000000E+02  0.00000000E+00
  4.74000000E+02  2.40000000E+02  0.00000000E+00
  4.74000000E+02  2.34000000E+02  0.00000000E+00
  4.74000000E+02  2.28000000E+02  0.00000000E+00
  4.74000000E+02  2.22000000E+02  0.00000000E+00
  4.74000000E+02  2.16000000E+02  0.00000000E+00
  4.74000000E+02  2.10000000E+02  0.00000000E+00
  4.74000000E+02  2.04000000E+02  0.00000000E+00
  4.74000000E+02  1.98000000E+02  0.00000000E+00
  4.74000000E+02  1.92000000E+02  0.00000000E+00
  4.74000000E+02  1.86000000E+02  0.00000000E+00
  4.74000000E+02  1.80000000E+02  0.00000000E+00
  4.74000000E+02  1.74000000E+02  0.00000000E+00
  4.74000000E+02  1.68000000E+02  0.00000000E+00
  4.74000000E+02  1.62000000E+02  0.00000000E+00
  4.74000000E+02  1.56000000E+02  0.00000000E+00
  4.74000000E+02  1.50000000E+02  0.00000000E+00
  4.74000000E+02  1.44000000E+02  0.00000000E+00
  4.74000000E+02  1.38000000E+02  0.00000000E+00
  4.74000000E+02  1.32000000E+02  0.00000000E+00
  4.74000000E+02  1.26000000E+02  0.00000000E+00
  4.74000000E+02  1.20000000E+02  0.00000000E+00
  4.74000000E+02  1.14000000E+02  0.00000000E+00
  4.74000000E+02  1.08000000E+02  0.00000000E+00
  4.74000000E+02  1.02000000E+02  0.00000000E+00
  4.74000000E+02  9.60000000E+01  0.00000000E+00
  4.74000000E+02  9.00000000E+01  0.00000000E+00
  4.74000000E+02  8.40000000E+01  0.00000000E+00
  4.74000000E+02  7.80000000E+01  0.00000000E+00
  4.74000000E+02  7.20000000E+01  0.00000000E+00
  4.74000000E+02  6.60000000E+01  0.00000000E+00
  4.74000000E+02  6.00000000E+01  0.00000000E+00
  4.74000000E+02  5.40000000E+01  0.00000000E+00
  4.74000000E+02  4.80000000E+01  0.00000000E+00
  4.74000000E+02  4.20000000E+01  0.00000000E+00
  4.74000000E+02  3.60000000E+01  0.00000000E+00
  4.74000000E+02  3.00000000E+01  0.00000000E+00
  4.74000000E+02  2.40000000E+01  0.00000000E+00
  4.74000000E+02  1.80000000E+01  0.00000000E+00
  4.74000000E+02  1.20000000E+01  0.00000000E+00
  4.74000000E+02  6.00000000E+00  0.00000000E+00
  4.74000000E+02 -9.99200722E-14  0.00000000E+00
  4.80000000E+02  3.00000000E+02  0.00000000E+00
  4.80000000E+02  2.94000000E+02  0.00000000E+00
  4.80000000E+02  2.88000000E+02  0.00000000E+00
  4.80000000E+02  2.82000000E+02  0.00000000E+00
  4.80000000E+02  2.76000000E+02  0.00000000E+00
  4.80000000E+02  2.70000000E+02  0.00000000E+00
  4.80000000E+02  2.64000000E+02  0.00000000E+00
  4.80000000E+02  2.58000000E+02  0.00000000E+00
  4.80000000E+02  2.52000000E+02  0.00000000E+00
  4.80000000E+02  2.46000000E+02  0.00000000E+00
  4.80000000E+02  2.40000000E+02  0.00000000E+00
  4.80000000E+02  2.34000000E+02  0.00000000E+00
  4.80000000E+02  2.28000000E+02  0.00000000E+00
  4.80000000E+02  2.22000000E+02  0.00000000E+00
  4.80000000E+02  2.16000000E+02  0.00000000E+00
  4.80000000E+02  2.10000000E+02  0.00000000E+00
  4.80000000E+02  2.04000000E+02  0.00000000E+00
  4.80000000E+02  1.98000000E+02  0.00000000E+00
  4.80000000E+02  1.92000000E+02  0.00000000E+00
  4.80000000E+02  1.86000000E+02  0.00000000E+00
  4.80000000E+02  1.80000000E+02  0.00000000E+00
  4.80000000E+02  1.74000000E+02  0.00000000E+00
  4.80000000E+02  1.68000000E+02  0.00000000E+00
  4.80000000E+02  1.62000000E+02  0.00000000E+00
  4.80000000E+02  1.56000000E+02  0.00000000E+00
  4.80000000E+02  1.50000000E+02  0.00000000E+00
  4.80000000E+02  1.44000000E+02  0.00000000E+00
  4.80000000E+02  1.38000000E+02  0.00000000E+00
  4.80000000E+02  1.32000000E+02  0.00000000E+00
  4.80000000E+02  1.26000000E+02  0.00000000E+00
  4.80000000E+02  1.20000000E+02  0.00000000E+00
  4.80000000E+02  1.14000000E+02  0.00000000E+00
  4.80000000E+02  1.08000000E+02  0.00000000E+00
  4.80000000E+02  1.02000000E+02  0.00000000E+00
  4.80000000E+02  9.60000000E+01  0.00000000E+00
  4.80000000E+02  9.00000000E+01  0.00000000E+00
  4.80000000E+02  8.40000000E+01  0.00000000E+00
  4.80000000E+02  7.80000000E+01  0.00000000E+00
  4.80000000E+02  7.20000000E+01  0.00000000E+00
  4.80000000E+02  6.60000000E+01  0.00000000E+00
  4.80000000E+02  6.00000000E+01  0.00000000E+00
  4.80000000E+02  5.40000000E+01  0.00000000E+00
  4.80000000E+02  4.80000000E+01  0.00000000E+00
  4.80000000E+02  4.20000000E+01  0.00000000E+00
  4.80000000E+02  3.60000000E+01  0.00000000E+00
  4.80000000E+02  3.00000000E+01  0.00000000E+00
  4.80000000E+02  2.40000000E+01  0.00000000E+00
  4.80000000E+02  1.80000000E+01  0.00000000E+00
  4.80000000E+02  1.20000000E+01  0.00000000E+00
  4.80000000E+02  6.00000000E+00  0.00000000E+00
  4.80000000E+02 -9.99200722E-14  0.00000000E+00
  4.86000000E+02  3.00000000E+02  0.00000000E+00
  4.86000000E+02  2.94000000E+02  0.00000000E+00
  4.86000000E+02  2.88000000E+02  0.00000000E+00
  4.86000000E+02  2.82000000E+02  0.00000000E+00
  4.86000000E+02  2.76000000E+02  0.00000000E+00
  4.86000000E+02  2.70000000E+02  0.00000000E+00
  4.86000000E+02  2.64000000E+02  0.00000000E+00
  4.86000000E+02  2.58000000E+02  0.00000000E+00
  4.86000000E+02  2.52000000E+02  0.00000000E+00
  4.86000000E+02  2.46000000E+02  0.00000000E+00
  4.86000000E+02  2.40000000E+02  0.00000000E+00
  4.86000000E+02  2.34000000E+02  0.00000000E+00
  4.86000000E+02  2.28000000E+02  0.00000000E+00
  4.86000000E+02  2.22000000E+02  0.00000000E+00
  4.86000000E+02  2.16000000E+02  0.00000000E+00
  4.86000000E+02  2.10000000E+02  0.00000000E+00
  4.86000000E+02  2.04000000E+02  0.00000000E+00
  4.86000000E+02  1.98000000E+02  0.00000000E+00
  4.86000000E+02  1.92000000E+02  0.00000000E+00
  4.86000000E+02  1.86000000E+02  0.00000000E+00
  4.86000000E+02  1.80000000E+02  0.00000000E+00
  4.86000000E+02  1.74000000E+02  0.00000000E+00
  4.86000000E+02  1.68000000E+02  0.00000000E+00
  4.86000000E+02  1.62000000E+02  0.00000000E+00
  4.86000000E+02  1.56000000E+02  0.00000000E+00
  4.86000000E+02  1.50000000E+02  0.00000000E+00
  4.86000000E+02  1.44000000E+02  0.00000000E+00
  4.86000000E+02  1.38000000E+02  0.00000000E+00
  4.86000000E+02  1.32000000E+02  0.00000000E+00
  4.86000000E+02  1.26000000E+02  0.00000000E+00
  4.86000000E+02  1.20000000E+02  0.00000000E+00
  4.86000000E+02  1.14000000E+02  0.00000000E+00
  4.86000000E+02  1.08000000E+02  0.00000000E+00
  4.86000000E+02  1.02000000E+02  0.00000000E+00
  4.86000000E+02  9.60000000E+01  0.00000000E+00
  4.86000000E+02  9.00000000E+01  0.00000000E+00
  4.86000000E+02  8.40000000E+01  0.00000000E+00
  4.86000000E+02  7.80000000E+01  0.00000000E+00
  4.86000000E+02  7.20000000E+01  0.00000000E+00
  4.86000000E+02  6.60000000E+01  0.00000000E+00
  4.86000000E+02  6.00000000E+01  0.00000000E+00
  4.86000000E+02  5.40000000E+01  0.00000000E+00
  4.86000000E+02  4.80000000E+01  0.00000000E+00
  4.86000000E+02  4.20000000E+01  0.00000000E+00
  4.86000000E+02  3.60000000E+01  0.00000000E+00
  4.86000000E+02  3.00000000E+01  0.00000000E+00
  4.86000000E+02  2.40000000E+01  0.00000000E+00
  4.86000000E+02  1.80000000E+01  0.00000000E+00
  4.86000000E+02  1.20000000E+01  0.00000000E+00
  4.86000000E+02  6.00000000E+00  0.00000000E+00
  4.86000000E+02 -9.99200722E-14  0.00000000E+00
  4.92000000E+02  3.00000000E+02  0.00000000E+00
  4.92000000E+02  2.94000000E+02  0.00000000E+00
  4.92000000E+02  2.88000000E+02  0.00000000E+00
  4.92000000E+02  2.82000000E+02  0.00000000E+00
  4.92000000E+02  2.76000000E+02  0.00000000E+00
  4.92000000E+02  2.70000000E+02  0.00000000E+00
  4.92000000E+02  2.64000000E+02  0.00000000E+00
  4.92000000E+02  2.58000000E+02  0.00000000E+00
  4.92000000E+02  2.52000000E+02  0.00000000E+00
  4.92000000E+02  2.46000000E+02  0.00000000E+00
  4.92000000E+02  2.40000000E+02  0.00000000E+00
  4.92000000E+02  2.34000000E+02  0.00000000E+00
  4.92000000E+02  2.28000000E+02  0.00000000E+00
  4.92000000E+02  2.22000000E+02  0.00000000E+00
  4.92000000E+02  2.16000000E+02  0.00000000E+00
  4.92000000E+02  2.10000000E+02  0.00000000E+00
  4.92000000E+02  2.04000000E+02  0.00000000E+00
  4.92000000E+02  1.98000000E+02  0.00000000E+00
  4.92000000E+02  1.92000000E+02  0.00000000E+00
  4.92000000E+02  1.86000000E+02  0.00000000E+00
  4.92000000E+02  1.80000000E+02  0.00000000E+00
  4.92000000E+02  1.74000000E+02  0.00000000E+00
  4.92000000E+02  1.68000000E+02  0.00000000E+00
  4.92000000E+02  1.62000000E+02  0.00000000E+00
  4.92000000E+02  1.56000000E+02  0.00000000E+00
  4.92000000E+02  1.50000000E+02  0.00000000E+00
  4.92000000E+02  1.44000000E+02  0.00000000E+00
  4.92000000E+02  1.38000000E+02  0.00000000E+00
  4.92000000E+02  1.32000000E+02  0.00000000E+00
  4.92000000E+02  1.26000000E+02  0.00000000E+00
  4.92000000E+02  1.20000000E+02  0.00000000E+00
  4.92000000E+02  1.14000000E+02  0.00000000E+00
  4.92000000E+02  1.08000000E+02  0.00000000E+00
  4.92000000E+02  1.02000000E+02  0.00000000E+00
  4.92000000E+02  9.60000000E+01  0.00000000E+00
  4.92000000E+02  9.00000000E+01  0.00000000E+00
  4.92000000E+02  8.40000000E+01  0.00000000E+00
  4.92000000E+02  7.80000000E+01  0.00000000E+00
  4.92000000E+02  7.20000000E+01  0.00000000E+00
  4.92000000E+02  6.60000000E+01  0.00000000E+00
  4.92000000E+02  6.00000000E+01  0.00000000E+00
  4.92000000E+02  5.40000000E+01  0.00000000E+00
  4.92000000E+02  4.80000000E+01  0.00000000E+00
  4.92000000E+02  4.20000000E+01  0.00000000E+00
  4.92000000E+02  3.60000000E+01  0.00000000E+00
  4.92000000E+02  3.00000000E+01  0.00000000E+00
  4.92000000E+02  2.40000000E+01  0.00000000E+00
  4.92000000E+02  1.80000000E+01  0.00000000E+00
  4.92000000E+02  1.20000000E+01  0.00000000E+00
  4.92000000E+02  6.00000000E+00  0.00000000E+00
  4.92000000E+02 -9.99200722E-14  0.00000000E+00
  4.98000000E+02  3.00000000E+02  0.00000000E+00
  4.98000000E+02  2.94000000E+02  0.00000000E+00
  4.98000000E+02  2.88000000E+02  0.00000000E+00
  4.98000000E+02  2.82000000E+02  0.00000000E+00
  4.98000000E+02  2.76000000E+02  0.00000000E+00
  4.98000000E+02  2.70000000E+02  0.00000000E+00
  4.98000000E+02  2.64000000E+02  0.00000000E+00
  4.98000000E+02  2.58000000E+02  0.00000000E+00
  4.98000000E+02  2.52000000E+02  0.00000000E+00
  4.98000000E+02  2.46000000E+02  0.00000000E+00
  4.98000000E+02  2.40000000E+02  0.00000000E+00
  4.98000000E+02  2.34000000E+02  0.00000000E+00
  4.98000000E+02  2.28000000E+02  0.00000000E+00
  4.98000000E+02  2.22000000E+02  0.00000000E+00
  4.98000000E+02  2.16000000E+02  0.00000000E+00
  4.98000000E+02  2.10000000E+02  0.00000000E+00
  4.98000000E+02  2.04000000E+02  0.00000000E+00
  4.98000000E+02  1.98000000E+02  0.00000000E+00
  4.98000000E+02  1.92000000E+02  0.00000000E+00
  4.98000000E+02  1.86000000E+02  0.00000000E+00
  4.98000000E+02  1.80000000E+02  0.00000000E+00
  4.98000000E+02  1.74000000E+02  0.00000000E+00
  4.98000000E+02  1.68000000E+02  0.00000000E+00
  4.98000000E+02  1.62000000E+02  0.00000000E+00
  4.98000000E+02  1.56000000E+02  0.00000000E+00
  4.98000000E+02  1.50000000E+02  0.00000000E+00
  4.98000000E+02  1.44000000E+02  0.00000000E+00
  4.98000000E+02  1.38000000E+02  0.00000000E+00
  4.98000000E+02  1.32000000E+02  0.00000000E+00
  4.98000000E+02  1.26000000E+02  0.00000000E+00
  4.98000000E+02  1.20000000E+02  0.00000000E+00
  4.98000000E+02  1.14000000E+02  0.00000000E+00
  4.98000000E+02  1.08000000E+02  0.00000000E+00
  4.98000000E+02  1.02000000E+02  0.00000000E+00
  4.98000000E+02  9.60000000E+01  0.00000000E+00
  4.98000000E+02  9.00000000E+01  0.00000000E+00
  4.98000000E+02  8.40000000E+01  0.00000000E+00
  4.98000000E+02  7.80000000E+01  0.00000000E+00
  4.98000000E+02  7.20000000E+01  0.00000000E+00
  4.98000000E+02  6.60000000E+01  0.00000000E+00
  4.98000000E+02  6.00000000E+01  0.00000000E+00
  4.98000000E+02  5.40000000E+01  0.00000000E+00
  4.98000000E+02  4.80000000E+01  0.00000000E+00
  4.98000000E+02  4.20000000E+01  0.00000000E+00
  4.98000000E+02  3.60000000E+01  0.00000000E+00
  4.98000000E+02  3.00000000E+01  0.00000000E+00
  4.98000000E+02  2.40000000E+01  0.00000000E+00
  4.98000000E+02  1.80000000E+01  0.00000000E+00
  4.98000000E+02  1.20000000E+01  0.00000000E+00
  4.98000000E+02  6.00000000E+00  0.00000000E+00
  4.98000000E+02 -9.99200722E-14  0.00000000E+00
  5.04000000E+02  3.00000000E+02  0.00000000E+00
  5.04000000E+02  2.94000000E+02  0.00000000E+00
  5.04000000E+02  2.88000000E+02  0.00000000E+00
  5.04000000E+02  2.82000000E+02  0.00000000E+00
  5.04000000E+02  2.76000000E+02  0.00000000E+00
  5.04000000E+02  2.70000000E+02  0.00000000E+00
  5.04000000E+02  2.64000000E+02  0.00000000E+00
  5.04000000E+02  2.58000000E+02  0.00000000E+00
  5.04000000E+02  2.52000000E+02  0.00000000E+00
  5.04000000E+02  2.46000000E+02  0.00000000E+00
  5.04000000E+02  2.40000000E+02  0.00000000E+00
  5.04000000E+02  2.34000000E+02  0.00000000E+00
  5.04000000E+02  2.28000000E+02  0.00000000E+00
  5.04000000E+02  2.22000000E+02  0.00000000E+00
  5.04000000E+02  2.16000000E+02  0.00000000E+00
  5.04000000E+02  2.10000000E+02  0.00000000E+00
  5.04000000E+02  2.04000000E+02  0.00000000E+00
  5.04000000E+02  1.98000000E+02  0.00000000E+00
  5.04000000E+02  1.92000000E+02  0.00000000E+00
  5.04000000E+02  1.86000000E+02  0.00000000E+00
  5.04000000E+02  1.80000000E+02  0.00000000E+00
  5.04000000E+02  1.74000000E+02  0.00000000E+00
  5.04000000E+02  1.68000000E+02  0.00000000E+00
  5.04000000E+02  1.62000000E+02  0.00000000E+00
  5.04000000E+02  1.56000000E+02  0.00000000E+00
  5.04000000E+02  1.50000000E+02  0.00000000E+00
  5.04000000E+02  1.44000000E+02  0.00000000E+00
  5.04000000E+02  1.38000000E+02  0.00000000E+00
  5.04000000E+02  1.32000000E+02  0.00000000E+00
  5.04000000E+02  1.26000000E+02  0.00000000E+00
  5.04000000E+02  1.20000000E+02  0.00000000E+00
  5.04000000E+02  1.14000000E+02  0.00000000E+00
  5.04000000E+02  1.08000000E+02  0.00000000E+00
  5.04000000E+02  1.02000000E+02  0.00000000E+00
  5.04000000E+02  9.60000000E+01  0.00000000E+00
  5.04000000E+02  9.00000000E+01  0.00000000E+00
  5.04000000E+02  8.40000000E+01  0.00000000E+00
  5.04000000E+02  7.80000000E+01  0.00000000E+00
  5.04000000E+02  7.20000000E+01  0.00000000E+00
  5.04000000E+02  6.60000000E+01  0.00000000E+00
  5.04000000E+02  6.00000000E+01  0.00000000E+00
  5.04000000E+02  5.40000000E+01  0.00000000E+00
  5.04000000E+02  4.80000000E+01  0.00000000E+00
  5.04000000E+02  4.20000000E+01  0.00000000E+00
  5.04000000E+02  3.60000000E+01  0.00000000E+00
  5.04000000E+02  3.00000000E+01  0.00000000E+00
  5.04000000E+02  2.40000000E+01  0.00000000E+00
  5.04000000E+02  1.80000000E+01  0.00000000E+00
  5.04000000E+02  1.20000000E+01  0.00000000E+00
  5.04000000E+02  6.00000000E+00  0.00000000E+00
  5.04000000E+02 -9.99200722E-14  0.00000000E+00
  5.10000000E+02  3.00000000E+02  0.00000000E+00
  5.10000000E+02  2.94000000E+02  0.00000000E+00
  5.10000000E+02  2.88000000E+02  0.00000000E+00
  5.10000000E+02  2.82000000E+02  0.00000000E+00
  5.10000000E+02  2.76000000E+02  0.00000000E+00
  5.10000000E+02  2.70000000E+02  0.00000000E+00
  5.10000000E+02  2.64000000E+02  0.00000000E+00
  5.10000000E+02  2.58000000E+02  0.00000000E+00
  5.10000000E+02  2.52000000E+02  0.00000000E+00
  5.10000000E+02  2.46000000E+02  0.00000000E+00
  5.10000000E+02  2.40000000E+02  0.00000000E+00
  5.10000000E+02  2.34000000E+02  0.00000000E+00
  5.10000000E+02  2.28000000E+02  0.00000000E+00
  5.10000000E+02  2.22000000E+02  0.00000000E+00
  5.10000000E+02  2.16000000E+02  0.00000000E+00
  5.10000000E+02  2.10000000E+02  0.00000000E+00
  5.10000000E+02  2.04000000E+02  0.00000000E+00
  5.10000000E+02  1.98000000E+02  0.00000000E+00
  5.10000000E+02  1.92000000E+02  0.00000000E+00
  5.10000000E+02  1.86000000E+02  0.00000000E+00
  5.10000000E+02  1.80000000E+02  0.00000000E+00
  5.10000000E+02  1.74000000E+02  0.00000000E+00
  5.10000000E+02  1.68000000E+02  0.00000000E+00
  5.10000000E+02  1.62000000E+02  0.00000000E+00
  5.10000000E+02  1.56000000E+02  0.00000000E+00
  5.10000000E+02  1.50000000E+02  0.00000000E+00
  5.10000000E+02  1.44000000E+02  0.00000000E+00
  5.10000000E+02  1.38000000E+02  0.00000000E+00
  5.10000000E+02  1.32000000E+02  0.00000000E+00
  5.10000000E+02  1.26000000E+02  0.00000000E+00
  5.10000000E+02  1.20000000E+02  0.00000000E+00
  5.10000000E+02  1.14000000E+02  0.00000000E+00
  5.10000000E+02  1.08000000E+02  0.00000000E+00
  5.10000000E+02  1.02000000E+02  0.00000000E+00
  5.10000000E+02  9.60000000E+01  0.00000000E+00
  5.10000000E+02  9.00000000E+01  0.00000000E+00
  5.10000000E+02  8.40000000E+01  0.00000000E+00
  5.10000000E+02  7.80000000E+01  0.00000000E+00
  5.10000000E+02  7.20000000E+01  0.00000000E+00
  5.10000000E+02  6.60000000E+01  0.00000000E+00
  5.10000000E+02  6.00000000E+01  0.00000000E+00
  5.10000000E+02  5.40000000E+01  0.00000000E+00
  5.10000000E+02  4.80000000E+01  0.00000000E+00
  5.10000000E+02  4.20000000E+01  0.00000000E+00
  5.10000000E+02  3.60000000E+01  0.00000000E+00
  5.10000000E+02  3.00000000E+01  0.00000000E+00
  5.10000000E+02  2.40000000E+01  0.00000000E+00
  5.10000000E+02  1.80000000E+01  0.00000000E+00
  5.10000000E+02  1.20000000E+01  0.00000000E+00
  5.10000000E+02  6.00000000E+00  0.00000000E+00
  5.10000000E+02 -9.99200722E-14  0.00000000E+00
  5.16000000E+02  3.00000000E+02  0.00000000E+00
  5.16000000E+02  2.94000000E+02  0.00000000E+00
  5.16000000E+02  2.88000000E+02  0.00000000E+00
  5.16000000E+02  2.82000000E+02  0.00000000E+00
  5.16000000E+02  2.76000000E+02  0.00000000E+00
  5.16000000E+02  2.70000000E+02  0.00000000E+00
  5.16000000E+02  2.64000000E+02  0.00000000E+00
  5.16000000E+02  2.58000000E+02  0.00000000E+00
  5.16000000E+02  2.52000000E+02  0.00000000E+00
  5.16000000E+02  2.46000000E+02  0.00000000E+00
  5.16000000E+02  2.40000000E+02  0.00000000E+00
  5.16000000E+02  2.34000000E+02  0.00000000E+00
  5.16000000E+02  2.28000000E+02  0.00000000E+00
  5.16000000E+02  2.22000000E+02  0.00000000E+00
  5.16000000E+02  2.16000000E+02  0.00000000E+00
  5.16000000E+02  2.10000000E+02  0.00000000E+00
  5.16000000E+02  2.04000000E+02  0.00000000E+00
  5.16000000E+02  1.98000000E+02  0.00000000E+00
  5.16000000E+02  1.92000000E+02  0.00000000E+00
  5.16000000E+02  1.86000000E+02  0.00000000E+00
  5.16000000E+02  1.80000000E+02  0.00000000E+00
  5.16000000E+02  1.74000000E+02  0.00000000E+00
  5.16000000E+02  1.68000000E+02  0.00000000E+00
  5.16000000E+02  1.62000000E+02  0.00000000E+00
  5.16000000E+02  1.56000000E+02  0.00000000E+00
  5.16000000E+02  1.50000000E+02  0.00000000E+00
  5.16000000E+02  1.44000000E+02  0.00000000E+00
  5.16000000E+02  1.38000000E+02  0.00000000E+00
  5.16000000E+02  1.32000000E+02  0.00000000E+00
  5.16000000E+02  1.26000000E+02  0.00000000E+00
  5.16000000E+02  1.20000000E+02  0.00000000E+00
  5.16000000E+02  1.14000000E+02  0.00000000E+00
  5.16000000E+02  1.08000000E+02  0.00000000E+00
  5.16000000E+02  1.02000000E+02  0.00000000E+00
  5.16000000E+02  9.60000000E+01  0.00000000E+00
  5.16000000E+02  9.00000000E+01  0.00000000E+00
  5.16000000E+02  8.40000000E+01  0.00000000E+00
  5.16000000E+02  7.80000000E+01  0.00000000E+00
  5.16000000E+02  7.20000000E+01  0.00000000E+00
  5.16000000E+02  6.60000000E+01  0.00000000E+00
  5.16000000E+02  6.00000000E+01  0.00000000E+00
  5.16000000E+02  5.40000000E+01  0.00000000E+00
  5.16000000E+02  4.80000000E+01  0.00000000E+00
  5.16000000E+02  4.20000000E+01  0.00000000E+00
  5.16000000E+02  3.60000000E+01  0.00000000E+00
  5.16000000E+02  3.00000000E+01  0.00000000E+00
  5.16000000E+02  2.40000000E+01  0.00000000E+00
  5.16000000E+02  1.80000000E+01  0.00000000E+00
  5.16000000E+02  1.20000000E+01  0.00000000E+00
  5.16000000E+02  6.00000000E+00  0.00000000E+00
  5.16000000E+02 -9.99200722E-14  0.00000000E+00
  5.22000000E+02  3.00000000E+02  0.00000000E+00
  5.22000000E+02  2.94000000E+02  0.00000000E+00
  5.22000000E+02  2.88000000E+02  0.00000000E+00
  5.22000000E+02  2.82000000E+02  0.00000000E+00
  5.22000000E+02  2.76000000E+02  0.00000000E+00
  5.22000000E+02  2.70000000E+02  0.00000000E+00
  5.22000000E+02  2.64000000E+02  0.00000000E+00
  5.22000000E+02  2.58000000E+02  0.00000000E+00
  5.22000000E+02  2.52000000E+02  0.00000000E+00
  5.22000000E+02  2.46000000E+02  0.00000000E+00
  5.22000000E+02  2.40000000E+02  0.00000000E+00
  5.22000000E+02  2.34000000E+02  0.00000000E+00
  5.22000000E+02  2.28000000E+02  0.00000000E+00
  5.22000000E+02  2.22000000E+02  0.00000000E+00
  5.22000000E+02  2.16000000E+02  0.00000000E+00
  5.22000000E+02  2.10000000E+02  0.00000000E+00
  5.22000000E+02  2.04000000E+02  0.00000000E+00
  5.22000000E+02  1.98000000E+02  0.00000000E+00
  5.22000000E+02  1.92000000E+02  0.00000000E+00
  5.22000000E+02  1.86000000E+02  0.00000000E+00
  5.22000000E+02  1.80000000E+02  0.00000000E+00
  5.22000000E+02  1.74000000E+02  0.00000000E+00
  5.22000000E+02  1.68000000E+02  0.00000000E+00
  5.22000000E+02  1.62000000E+02  0.00000000E+00
  5.22000000E+02  1.56000000E+02  0.00000000E+00
  5.22000000E+02  1.50000000E+02  0.00000000E+00
  5.22000000E+02  1.44000000E+02  0.00000000E+00
  5.22000000E+02  1.38000000E+02  0.00000000E+00
  5.22000000E+02  1.32000000E+02  0.00000000E+00
  5.22000000E+02  1.26000000E+02  0.00000000E+00
  5.22000000E+02  1.20000000E+02  0.00000000E+00
  5.22000000E+02  1.14000000E+02  0.00000000E+00
  5.22000000E+02  1.08000000E+02  0.00000000E+00
  5.22000000E+02  1.02000000E+02  0.00000000E+00
  5.22000000E+02  9.60000000E+01  0.00000000E+00
  5.22000000E+02  9.00000000E+01  0.00000000E+00
  5.22000000E+02  8.40000000E+01  0.00000000E+00
  5.22000000E+02  7.80000000E+01  0.00000000E+00
  5.22000000E+02  7.20000000E+01  0.00000000E+00
  5.22000000E+02  6.60000000E+01  0.00000000E+00
  5.22000000E+02  6.00000000E+01  0.00000000E+00
  5.22000000E+02  5.40000000E+01  0.00000000E+00
  5.22000000E+02  4.80000000E+01  0.00000000E+00
  5.22000000E+02  4.20000000E+01  0.00000000E+00
  5.22000000E+02  3.60000000E+01  0.00000000E+00
  5.22000000E+02  3.00000000E+01  0.00000000E+00
  5.22000000E+02  2.40000000E+01  0.00000000E+00
  5.22000000E+02  1.80000000E+01  0.00000000E+00
  5.22000000E+02  1.20000000E+01  0.00000000E+00
  5.22000000E+02  6.00000000E+00  0.00000000E+00
  5.22000000E+02 -9.99200722E-14  0.00000000E+00
  5.28000000E+02  3.00000000E+02  0.00000000E+00
  5.28000000E+02  2.94000000E+02  0.00000000E+00
  5.28000000E+02  2.88000000E+02  0.00000000E+00
  5.28000000E+02  2.82000000E+02  0.00000000E+00
  5.28000000E+02  2.76000000E+02  0.00000000E+00
  5.28000000E+02  2.70000000E+02  0.00000000E+00
  5.28000000E+02  2.64000000E+02  0.00000000E+00
  5.28000000E+02  2.58000000E+02  0.00000000E+00
  5.28000000E+02  2.52000000E+02  0.00000000E+00
  5.28000000E+02  2.46000000E+02  0.00000000E+00
  5.28000000E+02  2.40000000E+02  0.00000000E+00
  5.28000000E+02  2.34000000E+02  0.00000000E+00
  5.28000000E+02  2.28000000E+02  0.00000000E+00
  5.28000000E+02  2.22000000E+02  0.00000000E+00
  5.28000000E+02  2.16000000E+02  0.00000000E+00
  5.28000000E+02  2.10000000E+02  0.00000000E+00
  5.28000000E+02  2.04000000E+02  0.00000000E+00
  5.28000000E+02  1.98000000E+02  0.00000000E+00
  5.28000000E+02  1.92000000E+02  0.00000000E+00
  5.28000000E+02  1.86000000E+02  0.00000000E+00
  5.28000000E+02  1.80000000E+02  0.00000000E+00
  5.28000000E+02  1.74000000E+02  0.00000000E+00
  5.28000000E+02  1.68000000E+02  0.00000000E+00
  5.28000000E+02  1.62000000E+02  0.00000000E+00
  5.28000000E+02  1.56000000E+02  0.00000000E+00
  5.28000000E+02  1.50000000E+02  0.00000000E+00
  5.28000000E+02  1.44000000E+02  0.00000000E+00
  5.28000000E+02  1.38000000E+02  0.00000000E+00
  5.28000000E+02  1.32000000E+02  0.00000000E+00
  5.28000000E+02  1.26000000E+02  0.00000000E+00
  5.28000000E+02  1.20000000E+02  0.00000000E+00
  5.28000000E+02  1.14000000E+02  0.00000000E+00
  5.28000000E+02  1.08000000E+02  0.00000000E+00
  5.28000000E+02  1.02000000E+02  0.00000000E+00
  5.28000000E+02  9.60000000E+01  0.00000000E+00
  5.28000000E+02  9.00000000E+01  0.00000000E+00
  5.28000000E+02  8.40000000E+01  0.00000000E+00
  5.28000000E+02  7.80000000E+01  0.00000000E+00
  5.28000000E+02  7.20000000E+01  0.00000000E+00
  5.28000000E+02  6.60000000E+01  0.00000000E+00
  5.28000000E+02  6.00000000E+01  0.00000000E+00
  5.28000000E+02  5.40000000E+01  0.00000000E+00
  5.28000000E+02  4.80000000E+01  0.00000000E+00
  5.28000000E+02  4.20000000E+01  0.00000000E+00
  5.28000000E+02  3.60000000E+01  0.00000000E+00
  5.28000000E+02  3.00000000E+01  0.00000000E+00
  5.28000000E+02  2.40000000E+01  0.00000000E+00
  5.28000000E+02  1.80000000E+01  0.00000000E+00
  5.28000000E+02  1.20000000E+01  0.00000000E+00
  5.28000000E+02  6.00000000E+00  0.00000000E+00
  5.28000000E+02 -9.99200722E-14  0.00000000E+00
  5.34000000E+02  3.00000000E+02  0.00000000E+00
  5.34000000E+02  2.94000000E+02  0.00000000E+00
  5.34000000E+02  2.88000000E+02  0.00000000E+00
  5.34000000E+02  2.82000000E+02  0.00000000E+00
  5.34000000E+02  2.76000000E+02  0.00000000E+00
  5.34000000E+02  2.70000000E+02  0.00000000E+00
  5.34000000E+02  2.64000000E+02  0.00000000E+00
  5.34000000E+02  2.58000000E+02  0.00000000E+00
  5.34000000E+02  2.52000000E+02  0.00000000E+00
  5.34000000E+02  2.46000000E+02  0.00000000E+00
  5.34000000E+02  2.40000000E+02  0.00000000E+00
  5.34000000E+02  2.34000000E+02  0.00000000E+00
  5.34000000E+02  2.28000000E+02  0.00000000E+00
  5.34000000E+02  2.22000000E+02  0.00000000E+00
  5.34000000E+02  2.16000000E+02  0.00000000E+00
  5.34000000E+02  2.10000000E+02  0.00000000E+00
  5.34000000E+02  2.04000000E+02  0.00000000E+00
  5.34000000E+02  1.98000000E+02  0.00000000E+00
  5.34000000E+02  1.92000000E+02  0.00000000E+00
  5.34000000E+02  1.86000000E+02  0.00000000E+00
  5.34000000E+02  1.80000000E+02  0.00000000E+00
  5.34000000E+02  1.74000000E+02  0.00000000E+00
  5.34000000E+02  1.68000000E+02  0.00000000E+00
  5.34000000E+02  1.62000000E+02  0.00000000E+00
  5.34000000E+02  1.56000000E+02  0.00000000E+00
  5.34000000E+02  1.50000000E+02  0.00000000E+00
  5.34000000E+02  1.44000000E+02  0.00000000E+00
  5.34000000E+02  1.38000000E+02  0.00000000E+00
  5.34000000E+02  1.32000000E+02  0.00000000E+00
  5.34000000E+02  1.26000000E+02  0.00000000E+00
  5.34000000E+02  1.20000000E+02  0.00000000E+00
  5.34000000E+02  1.14000000E+02  0.00000000E+00
  5.34000000E+02  1.08000000E+02  0.00000000E+00
  5.34000000E+02  1.02000000E+02  0.00000000E+00
  5.34000000E+02  9.60000000E+01  0.00000000E+00
  5.34000000E+02  9.00000000E+01  0.00000000E+00
  5.34000000E+02  8.40000000E+01  0.00000000E+00
  5.34000000E+02  7.80000000E+01  0.00000000E+00
  5.34000000E+02  7.20000000E+01  0.00000000E+00
  5.34000000E+02  6.60000000E+01  0.00000000E+00
  5.34000000E+02  6.00000000E+01  0.00000000E+00
  5.34000000E+02  5.40000000E+01  0.00000000E+00
  5.34000000E+02  4.80000000E+01  0.00000000E+00
  5.34000000E+02  4.20000000E+01  0.00000000E+00
  5.34000000E+02  3.60000000E+01  0.00000000E+00
  5.34000000E+02  3.00000000E+01  0.00000000E+00
  5.34000000E+02  2.40000000E+01  0.00000000E+00
  5.34000000E+02  1.80000000E+01  0.00000000E+00
  5.34000000E+02  1.20000000E+01  0.00000000E+00
  5.34000000E+02  6.00000000E+00  0.00000000E+00
  5.34000000E+02 -9.99200722E-14  0.00000000E+00
  5.40000000E+02  3.00000000E+02  0.00000000E+00
  5.40000000E+02  2.94000000E+02  0.00000000E+00
  5.40000000E+02  2.88000000E+02  0.00000000E+00
  5.40000000E+02  2.82000000E+02  0.00000000E+00
  5.40000000E+02  2.76000000E+02  0.00000000E+00
  5.40000000E+02  2.70000000E+02  0.00000000E+00
  5.40000000E+02  2.64000000E+02  0.00000000E+00
  5.40000000E+02  2.58000000E+02  0.00000000E+00
  5.40000000E+02  2.52000000E+02  0.00000000E+00
  5.40000000E+02  2.46000000E+02  0.00000000E+00
  5.40000000E+02  2.40000000E+02  0.00000000E+00
  5.40000000E+02  2.34000000E+02  0.00000000E+00
  5.40000000E+02  2.28000000E+02  0.00000000E+00
  5.40000000E+02  2.22000000E+02  0.00000000E+00
  5.40000000E+02  2.16000000E+02  0.00000000E+00
  5.40000000E+02  2.10000000E+02  0.00000000E+00
  5.40000000E+02  2.04000000E+02  0.00000000E+00
  5.40000000E+02  1.98000000E+02  0.00000000E+00
  5.40000000E+02  1.92000000E+02  0.00000000E+00
  5.40000000E+02  1.86000000E+02  0.00000000E+00
  5.40000000E+02  1.80000000E+02  0.00000000E+00
  5.40000000E+02  1.74000000E+02  0.00000000E+00
  5.40000000E+02  1.68000000E+02  0.00000000E+00
  5.40000000E+02  1.62000000E+02  0.00000000E+00
  5.40000000E+02  1.56000000E+02  0.00000000E+00
  5.40000000E+02  1.50000000E+02  0.00000000E+00
  5.40000000E+02  1.44000000E+02  0.00000000E+00
  5.40000000E+02  1.38000000E+02  0.00000000E+00
  5.40000000E+02  1.32000000E+02  0.00000000E+00
  5.40000000E+02  1.26000000E+02  0.00000000E+00
  5.40000000E+02  1.20000000E+02  0.00000000E+00
  5.40000000E+02  1.14000000E+02  0.00000000E+00
  5.40000000E+02  1.08000000E+02  0.00000000E+00
  5.40000000E+02  1.02000000E+02  0.00000000E+00
  5.40000000E+02  9.60000000E+01  0.00000000E+00
  5.40000000E+02  9.00000000E+01  0.00000000E+00
  5.40000000E+02  8.40000000E+01  0.00000000E+00
  5.40000000E+02  7.80000000E+01  0.00000000E+00
  5.40000000E+02  7.20000000E+01  0.00000000E+00
  5.40000000E+02  6.60000000E+01  0.00000000E+00
  5.40000000E+02  6.00000000E+01  0.00000000E+00
  5.40000000E+02  5.40000000E+01  0.00000000E+00
  5.40000000E+02  4.80000000E+01  0.00000000E+00
  5.40000000E+02  4.20000000E+01  0.00000000E+00
  5.40000000E+02  3.60000000E+01  0.00000000E+00
  5.40000000E+02  3.00000000E+01  0.00000000E+00
  5.40000000E+02  2.40000000E+01  0.00000000E+00
  5.40000000E+02  1.80000000E+01  0.00000000E+00
  5.40000000E+02  1.20000000E+01  0.00000000E+00
  5.40000000E+02  6.00000000E+00  0.00000000E+00
  5.40000000E+02 -9.99200722E-14  0.00000000E+00
  5.46000000E+02  3.00000000E+02  0.00000000E+00
  5.46000000E+02  2.94000000E+02  0.00000000E+00
  5.46000000E+02  2.88000000E+02  0.00000000E+00
  5.46000000E+02  2.82000000E+02  0.00000000E+00
  5.46000000E+02  2.76000000E+02  0.00000000E+00
  5.46000000E+02  2.70000000E+02  0.00000000E+00
  5.46000000E+02  2.64000000E+02  0.00000000E+00
  5.46000000E+02  2.58000000E+02  0.00000000E+00
  5.46000000E+02  2.52000000E+02  0.00000000E+00
  5.46000000E+02  2.46000000E+02  0.00000000E+00
  5.46000000E+02  2.40000000E+02  0.00000000E+00
  5.46000000E+02  2.34000000E+02  0.00000000E+00
  5.46000000E+02  2.28000000E+02  0.00000000E+00
  5.46000000E+02  2.22000000E+02  0.00000000E+00
  5.46000000E+02  2.16000000E+02  0.00000000E+00
  5.46000000E+02  2.10000000E+02  0.00000000E+00
  5.46000000E+02  2.04000000E+02  0.00000000E+00
  5.46000000E+02  1.98000000E+02  0.00000000E+00
  5.46000000E+02  1.92000000E+02  0.00000000E+00
  5.46000000E+02  1.86000000E+02  0.00000000E+00
  5.46000000E+02  1.80000000E+02  0.00000000E+00
  5.46000000E+02  1.74000000E+02  0.00000000E+00
  5.46000000E+02  1.68000000E+02  0.00000000E+00
  5.46000000E+02  1.62000000E+02  0.00000000E+00
  5.46000000E+02  1.56000000E+02  0.00000000E+00
  5.46000000E+02  1.50000000E+02  0.00000000E+00
  5.46000000E+02  1.44000000E+02  0.00000000E+00
  5.46000000E+02  1.38000000E+02  0.00000000E+00
  5.46000000E+02  1.32000000E+02  0.00000000E+00
  5.46000000E+02  1.26000000E+02  0.00000000E+00
  5.46000000E+02  1.20000000E+02  0.00000000E+00
  5.46000000E+02  1.14000000E+02  0.00000000E+00
  5.46000000E+02  1.08000000E+02  0.00000000E+00
  5.46000000E+02  1.02000000E+02  0.00000000E+00
  5.46000000E+02  9.60000000E+01  0.00000000E+00
  5.46000000E+02  9.00000000E+01  0.00000000E+00
  5.46000000E+02  8.40000000E+01  0.00000000E+00
  5.46000000E+02  7.80000000E+01  0.00000000E+00
  5.46000000E+02  7.20000000E+01  0.00000000E+00
  5.46000000E+02  6.60000000E+01  0.00000000E+00
  5.46000000E+02  6.00000000E+01  0.00000000E+00
  5.46000000E+02  5.40000000E+01  0.00000000E+00
  5.46000000E+02  4.80000000E+01  0.00000000E+00
  5.46000000E+02  4.20000000E+01  0.00000000E+00
  5.46000000E+02  3.60000000E+01  0.00000000E+00
  5.46000000E+02  3.00000000E+01  0.00000000E+00
  5.46000000E+02  2.40000000E+01  0.00000000E+00
  5.46000000E+02  1.80000000E+01  0.00000000E+00
  5.46000000E+02  1.20000000E+01  0.00000000E+00
  5.46000000E+02  6.00000000E+00  0.00000000E+00
  5.46000000E+02 -9.99200722E-14  0.00000000E+00
  5.52000000E+02  3.00000000E+02  0.00000000E+00
  5.52000000E+02  2.94000000E+02  0.00000000E+00
  5.52000000E+02  2.88000000E+02  0.00000000E+00
  5.52000000E+02  2.82000000E+02  0.00000000E+00
  5.52000000E+02  2.76000000E+02  0.00000000E+00
  5.52000000E+02  2.70000000E+02  0.00000000E+00
  5.52000000E+02  2.64000000E+02  0.00000000E+00
  5.52000000E+02  2.58000000E+02  0.00000000E+00
  5.52000000E+02  2.52000000E+02  0.00000000E+00
  5.52000000E+02  2.46000000E+02  0.00000000E+00
  5.52000000E+02  2.40000000E+02  0.00000000E+00
  5.52000000E+02  2.34000000E+02  0.00000000E+00
  5.52000000E+02  2.28000000E+02  0.00000000E+00
  5.52000000E+02  2.22000000E+02  0.00000000E+00
  5.52000000E+02  2.16000000E+02  0.00000000E+00
  5.52000000E+02  2.10000000E+02  0.00000000E+00
  5.52000000E+02  2.04000000E+02  0.00000000E+00
  5.52000000E+02  1.98000000E+02  0.00000000E+00
  5.52000000E+02  1.92000000E+02  0.00000000E+00
  5.52000000E+02  1.86000000E+02  0.00000000E+00
  5.52000000E+02  1.80000000E+02  0.00000000E+00
  5.52000000E+02  1.74000000E+02  0.00000000E+00
  5.52000000E+02  1.68000000E+02  0.00000000E+00
  5.52000000E+02  1.62000000E+02  0.00000000E+00
  5.52000000E+02  1.56000000E+02  0.00000000E+00
  5.52000000E+02  1.50000000E+02  0.00000000E+00
  5.52000000E+02  1.44000000E+02  0.00000000E+00
  5.52000000E+02  1.38000000E+02  0.00000000E+00
  5.52000000E+02  1.32000000E+02  0.00000000E+00
  5.52000000E+02  1.26000000E+02  0.00000000E+00
  5.52000000E+02  1.20000000E+02  0.00000000E+00
  5.52000000E+02  1.14000000E+02  0.00000000E+00
  5.52000000E+02  1.08000000E+02  0.00000000E+00
  5.52000000E+02  1.02000000E+02  0.00000000E+00
  5.52000000E+02  9.60000000E+01  0.00000000E+00
  5.52000000E+02  9.00000000E+01  0.00000000E+00
  5.52000000E+02  8.40000000E+01  0.00000000E+00
  5.52000000E+02  7.80000000E+01  0.00000000E+00
  5.52000000E+02  7.20000000E+01  0.00000000E+00
  5.52000000E+02  6.60000000E+01  0.00000000E+00
  5.52000000E+02  6.00000000E+01  0.00000000E+00
  5.52000000E+02  5.40000000E+01  0.00000000E+00
  5.52000000E+02  4.80000000E+01  0.00000000E+00
  5.52000000E+02  4.20000000E+01  0.00000000E+00
  5.52000000E+02  3.60000000E+01  0.00000000E+00
  5.52000000E+02  3.00000000E+01  0.00000000E+00
  5.52000000E+02  2.40000000E+01  0.00000000E+00
  5.52000000E+02  1.80000000E+01  0.00000000E+00
  5.52000000E+02  1.20000000E+01  0.00000000E+00
  5.52000000E+02  6.00000000E+00  0.00000000E+00
  5.52000000E+02 -9.99200722E-14  0.00000000E+00
  5.58000000E+02  3.00000000E+02  0.00000000E+00
  5.58000000E+02  2.94000000E+02  0.00000000E+00
  5.58000000E+02  2.88000000E+02  0.00000000E+00
  5.58000000E+02  2.82000000E+02  0.00000000E+00
  5.58000000E+02  2.76000000E+02  0.00000000E+00
  5.58000000E+02  2.70000000E+02  0.00000000E+00
  5.58000000E+02  2.64000000E+02  0.00000000E+00
  5.58000000E+02  2.58000000E+02  0.00000000E+00
  5.58000000E+02  2.52000000E+02  0.00000000E+00
  5.58000000E+02  2.46000000E+02  0.00000000E+00
  5.58000000E+02  2.40000000E+02  0.00000000E+00
  5.58000000E+02  2.34000000E+02  0.00000000E+00
  5.58000000E+02  2.28000000E+02  0.00000000E+00
  5.58000000E+02  2.22000000E+02  0.00000000E+00
  5.58000000E+02  2.16000000E+02  0.00000000E+00
  5.58000000E+02  2.10000000E+02  0.00000000E+00
  5.58000000E+02  2.04000000E+02  0.00000000E+00
  5.58000000E+02  1.98000000E+02  0.00000000E+00
  5.58000000E+02  1.92000000E+02  0.00000000E+00
  5.58000000E+02  1.86000000E+02  0.00000000E+00
  5.58000000E+02  1.80000000E+02  0.00000000E+00
  5.58000000E+02  1.74000000E+02  0.00000000E+00
  5.58000000E+02  1.68000000E+02  0.00000000E+00
  5.58000000E+02  1.62000000E+02  0.00000000E+00
  5.58000000E+02  1.56000000E+02  0.00000000E+00
  5.58000000E+02  1.50000000E+02  0.00000000E+00
  5.58000000E+02  1.44000000E+02  0.00000000E+00
  5.58000000E+02  1.38000000E+02  0.00000000E+00
  5.58000000E+02  1.32000000E+02  0.00000000E+00
  5.58000000E+02  1.26000000E+02  0.00000000E+00
  5.58000000E+02  1.20000000E+02  0.00000000E+00
  5.58000000E+02  1.14000000E+02  0.00000000E+00
  5.58000000E+02  1.08000000E+02  0.00000000E+00
  5.58000000E+02  1.02000000E+02  0.00000000E+00
  5.58000000E+02  9.60000000E+01  0.00000000E+00
  5.58000000E+02  9.00000000E+01  0.00000000E+00
  5.58000000E+02  8.40000000E+01  0.00000000E+00
  5.58000000E+02  7.80000000E+01  0.00000000E+00
  5.58000000E+02  7.20000000E+01  0.00000000E+00
  5.58000000E+02  6.60000000E+01  0.00000000E+00
  5.58000000E+02  6.00000000E+01  0.00000000E+00
  5.58000000E+02  5.40000000E+01  0.00000000E+00
  5.58000000E+02  4.80000000E+01  0.00000000E+00
  5.58000000E+02  4.20000000E+01  0.00000000E+00
  5.58000000E+02  3.60000000E+01  0.00000000E+00
  5.58000000E+02  3.00000000E+01  0.00000000E+00
  5.58000000E+02  2.40000000E+01  0.00000000E+00
  5.58000000E+02  1.80000000E+01  0.00000000E+00
  5.58000000E+02  1.20000000E+01  0.00000000E+00
  5.58000000E+02  6.00000000E+00  0.00000000E+00
  5.58000000E+02 -9.99200722E-14  0.00000000E+00
  5.64000000E+02  3.00000000E+02  0.00000000E+00
  5.64000000E+02  2.94000000E+02  0.00000000E+00
  5.64000000E+02  2.88000000E+02  0.00000000E+00
  5.64000000E+02  2.82000000E+02  0.00000000E+00
  5.64000000E+02  2.76000000E+02  0.00000000E+00
  5.64000000E+02  2.70000000E+02  0.00000000E+00
  5.64000000E+02  2.64000000E+02  0.00000000E+00
  5.64000000E+02  2.58000000E+02  0.00000000E+00
  5.64000000E+02  2.52000000E+02  0.00000000E+00
  5.64000000E+02  2.46000000E+02  0.00000000E+00
  5.64000000E+02  2.40000000E+02  0.00000000E+00
  5.64000000E+02  2.34000000E+02  0.00000000E+00
  5.64000000E+02  2.28000000E+02  0.00000000E+00
  5.64000000E+02  2.22000000E+02  0.00000000E+00
  5.64000000E+02  2.16000000E+02  0.00000000E+00
  5.64000000E+02  2.10000000E+02  0.00000000E+00
  5.64000000E+02  2.04000000E+02  0.00000000E+00
  5.64000000E+02  1.98000000E+02  0.00000000E+00
  5.64000000E+02  1.92000000E+02  0.00000000E+00
  5.64000000E+02  1.86000000E+02  0.00000000E+00
  5.64000000E+02  1.80000000E+02  0.00000000E+00
  5.64000000E+02  1.74000000E+02  0.00000000E+00
  5.64000000E+02  1.68000000E+02  0.00000000E+00
  5.64000000E+02  1.62000000E+02  0.00000000E+00
  5.64000000E+02  1.56000000E+02  0.00000000E+00
  5.64000000E+02  1.50000000E+02  0.00000000E+00
  5.64000000E+02  1.44000000E+02  0.00000000E+00
  5.64000000E+02  1.38000000E+02  0.00000000E+00
  5.64000000E+02  1.32000000E+02  0.00000000E+00
  5.64000000E+02  1.26000000E+02  0.00000000E+00
  5.64000000E+02  1.20000000E+02  0.00000000E+00
  5.64000000E+02  1.14000000E+02  0.00000000E+00
  5.64000000E+02  1.08000000E+02  0.00000000E+00
  5.64000000E+02  1.02000000E+02  0.00000000E+00
  5.64000000E+02  9.60000000E+01  0.00000000E+00
  5.64000000E+02  9.00000000E+01  0.00000000E+00
  5.64000000E+02  8.40000000E+01  0.00000000E+00
  5.64000000E+02  7.80000000E+01  0.00000000E+00
  5.64000000E+02  7.20000000E+01  0.00000000E+00
  5.64000000E+02  6.60000000E+01  0.00000000E+00
  5.64000000E+02  6.00000000E+01  0.00000000E+00
  5.64000000E+02  5.40000000E+01  0.00000000E+00
  5.64000000E+02  4.80000000E+01  0.00000000E+00
  5.64000000E+02  4.20000000E+01  0.00000000E+00
  5.64000000E+02  3.60000000E+01  0.00000000E+00
  5.64000000E+02  3.00000000E+01  0.00000000E+00
  5.64000000E+02  2.40000000E+01  0.00000000E+00
  5.64000000E+02  1.80000000E+01  0.00000000E+00
  5.64000000E+02  1.20000000E+01  0.00000000E+00
  5.64000000E+02  6.00000000E+00  0.00000000E+00
  5.64000000E+02 -9.99200722E-14  0.00000000E+00
  5.70000000E+02  3.00000000E+02  0.00000000E+00
  5.70000000E+02  2.94000000E+02  0.00000000E+00
  5.70000000E+02  2.88000000E+02  0.00000000E+00
  5.70000000E+02  2.82000000E+02  0.00000000E+00
  5.70000000E+02  2.76000000E+02  0.00000000E+00
  5.70000000E+02  2.70000000E+02  0.00000000E+00
  5.70000000E+02  2.64000000E+02  0.00000000E+00
  5.70000000E+02  2.58000000E+02  0.00000000E+00
  5.70000000E+02  2.52000000E+02  0.00000000E+00
  5.70000000E+02  2.46000000E+02  0.00000000E+00
  5.70000000E+02  2.40000000E+02  0.00000000E+00
  5.70000000E+02  2.34000000E+02  0.00000000E+00
  5.70000000E+02  2.28000000E+02  0.00000000E+00
  5.70000000E+02  2.22000000E+02  0.00000000E+00
  5.70000000E+02  2.16000000E+02  0.00000000E+00
  5.70000000E+02  2.10000000E+02  0.00000000E+00
  5.70000000E+02  2.04000000E+02  0.00000000E+00
  5.70000000E+02  1.98000000E+02  0.00000000E+00
  5.70000000E+02  1.92000000E+02  0.00000000E+00
  5.70000000E+02  1.86000000E+02  0.00000000E+00
  5.70000000E+02  1.80000000E+02  0.00000000E+00
  5.70000000E+02  1.74000000E+02  0.00000000E+00
  5.70000000E+02  1.68000000E+02  0.00000000E+00
  5.70000000E+02  1.62000000E+02  0.00000000E+00
  5.70000000E+02  1.56000000E+02  0.00000000E+00
  5.70000000E+02  1.50000000E+02  0.00000000E+00
  5.70000000E+02  1.44000000E+02  0.00000000E+00
  5.70000000E+02  1.38000000E+02  0.00000000E+00
  5.70000000E+02  1.32000000E+02  0.00000000E+00
  5.70000000E+02  1.26000000E+02  0.00000000E+00
  5.70000000E+02  1.20000000E+02  0.00000000E+00
  5.70000000E+02  1.14000000E+02  0.00000000E+00
  5.70000000E+02  1.08000000E+02  0.00000000E+00
  5.70000000E+02  1.02000000E+02  0.00000000E+00
  5.70000000E+02  9.60000000E+01  0.00000000E+00
  5.70000000E+02  9.00000000E+01  0.00000000E+00
  5.70000000E+02  8.40000000E+01  0.00000000E+00
  5.70000000E+02  7.80000000E+01  0.00000000E+00
  5.70000000E+02  7.20000000E+01  0.00000000E+00
  5.70000000E+02  6.60000000E+01  0.00000000E+00
  5.70000000E+02  6.00000000E+01  0.00000000E+00
  5.70000000E+02  5.40000000E+01  0.00000000E+00
  5.70000000E+02  4.80000000E+01  0.00000000E+00
  5.70000000E+02  4.20000000E+01  0.00000000E+00
  5.70000000E+02  3.60000000E+01  0.00000000E+00
  5.70000000E+02  3.00000000E+01  0.00000000E+00
  5.70000000E+02  2.40000000E+01  0.00000000E+00
  5.70000000E+02  1.80000000E+01  0.00000000E+00
  5.70000000E+02  1.20000000E+01  0.00000000E+00
  5.70000000E+02  6.00000000E+00  0.00000000E+00
  5.70000000E+02 -9.99200722E-14  0.00000000E+00
  5.76000000E+02  3.00000000E+02  0.00000000E+00
  5.76000000E+02  2.94000000E+02  0.00000000E+00
  5.76000000E+02  2.88000000E+02  0.00000000E+00
  5.76000000E+02  2.82000000E+02  0.00000000E+00
  5.76000000E+02  2.76000000E+02  0.00000000E+00
  5.76000000E+02  2.70000000E+02  0.00000000E+00
  5.76000000E+02  2.64000000E+02  0.00000000E+00
  5.76000000E+02  2.58000000E+02  0.00000000E+00
  5.76000000E+02  2.52000000E+02  0.00000000E+00
  5.76000000E+02  2.46000000E+02  0.00000000E+00
  5.76000000E+02  2.40000000E+02  0.00000000E+00
  5.76000000E+02  2.34000000E+02  0.00000000E+00
  5.76000000E+02  2.28000000E+02  0.00000000E+00
  5.76000000E+02  2.22000000E+02  0.00000000E+00
  5.76000000E+02  2.16000000E+02  0.00000000E+00
  5.76000000E+02  2.10000000E+02  0.00000000E+00
  5.76000000E+02  2.04000000E+02  0.00000000E+00
  5.76000000E+02  1.98000000E+02  0.00000000E+00
  5.76000000E+02  1.92000000E+02  0.00000000E+00
  5.76000000E+02  1.86000000E+02  0.00000000E+00
  5.76000000E+02  1.80000000E+02  0.00000000E+00
  5.76000000E+02  1.74000000E+02  0.00000000E+00
  5.76000000E+02  1.68000000E+02  0.00000000E+00
  5.76000000E+02  1.62000000E+02  0.00000000E+00
  5.76000000E+02  1.56000000E+02  0.00000000E+00
  5.76000000E+02  1.50000000E+02  0.00000000E+00
  5.76000000E+02  1.44000000E+02  0.00000000E+00
  5.76000000E+02  1.38000000E+02  0.00000000E+00
  5.76000000E+02  1.32000000E+02  0.00000000E+00
  5.76000000E+02  1.26000000E+02  0.00000000E+00
  5.76000000E+02  1.20000000E+02  0.00000000E+00
  5.76000000E+02  1.14000000E+02  0.00000000E+00
  5.76000000E+02  1.08000000E+02  0.00000000E+00
  5.76000000E+02  1.02000000E+02  0.00000000E+00
  5.76000000E+02  9.60000000E+01  0.00000000E+00
  5.76000000E+02  9.00000000E+01  0.00000000E+00
  5.76000000E+02  8.40000000E+01  0.00000000E+00
  5.76000000E+02  7.80000000E+01  0.00000000E+00
  5.76000000E+02  7.20000000E+01  0.00000000E+00
  5.76000000E+02  6.60000000E+01  0.00000000E+00
  5.76000000E+02  6.00000000E+01  0.00000000E+00
  5.76000000E+02  5.40000000E+01  0.00000000E+00
  5.76000000E+02  4.80000000E+01  0.00000000E+00
  5.76000000E+02  4.20000000E+01  0.00000000E+00
  5.76000000E+02  3.60000000E+01  0.00000000E+00
  5.76000000E+02  3.00000000E+01  0.00000000E+00
  5.76000000E+02  2.40000000E+01  0.00000000E+00
  5.76000000E+02  1.80000000E+01  0.00000000E+00
  5.76000000E+02  1.20000000E+01  0.00000000E+00
  5.76000000E+02  6.00000000E+00  0.00000000E+00
  5.76000000E+02 -9.99200722E-14  0.00000000E+00
  5.82000000E+02  3.00000000E+02  0.00000000E+00
  5.82000000E+02  2.94000000E+02  0.00000000E+00
  5.82000000E+02  2.88000000E+02  0.00000000E+00
  5.82000000E+02  2.82000000E+02  0.00000000E+00
  5.82000000E+02  2.76000000E+02  0.00000000E+00
  5.82000000E+02  2.70000000E+02  0.00000000E+00
  5.82000000E+02  2.64000000E+02  0.00000000E+00
  5.82000000E+02  2.58000000E+02  0.00000000E+00
  5.82000000E+02  2.52000000E+02  0.00000000E+00
  5.82000000E+02  2.46000000E+02  0.00000000E+00
  5.82000000E+02  2.40000000E+02  0.00000000E+00
  5.82000000E+02  2.34000000E+02  0.00000000E+00
  5.82000000E+02  2.28000000E+02  0.00000000E+00
  5.82000000E+02  2.22000000E+02  0.00000000E+00
  5.82000000E+02  2.16000000E+02  0.00000000E+00
  5.82000000E+02  2.10000000E+02  0.00000000E+00
  5.82000000E+02  2.04000000E+02  0.00000000E+00
  5.82000000E+02  1.98000000E+02  0.00000000E+00
  5.82000000E+02  1.92000000E+02  0.00000000E+00
  5.82000000E+02  1.86000000E+02  0.00000000E+00
  5.82000000E+02  1.80000000E+02  0.00000000E+00
  5.82000000E+02  1.74000000E+02  0.00000000E+00
  5.82000000E+02  1.68000000E+02  0.00000000E+00
  5.82000000E+02  1.62000000E+02  0.00000000E+00
  5.82000000E+02  1.56000000E+02  0.00000000E+00
  5.82000000E+02  1.50000000E+02  0.00000000E+00
  5.82000000E+02  1.44000000E+02  0.00000000E+00
  5.82000000E+02  1.38000000E+02  0.00000000E+00
  5.82000000E+02  1.32000000E+02  0.00000000E+00
  5.82000000E+02  1.26000000E+02  0.00000000E+00
  5.82000000E+02  1.20000000E+02  0.00000000E+00
  5.82000000E+02  1.14000000E+02  0.00000000E+00
  5.82000000E+02  1.08000000E+02  0.00000000E+00
  5.82000000E+02  1.02000000E+02  0.00000000E+00
  5.82000000E+02  9.60000000E+01  0.00000000E+00
  5.82000000E+02  9.00000000E+01  0.00000000E+00
  5.82000000E+02  8.40000000E+01  0.00000000E+00
  5.82000000E+02  7.80000000E+01  0.00000000E+00
  5.82000000E+02  7.20000000E+01  0.00000000E+00
  5.82000000E+02  6.60000000E+01  0.00000000E+00
  5.82000000E+02  6.00000000E+01  0.00000000E+00
  5.82000000E+02  5.40000000E+01  0.00000000E+00
  5.82000000E+02  4.80000000E+01  0.00000000E+00
  5.82000000E+02  4.20000000E+01  0.00000000E+00
  5.82000000E+02  3.60000000E+01  0.00000000E+00
  5.82000000E+02  3.00000000E+01  0.00000000E+00
  5.82000000E+02  2.40000000E+01  0.00000000E+00
  5.82000000E+02  1.80000000E+01  0.00000000E+00
  5.82000000E+02  1.20000000E+01  0.00000000E+00
  5.82000000E+02  6.00000000E+00  0.00000000E+00
  5.82000000E+02 -9.99200722E-14  0.00000000E+00
  5.88000000E+02  3.00000000E+02  0.00000000E+00
  5.88000000E+02  2.94000000E+02  0.00000000E+00
  5.88000000E+02  2.88000000E+02  0.00000000E+00
  5.88000000E+02  2.82000000E+02  0.00000000E+00
  5.88000000E+02  2.76000000E+02  0.00000000E+00
  5.88000000E+02  2.70000000E+02  0.00000000E+00
  5.88000000E+02  2.64000000E+02  0.00000000E+00
  5.88000000E+02  2.58000000E+02  0.00000000E+00
  5.88000000E+02  2.52000000E+02  0.00000000E+00
  5.88000000E+02  2.46000000E+02  0.00000000E+00
  5.88000000E+02  2.40000000E+02  0.00000000E+00
  5.88000000E+02  2.34000000E+02  0.00000000E+00
  5.88000000E+02  2.28000000E+02  0.00000000E+00
  5.88000000E+02  2.22000000E+02  0.00000000E+00
  5.88000000E+02  2.16000000E+02  0.00000000E+00
  5.88000000E+02  2.10000000E+02  0.00000000E+00
  5.88000000E+02  2.04000000E+02  0.00000000E+00
  5.88000000E+02  1.98000000E+02  0.00000000E+00
  5.88000000E+02  1.92000000E+02  0.00000000E+00
  5.88000000E+02  1.86000000E+02  0.00000000E+00
  5.88000000E+02  1.80000000E+02  0.00000000E+00
  5.88000000E+02  1.74000000E+02  0.00000000E+00
  5.88000000E+02  1.68000000E+02  0.00000000E+00
  5.88000000E+02  1.62000000E+02  0.00000000E+00
  5.88000000E+02  1.56000000E+02  0.00000000E+00
  5.88000000E+02  1.50000000E+02  0.00000000E+00
  5.88000000E+02  1.44000000E+02  0.00000000E+00
  5.88000000E+02  1.38000000E+02  0.00000000E+00
  5.88000000E+02  1.32000000E+02  0.00000000E+00
  5.88000000E+02  1.26000000E+02  0.00000000E+00
  5.88000000E+02  1.20000000E+02  0.00000000E+00
  5.88000000E+02  1.14000000E+02  0.00000000E+00
  5.88000000E+02  1.08000000E+02  0.00000000E+00
  5.88000000E+02  1.02000000E+02  0.00000000E+00
  5.88000000E+02  9.60000000E+01  0.00000000E+00
  5.88000000E+02  9.00000000E+01  0.00000000E+00
  5.88000000E+02  8.40000000E+01  0.00000000E+00
  5.88000000E+02  7.80000000E+01  0.00000000E+00
  5.88000000E+02  7.20000000E+01  0.00000000E+00
  5.88000000E+02  6.60000000E+01  0.00000000E+00
  5.88000000E+02  6.00000000E+01  0.00000000E+00
  5.88000000E+02  5.40000000E+01  0.00000000E+00
  5.88000000E+02  4.80000000E+01  0.00000000E+00
  5.88000000E+02  4.20000000E+01  0.00000000E+00
  5.88000000E+02  3.60000000E+01  0.00000000E+00
  5.88000000E+02  3.00000000E+01  0.00000000E+00
  5.88000000E+02  2.40000000E+01  0.00000000E+00
  5.88000000E+02  1.80000000E+01  0.00000000E+00
  5.88000000E+02  1.20000000E+01  0.00000000E+00
  5.88000000E+02  6.00000000E+00  0.00000000E+00
  5.88000000E+02 -9.99200722E-14  0.00000000E+00
  5.94000000E+02  3.00000000E+02  0.00000000E+00
  5.94000000E+02  2.94000000E+02  0.00000000E+00
  5.94000000E+02  2.88000000E+02  0.00000000E+00
  5.94000000E+02  2.82000000E+02  0.00000000E+00
  5.94000000E+02  2.76000000E+02  0.00000000E+00
  5.94000000E+02  2.70000000E+02  0.00000000E+00
  5.94000000E+02  2.64000000E+02  0.00000000E+00
  5.94000000E+02  2.58000000E+02  0.00000000E+00
  5.94000000E+02  2.52000000E+02  0.00000000E+00
  5.94000000E+02  2.46000000E+02  0.00000000E+00
  5.94000000E+02  2.40000000E+02  0.00000000E+00
  5.94000000E+02  2.34000000E+02  0.00000000E+00
  5.94000000E+02  2.28000000E+02  0.00000000E+00
  5.94000000E+02  2.22000000E+02  0.00000000E+00
  5.94000000E+02  2.16000000E+02  0.00000000E+00
  5.94000000E+02  2.10000000E+02  0.00000000E+00
  5.94000000E+02  2.04000000E+02  0.00000000E+00
  5.94000000E+02  1.98000000E+02  0.00000000E+00
  5.94000000E+02  1.92000000E+02  0.00000000E+00
  5.94000000E+02  1.86000000E+02  0.00000000E+00
  5.94000000E+02  1.80000000E+02  0.00000000E+00
  5.94000000E+02  1.74000000E+02  0.00000000E+00
  5.94000000E+02  1.68000000E+02  0.00000000E+00
  5.94000000E+02  1.62000000E+02  0.00000000E+00
  5.94000000E+02  1.56000000E+02  0.00000000E+00
  5.94000000E+02  1.50000000E+02  0.00000000E+00
  5.94000000E+02  1.44000000E+02  0.00000000E+00
  5.94000000E+02  1.38000000E+02  0.00000000E+00
  5.94000000E+02  1.32000000E+02  0.00000000E+00
  5.94000000E+02  1.26000000E+02  0.00000000E+00
  5.94000000E+02  1.20000000E+02  0.00000000E+00
  5.94000000E+02  1.14000000E+02  0.00000000E+00
  5.94000000E+02  1.08000000E+02  0.00000000E+00
  5.94000000E+02  1.02000000E+02  0.00000000E+00
  5.94000000E+02  9.60000000E+01  0.00000000E+00
  5.94000000E+02  9.00000000E+01  0.00000000E+00
  5.94000000E+02  8.40000000E+01  0.00000000E+00
  5.94000000E+02  7.80000000E+01  0.00000000E+00
  5.94000000E+02  7.20000000E+01  0.00000000E+00
  5.94000000E+02  6.60000000E+01  0.00000000E+00
  5.94000000E+02  6.00000000E+01  0.00000000E+00
  5.94000000E+02  5.40000000E+01  0.00000000E+00
  5.94000000E+02  4.80000000E+01  0.00000000E+00
  5.94000000E+02  4.20000000E+01  0.00000000E+00
  5.94000000E+02  3.60000000E+01  0.00000000E+00
  5.94000000E+02  3.00000000E+01  0.00000000E+00
  5.94000000E+02  2.40000000E+01  0.00000000E+00
  5.94000000E+02  1.80000000E+01  0.00000000E+00
  5.94000000E+02  1.20000000E+01  0.00000000E+00
  5.94000000E+02  6.00000000E+00  0.00000000E+00
  5.94000000E+02 -9.99200722E-14  0.00000000E+00
  6.00000000E+02  3.00000000E+02  0.00000000E+00
  6.00000000E+02  2.94000000E+02  0.00000000E+00
  6.00000000E+02  2.88000000E+02  0.00000000E+00
  6.00000000E+02  2.82000000E+02  0.00000000E+00
  6.00000000E+02  2.76000000E+02  0.00000000E+00
  6.00000000E+02  2.70000000E+02  0.00000000E+00
  6.00000000E+02  2.64000000E+02  0.00000000E+00
  6.00000000E+02  2.58000000E+02  0.00000000E+00
  6.00000000E+02  2.52000000E+02  0.00000000E+00
  6.00000000E+02  2.46000000E+02  0.00000000E+00
  6.00000000E+02  2.40000000E+02  0.00000000E+00
  6.00000000E+02  2.34000000E+02  0.00000000E+00
  6.00000000E+02  2.28000000E+02  0.00000000E+00
  6.00000000E+02  2.22000000E+02  0.00000000E+00
  6.00000000E+02  2.16000000E+02  0.00000000E+00
  6.00000000E+02  2.10000000E+02  0.00000000E+00
  6.00000000E+02  2.04000000E+02  0.00000000E+00
  6.00000000E+02  1.98000000E+02  0.00000000E+00
  6.00000000E+02  1.92000000E+02  0.00000000E+00
  6.00000000E+02  1.86000000E+02  0.00000000E+00
  6.00000000E+02  1.80000000E+02  0.00000000E+00
  6.00000000E+02  1.74000000E+02  0.00000000E+00
  6.00000000E+02  1.68000000E+02  0.00000000E+00
  6.00000000E+02  1.62000000E+02  0.00000000E+00
  6.00000000E+02  1.56000000E+02  0.00000000E+00
  6.00000000E+02  1.50000000E+02  0.00000000E+00
  6.00000000E+02  1.44000000E+02  0.00000000E+00
  6.00000000E+02  1.38000000E+02  0.00000000E+00
  6.00000000E+02  1.32000000E+02  0.00000000E+00
  6.00000000E+02  1.26000000E+02  0.00000000E+00
  6.00000000E+02  1.20000000E+02  0.00000000E+00
  6.00000000E+02  1.14000000E+02  0.00000000E+00
  6.00000000E+02  1.08000000E+02  0.00000000E+00
  6.00000000E+02  1.02000000E+02  0.00000000E+00
  6.00000000E+02  9.60000000E+01  0.00000000E+00
  6.00000000E+02  9.00000000E+01  0.00000000E+00
  6.00000000E+02  8.40000000E+01  0.00000000E+00
  6.00000000E+02  7.80000000E+01  0.00000000E+00
  6.00000000E+02  7.20000000E+01  0.00000000E+00
  6.00000000E+02  6.60000000E+01  0.00000000E+00
  6.00000000E+02  6.00000000E+01  0.00000000E+00
  6.00000000E+02  5.40000000E+01  0.00000000E+00
  6.00000000E+02  4.80000000E+01  0.00000000E+00
  6.00000000E+02  4.20000000E+01  0.00000000E+00
  6.00000000E+02  3.60000000E+01  0.00000000E+00
  6.00000000E+02  3.00000000E+01  0.00000000E+00
  6.00000000E+02  2.40000000E+01  0.00000000E+00
  6.00000000E+02  1.80000000E+01  0.00000000E+00
  6.00000000E+02  1.20000000E+01  0.00000000E+00
  6.00000000E+02  6.00000000E+00  0.00000000E+00
  6.00000000E+02 -9.99200722E-14  0.00000000E+00
CELLS      5000     25000
         4           0           1          52          51
         4           1           2          53          52
         4           2           3          54          53
         4           3           4          55          54
         4           4           5          56          55
         4           5           6          57          56
         4           6           7          58          57
         4           7           8          59          58
         4           8           9          60          59
         4           9          10          61          60
         4          10          11          62          61
         4          11          12          63          62
         4          12          13          64          63
         4          13          14          65          64
         4          14          15          66          65
         4          15          16          67          66
         4          16          17          68          67
         4          17          18          69          68
         4          18          19          70          69
         4          19          20          71          70
         4          20          21          72          71
         4          21          22          73          72
         4          22          23          74          73
         4          23          24          75          74
         4          24          25          76          75
         4          25          26          77          76
         4          26          27          78          77
         4          27          28          79          78
         4          28          29          80          79
         4          29          30          81          80
         4          30          31          82          81
         4          31          32          83          82
         4          32          33          84          83
         4          33          34          85          84
         4          34          35          86          85
         4          35          36          87          86
         4          36          37          88          87
         4          37          38          89          88
         4          38          39          90          89
         4          39          40          91          90
         4          40          41          92          91
         4          41          42          93          92
         4          42          43          94          93
         4          43          44          95          94
         4          44          45          96          95
         4          45          46          97          96
         4          46          47          98          97
         4          47          48          99          98
         4          48          49         100          99
         4          49          50         101         100
         4          51          52         103         102
         4          52          53         104         103
         4          53          54         105         104
         4          54          55         106         105
         4          55          56         107         106
         4          56          57         108         107
         4          57          58         109         108
         4          58          59         110         109
         4          59          60         111         110
         4          60          61         112         111
         4          61          62         113         112
         4          62          63         114         113
         4          63          64         115         114
         4          64          65         116         115
         4          65          66         117         116
         4          66          67         118         117
         4          67          68         119         118
         4          68          69         120         119
         4          69          70         121         120
         4          70          71         122         121
         4          71          72         123         122
         4          72          73         124         123
         4          73          74         125         124
         4          74          75         126         125
         4          75          76         127         126
         4          76          77         128         127
         4          77          78         129         128
         4          78          79         130         129
         4          79          80         131         130
         4          80          81         132         131
         4          81          82         133         132
         4          82          83         134         133
         4          83          84         135         134
         4          84          85         136         135
         4          85          86         137         136
         4          86          87         138         137
         4          87          88         139         138
         4          88          89         140         139
         4          89          90         141         140
         4          90          91         142         141
         4          91          92         143         142
         4          92          93         144         143
         4          93          94         145         144
         4          94          95         146         145
         4          95          96         147         146
         4          96          97         148         147
         4          97          98         149         148
         4          98          99         150         149
         4          99         100         151         150
         4         100         101         152         151
         4         102         103         154         153
         4         103         104         155         154
         4         104         105         156         155
         4         105         106         157         156
         4         106         107         158         157
         4         107         108         159         158
         4         108         109         160         159
         4         109         110         161         160
         4         110         111         162         161
         4         111         112         163         162
         4         112         113         164         163
         4         113         114         165         164
         4         114         115         166         165
         4         115         116         167         166
         4         116         117         168         167
         4         117         118         169         168
         4         118         119         170         169
         4         119         120         171         170
         4         120         121         172         171
         4         121         122         173         172
         4         122         123         174         173
         4         123         124         175         174
         4         124         125         176         175
         4         125         126         177         176
         4         126         127         178         177
         4         127         128         179         178
         4         128         129         180         179
         4         129         130         181         180
         4         130         131         182         181
         4         131         132         183         182
         4         132         133         184         183
         4         133         134         185         184
         4         134         135         186         185
         4         135         136         187         186
         4         136         137         188         187
         4         137         138         189         188
         4         138         139         190         189
         4         139         140         191         190
         4         140         141         192         191
         4         141         142         193         192
         4         142         143         194         193
         4         143         144         195         194
         4         144         145         196         195
         4         145         146         197         196
         4         146         147         198         197
         4         147         148         199         198
         4         148         149         200         199
         4         149         150         201         200
         4         150         151         202         201
         4         151         152         203         202
         4         153         154         205         204
         4         154         155         206         205
         4         155         156         207         206
         4         156         157         208         207
         4         157         158         209         208
         4         158         159         210         209
         4         159         160         211         210
         4         160         161         212         211
         4         161         162         213         212
         4         162         163         214         213
         4         163         164         215         214
         4         164         165         216         215
         4         165         166         217         216
         4         166         167         218         217
         4         167         168         219         218
         4         168         169         220         219
         4         169         170         221         220
         4         170         171         222         221
         4         171         172         223         222
         4         172         173         224         223
         4         173         174         225         224
         4         174         175         226         225
         4         175         176         227         226
         4         176         177         228         227
         4         177         178         229         228
         4         178         179         230         229
         4         179         180         231         230
         4         180         181         232         231
         4         181         182         233         232
         4         182         183         234         233
         4         183         184         235         234
         4         184         185         236         235
         4         185         186         237         236
         4         186         187         238         237
         4         187         188         239         238
         4         188         189         240         239
         4         189         190         241         240
         4         190         191         242         241
         4         191         192         243         242
         4         192         193         244         243
         4         193         194         245         244
         4         194         195         246         245
         4         195         196         247         246
         4         196         197         248         247
         4         197         198         249         248
         4         198         199         250         249
         4         199         200         251         250
         4         200         201         252         251
         4         201         202         253         252
         4         202         203         254         253
         4         204         205         256         255
         4         205         206         257         256
         4         206         207         258         257
         4         207         208         259         258
         4         208         209         260         259
         4         209         210         261         260
         4         210         211         262         261
         4         211         212         263         262
         4         212         213         264         263
         4         213         214         265         264
         4         214         215         266         265
         4         215         216         267         266
         4         216         217         268         267
         4         217         218         269         268
         4         218         219         270         269
         4         219         220         271         270
         4         220         221         272         271
         4         221         222         273         272
         4         222         223         274         273
         4         223         224         275         274
         4         224         225         276         275
         4         225         226         277         276
         4         226         227         278         277
         4         227         228         279         278
         4         228         229         280         279
         4         229         230         281         280
         4         230         231         282         281
         4         231         232         283         282
         4         232         233         284         283
         4         233         234         285         284
         4         234         235         286         285
         4         235         236         287         286
         4         236         237         288         287
         4         237         238         289         288
         4         238         239         290         289
         4         239         240         291         290
         4         240         241         292         291
         4         241         242         293         292
         4         242         243         294         293
         4         243         244         295         294
         4         244         245         296         295
         4         245         246         297         296
         4         246         247         298         297
         4         247         248         299         298
         4         248         249         300         299
         4         249         250         301         300
         4         250         251         302         301
         4         251         252         303         302
         4         252         253         304         303
         4         253         254         305         304
         4         255         256         307         306
         4         256         257         308         307
         4         257         258         309         308
         4         258         259         310         309
         4         259         260         311         310
         4         260         261         312         311
         4         261         262         313         312
         4         262         263         314         313
         4         263         264         315         314
         4         264         265         316         315
         4         265         266         317         316
         4         266         267         318         317
         4         267         268         319         318
         4         268         269         320         319
         4         269         270         321         320
         4         270         271         322         321
         4         271         272         323         322
         4         272         273         324         323
         4         273         274         325         324
         4         274         275         326         325
         4         275         276         327         326
         4         276         277         328         327
         4         277         278         329         328
         4         278         279         330         329
         4         279         280         331         330
         4         280         281         332         331
         4         281         282         333         332
         4         282         283         334         333
         4         283         284         335         334
         4         284         285         336         335
         4         285         286         337         336
         4         286         287         338         337
         4         287         288         339         338
         4         288         289         340         339
         4         289         290         341         340
         4         290         291         342         341
         4         291         292         343         342
         4         292         293         344         343
         4         293         294         345         344
         4         294         295         346         345
         4         295         296         347         346
         4         296         297         348         347
         4         297         298         349         348
         4         298         299         350         349
         4         299         300         351         350
         4         300         301         352         351
         4         301         302         353         352
         4         302         303         354         353
         4         303         304         355         354
         4         304         305         356         355
         4         306         307         358         357
         4         307         308         359         358
         4         308         309         360         359
         4         309         310         361         360
         4         310         311         362         361
         4         311         312         363         362
         4         312         313         364         363
         4         313         314         365         364
         4         314         315         366         365
         4         315         316         367         366
         4         316         317         368         367
         4         317         318         369         368
         4         318         319         370         369
         4         319         320         371         370
         4         320         321         372         371
         4         321         322         373         372
         4         322         323         374         373
         4         323         324         375         374
         4         324         325         376         375
         4         325         326         377         376
         4         326         327         378         377
         4         327         328         379         378
         4         328         329         380         379
         4         329         330         381         380
         4         330         331         382         381
         4         331         332         383         382
         4         332         333         384         383
         4         333         334         385         384
         4         334         335         386         385
         4         335         336         387         386
         4         336         337         388         387
         4         337         338         389         388
         4         338         339         390         389
         4         339         340         391         390
         4         340         341         392         391
         4         341         342         393         392
         4         342         343         394         393
         4         343         344         395         394
         4         344         345         396         395
         4         345         346         397         396
         4         346         347         398         397
         4         347         348         399         398
         4         348         349         400         399
         4         349         350         401         400
         4         350         351         402         401
         4         351         352         403         402
         4         352         353         404         403
         4         353         354         405         404
         4         354         355         406         405
         4         355         356         407         406
         4         357         358         409         408
         4         358         359         410         409
         4         359         360         411         410
         4         360         361         412         411
         4         361         362         413         412
         4         362         363         414         413
         4         363         364         415         414
         4         364         365         416         415
         4         365         366         417         416
         4         366         367         418         417
         4         367         368         419         418
         4         368         369         420         419
         4         369         370         421         420
         4         370         371         422         421
         4         371         372         423         422
         4         372         373         424         423
         4         373         374         425         424
         4         374         375         426         425
         4         375         376         427         426
         4         376         377         428         427
         4         377         378         429         428
         4         378         379         430         429
         4         379         380         431         430
         4         380         381         432         431
         4         381         382         433         432
         4         382         383         434         433
         4         383         384         435         434
         4         384         385         436         435
         4         385         386         437         436
         4         386         387         438         437
         4         387         388         439         438
         4         388         389         440         439
         4         389         390         441         440
         4         390         391         442         441
         4         391         392         443         442
         4         392         393         444         443
         4         393         394         445         444
         4         394         395         446         445
         4         395         396         447         446
         4         396         397         448         447
         4         397         398         449         448
         4         398         399         450         449
         4         399         400         451         450
         4         400         401         452         451
         4         401         402         453         452
         4         402         403         454         453
         4         403         404         455         454
         4         404         405         456         455
         4         405         406         457         456
         4         406         407         458         457
         4         408         409         460         459
         4         409         410         461         460
         4         410         411         462         461
         4         411         412         463         462
         4         412         413         464         463
         4         413         414         465         464
         4         414         415         466         465
         4         415         416         467         466
         4         416         417         468         467
         4         417         418         469         468
         4         418         419         470         469
         4         419         420         471         470
         4         420         421         472         471
         4         421         422         473         472
         4         422         423         474         473
         4         423         424         475         474
         4         424         425         476         475
         4         425         426         477         476
         4         426         427         478         477
         4         427         428         479         478
         4         428         429         480         479
         4         429         430         481         480
         4         430         431         482         481
         4         431         432         483         482
         4         432         433         484         483
         4         433         434         485         484
         4         434         435         486         485
         4         435         436         487         486
         4         436         437         488         487
         4         437         438         489         488
         4         438         439         490         489
         4         439         440         491         490
         4         440         441         492         491
         4         441         442         493         492
         4         442         443         494         493
         4         443         444         495         494
         4         444         445         496         495
         4         445         446         497         496
         4         446         447         498         497
         4         447         448         499         498
         4         448         449         500         499
         4         449         450         501         500
         4         450         451         502         501
         4         451         452         503         502
         4         452         453         504         503
         4         453         454         505         504
         4         454         455         506         505
         4         455         456         507         506
         4         456         457         508         507
         4         457         458         509         508
         4         459         460         511         510
         4         460         461         512         511
         4         461         462         513         512
         4         462         463         514         513
         4         463         464         515         514
         4         464         465         516         515
         4         465         466         517         516
         4         466         467         518         517
         4         467         468         519         518
         4         468         469         520         519
         4         469         470         521         520
         4         470         471         522         521
         4         471         472         523         522
         4         472         473         524         523
         4         473         474         525         524
         4         474         475         526         525
         4         475         476         527         526
         4         476         477         528         527
         4         477         478         529         528
         4         478         479         530         529
         4         479         480         531         530
         4         480         481         532         531
         4         481         482         533         532
         4         482         483         534         533
         4         483         484         535         534
         4         484         485         536         535
         4         485         486         537         536
         4         486         487         538         537
         4         487         488         539         538
         4         488         489         540         539
         4         489         490         541         540
         4         490         491         542         541
         4         491         492         543         542
         4         492         493         544         543
         4         493         494         545         544
         4         494         495         546         545
         4         495         496         547         546
         4         496         497         548         547
         4         497         498         549         548
         4         498         499         550         549
         4         499         500         551         550
         4         500         501         552         551
         4         501         502         553         552
         4         502         503         554         553
         4         503         504         555         554
         4         504         505         556         555
         4         505         506         557         556
         4         506         507         558         557
         4         507         508         559         558
         4         508         509         560         559
         4         510         511         562         561
         4         511         512         563         562
         4         512         513         564         563
         4         513         514         565         564
         4         514         515         566         565
         4         515         516         567         566
         4         516         517         568         567
         4         517         518         569         568
         4         518         519         570         569
         4         519         520         571         570
         4         520         521         572         571
         4         521         522         573         572
         4         522         523         574         573
         4         523         524         575         574
         4         524         525         576         575
         4         525         526         577         576
         4         526         527         578         577
         4         527         528         579         578
         4         528         529         580         579
         4         529         530         581         580
         4         530         531         582         581
         4         531         532         583         582
         4         532         533         584         583
         4         533         534         585         584
         4         534         535         586         585
         4         535         536         587         586
         4         536         537         588         587
         4         537         538         589         588
         4         538         539         590         589
         4         539         540         591         590
         4         540         541         592         591
         4         541         542         593         592
         4         542         543         594         593
         4         543         544         595         594
         4         544         545         596         595
         4         545         546         597         596
         4         546         547         598         597
         4         547         548         599         598
         4         548         549         600         599
         4         549         550         601         600
         4         550         551         602         601
         4         551         552         603         602
         4         552         553         604         603
         4         553         554         605         604
         4         554         555         606         605
         4         555         556         607         606
         4         556         557         608         607
         4         557         558         609         608
         4         558         559         610         609
         4         559         560         611         610
         4         561         562         613         612
         4         562         563         614         613
         4         563         564         615         614
         4         564         565         616         615
         4         565         566         617         616
         4         566         567         618         617
         4         567         568         619         618
         4         568         569         620         619
         4         569         570         621         620
         4         570         571         622         621
         4         571         572         623         622
         4         572         573         624         623
         4         573         574         625         624
         4         574         575         626         625
         4         575         576         627         626
         4         576         577         628         627
         4         577         578         629         628
         4         578         579         630         629
         4         579         580         631         630
         4         580         581         632         631
         4         581         582         633         632
         4         582         583         634         633
         4         583         584         635         634
         4         584         585         636         635
         4         585         586         637         636
         4         586         587         638         637
         4         587         588         639         638
         4         588         589         640         639
         4         589         590         641         640
         4         590         591         642         641
         4         591         592         643         642
         4         592         593         644         643
         4         593         594         645         644
         4         594         595         646         645
         4         595         596         647         646
         4         596         597         648         647
         4         597         598         649         648
         4         598         599         650         649
         4         599         600         651         650
         4         600         601         652         651
         4         601         602         653         652
         4         602         603         654         653
         4         603         604         655         654
         4         604         605         656         655
         4         605         606         657         656
         4         606         607         658         657
         4         607         608         659         658
         4         608         609         660         659
         4         609         610         661         660
         4         610         611         662         661
         4         612         613         664         663
         4         613         614         665         664
         4         614         615         666         665
         4         615         616         667         666
         4         616         617         668         667
         4         617         618         669         668
         4         618         619         670         669
         4         619         620         671         670
         4         620         621         672         671
         4         621         622         673         672
         4         622         623         674         673
         4         623         624         675         674
         4         624         625         676         675
         4         625         626         677         676
         4         626         627         678         677
         4         627         628         679         678
         4         628         629         680         679
         4         629         630         681         680
         4         630         631         682         681
         4         631         632         683         682
         4         632         633         684         683
         4         633         634         685         684
         4         634         635         686         685
         4         635         636         687         686
         4         636         637         688         687
         4         637         638         689         688
         4         638         639         690         689
         4         639         640         691         690
         4         640         641         692         691
         4         641         642         693         692
         4         642         643         694         693
         4         643         644         695         694
         4         644         645         696         695
         4         645         646         697         696
         4         646         647         698         697
         4         647         648         699         698
         4         648         649         700         699
         4         649         650         701         700
         4         650         651         702         701
         4         651         652         703         702
         4         652         653         704         703
         4         653         654         705         704
         4         654         655         706         705
         4         655         656         707         706
         4         656         657         708         707
         4         657         658         709         708
         4         658         659         710         709
         4         659         660         711         710
         4         660         661         712         711
         4         661         662         713         712
         4         663         664         715         714
         4         664         665         716         715
         4         665         666         717         716
         4         666         667         718         717
         4         667         668         719         718
         4         668         669         720         719
         4         669         670         721         720
         4         670         671         722         721
         4         671         672         723         722
         4         672         673         724         723
         4         673         674         725         724
         4         674         675         726         725
         4         675         676         727         726
         4         676         677         728         727
         4         677         678         729         728
         4         678         679         730         729
         4         679         680         731         730
         4         680         681         732         731
         4         681         682         733         732
         4         682         683         734         733
         4         683         684         735         734
         4         684         685         736         735
         4         685         686         737         736
         4         686         687         738         737
         4         687         688         739         738
         4         688         689         740         739
         4         689         690         741         740
         4         690         691         742         741
         4         691         692         743         742
         4         692         693         744         743
         4         693         694         745         744
         4         694         695         746         745
         4         695         696         747         746
         4         696         697         748         747
         4         697         698         749         748
         4         698         699         750         749
         4         699         700         751         750
         4         700         701         752         751
         4         701         702         753         752
         4         702         703         754         753
         4         703         704         755         754
         4         704         705         756         755
         4         705         706         757         756
         4         706         707         758         757
         4         707         708         759         758
         4         708         709         760         759
         4         709         710         761         760
         4         710         711         762         761
         4         711         712         763         762
         4         712         713         764         763
         4         714         715         766         765
         4         715         716         767         766
         4         716         717         768         767
         4         717         718         769         768
         4         718         719         770         769
         4         719         720         771         770
         4         720         721         772         771
         4         721         722         773         772
         4         722         723         774         773
         4         723         724         775         774
         4         724         725         776         775
         4         725         726         777         776
         4         726         727         778         777
         4         727         728         779         778
         4         728         729         780         779
         4         729         730         781         780
         4         730         731         782         781
         4         731         732         783         782
         4         732         733         784         783
         4         733         734         785         784
         4         734         735         786         785
         4         735         736         787         786
         4         736         737         788         787
         4         737         738         789         788
         4         738         739         790         789
         4         739         740         791         790
         4         740         741         792         791
         4         741         742         793         792
         4         742         743         794         793
         4         743         744         795         794
         4         744         745         796         795
         4         745         746         797         796
         4         746         747         798         797
         4         747         748         799         798
         4         748         749         800         799
         4         749         750         801         800
         4         750         751         802         801
         4         751         752         803         802
         4         752         753         804         803
         4         753         754         805         804
         4         754         755         806         805
         4         755         756         807         806
         4         756         757         808         807
         4         757         758         809         808
         4         758         759         810         809
         4         759         760         811         810
         4         760         761         812         811
         4         761         762         813         812
         4         762         763         814         813
         4         763         764         815         814
         4         765         766         817         816
         4         766         767         818         817
         4         767         768         819         818
         4         768         769         820         819
         4         769         770         821         820
         4         770         771         822         821
         4         771         772         823         822
         4         772         773         824         823
         4         773         774         825         824
         4         774         775         826         825
         4         775         776         827         826
         4         776         777         828         827
         4         777         778         829         828
         4         778         779         830         829
         4         779         780         831         830
         4         780         781         832         831
         4         781         782         833         832
         4         782         783         834         833
         4         783         784         835         834
         4         784         785         836         835
         4         785         786         837         836
         4         786         787         838         837
         4         787         788         839         838
         4         788         789         840         839
         4         789         790         841         840
         4         790         791         842         841
         4         791         792         843         842
         4         792         793         844         843
         4         793         794         845         844
         4         794         795         846         845
         4         795         796         847         846
         4         796         797         848         847
         4         797         798         849         848
         4         798         799         850         849
         4         799         800         851         850
         4         800         801         852         851
         4         801         802         853         852
         4         802         803         854         853
         4         803         804         855         854
         4         804         805         856         855
         4         805         806         857         856
         4         806         807         858         857
         4         807         808         859         858
         4         808         809         860         859
         4         809         810         861         860
         4         810         811         862         861
         4         811         812         863         862
         4         812         813         864         863
         4         813         814         865         864
         4         814         815         866         865
         4         816         817         868         867
         4         817         818         869         868
         4         818         819         870         869
         4         819         820         871         870
         4         820         821         872         871
         4         821         822         873         872
         4         822         823         874         873
         4         823         824         875         874
         4         824         825         876         875
         4         825         826         877         876
         4         826         827         878         877
         4         827         828         879         878
         4         828         829         880         879
         4         829         830         881         880
         4         830         831         882         881
         4         831         832         883         882
         4         832         833         884         883
         4         833         834         885         884
         4         834         835         886         885
         4         835         836         887         886
         4         836         837         888         887
         4         837         838         889         888
         4         838         839         890         889
         4         839         840         891         890
         4         840         841         892         891
         4         841         842         893         892
         4         842         843         894         893
         4         843         844         895         894
         4         844         845         896         895
         4         845         846         897         896
         4         846         847         898         897
         4         847         848         899         898
         4         848         849         900         899
         4         849         850         901         900
         4         850         851         902         901
         4         851         852         903         902
         4         852         853         904         903
         4         853         854         905         904
         4         854         855         906         905
         4         855         856         907         906
         4         856         857         908         907
         4         857         858         909         908
         4         858         859         910         909
         4         859         860         911         910
         4         860         861         912         911
         4         861         862         913         912
         4         862         863         914         913
         4         863         864         915         914
         4         864         865         916         915
         4         865         866         917         916
         4         867         868         919         918
         4         868         869         920         919
         4         869         870         921         920
         4         870         871         922         921
         4         871         872         923         922
         4         872         873         924         923
         4         873         874         925         924
         4         874         875         926         925
         4         875         876         927         926
         4         876         877         928         927
         4         877         878         929         928
         4         878         879         930         929
         4         879         880         931         930
         4         880         881         932         931
         4         881         882         933         932
         4         882         883         934         933
         4         883         884         935         934
         4         884         885         936         935
         4         885         886         937         936
         4         886         887         938         937
         4         887         888         939         938
         4         888         889         940         939
         4         889         890         941         940
         4         890         891         942         941
         4         891         892         943         942
         4         892         893         944         943
         4         893         894         945         944
         4         894         895         946         945
         4         895         896         947         946
         4         896         897         948         947
         4         897         898         949         948
         4         898         899         950         949
         4         899         900         951         950
         4         900         901         952         951
         4         901         902         953         952
         4         902         903         954         953
         4         903         904         955         954
         4         904         905         956         955
         4         905         906         957         956
         4         906         907         958         957
         4         907         908         959         958
         4         908         909         960         959
         4         909         910         961         960
         4         910         911         962         961
         4         911         912         963         962
         4         912         913         964         963
         4         913         914         965         964
         4         914         915         966         965
         4         915         916         967         966
         4         916         917         968         967
         4         918         919         970         969
         4         919         920         971         970
         4         920         921         972         971
         4         921         922         973         972
         4         922         923         974         973
         4         923         924         975         974
         4         924         925         976         975
         4         925         926         977         976
         4         926         927         978         977
         4         927         928         979         978
         4         928         929         980         979
         4         929         930         981         980
         4         930         931         982         981
         4         931         932         983         982
         4         932         933         984         983
         4         933         934         985         984
         4         934         935         986         985
         4         935         936         987         986
         4         936         937         988         987
         4         937         938         989         988
         4         938         939         990         989
         4         939         940         991         990
         4         940         941         992         991
         4         941         942         993         992
         4         942         943         994         993
         4         943         944         995         994
         4         944         945         996         995
         4         945         946         997         996
         4         946         947         998         997
         4         947         948         999         998
         4         948         949        1000         999
         4         949         950        1001        1000
         4         950         951        1002        1001
         4         951         952        1003        1002
         4         952         953        1004        1003
         4         953         954        1005        1004
         4         954         955        1006        1005
         4         955         956        1007        1006
         4         956         957        1008        1007
         4         957         958        1009        1008
         4         958         959        1010        1009
         4         959         960        1011        1010
         4         960         961        1012        1011
         4         961         962        1013        1012
         4         962         963        1014        1013
         4         963         964        1015        1014
         4         964         965        1016        1015
         4         965         966        1017        1016
         4         966         967        1018        1017
         4         967         968        1019        1018
         4         969         970        1021        1020
         4         970         971        1022        1021
         4         971         972        1023        1022
         4         972         973        1024        1023
         4         973         974        1025        1024
         4         974         975        1026        1025
         4         975         976        1027        1026
         4         976         977        1028        1027
         4         977         978        1029        1028
         4         978         979        1030        1029
         4         979         980        1031        1030
         4         980         981        1032        1031
         4         981         982        1033        1032
         4         982         983        1034        1033
         4         983         984        1035        1034
         4         984         985        1036        1035
         4         985         986        1037        1036
         4         986         987        1038        1037
         4         987         988        1039        1038
         4         988         989        1040        1039
         4         989         990        1041        1040
         4         990         991        1042        1041
         4         991         992        1043        1042
         4         992         993        1044        1043
         4         993         994        1045        1044
         4         994         995        1046        1045
         4         995         996        1047        1046
         4         996         997        1048        1047
         4         997         998        1049        1048
         4         998         999        1050        1049
         4         999        1000        1051        1050
         4        1000        1001        1052        1051
         4        1001        1002        1053        1052
         4        1002        1003        1054        1053
         4        1003        1004        1055        1054
         4        1004        1005        1056        1055
         4        1005        1006        1057        1056
         4        1006        1007        1058        1057
         4        1007        1008        1059        1058
         4        1008        1009        1060        1059
         4        1009        1010        1061        1060
         4        1010        1011        1062        1061
         4        1011        1012        1063        1062
         4        1012        1013        1064        1063
         4        1013        1014        1065        1064
         4        1014        1015        1066        1065
         4        1015        1016        1067        1066
         4        1016        1017        1068        1067
         4        1017        1018        1069        1068
         4        1018        1019        1070        1069
         4        1020        1021        1072        1071
         4        1021        1022        1073        1072
         4        1022        1023        1074        1073
         4        1023        1024        1075        1074
         4        1024        1025        1076        1075
         4        1025        1026        1077        1076
         4        1026        1027        1078        1077
         4        1027        1028        1079        1078
         4        1028        1029        1080        1079
         4        1029        1030        1081        1080
         4        1030        1031        1082        1081
         4        1031        1032        1083        1082
         4        1032        1033        1084        1083
         4        1033        1034        1085        1084
         4        1034        1035        1086        1085
         4        1035        1036        1087        1086
         4        1036        1037        1088        1087
         4        1037        1038        1089        1088
         4        1038        1039        1090        1089
         4        1039        1040        1091        1090
         4        1040        1041        1092        1091
         4        1041        1042        1093        1092
         4        1042        1043        1094        1093
         4        1043        1044        1095        1094
         4        1044        1045        1096        1095
         4        1045        1046        1097        1096
         4        1046        1047        1098        1097
         4        1047        1048        1099        1098
         4        1048        1049        1100        1099
         4        1049        1050        1101        1100
         4        1050        1051        1102        1101
         4        1051        1052        1103        1102
         4        1052        1053        1104        1103
         4        1053        1054        1105        1104
         4        1054        1055        1106        1105
         4        1055        1056        1107        1106
         4        1056        1057        1108        1107
         4        1057        1058        1109        1108
         4        1058        1059        1110        1109
         4        1059        1060        1111        1110
         4        1060        1061        1112        1111
         4        1061        1062        1113        1112
         4        1062        1063        1114        1113
         4        1063        1064        1115        1114
         4        1064        1065        1116        1115
         4        1065        1066        1117        1116
         4        1066        1067        1118        1117
         4        1067        1068        1119        1118
         4        1068        1069        1120        1119
         4        1069        1070        1121        1120
         4        1071        1072        1123        1122
         4        1072        1073        1124        1123
         4        1073        1074        1125        1124
         4        1074        1075        1126        1125
         4        1075        1076        1127        1126
         4        1076        1077        1128        1127
         4        1077        1078        1129        1128
         4        1078        1079        1130        1129
         4        1079        1080        1131        1130
         4        1080        1081        1132        1131
         4        1081        1082        1133        1132
         4        1082        1083        1134        1133
         4        1083        1084        1135        1134
         4        1084        1085        1136        1135
         4        1085        1086        1137        1136
         4        1086        1087        1138        1137
         4        1087        1088        1139        1138
         4        1088        1089        1140        1139
         4        1089        1090        1141        1140
         4        1090        1091        1142        1141
         4        1091        1092        1143        1142
         4        1092        1093        1144        1143
         4        1093        1094        1145        1144
         4        1094        1095        1146        1145
         4        1095        1096        1147        1146
         4        1096        1097        1148        1147
         4        1097        1098        1149        1148
         4        1098        1099        1150        1149
         4        1099        1100        1151        1150
         4        1100        1101        1152        1151
         4        1101        1102        1153        1152
         4        1102        1103        1154        1153
         4        1103        1104        1155        1154
         4        1104        1105        1156        1155
         4        1105        1106        1157        1156
         4        1106        1107        1158        1157
         4        1107        1108        1159        1158
         4        1108        1109        1160        1159
         4        1109        1110        1161        1160
         4        1110        1111        1162        1161
         4        1111        1112        1163        1162
         4        1112        1113        1164        1163
         4        1113        1114        1165        1164
         4        1114        1115        1166        1165
         4        1115        1116        1167        1166
         4        1116        1117        1168        1167
         4        1117        1118        1169        1168
         4        1118        1119        1170        1169
         4        1119        1120        1171        1170
         4        1120        1121        1172        1171
         4        1122        1123        1174        1173
         4        1123        1124        1175        1174
         4        1124        1125        1176        1175
         4        1125        1126        1177        1176
         4        1126        1127        1178        1177
         4        1127        1128        1179        1178
         4        1128        1129        1180        1179
         4        1129        1130        1181        1180
         4        1130        1131        1182        1181
         4        1131        1132        1183        1182
         4        1132        1133        1184        1183
         4        1133        1134        1185        1184
         4        1134        1135        1186        1185
         4        1135        1136        1187        1186
         4        1136        1137        1188        1187
         4        1137        1138        1189        1188
         4        1138        1139        1190        1189
         4        1139        1140        1191        1190
         4        1140        1141        1192        1191
         4        1141        1142        1193        1192
         4        1142        1143        1194        1193
         4        1143        1144        1195        1194
         4        1144        1145        1196        1195
         4        1145        1146        1197        1196
         4        1146        1147        1198        1197
         4        1147        1148        1199        1198
         4        1148        1149        1200        1199
         4        1149        1150        1201        1200
         4        1150        1151        1202        1201
         4        1151        1152        1203        1202
         4        1152        1153        1204        1203
         4        1153        1154        1205        1204
         4        1154        1155        1206        1205
         4        1155        1156        1207        1206
         4        1156        1157        1208        1207
         4        1157        1158        1209        1208
         4        1158        1159        1210        1209
         4        1159        1160        1211        1210
         4        1160        1161        1212        1211
         4        1161        1162        1213        1212
         4        1162        1163        1214        1213
         4        1163        1164        1215        1214
         4        1164        1165        1216        1215
         4        1165        1166        1217        1216
         4        1166        1167        1218        1217
         4        1167        1168        1219        1218
         4        1168        1169        1220        1219
         4        1169        1170        1221        1220
         4        1170        1171        1222        1221
         4        1171        1172        1223        1222
         4        1173        1174        1225        1224
         4        1174        1175        1226        1225
         4        1175        1176        1227        1226
         4        1176        1177        1228        1227
         4        1177        1178        1229        1228
         4        1178        1179        1230        1229
         4        1179        1180        1231        1230
         4        1180        1181        1232        1231
         4        1181        1182        1233        1232
         4        1182        1183        1234        1233
         4        1183        1184        1235        1234
         4        1184        1185        1236        1235
         4        1185        1186        1237        1236
         4        1186        1187        1238        1237
         4        1187        1188        1239        1238
         4        1188        1189        1240        1239
         4        1189        1190        1241        1240
         4        1190        1191        1242        1241
         4        1191        1192        1243        1242
         4        1192        1193        1244        1243
         4        1193        1194        1245        1244
         4        1194        1195        1246        1245
         4        1195        1196        1247        1246
         4        1196        1197        1248        1247
         4        1197        1198        1249        1248
         4        1198        1199        1250        1249
         4        1199        1200        1251        1250
         4        1200        1201        1252        1251
         4        1201        1202        1253        1252
         4        1202        1203        1254        1253
         4        1203        1204        1255        1254
         4        1204        1205        1256        1255
         4        1205        1206        1257        1256
         4        1206        1207        1258        1257
         4        1207        1208        1259        1258
         4        1208        1209        1260        1259
         4        1209        1210        1261        1260
         4        1210        1211        1262        1261
         4        1211        1212        1263        1262
         4        1212        1213        1264        1263
         4        1213        1214        1265        1264
         4        1214        1215        1266        1265
         4        1215        1216        1267        1266
         4        1216        1217        1268        1267
         4        1217        1218        1269        1268
         4        1218        1219        1270        1269
         4        1219        1220        1271        1270
         4        1220        1221        1272        1271
         4        1221        1222        1273        1272
         4        1222        1223        1274        1273
         4        1224        1225        1276        1275
         4        1225        1226        1277        1276
         4        1226        1227        1278        1277
         4        1227        1228        1279        1278
         4        1228        1229        1280        1279
         4        1229        1230        1281        1280
         4        1230        1231        1282        1281
         4        1231        1232        1283        1282
         4        1232        1233        1284        1283
         4        1233        1234        1285        1284
         4        1234        1235        1286        1285
         4        1235        1236        1287        1286
         4        1236        1237        1288        1287
         4        1237        1238        1289        1288
         4        1238        1239        1290        1289
         4        1239        1240        1291        1290
         4        1240        1241        1292        1291
         4        1241        1242        1293        1292
         4        1242        1243        1294        1293
         4        1243        1244        1295        1294
         4        1244        1245        1296        1295
         4        1245        1246        1297        1296
         4        1246        1247        1298        1297
         4        1247        1248        1299        1298
         4        1248        1249        1300        1299
         4        1249        1250        1301        1300
         4        1250        1251        1302        1301
         4        1251        1252        1303        1302
         4        1252        1253        1304        1303
         4        1253        1254        1305        1304
         4        1254        1255        1306        1305
         4        1255        1256        1307        1306
         4        1256        1257        1308        1307
         4        1257        1258        1309        1308
         4        1258        1259        1310        1309
         4        1259        1260        1311        1310
         4        1260        1261        1312        1311
         4        1261        1262        1313        1312
         4        1262        1263        1314        1313
         4        1263        1264        1315        1314
         4        1264        1265        1316        1315
         4        1265        1266        1317        1316
         4        1266        1267        1318        1317
         4        1267        1268        1319        1318
         4        1268        1269        1320        1319
         4        1269        1270        1321        1320
         4        1270        1271        1322        1321
         4        1271        1272        1323        1322
         4        1272        1273        1324        1323
         4        1273        1274        1325        1324
         4        1275        1276        1327        1326
         4        1276        1277        1328        1327
         4        1277        1278        1329        1328
         4        1278        1279        1330        1329
         4        1279        1280        1331        1330
         4        1280        1281        1332        1331
         4        1281        1282        1333        1332
         4        1282        1283        1334        1333
         4        1283        1284        1335        1334
         4        1284        1285        1336        1335
         4        1285        1286        1337        1336
         4        1286        1287        1338        1337
         4        1287        1288        1339        1338
         4        1288        1289        1340        1339
         4        1289        1290        1341        1340
         4        1290        1291        1342        1341
         4        1291        1292        1343        1342
         4        1292        1293        1344        1343
         4        1293        1294        1345        1344
         4        1294        1295        1346        1345
         4        1295        1296        1347        1346
         4        1296        1297        1348        1347
         4        1297        1298        1349        1348
         4        1298        1299        1350        1349
         4        1299        1300        1351        1350
         4        1300        1301        1352        1351
         4        1301        1302        1353        1352
         4        1302        1303        1354        1353
         4        1303        1304        1355        1354
         4        1304        1305        1356        1355
         4        1305        1306        1357        1356
         4        1306        1307        1358        1357
         4        1307        1308        1359        1358
         4        1308        1309        1360        1359
         4        1309        1310        1361        1360
         4        1310        1311        1362        1361
         4        1311        1312        1363        1362
         4        1312        1313        1364        1363
         4        1313        1314        1365        1364
         4        1314        1315        1366        1365
         4        1315        1316        1367        1366
         4        1316        1317        1368        1367
         4        1317        1318        1369        1368
         4        1318        1319        1370        1369
         4        1319        1320        1371        1370
         4        1320        1321        1372        1371
         4        1321        1322        1373        1372
         4        1322        1323        1374        1373
         4        1323        1324        1375        1374
         4        1324        1325        1376        1375
         4        1326        1327        1378        1377
         4        1327        1328        1379        1378
         4        1328        1329        1380        1379
         4        1329        1330        1381        1380
         4        1330        1331        1382        1381
         4        1331        1332        1383        1382
         4        1332        1333        1384        1383
         4        1333        1334        1385        1384
         4        1334        1335        1386        1385
         4        1335        1336        1387        1386
         4        1336        1337        1388        1387
         4        1337        1338        1389        1388
         4        1338        1339        1390        1389
         4        1339        1340        1391        1390
         4        1340        1341        1392        1391
         4        1341        1342        1393        1392
         4        1342        1343        1394        1393
         4        1343        1344        1395        1394
         4        1344        1345        1396        1395
         4        1345        1346        1397        1396
         4        1346        1347        1398        1397
         4        1347        1348        1399        1398
         4        1348        1349        1400        1399
         4        1349        1350        1401        1400
         4        1350        1351        1402        1401
         4        1351        1352        1403        1402
         4        1352        1353        1404        1403
         4        1353        1354        1405        1404
         4        1354        1355        1406        1405
         4        1355        1356        1407        1406
         4        1356        1357        1408        1407
         4        1357        1358        1409        1408
         4        1358        1359        1410        1409
         4        1359        1360        1411        1410
         4        1360        1361        1412        1411
         4        1361        1362        1413        1412
         4        1362        1363        1414        1413
         4        1363        1364        1415        1414
         4        1364        1365        1416        1415
         4        1365        1366        1417        1416
         4        1366        1367        1418        1417
         4        1367        1368        1419        1418
         4        1368        1369        1420        1419
         4        1369        1370        1421        1420
         4        1370        1371        1422        1421
         4        1371        1372        1423        1422
         4        1372        1373        1424        1423
         4        1373        1374        1425        1424
         4        1374        1375        1426        1425
         4        1375        1376        1427        1426
         4        1377        1378        1429        1428
         4        1378        1379        1430        1429
         4        1379        1380        1431        1430
         4        1380        1381        1432        1431
         4        1381        1382        1433        1432
         4        1382        1383        1434        1433
         4        1383        1384        1435        1434
         4        1384        1385        1436        1435
         4        1385        1386        1437        1436
         4        1386        1387        1438        1437
         4        1387        1388        1439        1438
         4        1388        1389        1440        1439
         4        1389        1390        1441        1440
         4        1390        1391        1442        1441
         4        1391        1392        1443        1442
         4        1392        1393        1444        1443
         4        1393        1394        1445        1444
         4        1394        1395        1446        1445
         4        1395        1396        1447        1446
         4        1396        1397        1448        1447
         4        1397        1398        1449        1448
         4        1398        1399        1450        1449
         4        1399        1400        1451        1450
         4        1400        1401        1452        1451
         4        1401        1402        1453        1452
         4        1402        1403        1454        1453
         4        1403        1404        1455        1454
         4        1404        1405        1456        1455
         4        1405        1406        1457        1456
         4        1406        1407        1458        1457
         4        1407        1408        1459        1458
         4        1408        1409        1460        1459
         4        1409        1410        1461        1460
         4        1410        1411        1462        1461
         4        1411        1412        1463        1462
         4        1412        1413        1464        1463
         4        1413        1414        1465        1464
         4        1414        1415        1466        1465
         4        1415        1416        1467        1466
         4        1416        1417        1468        1467
         4        1417        1418        1469        1468
         4        1418        1419        1470        1469
         4        1419        1420        1471        1470
         4        1420        1421        1472        1471
         4        1421        1422        1473        1472
         4        1422        1423        1474        1473
         4        1423        1424        1475        1474
         4        1424        1425        1476        1475
         4        1425        1426        1477        1476
         4        1426        1427        1478        1477
         4        1428        1429        1480        1479
         4        1429        1430        1481        1480
         4        1430        1431        1482        1481
         4        1431        1432        1483        1482
         4        1432        1433        1484        1483
         4        1433        1434        1485        1484
         4        1434        1435        1486        1485
         4        1435        1436        1487        1486
         4        1436        1437        1488        1487
         4        1437        1438        1489        1488
         4        1438        1439        1490        1489
         4        1439        1440        1491        1490
         4        1440        1441        1492        1491
         4        1441        1442        1493        1492
         4        1442        1443        1494        1493
         4        1443        1444        1495        1494
         4        1444        1445        1496        1495
         4        1445        1446        1497        1496
         4        1446        1447        1498        1497
         4        1447        1448        1499        1498
         4        1448        1449        1500        1499
         4        1449        1450        1501        1500
         4        1450        1451        1502        1501
         4        1451        1452        1503        1502
         4        1452        1453        1504        1503
         4        1453        1454        1505        1504
         4        1454        1455        1506        1505
         4        1455        1456        1507        1506
         4        1456        1457        1508        1507
         4        1457        1458        1509        1508
         4        1458        1459        1510        1509
         4        1459        1460        1511        1510
         4        1460        1461        1512        1511
         4        1461        1462        1513        1512
         4        1462        1463        1514        1513
         4        1463        1464        1515        1514
         4        1464        1465        1516        1515
         4        1465        1466        1517        1516
         4        1466        1467        1518        1517
         4        1467        1468        1519        1518
         4        1468        1469        1520        1519
         4        1469        1470        1521        1520
         4        1470        1471        1522        1521
         4        1471        1472        1523        1522
         4        1472        1473        1524        1523
         4        1473        1474        1525        1524
         4        1474        1475        1526        1525
         4        1475        1476        1527        1526
         4        1476        1477        1528        1527
         4        1477        1478        1529        1528
         4        1479        1480        1531        1530
         4        1480        1481        1532        1531
         4        1481        1482        1533        1532
         4        1482        1483        1534        1533
         4        1483        1484        1535        1534
         4        1484        1485        1536        1535
         4        1485        1486        1537        1536
         4        1486        1487        1538        1537
         4        1487        1488        1539        1538
         4        1488        1489        1540        1539
         4        1489        1490        1541        1540
         4        1490        1491        1542        1541
         4        1491        1492        1543        1542
         4        1492        1493        1544        1543
         4        1493        1494        1545        1544
         4        1494        1495        1546        1545
         4        1495        1496        1547        1546
         4        1496        1497        1548        1547
         4        1497        1498        1549        1548
         4        1498        1499        1550        1549
         4        1499        1500        1551        1550
         4        1500        1501        1552        1551
         4        1501        1502        1553        1552
         4        1502        1503        1554        1553
         4        1503        1504        1555        1554
         4        1504        1505        1556        1555
         4        1505        1506        1557        1556
         4        1506        1507        1558        1557
         4        1507        1508        1559        1558
         4        1508        1509        1560        1559
         4        1509        1510        1561        1560
         4        1510        1511        1562        1561
         4        1511        1512        1563        1562
         4        1512        1513        1564        1563
         4        1513        1514        1565        1564
         4        1514        1515        1566        1565
         4        1515        1516        1567        1566
         4        1516        1517        1568        1567
         4        1517        1518        1569        1568
         4        1518        1519        1570        1569
         4        1519        1520        1571        1570
         4        1520        1521        1572        1571
         4        1521        1522        1573        1572
         4        1522        1523        1574        1573
         4        1523        1524        1575        1574
         4        1524        1525        1576        1575
         4        1525        1526        1577        1576
         4        1526        1527        1578        1577
         4        1527        1528        1579        1578
         4        1528        1529        1580        1579
         4        1530        1531        1582        1581
         4        1531        1532        1583        1582
         4        1532        1533        1584        1583
         4        1533        1534        1585        1584
         4        1534        1535        1586        1585
         4        1535        1536        1587        1586
         4        1536        1537        1588        1587
         4        1537        1538        1589        1588
         4        1538        1539        1590        1589
         4        1539        1540        1591        1590
         4        1540        1541        1592        1591
         4        1541        1542        1593        1592
         4        1542        1543        1594        1593
         4        1543        1544        1595        1594
         4        1544        1545        1596        1595
         4        1545        1546        1597        1596
         4        1546        1547        1598        1597
         4        1547        1548        1599        1598
         4        1548        1549        1600        1599
         4        1549        1550        1601        1600
         4        1550        1551        1602        1601
         4        1551        1552        1603        1602
         4        1552        1553        1604        1603
         4        1553        1554        1605        1604
         4        1554        1555        1606        1605
         4        1555        1556        1607        1606
         4        1556        1557        1608        1607
         4        1557        1558        1609        1608
         4        1558        1559        1610        1609
         4        1559        1560        1611        1610
         4        1560        1561        1612        1611
         4        1561        1562        1613        1612
         4        1562        1563        1614        1613
         4        1563        1564        1615        1614
         4        1564        1565        1616        1615
         4        1565        1566        1617        1616
         4        1566        1567        1618        1617
         4        1567        1568        1619        1618
         4        1568        1569        1620        1619
         4        1569        1570        1621        1620
         4        1570        1571        1622        1621
         4        1571        1572        1623        1622
         4        1572        1573        1624        1623
         4        1573        1574        1625        1624
         4        1574        1575        1626        1625
         4        1575        1576        1627        1626
         4        1576        1577        1628        1627
         4        1577        1578        1629        1628
         4        1578        1579        1630        1629
         4        1579        1580        1631        1630
         4        1581        1582        1633        1632
         4        1582        1583        1634        1633
         4        1583        1584        1635        1634
         4        1584        1585        1636        1635
         4        1585        1586        1637        1636
         4        1586        1587        1638        1637
         4        1587        1588        1639        1638
         4        1588        1589        1640        1639
         4        1589        1590        1641        1640
         4        1590        1591        1642        1641
         4        1591        1592        1643        1642
         4        1592        1593        1644        1643
         4        1593        1594        1645        1644
         4        1594        1595        1646        1645
         4        1595        1596        1647        1646
         4        1596        1597        1648        1647
         4        1597        1598        1649        1648
         4        1598        1599        1650        1649
         4        1599        1600        1651        1650
         4        1600        1601        1652        1651
         4        1601        1602        1653        1652
         4        1602        1603        1654        1653
         4        1603        1604        1655        1654
         4        1604        1605        1656        1655
         4        1605        1606        1657        1656
         4        1606        1607        1658        1657
         4        1607        1608        1659        1658
         4        1608        1609        1660        1659
         4        1609        1610        1661        1660
         4        1610        1611        1662        1661
         4        1611        1612        1663        1662
         4        1612        1613        1664        1663
         4        1613        1614        1665        1664
         4        1614        1615        1666        1665
         4        1615        1616        1667        1666
         4        1616        1617        1668        1667
         4        1617        1618        1669        1668
         4        1618        1619        1670        1669
         4        1619        1620        1671        1670
         4        1620        1621        1672        1671
         4        1621        1622        1673        1672
         4        1622        1623        1674        1673
         4        1623        1624        1675        1674
         4        1624        1625        1676        1675
         4        1625        1626        1677        1676
         4        1626        1627        1678        1677
         4        1627        1628        1679        1678
         4        1628        1629        1680        1679
         4        1629        1630        1681        1680
         4        1630        1631        1682        1681
         4        1632        1633        1684        1683
         4        1633        1634        1685        1684
         4        1634        1635        1686        1685
         4        1635        1636        1687        1686
         4        1636        1637        1688        1687
         4        1637        1638        1689        1688
         4        1638        1639        1690        1689
         4        1639        1640        1691        1690
         4        1640        1641        1692        1691
         4        1641        1642        1693        1692
         4        1642        1643        1694        1693
         4        1643        1644        1695        1694
         4        1644        1645        1696        1695
         4        1645        1646        1697        1696
         4        1646        1647        1698        1697
         4        1647        1648        1699        1698
         4        1648        1649        1700        1699
         4        1649        1650        1701        1700
         4        1650        1651        1702        1701
         4        1651        1652        1703        1702
         4        1652        1653        1704        1703
         4        1653        1654        1705        1704
         4        1654        1655        1706        1705
         4        1655        1656        1707        1706
         4        1656        1657        1708        1707
         4        1657        1658        1709        1708
         4        1658        1659        1710        1709
         4        1659        1660        1711        1710
         4        1660        1661        1712        1711
         4        1661        1662        1713        1712
         4        1662        1663        1714        1713
         4        1663        1664        1715        1714
         4        1664        1665        1716        1715
         4        1665        1666        1717        1716
         4        1666        1667        1718        1717
         4        1667        1668        1719        1718
         4        1668        1669        1720        1719
         4        1669        1670        1721        1720
         4        1670        1671        1722        1721
         4        1671        1672        1723        1722
         4        1672        1673        1724        1723
         4        1673        1674        1725        1724
         4        1674        1675        1726        1725
         4        1675        1676        1727        1726
         4        1676        1677        1728        1727
         4        1677        1678        1729        1728
         4        1678        1679        1730        1729
         4        1679        1680        1731        1730
         4        1680        1681        1732        1731
         4        1681        1682        1733        1732
         4        1683        1684        1735        1734
         4        1684        1685        1736        1735
         4        1685        1686        1737        1736
         4        1686        1687        1738        1737
         4        1687        1688        1739        1738
         4        1688        1689        1740        1739
         4        1689        1690        1741        1740
         4        1690        1691        1742        1741
         4        1691        1692        1743        1742
         4        1692        1693        1744        1743
         4        1693        1694        1745        1744
         4        1694        1695        1746        1745
         4        1695        1696        1747        1746
         4        1696        1697        1748        1747
         4        1697        1698        1749        1748
         4        1698        1699        1750        1749
         4        1699        1700        1751        1750
         4        1700        1701        1752        1751
         4        1701        1702        1753        1752
         4        1702        1703        1754        1753
         4        1703        1704        1755        1754
         4        1704        1705        1756        1755
         4        1705        1706        1757        1756
         4        1706        1707        1758        1757
         4        1707        1708        1759        1758
         4        1708        1709        1760        1759
         4        1709        1710        1761        1760
         4        1710        1711        1762        1761
         4        1711        1712        1763        1762
         4        1712        1713        1764        1763
         4        1713        1714        1765        1764
         4        1714        1715        1766        1765
         4        1715        1716        1767        1766
         4        1716        1717        1768        1767
         4        1717        1718        1769        1768
         4        1718        1719        1770        1769
         4        1719        1720        1771        1770
         4        1720        1721        1772        1771
         4        1721        1722        1773        1772
         4        1722        1723        1774        1773
         4        1723        1724        1775        1774
         4        1724        1725        1776        1775
         4        1725        1726        1777        1776
         4        1726        1727        1778        1777
         4        1727        1728        1779        1778
         4        1728        1729        1780        1779
         4        1729        1730        1781        1780
         4        1730        1731        1782        1781
         4        1731        1732        1783        1782
         4        1732        1733        1784        1783
         4        1734        1735        1786        1785
         4        1735        1736        1787        1786
         4        1736        1737        1788        1787
         4        1737        1738        1789        1788
         4        1738        1739        1790        1789
         4        1739        1740        1791        1790
         4        1740        1741        1792        1791
         4        1741        1742        1793        1792
         4        1742        1743        1794        1793
         4        1743        1744        1795        1794
         4        1744        1745        1796        1795
         4        1745        1746        1797        1796
         4        1746        1747        1798        1797
         4        1747        1748        1799        1798
         4        1748        1749        1800        1799
         4        1749        1750        1801        1800
         4        1750        1751        1802        1801
         4        1751        1752        1803        1802
         4        1752        1753        1804        1803
         4        1753        1754        1805        1804
         4        1754        1755        1806        1805
         4        1755        1756        1807        1806
         4        1756        1757        1808        1807
         4        1757        1758        1809        1808
         4        1758        1759        1810        1809
         4        1759        1760        1811        1810
         4        1760        1761        1812        1811
         4        1761        1762        1813        1812
         4        1762        1763        1814        1813
         4        1763        1764        1815        1814
         4        1764        1765        1816        1815
         4        1765        1766        1817        1816
         4        1766        1767        1818        1817
         4        1767        1768        1819        1818
         4        1768        1769        1820        1819
         4        1769        1770        1821        1820
         4        1770        1771        1822        1821
         4        1771        1772        1823        1822
         4        1772        1773        1824        1823
         4        1773        1774        1825        1824
         4        1774        1775        1826        1825
         4        1775        1776        1827        1826
         4        1776        1777        1828        1827
         4        1777        1778        1829        1828
         4        1778        1779        1830        1829
         4        1779        1780        1831        1830
         4        1780        1781        1832        1831
         4        1781        1782        1833        1832
         4        1782        1783        1834        1833
         4        1783        1784        1835        1834
         4        1785        1786        1837        1836
         4        1786        1787        1838        1837
         4        1787        1788        1839        1838
         4        1788        1789        1840        1839
         4        1789        1790        1841        1840
         4        1790        1791        1842        1841
         4        1791        1792        1843        1842
         4        1792        1793        1844        1843
         4        1793        1794        1845        1844
         4        1794        1795        1846        1845
         4        1795        1796        1847        1846
         4        1796        1797        1848        1847
         4        1797        1798        1849        1848
         4        1798        1799        1850        1849
         4        1799        1800        1851        1850
         4        1800        1801        1852        1851
         4        1801        1802        1853        1852
         4        1802        1803        1854        1853
         4        1803        1804        1855        1854
         4        1804        1805        1856        1855
         4        1805        1806        1857        1856
         4        1806        1807        1858        1857
         4        1807        1808        1859        1858
         4        1808        1809        1860        1859
         4        1809        1810        1861        1860
         4        1810        1811        1862        1861
         4        1811        1812        1863        1862
         4        1812        1813        1864        1863
         4        1813        1814        1865        1864
         4        1814        1815        1866        1865
         4        1815        1816        1867        1866
         4        1816        1817        1868        1867
         4        1817        1818        1869        1868
         4        1818        1819        1870        1869
         4        1819        1820        1871        1870
         4        1820        1821        1872        1871
         4        1821        1822        1873        1872
         4        1822        1823        1874        1873
         4        1823        1824        1875        1874
         4        1824        1825        1876        1875
         4        1825        1826        1877        1876
         4        1826        1827        1878        1877
         4        1827        1828        1879        1878
         4        1828        1829        1880        1879
         4        1829        1830        1881        1880
         4        1830        1831        1882        1881
         4        1831        1832        1883        1882
         4        1832        1833        1884        1883
         4        1833        1834        1885        1884
         4        1834        1835        1886        1885
         4        1836        1837        1888        1887
         4        1837        1838        1889        1888
         4        1838        1839        1890        1889
         4        1839        1840        1891        1890
         4        1840        1841        1892        1891
         4        1841        1842        1893        1892
         4        1842        1843        1894        1893
         4        1843        1844        1895        1894
         4        1844        1845        1896        1895
         4        1845        1846        1897        1896
         4        1846        1847        1898        1897
         4        1847        1848        1899        1898
         4        1848        1849        1900        1899
         4        1849        1850        1901        1900
         4        1850        1851        1902        1901
         4        1851        1852        1903        1902
         4        1852        1853        1904        1903
         4        1853        1854        1905        1904
         4        1854        1855        1906        1905
         4        1855        1856        1907        1906
         4        1856        1857        1908        1907
         4        1857        1858        1909        1908
         4        1858        1859        1910        1909
         4        1859        1860        1911        1910
         4        1860        1861        1912        1911
         4        1861        1862        1913        1912
         4        1862        1863        1914        1913
         4        1863        1864        1915        1914
         4        1864        1865        1916        1915
         4        1865        1866        1917        1916
         4        1866        1867        1918        1917
         4        1867        1868        1919        1918
         4        1868        1869        1920        1919
         4        1869        1870        1921        1920
         4        1870        1871        1922        1921
         4        1871        1872        1923        1922
         4        1872        1873        1924        1923
         4        1873        1874        1925        1924
         4        1874        1875        1926        1925
         4        1875        1876        1927        1926
         4        1876        1877        1928        1927
         4        1877        1878        1929        1928
         4        1878        1879        1930        1929
         4        1879        1880        1931        1930
         4        1880        1881        1932        1931
         4        1881        1882        1933        1932
         4        1882        1883        1934        1933
         4        1883        1884        1935        1934
         4        1884        1885        1936        1935
         4        1885        1886        1937        1936
         4        1887        1888        1939        1938
         4        1888        1889        1940        1939
         4        1889        1890        1941        1940
         4        1890        1891        1942        1941
         4        1891        1892        1943        1942
         4        1892        1893        1944        1943
         4        1893        1894        1945        1944
         4        1894        1895        1946        1945
         4        1895        1896        1947        1946
         4        1896        1897        1948        1947
         4        1897        1898        1949        1948
         4        1898        1899        1950        1949
         4        1899        1900        1951        1950
         4        1900        1901        1952        1951
         4        1901        1902        1953        1952
         4        1902        1903        1954        1953
         4        1903        1904        1955        1954
         4        1904        1905        1956        1955
         4        1905        1906        1957        1956
         4        1906        1907        1958        1957
         4        1907        1908        1959        1958
         4        1908        1909        1960        1959
         4        1909        1910        1961        1960
         4        1910        1911        1962        1961
         4        1911        1912        1963        1962
         4        1912        1913        1964        1963
         4        1913        1914        1965        1964
         4        1914        1915        1966        1965
         4        1915        1916        1967        1966
         4        1916        1917        1968        1967
         4        1917        1918        1969        1968
         4        1918        1919        1970        1969
         4        1919        1920        1971        1970
         4        1920        1921        1972        1971
         4        1921        1922        1973        1972
         4        1922        1923        1974        1973
         4        1923        1924        1975        1974
         4        1924        1925        1976        1975
         4        1925        1926        1977        1976
         4        1926        1927        1978        1977
         4        1927        1928        1979        1978
         4        1928        1929        1980        1979
         4        1929        1930        1981        1980
         4        1930        1931        1982        1981
         4        1931        1932        1983        1982
         4        1932        1933        1984        1983
         4        1933        1934        1985        1984
         4        1934        1935        1986        1985
         4        1935        1936        1987        1986
         4        1936        1937        1988        1987
         4        1938        1939        1990        1989
         4        1939        1940        1991        1990
         4        1940        1941        1992        1991
         4        1941        1942        1993        1992
         4        1942        1943        1994        1993
         4        1943        1944        1995        1994
         4        1944        1945        1996        1995
         4        1945        1946        1997        1996
         4        1946        1947        1998        1997
         4        1947        1948        1999        1998
         4        1948        1949        2000        1999
         4        1949        1950        2001        2000
         4        1950        1951        2002        2001
         4        1951        1952        2003        2002
         4        1952        1953        2004        2003
         4        1953        1954        2005        2004
         4        1954        1955        2006        2005
         4        1955        1956        2007        2006
         4        1956        1957        2008        2007
         4        1957        1958        2009        2008
         4        1958        1959        2010        2009
         4        1959        1960        2011        2010
         4        1960        1961        2012        2011
         4        1961        1962        2013        2012
         4        1962        1963        2014        2013
         4        1963        1964        2015        2014
         4        1964        1965        2016        2015
         4        1965        1966        2017        2016
         4        1966        1967        2018        2017
         4        1967        1968        2019        2018
         4        1968        1969        2020        2019
         4        1969        1970        2021        2020
         4        1970        1971        2022        2021
         4        1971        1972        2023        2022
         4        1972        1973        2024        2023
         4        1973        1974        2025        2024
         4        1974        1975        2026        2025
         4        1975        1976        2027        2026
         4        1976        1977        2028        2027
         4        1977        1978        2029        2028
         4        1978        1979        2030        2029
         4        1979        1980        2031        2030
         4        1980        1981        2032        2031
         4        1981        1982        2033        2032
         4        1982        1983        2034        2033
         4        1983        1984        2035        2034
         4        1984        1985        2036        2035
         4        1985        1986        2037        2036
         4        1986        1987        2038        2037
         4        1987        1988        2039        2038
         4        1989        1990        2041        2040
         4        1990        1991        2042        2041
         4        1991        1992        2043        2042
         4        1992        1993        2044        2043
         4        1993        1994        2045        2044
         4        1994        1995        2046        2045
         4        1995        1996        2047        2046
         4        1996        1997        2048        2047
         4        1997        1998        2049        2048
         4        1998        1999        2050        2049
         4        1999        2000        2051        2050
         4        2000        2001        2052        2051
         4        2001        2002        2053        2052
         4        2002        2003        2054        2053
         4        2003        2004        2055        2054
         4        2004        2005        2056        2055
         4        2005        2006        2057        2056
         4        2006        2007        2058        2057
         4        2007        2008        2059        2058
         4        2008        2009        2060        2059
         4        2009        2010        2061        2060
         4        2010        2011        2062        2061
         4        2011        2012        2063        2062
         4        2012        2013        2064        2063
         4        2013        2014        2065        2064
         4        2014        2015        2066        2065
         4        2015        2016        2067        2066
         4        2016        2017        2068        2067
         4        2017        2018        2069        2068
         4        2018        2019        2070        2069
         4        2019        2020        2071        2070
         4        2020        2021        2072        2071
         4        2021        2022        2073        2072
         4        2022        2023        2074        2073
         4        2023        2024        2075        2074
         4        2024        2025        2076        2075
         4        2025        2026        2077        2076
         4        2026        2027        2078        2077
         4        2027        2028        2079        2078
         4        2028        2029        2080        2079
         4        2029        2030        2081        2080
         4        2030        2031        2082        2081
         4        2031        2032        2083        2082
         4        2032        2033        2084        2083
         4        2033        2034        2085        2084
         4        2034        2035        2086        2085
         4        2035        2036        2087        2086
         4        2036        2037        2088        2087
         4        2037        2038        2089        2088
         4        2038        2039        2090        2089
         4        2040        2041        2092        2091
         4        2041        2042        2093        2092
         4        2042        2043        2094        2093
         4        2043        2044        2095        2094
         4        2044        2045        2096        2095
         4        2045        2046        2097        2096
         4        2046        2047        2098        2097
         4        2047        2048        2099        2098
         4        2048        2049        2100        2099
         4        2049        2050        2101        2100
         4        2050        2051        2102        2101
         4        2051        2052        2103        2102
         4        2052        2053        2104        2103
         4        2053        2054        2105        2104
         4        2054        2055        2106        2105
         4        2055        2056        2107        2106
         4        2056        2057        2108        2107
         4        2057        2058        2109        2108
         4        2058        2059        2110        2109
         4        2059        2060        2111        2110
         4        2060        2061        2112        2111
         4        2061        2062        2113        2112
         4        2062        2063        2114        2113
         4        2063        2064        2115        2114
         4        2064        2065        2116        2115
         4        2065        2066        2117        2116
         4        2066        2067        2118        2117
         4        2067        2068        2119        2118
         4        2068        2069        2120        2119
         4        2069        2070        2121        2120
         4        2070        2071        2122        2121
         4        2071        2072        2123        2122
         4        2072        2073        2124        2123
         4        2073        2074        2125        2124
         4        2074        2075        2126        2125
         4        2075        2076        2127        2126
         4        2076        2077        2128        2127
         4        2077        2078        2129        2128
         4        2078        2079        2130        2129
         4        2079        2080        2131        2130
         4        2080        2081        2132        2131
         4        2081        2082        2133        2132
         4        2082        2083        2134        2133
         4        2083        2084        2135        2134
         4        2084        2085        2136        2135
         4        2085        2086        2137        2136
         4        2086        2087        2138        2137
         4        2087        2088        2139        2138
         4        2088        2089        2140        2139
         4        2089        2090        2141        2140
         4        2091        2092        2143        2142
         4        2092        2093        2144        2143
         4        2093        2094        2145        2144
         4        2094        2095        2146        2145
         4        2095        2096        2147        2146
         4        2096        2097        2148        2147
         4        2097        2098        2149        2148
         4        2098        2099        2150        2149
         4        2099        2100        2151        2150
         4        2100        2101        2152        2151
         4        2101        2102        2153        2152
         4        2102        2103        2154        2153
         4        2103        2104        2155        2154
         4        2104        2105        2156        2155
         4        2105        2106        2157        2156
         4        2106        2107        2158        2157
         4        2107        2108        2159        2158
         4        2108        2109        2160        2159
         4        2109        2110        2161        2160
         4        2110        2111        2162        2161
         4        2111        2112        2163        2162
         4        2112        2113        2164        2163
         4        2113        2114        2165        2164
         4        2114        2115        2166        2165
         4        2115        2116        2167        2166
         4        2116        2117        2168        2167
         4        2117        2118        2169        2168
         4        2118        2119        2170        2169
         4        2119        2120        2171        2170
         4        2120        2121        2172        2171
         4        2121        2122        2173        2172
         4        2122        2123        2174        2173
         4        2123        2124        2175        2174
         4        2124        2125        2176        2175
         4        2125        2126        2177        2176
         4        2126        2127        2178        2177
         4        2127        2128        2179        2178
         4        2128        2129        2180        2179
         4        2129        2130        2181        2180
         4        2130        2131        2182        2181
         4        2131        2132        2183        2182
         4        2132        2133        2184        2183
         4        2133        2134        2185        2184
         4        2134        2135        2186        2185
         4        2135        2136        2187        2186
         4        2136        2137        2188        2187
         4        2137        2138        2189        2188
         4        2138        2139        2190        2189
         4        2139        2140        2191        2190
         4        2140        2141        2192        2191
         4        2142        2143        2194        2193
         4        2143        2144        2195        2194
         4        2144        2145        2196        2195
         4        2145        2146        2197        2196
         4        2146        2147        2198        2197
         4        2147        2148        2199        2198
         4        2148        2149        2200        2199
         4        2149        2150        2201        2200
         4        2150        2151        2202        2201
         4        2151        2152        2203        2202
         4        2152        2153        2204        2203
         4        2153        2154        2205        2204
         4        2154        2155        2206        2205
         4        2155        2156        2207        2206
         4        2156        2157        2208        2207
         4        2157        2158        2209        2208
         4        2158        2159        2210        2209
         4        2159        2160        2211        2210
         4        2160        2161        2212        2211
         4        2161        2162        2213        2212
         4        2162        2163        2214        2213
         4        2163        2164        2215        2214
         4        2164        2165        2216        2215
         4        2165        2166        2217        2216
         4        2166        2167        2218        2217
         4        2167        2168        2219        2218
         4        2168        2169        2220        2219
         4        2169        2170        2221        2220
         4        2170        2171        2222        2221
         4        2171        2172        2223        2222
         4        2172        2173        2224        2223
         4        2173        2174        2225        2224
         4        2174        2175        2226        2225
         4        2175        2176        2227        2226
         4        2176        2177        2228        2227
         4        2177        2178        2229        2228
         4        2178        2179        2230        2229
         4        2179        2180        2231        2230
         4        2180        2181        2232        2231
         4        2181        2182        2233        2232
         4        2182        2183        2234        2233
         4        2183        2184        2235        2234
         4        2184        2185        2236        2235
         4        2185        2186        2237        2236
         4        2186        2187        2238        2237
         4        2187        2188        2239        2238
         4        2188        2189        2240        2239
         4        2189        2190        2241        2240
         4        2190        2191        2242        2241
         4        2191        2192        2243        2242
         4        2193        2194        2245        2244
         4        2194        2195        2246        2245
         4        2195        2196        2247        2246
         4        2196        2197        2248        2247
         4        2197        2198        2249        2248
         4        2198        2199        2250        2249
         4        2199        2200        2251        2250
         4        2200        2201        2252        2251
         4        2201        2202        2253        2252
         4        2202        2203        2254        2253
         4        2203        2204        2255        2254
         4        2204        2205        2256        2255
         4        2205        2206        2257        2256
         4        2206        2207        2258        2257
         4        2207        2208        2259        2258
         4        2208        2209        2260        2259
         4        2209        2210        2261        2260
         4        2210        2211        2262        2261
         4        2211        2212        2263        2262
         4        2212        2213        2264        2263
         4        2213        2214        2265        2264
         4        2214        2215        2266        2265
         4        2215        2216        2267        2266
         4        2216        2217        2268        2267
         4        2217        2218        2269        2268
         4        2218        2219        2270        2269
         4        2219        2220        2271        2270
         4        2220        2221        2272        2271
         4        2221        2222        2273        2272
         4        2222        2223        2274        2273
         4        2223        2224        2275        2274
         4        2224        2225        2276        2275
         4        2225        2226        2277        2276
         4        2226        2227        2278        2277
         4        2227        2228        2279        2278
         4        2228        2229        2280        2279
         4        2229        2230        2281        2280
         4        2230        2231        2282        2281
         4        2231        2232        2283        2282
         4        2232        2233        2284        2283
         4        2233        2234        2285        2284
         4        2234        2235        2286        2285
         4        2235        2236        2287        2286
         4        2236        2237        2288        2287
         4        2237        2238        2289        2288
         4        2238        2239        2290        2289
         4        2239        2240        2291        2290
         4        2240        2241        2292        2291
         4        2241        2242        2293        2292
         4        2242        2243        2294        2293
         4        2244        2245        2296        2295
         4        2245        2246        2297        2296
         4        2246        2247        2298        2297
         4        2247        2248        2299        2298
         4        2248        2249        2300        2299
         4        2249        2250        2301        2300
         4        2250        2251        2302        2301
         4        2251        2252        2303        2302
         4        2252        2253        2304        2303
         4        2253        2254        2305        2304
         4        2254        2255        2306        2305
         4        2255        2256        2307        2306
         4        2256        2257        2308        2307
         4        2257        2258        2309        2308
         4        2258        2259        2310        2309
         4        2259        2260        2311        2310
         4        2260        2261        2312        2311
         4        2261        2262        2313        2312
         4        2262        2263        2314        2313
         4        2263        2264        2315        2314
         4        2264        2265        2316        2315
         4        2265        2266        2317        2316
         4        2266        2267        2318        2317
         4        2267        2268        2319        2318
         4        2268        2269        2320        2319
         4        2269        2270        2321        2320
         4        2270        2271        2322        2321
         4        2271        2272        2323        2322
         4        2272        2273        2324        2323
         4        2273        2274        2325        2324
         4        2274        2275        2326        2325
         4        2275        2276        2327        2326
         4        2276        2277        2328        2327
         4        2277        2278        2329        2328
         4        2278        2279        2330        2329
         4        2279        2280        2331        2330
         4        2280        2281        2332        2331
         4        2281        2282        2333        2332
         4        2282        2283        2334        2333
         4        2283        2284        2335        2334
         4        2284        2285        2336        2335
         4        2285        2286        2337        2336
         4        2286        2287        2338        2337
         4        2287        2288        2339        2338
         4        2288        2289        2340        2339
         4        2289        2290        2341        2340
         4        2290        2291        2342        2341
         4        2291        2292        2343        2342
         4        2292        2293        2344        2343
         4        2293        2294        2345        2344
         4        2295        2296        2347        2346
         4        2296        2297        2348        2347
         4        2297        2298        2349        2348
         4        2298        2299        2350        2349
         4        2299        2300        2351        2350
         4        2300        2301        2352        2351
         4        2301        2302        2353        2352
         4        2302        2303        2354        2353
         4        2303        2304        2355        2354
         4        2304        2305        2356        2355
         4        2305        2306        2357        2356
         4        2306        2307        2358        2357
         4        2307        2308        2359        2358
         4        2308        2309        2360        2359
         4        2309        2310        2361        2360
         4        2310        2311        2362        2361
         4        2311        2312        2363        2362
         4        2312        2313        2364        2363
         4        2313        2314        2365        2364
         4        2314        2315        2366        2365
         4        2315        2316        2367        2366
         4        2316        2317        2368        2367
         4        2317        2318        2369        2368
         4        2318        2319        2370        2369
         4        2319        2320        2371        2370
         4        2320        2321        2372        2371
         4        2321        2322        2373        2372
         4        2322        2323        2374        2373
         4        2323        2324        2375        2374
         4        2324        2325        2376        2375
         4        2325        2326        2377        2376
         4        2326        2327        2378        2377
         4        2327        2328        2379        2378
         4        2328        2329        2380        2379
         4        2329        2330        2381        2380
         4        2330        2331        2382        2381
         4        2331        2332        2383        2382
         4        2332        2333        2384        2383
         4        2333        2334        2385        2384
         4        2334        2335        2386        2385
         4        2335        2336        2387        2386
         4        2336        2337        2388        2387
         4        2337        2338        2389        2388
         4        2338        2339        2390        2389
         4        2339        2340        2391        2390
         4        2340        2341        2392        2391
         4        2341        2342        2393        2392
         4        2342        2343        2394        2393
         4        2343        2344        2395        2394
         4        2344        2345        2396        2395
         4        2346        2347        2398        2397
         4        2347        2348        2399        2398
         4        2348        2349        2400        2399
         4        2349        2350        2401        2400
         4        2350        2351        2402        2401
         4        2351        2352        2403        2402
         4        2352        2353        2404        2403
         4        2353        2354        2405        2404
         4        2354        2355        2406        2405
         4        2355        2356        2407        2406
         4        2356        2357        2408        2407
         4        2357        2358        2409        2408
         4        2358        2359        2410        2409
         4        2359        2360        2411        2410
         4        2360        2361        2412        2411
         4        2361        2362        2413        2412
         4        2362        2363        2414        2413
         4        2363        2364        2415        2414
         4        2364        2365        2416        2415
         4        2365        2366        2417        2416
         4        2366        2367        2418        2417
         4        2367        2368        2419        2418
         4        2368        2369        2420        2419
         4        2369        2370        2421        2420
         4        2370        2371        2422        2421
         4        2371        2372        2423        2422
         4        2372        2373        2424        2423
         4        2373        2374        2425        2424
         4        2374        2375        2426        2425
         4        2375        2376        2427        2426
         4        2376        2377        2428        2427
         4        2377        2378        2429        2428
         4        2378        2379        2430        2429
         4        2379        2380        2431        2430
         4        2380        2381        2432        2431
         4        2381        2382        2433        2432
         4        2382        2383        2434        2433
         4        2383        2384        2435        2434
         4        2384        2385        2436        2435
         4        2385        2386        2437        2436
         4        2386        2387        2438        2437
         4        2387        2388        2439        2438
         4        2388        2389        2440        2439
         4        2389        2390        2441        2440
         4        2390        2391        2442        2441
         4        2391        2392        2443        2442
         4        2392        2393        2444        2443
         4        2393        2394        2445        2444
         4        2394        2395        2446        2445
         4        2395        2396        2447        2446
         4        2397        2398        2449        2448
         4        2398        2399        2450        2449
         4        2399        2400        2451        2450
         4        2400        2401        2452        2451
         4        2401        2402        2453        2452
         4        2402        2403        2454        2453
         4        2403        2404        2455        2454
         4        2404        2405        2456        2455
         4        2405        2406        2457        2456
         4        2406        2407        2458        2457
         4        2407        2408        2459        2458
         4        2408        2409        2460        2459
         4        2409        2410        2461        2460
         4        2410        2411        2462        2461
         4        2411        2412        2463        2462
         4        2412        2413        2464        2463
         4        2413        2414        2465        2464
         4        2414        2415        2466        2465
         4        2415        2416        2467        2466
         4        2416        2417        2468        2467
         4        2417        2418        2469        2468
         4        2418        2419        2470        2469
         4        2419        2420        2471        2470
         4        2420        2421        2472        2471
         4        2421        2422        2473        2472
         4        2422        2423        2474        2473
         4        2423        2424        2475        2474
         4        2424        2425        2476        2475
         4        2425        2426        2477        2476
         4        2426        2427        2478        2477
         4        2427        2428        2479        2478
         4        2428        2429        2480        2479
         4        2429        2430        2481        2480
         4        2430        2431        2482        2481
         4        2431        2432        2483        2482
         4        2432        2433        2484        2483
         4        2433        2434        2485        2484
         4        2434        2435        2486        2485
         4        2435        2436        2487        2486
         4        2436        2437        2488        2487
         4        2437        2438        2489        2488
         4        2438        2439        2490        2489
         4        2439        2440        2491        2490
         4        2440        2441        2492        2491
         4        2441        2442        2493        2492
         4        2442        2443        2494        2493
         4        2443        2444        2495        2494
         4        2444        2445        2496        2495
         4        2445        2446        2497        2496
         4        2446        2447        2498        2497
         4        2448        2449        2500        2499
         4        2449        2450        2501        2500
         4        2450        2451        2502        2501
         4        2451        2452        2503        2502
         4        2452        2453        2504        2503
         4        2453        2454        2505        2504
         4        2454        2455        2506        2505
         4        2455        2456        2507        2506
         4        2456        2457        2508        2507
         4        2457        2458        2509        2508
         4        2458        2459        2510        2509
         4        2459        2460        2511        2510
         4        2460        2461        2512        2511
         4        2461        2462        2513        2512
         4        2462        2463        2514        2513
         4        2463        2464        2515        2514
         4        2464        2465        2516        2515
         4        2465        2466        2517        2516
         4        2466        2467        2518        2517
         4        2467        2468        2519        2518
         4        2468        2469        2520        2519
         4        2469        2470        2521        2520
         4        2470        2471        2522        2521
         4        2471        2472        2523        2522
         4        2472        2473        2524        2523
         4        2473        2474        2525        2524
         4        2474        2475        2526        2525
         4        2475        2476        2527        2526
         4        2476        2477        2528        2527
         4        2477        2478        2529        2528
         4        2478        2479        2530        2529
         4        2479        2480        2531        2530
         4        2480        2481        2532        2531
         4        2481        2482        2533        2532
         4        2482        2483        2534        2533
         4        2483        2484        2535        2534
         4        2484        2485        2536        2535
         4        2485        2486        2537        2536
         4        2486        2487        2538        2537
         4        2487        2488        2539        2538
         4        2488        2489        2540        2539
         4        2489        2490        2541        2540
         4        2490        2491        2542        2541
         4        2491        2492        2543        2542
         4        2492        2493        2544        2543
         4        2493        2494        2545        2544
         4        2494        2495        2546        2545
         4        2495        2496        2547        2546
         4        2496        2497        2548        2547
         4        2497        2498        2549        2548
         4        2499        2500        2551        2550
         4        2500        2501        2552        2551
         4        2501        2502        2553        2552
         4        2502        2503        2554        2553
         4        2503        2504        2555        2554
         4        2504        2505        2556        2555
         4        2505        2506        2557        2556
         4        2506        2507        2558        2557
         4        2507        2508        2559        2558
         4        2508        2509        2560        2559
         4        2509        2510        2561        2560
         4        2510        2511        2562        2561
         4        2511        2512        2563        2562
         4        2512        2513        2564        2563
         4        2513        2514        2565        2564
         4        2514        2515        2566        2565
         4        2515        2516        2567        2566
         4        2516        2517        2568        2567
         4        2517        2518        2569        2568
         4        2518        2519        2570        2569
         4        2519        2520        2571        2570
         4        2520        2521        2572        2571
         4        2521        2522        2573        2572
         4        2522        2523        2574        2573
         4        2523        2524        2575        2574
         4        2524        2525        2576        2575
         4        2525        2526        2577        2576
         4        2526        2527        2578        2577
         4        2527        2528        2579        2578
         4        2528        2529        2580        2579
         4        2529        2530        2581        2580
         4        2530        2531        2582        2581
         4        2531        2532        2583        2582
         4        2532        2533        2584        2583
         4        2533        2534        2585        2584
         4        2534        2535        2586        2585
         4        2535        2536        2587        2586
         4        2536        2537        2588        2587
         4        2537        2538        2589        2588
         4        2538        2539        2590        2589
         4        2539        2540        2591        2590
         4        2540        2541        2592        2591
         4        2541        2542        2593        2592
         4        2542        2543        2594        2593
         4        2543        2544        2595        2594
         4        2544        2545        2596        2595
         4        2545        2546        2597        2596
         4        2546        2547        2598        2597
         4        2547        2548        2599        2598
         4        2548        2549        2600        2599
         4        2550        2551        2602        2601
         4        2551        2552        2603        2602
         4        2552        2553        2604        2603
         4        2553        2554        2605        2604
         4        2554        2555        2606        2605
         4        2555        2556        2607        2606
         4        2556        2557        2608        2607
         4        2557        2558        2609        2608
         4        2558        2559        2610        2609
         4        2559        2560        2611        2610
         4        2560        2561        2612        2611
         4        2561        2562        2613        2612
         4        2562        2563        2614        2613
         4        2563        2564        2615        2614
         4        2564        2565        2616        2615
         4        2565        2566        2617        2616
         4        2566        2567        2618        2617
         4        2567        2568        2619        2618
         4        2568        2569        2620        2619
         4        2569        2570        2621        2620
         4        2570        2571        2622        2621
         4        2571        2572        2623        2622
         4        2572        2573        2624        2623
         4        2573        2574        2625        2624
         4        2574        2575        2626        2625
         4        2575        2576        2627        2626
         4        2576        2577        2628        2627
         4        2577        2578        2629        2628
         4        2578        2579        2630        2629
         4        2579        2580        2631        2630
         4        2580        2581        2632        2631
         4        2581        2582        2633        2632
         4        2582        2583        2634        2633
         4        2583        2584        2635        2634
         4        2584        2585        2636        2635
         4        2585        2586        2637        2636
         4        2586        2587        2638        2637
         4        2587        2588        2639        2638
         4        2588        2589        2640        2639
         4        2589        2590        2641        2640
         4        2590        2591        2642        2641
         4        2591        2592        2643        2642
         4        2592        2593        2644        2643
         4        2593        2594        2645        2644
         4        2594        2595        2646        2645
         4        2595        2596        2647        2646
         4        2596        2597        2648        2647
         4        2597        2598        2649        2648
         4        2598        2599        2650        2649
         4        2599        2600        2651        2650
         4        2601        2602        2653        2652
         4        2602        2603        2654        2653
         4        2603        2604        2655        2654
         4        2604        2605        2656        2655
         4        2605        2606        2657        2656
         4        2606        2607        2658        2657
         4        2607        2608        2659        2658
         4        2608        2609        2660        2659
         4        2609        2610        2661        2660
         4        2610        2611        2662        2661
         4        2611        2612        2663        2662
         4        2612        2613        2664        2663
         4        2613        2614        2665        2664
         4        2614        2615        2666        2665
         4        2615        2616        2667        2666
         4        2616        2617        2668        2667
         4        2617        2618        2669        2668
         4        2618        2619        2670        2669
         4        2619        2620        2671        2670
         4        2620        2621        2672        2671
         4        2621        2622        2673        2672
         4        2622        2623        2674        2673
         4        2623        2624        2675        2674
         4        2624        2625        2676        2675
         4        2625        2626        2677        2676
         4        2626        2627        2678        2677
         4        2627        2628        2679        2678
         4        2628        2629        2680        2679
         4        2629        2630        2681        2680
         4        2630        2631        2682        2681
         4        2631        2632        2683        2682
         4        2632        2633        2684        2683
         4        2633        2634        2685        2684
         4        2634        2635        2686        2685
         4        2635        2636        2687        2686
         4        2636        2637        2688        2687
         4        2637        2638        2689        2688
         4        2638        2639        2690        2689
         4        2639        2640        2691        2690
         4        2640        2641        2692        2691
         4        2641        2642        2693        2692
         4        2642        2643        2694        2693
         4        2643        2644        2695        2694
         4        2644        2645        2696        2695
         4        2645        2646        2697        2696
         4        2646        2647        2698        2697
         4        2647        2648        2699        2698
         4        2648        2649        2700        2699
         4        2649        2650        2701        2700
         4        2650        2651        2702        2701
         4        2652        2653        2704        2703
         4        2653        2654        2705        2704
         4        2654        2655        2706        2705
         4        2655        2656        2707        2706
         4        2656        2657        2708        2707
         4        2657        2658        2709        2708
         4        2658        2659        2710        2709
         4        2659        2660        2711        2710
         4        2660        2661        2712        2711
         4        2661        2662        2713        2712
         4        2662        2663        2714        2713
         4        2663        2664        2715        2714
         4        2664        2665        2716        2715
         4        2665        2666        2717        2716
         4        2666        2667        2718        2717
         4        2667        2668        2719        2718
         4        2668        2669        2720        2719
         4        2669        2670        2721        2720
         4        2670        2671        2722        2721
         4        2671        2672        2723        2722
         4        2672        2673        2724        2723
         4        2673        2674        2725        2724
         4        2674        2675        2726        2725
         4        2675        2676        2727        2726
         4        2676        2677        2728        2727
         4        2677        2678        2729        2728
         4        2678        2679        2730        2729
         4        2679        2680        2731        2730
         4        2680        2681        2732        2731
         4        2681        2682        2733        2732
         4        2682        2683        2734        2733
         4        2683        2684        2735        2734
         4        2684        2685        2736        2735
         4        2685        2686        2737        2736
         4        2686        2687        2738        2737
         4        2687        2688        2739        2738
         4        2688        2689        2740        2739
         4        2689        2690        2741        2740
         4        2690        2691        2742        2741
         4        2691        2692        2743        2742
         4        2692        2693        2744        2743
         4        2693        2694        2745        2744
         4        2694        2695        2746        2745
         4        2695        2696        2747        2746
         4        2696        2697        2748        2747
         4        2697        2698        2749        2748
         4        2698        2699        2750        2749
         4        2699        2700        2751        2750
         4        2700        2701        2752        2751
         4        2701        2702        2753        2752
         4        2703        2704        2755        2754
         4        2704        2705        2756        2755
         4        2705        2706        2757        2756
         4        2706        2707        2758        2757
         4        2707        2708        2759        2758
         4        2708        2709        2760        2759
         4        2709        2710        2761        2760
         4        2710        2711        2762        2761
         4        2711        2712        2763        2762
         4        2712        2713        2764        2763
         4        2713        2714        2765        2764
         4        2714        2715        2766        2765
         4        2715        2716        2767        2766
         4        2716        2717        2768        2767
         4        2717        2718        2769        2768
         4        2718        2719        2770        2769
         4        2719        2720        2771        2770
         4        2720        2721        2772        2771
         4        2721        2722        2773        2772
         4        2722        2723        2774        2773
         4        2723        2724        2775        2774
         4        2724        2725        2776        2775
         4        2725        2726        2777        2776
         4        2726        2727        2778        2777
         4        2727        2728        2779        2778
         4        2728        2729        2780        2779
         4        2729        2730        2781        2780
         4        2730        2731        2782        2781
         4        2731        2732        2783        2782
         4        2732        2733        2784        2783
         4        2733        2734        2785        2784
         4        2734        2735        2786        2785
         4        2735        2736        2787        2786
         4        2736        2737        2788        2787
         4        2737        2738        2789        2788
         4        2738        2739        2790        2789
         4        2739        2740        2791        2790
         4        2740        2741        2792        2791
         4        2741        2742        2793        2792
         4        2742        2743        2794        2793
         4        2743        2744        2795        2794
         4        2744        2745        2796        2795
         4        2745        2746        2797        2796
         4        2746        2747        2798        2797
         4        2747        2748        2799        2798
         4        2748        2749        2800        2799
         4        2749        2750        2801        2800
         4        2750        2751        2802        2801
         4        2751        2752        2803        2802
         4        2752        2753        2804        2803
         4        2754        2755        2806        2805
         4        2755        2756        2807        2806
         4        2756        2757        2808        2807
         4        2757        2758        2809        2808
         4        2758        2759        2810        2809
         4        2759        2760        2811        2810
         4        2760        2761        2812        2811
         4        2761        2762        2813        2812
         4        2762        2763        2814        2813
         4        2763        2764        2815        2814
         4        2764        2765        2816        2815
         4        2765        2766        2817        2816
         4        2766        2767        2818        2817
         4        2767        2768        2819        2818
         4        2768        2769        2820        2819
         4        2769        2770        2821        2820
         4        2770        2771        2822        2821
         4        2771        2772        2823        2822
         4        2772        2773        2824        2823
         4        2773        2774        2825        2824
         4        2774        2775        2826        2825
         4        2775        2776        2827        2826
         4        2776        2777        2828        2827
         4        2777        2778        2829        2828
         4        2778        2779        2830        2829
         4        2779        2780        2831        2830
         4        2780        2781        2832        2831
         4        2781        2782        2833        2832
         4        2782        2783        2834        2833
         4        2783        2784        2835        2834
         4        2784        2785        2836        2835
         4        2785        2786        2837        2836
         4        2786        2787        2838        2837
         4        2787        2788        2839        2838
         4        2788        2789        2840        2839
         4        2789        2790        2841        2840
         4        2790        2791        2842        2841
         4        2791        2792        2843        2842
         4        2792        2793        2844        2843
         4        2793        2794        2845        2844
         4        2794        2795        2846        2845
         4        2795        2796        2847        2846
         4        2796        2797        2848        2847
         4        2797        2798        2849        2848
         4        2798        2799        2850        2849
         4        2799        2800        2851        2850
         4        2800        2801        2852        2851
         4        2801        2802        2853        2852
         4        2802        2803        2854        2853
         4        2803        2804        2855        2854
         4        2805        2806        2857        2856
         4        2806        2807        2858        2857
         4        2807        2808        2859        2858
         4        2808        2809        2860        2859
         4        2809        2810        2861        2860
         4        2810        2811        2862        2861
         4        2811        2812        2863        2862
         4        2812        2813        2864        2863
         4        2813        2814        2865        2864
         4        2814        2815        2866        2865
         4        2815        2816        2867        2866
         4        2816        2817        2868        2867
         4        2817        2818        2869        2868
         4        2818        2819        2870        2869
         4        2819        2820        2871        2870
         4        2820        2821        2872        2871
         4        2821        2822        2873        2872
         4        2822        2823        2874        2873
         4        2823        2824        2875        2874
         4        2824        2825        2876        2875
         4        2825        2826        2877        2876
         4        2826        2827        2878        2877
         4        2827        2828        2879        2878
         4        2828        2829        2880        2879
         4        2829        2830        2881        2880
         4        2830        2831        2882        2881
         4        2831        2832        2883        2882
         4        2832        2833        2884        2883
         4        2833        2834        2885        2884
         4        2834        2835        2886        2885
         4        2835        2836        2887        2886
         4        2836        2837        2888        2887
         4        2837        2838        2889        2888
         4        2838        2839        2890        2889
         4        2839        2840        2891        2890
         4        2840        2841        2892        2891
         4        2841        2842        2893        2892
         4        2842        2843        2894        2893
         4        2843        2844        2895        2894
         4        2844        2845        2896        2895
         4        2845        2846        2897        2896
         4        2846        2847        2898        2897
         4        2847        2848        2899        2898
         4        2848        2849        2900        2899
         4        2849        2850        2901        2900
         4        2850        2851        2902        2901
         4        2851        2852        2903        2902
         4        2852        2853        2904        2903
         4        2853        2854        2905        2904
         4        2854        2855        2906        2905
         4        2856        2857        2908        2907
         4        2857        2858        2909        2908
         4        2858        2859        2910        2909
         4        2859        2860        2911        2910
         4        2860        2861        2912        2911
         4        2861        2862        2913        2912
         4        2862        2863        2914        2913
         4        2863        2864        2915        2914
         4        2864        2865        2916        2915
         4        2865        2866        2917        2916
         4        2866        2867        2918        2917
         4        2867        2868        2919        2918
         4        2868        2869        2920        2919
         4        2869        2870        2921        2920
         4        2870        2871        2922        2921
         4        2871        2872        2923        2922
         4        2872        2873        2924        2923
         4        2873        2874        2925        2924
         4        2874        2875        2926        2925
         4        2875        2876        2927        2926
         4        2876        2877        2928        2927
         4        2877        2878        2929        2928
         4        2878        2879        2930        2929
         4        2879        2880        2931        2930
         4        2880        2881        2932        2931
         4        2881        2882        2933        2932
         4        2882        2883        2934        2933
         4        2883        2884        2935        2934
         4        2884        2885        2936        2935
         4        2885        2886        2937        2936
         4        2886        2887        2938        2937
         4        2887        2888        2939        2938
         4        2888        2889        2940        2939
         4        2889        2890        2941        2940
         4        2890        2891        2942        2941
         4        2891        2892        2943        2942
         4        2892        2893        2944        2943
         4        2893        2894        2945        2944
         4        2894        2895        2946        2945
         4        2895        2896        2947        2946
         4        2896        2897        2948        2947
         4        2897        2898        2949        2948
         4        2898        2899        2950        2949
         4        2899        2900        2951        2950
         4        2900        2901        2952        2951
         4        2901        2902        2953        2952
         4        2902        2903        2954        2953
         4        2903        2904        2955        2954
         4        2904        2905        2956        2955
         4        2905        2906        2957        2956
         4        2907        2908        2959        2958
         4        2908        2909        2960        2959
         4        2909        2910        2961        2960
         4        2910        2911        2962        2961
         4        2911        2912        2963        2962
         4        2912        2913        2964        2963
         4        2913        2914        2965        2964
         4        2914        2915        2966        2965
         4        2915        2916        2967        2966
         4        2916        2917        2968        2967
         4        2917        2918        2969        2968
         4        2918        2919        2970        2969
         4        2919        2920        2971        2970
         4        2920        2921        2972        2971
         4        2921        2922        2973        2972
         4        2922        2923        2974        2973
         4        2923        2924        2975        2974
         4        2924        2925        2976        2975
         4        2925        2926        2977        2976
         4        2926        2927        2978        2977
         4        2927        2928        2979        2978
         4        2928        2929        2980        2979
         4        2929        2930        2981        2980
         4        2930        2931        2982        2981
         4        2931        2932        2983        2982
         4        2932        2933        2984        2983
         4        2933        2934        2985        2984
         4        2934        2935        2986        2985
         4        2935        2936        2987        2986
         4        2936        2937        2988        2987
         4        2937        2938        2989        2988
         4        2938        2939        2990        2989
         4        2939        2940        2991        2990
         4        2940        2941        2992        2991
         4        2941        2942        2993        2992
         4        2942        2943        2994        2993
         4        2943        2944        2995        2994
         4        2944        2945        2996        2995
         4        2945        2946        2997        2996
         4        2946        2947        2998        2997
         4        2947        2948        2999        2998
         4        2948        2949        3000        2999
         4        2949        2950        3001        3000
         4        2950        2951        3002        3001
         4        2951        2952        3003        3002
         4        2952        2953        3004        3003
         4        2953        2954        3005        3004
         4        2954        2955        3006        3005
         4        2955        2956        3007        3006
         4        2956        2957        3008        3007
         4        2958        2959        3010        3009
         4        2959        2960        3011        3010
         4        2960        2961        3012        3011
         4        2961        2962        3013        3012
         4        2962        2963        3014        3013
         4        2963        2964        3015        3014
         4        2964        2965        3016        3015
         4        2965        2966        3017        3016
         4        2966        2967        3018        3017
         4        2967        2968        3019        3018
         4        2968        2969        3020        3019
         4        2969        2970        3021        3020
         4        2970        2971        3022        3021
         4        2971        2972        3023        3022
         4        2972        2973        3024        3023
         4        2973        2974        3025        3024
         4        2974        2975        3026        3025
         4        2975        2976        3027        3026
         4        2976        2977        3028        3027
         4        2977        2978        3029        3028
         4        2978        2979        3030        3029
         4        2979        2980        3031        3030
         4        2980        2981        3032        3031
         4        2981        2982        3033        3032
         4        2982        2983        3034        3033
         4        2983        2984        3035        3034
         4        2984        2985        3036        3035
         4        2985        2986        3037        3036
         4        2986        2987        3038        3037
         4        2987        2988        3039        3038
         4        2988        2989        3040        3039
         4        2989        2990        3041        3040
         4        2990        2991        3042        3041
         4        2991        2992        3043        3042
         4        2992        2993        3044        3043
         4        2993        2994        3045        3044
         4        2994        2995        3046        3045
         4        2995        2996        3047        3046
         4        2996        2997        3048        3047
         4        2997        2998        3049        3048
         4        2998        2999        3050        3049
         4        2999        3000        3051        3050
         4        3000        3001        3052        3051
         4        3001        3002        3053        3052
         4        3002        3003        3054        3053
         4        3003        3004        3055        3054
         4        3004        3005        3056        3055
         4        3005        3006        3057        3056
         4        3006        3007        3058        3057
         4        3007        3008        3059        3058
         4        3009        3010        3061        3060
         4        3010        3011        3062        3061
         4        3011        3012        3063        3062
         4        3012        3013        3064        3063
         4        3013        3014        3065        3064
         4        3014        3015        3066        3065
         4        3015        3016        3067        3066
         4        3016        3017        3068        3067
         4        3017        3018        3069        3068
         4        3018        3019        3070        3069
         4        3019        3020        3071        3070
         4        3020        3021        3072        3071
         4        3021        3022        3073        3072
         4        3022        3023        3074        3073
         4        3023        3024        3075        3074
         4        3024        3025        3076        3075
         4        3025        3026        3077        3076
         4        3026        3027        3078        3077
         4        3027        3028        3079        3078
         4        3028        3029        3080        3079
         4        3029        3030        3081        3080
         4        3030        3031        3082        3081
         4        3031        3032        3083        3082
         4        3032        3033        3084        3083
         4        3033        3034        3085        3084
         4        3034        3035        3086        3085
         4        3035        3036        3087        3086
         4        3036        3037        3088        3087
         4        3037        3038        3089        3088
         4        3038        3039        3090        3089
         4        3039        3040        3091        3090
         4        3040        3041        3092        3091
         4        3041        3042        3093        3092
         4        3042        3043        3094        3093
         4        3043        3044        3095        3094
         4        3044        3045        3096        3095
         4        3045        3046        3097        3096
         4        3046        3047        3098        3097
         4        3047        3048        3099        3098
         4        3048        3049        3100        3099
         4        3049        3050        3101        3100
         4        3050        3051        3102        3101
         4        3051        3052        3103        3102
         4        3052        3053        3104        3103
         4        3053        3054        3105        3104
         4        3054        3055        3106        3105
         4        3055        3056        3107        3106
         4        3056        3057        3108        3107
         4        3057        3058        3109        3108
         4        3058        3059        3110        3109
         4        3060        3061        3112        3111
         4        3061        3062        3113        3112
         4        3062        3063        3114        3113
         4        3063        3064        3115        3114
         4        3064        3065        3116        3115
         4        3065        3066        3117        3116
         4        3066        3067        3118        3117
         4        3067        3068        3119        3118
         4        3068        3069        3120        3119
         4        3069        3070        3121        3120
         4        3070        3071        3122        3121
         4        3071        3072        3123        3122
         4        3072        3073        3124        3123
         4        3073        3074        3125        3124
         4        3074        3075        3126        3125
         4        3075        3076        3127        3126
         4        3076        3077        3128        3127
         4        3077        3078        3129        3128
         4        3078        3079        3130        3129
         4        3079        3080        3131        3130
         4        3080        3081        3132        3131
         4        3081        3082        3133        3132
         4        3082        3083        3134        3133
         4        3083        3084        3135        3134
         4        3084        3085        3136        3135
         4        3085        3086        3137        3136
         4        3086        3087        3138        3137
         4        3087        3088        3139        3138
         4        3088        3089        3140        3139
         4        3089        3090        3141        3140
         4        3090        3091        3142        3141
         4        3091        3092        3143        3142
         4        3092        3093        3144        3143
         4        3093        3094        3145        3144
         4        3094        3095        3146        3145
         4        3095        3096        3147        3146
         4        3096        3097        3148        3147
         4        3097        3098        3149        3148
         4        3098        3099        3150        3149
         4        3099        3100        3151        3150
         4        3100        3101        3152        3151
         4        3101        3102        3153        3152
         4        3102        3103        3154        3153
         4        3103        3104        3155        3154
         4        3104        3105        3156        3155
         4        3105        3106        3157        3156
         4        3106        3107        3158        3157
         4        3107        3108        3159        3158
         4        3108        3109        3160        3159
         4        3109        3110        3161        3160
         4        3111        3112        3163        3162
         4        3112        3113        3164        3163
         4        3113        3114        3165        3164
         4        3114        3115        3166        3165
         4        3115        3116        3167        3166
         4        3116        3117        3168        3167
         4        3117        3118        3169        3168
         4        3118        3119        3170        3169
         4        3119        3120        3171        3170
         4        3120        3121        3172        3171
         4        3121        3122        3173        3172
         4        3122        3123        3174        3173
         4        3123        3124        3175        3174
         4        3124        3125        3176        3175
         4        3125        3126        3177        3176
         4        3126        3127        3178        3177
         4        3127        3128        3179        3178
         4        3128        3129        3180        3179
         4        3129        3130        3181        3180
         4        3130        3131        3182        3181
         4        3131        3132        3183        3182
         4        3132        3133        3184        3183
         4        3133        3134        3185        3184
         4        3134        3135        3186        3185
         4        3135        3136        3187        3186
         4        3136        3137        3188        3187
         4        3137        3138        3189        3188
         4        3138        3139        3190        3189
         4        3139        3140        3191        3190
         4        3140        3141        3192        3191
         4        3141        3142        3193        3192
         4        3142        3143        3194        3193
         4        3143        3144        3195        3194
         4        3144        3145        3196        3195
         4        3145        3146        3197        3196
         4        3146        3147        3198        3197
         4        3147        3148        3199        3198
         4        3148        3149        3200        3199
         4        3149        3150        3201        3200
         4        3150        3151        3202        3201
         4        3151        3152        3203        3202
         4        3152        3153        3204        3203
         4        3153        3154        3205        3204
         4        3154        3155        3206        3205
         4        3155        3156        3207        3206
         4        3156        3157        3208        3207
         4        3157        3158        3209        3208
         4        3158        3159        3210        3209
         4        3159        3160        3211        3210
         4        3160        3161        3212        3211
         4        3162        3163        3214        3213
         4        3163        3164        3215        3214
         4        3164        3165        3216        3215
         4        3165        3166        3217        3216
         4        3166        3167        3218        3217
         4        3167        3168        3219        3218
         4        3168        3169        3220        3219
         4        3169        3170        3221        3220
         4        3170        3171        3222        3221
         4        3171        3172        3223        3222
         4        3172        3173        3224        3223
         4        3173        3174        3225        3224
         4        3174        3175        3226        3225
         4        3175        3176        3227        3226
         4        3176        3177        3228        3227
         4        3177        3178        3229        3228
         4        3178        3179        3230        3229
         4        3179        3180        3231        3230
         4        3180        3181        3232        3231
         4        3181        3182        3233        3232
         4        3182        3183        3234        3233
         4        3183        3184        3235        3234
         4        3184        3185        3236        3235
         4        3185        3186        3237        3236
         4        3186        3187        3238        3237
         4        3187        3188        3239        3238
         4        3188        3189        3240        3239
         4        3189        3190        3241        3240
         4        3190        3191        3242        3241
         4        3191        3192        3243        3242
         4        3192        3193        3244        3243
         4        3193        3194        3245        3244
         4        3194        3195        3246        3245
         4        3195        3196        3247        3246
         4        3196        3197        3248        3247
         4        3197        3198        3249        3248
         4        3198        3199        3250        3249
         4        3199        3200        3251        3250
         4        3200        3201        3252        3251
         4        3201        3202        3253        3252
         4        3202        3203        3254        3253
         4        3203        3204        3255        3254
         4        3204        3205        3256        3255
         4        3205        3206        3257        3256
         4        3206        3207        3258        3257
         4        3207        3208        3259        3258
         4        3208        3209        3260        3259
         4        3209        3210        3261        3260
         4        3210        3211        3262        3261
         4        3211        3212        3263        3262
         4        3213        3214        3265        3264
         4        3214        3215        3266        3265
         4        3215        3216        3267        3266
         4        3216        3217        3268        3267
         4        3217        3218        3269        3268
         4        3218        3219        3270        3269
         4        3219        3220        3271        3270
         4        3220        3221        3272        3271
         4        3221        3222        3273        3272
         4        3222        3223        3274        3273
         4        3223        3224        3275        3274
         4        3224        3225        3276        3275
         4        3225        3226        3277        3276
         4        3226        3227        3278        3277
         4        3227        3228        3279        3278
         4        3228        3229        3280        3279
         4        3229        3230        3281        3280
         4        3230        3231        3282        3281
         4        3231        3232        3283        3282
         4        3232        3233        3284        3283
         4        3233        3234        3285        3284
         4        3234        3235        3286        3285
         4        3235        3236        3287        3286
         4        3236        3237        3288        3287
         4        3237        3238        3289        3288
         4        3238        3239        3290        3289
         4        3239        3240        3291        3290
         4        3240        3241        3292        3291
         4        3241        3242        3293        3292
         4        3242        3243        3294        3293
         4        3243        3244        3295        3294
         4        3244        3245        3296        3295
         4        3245        3246        3297        3296
         4        3246        3247        3298        3297
         4        3247        3248        3299        3298
         4        3248        3249        3300        3299
         4        3249        3250        3301        3300
         4        3250        3251        3302        3301
         4        3251        3252        3303        3302
         4        3252        3253        3304        3303
         4        3253        3254        3305        3304
         4        3254        3255        3306        3305
         4        3255        3256        3307        3306
         4        3256        3257        3308        3307
         4        3257        3258        3309        3308
         4        3258        3259        3310        3309
         4        3259        3260        3311        3310
         4        3260        3261        3312        3311
         4        3261        3262        3313        3312
         4        3262        3263        3314        3313
         4        3264        3265        3316        3315
         4        3265        3266        3317        3316
         4        3266        3267        3318        3317
         4        3267        3268        3319        3318
         4        3268        3269        3320        3319
         4        3269        3270        3321        3320
         4        3270        3271        3322        3321
         4        3271        3272        3323        3322
         4        3272        3273        3324        3323
         4        3273        3274        3325        3324
         4        3274        3275        3326        3325
         4        3275        3276        3327        3326
         4        3276        3277        3328        3327
         4        3277        3278        3329        3328
         4        3278        3279        3330        3329
         4        3279        3280        3331        3330
         4        3280        3281        3332        3331
         4        3281        3282        3333        3332
         4        3282        3283        3334        3333
         4        3283        3284        3335        3334
         4        3284        3285        3336        3335
         4        3285        3286        3337        3336
         4        3286        3287        3338        3337
         4        3287        3288        3339        3338
         4        3288        3289        3340        3339
         4        3289        3290        3341        3340
         4        3290        3291        3342        3341
         4        3291        3292        3343        3342
         4        3292        3293        3344        3343
         4        3293        3294        3345        3344
         4        3294        3295        3346        3345
         4        3295        3296        3347        3346
         4        3296        3297        3348        3347
         4        3297        3298        3349        3348
         4        3298        3299        3350        3349
         4        3299        3300        3351        3350
         4        3300        3301        3352        3351
         4        3301        3302        3353        3352
         4        3302        3303        3354        3353
         4        3303        3304        3355        3354
         4        3304        3305        3356        3355
         4        3305        3306        3357        3356
         4        3306        3307        3358        3357
         4        3307        3308        3359        3358
         4        3308        3309        3360        3359
         4        3309        3310        3361        3360
         4        3310        3311        3362        3361
         4        3311        3312        3363        3362
         4        3312        3313        3364        3363
         4        3313        3314        3365        3364
         4        3315        3316        3367        3366
         4        3316        3317        3368        3367
         4        3317        3318        3369        3368
         4        3318        3319        3370        3369
         4        3319        3320        3371        3370
         4        3320        3321        3372        3371
         4        3321        3322        3373        3372
         4        3322        3323        3374        3373
         4        3323        3324        3375        3374
         4        3324        3325        3376        3375
         4        3325        3326        3377        3376
         4        3326        3327        3378        3377
         4        3327        3328        3379        3378
         4        3328        3329        3380        3379
         4        3329        3330        3381        3380
         4        3330        3331        3382        3381
         4        3331        3332        3383        3382
         4        3332        3333        3384        3383
         4        3333        3334        3385        3384
         4        3334        3335        3386        3385
         4        3335        3336        3387        3386
         4        3336        3337        3388        3387
         4        3337        3338        3389        3388
         4        3338        3339        3390        3389
         4        3339        3340        3391        3390
         4        3340        3341        3392        3391
         4        3341        3342        3393        3392
         4        3342        3343        3394        3393
         4        3343        3344        3395        3394
         4        3344        3345        3396        3395
         4        3345        3346        3397        3396
         4        3346        3347        3398        3397
         4        3347        3348        3399        3398
         4        3348        3349        3400        3399
         4        3349        3350        3401        3400
         4        3350        3351        3402        3401
         4        3351        3352        3403        3402
         4        3352        3353        3404        3403
         4        3353        3354        3405        3404
         4        3354        3355        3406        3405
         4        3355        3356        3407        3406
         4        3356        3357        3408        3407
         4        3357        3358        3409        3408
         4        3358        3359        3410        3409
         4        3359        3360        3411        3410
         4        3360        3361        3412        3411
         4        3361        3362        3413        3412
         4        3362        3363        3414        3413
         4        3363        3364        3415        3414
         4        3364        3365        3416        3415
         4        3366        3367        3418        3417
         4        3367        3368        3419        3418
         4        3368        3369        3420        3419
         4        3369        3370        3421        3420
         4        3370        3371        3422        3421
         4        3371        3372        3423        3422
         4        3372        3373        3424        3423
         4        3373        3374        3425        3424
         4        3374        3375        3426        3425
         4        3375        3376        3427        3426
         4        3376        3377        3428        3427
         4        3377        3378        3429        3428
         4        3378        3379        3430        3429
         4        3379        3380        3431        3430
         4        3380        3381        3432        3431
         4        3381        3382        3433        3432
         4        3382        3383        3434        3433
         4        3383        3384        3435        3434
         4        3384        3385        3436        3435
         4        3385        3386        3437        3436
         4        3386        3387        3438        3437
         4        3387        3388        3439        3438
         4        3388        3389        3440        3439
         4        3389        3390        3441        3440
         4        3390        3391        3442        3441
         4        3391        3392        3443        3442
         4        3392        3393        3444        3443
         4        3393        3394        3445        3444
         4        3394        3395        3446        3445
         4        3395        3396        3447        3446
         4        3396        3397        3448        3447
         4        3397        3398        3449        3448
         4        3398        3399        3450        3449
         4        3399        3400        3451        3450
         4        3400        3401        3452        3451
         4        3401        3402        3453        3452
         4        3402        3403        3454        3453
         4        3403        3404        3455        3454
         4        3404        3405        3456        3455
         4        3405        3406        3457        3456
         4        3406        3407        3458        3457
         4        3407        3408        3459        3458
         4        3408        3409        3460        3459
         4        3409        3410        3461        3460
         4        3410        3411        3462        3461
         4        3411        3412        3463        3462
         4        3412        3413        3464        3463
         4        3413        3414        3465        3464
         4        3414        3415        3466        3465
         4        3415        3416        3467        3466
         4        3417        3418        3469        3468
         4        3418        3419        3470        3469
         4        3419        3420        3471        3470
         4        3420        3421        3472        3471
         4        3421        3422        3473        3472
         4        3422        3423        3474        3473
         4        3423        3424        3475        3474
         4        3424        3425        3476        3475
         4        3425        3426        3477        3476
         4        3426        3427        3478        3477
         4        3427        3428        3479        3478
         4        3428        3429        3480        3479
         4        3429        3430        3481        3480
         4        3430        3431        3482        3481
         4        3431        3432        3483        3482
         4        3432        3433        3484        3483
         4        3433        3434        3485        3484
         4        3434        3435        3486        3485
         4        3435        3436        3487        3486
         4        3436        3437        3488        3487
         4        3437        3438        3489        3488
         4        3438        3439        3490        3489
         4        3439        3440        3491        3490
         4        3440        3441        3492        3491
         4        3441        3442        3493        3492
         4        3442        3443        3494        3493
         4        3443        3444        3495        3494
         4        3444        3445        3496        3495
         4        3445        3446        3497        3496
         4        3446        3447        3498        3497
         4        3447        3448        3499        3498
         4        3448        3449        3500        3499
         4        3449        3450        3501        3500
         4        3450        3451        3502        3501
         4        3451        3452        3503        3502
         4        3452        3453        3504        3503
         4        3453        3454        3505        3504
         4        3454        3455        3506        3505
         4        3455        3456        3507        3506
         4        3456        3457        3508        3507
         4        3457        3458        3509        3508
         4        3458        3459        3510        3509
         4        3459        3460        3511        3510
         4        3460        3461        3512        3511
         4        3461        3462        3513        3512
         4        3462        3463        3514        3513
         4        3463        3464        3515        3514
         4        3464        3465        3516        3515
         4        3465        3466        3517        3516
         4        3466        3467        3518        3517
         4        3468        3469        3520        3519
         4        3469        3470        3521        3520
         4        3470        3471        3522        3521
         4        3471        3472        3523        3522
         4        3472        3473        3524        3523
         4        3473        3474        3525        3524
         4        3474        3475        3526        3525
         4        3475        3476        3527        3526
         4        3476        3477        3528        3527
         4        3477        3478        3529        3528
         4        3478        3479        3530        3529
         4        3479        3480        3531        3530
         4        3480        3481        3532        3531
         4        3481        3482        3533        3532
         4        3482        3483        3534        3533
         4        3483        3484        3535        3534
         4        3484        3485        3536        3535
         4        3485        3486        3537        3536
         4        3486        3487        3538        3537
         4        3487        3488        3539        3538
         4        3488        3489        3540        3539
         4        3489        3490        3541        3540
         4        3490        3491        3542        3541
         4        3491        3492        3543        3542
         4        3492        3493        3544        3543
         4        3493        3494        3545        3544
         4        3494        3495        3546        3545
         4        3495        3496        3547        3546
         4        3496        3497        3548        3547
         4        3497        3498        3549        3548
         4        3498        3499        3550        3549
         4        3499        3500        3551        3550
         4        3500        3501        3552        3551
         4        3501        3502        3553        3552
         4        3502        3503        3554        3553
         4        3503        3504        3555        3554
         4        3504        3505        3556        3555
         4        3505        3506        3557        3556
         4        3506        3507        3558        3557
         4        3507        3508        3559        3558
         4        3508        3509        3560        3559
         4        3509        3510        3561        3560
         4        3510        3511        3562        3561
         4        3511        3512        3563        3562
         4        3512        3513        3564        3563
         4        3513        3514        3565        3564
         4        3514        3515        3566        3565
         4        3515        3516        3567        3566
         4        3516        3517        3568        3567
         4        3517        3518        3569        3568
         4        3519        3520        3571        3570
         4        3520        3521        3572        3571
         4        3521        3522        3573        3572
         4        3522        3523        3574        3573
         4        3523        3524        3575        3574
         4        3524        3525        3576        3575
         4        3525        3526        3577        3576
         4        3526        3527        3578        3577
         4        3527        3528        3579        3578
         4        3528        3529        3580        3579
         4        3529        3530        3581        3580
         4        3530        3531        3582        3581
         4        3531        3532        3583        3582
         4        3532        3533        3584        3583
         4        3533        3534        3585        3584
         4        3534        3535        3586        3585
         4        3535        3536        3587        3586
         4        3536        3537        3588        3587
         4        3537        3538        3589        3588
         4        3538        3539        3590        3589
         4        3539        3540        3591        3590
         4        3540        3541        3592        3591
         4        3541        3542        3593        3592
         4        3542        3543        3594        3593
         4        3543        3544        3595        3594
         4        3544        3545        3596        3595
         4        3545        3546        3597        3596
         4        3546        3547        3598        3597
         4        3547        3548        3599        3598
         4        3548        3549        3600        3599
         4        3549        3550        3601        3600
         4        3550        3551        3602        3601
         4        3551        3552        3603        3602
         4        3552        3553        3604        3603
         4        3553        3554        3605        3604
         4        3554        3555        3606        3605
         4        3555        3556        3607        3606
         4        3556        3557        3608        3607
         4        3557        3558        3609        3608
         4        3558        3559        3610        3609
         4        3559        3560        3611        3610
         4        3560        3561        3612        3611
         4        3561        3562        3613        3612
         4        3562        3563        3614        3613
         4        3563        3564        3615        3614
         4        3564        3565        3616        3615
         4        3565        3566        3617        3616
         4        3566        3567        3618        3617
         4        3567        3568        3619        3618
         4        3568        3569        3620        3619
         4        3570        3571        3622        3621
         4        3571        3572        3623        3622
         4        3572        3573        3624        3623
         4        3573        3574        3625        3624
         4        3574        3575        3626        3625
         4        3575        3576        3627        3626
         4        3576        3577        3628        3627
         4        3577        3578        3629        3628
         4        3578        3579        3630        3629
         4        3579        3580        3631        3630
         4        3580        3581        3632        3631
         4        3581        3582        3633        3632
         4        3582        3583        3634        3633
         4        3583        3584        3635        3634
         4        3584        3585        3636        3635
         4        3585        3586        3637        3636
         4        3586        3587        3638        3637
         4        3587        3588        3639        3638
         4        3588        3589        3640        3639
         4        3589        3590        3641        3640
         4        3590        3591        3642        3641
         4        3591        3592        3643        3642
         4        3592        3593        3644        3643
         4        3593        3594        3645        3644
         4        3594        3595        3646        3645
         4        3595        3596        3647        3646
         4        3596        3597        3648        3647
         4        3597        3598        3649        3648
         4        3598        3599        3650        3649
         4        3599        3600        3651        3650
         4        3600        3601        3652        3651
         4        3601        3602        3653        3652
         4        3602        3603        3654        3653
         4        3603        3604        3655        3654
         4        3604        3605        3656        3655
         4        3605        3606        3657        3656
         4        3606        3607        3658        3657
         4        3607        3608        3659        3658
         4        3608        3609        3660        3659
         4        3609        3610        3661        3660
         4        3610        3611        3662        3661
         4        3611        3612        3663        3662
         4        3612        3613        3664        3663
         4        3613        3614        3665        3664
         4        3614        3615        3666        3665
         4        3615        3616        3667        3666
         4        3616        3617        3668        3667
         4        3617        3618        3669        3668
         4        3618        3619        3670        3669
         4        3619        3620        3671        3670
         4        3621        3622        3673        3672
         4        3622        3623        3674        3673
         4        3623        3624        3675        3674
         4        3624        3625        3676        3675
         4        3625        3626        3677        3676
         4        3626        3627        3678        3677
         4        3627        3628        3679        3678
         4        3628        3629        3680        3679
         4        3629        3630        3681        3680
         4        3630        3631        3682        3681
         4        3631        3632        3683        3682
         4        3632        3633        3684        3683
         4        3633        3634        3685        3684
         4        3634        3635        3686        3685
         4        3635        3636        3687        3686
         4        3636        3637        3688        3687
         4        3637        3638        3689        3688
         4        3638        3639        3690        3689
         4        3639        3640        3691        3690
         4        3640        3641        3692        3691
         4        3641        3642        3693        3692
         4        3642        3643        3694        3693
         4        3643        3644        3695        3694
         4        3644        3645        3696        3695
         4        3645        3646        3697        3696
         4        3646        3647        3698        3697
         4        3647        3648        3699        3698
         4        3648        3649        3700        3699
         4        3649        3650        3701        3700
         4        3650        3651        3702        3701
         4        3651        3652        3703        3702
         4        3652        3653        3704        3703
         4        3653        3654        3705        3704
         4        3654        3655        3706        3705
         4        3655        3656        3707        3706
         4        3656        3657        3708        3707
         4        3657        3658        3709        3708
         4        3658        3659        3710        3709
         4        3659        3660        3711        3710
         4        3660        3661        3712        3711
         4        3661        3662        3713        3712
         4        3662        3663        3714        3713
         4        3663        3664        3715        3714
         4        3664        3665        3716        3715
         4        3665        3666        3717        3716
         4        3666        3667        3718        3717
         4        3667        3668        3719        3718
         4        3668        3669        3720        3719
         4        3669        3670        3721        3720
         4        3670        3671        3722        3721
         4        3672        3673        3724        3723
         4        3673        3674        3725        3724
         4        3674        3675        3726        3725
         4        3675        3676        3727        3726
         4        3676        3677        3728        3727
         4        3677        3678        3729        3728
         4        3678        3679        3730        3729
         4        3679        3680        3731        3730
         4        3680        3681        3732        3731
         4        3681        3682        3733        3732
         4        3682        3683        3734        3733
         4        3683        3684        3735        3734
         4        3684        3685        3736        3735
         4        3685        3686        3737        3736
         4        3686        3687        3738        3737
         4        3687        3688        3739        3738
         4        3688        3689        3740        3739
         4        3689        3690        3741        3740
         4        3690        3691        3742        3741
         4        3691        3692        3743        3742
         4        3692        3693        3744        3743
         4        3693        3694        3745        3744
         4        3694        3695        3746        3745
         4        3695        3696        3747        3746
         4        3696        3697        3748        3747
         4        3697        3698        3749        3748
         4        3698        3699        3750        3749
         4        3699        3700        3751        3750
         4        3700        3701        3752        3751
         4        3701        3702        3753        3752
         4        3702        3703        3754        3753
         4        3703        3704        3755        3754
         4        3704        3705        3756        3755
         4        3705        3706        3757        3756
         4        3706        3707        3758        3757
         4        3707        3708        3759        3758
         4        3708        3709        3760        3759
         4        3709        3710        3761        3760
         4        3710        3711        3762        3761
         4        3711        3712        3763        3762
         4        3712        3713        3764        3763
         4        3713        3714        3765        3764
         4        3714        3715        3766        3765
         4        3715        3716        3767        3766
         4        3716        3717        3768        3767
         4        3717        3718        3769        3768
         4        3718        3719        3770        3769
         4        3719        3720        3771        3770
         4        3720        3721        3772        3771
         4        3721        3722        3773        3772
         4        3723        3724        3775        3774
         4        3724        3725        3776        3775
         4        3725        3726        3777        3776
         4        3726        3727        3778        3777
         4        3727        3728        3779        3778
         4        3728        3729        3780        3779
         4        3729        3730        3781        3780
         4        3730        3731        3782        3781
         4        3731        3732        3783        3782
         4        3732        3733        3784        3783
         4        3733        3734        3785        3784
         4        3734        3735        3786        3785
         4        3735        3736        3787        3786
         4        3736        3737        3788        3787
         4        3737        3738        3789        3788
         4        3738        3739        3790        3789
         4        3739        3740        3791        3790
         4        3740        3741        3792        3791
         4        3741        3742        3793        3792
         4        3742        3743        3794        3793
         4        3743        3744        3795        3794
         4        3744        3745        3796        3795
         4        3745        3746        3797        3796
         4        3746        3747        3798        3797
         4        3747        3748        3799        3798
         4        3748        3749        3800        3799
         4        3749        3750        3801        3800
         4        3750        3751        3802        3801
         4        3751        3752        3803        3802
         4        3752        3753        3804        3803
         4        3753        3754        3805        3804
         4        3754        3755        3806        3805
         4        3755        3756        3807        3806
         4        3756        3757        3808        3807
         4        3757        3758        3809        3808
         4        3758        3759        3810        3809
         4        3759        3760        3811        3810
         4        3760        3761        3812        3811
         4        3761        3762        3813        3812
         4        3762        3763        3814        3813
         4        3763        3764        3815        3814
         4        3764        3765        3816        3815
         4        3765        3766        3817        3816
         4        3766        3767        3818        3817
         4        3767        3768        3819        3818
         4        3768        3769        3820        3819
         4        3769        3770        3821        3820
         4        3770        3771        3822        3821
         4        3771        3772        3823        3822
         4        3772        3773        3824        3823
         4        3774        3775        3826        3825
         4        3775        3776        3827        3826
         4        3776        3777        3828        3827
         4        3777        3778        3829        3828
         4        3778        3779        3830        3829
         4        3779        3780        3831        3830
         4        3780        3781        3832        3831
         4        3781        3782        3833        3832
         4        3782        3783        3834        3833
         4        3783        3784        3835        3834
         4        3784        3785        3836        3835
         4        3785        3786        3837        3836
         4        3786        3787        3838        3837
         4        3787        3788        3839        3838
         4        3788        3789        3840        3839
         4        3789        3790        3841        3840
         4        3790        3791        3842        3841
         4        3791        3792        3843        3842
         4        3792        3793        3844        3843
         4        3793        3794        3845        3844
         4        3794        3795        3846        3845
         4        3795        3796        3847        3846
         4        3796        3797        3848        3847
         4        3797        3798        3849        3848
         4        3798        3799        3850        3849
         4        3799        3800        3851        3850
         4        3800        3801        3852        3851
         4        3801        3802        3853        3852
         4        3802        3803        3854        3853
         4        3803        3804        3855        3854
         4        3804        3805        3856        3855
         4        3805        3806        3857        3856
         4        3806        3807        3858        3857
         4        3807        3808        3859        3858
         4        3808        3809        3860        3859
         4        3809        3810        3861        3860
         4        3810        3811        3862        3861
         4        3811        3812        3863        3862
         4        3812        3813        3864        3863
         4        3813        3814        3865        3864
         4        3814        3815        3866        3865
         4        3815        3816        3867        3866
         4        3816        3817        3868        3867
         4        3817        3818        3869        3868
         4        3818        3819        3870        3869
         4        3819        3820        3871        3870
         4        3820        3821        3872        3871
         4        3821        3822        3873        3872
         4        3822        3823        3874        3873
         4        3823        3824        3875        3874
         4        3825        3826        3877        3876
         4        3826        3827        3878        3877
         4        3827        3828        3879        3878
         4        3828        3829        3880        3879
         4        3829        3830        3881        3880
         4        3830        3831        3882        3881
         4        3831        3832        3883        3882
         4        3832        3833        3884        3883
         4        3833        3834        3885        3884
         4        3834        3835        3886        3885
         4        3835        3836        3887        3886
         4        3836        3837        3888        3887
         4        3837        3838        3889        3888
         4        3838        3839        3890        3889
         4        3839        3840        3891        3890
         4        3840        3841        3892        3891
         4        3841        3842        3893        3892
         4        3842        3843        3894        3893
         4        3843        3844        3895        3894
         4        3844        3845        3896        3895
         4        3845        3846        3897        3896
         4        3846        3847        3898        3897
         4        3847        3848        3899        3898
         4        3848        3849        3900        3899
         4        3849        3850        3901        3900
         4        3850        3851        3902        3901
         4        3851        3852        3903        3902
         4        3852        3853        3904        3903
         4        3853        3854        3905        3904
         4        3854        3855        3906        3905
         4        3855        3856        3907        3906
         4        3856        3857        3908        3907
         4        3857        3858        3909        3908
         4        3858        3859        3910        3909
         4        3859        3860        3911        3910
         4        3860        3861        3912        3911
         4        3861        3862        3913        3912
         4        3862        3863        3914        3913
         4        3863        3864        3915        3914
         4        3864        3865        3916        3915
         4        3865        3866        3917        3916
         4        3866        3867        3918        3917
         4        3867        3868        3919        3918
         4        3868        3869        3920        3919
         4        3869        3870        3921        3920
         4        3870        3871        3922        3921
         4        3871        3872        3923        3922
         4        3872        3873        3924        3923
         4        3873        3874        3925        3924
         4        3874        3875        3926        3925
         4        3876        3877        3928        3927
         4        3877        3878        3929        3928
         4        3878        3879        3930        3929
         4        3879        3880        3931        3930
         4        3880        3881        3932        3931
         4        3881        3882        3933        3932
         4        3882        3883        3934        3933
         4        3883        3884        3935        3934
         4        3884        3885        3936        3935
         4        3885        3886        3937        3936
         4        3886        3887        3938        3937
         4        3887        3888        3939        3938
         4        3888        3889        3940        3939
         4        3889        3890        3941        3940
         4        3890        3891        3942        3941
         4        3891        3892        3943        3942
         4        3892        3893        3944        3943
         4        3893        3894        3945        3944
         4        3894        3895        3946        3945
         4        3895        3896        3947        3946
         4        3896        3897        3948        3947
         4        3897        3898        3949        3948
         4        3898        3899        3950        3949
         4        3899        3900        3951        3950
         4        3900        3901        3952        3951
         4        3901        3902        3953        3952
         4        3902        3903        3954        3953
         4        3903        3904        3955        3954
         4        3904        3905        3956        3955
         4        3905        3906        3957        3956
         4        3906        3907        3958        3957
         4        3907        3908        3959        3958
         4        3908        3909        3960        3959
         4        3909        3910        3961        3960
         4        3910        3911        3962        3961
         4        3911        3912        3963        3962
         4        3912        3913        3964        3963
         4        3913        3914        3965        3964
         4        3914        3915        3966        3965
         4        3915        3916        3967        3966
         4        3916        3917        3968        3967
         4        3917        3918        3969        3968
         4        3918        3919        3970        3969
         4        3919        3920        3971        3970
         4        3920        3921        3972        3971
         4        3921        3922        3973        3972
         4        3922        3923        3974        3973
         4        3923        3924        3975        3974
         4        3924        3925        3976        3975
         4        3925        3926        3977        3976
         4        3927        3928        3979        3978
         4        3928        3929        3980        3979
         4        3929        3930        3981        3980
         4        3930        3931        3982        3981
         4        3931        3932        3983        3982
         4        3932        3933        3984        3983
         4        3933        3934        3985        3984
         4        3934        3935        3986        3985
         4        3935        3936        3987        3986
         4        3936        3937        3988        3987
         4        3937        3938        3989        3988
         4        3938        3939        3990        3989
         4        3939        3940        3991        3990
         4        3940        3941        3992        3991
         4        3941        3942        3993        3992
         4        3942        3943        3994        3993
         4        3943        3944        3995        3994
         4        3944        3945        3996        3995
         4        3945        3946        3997        3996
         4        3946        3947        3998        3997
         4        3947        3948        3999        3998
         4        3948        3949        4000        3999
         4        3949        3950        4001        4000
         4        3950        3951        4002        4001
         4        3951        3952        4003        4002
         4        3952        3953        4004        4003
         4        3953        3954        4005        4004
         4        3954        3955        4006        4005
         4        3955        3956        4007        4006
         4        3956        3957        4008        4007
         4        3957        3958        4009        4008
         4        3958        3959        4010        4009
         4        3959        3960        4011        4010
         4        3960        3961        4012        4011
         4        3961        3962        4013        4012
         4        3962        3963        4014        4013
         4        3963        3964        4015        4014
         4        3964        3965        4016        4015
         4        3965        3966        4017        4016
         4        3966        3967        4018        4017
         4        3967        3968        4019        4018
         4        3968        3969        4020        4019
         4        3969        3970        4021        4020
         4        3970        3971        4022        4021
         4        3971        3972        4023        4022
         4        3972        3973        4024        4023
         4        3973        3974        4025        4024
         4        3974        3975        4026        4025
         4        3975        3976        4027        4026
         4        3976        3977        4028        4027
         4        3978        3979        4030        4029
         4        3979        3980        4031        4030
         4        3980        3981        4032        4031
         4        3981        3982        4033        4032
         4        3982        3983        4034        4033
         4        3983        3984        4035        4034
         4        3984        3985        4036        4035
         4        3985        3986        4037        4036
         4        3986        3987        4038        4037
         4        3987        3988        4039        4038
         4        3988        3989        4040        4039
         4        3989        3990        4041        4040
         4        3990        3991        4042        4041
         4        3991        3992        4043        4042
         4        3992        3993        4044        4043
         4        3993        3994        4045        4044
         4        3994        3995        4046        4045
         4        3995        3996        4047        4046
         4        3996        3997        4048        4047
         4        3997        3998        4049        4048
         4        3998        3999        4050        4049
         4        3999        4000        4051        4050
         4        4000        4001        4052        4051
         4        4001        4002        4053        4052
         4        4002        4003        4054        4053
         4        4003        4004        4055        4054
         4        4004        4005        4056        4055
         4        4005        4006        4057        4056
         4        4006        4007        4058        4057
         4        4007        4008        4059        4058
         4        4008        4009        4060        4059
         4        4009        4010        4061        4060
         4        4010        4011        4062        4061
         4        4011        4012        4063        4062
         4        4012        4013        4064        4063
         4        4013        4014        4065        4064
         4        4014        4015        4066        4065
         4        4015        4016        4067        4066
         4        4016        4017        4068        4067
         4        4017        4018        4069        4068
         4        4018        4019        4070        4069
         4        4019        4020        4071        4070
         4        4020        4021        4072        4071
         4        4021        4022        4073        4072
         4        4022        4023        4074        4073
         4        4023        4024        4075        4074
         4        4024        4025        4076        4075
         4        4025        4026        4077        4076
         4        4026        4027        4078        4077
         4        4027        4028        4079        4078
         4        4029        4030        4081        4080
         4        4030        4031        4082        4081
         4        4031        4032        4083        4082
         4        4032        4033        4084        4083
         4        4033        4034        4085        4084
         4        4034        4035        4086        4085
         4        4035        4036        4087        4086
         4        4036        4037        4088        4087
         4        4037        4038        4089        4088
         4        4038        4039        4090        4089
         4        4039        4040        4091        4090
         4        4040        4041        4092        4091
         4        4041        4042        4093        4092
         4        4042        4043        4094        4093
         4        4043        4044        4095        4094
         4        4044        4045        4096        4095
         4        4045        4046        4097        4096
         4        4046        4047        4098        4097
         4        4047        4048        4099        4098
         4        4048        4049        4100        4099
         4        4049        4050        4101        4100
         4        4050        4051        4102        4101
         4        4051        4052        4103        4102
         4        4052        4053        4104        4103
         4        4053        4054        4105        4104
         4        4054        4055        4106        4105
         4        4055        4056        4107        4106
         4        4056        4057        4108        4107
         4        4057        4058        4109        4108
         4        4058        4059        4110        4109
         4        4059        4060        4111        4110
         4        4060        4061        4112        4111
         4        4061        4062        4113        4112
         4        4062        4063        4114        4113
         4        4063        4064        4115        4114
         4        4064        4065        4116        4115
         4        4065        4066        4117        4116
         4        4066        4067        4118        4117
         4        4067        4068        4119        4118
         4        4068        4069        4120        4119
         4        4069        4070        4121        4120
         4        4070        4071        4122        4121
         4        4071        4072        4123        4122
         4        4072        4073        4124        4123
         4        4073        4074        4125        4124
         4        4074        4075        4126        4125
         4        4075        4076        4127        4126
         4        4076        4077        4128        4127
         4        4077        4078        4129        4128
         4        4078        4079        4130        4129
         4        4080        4081        4132        4131
         4        4081        4082        4133        4132
         4        4082        4083        4134        4133
         4        4083        4084        4135        4134
         4        4084        4085        4136        4135
         4        4085        4086        4137        4136
         4        4086        4087        4138        4137
         4        4087        4088        4139        4138
         4        4088        4089        4140        4139
         4        4089        4090        4141        4140
         4        4090        4091        4142        4141
         4        4091        4092        4143        4142
         4        4092        4093        4144        4143
         4        4093        4094        4145        4144
         4        4094        4095        4146        4145
         4        4095        4096        4147        4146
         4        4096        4097        4148        4147
         4        4097        4098        4149        4148
         4        4098        4099        4150        4149
         4        4099        4100        4151        4150
         4        4100        4101        4152        4151
         4        4101        4102        4153        4152
         4        4102        4103        4154        4153
         4        4103        4104        4155        4154
         4        4104        4105        4156        4155
         4        4105        4106        4157        4156
         4        4106        4107        4158        4157
         4        4107        4108        4159        4158
         4        4108        4109        4160        4159
         4        4109        4110        4161        4160
         4        4110        4111        4162        4161
         4        4111        4112        4163        4162
         4        4112        4113        4164        4163
         4        4113        4114        4165        4164
         4        4114        4115        4166        4165
         4        4115        4116        4167        4166
         4        4116        4117        4168        4167
         4        4117        4118        4169        4168
         4        4118        4119        4170        4169
         4        4119        4120        4171        4170
         4        4120        4121        4172        4171
         4        4121        4122        4173        4172
         4        4122        4123        4174        4173
         4        4123        4124        4175        4174
         4        4124        4125        4176        4175
         4        4125        4126        4177        4176
         4        4126        4127        4178        4177
         4        4127        4128        4179        4178
         4        4128        4129        4180        4179
         4        4129        4130        4181        4180
         4        4131        4132        4183        4182
         4        4132        4133        4184        4183
         4        4133        4134        4185        4184
         4        4134        4135        4186        4185
         4        4135        4136        4187        4186
         4        4136        4137        4188        4187
         4        4137        4138        4189        4188
         4        4138        4139        4190        4189
         4        4139        4140        4191        4190
         4        4140        4141        4192        4191
         4        4141        4142        4193        4192
         4        4142        4143        4194        4193
         4        4143        4144        4195        4194
         4        4144        4145        4196        4195
         4        4145        4146        4197        4196
         4        4146        4147        4198        4197
         4        4147        4148        4199        4198
         4        4148        4149        4200        4199
         4        4149        4150        4201        4200
         4        4150        4151        4202        4201
         4        4151        4152        4203        4202
         4        4152        4153        4204        4203
         4        4153        4154        4205        4204
         4        4154        4155        4206        4205
         4        4155        4156        4207        4206
         4        4156        4157        4208        4207
         4        4157        4158        4209        4208
         4        4158        4159        4210        4209
         4        4159        4160        4211        4210
         4        4160        4161        4212        4211
         4        4161        4162        4213        4212
         4        4162        4163        4214        4213
         4        4163        4164        4215        4214
         4        4164        4165        4216        4215
         4        4165        4166        4217        4216
         4        4166        4167        4218        4217
         4        4167        4168        4219        4218
         4        4168        4169        4220        4219
         4        4169        4170        4221        4220
         4        4170        4171        4222        4221
         4        4171        4172        4223        4222
         4        4172        4173        4224        4223
         4        4173        4174        4225        4224
         4        4174        4175        4226        4225
         4        4175        4176        4227        4226
         4        4176        4177        4228        4227
         4        4177        4178        4229        4228
         4        4178        4179        4230        4229
         4        4179        4180        4231        4230
         4        4180        4181        4232        4231
         4        4182        4183        4234        4233
         4        4183        4184        4235        4234
         4        4184        4185        4236        4235
         4        4185        4186        4237        4236
         4        4186        4187        4238        4237
         4        4187        4188        4239        4238
         4        4188        4189        4240        4239
         4        4189        4190        4241        4240
         4        4190        4191        4242        4241
         4        4191        4192        4243        4242
         4        4192        4193        4244        4243
         4        4193        4194        4245        4244
         4        4194        4195        4246        4245
         4        4195        4196        4247        4246
         4        4196        4197        4248        4247
         4        4197        4198        4249        4248
         4        4198        4199        4250        4249
         4        4199        4200        4251        4250
         4        4200        4201        4252        4251
         4        4201        4202        4253        4252
         4        4202        4203        4254        4253
         4        4203        4204        4255        4254
         4        4204        4205        4256        4255
         4        4205        4206        4257        4256
         4        4206        4207        4258        4257
         4        4207        4208        4259        4258
         4        4208        4209        4260        4259
         4        4209        4210        4261        4260
         4        4210        4211        4262        4261
         4        4211        4212        4263        4262
         4        4212        4213        4264        4263
         4        4213        4214        4265        4264
         4        4214        4215        4266        4265
         4        4215        4216        4267        4266
         4        4216        4217        4268        4267
         4        4217        4218        4269        4268
         4        4218        4219        4270        4269
         4        4219        4220        4271        4270
         4        4220        4221        4272        4271
         4        4221        4222        4273        4272
         4        4222        4223        4274        4273
         4        4223        4224        4275        4274
         4        4224        4225        4276        4275
         4        4225        4226        4277        4276
         4        4226        4227        4278        4277
         4        4227        4228        4279        4278
         4        4228        4229        4280        4279
         4        4229        4230        4281        4280
         4        4230        4231        4282        4281
         4        4231        4232        4283        4282
         4        4233        4234        4285        4284
         4        4234        4235        4286        4285
         4        4235        4236        4287        4286
         4        4236        4237        4288        4287
         4        4237        4238        4289        4288
         4        4238        4239        4290        4289
         4        4239        4240        4291        4290
         4        4240        4241        4292        4291
         4        4241        4242        4293        4292
         4        4242        4243        4294        4293
         4        4243        4244        4295        4294
         4        4244        4245        4296        4295
         4        4245        4246        4297        4296
         4        4246        4247        4298        4297
         4        4247        4248        4299        4298
         4        4248        4249        4300        4299
         4        4249        4250        4301        4300
         4        4250        4251        4302        4301
         4        4251        4252        4303        4302
         4        4252        4253        4304        4303
         4        4253        4254        4305        4304
         4        4254        4255        4306        4305
         4        4255        4256        4307        4306
         4        4256        4257        4308        4307
         4        4257        4258        4309        4308
         4        4258        4259        4310        4309
         4        4259        4260        4311        4310
         4        4260        4261        4312        4311
         4        4261        4262        4313        4312
         4        4262        4263        4314        4313
         4        4263        4264        4315        4314
         4        4264        4265        4316        4315
         4        4265        4266        4317        4316
         4        4266        4267        4318        4317
         4        4267        4268        4319        4318
         4        4268        4269        4320        4319
         4        4269        4270        4321        4320
         4        4270        4271        4322        4321
         4        4271        4272        4323        4322
         4        4272        4273        4324        4323
         4        4273        4274        4325        4324
         4        4274        4275        4326        4325
         4        4275        4276        4327        4326
         4        4276        4277        4328        4327
         4        4277        4278        4329        4328
         4        4278        4279        4330        4329
         4        4279        4280        4331        4330
         4        4280        4281        4332        4331
         4        4281        4282        4333        4332
         4        4282        4283        4334        4333
         4        4284        4285        4336        4335
         4        4285        4286        4337        4336
         4        4286        4287        4338        4337
         4        4287        4288        4339        4338
         4        4288        4289        4340        4339
         4        4289        4290        4341        4340
         4        4290        4291        4342        4341
         4        4291        4292        4343        4342
         4        4292        4293        4344        4343
         4        4293        4294        4345        4344
         4        4294        4295        4346        4345
         4        4295        4296        4347        4346
         4        4296        4297        4348        4347
         4        4297        4298        4349        4348
         4        4298        4299        4350        4349
         4        4299        4300        4351        4350
         4        4300        4301        4352        4351
         4        4301        4302        4353        4352
         4        4302        4303        4354        4353
         4        4303        4304        4355        4354
         4        4304        4305        4356        4355
         4        4305        4306        4357        4356
         4        4306        4307        4358        4357
         4        4307        4308        4359        4358
         4        4308        4309        4360        4359
         4        4309        4310        4361        4360
         4        4310        4311        4362        4361
         4        4311        4312        4363        4362
         4        4312        4313        4364        4363
         4        4313        4314        4365        4364
         4        4314        4315        4366        4365
         4        4315        4316        4367        4366
         4        4316        4317        4368        4367
         4        4317        4318        4369        4368
         4        4318        4319        4370        4369
         4        4319        4320        4371        4370
         4        4320        4321        4372        4371
         4        4321        4322        4373        4372
         4        4322        4323        4374        4373
         4        4323        4324        4375        4374
         4        4324        4325        4376        4375
         4        4325        4326        4377        4376
         4        4326        4327        4378        4377
         4        4327        4328        4379        4378
         4        4328        4329        4380        4379
         4        4329        4330        4381        4380
         4        4330        4331        4382        4381
         4        4331        4332        4383        4382
         4        4332        4333        4384        4383
         4        4333        4334        4385        4384
         4        4335        4336        4387        4386
         4        4336        4337        4388        4387
         4        4337        4338        4389        4388
         4        4338        4339        4390        4389
         4        4339        4340        4391        4390
         4        4340        4341        4392        4391
         4        4341        4342        4393        4392
         4        4342        4343        4394        4393
         4        4343        4344        4395        4394
         4        4344        4345        4396        4395
         4        4345        4346        4397        4396
         4        4346        4347        4398        4397
         4        4347        4348        4399        4398
         4        4348        4349        4400        4399
         4        4349        4350        4401        4400
         4        4350        4351        4402        4401
         4        4351        4352        4403        4402
         4        4352        4353        4404        4403
         4        4353        4354        4405        4404
         4        4354        4355        4406        4405
         4        4355        4356        4407        4406
         4        4356        4357        4408        4407
         4        4357        4358        4409        4408
         4        4358        4359        4410        4409
         4        4359        4360        4411        4410
         4        4360        4361        4412        4411
         4        4361        4362        4413        4412
         4        4362        4363        4414        4413
         4        4363        4364        4415        4414
         4        4364        4365        4416        4415
         4        4365        4366        4417        4416
         4        4366        4367        4418        4417
         4        4367        4368        4419        4418
         4        4368        4369        4420        4419
         4        4369        4370        4421        4420
         4        4370        4371        4422        4421
         4        4371        4372        4423        4422
         4        4372        4373        4424        4423
         4        4373        4374        4425        4424
         4        4374        4375        4426        4425
         4        4375        4376        4427        4426
         4        4376        4377        4428        4427
         4        4377        4378        4429        4428
         4        4378        4379        4430        4429
         4        4379        4380        4431        4430
         4        4380        4381        4432        4431
         4        4381        4382        4433        4432
         4        4382        4383        4434        4433
         4        4383        4384        4435        4434
         4        4384        4385        4436        4435
         4        4386        4387        4438        4437
         4        4387        4388        4439        4438
         4        4388        4389        4440        4439
         4        4389        4390        4441        4440
         4        4390        4391        4442        4441
         4        4391        4392        4443        4442
         4        4392        4393        4444        4443
         4        4393        4394        4445        4444
         4        4394        4395        4446        4445
         4        4395        4396        4447        4446
         4        4396        4397        4448        4447
         4        4397        4398        4449        4448
         4        4398        4399        4450        4449
         4        4399        4400        4451        4450
         4        4400        4401        4452        4451
         4        4401        4402        4453        4452
         4        4402        4403        4454        4453
         4        4403        4404        4455        4454
         4        4404        4405        4456        4455
         4        4405        4406        4457        4456
         4        4406        4407        4458        4457
         4        4407        4408        4459        4458
         4        4408        4409        4460        4459
         4        4409        4410        4461        4460
         4        4410        4411        4462        4461
         4        4411        4412        4463        4462
         4        4412        4413        4464        4463
         4        4413        4414        4465        4464
         4        4414        4415        4466        4465
         4        4415        4416        4467        4466
         4        4416        4417        4468        4467
         4        4417        4418        4469        4468
         4        4418        4419        4470        4469
         4        4419        4420        4471        4470
         4        4420        4421        4472        4471
         4        4421        4422        4473        4472
         4        4422        4423        4474        4473
         4        4423        4424        4475        4474
         4        4424        4425        4476        4475
         4        4425        4426        4477        4476
         4        4426        4427        4478        4477
         4        4427        4428        4479        4478
         4        4428        4429        4480        4479
         4        4429        4430        4481        4480
         4        4430        4431        4482        4481
         4        4431        4432        4483        4482
         4        4432        4433        4484        4483
         4        4433        4434        4485        4484
         4        4434        4435        4486        4485
         4        4435        4436        4487        4486
         4        4437        4438        4489        4488
         4        4438        4439        4490        4489
         4        4439        4440        4491        4490
         4        4440        4441        4492        4491
         4        4441        4442        4493        4492
         4        4442        4443        4494        4493
         4        4443        4444        4495        4494
         4        4444        4445        4496        4495
         4        4445        4446        4497        4496
         4        4446        4447        4498        4497
         4        4447        4448        4499        4498
         4        4448        4449        4500        4499
         4        4449        4450        4501        4500
         4        4450        4451        4502        4501
         4        4451        4452        4503        4502
         4        4452        4453        4504        4503
         4        4453        4454        4505        4504
         4        4454        4455        4506        4505
         4        4455        4456        4507        4506
         4        4456        4457        4508        4507
         4        4457        4458        4509        4508
         4        4458        4459        4510        4509
         4        4459        4460        4511        4510
         4        4460        4461        4512        4511
         4        4461        4462        4513        4512
         4        4462        4463        4514        4513
         4        4463        4464        4515        4514
         4        4464        4465        4516        4515
         4        4465        4466        4517        4516
         4        4466        4467        4518        4517
         4        4467        4468        4519        4518
         4        4468        4469        4520        4519
         4        4469        4470        4521        4520
         4        4470        4471        4522        4521
         4        4471        4472        4523        4522
         4        4472        4473        4524        4523
         4        4473        4474        4525        4524
         4        4474        4475        4526        4525
         4        4475        4476        4527        4526
         4        4476        4477        4528        4527
         4        4477        4478        4529        4528
         4        4478        4479        4530        4529
         4        4479        4480        4531        4530
         4        4480        4481        4532        4531
         4        4481        4482        4533        4532
         4        4482        4483        4534        4533
         4        4483        4484        4535        4534
         4        4484        4485        4536        4535
         4        4485        4486        4537        4536
         4        4486        4487        4538        4537
         4        4488        4489        4540        4539
         4        4489        4490        4541        4540
         4        4490        4491        4542        4541
         4        4491        4492        4543        4542
         4        4492        4493        4544        4543
         4        4493        4494        4545        4544
         4        4494        4495        4546        4545
         4        4495        4496        4547        4546
         4        4496        4497        4548        4547
         4        4497        4498        4549        4548
         4        4498        4499        4550        4549
         4        4499        4500        4551        4550
         4        4500        4501        4552        4551
         4        4501        4502        4553        4552
         4        4502        4503        4554        4553
         4        4503        4504        4555        4554
         4        4504        4505        4556        4555
         4        4505        4506        4557        4556
         4        4506        4507        4558        4557
         4        4507        4508        4559        4558
         4        4508        4509        4560        4559
         4        4509        4510        4561        4560
         4        4510        4511        4562        4561
         4        4511        4512        4563        4562
         4        4512        4513        4564        4563
         4        4513        4514        4565        4564
         4        4514        4515        4566        4565
         4        4515        4516        4567        4566
         4        4516        4517        4568        4567
         4        4517        4518        4569        4568
         4        4518        4519        4570        4569
         4        4519        4520        4571        4570
         4        4520        4521        4572        4571
         4        4521        4522        4573        4572
         4        4522        4523        4574        4573
         4        4523        4524        4575        4574
         4        4524        4525        4576        4575
         4        4525        4526        4577        4576
         4        4526        4527        4578        4577
         4        4527        4528        4579        4578
         4        4528        4529        4580        4579
         4        4529        4530        4581        4580
         4        4530        4531        4582        4581
         4        4531        4532        4583        4582
         4        4532        4533        4584        4583
         4        4533        4534        4585        4584
         4        4534        4535        4586        4585
         4        4535        4536        4587        4586
         4        4536        4537        4588        4587
         4        4537        4538        4589        4588
         4        4539        4540        4591        4590
         4        4540        4541        4592        4591
         4        4541        4542        4593        4592
         4        4542        4543        4594        4593
         4        4543        4544        4595        4594
         4        4544        4545        4596        4595
         4        4545        4546        4597        4596
         4        4546        4547        4598        4597
         4        4547        4548        4599        4598
         4        4548        4549        4600        4599
         4        4549        4550        4601        4600
         4        4550        4551        4602        4601
         4        4551        4552        4603        4602
         4        4552        4553        4604        4603
         4        4553        4554        4605        4604
         4        4554        4555        4606        4605
         4        4555        4556        4607        4606
         4        4556        4557        4608        4607
         4        4557        4558        4609        4608
         4        4558        4559        4610        4609
         4        4559        4560        4611        4610
         4        4560        4561        4612        4611
         4        4561        4562        4613        4612
         4        4562        4563        4614        4613
         4        4563        4564        4615        4614
         4        4564        4565        4616        4615
         4        4565        4566        4617        4616
         4        4566        4567        4618        4617
         4        4567        4568        4619        4618
         4        4568        4569        4620        4619
         4        4569        4570        4621        4620
         4        4570        4571        4622        4621
         4        4571        4572        4623        4622
         4        4572        4573        4624        4623
         4        4573        4574        4625        4624
         4        4574        4575        4626        4625
         4        4575        4576        4627        4626
         4        4576        4577        4628        4627
         4        4577        4578        4629        4628
         4        4578        4579        4630        4629
         4        4579        4580        4631        4630
         4        4580        4581        4632        4631
         4        4581        4582        4633        4632
         4        4582        4583        4634        4633
         4        4583        4584        4635        4634
         4        4584        4585        4636        4635
         4        4585        4586        4637        4636
         4        4586        4587        4638        4637
         4        4587        4588        4639        4638
         4        4588        4589        4640        4639
         4        4590        4591        4642        4641
         4        4591        4592        4643        4642
         4        4592        4593        4644        4643
         4        4593        4594        4645        4644
         4        4594        4595        4646        4645
         4        4595        4596        4647        4646
         4        4596        4597        4648        4647
         4        4597        4598        4649        4648
         4        4598        4599        4650        4649
         4        4599        4600        4651        4650
         4        4600        4601        4652        4651
         4        4601        4602        4653        4652
         4        4602        4603        4654        4653
         4        4603        4604        4655        4654
         4        4604        4605        4656        4655
         4        4605        4606        4657        4656
         4        4606        4607        4658        4657
         4        4607        4608        4659        4658
         4        4608        4609        4660        4659
         4        4609        4610        4661        4660
         4        4610        4611        4662        4661
         4        4611        4612        4663        4662
         4        4612        4613        4664        4663
         4        4613        4614        4665        4664
         4        4614        4615        4666        4665
         4        4615        4616        4667        4666
         4        4616        4617        4668        4667
         4        4617        4618        4669        4668
         4        4618        4619        4670        4669
         4        4619        4620        4671        4670
         4        4620        4621        4672        4671
         4        4621        4622        4673        4672
         4        4622        4623        4674        4673
         4        4623        4624        4675        4674
         4        4624        4625        4676        4675
         4        4625        4626        4677        4676
         4        4626        4627        4678        4677
         4        4627        4628        4679        4678
         4        4628        4629        4680        4679
         4        4629        4630        4681        4680
         4        4630        4631        4682        4681
         4        4631        4632        4683        4682
         4        4632        4633        4684        4683
         4        4633        4634        4685        4684
         4        4634        4635        4686        4685
         4        4635        4636        4687        4686
         4        4636        4637        4688        4687
         4        4637        4638        4689        4688
         4        4638        4639        4690        4689
         4        4639        4640        4691        4690
         4        4641        4642        4693        4692
         4        4642        4643        4694        4693
         4        4643        4644        4695        4694
         4        4644        4645        4696        4695
         4        4645        4646        4697        4696
         4        4646        4647        4698        4697
         4        4647        4648        4699        4698
         4        4648        4649        4700        4699
         4        4649        4650        4701        4700
         4        4650        4651        4702        4701
         4        4651        4652        4703        4702
         4        4652        4653        4704        4703
         4        4653        4654        4705        4704
         4        4654        4655        4706        4705
         4        4655        4656        4707        4706
         4        4656        4657        4708        4707
         4        4657        4658        4709        4708
         4        4658        4659        4710        4709
         4        4659        4660        4711        4710
         4        4660        4661        4712        4711
         4        4661        4662        4713        4712
         4        4662        4663        4714        4713
         4        4663        4664        4715        4714
         4        4664        4665        4716        4715
         4        4665        4666        4717        4716
         4        4666        4667        4718        4717
         4        4667        4668        4719        4718
         4        4668        4669        4720        4719
         4        4669        4670        4721        4720
         4        4670        4671        4722        4721
         4        4671        4672        4723        4722
         4        4672        4673        4724        4723
         4        4673        4674        4725        4724
         4        4674        4675        4726        4725
         4        4675        4676        4727        4726
         4        4676        4677        4728        4727
         4        4677        4678        4729        4728
         4        4678        4679        4730        4729
         4        4679        4680        4731        4730
         4        4680        4681        4732        4731
         4        4681        4682        4733        4732
         4        4682        4683        4734        4733
         4        4683        4684        4735        4734
         4        4684        4685        4736        4735
         4        4685        4686        4737        4736
         4        4686        4687        4738        4737
         4        4687        4688        4739        4738
         4        4688        4689        4740        4739
         4        4689        4690        4741        4740
         4        4690        4691        4742        4741
         4        4692        4693        4744        4743
         4        4693        4694        4745        4744
         4        4694        4695        4746        4745
         4        4695        4696        4747        4746
         4        4696        4697        4748        4747
         4        4697        4698        4749        4748
         4        4698        4699        4750        4749
         4        4699        4700        4751        4750
         4        4700        4701        4752        4751
         4        4701        4702        4753        4752
         4        4702        4703        4754        4753
         4        4703        4704        4755        4754
         4        4704        4705        4756        4755
         4        4705        4706        4757        4756
         4        4706        4707        4758        4757
         4        4707        4708        4759        4758
         4        4708        4709        4760        4759
         4        4709        4710        4761        4760
         4        4710        4711        4762        4761
         4        4711        4712        4763        4762
         4        4712        4713        4764        4763
         4        4713        4714        4765        4764
         4        4714        4715        4766        4765
         4        4715        4716        4767        4766
         4        4716        4717        4768        4767
         4        4717        4718        4769        4768
         4        4718        4719        4770        4769
         4        4719        4720        4771        4770
         4        4720        4721        4772        4771
         4        4721        4722        4773        4772
         4        4722        4723        4774        4773
         4        4723        4724        4775        4774
         4        4724        4725        4776        4775
         4        4725        4726        4777        4776
         4        4726        4727        4778        4777
         4        4727        4728        4779        4778
         4        4728        4729        4780        4779
         4        4729        4730        4781        4780
         4        4730        4731        4782        4781
         4        4731        4732        4783        4782
         4        4732        4733        4784        4783
         4        4733        4734        4785        4784
         4        4734        4735        4786        4785
         4        4735        4736        4787        4786
         4        4736        4737        4788        4787
         4        4737        4738        4789        4788
         4        4738        4739        4790        4789
         4        4739        4740        4791        4790
         4        4740        4741        4792        4791
         4        4741        4742        4793        4792
         4        4743        4744        4795        4794
         4        4744        4745        4796        4795
         4        4745        4746        4797        4796
         4        4746        4747        4798        4797
         4        4747        4748        4799        4798
         4        4748        4749        4800        4799
         4        4749        4750        4801        4800
         4        4750        4751        4802        4801
         4        4751        4752        4803        4802
         4        4752        4753        4804        4803
         4        4753        4754        4805        4804
         4        4754        4755        4806        4805
         4        4755        4756        4807        4806
         4        4756        4757        4808        4807
         4        4757        4758        4809        4808
         4        4758        4759        4810        4809
         4        4759        4760        4811        4810
         4        4760        4761        4812        4811
         4        4761        4762        4813        4812
         4        4762        4763        4814        4813
         4        4763        4764        4815        4814
         4        4764        4765        4816        4815
         4        4765        4766        4817        4816
         4        4766        4767        4818        4817
         4        4767        4768        4819        4818
         4        4768        4769        4820        4819
         4        4769        4770        4821        4820
         4        4770        4771        4822        4821
         4        4771        4772        4823        4822
         4        4772        4773        4824        4823
         4        4773        4774        4825        4824
         4        4774        4775        4826        4825
         4        4775        4776        4827        4826
         4        4776        4777        4828        4827
         4        4777        4778        4829        4828
         4        4778        4779        4830        4829
         4        4779        4780        4831        4830
         4        4780        4781        4832        4831
         4        4781        4782        4833        4832
         4        4782        4783        4834        4833
         4        4783        4784        4835        4834
         4        4784        4785        4836        4835
         4        4785        4786        4837        4836
         4        4786        4787        4838        4837
         4        4787        4788        4839        4838
         4        4788        4789        4840        4839
         4        4789        4790        4841        4840
         4        4790        4791        4842        4841
         4        4791        4792        4843        4842
         4        4792        4793        4844        4843
         4        4794        4795        4846        4845
         4        4795        4796        4847        4846
         4        4796        4797        4848        4847
         4        4797        4798        4849        4848
         4        4798        4799        4850        4849
         4        4799        4800        4851        4850
         4        4800        4801        4852        4851
         4        4801        4802        4853        4852
         4        4802        4803        4854        4853
         4        4803        4804        4855        4854
         4        4804        4805        4856        4855
         4        4805        4806        4857        4856
         4        4806        4807        4858        4857
         4        4807        4808        4859        4858
         4        4808        4809        4860        4859
         4        4809        4810        4861        4860
         4        4810        4811        4862        4861
         4        4811        4812        4863        4862
         4        4812        4813        4864        4863
         4        4813        4814        4865        4864
         4        4814        4815        4866        4865
         4        4815        4816        4867        4866
         4        4816        4817        4868        4867
         4        4817        4818        4869        4868
         4        4818        4819        4870        4869
         4        4819        4820        4871        4870
         4        4820        4821        4872        4871
         4        4821        4822        4873        4872
         4        4822        4823        4874        4873
         4        4823        4824        4875        4874
         4        4824        4825        4876        4875
         4        4825        4826        4877        4876
         4        4826        4827        4878        4877
         4        4827        4828        4879        4878
         4        4828        4829        4880        4879
         4        4829        4830        4881        4880
         4        4830        4831        4882        4881
         4        4831        4832        4883        4882
         4        4832        4833        4884        4883
         4        4833        4834        4885        4884
         4        4834        4835        4886        4885
         4        4835        4836        4887        4886
         4        4836        4837        4888        4887
         4        4837        4838        4889        4888
         4        4838        4839        4890        4889
         4        4839        4840        4891        4890
         4        4840        4841        4892        4891
         4        4841        4842        4893        4892
         4        4842        4843        4894        4893
         4        4843        4844        4895        4894
         4        4845        4846        4897        4896
         4        4846        4847        4898        4897
         4        4847        4848        4899        4898
         4        4848        4849        4900        4899
         4        4849        4850        4901        4900
         4        4850        4851        4902        4901
         4        4851        4852        4903        4902
         4        4852        4853        4904        4903
         4        4853        4854        4905        4904
         4        4854        4855        4906        4905
         4        4855        4856        4907        4906
         4        4856        4857        4908        4907
         4        4857        4858        4909        4908
         4        4858        4859        4910        4909
         4        4859        4860        4911        4910
         4        4860        4861        4912        4911
         4        4861        4862        4913        4912
         4        4862        4863        4914        4913
         4        4863        4864        4915        4914
         4        4864        4865        4916        4915
         4        4865        4866        4917        4916
         4        4866        4867        4918        4917
         4        4867        4868        4919        4918
         4        4868        4869        4920        4919
         4        4869        4870        4921        4920
         4        4870        4871        4922        4921
         4        4871        4872        4923        4922
         4        4872        4873        4924        4923
         4        4873        4874        4925        4924
         4        4874        4875        4926        4925
         4        4875        4876        4927        4926
         4        4876        4877        4928        4927
         4        4877        4878        4929        4928
         4        4878        4879        4930        4929
         4        4879        4880        4931        4930
         4        4880        4881        4932        4931
         4        4881        4882        4933        4932
         4        4882        4883        4934        4933
         4        4883        4884        4935        4934
         4        4884        4885        4936        4935
         4        4885        4886        4937        4936
         4        4886        4887        4938        4937
         4        4887        4888        4939        4938
         4        4888        4889        4940        4939
         4        4889        4890        4941        4940
         4        4890        4891        4942        4941
         4        4891        4892        4943        4942
         4        4892        4893        4944        4943
         4        4893        4894        4945        4944
         4        4894        4895        4946        4945
         4        4896        4897        4948        4947
         4        4897        4898        4949        4948
         4        4898        4899        4950        4949
         4        4899        4900        4951        4950
         4        4900        4901        4952        4951
         4        4901        4902        4953        4952
         4        4902        4903        4954        4953
         4        4903        4904        4955        4954
         4        4904        4905        4956        4955
         4        4905        4906        4957        4956
         4        4906        4907        4958        4957
         4        4907        4908        4959        4958
         4        4908        4909        4960        4959
         4        4909        4910        4961        4960
         4        4910        4911        4962        4961
         4        4911        4912        4963        4962
         4        4912        4913        4964        4963
         4        4913        4914        4965        4964
         4        4914        4915        4966        4965
         4        4915        4916        4967        4966
         4        4916        4917        4968        4967
         4        4917        4918        4969        4968
         4        4918        4919        4970        4969
         4        4919        4920        4971        4970
         4        4920        4921        4972        4971
         4        4921        4922        4973        4972
         4        4922        4923        4974        4973
         4        4923        4924        4975        4974
         4        4924        4925        4976        4975
         4        4925        4926        4977        4976
         4        4926        4927        4978        4977
         4        4927        4928        4979        4978
         4        4928        4929        4980        4979
         4        4929        4930        4981        4980
         4        4930        4931        4982        4981
         4        4931        4932        4983        4982
         4        4932        4933        4984        4983
         4        4933        4934        4985        4984
         4        4934        4935        4986        4985
         4        4935        4936        4987        4986
         4        4936        4937        4988        4987
         4        4937        4938        4989        4988
         4        4938        4939        4990        4989
         4        4939        4940        4991        4990
         4        4940        4941        4992        4991
         4        4941        4942        4993        4992
         4        4942        4943        4994        4993
         4        4943        4944        4995        4994
         4        4944        4945        4996        4995
         4        4945        4946        4997        4996
         4        4947        4948        4999        4998
         4        4948        4949        5000        4999
         4        4949        4950        5001        5000
         4        4950        4951        5002        5001
         4        4951        4952        5003        5002
         4        4952        4953        5004        5003
         4        4953        4954        5005        5004
         4        4954        4955        5006        5005
         4        4955        4956        5007        5006
         4        4956        4957        5008        5007
         4        4957        4958        5009        5008
         4        4958        4959        5010        5009
         4        4959        4960        5011        5010
         4        4960        4961        5012        5011
         4        4961        4962        5013        5012
         4        4962        4963        5014        5013
         4        4963        4964        5015        5014
         4        4964        4965        5016        5015
         4        4965        4966        5017        5016
         4        4966        4967        5018        5017
         4        4967        4968        5019        5018
         4        4968        4969        5020        5019
         4        4969        4970        5021        5020
         4        4970        4971        5022        5021
         4        4971        4972        5023        5022
         4        4972        4973        5024        5023
         4        4973        4974        5025        5024
         4        4974        4975        5026        5025
         4        4975        4976        5027        5026
         4        4976        4977        5028        5027
         4        4977        4978        5029        5028
         4        4978        4979        5030        5029
         4        4979        4980        5031        5030
         4        4980        4981        5032        5031
         4        4981        4982        5033        5032
         4        4982        4983        5034        5033
         4        4983        4984        5035        5034
         4        4984        4985        5036        5035
         4        4985        4986        5037        5036
         4        4986        4987        5038        5037
         4        4987        4988        5039        5038
         4        4988        4989        5040        5039
         4        4989        4990        5041        5040
         4        4990        4991        5042        5041
         4        4991        4992        5043        5042
         4        4992        4993        5044        5043
         4        4993        4994        5045        5044
         4        4994        4995        5046        5045
         4        4995        4996        5047        5046
         4        4996        4997        5048        5047
         4        4998        4999        5050        5049
         4        4999        5000        5051        5050
         4        5000        5001        5052        5051
         4        5001        5002        5053        5052
         4        5002        5003        5054        5053
         4        5003        5004        5055        5054
         4        5004        5005        5056        5055
         4        5005        5006        5057        5056
         4        5006        5007        5058        5057
         4        5007        5008        5059        5058
         4        5008        5009        5060        5059
         4        5009        5010        5061        5060
         4        5010        5011        5062        5061
         4        5011        5012        5063        5062
         4        5012        5013        5064        5063
         4        5013        5014        5065        5064
         4        5014        5015        5066        5065
         4        5015        5016        5067        5066
         4        5016        5017        5068        5067
         4        5017        5018        5069        5068
         4        5018        5019        5070        5069
         4        5019        5020        5071        5070
         4        5020        5021        5072        5071
         4        5021        5022        5073        5072
         4        5022        5023        5074        5073
         4        5023        5024        5075        5074
         4        5024        5025        5076        5075
         4        5025        5026        5077        5076
         4        5026        5027        5078        5077
         4        5027        5028        5079        5078
         4        5028        5029        5080        5079
         4        5029        5030        5081        5080
         4        5030        5031        5082        5081
         4        5031        5032        5083        5082
         4        5032        5033        5084        5083
         4        5033        5034        5085        5084
         4        5034        5035        5086        5085
         4        5035        5036        5087        5086
         4        5036        5037        5088        5087
         4        5037        5038        5089        5088
         4        5038        5039        5090        5089
         4        5039        5040        5091        5090
         4        5040        5041        5092        5091
         4        5041        5042        5093        5092
         4        5042        5043        5094        5093
         4        5043        5044        5095        5094
         4        5044        5045        5096        5095
         4        5045        5046        5097        5096
         4        5046        5047        5098        5097
         4        5047        5048        5099        5098
         4        5049        5050        5101        5100
         4        5050        5051        5102        5101
         4        5051        5052        5103        5102
         4        5052        5053        5104        5103
         4        5053        5054        5105        5104
         4        5054        5055        5106        5105
         4        5055        5056        5107        5106
         4        5056        5057        5108        5107
         4        5057        5058        5109        5108
         4        5058        5059        5110        5109
         4        5059        5060        5111        5110
         4        5060        5061        5112        5111
         4        5061        5062        5113        5112
         4        5062        5063        5114        5113
         4        5063        5064        5115        5114
         4        5064        5065        5116        5115
         4        5065        5066        5117        5116
         4        5066        5067        5118        5117
         4        5067        5068        5119        5118
         4        5068        5069        5120        5119
         4        5069        5070        5121        5120
         4        5070        5071        5122        5121
         4        5071        5072        5123        5122
         4        5072        5073        5124        5123
         4        5073        5074        5125        5124
         4        5074        5075        5126        5125
         4        5075        5076        5127        5126
         4        5076        5077        5128        5127
         4        5077        5078        5129        5128
         4        5078        5079        5130        5129
         4        5079        5080        5131        5130
         4        5080        5081        5132        5131
         4        5081        5082        5133        5132
         4        5082        5083        5134        5133
         4        5083        5084        5135        5134
         4        5084        5085        5136        5135
         4        5085        5086        5137        5136
         4        5086        5087        5138        5137
         4        5087        5088        5139        5138
         4        5088        5089        5140        5139
         4        5089        5090        5141        5140
         4        5090        5091        5142        5141
         4        5091        5092        5143        5142
         4        5092        5093        5144        5143
         4        5093        5094        5145        5144
         4        5094        5095        5146        5145
         4        5095        5096        5147        5146
         4        5096        5097        5148        5147
         4        5097        5098        5149        5148
         4        5098        5099        5150        5149
CELL_TYPES       5000
9
9
9
9
9
9
9
9
9
9
9
9
9
9
9
9
9
9
9
9
9
9
9
9
9
9
9
9
9
9
9
9
9
9
9
9
9
9
9
9
9
9
9
9
9
9
9
9
9
9
9
9
9
9
9
9
9
9
9
9
9
9
9
9
9
9
9
9
9
9
9
9
9
9
9
9
9
9
9
9
9
9
9
9
9
9
9
9
9
9
9
9
9
9
9
9
9
9
9
9
9
9
9
9
9
9
9
9
9
9
9
9
9
9
9
9
9
9
9
9
9
9
9
9
9
9
9
9
9
9
9
9
9
9
9
9
9
9
9
9
9
9
9
9
9
9
9
9
9
9
9
9
9
9
9
9
9
9
9
9
9
9
9
9
9
9
9
9
9
9
9
9
9
9
9
9
9
9
9
9
9
9
9
9
9
9
9
9
9
9
9
9
9
9
9
9
9
9
9
9
9
9
9
9
9
9
9
9
9
9
9
9
9
9
9
9
9
9
9
9
9
9
9
9
9
9
9
9
9
9
9
9
9
9
9
9
9
9
9
9
9
9
9
9
9
9
9
9
9
9
9
9
9
9
9
9
9
9
9
9
9
9
9
9
9
9
9
9
9
9
9
9
9
9
9
9
9
9
9
9
9
9
9
9
9
9
9
9
9
9
9
9
9
9
9
9
9
9
9
9
9
9
9
9
9
9
9
9
9
9
9
9
9
9
9
9
9
9
9
9
9
9
9
9
9
9
9
9
9
9
9
9
9
9
9
9
9
9
9
9
9
9
9
9
9
9
9
9
9
9
9
9
9
9
9
9
9
9
9
9
9
9
9
9
9
9
9
9
9
9
9
9
9
9
9
9
9
9
9
9
9
9
9
9
9
9
9
9
9
9
9
9
9
9
9
9
9
9
9
9
9
9
9
9
9
9
9
9
9
9
9
9
9
9
9
9
9
9
9
9
9
9
9
9
9
9
9
9
9
9
9
9
9
9
9
9
9
9
9
9
9
9
9
9
9
9
9
9
9
9
9
9
9
9
9
9
9
9
9
9
9
9
9
9
9
9
9
9
9
9
9
9
9
9
9
9
9
9
9
9
9
9
9
9
9
9
9
9
9
9
9
9
9
9
9
9
9
9
9
9
9
9
9
9
9
9
9
9
9
9
9
9
9
9
9
9
9
9
9
9
9
9
9
9
9
9
9
9
9
9
9
9
9
9
9
9
9
9
9
9
9
9
9
9
9
9
9
9
9
9
9
9
9
9
9
9
9
9
9
9
9
9
9
9
9
9
9
9
9
9
9
9
9
9
9
9
9
9
9
9
9
9
9
9
9
9
9
9
9
9
9
9
9
9
9
9
9
9
9
9
9
9
9
9
9
9
9
9
9
9
9
9
9
9
9
9
9
9
9
9
9
9
9
9
9
9
9
9
9
9
9
9
9
9
9
9
9
9
9
9
9
9
9
9
9
9
9
9
9
9
9
9
9
9
9
9
9
9
9
9
9
9
9
9
9
9
9
9
9
9
9
9
9
9
9
9
9
9
9
9
9
9
9
9
9
9
9
9
9
9
9
9
9
9
9
9
9
9
9
9
9
9
9
9
9
9
9
9
9
9
9
9
9
9
9
9
9
9
9
9
9
9
9
9
9
9
9
9
9
9
9
9
9
9
9
9
9
9
9
9
9
9
9
9
9
9
9
9
9
9
9
9
9
9
9
9
9
9
9
9
9
9
9
9
9
9
9
9
9
9
9
9
9
9
9
9
9
9
9
9
9
9
9
9
9
9
9
9
9
9
9
9
9
9
9
9
9
9
9
9
9
9
9
9
9
9
9
9
9
9
9
9
9
9
9
9
9
9
9
9
9
9
9
9
9
9
9
9
9
9
9
9
9
9
9
9
9
9
9
9
9
9
9
9
9
9
9
9
9
9
9
9
9
9
9
9
9
9
9
9
9
9
9
9
9
9
9
9
9
9
9
9
9
9
9
9
9
9
9
9
9
9
9
9
9
9
9
9
9
9
9
9
9
9
9
9
9
9
9
9
9
9
9
9
9
9
9
9
9
9
9
9
9
9
9
9
9
9
9
9
9
9
9
9
9
9
9
9
9
9
9
9
9
9
9
9
9
9
9
9
9
9
9
9
9
9
9
9
9
9
9
9
9
9
9
9
9
9
9
9
9
9
9
9
9
9
9
9
9
9
9
9
9
9
9
9
9
9
9
9
9
9
9
9
9
9
9
9
9
9
9
9
9
9
9
9
9
9
9
9
9
9
9
9
9
9
9
9
9
9
9
9
9
9
9
9
9
9
9
9
9
9
9
9
9
9
9
9
9
9
9
9
9
9
9
9
9
9
9
9
9
9
9
9
9
9
9
9
9
9
9
9
9
9
9
9
9
9
9
9
9
9
9
9
9
9
9
9
9
9
9
9
9
9
9
9
9
9
9
9
9
9
9
9
9
9
9
9
9
9
9
9
9
9
9
9
9
9
9
9
9
9
9
9
9
9
9
9
9
9
9
9
9
9
9
9
9
9
9
9
9
9
9
9
9
9
9
9
9
9
9
9
9
9
9
9
9
9
9
9
9
9
9
9
9
9
9
9
9
9
9
9
9
9
9
9
9
9
9
9
9
9
9
9
9
9
9
9
9
9
9
9
9
9
9
9
9
9
9
9
9
9
9
9
9
9
9
9
9
9
9
9
9
9
9
9
9
9
9
9
9
9
9
9
9
9
9
9
9
9
9
9
9
9
9
9
9
9
9
9
9
9
9
9
9
9
9
9
9
9
9
9
9
9
9
9
9
9
9
9
9
9
9
9
9
9
9
9
9
9
9
9
9
9
9
9
9
9
9
9
9
9
9
9
9
9
9
9
9
9
9
9
9
9
9
9
9
9
9
9
9
9
9
9
9
9
9
9
9
9
9
9
9
9
9
9
9
9
9
9
9
9
9
9
9
9
9
9
9
9
9
9
9
9
9
9
9
9
9
9
9
9
9
9
9
9
9
9
9
9
9
9
9
9
9
9
9
9
9
9
9
9
9
9
9
9
9
9
9
9
9
9
9
9
9
9
9
9
9
9
9
9
9
9
9
9
9
9
9
9
9
9
9
9
9
9
9
9
9
9
9
9
9
9
9
9
9
9
9
9
9
9
9
9
9
9
9
9
9
9
9
9
9
9
9
9
9
9
9
9
9
9
9
9
9
9
9
9
9
9
9
9
9
9
9
9
9
9
9
9
9
9
9
9
9
9
9
9
9
9
9
9
9
9
9
9
9
9
9
9
9
9
9
9
9
9
9
9
9
9
9
9
9
9
9
9
9
9
9
9
9
9
9
9
9
9
9
9
9
9
9
9
9
9
9
9
9
9
9
9
9
9
9
9
9
9
9
9
9
9
9
9
9
9
9
9
9
9
9
9
9
9
9
9
9
9
9
9
9
9
9
9
9
9
9
9
9
9
9
9
9
9
9
9
9
9
9
9
9
9
9
9
9
9
9
9
9
9
9
9
9
9
9
9
9
9
9
9
9
9
9
9
9
9
9
9
9
9
9
9
9
9
9
9
9
9
9
9
9
9
9
9
9
9
9
9
9
9
9
9
9
9
9
9
9
9
9
9
9
9
9
9
9
9
9
9
9
9
9
9
9
9
9
9
9
9
9
9
9
9
9
9
9
9
9
9
9
9
9
9
9
9
9
9
9
9
9
9
9
9
9
9
9
9
9
9
9
9
9
9
9
9
9
9
9
9
9
9
9
9
9
9
9
9
9
9
9
9
9
9
9
9
9
9
9
9
9
9
9
9
9
9
9
9
9
9
9
9
9
9
9
9
9
9
9
9
9
9
9
9
9
9
9
9
9
9
9
9
9
9
9
9
9
9
9
9
9
9
9
9
9
9
9
9
9
9
9
9
9
9
9
9
9
9
9
9
9
9
9
9
9
9
9
9
9
9
9
9
9
9
9
9
9
9
9
9
9
9
9
9
9
9
9
9
9
9
9
9
9
9
9
9
9
9
9
9
9
9
9
9
9
9
9
9
9
9
9
9
9
9
9
9
9
9
9
9
9
9
9
9
9
9
9
9
9
9
9
9
9
9
9
9
9
9
9
9
9
9
9
9
9
9
9
9
9
9
9
9
9
9
9
9
9
9
9
9
9
9
9
9
9
9
9
9
9
9
9
9
9
9
9
9
9
9
9
9
9
9
9
9
9
9
9
9
9
9
9
9
9
9
9
9
9
9
9
9
9
9
9
9
9
9
9
9
9
9
9
9
9
9
9
9
9
9
9
9
9
9
9
9
9
9
9
9
9
9
9
9
9
9
9
9
9
9
9
9
9
9
9
9
9
9
9
9
9
9
9
9
9
9
9
9
9
9
9
9
9
9
9
9
9
9
9
9
9
9
9
9
9
9
9
9
9
9
9
9
9
9
9
9
9
9
9
9
9
9
9
9
9
9
9
9
9
9
9
9
9
9
9
9
9
9
9
9
9
9
9
9
9
9
9
9
9
9
9
9
9
9
9
9
9
9
9
9
9
9
9
9
9
9
9
9
9
9
9
9
9
9
9
9
9
9
9
9
9
9
9
9
9
9
9
9
9
9
9
9
9
9
9
9
9
9
9
9
9
9
9
9
9
9
9
9
9
9
9
9
9
9
9
9
9
9
9
9
9
9
9
9
9
9
9
9
9
9
9
9
9
9
9
9
9
9
9
9
9
9
9
9
9
9
9
9
9
9
9
9
9
9
9
9
9
9
9
9
9
9
9
9
9
9
9
9
9
9
9
9
9
9
9
9
9
9
9
9
9
9
9
9
9
9
9
9
9
9
9
9
9
9
9
9
9
9
9
9
9
9
9
9
9
9
9
9
9
9
9
9
9
9
9
9
9
9
9
9
9
9
9
9
9
9
9
9
9
9
9
9
9
9
9
9
9
9
9
9
9
9
9
9
9
9
9
9
9
9
9
9
9
9
9
9
9
9
9
9
9
9
9
9
9
9
9
9
9
9
9
9
9
9
9
9
9
9
9
9
9
9
9
9
9
9
9
9
9
9
9
9
9
9
9
9
9
9
9
9
9
9
9
9
9
9
9
9
9
9
9
9
9
9
9
9
9
9
9
9
9
9
9
9
9
9
9
9
9
9
9
9
9
9
9
9
9
9
9
9
9
9
9
9
9
9
9
9
9
9
9
9
9
9
9
9
9
9
9
9
9
9
9
9
9
9
9
9
9
9
9
9
9
9
9
9
9
9
9
9
9
9
9
9
9
9
9
9
9
9
9
9
9
9
9
9
9
9
9
9
9
9
9
9
9
9
9
9
9
9
9
9
9
9
9
9
9
9
9
9
9
9
9
9
9
9
9
9
9
9
9
9
9
9
9
9
9
9
9
9
9
9
9
9
9
9
9
9
9
9
9
9
9
9
9
9
9
9
9
9
9
9
9
9
9
9
9
9
9
9
9
9
9
9
9
9
9
9
9
9
9
9
9
9
9
9
9
9
9
9
9
9
9
9
9
9
9
9
9
9
9
9
9
9
9
9
9
9
9
9
9
9
9
9
9
9
9
9
9
9
9
9
9
9
9
9
9
9
9
9
9
9
9
9
9
9
9
9
9
9
9
9
9
9
9
9
9
9
9
9
9
9
9
9
9
9
9
9
9
9
9
9
9
9
9
9
9
9
9
9
9
9
9
9
9
9
9
9
9
9
9
9
9
9
9
9
9
9
9
9
9
9
9
9
9
9
9
9
9
9
9
9
9
9
9
9
9
9
9
9
9
9
9
9
9
9
9
9
9
9
9
9
9
9
9
9
9
9
9
9
9
9
9
9
9
9
9
9
9
9
9
9
9
9
9
9
9
9
9
9
9
9
9
9
9
9
9
9
9
9
9
9
9
9
9
9
9
9
9
9
9
9
9
9
9
9
9
9
9
9
9
9
9
9
9
9
9
9
9
9
9
9
9
9
9
9
9
9
9
9
9
9
9
9
9
9
9
9
9
9
9
9
9
9
9
9
9
9
9
9
9
9
9
9
9
9
9
9
9
9
9
9
9
9
9
9
9
9
9
9
9
9
9
9
9
9
9
9
9
9
9
9
9
9
9
9
9
9
9
9
9
9
9
9
9
9
9
9
9
9
9
9
9
9
9
9
9
9
9
9
9
9
9
9
9
9
9
9
9
9
9
9
9
9
9
9
9
9
9
9
9
9
9
9
9
9
9
9
9
9
9
9
9
9
9
9
9
9
9
9
9
9
9
9
9
9
9
9
9
9
9
9
9
9
9
9
9
9
9
9
9
9
9
9
9
9
9
9
9
9
9
9
9
9
9
9
9
9
9
9
9
9
9
9
9
9
9
9
9
9
9
9
9
9
9
9
9
9
9
9
9
9
9
9
9
9
9
9
9
9
9
9
9
9
9
9
9
9
9
9
9
9
9
9
9
9
9
9
9
9
9
9
9
9
9
9
9
9
9
9
9
9
9
9
9
9
9
9
9
9
9
9
9
9
9
9
9
9
9
9
9
9
9
9
9
9
9
9
9
9
9
9
9
9
9
9
9
9
9
9
9
9
9
9
9
9
9
9
9
9
9
9
9
9
9
9
9
9
9
9
9
9
9
9
9
9
9
9
9
9
9
9
9
9
9
9
9
9
9
9
9
9
9
9
9
9
9
9
9
9
9
9
9
9
9
9
9
9
9
9
9
9
9
9
9
9
9
9
9
9
9
9
9
9
9
9
9
9
9
9
9
9
9
9
9
9
9
9
9
9
9
9
9
9
9
9
9
9
9
9
9
9
9
9
9
9
9
9
9
9
9
9
9
9
9
9
9
9
9
9
9
9
9
9
9
9
9
9
9
9
9
9
9
9
9
9
9
9
9
9
9
9
9
9
9
9
9
9
9
9
9
9
9
9
9
9
9
9
9
9
9
9
9
9
9
9
9
9
9
9
9
9
9
9
9
9
9
9
9
9
9
9
9
9
9
9
9
9
9
9
9
9
9
9
9
9
9
9
9
9
9
9
9
9
9
9
9
9
9
9
9
9
9
9
9
9
9
9
9
9
9
9
9
9
9
9
9
9
9
9
9
9
9
9
9
9
9
9
9
9
9
9
9
9
9
9
9
9
9
9
9
9
9
9
9
9
9
9
9
9
9
9
9
9
9
9
9
9
9
9
9
9
9
9
9
9
9
9
9
9
9
9
9
9
9
9
9
9
9
9
9
9
9
9
9
9
9
9
9
9
9
9
9
9
9
9
9
9
9
9
9
9
9
9
9
9
9
9
9
9
9
9
9
9
9
9
9
9
9
9
9
9
9
9
9
9
9
9
9
9
9
9
9
9
9
9
9
9
9
9
9
9
9
9
9
9
9
9
9
9
9
9
9
9
9
9
9
9
9
9
9
9
9
9
9
9
9
9
9
9
9
9
9
9
9
9
9
9
9
9
9
9
9
9
9
9
9
9
9
9
9
9
9
9
9
9
9
9
9
9
9
9
9
9
9
9
9
9
9
9
9
9
9
9
9
9
9
9
9
9
9
9
9
9
9
9
9
9
9
9
9
9
9
9
9
9
9
9
9
9
9
9
9
9
9
9
9
9
9
9
9
9
9
9
9
9
9
9
9
9
9
9
9
9
9
9
9
9
9
9
9
9
9
9
9
9
9
9
9
9
9
9
9
9
9
9
9
9
9
9
9
9
9
9
9
9
9
9
9
9
9
9
9
9
9
9
9
9
9
9
9
9
9
9
9
9
9
9
9
9
9
9
9
9
9
9
9
9
9
9
9
9
9
9
9
9
9
9
9
9
9
9
9
9
9
9
9
9
9
9
9
9
9
9
9
9
9
9
9
9
9
9
9
9
9
9
9
9
9
9
9
9
9
9
9
9
9
9
9
9
9
9
9
9
9
9
9
9
9
9
9
9
9
9
9
9
9
9
9
9
9
9
9
9
9
9
9
9
9
9
9
9
9
9
9
9
9
9
9
9
9
9
9
9
9
9
9
9
9
9
9
9
9
9
9
9
9
9
9
9
9
9
9
9
9
9
9
9
9
9
9
9
9
9
9
9
9
9
9
9
9
9
9
9
9
9
9
9
9
9
9
9
9
9
9
9
9
9
9
9
9
9
9
9
9
9
9
9
9
9
9
9
9
9
9
9
9
9
9
9
9
9
9
9
9
9
9
9
9
9
9
9
9
9
9
9
9
9
9
9
9
9
9
9
9
9
9
9
9
9
9
9
9
9
9
9
9
9
9
9
9
9
9
9
9
9
9
9
9
9
9
9
9
9
9
9
9
9
9
9
9
9
9
9
9
9
9
9
9
9
9
9
9
9
9
9
9
9
9
9
9
9
9
9
9
9
9
9
9
9
9
9
9
9
9
9
9
9
9
9
9
9
9
9
9
9
9
9
9
9
9
9
9
9
9
9
9
9
9
9
9
9
9
9
9
9
9
9
9
9
9
9
9
9
9
9
9
9
9
9
9
9
9
9
9
9
9
9
9
9
9
9
9
9
9
9
9
9
9
9
9
9
9
9
9
9
9
9
9
9
9
9
9
9
9
9
9
9
9
9
9
9
9
9
9
9
9
9
9
9
9
9
9
9
9
9
9
9
9
9
9
9
9
9
9
9
9
9
9
9
9
9
9
9
9
9
9
9
9
9
9
9
9
9
9
9
9
9
9
9
9
9
9
9
9
9
9
9
9
9
9
9
9
9
9
9
9
9
9
9
9
9
9
9
9
9
9
9
9
9
9
9
9
9
9
9
9
9
9
9
9
9
9
9
9
9
9
9
9
9
9
9
9
9
9
9
9
9
9
9
9
9
9
9
9
9
9
9
9
9
9
9
9
9
9
9
9
9
9
9
9
9
9
9
9
9
9
9
9
9
9
9
9
9
9
9
9
9
9
9
9
9
9
9
9
9
9
9
9
9
9
9
9
9
9
9
9
9
9
9
9
9
9
9
9
9
9
9
9
9
9
9
9
9
9
9
9
9
9
9
9
9
9
9
9
9
9
9
9
9
9
9
9
9
9
9
9
9
9
9
9
9
9
9
9
9
9
9
9
9
9
9
9
9
9
9
9
9
9
9
9
9
9
9
9
9
9
9
9
9
9
9
9
9
9
9
9
9
9
9
9
9
9
9
9
9
9
9
9
9
9
9
9
9
9
9
9
9
9
9
9
9
9
9
9
9
9
9
9
9
9
9
9
9
9
9
9
9
9
9
9
9
9
9
9
9
9
9
9
9
9
9
9
9
9
9
9
9
9
9
9
9
9
9
9
9
9
9
9
9
9
9
9
9
9
9
9
9
9
9
9
9
9
9
9
9
9
9
9
9
9
9
9
9
9
9
9
9
9
9
9
9
9
9
9
9
9
9
9
9
9
9
9
9
9
9
9
9
9
9
9
9
9
9
9
9
9
9
9
9
9
9
9
9
9
9
9
9
9
9
9
9
9
9
9
9
9
9
9
9
9
9
9
9
9
9
9
9
9
9
9
9
9
9
9
9
9
9
9
9
9
9
9
9
9
9
9
9
9
9
9
9
9
9
9
9
9
9
9
9
9
9
9
9
9
9
9
9
9
9
9
9
9
9
9
9
9
9
9
9
9
9
9
9
9
9
9
9
9
9
9
9
9
9
9
9
9
9
9
9
9
9
9
9
9
9
9
9
9
9
9
9
9
9
9
9
9
9
9
9
9
9
9
9
9
9
9
9
9
9
9
9
9
9
9
9
9
9
9
9
9
9
9
9
9
9
9
9
9
9
9
9
9
9
9
9
9
9
9
9
9
9
9
9
9
9
9
9
9
9
9
9
9
9
9
9
9
9
9
9
9
9
9
9
9
9
9
9
9
9
9
9
9
9
9
9
9
9
9
9
9
9
9
9
9
9
9
9
9
9
9
9
9
9
9
9
9
9
9
9
9
9
9
9
9
9
9
9
9
9
9
9
9
9
9
9
9
9
9
9
9
9
9
9
9
9
9
9
9
9
9
9
9
9
9
9
9
9
9
9
9
9
9
9
9
9
9
9
9
9
9
9
9
9
9
9
9
9
9
9
9
9
9
9
9
9
9
9
9
9
9
9
9
9
9
9
9
9
9
9
9
9
9
9
9
9
9
9
9
9
9
9
9
9
9
9
9
9
9
9
9
9
9
9
9
9
9
9
9
9
9
9
9
9
9
9
9
9
9
9
9
9
9
9
9
9
9
9
9
9
9
9
9
9
9
9
9
9
9
9
9
9
9
9
9
9
9
9
9
9
9
9
9
9
9
9
9
9
9
9
9
9
9
9
9
9
9
9
9
9
9
9
9
9
9
9
9
9
9
9
9
9
9
9
9
9
9
9
9
9
9
9
9
9
9
9
9
9
9
9
9
9
9
9
9
9
9
9
9
9
9
9
9
9
9
9
9
9
9
9
9
9
9
9
9
9
9
9
9
9
9
9
9
9
9
9
9
9
9
9
9
9
9
9
9
9
9
9
9
9
9
9
9
9
9
9
9
9
9
9
9
9
9
9
9
9
9
9
9
9
9
9
9
9
9
9
9
9
9
9
9
9
9
9
9
9
9
9
9
9
9
9
9
9
9
9
9
9
9
9
9
9
9
9
9
9
9
9
9
9
9
9
9
9
9
9
9
9
9
9
9
9
9
9
9
9
9
9
9
9
9
9
9
9
9
9
9
9
9
9
9
9
9
9
9
9
9
9
9
9
9
9
9
9
9
9
9
9
9
9
9
9
9
9
9
9
9
9
9
9
9
9
9
9
9
9
9
9
9
9
9
9
9
9
9
9
9
9
9
9
9
9
9
9
9
9
9
9
9
9
9
9
9
9
9
9
9
9
9
9
9
9
9
9
9
9
9
9
9
9
9
9
9
9
9
9
9
9
9
9
9
9
9
9
9
9
9
9
9
9
9
9
9
9
9
9
9
9
9
9
9
9
9
9
9
9
9
9
9
9
9
9
9
9
9
9
9
9
9
9
9
9
9
9
9
9
9
9
9
9
9
9
9
9
9
9
9
9
9
9
9
9
9
9
9
9
9
9
9
9
9
9
9
9
9
9
9
9
9
9
9
9
9
9
9
9
9
9
9
9
9
9
9
9
9
9
9
9
9
9
9
9
9
9
9
9
9
9
9
9
9
9
9
9
9
9
9
9
9
9
9
9
9
9
9
9
9
9
9
9
9
9
9
9
9
9
9
9
9
9
9
9
9
9
9
9
9
9
9
9
9
9
9
9
9
9
9
9
9
9
9
9
9
9
9
9
9
9
9
9
9
9
9
9
9
9
POINT_DATA      5151
SCALARS p double 
LOOKUP_TABLE default
   60000000.0000000     
   60000000.0000000     
   60000000.0000000     
   60000000.0000000     
   60000000.0000000     
   60000000.0000000     
   60000000.0000000     
   60000000.0000000     
   60000000.0000000     
   60000000.0000000     
   60000000.0000000     
   60000000.0000000     
   60000000.0000000     
   60000000.0000000     
   60000000.0000000     
   60000000.0000000     
   60000000.0000000     
   60000000.0000000     
   60000000.0000000     
   60000000.0000000     
   60000000.0000000     
   60000000.0000000     
   60000000.0000000     
   60000000.0000000     
   60000000.0000000     
   60000000.0000000     
   60000000.0000000     
   60000000.0000000     
   60000000.0000000     
   60000000.0000000     
   60000000.0000000     
   60000000.0000000     
   60000000.0000000     
   60000000.0000000     
   60000000.0000000     
   60000000.0000000     
   60000000.0000000     
   60000000.0000000     
   60000000.0000000     
   60000000.0000000     
   60000000.0000000     
   60000000.0000000     
   60000000.0000000     
   60000000.0000000     
   60000000.0000000     
   60000000.0000000     
   60000000.0000000     
   60000000.0000000     
   60000000.0000000     
   60000000.0000000     
   60000000.0000000     
   59561219.6523999     
   59568470.4332144     
   59581775.7618293     
   59595796.3915923     
   59609077.4907805     
   59621251.6011330     
   59632318.1820508     
   59642393.6093735     
   59651619.2933342     
   59660128.7114031     
   59668037.4522498     
   59675442.1029423     
   59682422.2125426     
   59689043.0084014     
   59695357.9913754     
   59701411.1421889     
   59707238.7115833     
   59712870.6497020     
   59718331.7477581     
   59723642.5584106     
   59728820.1479954     
   59733878.7207454     
   59738830.1445909     
   59743684.4003099     
   59748449.9702606     
   59753134.1790971     
   59757743.4962236     
   59762283.8078743     
   59766760.6653361     
   59771179.5147320     
   59775545.9128062     
   59779865.7321499     
   59784145.3581246     
   59788391.8781871     
   59792613.2620920     
   59796818.5281062     
   59801017.8851578     
   59805222.8325625     
   59809446.1855529     
   59813701.9728005     
   59818005.1153765     
   59822370.7343698     
   59826812.8268873     
   59831341.8596859     
   59835960.4799269     
   59840655.8681267     
   59845385.8632161     
   59850052.8259007     
   59854450.8629320     
   59858146.1615177     
   59860113.4141676     
   59243424.7401753     
   59251042.4025575     
   59267413.1902087     
   59286525.9025780     
   59305789.1132655     
   59324228.2255494     
   59341545.3856732     
   59357721.2352206     
   59372842.4937936     
   59387027.7696308     
   59400396.7977603     
   59413058.8894608     
   59425109.6761264     
   59436631.2236327     
   59447693.3409420     
   59458355.1670868     
   59468666.6879172     
   59478670.0781439     
   59488400.8604818     
   59497888.9051497     
   59507159.2982528     
   59516233.1039434     
   59525128.0398557     
   59533859.0806632     
   59542439.0012533     
   59550878.8687926     
   59559188.4914989     
   59567376.8309180     
   59575452.3836464     
   59583423.5375382     
   59591298.9063157     
   59599087.6449695     
   59606799.7461340     
   59614446.3144073     
   59622039.8107624     
   59629594.2518825     
   59637125.3379891     
   59644650.4651257     
   59652188.5499844     
   59659759.5505949     
   59667383.4932964     
   59675078.6958794     
   59682858.6739718     
   59690726.8689525     
   59698667.7185408     
   59706631.4570011     
   59714507.8421306     
   59722079.4980634     
   59728935.6052512     
   59734303.2603454     
   59736721.7324915     
   59021899.9407113     
   59027889.7126575     
   59042112.4718794     
   59060332.4420542     
   59080038.3002176     
   59099938.1991009     
   59119426.7399071     
   59138250.9902192     
   59156332.0134728     
   59173673.5437519     
   59190316.2845969     
   59206315.4177610     
   59221729.7201012     
   59236616.4103731     
   59251028.7996062     
   59265015.3134275     
   59278619.1968878     
   59291878.5723021     
   59304826.6905751     
   59317492.2947100     
   59329900.0498210     
   59342071.0107338     
   59354023.1070869     
   59365771.6314651     
   59377329.7202983     
   59388708.8206522     
   59399919.1387342     
   59410970.0679189     
   59421870.5953231     
   59432629.6863553     
   59443256.6461605     
   59453761.4553008     
   59464155.0740853     
   59474449.7052261     
   59484658.9971831     
   59494798.1594554     
   59504883.9442424     
   59514934.4231973     
   59524968.4484186     
   59535004.6251478     
   59545059.5264461     
   59555144.7251349     
   59565261.9682380     
   59575395.4108657     
   59585499.1513891     
   59595477.1811404     
   59605150.9715080     
   59614206.8473588     
   59622111.2545484     
   59627982.0409115     
   59630455.2876035     
   58874411.7995739     
   58878141.3875573     
   58888110.0292096     
   58902313.4109212     
   58919045.1030358     
   58937120.6832515     
   58955794.8506676     
   58974619.7806719     
   58993333.4196633     
   59011786.7332357     
   59029899.3014868     
   59047632.6790477     
   59064974.2711950     
   59081927.3328711     
   59098504.5704901     
   59114723.9338569     
   59130605.8047612     
   59146171.1237854     
   59161440.1755580     
   59176431.8491391     
   59191163.2448254     
   59205649.5323200     
   59219903.9882204     
   59233938.1579031     
   59247762.1002702     
   59261384.6844006     
   59274813.9153585     
   59288057.2725282     
   59301122.0480347     
   59314015.6752120     
   59326746.0377231     
   59339321.7487473     
   59351752.3863851     
   59364048.6656074     
   59376222.5178877     
   59388287.0357924     
   59400256.2192334     
   59412144.4296236     
   59423965.4128931     
   59435730.6845697     
   59447446.9680875     
   59459112.2231837     
   59470709.5678292     
   59482198.0466420     
   59493498.6833733     
   59504473.5367657     
   59514894.6131343     
   59524398.9721136     
   59532428.0514481     
   59538160.2961151     
   59540463.0331006     
   58781027.3154814     
   58782586.5376458     
   58787950.4866045     
   58797083.0975191     
   58809282.1373545     
   58823745.6160768     
   58839782.7100325     
   58856857.7429516     
   58874574.1287482     
   58892645.0651205     
   58910866.4795188     
   58929095.5696827     
   58947234.5490960     
   58965218.4545678     
   58983005.9847095     
   59000572.6028293     
   59017905.3598129     
   59034999.0445681     
   59051853.3680153     
   59068470.9516937     
   59084855.9382327     
   59101013.0764843     
   59116947.1631403     
   59132662.7469857     
   59148164.0222846     
   59163454.8545038     
   59178538.8948838     
   59193419.7505187     
   59208101.1838671     
   59222587.3201896     
   59236882.8434622     
   59250993.1608348     
   59264924.5125433     
   59278683.9979406     
   59292279.4782780     
   59305719.3019318     
   59319011.7762347     
   59332164.2794193     
   59345181.8627750     
   59358065.1317599     
   59370807.1084275     
   59383388.6572227     
   59395771.8928151     
   59407890.7784791     
   59419637.8852635     
   59430846.1010095     
   59441264.2189602     
   59450526.4508817     
   59458119.4653052     
   59463356.8811090     
   59465377.5231303     
   58725093.6313568     
   58724909.6112801     
   58726263.1659362     
   58730556.7714237     
   58737999.9863037     
   58748269.4501797     
   58760863.0402916     
   58775267.9213953     
   58791028.5743196     
   58807766.7078852     
   58825180.2620368     
   58843034.4275547     
   58861150.4538588     
   58879394.6951592     
   58897668.8557321     
   58915901.7333231     
   58934042.4647979     
   58952055.1480897     
   58969914.6619950     
   58987603.4918874     
   59005109.3765455     
   59022423.6091301     
   59039539.8479715     
   59056453.3164720     
   59073160.2937871     
   59089657.8176798     
   59105943.5374163     
   59122015.6676137     
   59137873.0036041     
   59153514.9653336     
   59168941.6402079     
   59184153.7957127     
   59199152.8300138     
   59213940.6228382     
   59228519.2393069     
   59242890.4253309     
   59257054.8137128     
   59271010.7339196     
   59284752.4840210     
   59298267.8788612     
   59311534.8330501     
   59324516.6719798     
   59337155.7963095     
   59349365.2780456     
   59361017.9961558     
   59371933.1523174     
   59381860.6861394     
   59390465.6327393     
   59397317.0661897     
   59401889.3872444     
   59403585.4790833     
   58693589.9955610     
   58692193.2828105     
   58690531.7514800     
   58690888.1693178     
   58694160.9818174     
   58700476.9543186     
   58709580.0276960     
   58721059.1132053     
   58734471.1939320     
   58749401.7312899     
   58765489.8855501     
   58782435.0634508     
   58799994.1868008     
   58817974.8583849     
   58836227.2050782     
   58854635.8356798     
   58873112.6004869     
   58891590.4216037     
   58910018.2346029     
   58928356.9639450     
   58946576.4008184     
   58964652.8355986     
   58982567.3012573     
   59000304.2984702     
   59017850.8915624     
   59035196.0830906     
   59052330.3917254     
   59069245.5721722     
   59085934.4267541     
   59102390.6659074     
   59118608.7792773     
   59134583.8804372     
   59150311.4865133     
   59165787.1891715     
   59181006.1653749     
   59195962.4649514     
   59210647.9972179     
   59225051.1208537     
   59239154.7205788     
   59252933.6328027     
   59266351.2644646     
   59279355.2435412     
   59291871.9637562     
   59303799.9733859     
   59315002.3690117     
   59325298.7874638     
   59334458.3749637     
   59342196.3391765     
   59348178.2175384     
   59352037.2509563     
   59353410.3604133     
   58676935.5349699     
   58674826.1049009     
   58671204.9306072     
   58668762.2593552     
   58668833.8234296     
   58671901.3193217     
   58677950.8842408     
   58686711.5869998     
   58697803.7134682     
   58710824.7710135     
   58725395.2219867     
   58741179.5459328     
   58757892.9510522     
   58775300.2559349     
   58793210.9208048     
   58811472.5735646     
   58829964.3499805     
   58848590.7351860     
   58867276.2130701     
   58885960.8090231     
   58904596.4905729     
   58923144.3312698     
   58941572.3208558     
   58959853.7032804     
   58977965.7333255     
   58995888.7562341     
   59013605.5291138     
   59031100.7159438     
   59048360.4987274     
   59065372.2552531     
   59082124.2589350     
   59098605.3583372     
   59114804.5933621     
   59130710.7018743     
   59146311.4650044     
   59161592.8319956     
   59176537.7570489     
   59191124.6726830     
   59205325.5192536     
   59219103.2529607     
   59232408.7724305     
   59245177.2492057     
   59257323.9401393     
   59268739.7302888     
   59279286.9461223     
   59288796.4400222     
   59297067.6075550     
   59303873.8089284     
   59308976.4192262     
   59312151.0529132     
   59313228.9975455     
   58668472.2612423     
   58666056.5626984     
   58661405.4751731     
   58657269.4464884     
   58655196.9774385     
   58655907.1414289     
   58659586.7967942     
   58666109.1848887     
   58675184.0909240     
   58686454.5957278     
   58699555.2572974     
   58714144.0842620     
   58729917.6291893     
   58746615.7921457     
   58764020.7694355     
   58781953.0095047     
   58800265.9442749     
   58818840.5304595     
   58837580.1588970     
   58856406.1912597     
   58875254.2045304     
   58894070.9230917     
   58912811.7674625     
   58931438.9281575     
   58949919.8698977     
   58968226.1771457     
   58986332.6614756     
   59004216.6615388     
   59021857.4756143     
   59039235.8740549     
   59056333.6439921     
   59073133.1213803     
   59089616.6660099     
   59105766.0338446     
   59121561.5985339     
   59136981.3712085     
   59151999.7662303     
   59166586.0629527     
   59180702.5235973     
   59194302.1509461     
   59207326.1153558     
   59219700.9610163     
   59231335.8331459     
   59242120.1715233     
   59251922.6118783     
   59260592.2342844     
   59267963.7721415     
   59273868.8574727     
   59278155.6560982     
   59280719.1129171     
   59281543.2959764     
   58663828.6869361     
   58661402.7622856     
   58656449.1590695     
   58651554.6273153     
   58648306.7762769     
   58647550.1627209     
   58649614.4084795     
   58654497.9284782     
   58662005.0463393     
   58671841.8252813     
   58683678.8988102     
   58697189.7990520     
   58712072.1516591     
   58728057.5339212     
   58744914.2600750     
   58762446.0694920     
   58780488.6982351     
   58798905.5886099     
   58817583.4852905     
   58836428.3279541     
   58855361.6331768     
   58874317.4258082     
   58893239.7043535     
   58912080.3858649     
   58930797.6593749     
   58949354.6734425     
   58967718.4867215     
   58985859.2166681     
   59003749.3282562     
   59021363.0105637     
   59038675.5936940     
   59055662.9615345     
   59072300.9174880     
   59088564.4610096     
   59104426.9333815     
   59119858.9930003     
   59134827.3855738     
   59149293.4860654     
   59163211.6113525     
   59176527.1414526     
   59189174.5509133     
   59201075.5505839     
   59212137.6847321     
   59222253.9291166     
   59231304.0950962     
   59239159.1491807     
   59245689.8623964     
   59250781.4233693     
   59254355.6572769     
   59256402.1512071     
   59257018.7935954     
   58660303.5310252     
   58658062.0047532     
   58653322.5007838     
   58648385.2725786     
   58644757.9828139     
   58643318.7263951     
   58644480.5151391     
   58648336.1616553     
   58654774.8338862     
   58663569.3559098     
   58674437.5475585     
   58687082.6091553     
   58701217.7425908     
   58716579.5976724     
   58732934.2328127     
   58750078.3619594     
   58767837.8593030     
   58786064.8550263     
   58804634.2773796     
   58823440.3559789     
   58842393.3695602     
   58861416.7708012     
   58880444.7278076     
   58899420.0680902     
   58918292.5826481     
   58937017.6354199     
   58955555.0201998     
   58973868.0087819     
   58991922.5378285     
   59009686.4861397     
   59027128.9977896     
   59044219.8096725     
   59060928.5445215     
   59077223.9329349     
   59093072.9313421     
   59108439.7086794     
   59123284.4850600     
   59137562.2240429     
   59151221.2104919     
   59164201.5938869     
   59176434.0488048     
   59187838.8069814     
   59198325.4546039     
   59207794.0657440     
   59216138.4505128     
   59223252.5112244     
   59229040.8758714     
   59233435.0447608     
   59236416.1536896     
   59238045.0346047     
   59238499.4729891     
   58656343.3202101     
   58654399.7381029     
   58650207.6150440     
   58645730.8563166     
   58642325.7858353     
   58640836.6039454     
   58641707.7503849     
   58645092.5699141     
   58650947.2032091     
   58659105.4193982     
   58669334.3989575     
   58681373.7881754     
   58694961.2720115     
   58709847.9808556     
   58725806.6642217     
   58742635.0042742     
   58760155.8665846     
   58778215.7767534     
   58796682.5003818     
   58815442.2922259     
   58834397.1560507     
   58853462.3026017     
   58872563.8920339     
   58891637.0841542     
   58910624.3829953     
   58929474.2425625     
   58948139.8916204     
   58966578.3326819     
   58984749.4710042     
   59002615.3315895     
   59020139.3249327     
   59037285.5251557     
   59054017.9272945     
   59070299.6543972     
   59086092.0907133     
   59101353.9261592     
   59116040.1115818     
   59130100.7470346     
   59143479.9600272     
   59156114.8818423     
   59167934.9021292     
   59178861.4789271     
   59188808.9044866     
   59197686.5731430     
   59205403.4537831     
   59211875.6114473     
   59217037.7103646     
   59220859.4093862     
   59223367.3655220     
   59224673.1260898     
   59225006.4564069     
   58651138.6878743     
   58649548.1031591     
   58646094.4230650     
   58642402.2165589     
   58639641.6012223     
   58638578.6507843     
   58639648.5259884     
   58643033.7267806     
   58648736.5918775     
   58656640.4871836     
   58666557.8674614     
   58678265.7252820     
   58691530.1640945     
   58706122.2840873     
   58721827.5463304     
   58738450.5087203     
   58755816.4599728     
   58773771.1075724     
   58792179.1494867     
   58810922.2956041     
   58829897.1041473     
   58849012.8532067     
   58868189.5672947     
   58887356.2526428     
   58906449.3533614     
   58925411.4159546     
   58944189.9362598     
   58962736.3565273     
   58981005.1782420     
   58998953.1565773     
   59016538.5440234     
   59033720.3532710     
   59050457.6128967     
   59066708.5942466     
   59082429.9950865     
   59097576.0764715     
   59112097.7658266     
   59125941.7639053     
   59139049.7290359     
   59151357.6620388     
   59162795.6822153     
   59173288.4703946     
   59182756.7579416     
   59191120.3548592     
   59198303.3226235     
   59204241.9860161     
   59208896.5107260     
   59212266.7081645     
   59214412.5170718     
   59215479.2002858     
   59215726.6290777     
   58644334.3168193     
   58643113.3265284     
   58640488.4216194     
   58637768.1206892     
   58635926.5983669     
   58635626.6002412     
   58637265.0456922     
   58641027.5581105     
   58646942.5656123     
   58654929.4531446     
   58664838.2015763     
   58676479.9810197     
   58689649.3927501     
   58704139.6635295     
   58719752.2821186     
   58736302.4974447     
   58753621.8974938     
   58771559.0425768     
   58789978.8869626     
   58808761.5146246     
   58827800.5472410     
   58847001.4552383     
   58866279.9104197     
   58885560.2547533     
   58904774.1173883     
   58923859.1850104     
   58942758.1144873     
   58961417.5678166     
   58979787.3451135     
   58997819.5900795     
   59015468.0430222     
   59032687.3186005     
   59049432.1890034     
   59065656.8586521     
   59081314.2245167     
   59096355.1279892     
   59110727.6215298     
   59124376.2979832     
   59137241.7646870     
   59149260.3903456     
   59160364.5115436     
   59170483.3577097     
   59179545.0357096     
   59187480.0015169     
   59194226.5247860     
   59199738.7044907     
   59203997.5951757     
   59207025.9221659     
   59208906.6620857     
   59209805.3968265     
   59209995.7596718     
   58635833.2278348     
   58634975.6057217     
   58633204.3994633     
   58631547.1752808     
   58630787.8889258     
   58631474.7934068     
   58633947.9506023     
   58638376.2977777     
   58644796.9081666     
   58653151.6729106     
   58663318.7906176     
   58675138.0579364     
   58688430.0222628     
   58703009.6724968     
   58718695.6202077     
   58735315.7738992     
   58752710.4268953     
   58770733.5339134     
   58789252.7884794     
   58808148.9597504     
   58827314.8160530     
   58846653.8576243     
   58866079.0015838     
   58885511.3045521     
   58904878.7682104     
   58924115.2462623     
   58943159.4541038     
   58961954.0721592     
   58980444.9281749     
   58998580.2412928     
   59016309.9105417     
   59033584.8320278     
   59050356.2325201     
   59066575.0126370     
   59082191.1010704     
   59097152.8332196     
   59111406.3844744     
   59124895.3116290     
   59137560.2869818     
   59149339.1497795     
   59160167.4492536     
   59169979.7116981     
   59178711.7278350     
   59186304.2201410     
   59192708.3031908     
   59197893.1794660     
   59201856.4997858     
   59204637.7374409     
   59206334.7471242     
   59207123.3628058     
   59207279.3775861     
   58625672.2764665     
   58625160.0715102     
   58624229.0854573     
   58623663.7124076     
   58624071.5961178     
   58625884.7228010     
   58629375.8344564     
   58634683.2474949     
   58641838.7006961     
   58650794.4940426     
   58661447.6509315     
   58673660.0082724     
   58687273.9772971     
   58702124.2499780     
   58718046.0110153     
   58734880.3218096     
   58752477.3339081     
   58770697.9159827     
   58789414.1771058     
   58808509.2636032     
   58827876.7104589     
   58847419.5472423     
   58867049.2942931     
   58886684.9362922     
   58906251.9250320     
   58925681.2384870     
   58944908.5066827     
   58963873.2042303     
   58982517.9031032     
   59000787.5760877     
   59018628.9405826     
   59035989.8336607     
   59052818.6124748     
   59069063.5794221     
   59084672.4394706     
   59099591.8084206     
   59113766.8065294     
   59127140.7928409     
   59139655.3226188     
   59151250.4440529     
   59161865.4907299     
   59171440.5720140     
   59179919.0116051     
   59187251.0302428     
   59193399.0044723     
   59198344.6494228     
   59202098.4560426     
   59204711.6437236     
   59206290.7415507     
   59207014.6473620     
   59207153.5779327     
   58613947.5972105     
   58613758.3878078     
   58613634.7451951     
   58614153.2506513     
   58615762.3605509     
   58618781.6404066     
   58623411.9161791     
   58629751.8618682     
   58637817.3818118     
   58647561.1164939     
   58658890.3305522     
   58671682.2278770     
   58685796.3368807     
   58701084.0178931     
   58717395.3891894     
   58734584.0853262     
   58752510.2896801     
   58771042.4560947     
   58790058.0785685     
   58809443.8013444     
   58829095.0961227     
   58848915.6747114     
   58868816.7568755     
   58888716.2748059     
   58908538.0665993     
   58928211.0899765     
   58947668.6726148     
   58966847.8055178     
   58985688.4796272     
   59004133.0625337     
   59022125.7110856     
   59039611.8166241     
   59056537.4824381     
   59072849.0379885     
   59088492.6018774     
   59103413.7159251     
   59117557.0866909     
   59130866.4889255     
   59143284.9082330     
   59154755.0277716     
   59165220.1956732     
   59174626.0447172     
   59182922.9712704     
   59190069.7129218     
   59196038.2884701     
   59200820.5730053     
   59204436.7651973     
   59206945.9493288     
   59208458.8385837     
   59209152.5725163     
   59209287.0749625     
   58600772.9691866     
   58600884.2156560     
   58601528.0459716     
   58603103.7939391     
   58605917.9983960     
   58610184.5002178     
   58616031.4710116     
   58623512.6786518     
   58632620.7529941     
   58643300.7485363     
   58655462.8326802     
   58668993.4004081     
   58683764.2954896     
   58699640.0945629     
   58716483.5901635     
   58734159.7083422     
   58752538.1359825     
   58771494.9317167     
   58790913.3688737     
   58810684.2216093     
   58830705.6648166     
   58850882.9198585     
   58871127.7443766     
   58891357.8364858     
   58911496.2015737     
   58931470.5131433     
   58951212.4868666     
   58970657.2784580     
   58989742.9104044     
   59008409.7294422     
   59026599.8955759     
   59044256.9041760     
   59061325.1452492     
   59077749.5084657     
   59093475.0492053     
   59108446.7400863     
   59122609.3445413     
   59135907.4643192     
   59148285.8314716     
   59159689.9372768     
   59170067.1150609     
   59179368.2198229     
   59187550.0731308     
   59194578.8644220     
   59200434.7163638     
   59205117.6280203     
   59208654.9988187     
   59211110.8978037     
   59212597.1567162     
   59213286.1976100     
   59213425.2007283     
   58586258.6645772     
   58586650.0527998     
   58588021.9695068     
   58590621.5741447     
   58594629.2168228     
   58600160.6922061     
   58607273.0546626     
   58615972.5603415     
   58626223.5849906     
   58637957.6314851     
   58651081.7942930     
   58665486.2784884     
   58681050.7657720     
   58697649.5715770     
   58715155.6445406     
   58733443.5265571     
   58752391.4256129     
   58771882.5630745     
   58791805.9501012     
   58812056.7311758     
   58832536.2115519     
   58853151.6633234     
   58873815.9840623     
   58894447.2637839     
   58914968.3008495     
   58935306.0953497     
   58955391.3392974     
   58975157.9162597     
   58994542.4185507     
   59013483.6874859     
   59031922.3812904     
   59049800.5759333     
   59067061.4064635     
   59083648.7604190     
   59099507.0407689     
   59114581.0238140     
   59128815.8477273     
   59142157.1800586     
   59154551.6275112     
   59165947.4683027     
   59176295.8058165     
   59185552.2610417     
   59193679.3392152     
   59200649.6215980     
   59206449.9447847     
   59211086.7351547     
   59214592.6611681     
   59217034.7428990     
   59218523.9990847     
   59219226.5841594     
   59219376.1164849     
   58570502.3107265     
   58571156.8058284     
   58573221.9762829     
   58576812.6056805     
   58581996.2839580     
   58588798.2693126     
   58597207.1644245     
   58607180.8422859     
   58618652.2868797     
   58631535.1247320     
   58645728.6882299     
   58661122.5022966     
   58677600.1326222     
   58695042.3765965     
   58713329.8148764     
   58732344.7698957     
   58751972.7366551     
   58772103.3612178     
   58792631.0448713     
   58813455.2487371     
   58834480.5666328     
   58855616.6249363     
   58876777.8584113     
   58897883.2014335     
   58918855.7254144     
   58939622.2458295     
   58960112.9162566     
   58980260.8222540     
   59000001.5847155     
   59019272.9804857     
   59038014.5874650     
   59056167.4621837     
   59073673.8599396     
   59090477.0111473     
   59106520.9726821     
   59121750.5798118     
   59136111.5328828     
   59149550.6632191     
   59162016.4345157     
   59173459.7489549     
   59183835.1407210     
   59193102.4527404     
   59201229.1044923     
   59208193.0689517     
   59213986.6846848     
   59218621.4343293     
   59222133.8212973     
   59224592.4664254     
   59226106.5100381     
   59226835.3110997     
   59226999.2300204     
   58553586.3344792     
   58554490.4670385     
   58557220.4796165     
   58561773.9432241     
   58568116.6237902     
   58576189.9515015     
   58585917.1003759     
   58597207.7106658     
   58609961.5282343     
   58624071.2627831     
   58639424.9065309     
   58655907.6743059     
   58673403.6564953     
   58691797.2283771     
   58710974.2326547     
   58730822.9415284     
   58751234.8043558     
   58772104.9916502     
   58793332.7521172     
   58814821.6044140     
   58836479.3883338     
   58858218.2010340     
   58879954.2430570     
   58901607.5967753     
   58923101.9570822     
   58944364.3311392     
   58965324.7211519     
   58985915.8017645     
   59006072.6019240     
   59025732.2001124     
   59044833.4417814     
   59063316.6887486     
   59081123.6123291     
   59098197.0451743     
   59114480.9112698     
   59129920.2593613     
   59144461.4322089     
   59158052.4124047     
   59170643.3947254     
   59182187.6446791     
   59192642.7124364     
   59201972.0800616     
   59210147.3273984     
   59217150.9080546     
   59222979.6321923     
   59227648.9580826     
   59231198.1994291     
   59233696.7560169     
   59235251.4576844     
   59236015.0461320     
   59236195.6532807     
   58535578.6944897     
   58536722.4304943     
   58540095.8329152     
   58545590.5567478     
   58553079.1074816     
   58562424.7084578     
   58573488.0072157     
   58586131.0711667     
   58600219.4055605     
   58615622.7126586     
   58632214.9670669     
   58649874.2051924     
   58668482.2668496     
   58687924.6046494     
   58708090.1950916     
   58728871.5386133     
   58750164.7151743     
   58771869.4581939     
   58793889.2152107     
   58816131.1730484     
   58838506.2350808     
   58860928.9465557     
   58883317.3701465     
   58905592.9179564     
   58927680.1484466     
   58949506.5377004     
   58971002.2345643     
   58992099.8089644     
   59012734.0024418     
   59032841.4899664     
   59052360.6625999     
   59071231.4417630     
   59089395.1378688     
   59106794.3690306     
   59123373.0595206     
   59139076.5426660     
   59153851.7988581     
   59167647.8661189     
   59180416.4678844     
   59192112.9098025     
   59202697.3038170     
   59212136.1830621     
   59220404.5748648     
   59227488.6018410     
   59233388.6839059     
   59238123.4188680     
   59241734.2273114     
   59244290.8560278     
   59245897.8314243     
   59246701.9119943     
   59246900.4565623     
   58516535.0155940     
   58517911.4305886     
   58521913.5306845     
   58528335.2273967     
   58536962.2222370     
   58547583.9936631     
   58560001.1763848     
   58574029.0886849     
   58589498.4966992     
   58606254.6703485     
   58624155.5834089     
   58643069.8605948     
   58662874.8433036     
   58683454.9622836     
   58704700.4769656     
   58726506.5622027     
   58748772.6829059     
   58771402.1836940     
   58794302.0237427     
   58817382.5984615     
   58840557.6039494     
   58863743.9140666     
   58886861.4517403     
   58909833.0452453     
   58932584.2667524     
   58955043.2548587     
   58977140.5256345     
   58998808.7784900     
   59019982.7043493     
   59040598.8046203     
   59060595.2305760     
   59079911.6542759     
   59098489.1842399     
   59116270.3418947     
   59133199.1184183     
   59149221.1360244     
   59164283.9428596     
   59178337.4762850     
   59191334.7349956     
   59203232.7056409     
   59213993.5937124     
   59223586.4109525     
   59231988.9722753     
   59239190.3548511     
   59245193.8723623     
   59250020.6211748     
   59253713.6646377     
   59256342.9357184     
   59258010.9464806     
   59258859.3692342     
   59259076.4502929     
   58496501.1166059     
   58498106.0030511     
   58502728.3080328     
   58510069.8958639     
   58519834.3249382     
   58531740.6800054     
   58545531.5819973     
   58560976.3697841     
   58577870.8318140     
   58596034.8207866     
   58615308.8384336     
   58635550.3703877     
   58656630.4619204     
   58678430.7912265     
   58700841.3285556     
   58723758.5621576     
   58747084.2138208     
   58770724.3438583     
   58794588.7450430     
   58818590.5370834     
   58842645.8905731     
   58866673.8273693     
   58890596.0605479     
   58914336.8503584     
   58937822.8628024     
   58960983.0248953     
   58983748.3758960     
   59006051.9173902     
   59027828.4676617     
   59049014.5277331     
   59069548.1682293     
   59089368.9480955     
   59108417.8784453     
   59126637.4475842     
   59143971.7266520     
   59160366.5793525     
   59175770.0037790     
   59190132.6391275     
   59203408.4746673     
   59215555.8021158     
   59226538.4548457     
   59236327.3775849     
   59244902.5683750     
   59252255.4313449     
   59258391.5764914     
   59263334.1044838     
   59267127.4238936     
   59269841.6653741     
   59271577.7736096     
   59272473.3490645     
   59272709.2320735     
   58475515.4408997     
   58477346.9181667     
   58482586.4371028     
   58490847.5675456     
   58501754.8933839     
   58514959.4531001     
   58530147.3012205     
   58547042.3870279     
   58565405.3763177     
   58585029.9895311     
   58605738.1469070     
   58627374.8556491     
   58649803.4356265     
   58672901.4026052     
   58696557.1251974     
   58720667.2395793     
   58745134.7317972     
   58769867.5656657     
   58794777.7303004     
   58819780.5933944     
   58844794.4658195     
   58869740.3043778     
   58894541.4992879     
   58919123.7097311     
   58943414.7240739     
   58967344.3314401     
   58990844.1986440     
   59013847.7517681     
   59036290.0654489     
   59058107.7658102     
   59079238.9553710     
   59099623.1705434     
   59119201.3847944     
   59137916.0733828     
   59155711.3589025     
   59172533.2606890     
   59188330.0753322     
   59203052.9198071     
   59216656.4725675     
   59229099.9506951     
   59240348.3620588     
   59250374.0697977     
   59259158.7021499     
   59266695.4346002     
   59272991.6659079     
   59278072.1087008     
   59281982.3232595     
   59284792.7413491     
   59286603.2486217     
   59287548.3970610     
   59287803.2605370     
   58453611.1881226     
   58455669.3480473     
   58461527.8823279     
   58470714.2978800     
   58482776.1503083     
   58497297.9034444     
   58513909.9556426     
   58532291.2130882     
   58552167.0603192     
   58573304.5175633     
   58595506.0580495     
   58618603.1589739     
   58642450.2772519     
   58666919.6250947     
   58691896.8871154     
   58717277.8665622     
   58742965.9597890     
   58768870.3182508     
   58794904.5499932     
   58820985.8244398     
   58847034.2654435     
   58872972.5414751     
   58898725.5846030     
   58924220.3896112     
   58949385.8605714     
   58974152.6845281     
   58998453.2211748     
   59022221.4041505     
   59045392.6545197     
   59067903.8107172     
   59089693.0822437     
   59110700.0371075     
   59130865.6357311     
   59150132.3270288     
   59168444.2257275     
   59185747.3937818     
   59201990.2527807     
   59217124.1582375     
   59231104.1700409     
   59243890.0553681     
   59255447.5601201     
   59265749.9816786     
   59274780.0692437     
   59282532.2690763     
   59289015.3231767     
   59294255.2256460     
   59298298.5462968     
   59301216.1487570     
   59303107.3551629     
   59304104.6216645     
   59304378.7489265     
   58430818.0958340     
   58433104.6958013     
   58439588.1799492     
   58449711.0300130     
   58462944.7249904     
   58478807.8773537     
   58496875.6436384     
   58516781.9667508     
   58538216.7130920     
   58560919.6968191     
   58584673.2337433     
   58609294.4259715     
   58634627.9545538     
   58660539.8056100     
   58686912.0941838     
   58713638.9760846     
   58740623.5367091     
   58767775.4989384     
   58795009.5819527     
   58822244.3545178     
   58849401.4489844     
   58876405.0285527     
   58903181.4258077     
   58929658.8928608     
   58955767.4217700     
   58981438.6082940     
   59006605.5429351     
   59031202.7213160     
   59055165.9719176     
   59078432.4037108     
   59100940.3798169     
   59122629.5264572     
   59143440.7894971     
   59163316.5540781     
   59182200.8463533     
   59200039.6402043     
   59216781.2958873     
   59232377.1614843     
   59246782.3711925     
   59259956.8760321     
   59271866.7414335     
   59282485.7414658     
   59291797.2707724     
   59299796.5833811     
   59306493.3550922     
   59311914.5578619     
   59316107.6363517     
   59319143.9925887     
   59321122.8109834     
   59322175.2751607     
   59322469.2041383     
   58407163.8907047     
   58409682.0951168     
   58416800.0135085     
   58427875.1967392     
   58442303.1906539     
   58459536.8477927     
   58479096.0536865     
   58500569.6019636     
   58523611.4904561     
   58547933.8271143     
   58573298.1503036     
   58599506.4849838     
   58626392.9921518     
   58653816.6829365     
   58681655.3811656     
   58709800.9257669     
   58738155.4914690     
   58766628.8530942     
   58795136.4060728     
   58823597.7676200     
   58851935.8073013     
   58880075.9843193     
   58907945.8968435     
   58935474.9734585     
   58962594.2573350     
   58989236.2499616     
   59015334.7937134     
   59040824.9818487     
   59065643.0914621     
   59089726.5401770     
   59113013.8715152     
   59135444.7774501     
   59156960.1700161     
   59177502.3173126     
   59197015.0629828     
   59215444.1523011     
   59232737.6922370     
   59248846.7768668     
   59263726.3126214     
   59277336.0790972     
   59289642.0593394     
   59300618.0674984     
   59310247.6909623     
   59318526.5491515     
   59325464.8547983     
   59331090.2507913     
   59335450.8931347     
   59338618.7634099     
   59340693.2205070     
   59341804.8260111     
   59342119.4678992     
   58382675.4564912     
   58385429.6222354     
   58393194.5069993     
   58405242.0719620     
   58420891.4144634     
   58439529.1878895     
   58460619.5883067     
   58483705.8224932     
   58508405.5398088     
   58534402.6119838     
   58561437.2245725     
   58589295.7182209     
   58617801.1134174     
   58646804.8326429     
   58676179.8206675     
   58705815.0536616     
   58735611.3040594     
   58765477.9693273     
   58795330.7582042     
   58825090.0402147     
   58854679.6902892     
   58884026.2912891     
   58913058.5877114     
   58941707.1109521     
   58969903.9191085     
   58997582.4122896     
   59024677.1982692     
   59051123.9937688     
   59076859.5544965     
   59101821.6330106     
   59125948.9681779     
   59149181.3139888     
   59171459.5192152     
   59192725.6731627     
   59212923.3367977     
   59231997.8828592     
   59249896.9730457     
   59266571.2045844     
   59281974.9616759     
   59296067.5083895     
   59308814.3571829     
   59320188.9400073     
   59330174.5961137     
   59338766.8727097     
   59345976.1142087     
   59351830.2983162     
   59356378.0698851     
   59359691.9326224     
   59361871.5841642     
   59363047.4086991     
   59363384.1441115     
   58357379.7717009     
   58360375.2713020     
   58368802.2764824     
   58381845.8914598     
   58398747.7094269     
   58418827.3001056     
   58441492.4136320     
   58466240.0014705     
   58492650.7513715     
   58520379.7179256     
   58549145.1718591     
   58578717.2216370     
   58608907.2152809     
   58639558.4765122     
   58670538.5907102     
   58701733.2288625     
   58733041.3636139     
   58764371.6676342     
   58795639.8684398     
   58826766.8467948     
   58857677.2938281     
   58888298.7754469     
   58918561.0856447     
   58948395.7997560     
   58977735.9633434     
   59006515.8720920     
   59034670.9133143     
   59062137.4512134     
   59088852.7467309     
   59114754.9094151     
   59139782.8839642     
   59163876.4785197     
   59186976.4458612     
   59209024.6327644     
   59229964.2171286     
   59249740.0571409     
   59268299.1815515     
   59285591.4546342     
   59301570.4527675     
   59316194.5905813     
   59329428.5317389     
   59341244.9110822     
   59351626.3800434     
   59360567.9662236     
   59368079.7135404     
   59374189.5469460     
   59378946.2933353     
   59382422.7952473     
   59384719.0777145     
   59385965.5602325     
   59386326.3196182     
   58331304.6656344     
   58334547.7415727     
   58343654.2843565     
   58357720.7758654     
   58375909.8027928     
   58397472.5920987     
   58421759.3995222     
   58448220.0447075     
   58476397.5108485     
   58505917.3924015     
   58536475.4758526     
   58567825.1231709     
   58599765.5394373     
   58632131.5175370     
   58664784.8884342     
   58697607.6610390     
   58730496.6915240     
   58763359.6533023     
   58796112.0616569     
   58828675.1210821     
   58860974.1936294     
   58892937.7226592     
   58924496.4820643     
   58955583.0528873     
   58986131.4559416     
   59016076.8904114     
   59045355.5449866     
   59073904.4606761     
   59101661.4339502     
   59128564.9560983     
   59154554.1904208     
   59179568.9937062     
   59203549.9928914     
   59226438.7322553     
   59248177.9111948     
   59268711.7376553     
   59287986.4274645     
   59305950.8846576     
   59322557.6014779     
   59337763.8177530     
   59351532.9760571     
   59363836.4997004     
   59374655.9038475     
   59383985.2261065     
   59391833.7343900     
   59398228.8425521     
   59403219.1467657     
   59406877.4961977     
   59409304.0331147     
   59410629.1712666     
   59411016.5047695     
   58304479.4336573     
   58307977.0779338     
   58317782.5366621     
   58332901.4908414     
   58352415.6455186     
   58375506.3091685     
   58401464.9426946     
   58429693.1719293     
   58459695.4100553     
   58491067.0815866     
   58523480.8987531     
   58556672.9780064     
   58590429.9521393     
   58624577.7090156     
   58658971.9971755     
   58693490.8766603     
   58728028.8392205     
   58762492.3488875     
   58796796.5358177     
   58830862.7917578     
   58864617.0481954     
   58897988.5572312     
   58930909.0336698     
   58963312.0511776     
   58995132.6141477     
   59026306.8499837     
   59056771.7844364     
   59086465.1762628     
   59115325.3977812     
   59143291.3557603     
   59170302.4533006     
   59196298.5986107     
   59221220.2713945     
   59245008.6623662     
   59267605.9064710     
   59288955.4357926     
   59309002.4836985     
   59327694.7769806     
   59344983.4566184     
   59360824.2688581     
   59375179.0646732     
   59388017.6353419     
   59399319.8933415     
   59409078.3809729     
   59417301.0566973     
   59424014.2771278     
   59429265.8700389     
   59433128.1899498     
   59435701.0669931     
   59437114.5949093     
   59437531.7355762     
   58276935.3442000     
   58280695.1981304     
   58291220.6573682     
   58307424.0763950     
   58328304.0892901     
   58352970.2410055     
   58380653.6793657     
   58410706.6098843     
   58442593.8968228     
   58475880.0173999     
   58510213.9909772     
   58545314.1920469     
   58580954.2777502     
   58616950.8989518     
   58653153.4459687     
   58689435.8003166     
   58725689.8995301     
   58761820.8445066     
   58797743.2601270     
   58833378.6369724     
   58868653.4174113     
   58903497.6313759     
   58937843.9285758     
   58971626.8908630     
   59004782.5394359     
   59037247.9763963     
   59068961.1194612     
   59099860.5033176     
   59129885.1322137     
   59158974.3768581     
   59187067.9154054     
   59214105.7239503     
   59240028.1271277     
   59264775.9245611     
   59288290.6143238     
   59310514.7403584     
   59331392.3967690     
   59350869.9274804     
   59368896.8639196     
   59385427.1445244     
   59400420.6559682     
   59413845.1247985     
   59425678.3679863     
   59435910.8814725     
   59444548.7097317     
   59451616.5028944     
   59457160.6406556     
   59461252.2942051     
   59463990.3141199     
   59465503.8681729     
   59465954.7914167     
   58248706.0624644     
   58252736.3326212     
   58264004.3668076     
   58281326.3723367     
   58303615.4556301     
   58329907.3223550     
   58359371.1000378     
   58391308.2016392     
   58425142.8596194     
   58460407.7606047     
   58496727.5793847     
   58533802.4459181     
   58571392.6531523     
   58609305.3130821     
   58647383.2223750     
   58685495.9007872     
   58723532.5909688     
   58761396.9262430     
   58799002.9538015     
   58836272.2196759     
   58873131.6602762     
   58909512.0906335     
   58945347.1240459     
   58980572.3975578     
   59015125.0109497     
   59048943.1135617     
   59081965.5939685     
   59114131.8432802     
   59145381.5747555     
   59175654.6915069     
   59204891.2012617     
   59233031.1831836     
   59260014.8172759     
   59285782.4923741     
   59310275.0144976     
   59333433.9434796     
   59355202.0921424     
   59375524.2282342     
   59394348.0237884     
   59411625.2978223     
   59427313.5941373     
   59441378.1240327     
   59453794.0820545     
   59464549.3111291     
   59473647.2540946     
   59481110.0881795     
   59486981.9074188     
   59491331.8062556     
   59494256.7319937     
   59495884.0102960     
   59496373.4917606     
   58219828.0095555     
   58224137.3966389     
   58236171.8853102     
   58254648.4616835     
   58278392.0181525     
   58306362.1461478     
   58337664.0808442     
   58371546.9411154     
   58407393.1499014     
   58444702.6967960     
   58483075.2249711     
   58522192.1052405     
   58561799.8844323     
   58601695.8546137     
   58641716.0143524     
   58681725.3760937     
   58721610.3884896     
   58761273.1560767     
   58800627.1192180     
   58839593.8782122     
   58878100.8871009     
   58916079.7915633     
   58953465.2331821     
   58990193.9849912     
   59026204.3188577     
   59061435.5337899     
   59095827.5964152     
   59129320.8617260     
   59161855.8549291     
   59193373.1049433     
   59223813.0277490     
   59253115.8642165     
   59281221.6828900     
   59308070.4640043     
   59333602.2870948     
   59357757.6510458     
   59380477.9621234     
   59401706.2318236     
   59421388.0310879     
   59439472.7487933     
   59455915.1980949     
   59470677.6015931     
   59483731.9633401     
   59495062.8018936     
   59504670.1764934     
   59512572.8945938     
   59518811.7538583     
   59523452.6568714     
   59526589.4493309     
   59528346.3692635     
   59528880.0426638     
   58190340.6707854     
   58194938.3089454     
   58207764.2779562     
   58227433.0490797     
   58252678.4152456     
   58282381.4053440     
   58315581.3454240     
   58351473.4435269     
   58389397.0488457     
   58428818.4876061     
   58469311.6480682     
   58510538.6112435     
   58552231.7964715     
   58594178.4084871     
   58636207.4668431     
   58678179.3617201     
   58719977.6839582     
   58761502.9861939     
   58802668.1122650     
   58843394.7552714     
   58883610.9497335     
   58923249.2558649     
   58962245.4453897     
   59000537.5440128     
   59038065.1238072     
   59074768.7692961     
   59110589.6646756     
   59145469.2676193     
   59179349.0486775     
   59212170.2856232     
   59243873.9102244     
   59274400.4117152     
   59303689.8074048     
   59331681.6969444     
   59358315.4231468     
   59383530.3690305     
   59407266.4277660     
   59429464.6887852     
   59450068.3882681     
   59469024.1736903     
   59486283.7276413     
   59501805.7830081     
   59515558.5376392     
   59527522.4411669     
   59537693.2823315     
   59546085.4586717     
   59552735.2726414     
   59557704.0810952     
   59561081.1362624     
   59562985.9932260     
   59563570.4093191     
   58160286.8630408     
   58165182.2677936     
   58178825.7522679     
   58199725.7873130     
   58226522.0069579     
   58258014.2771119     
   58293173.8698603     
   58331140.3623348     
   58371208.6865324     
   58412810.4822655     
   58455493.1231353     
   58498898.8508557     
   58542745.5718959     
   58586810.1443325     
   58630914.4454032     
   58674914.1529427     
   58718689.9663413     
   58762140.8970864     
   58805179.2390526     
   58847726.8543395     
   58889712.4591296     
   58931069.6505475     
   58971735.4706149     
   59011649.3522863     
   59050752.3333315     
   59088986.4564230     
   59126294.2990236     
   59162618.5958477     
   59197901.9311052     
   59232086.4887041     
   59265113.8571884     
   59296924.8933320     
   59327459.6547647     
   59356657.4183442     
   59384456.8075927     
   59410796.0595466     
   59435613.4686108     
   59458848.0518303     
   59480440.4851408     
   59500334.3617161     
   59518477.8189759     
   59534825.5673345     
   59549341.3290606     
   59562000.6590420     
   59572794.0733993     
   59581730.3637040     
   59588839.9351453     
   59594177.9886717     
   59597827.3777696     
   59599901.0075338     
   59600543.6950714     
   58129712.9681761     
   58134915.9915701     
   58149403.9174557     
   58171575.5617812     
   58199973.1868664     
   58233312.7604660     
   58270495.2414799     
   58310602.7625325     
   58352884.4218564     
   58396736.0958900     
   58441677.8474089     
   58487331.5083992     
   58533400.0794921     
   58579649.8164167     
   58625895.3036428     
   58671987.4368105     
   58717804.0162341     
   58763242.5534277     
   58808214.8725749     
   58852643.1170568     
   58896456.8236450     
   58939590.7876083     
   58981983.5009831     
   59023575.9985099     
   59064310.9892814     
   59104132.1868930     
   59142983.7777789     
   59180809.9878036     
   59217554.7225110     
   59253161.2680378     
   59287572.0487584     
   59320728.4452145     
   59352570.6825932     
   59383037.8065641     
   59412067.7700791     
   59439597.6619377     
   59465564.1153378     
   59489903.9416138     
   59512555.0396429     
   59533457.6330333     
   59552555.8826087     
   59569799.9080344     
   59585148.2273187     
   59598570.5857683     
   59610051.0994331     
   59619591.5892638     
   59627214.9424569     
   59632968.3192652     
   59636926.0346058     
   59639191.9810282     
   59639901.5103219     
   58098669.1371798     
   58104189.9292937     
   58119550.0113847     
   58143034.7402376     
   58173085.6572610     
   58208331.9763352     
   58247601.9806292     
   58289918.4590113     
   58334483.1911081     
   58380655.1612687     
   58427926.2887872     
   58475897.4027699     
   58524256.1944796     
   58572758.0615738     
   58621210.1542308     
   58669458.5324860     
   58717378.1125904     
   58764864.9749517     
   58811830.5860912     
   58858197.5179447     
   58903896.3043374     
   58948863.1394352     
   58993038.1860452     
   59036364.3174163     
   59078786.1626075     
   59120249.3624972     
   59160699.9721085     
   59200083.9665785     
   59238346.8243389     
   59275433.1733342     
   59311286.4956132     
   59345848.8934373     
   59379060.9269765     
   59410861.5403732     
   59441188.0998643     
   59469976.5749466     
   59497161.9010677     
   59522678.5693772     
   59546461.4944113     
   59568447.2122570     
   59588575.4571574     
   59606791.1508418     
   59623046.8137444     
   59637305.3701792     
   59649543.2732491     
   59659753.8270944     
   59667950.5454950     
   59674170.3693016     
   59678476.5778639     
   59680961.2673139     
   59681747.3168925     
   58067209.4682071     
   58073058.4444193     
   58089319.0995822     
   58114159.3932074     
   58145916.6740658     
   58183130.4372717     
   58224553.8330818     
   58269148.3277216     
   58316066.8326224     
   58364630.2609242     
   58414301.5188617     
   58464659.8150123     
   58515377.1144843     
   58566197.6979160     
   58616921.1452777     
   58667388.6408813     
   58717472.2518422     
   58767066.7218989     
   58816083.3023010     
   58864445.1752035     
   58912084.0857046     
   58958937.8681595     
   59004948.6197265     
   59050061.3335529     
   59094222.8534317     
   59137381.0511115     
   59179484.1578256     
   59220480.2045611     
   59260316.5427708     
   59298939.4301344     
   59336293.6759392     
   59372322.3487391     
   59406966.5560655     
   59440165.3127695     
   59471855.5215255     
   59501972.0963264     
   59530448.2672695     
   59557216.1119516     
   59582207.3640987     
   59605354.5517265     
   59626592.5126195     
   59645860.3214274     
   59663103.6379899     
   59678277.4501892     
   59691349.1396796     
   59702301.7527492     
   59711137.3228685     
   59717880.0783905     
   59722579.3846399     
   59725312.3081440     
   59726185.7348748     
   58035392.1603487     
   58041579.9741290     
   58058770.2492314     
   58085009.4890209     
   58118527.2664617     
   58157770.2926500     
   58201414.0395689     
   58248356.5964657     
   58297700.3943743     
   58348727.0460876     
   58400869.5372830     
   58453684.8118467     
   58506828.6760456     
   58560034.0283863     
   58613092.7453910     
   58665841.1061589     
   58718148.3813153     
   58769908.0963539     
   58821031.4591332     
   58871442.4779757     
   58921074.3618985     
   58969866.8687128     
   59017764.3384879     
   59064714.2131493     
   59110665.8955315     
   59155569.8430010     
   59199376.8229890     
   59242037.2820785     
   59283500.7984264     
   59323715.6008680     
   59362628.1484353     
   59400182.7723796     
   59436321.3900263     
   59470983.3066309     
   59504105.1283098     
   59535620.8163104     
   59565461.9202147     
   59593558.0345229     
   59619837.5282412     
   59644228.5987166     
   59666660.6965776     
   59687066.3555806     
   59705383.4373808     
   59721557.7665470     
   59735546.0887559     
   59747319.2427233     
   59756865.4055946     
   59764193.2639382     
   59769334.9830257     
   59772348.8869258     
   59773321.7998969     
   58003279.6441097     
   58009817.1653588     
   58027966.6801087     
   58055649.0663627     
   58090982.4351244     
   58132317.5542142     
   58178249.5880686     
   58227611.1215080     
   58279452.4310057     
   58333014.5491334     
   58387699.5938370     
   58443041.5711972     
   58498679.6772402     
   58554335.1541846     
   58609792.0418440     
   58664881.6929345     
   58719470.6501905     
   58773451.3621699     
   58826735.1943373     
   58879247.2318048     
   58930922.4397350     
   58981702.8265332     
   59031535.3313143     
   59080370.2243850     
   59128159.8652752     
   59174857.7071815     
   59220417.4708139     
   59264792.4363298     
   59307934.8211519     
   59349795.2256867     
   59390322.1397594     
   59429461.5111605     
   59467156.3850124     
   59503346.6294583     
   59537968.7699346     
   59570955.9612502     
   59602238.1337428     
   59631742.3563330     
   59659393.4642180     
   59685115.0004592     
   59708830.5165116     
   59730465.2643690     
   59749948.2906634     
   59767214.9108954     
   59782209.5035305     
   59794888.5268822     
   59805223.6379742     
   59813204.7928488     
   59818843.2350440     
   59822174.3207924     
   59823260.1592068     
   57970938.6889413     
   57977836.9881623     
   57996975.8937294     
   58026146.3865158     
   58063351.3322762     
   58106842.3061710     
   58155131.4539348     
   58206983.6557900     
   58261395.2965700     
   58317565.4960323     
   58374864.5148681     
   58432802.7162340     
   58491002.2126712     
   58549172.3039406     
   58607089.0572717     
   58664578.8840888     
   58721505.6823919     
   58777760.9873318     
   58833256.5522088     
   58887918.8251227     
   58941684.8608644     
   58994499.2918521     
   59046312.0630501     
   59097076.7071905     
   59146748.9957713     
   59195285.8482506     
   59242644.4179539     
   59288781.3003240     
   59333651.8292459     
   59377209.4420520     
   59419405.1049998     
   59460186.7997702     
   59499499.0788633     
   59537282.7044228     
   59573474.3915207     
   59608006.6835331     
   59640807.9938395     
   59671802.8541745     
   59700912.4144816     
   59728055.2404548     
   59753148.4509879     
   59776109.2263380     
   59796856.6975219     
   59815314.1988671     
   59831411.8326773     
   59845089.2658077     
   59856298.6638192     
   59865007.6791803     
   59871202.4461716     
   59874890.5797721     
   59876104.1950684     
   57938440.4877605     
   57945710.8265928     
   57965869.7815306     
   57996574.0670442     
   58035707.4263332     
   58081418.9036683     
   58132134.8326853     
   58186550.1144068     
   58243605.4392979     
   58302456.6255761     
   58362441.0410397     
   58423044.6649819     
   58483872.0277615     
   58544620.1853172     
   58605057.0912156     
   58665004.2050720     
   58724322.8767875     
   58782903.9136198     
   58840659.7167768     
   58897518.4205642     
   58953419.5463780     
   59008310.7733298     
   59062145.5133665     
   59114881.0544026     
   59166477.0976050     
   59216894.5646221     
   59266094.5886622     
   59314037.6318967     
   59360682.6927641     
   59405986.5822654     
   59449903.2598856     
   59492383.2286659     
   59533372.9962098     
   59572814.6148311     
   59610645.3201652     
   59646797.2936420     
   59681197.5802103     
   59713768.1981523     
   59744426.4818067     
   59773085.6990832     
   59799655.9819976     
   59824045.5983063     
   59846162.5747418     
   59865916.6584610     
   59883221.5775573     
   59897997.5422755     
   59910173.9268672     
   59919692.0963195     
   59926508.3898396     
   59930597.3213545     
   59931955.0637517     
   57905860.7181662     
   57913514.5470605     
   57934724.7127086     
   57967009.1984618     
   58008128.6537864     
   58056126.1634214     
   58109339.3702868     
   58166390.8431349     
   58226163.7049600     
   58287769.0225354     
   58350510.1839761     
   58413848.0032129     
   58477368.9000642     
   58540757.3665928     
   58603773.0937689     
   58666232.5815426     
   58727994.7410656     
   58788949.8593984     
   58849011.2767104     
   58908109.1757811     
   58966185.9679436     
   59023192.8545619     
   59079087.2343249     
   59133830.7066955     
   59187387.4880599     
   59239723.1095532     
   59290803.3057153     
   59340593.0331905     
   59389055.5807785     
   59436151.7482933     
   59481839.0835459     
   59526071.1757327     
   59568797.0106204     
   59609960.3989991     
   59649499.4954611     
   59687346.4299482     
   59723427.0796912     
   59757661.0137769     
   59789961.6458268     
   59820236.6309864     
   59848388.5401379     
   59874315.8357011     
   59897914.1592573     
   59919077.9233050     
   59937702.1828016     
   59953684.7554631     
   59966928.5736349     
   59977344.2916797     
   59984853.2347684     
   59989390.8282478     
   59990910.6378986     
   57873279.5800180     
   57881328.5440887     
   57903621.6023161     
   57937533.4454775     
   57980697.5610576     
   58031047.5504436     
   58086829.3960715     
   58146590.8962124     
   58209155.6559293     
   58273588.4725555     
   58339157.6100782     
   58405297.8891892     
   58471577.0562236     
   58537666.6967400     
   58603318.0795625     
   58668342.7381837     
   58732597.2666252     
   58795971.6622992     
   58858380.5280923     
   58919756.4992627     
   58980045.3503243     
   59039202.3376653     
   59097189.4301135     
   59153973.1642547     
   59209522.9311974     
   59263809.5567566     
   59316804.0793259     
   59368476.6612582     
   59418795.5926780     
   59467726.3633927     
   59515230.7907160     
   59561266.1999779     
   59605784.6613721     
   59648732.2924011     
   59690048.6400772     
   59729666.1615492     
   59767509.8259752     
   59803496.8640100     
   59837536.6936103     
   59869531.0511088     
   59899374.3536692     
   59926954.3126547     
   59952152.8075626     
   59974847.0196161     
   59994910.8186552     
   60012216.4056671     
   60026636.2461423     
   60038045.3911204     
   60046324.3622059     
   60051362.8363405     
   60053064.3392717     
   57840781.8091730     
   57849237.7635365     
   57872645.9604193     
   57908233.1346705     
   57953501.4394336     
   58006271.3653080     
   58064694.1640055     
   58127240.3302796     
   58192671.9138640     
   58260005.8475138     
   58328474.0608070     
   58397484.4998853     
   58466585.6343232     
   58535435.7736344     
   58603777.5914467     
   58671417.6476159     
   58738210.3528499     
   58804045.6695302     
   58868839.8221031     
   58932528.3474807     
   58995060.9108671     
   59056397.4188022     
   59116505.0631056     
   59175356.0186538     
   59232925.5915893     
   59289190.6727527     
   59344128.3955708     
   59397714.9306974     
   59449924.3737983     
   59500727.7001849     
   59550091.7723751     
   59597978.3955485     
   59644343.4223948     
   59689135.9138579     
   59732297.3663214     
   59773761.0191969     
   59813451.2597753     
   59851283.1444307     
   59887162.0564741     
   59920983.5206240     
   59952633.1917412     
   59981987.0312667     
   60008911.6800647     
   60033265.0347065     
   60054897.0423111     
   60073650.7562699     
   60089363.7508802     
   60101870.0792251     
   60111003.0590727     
   60116599.2388271     
   60118503.8478434     
   57808456.6674895     
   57817331.7036956     
   57841887.9235211     
   57879199.3309553     
   57926632.4568072     
   57981890.9371225     
   58043028.1089245     
   58108434.5224039     
   58176808.5350624     
   58247117.5312852     
   58318555.8200145     
   58390503.5296351     
   58462489.2026770     
   58534157.4713288     
   58605242.2244710     
   58675545.0395098     
   58744918.2902373     
   58813252.1845500     
   58880464.9655574     
   58946495.5704777     
   59011298.1422469     
   59074837.9011109     
   59137087.9909152     
   59198027.0088454     
   59257637.0048892     
   59315901.7984481     
   59372805.5061469     
   59428331.2094627     
   59482459.7158617     
   59535168.3849787     
   59586430.0039093     
   59636211.7044179     
   59684473.9209330     
   59731169.3924505     
   59776242.2144595     
   59819626.9491071     
   59861247.8031905     
   59901017.8842209     
   59938838.5446466     
   59974598.8232780     
   60008174.9912532     
   60039430.2084853     
   60068214.2979044     
   60094363.6537419     
   60117701.3242445     
   60138037.3584084     
   60155169.5890748     
   60168885.1402222     
   60178963.0716631     
   60185178.6510982     
   60187309.6718258     
   57776397.9097273     
   57785704.3952204     
   57811442.2700948     
   57850527.9059637     
   57900187.7908735     
   57958004.8284847     
   58021931.1255839     
   58090274.5214923     
   58161667.4290293     
   58235025.8974228     
   58309505.2405070     
   58384456.7537653     
   58459388.3477069     
   58533930.5388443     
   58607808.2221951     
   58680817.9813195     
   58752810.3130399     
   58823675.9799049     
   58893335.6831677     
   58961732.3138183     
   59028825.1454366     
   59094585.4510848     
   59158993.1396026     
   59222034.1055849     
   59283698.0687687     
   59343976.7427193     
   59402862.2215183     
   59460345.5092253     
   59516415.1429021     
   59571055.8783106     
   59624247.4200250     
   59675963.1861737     
   59726169.1035072     
   59774822.4318133     
   59821870.6184410     
   59867250.1842293     
   59910885.6417058     
   59952688.4452063     
   59992555.9707864     
   60030370.5219099     
   60065998.3558937     
   60099288.7279910     
   60130072.9585559     
   60158163.5501029     
   60183353.4240913     
   60205415.4222453     
   60224102.3316678     
   60239147.8426649     
   60250269.0028518     
   60257170.8192896     
   60259553.5615351     
   57744703.7287251     
   57754454.3616432     
   57781408.4229768     
   57822319.6025341     
   57874269.7696814     
   57934717.0601249     
   58001508.8800026     
   58072867.4441682     
   58147356.8326853     
   58223839.8522296     
   58301431.3440114     
   58379452.6717258     
   58457390.3454230     
   58534860.2846997     
   58611578.1589898     
   58687335.5435196     
   58761981.2333724     
   58835406.8871390     
   58907536.1513449     
   58978316.4856038     
   59047713.0205080     
   59115703.9049595     
   59182276.7186086     
   59247425.6289457     
   59311149.0580299     
   59373447.6910280     
   59434322.7097420     
   59493774.1718565     
   59551799.4835496     
   59608391.9318561     
   59663539.2558078     
   59717222.2434832     
   59769413.3468491     
   59820075.3084960     
   59869159.7946303     
   59916606.0273840     
   59962339.4069593     
   60006270.1107269     
   60048291.6527203     
   60088279.3840902     
   60126088.9148819     
   60161554.4432443     
   60194486.9950945     
   60224672.6131068     
   60251870.5988545     
   60275812.0168474     
   60296198.8204450     
   60312704.1489189     
   60324974.5336507     
   60332634.8532592     
   60335296.7478557     
   57713476.6812636     
   57723684.5633082     
   57751890.4425891     
   57794680.1009177     
   57848986.0270841     
   57912137.3648231     
   57981873.1646587     
   58056326.9284522     
   58133991.8550247     
   58213675.4591187     
   58294450.5111277     
   58375607.2465782     
   58456609.9332502     
   58537059.3634506     
   58616661.7238331     
   58695203.5638556     
   58772532.1701266     
   58848540.4758531     
   58923155.6143012     
   58996330.2980037     
   59068036.3234584     
   59138259.6321151     
   59206996.4833250     
   59274250.4038417     
   59340029.6679172     
   59404345.1322791     
   59467208.3034394     
   59528629.5537980     
   59588616.4307458     
   59647172.0220735     
   59704293.3535321     
   59759969.8020103     
   59814181.5116559     
   59866897.8011852     
   59918075.5491600     
   59967657.5405793     
   60015570.7531504     
   60061724.5556750     
   60106008.7851220     
   60148291.6649281     
   60188417.5277998     
   60226204.3164644     
   60261440.8623805     
   60293883.9949620     
   60323255.6241285     
   60349240.0783951     
   60371482.1743101     
   60389586.7279686     
   60403120.4473517     
   60411617.2621233     
   60414587.9834245     
   57682823.5983833     
   57693502.3289793     
   57722997.0165545     
   57767720.0941490     
   57824449.6827516     
   57890381.4825780     
   57963142.3117380     
   58040773.6614031     
   58121695.1099631     
   58204656.6631335     
   58288687.2807798     
   58373044.7605001     
   58457170.2015514     
   58540648.6828796     
   58623176.6232024     
   58704535.5269097     
   58784571.3875279     
   58863178.8351829     
   58940289.0941403     
   59015860.8934463     
   59089873.5977405     
   59162321.9628248     
   59233212.0514302     
   59302557.9586184     
   59370379.0897515     
   59436697.8072280     
   59501537.3174937     
   59564919.7102312     
   59626864.0901543     
   59687384.7611795     
   59746489.4350954     
   59804177.4438364     
   59860437.9372687     
   59915248.0477976     
   59968570.9996503     
   60020354.1348082     
   60070526.8197876     
   60118998.1886417     
   60165654.6691934     
   60210357.2341596     
   60252938.3206435     
   60293198.3767233     
   60330902.0314939     
   60365773.9565979     
   60397494.6065058     
   60425696.2036724     
   60449959.5767217     
   60469812.7469177     
   60484732.4312581     
   60494149.7671919     
   60497461.3613506     
   57652855.4856840     
   57664019.2812199     
   57694841.4533239     
   57741555.3823792     
   57800779.5590943     
   57869571.5120225     
   57945441.6819294     
   58026336.0003854     
   58110597.4587358     
   58196916.1381232     
   58284275.2821990     
   58371898.8092993     
   58459203.6272580     
   58545758.4532009     
   58631249.6230049     
   58715453.5772366     
   58798215.2597329     
   58879431.4721684     
   58959038.2074898     
   59037001.0661860     
   59113307.9895166     
   59187963.6878515     
   59260985.2791536     
   59332398.7717404     
   59402236.1229640     
   59470532.6817197     
   59537324.8800794     
   59602648.0810557     
   59666534.5187101     
   59729011.2863115     
   59790098.3402745     
   59849806.4938079     
   59908135.3757599     
   59965071.3277932     
   60020585.2072928     
   60074630.0547475     
   60127138.5733892     
   60178020.3567717     
   60227158.7887651     
   60274407.5336222     
   60319586.5368311     
   60362477.4785320     
   60402818.6715242     
   60440299.4893703     
   60474554.5623045     
   60505158.2024140     
   60531619.8166521     
   60553381.4126820     
   60569818.6269756     
   60580246.8630352     
   60583933.8821544     
   57623687.4213941     
   57635351.2640002     
   57667541.6900561     
   57716306.9989679     
   57778100.4508480     
   57849836.3368740     
   57928904.2503855     
   58013150.7119696     
   58100838.8876423     
   58190596.2834672     
   58281358.3267050     
   58372313.4628690     
   58462853.2755745     
   58552529.4027492     
   58641017.7521061     
   58728089.6864327     
   58813589.3794750     
   58897416.3426272     
   58979512.1019606     
   59059850.0903559     
   59138427.9557785     
   59215261.6373061     
   59290380.7034335     
   59363824.5713461     
   59435639.3273510     
   59505874.9478365     
   59574582.7795240     
   59641813.1807001     
   59707613.2548974     
   59772024.6280117     
   59835081.2313930     
   59896807.0587034     
   59957213.8644261     
   60016298.7675613     
   60074041.7157243     
   60130402.7530549     
   60185319.0208063     
   60238701.4036840     
   60290430.7206156     
   60340353.3501706     
   60388276.1853597     
   60433960.8402243     
   60477117.0952063     
   60517395.6864933     
   60554380.7340929     
   60587582.3779625     
   60616430.5509085     
   60640271.2305391     
   60658366.8951860     
   60669903.0922363     
   60674002.7343958     
   57595438.4628711     
   57607618.2839900     
   57641220.3283248     
   57692101.3849063     
   57756543.4673591     
   57831312.1509612     
   57913671.3165922     
   58001363.8578367     
   58092569.5523729     
   58185850.4025746     
   58280091.6916125     
   58374444.6231676     
   58468274.1998475     
   58561114.1881341     
   58652629.6928764     
   58742586.9967081     
   58830829.8303514     
   58917261.0311628     
   59001828.5262407     
   59084514.6657204     
   59165328.0742554     
   59244297.3457575     
   59321466.0553730     
   59396888.6918471     
   59470627.2188178     
   59542748.0555882     
   59613319.3292031     
   59682408.2936751     
   59750078.8424304     
   59816389.0594422     
   59881388.7654416     
   59945117.0197089     
   60007599.5363614     
   60068845.9674246     
   60128846.9937425     
   60187571.1494348     
   60244961.2870577     
   60300930.5706912     
   60355357.8662414     
   60408082.3879872     
   60458897.4666003     
   60507543.3390795     
   60553698.9418339     
   60596972.8342841     
   60636893.6120489     
   60672900.5006293     
   60704335.2500581     
   60730436.9401726     
   60750341.7544845     
   60763089.9928611     
   60767642.2478785     
   57568231.5758510     
   57580944.4808075     
   57616004.7154546     
   57669070.6329506     
   57736246.4730114     
   57814143.1113357     
   57899893.3712846     
   57991131.8636904     
   58085951.0268018     
   58182844.1018386     
   58280643.6346352     
   58378461.6167636     
   58475635.0744240     
   58571679.0307748     
   58666247.3872662     
   58759101.3657871     
   58850084.6438064     
   58939104.0976904     
   59026115.0477730     
   59111109.9920020     
   59194109.9633479     
   59275157.8096502     
   59354312.8493608     
   59431646.4907029     
   59507238.5109203     
   59581173.7769793     
   59653539.2521003     
   59724421.1774684     
   59793902.3489784     
   59862059.4279928     
   59928960.2351947     
   59994660.9793957     
   60059203.3696361     
   60122611.5497148     
   60184888.7797865     
   60246013.7703608     
   60305936.5510128     
   60364573.7315858     
   60421802.9918160     
   60477456.6231018     
   60531313.9543261     
   60583092.5373965     
   60632438.0672690     
   60678913.1887932     
   60721985.6217886     
   60761016.4319191     
   60795249.7832317     
   60823806.0822718     
   60845680.9458392     
   60859752.6693827     
   60864800.4699355     
   57542193.6054091     
   57555458.1463459     
   57592027.0946591     
   57647352.8289136     
   57717354.6580624     
   57798482.1564616     
   57887731.1615127     
   57982622.8153747     
   58081157.8022704     
   58181756.9565144     
   58283197.1843423     
   58384549.0653488     
   58485120.1007146     
   58584405.6160507     
   58682047.8901454     
   58777803.1401224     
   58871515.4630464     
   58963096.6081738     
   59052510.4315589     
   59139760.9816828     
   59224883.3189301     
   59307936.3414594     
   59388997.0504922     
   59468155.8268099     
   59545512.4029773     
   59621172.3029994     
   59695243.5856895     
   59767833.7737723     
   59839046.8813593     
   59908980.4710956     
   59977722.6813716     
   60045349.1651984     
   60111919.8766297     
   60177475.6285188     
   60242034.3272446     
   60305586.7663377     
   60368091.8329490     
   60429470.9514992     
   60489601.5626875     
   60548309.4217616     
   60605359.5104730     
   60660445.4105950     
   60713177.1065981     
   60763067.3979522     
   60809517.4336973     
   60851802.3500724     
   60889058.5883809     
   60920275.1392214     
   60944291.5640774     
   60959805.9272536     
   60965395.3046224     
   57517455.3135112     
   57531291.8194730     
   57569424.8539994     
   57627092.5252927     
   57700021.2808021     
   57784492.0359074     
   57877357.0049132     
   57976018.0365270     
   58078379.0933241     
   58182784.4993706     
   58287952.2607175     
   58392909.0849771     
   58496931.2327096     
   58599493.2959306     
   58700225.5048609     
   58798879.1852792     
   58895299.4367644     
   58989403.8668552     
   59081166.1923466     
   59170603.6192376     
   59257767.0724865     
   59342733.5223812     
   59425599.8202408     
   59506477.5993613     
   59585488.9131813     
   59662762.3720932     
   59738429.6062433     
   59812621.9279701     
   59885467.0980639     
   59957086.1180191     
   60027589.9783277     
   60097076.2922407     
   60165625.7362319     
   60233298.2030557     
   60300128.5510646     
   60366121.8048754     
   60431247.6289896     
   60495433.8607916     
   60558558.8584843     
   60620442.4030695     
   60680834.9067728     
   60739404.7447606     
   60795723.6699065     
   60849250.5227956     
   60899313.8407042     
   60945094.5178264     
   60985610.3636736     
   61019705.1813804     
   61046045.6848901     
   61063129.8978464     
   61069310.1409814     
   57494151.5156031     
   57508582.4903050     
   57548340.9129315     
   57608441.3922758     
   57684408.6329232     
   57772346.6098528     
   57868956.4166798     
   57971514.0146222     
   58077821.0179793     
   58186140.5992001     
   58295128.1898344     
   58403763.8731676     
   58511290.7748133     
   58617161.6407136     
   58720994.2389101     
   58822535.2035872     
   58921631.3652786     
   59018207.3656998     
   59112248.3298890     
   59203786.4714397     
   59292890.6712433     
   59379658.2513260     
   59464208.3362925     
   59546676.3421884     
   59627209.2516511     
   59705961.4256675     
   59783090.7692556     
   59858755.1150361     
   59933108.7188887     
   60006298.7789918     
   60078461.8959638     
   60149720.3891173     
   60220178.3728423     
   60289917.4781660     
   60358992.0777886     
   60427423.8389152     
   60495195.3886739     
   60562242.8356014     
   60628446.8547192     
   60693622.0250148     
   60757504.1247285     
   60819735.1667709     
   60879846.1255668     
   60937237.6033173     
   60991159.1414845     
   61040688.5214155     
   61084713.2020462     
   61121916.9352347     
   61150775.3994161     
   61169565.0632668     
   61176388.8790396     
   57472421.3584121     
   57487471.9584173     
   57528924.2964625     
   57591559.1038016     
   57670689.2939883     
   57762232.4917579     
   57862730.1282817     
   57969324.7577157     
   58079709.2353067     
   58192060.3096422     
   58304966.6881853     
   58417358.7523597     
   58528444.4118300     
   58637653.3900606     
   58744590.6198491     
   58848998.3692394     
   58950726.1199075     
   59049706.9634598     
   59145939.2524503     
   59239472.3480332     
   59330395.4751176     
   59418828.8819525     
   59504916.6765119     
   59588820.8629704     
   59670716.2232525     
   59750785.7817318     
   59829216.6589738     
   59906196.1671519     
   59981908.0294661     
   60056528.6218853     
   60130223.1402498     
   60203141.5906881     
   60275414.4871574     
   60347148.1169079     
   60418419.2028920     
   60489268.7521930     
   60559694.8333568     
   60629643.9775048     
   60699000.8566391     
   60767575.8715536     
   60835090.3022732     
   60901158.7650390     
   60965268.9181015     
   61026758.7047632     
   61084791.9537853     
   61138333.8950283     
   61186129.0737545     
   61226685.1704398     
   61258267.1475286     
   61278906.5685045     
   61286430.2397636     
   57452408.7937109     
   57468107.4025028     
   57511330.9614774     
   57576614.5326280     
   57659047.7587718     
   57754351.1265743     
   57858896.5964248     
   57969684.6832036     
   58084292.1408399     
   58200803.2844593     
   58317735.4052898     
   58433965.7482853     
   58548664.7378344     
   58661237.8572368     
   58771276.9123057     
   58878520.3091017     
   58982821.3522178     
   59084123.3007549     
   59182439.8863699     
   59277840.1037969     
   59370436.2565439     
   59460374.4306148     
   59547826.7483576     
   59632984.9085340     
   59716054.6425513     
   59797250.8111852     
   59876792.9344462     
   59954900.9938218     
   60031791.3750682     
   60107672.8343784     
   60182742.3735051     
   60257180.9016523     
   60331148.5442800     
   60404779.4314382     
   60478175.7608877     
   60551400.8847086     
   60624471.1145724     
   60697345.8855327     
   60769915.8707884     
   60841988.6165931     
   60913271.2916742     
   60983350.2527327     
   61051667.3587316     
   61117493.3681547     
   61179899.3673366     
   61237728.0264528     
   61289567.5401574     
   61333732.2783616     
   61368255.2142755     
   61390897.6801873     
   61399181.2164354     
   57434263.3191716     
   57450642.2361016     
   57495724.9586919     
   57563787.3494019     
   57649682.5441820     
   57748921.4209664     
   57857695.1249739     
   57972852.1631406     
   58091844.7414440     
   58212657.8735054     
   58333732.1275739     
   58453887.7920760     
   58572255.3566693     
   58688214.8423671     
   58801344.7750719     
   58911380.4522887     
   59018180.5018334     
   59121700.4474856     
   59221971.9578986     
   59319086.5604758     
   59413182.7762742     
   59504435.8251462     
   59593049.2325262     
   59679247.8256396     
   59763271.7323991     
   59845371.0915332     
   59925801.2510287     
   60004818.2781592     
   60082674.6323459     
   60159614.8651958     
   60235871.2125906     
   60311658.9329352     
   60387171.2240485     
   60462573.5186145     
   60537996.9145347     
   60613530.4426276     
   60689211.8125130     
   60765016.2141827     
   60840842.6989862     
   60916497.6382369     
   60991674.7884328     
   61065931.6176306     
   61138661.8156387     
   61209064.3739541     
   61276110.3268538     
   61338509.2164934     
   61394678.5547530     
   61442720.8838104     
   61480414.2199579     
   61505222.2151603     
   61514329.4880750     
   57418141.0788787     
   57435237.3464460     
   57482280.0383709     
   57553270.1480074     
   57642808.9118817     
   57746183.0724526     
   57859389.7525840     
   57979113.8787320     
   58102673.3559908     
   58227946.0338417     
   58353289.7614679     
   58477463.6442345     
   58599555.6304753     
   58718919.1088490     
   58835119.3908054     
   58947889.7610577     
   59057096.0977319     
   59162708.7627006     
   59264780.4156725     
   59363428.5082929     
   59458821.3891808     
   59551167.1455926     
   59640704.4914629     
   59727695.1695296     
   59812417.4618051     
   59895160.4984403     
   59976219.1235182     
   60055889.1219254     
   60134462.6382934     
   60212223.6303650     
   60289443.1972031     
   60366374.6085428     
   60443247.8355509     
   60520263.3450479     
   60597584.8687083     
   60675330.7966914     
   60753563.7745761     
   60832278.0103449     
   60911383.7375124     
   60990688.2528290     
   61069872.9844473     
   61148466.1928993     
   61225811.2170000     
   61301030.7091430     
   61372988.1118916     
   61440248.7357086     
   61501044.1732131     
   61553245.2925437     
   61594350.3911601     
   61621495.7161224     
   61631494.5684743     
   57404206.4443425     
   57422062.8429839     
   57471181.8403177     
   57545271.2549347     
   57638662.3804050     
   57746400.7826419     
   57864274.0956190     
   57988790.1699748     
   58117121.3162836     
   58247029.2119363     
   58376782.2277367     
   58505073.6449734     
   58630946.1515637     
   58753725.4690999     
   58872964.0869336     
   58988394.8367140     
   59099893.3252894     
   59207447.9216623     
   59311135.9351247     
   59411104.7188816     
   59507556.6061883     
   59600736.7806648     
   59690923.3670925     
   59778419.1876451     
   59863544.7555598     
   59946632.1742026     
   60028019.6777496     
   60108046.5946372     
   60187048.5405735     
   60265352.6574061     
   60343272.7095178     
   60421103.8316065     
   60499116.6907274     
   60577550.7809268     
   60656606.5104254     
   60736435.6700649     
   60817129.7911488     
   60898705.8189509     
   60981088.4600682     
   61064088.5320966     
   61147376.6895035     
   61230452.0699276     
   61312605.7618560     
   61392879.6043337     
   61470021.7504007     
   61542441.6854716     
   61608168.9509654     
   61664821.5276807     
   61709591.3453025     
   61739255.0930605     
   61750217.4044360     
   57392634.2342852     
   57411300.4812069     
   57462630.8512038     
   57540018.4264747     
   57637503.2486559     
   57749869.5874190     
   57872677.3804026     
   58002241.6049784     
   58135575.8731030     
   58270315.3736688     
   58404631.4094255     
   58537146.3953763     
   58666855.0030673     
   58793054.5071945     
   58915285.4403542     
   59033282.3623618     
   59146933.7951489     
   59256250.0257809     
   59361337.4054542     
   59462377.8602900     
   59559612.4976337     
   59653328.3839222     
   59743847.7539381     
   59831519.0696672     
   59916709.4740108     
   59999798.2805067     
   60081171.2082241     
   60161215.1153084     
   60240313.0091470     
   60318839.1187344     
   60397153.8073507     
   60475598.0817808     
   60554487.4178091     
   60634104.5699954     
   60714690.9664885     
   60796436.2079865     
   60879465.0980828     
   60963821.5395126     
   61049448.5545480     
   61136163.6561686     
   61223628.8514400     
   61311314.7562208     
   61398458.7101171     
   61484017.4770784     
   61566616.1648143     
   61644496.4242107     
   61715468.7524534     
   61776875.6458441     
   61825574.0521239     
   61857946.3751410     
   61869948.0607795     
   57383612.7812182     
   57403146.9792003     
   57456846.3682873     
   57537763.6972035     
   57639622.4135443     
   57756921.5954486     
   57884971.9511433     
   58019877.0360913     
   58158476.5424764     
   58298267.3751197     
   58437315.2975833     
   58574166.4615744     
   58707764.8487547     
   58837378.9298723     
   58962538.8134879     
   59082983.7924884     
   59198619.3933934     
   59309482.6516197     
   59415714.2390250     
   59517536.1439825     
   59615233.7636658     
   59709141.4557728     
   59799630.7781442     
   59887100.8019982     
   59971970.0111606     
   60054669.3955308     
   60135636.4150060     
   60215309.5540725     
   60294123.2108673     
   60372502.6703636     
   60450858.9009257     
   60529582.8871760     
   60609039.1694341     
   60689558.2000989     
   60771427.0499200     
   60854877.9035322     
   60940073.6788653     
   61027089.9999832     
   61115892.6675196     
   61206309.7373828     
   61297997.3842622     
   61390398.9554993     
   61482697.0908380     
   61573759.5776425     
   61662080.8006934     
   61745722.2611685     
   61822257.6276158     
   61888729.9455005     
   61941630.5485499     
   61976910.1244587     
   61990031.0338313     
   57377348.1189896     
   57397818.5130374     
   57454071.7820094     
   57538789.7199252     
   57645348.8405130     
   57767934.4964634     
   57901582.5988367     
   58042163.4533804     
   58186325.1521251     
   58331412.8719325     
   58475377.4637304     
   58616683.1602552     
   58754220.8420505     
   58887230.4733934     
   59015234.1946135     
   59137980.1170998     
   59255396.0053460     
   59367551.6054882     
   59474628.2528083     
   59576894.4444277     
   59674686.2099726     
   59768391.2928213     
   59858436.3315933     
   59945276.3869446     
   60029386.2849738     
   60111253.3447497     
   60191371.1260100     
   60270233.8773857     
   60348331.3887459     
   60426143.9556678     
   60504137.1507251     
   60582756.0652213     
   60662418.6353669     
   60743507.5976585     
   60826360.5290148     
   60911257.3198089     
   60998404.3081965     
   61087914.1848392     
   61179780.6812722     
   61273847.0196622     
   61369767.1804389     
   61466959.3092711     
   61564551.1232292     
   61661318.0802624     
   61755616.4246113     
   61845315.0454325     
   61927732.3247212     
   61999586.5818771     
   62056970.8748064     
   62095363.9465619     
   62109687.6153422     
   57374069.6532782     
   57395556.7679423     
   57454581.5856263     
   57543418.0346031     
   57655059.1384676     
   57783342.2815258     
   57922998.1181795     
   58069637.9833987     
   58219697.8579024     
   58370355.9464807     
   58519437.9421965     
   58665320.4134002     
   58806839.2530787     
   58943207.1859563     
   59073942.0954520     
   59198806.4000420     
   59317756.7726721     
   59430903.0158935     
   59538474.7379139     
   59640794.5006596     
   59738256.2394087     
   59831307.9225309     
   59920437.5912205     
   60006162.0723349     
   60089017.7837524     
   60169553.1491560     
   60248322.2093875     
   60325879.0632557     
   60402772.7944869     
   60479542.5450984     
   60556712.3794408     
   60634785.5470213     
   60714237.6947869     
   60795508.4995168     
   60878991.0879939     
   60965018.4889092     
   61053846.2230288     
   61145630.0020073     
   61240397.3979850     
   61338012.3080879     
   61438131.1314424     
   61540149.8825626     
   61643142.0815049     
   61745788.2905276     
   61846299.6946652     
   61942340.1823529     
   62030953.8998411     
   62108507.9806787     
   62170662.5652262     
   62212381.3888035     
   62227994.5808100     
   57374037.7927633     
   57396637.0412145     
   57458690.6430954     
   57552019.8247757     
   57669189.7997783     
   57803648.7043357     
   57949785.5551614     
   58102922.3994059     
   58259259.3780761     
   58415790.5703441     
   58570205.5070488     
   58720787.5300251     
   58866316.5567067     
   59005980.7301773     
   59139299.0704558     
   59266055.5947466     
   59386244.3437158     
   59500024.1965660     
   59607682.1365094     
   59709603.6169856     
   59806248.7834541     
   59898133.4605684     
   59985813.9791426     
   60069875.0687560     
   60150920.1695022     
   60229563.6169245     
   60306424.2280060     
   60382119.8649973     
   60457262.5796786     
   60532453.9443909     
   60608280.1578235     
   60685306.4720966     
   60764070.4214727     
   60845073.2404787     
   60928768.7399924     
   61015548.7666792     
   61105724.2125000     
   61199500.3844423     
   61296945.4211197     
   61397950.4011500     
   61502179.8981877     
   61609012.0909962     
   61717468.2431741     
   61826132.5394050     
   61933064.9960565     
   62035712.4860139     
   62130825.7461964     
   62214393.2917808     
   62281605.8628450     
   62326866.3425386     
   62343858.2963189     
   57377554.1693939     
   57401379.0467577     
   57466766.4013901     
   57565029.8651528     
   57688252.7867389     
   57829444.0945310     
   57982607.6399194     
   58142740.4847965     
   58305779.6111956     
   58468515.8828052     
   58628491.1431914     
   58783890.5475943     
   58933438.4687460     
   59076303.0726970     
   59212012.1314872     
   59340380.8435445     
   59461451.2791394     
   59575442.4182595     
   59682709.4570080     
   59783710.9993503     
   59878982.8252589     
   59969117.0646040     
   60054745.7638521     
   60136527.9838378     
   60215139.6983796     
   60291265.8699858     
   60365594.1591690     
   60438809.7785549     
   60511591.0328537     
   60584605.0910757     
   60658503.5173927     
   60733917.0401350     
   60811448.9623676     
   60891666.5103716     
   60975089.2778229     
   61062173.7568621     
   61153292.7626405     
   61248708.3760218     
   61348536.8860475     
   61452704.1659045     
   61560890.0436873     
   61672460.6365811     
   61786388.4267086     
   61901161.1938959     
   62014682.8844646     
   62124172.1159050     
   62226067.1942050     
   62315949.9390929     
   62388503.6293487     
   62437521.8568703     
   62455983.1244082     
   57384975.2682505     
   57410161.2650819     
   57479244.9218587     
   57582964.5284657     
   57712855.2644620     
   57861426.1876456     
   58022243.8754038     
   58189938.4843660     
   58360152.6149370     
   58529453.0041611     
   58695222.1872261     
   58855543.3931397     
   59009088.0098648     
   59155011.4981268     
   59292860.8904059     
   59422495.0229792     
   59544017.3352033     
   59657720.2962117     
   59764040.1381875     
   59863520.4559579     
   59956783.2706000     
   60044506.2748086     
   60127405.1300843     
   60206219.8400583     
   60281704.3638123     
   60354618.7498327     
   60425723.1620961     
   60495773.2337640     
   60565516.2207415     
   60635687.4362156     
   60707006.4267016     
   60780172.2977366     
   60855857.5103418     
   60934699.3453260     
   61017288.0709928     
   61104150.6548016     
   61195728.6428642     
   61292348.6171579     
   61394183.4712794     
   61501202.6870545     
   61613109.9391685     
   61729266.8227502     
   61848602.4279936     
   61969510.0148961     
   62089734.2755932     
   62206255.6357060     
   62315181.6164915     
   62411659.0992282     
   62489824.6902993     
   62542812.0316609     
   62562832.7646096     
   57396730.5238455     
   57423439.9177126     
   57496651.8213019     
   57606444.8864911     
   57743724.3666522     
   57900425.6182454     
   58069615.6163175     
   58245508.6222539     
   58423417.5559982     
   58599662.6390882     
   58771456.0732195     
   58936777.5273358     
   59094251.0432191     
   59243030.2313604     
   59382695.6031472     
   59513165.6433268     
   59634621.7047032     
   59747445.8740920     
   59852170.4651451     
   59949437.6016406     
   60039967.3517356     
   60124532.9761300     
   60203942.0040079     
   60279022.0137330     
   60350610.1492901     
   60419545.5368515     
   60486663.8729320     
   60552793.5336412     
   60618752.6019143     
   60685346.2245835     
   60753363.6913892     
   60823574.5703587     
   60896723.1348507     
   60973520.1739650     
   61054631.0892531     
   61140658.9511822     
   61232120.9322675     
   61329416.2785503     
   61432783.7765580     
   61542246.5958695     
   61657542.5463235     
   61778038.3225804     
   61902627.3758683     
   62029612.8080435     
   62156579.2377546     
   62280260.9548546     
   62396417.7007822     
   62499733.6764105     
   62583759.0939873     
   62640915.3951963     
   62662582.8992461     
   57413346.2137745     
   57441773.9106427     
   57519629.4352919     
   57636226.0704994     
   57781737.8763781     
   57947436.5550947     
   58125815.1311154     
   58310615.1559478     
   58496780.5831587     
   58680361.9462287     
   58858391.7490325     
   59028747.8050201     
   59190016.7686857     
   59341365.9779169     
   59482428.3201012     
   59613202.2589837     
   59733967.3683855     
   59845214.5858500     
   59947589.7690232     
   60041848.8616383     
   60128822.9299741     
   60209391.4197848     
   60284462.1409715     
   60354956.6684677     
   60421800.0256405     
   60485913.6751229     
   60548210.9727396     
   60609594.3383421     
   60670953.4599674     
   60733163.8720739     
   60797085.2315253     
   60863558.5525187     
   60933401.5493826     
   61007401.0702909     
   61086301.3841835     
   61170786.8121601     
   61261456.8885901     
   61358791.9286137     
   61463106.6250137     
   61574489.1887573     
   61692723.7117775     
   61817194.0318467     
   61946768.6038084     
   62079667.9061081     
   62213318.8542716     
   62344204.5458315     
   62467722.2148974     
   62578067.0348454     
   62668163.4845813     
   62729667.9109645     
   62753063.2573109     
   57435476.7647182     
   57465857.3534548     
   57548971.6909126     
   57673234.0711511     
   57827961.5019506     
   58003652.5082368     
   58192137.9420018     
   58386621.5106501     
   58581635.4608301     
   58772937.8910316     
   58957375.4717382     
   59132730.8728537     
   59297569.2234448     
   59451093.2655989     
   59593012.9468742     
   59723432.1829552     
   59842753.3891914     
   59951599.0005208     
   60050748.4082205     
   60141088.3744541     
   60223574.9000624     
   60299204.6067371     
   60368993.8713221     
   60433964.1629931     
   60495132.2486257     
   60553504.1268246     
   60610071.7148725     
   60665811.4385163     
   60721683.9578651     
   60778634.3002315     
   60837591.6586536     
   60899468.0483763     
   60965154.8874160     
   61035516.3765788     
   61111378.2967080     
   61193510.5206390     
   61282601.1705407     
   61379219.9741456     
   61483768.0514737     
   61596411.2023414     
   61716993.9163026     
   61844931.9883391     
   61979083.0212535     
   62117596.4416048     
   62257748.0809676     
   62395768.8403143     
   62526682.1674940     
   62644170.4103797     
   62740494.5279316     
   62806493.5484575     
   62831687.0157584     
   57463945.3101162     
   57496561.4380197     
   57585668.1935111     
   57718610.9092790     
   57883692.8432564     
   58070506.3926228     
   58270116.4498165     
   58475115.4558792     
   58679578.9893299     
   58878952.3298927     
   59069895.6302788     
   59250110.3295317     
   59418163.7522144     
   59573323.4238432     
   59715408.0310585     
   59844658.3778599     
   59961629.1303843     
   60067100.4700826     
   60162007.8038608     
   60247387.2206239     
   60324334.2704158     
   60393973.7425176     
   60457438.3347442     
   60515854.3702288     
   60570332.9863726     
   60621965.4666090     
   60671821.5937826     
   60720950.0657596     
   60770380.1242812     
   60821123.6031982     
   60874176.5978118     
   60930519.8878368     
   60991117.1061837     
   61056909.4281066     
   61128805.2564523     
   61207663.0015285     
   61294264.6143644     
   61389277.0682023     
   61493198.5678366     
   61606286.0208978     
   61728460.4098230     
   61859187.3999476     
   61997332.0921753     
   62140989.5509603     
   62287296.7746827     
   62432237.0536602     
   62570453.7493433     
   62695096.5710967     
   62797728.1435714     
   62868320.2909378     
   62895365.4380328     
   57499795.3548628     
   57534987.3868424     
   57630958.6826236     
   57773768.3359021     
   57950510.8696680     
   58149712.1537469     
   58361550.6215659     
   58577926.6988091     
   58792414.3990886     
   59000131.0870752     
   59197558.1997068     
   59382339.8436015     
   59553079.4433400     
   59709148.1638914     
   59850513.3259427     
   59977590.7424538     
   60091121.8309661     
   60192074.3480670     
   60281564.4322073     
   60360797.1029159     
   60431022.2477082     
   60493503.2714139     
   60549495.8664141     
   60600234.7031460     
   60646926.1840679     
   60690745.7182512     
   60732838.2393674     
   60774320.8973382     
   60816286.9981077     
   60859810.3432288     
   60905949.1271676     
   60955748.4798838     
   61010240.5882072     
   61070441.0840103     
   61137340.0441470     
   61211885.5067455     
   61294956.8843283     
   61387325.0841761     
   61489595.6072570     
   61602130.5230927     
   61724945.2192601     
   61857576.4975767     
   61998920.3043078     
   62147040.5192228     
   62298955.0413650     
   62450411.8149891     
   62595674.8036001     
   62727346.9719498     
   62836262.3030044     
   62911479.7155488     
   62940406.0064849     
   57544354.9220545     
   57582531.5409927     
   57686397.9205027     
   57840448.4823908     
   58030327.2791264     
   58243302.1379367     
   58468527.8434006     
   58697127.1984370     
   58922131.6017495     
   59138324.8918257     
   59342030.0617152     
   59530871.1594935     
   59703534.4169853     
   59859544.7905194     
   59999067.4305846     
   60122738.4319352     
   60231525.5437630     
   60326617.1495905     
   60409336.4883021     
   60481077.5026134     
   60543258.6223480     
   60597291.0190917     
   60644558.2593404     
   60686404.7337863     
   60724130.6857949     
   60758992.0638292     
   60792203.7598653     
   60824945.0589146     
   60858366.3093560     
   60893595.9274771     
   60931746.8693018     
   60973921.6332394     
   61021214.6906302     
   61074710.9685248     
   61135478.6212546     
   61204553.8208572     
   61282914.6800717     
   61371440.7285133     
   61470853.6672711     
   61581634.5690118     
   61703912.5031255     
   61837320.1039219     
   61980813.3499253     
   62132456.3467939     
   62289177.6678525     
   62446512.8199034     
   62598356.7938863     
   62736759.4200312     
   62851801.5507405     
   62931589.1844306     
   62962393.4039736     
   57599313.0561615     
   57640961.8886375     
   57753928.6032186     
   57920786.4714956     
   58125431.7361511     
   58353649.1881982     
   58593418.2304418     
   58834998.3304968     
   59070846.8727384     
   59295423.7850372     
   59504931.3493484     
   59697028.1058798     
   59870545.3309324     
   60025224.8537431     
   60161488.8624758     
   60280246.1543262     
   60382734.9555146     
   60470399.7096743     
   60544797.7586690     
   60607531.2670601     
   60660199.7635019     
   60704369.0460780     
   60741552.7459349     
   60773203.4435866     
   60800710.8091588     
   60825404.7485903     
   60848561.9612219     
   60871414.6421150     
   60895160.2931570     
   60920971.7406579     
   60950006.4926250     
   60983414.5021249     
   61022343.2264536     
   61067938.5745593     
   61121339.9057087     
   61183666.6723422     
   61255993.5911816     
   61339310.4022114     
   61434461.3976833     
   61542059.1018484     
   61662365.9926192     
   61795138.3759052     
   61939428.0669625     
   62093341.2413219     
   62253760.5908871     
   62416047.1894805     
   62573751.2701733     
   62718373.2324689     
   62839222.5221502     
   62923417.7880986     
   62956055.1955722     
   57666805.1322221     
   57712501.4840322     
   57835954.9915399     
   58017363.8285764     
   58238515.6178187     
   58483454.1632163     
   58738822.8533662     
   58993940.0128257     
   59240675.6285134     
   59473198.0145416     
   59687649.8309833     
   59881800.0783637     
   60054705.3265195     
   60206401.3673876     
   60337636.6412815     
   60449651.4459355     
   60544001.9429425     
   60622424.9466985     
   60686737.9560974     
   60738768.4230112     
   60780306.4636047     
   60813075.8130691     
   60838718.5893092     
   60858790.2261564     
   60874761.6771909     
   60888026.6323407     
   60899912.0121024     
   60911690.4044390     
   60924593.3900772     
   60939824.8673870     
   60958573.5404944     
   60982023.6718525     
   61011363.0163719     
   61047786.5372037     
   61092494.0395116     
   61146679.2350568     
   61211506.9606399     
   61288074.3265607     
   61377350.5068228     
   61480088.7962568     
   61596703.6482174     
   61727105.0509470     
   61870483.4983397     
   62025042.1383555     
   62187680.1124950     
   62353644.2201032     
   62516184.5707932     
   62666269.1281779     
   62792422.0980729     
   62880741.4650964     
   62915119.1327421     
   57749496.5898466     
   57799906.7371143     
   57935401.0472544     
   58133231.0171451     
   58372647.0665451     
   58635666.9467287     
   58907439.4671188     
   59176284.2605079     
   59433499.9001573     
   59673027.1573642     
   59891039.9268777     
   60085518.8912367     
   60255845.8302117     
   60402441.5787569     
   60526458.8678027     
   60629532.7709091     
   60713585.8974850     
   60780682.2696874     
   60832922.3876067     
   60872371.7631737     
   60901015.7215865     
   60920734.1771675     
   60933291.1423852     
   60940334.7673281     
   60943404.6426517     
   60943943.8893509     
   60943314.1905856     
   60942812.3974292     
   60943687.6718293     
   60947158.3266824     
   60954427.5917453     
   60966697.4765587     
   60985179.7128752     
   61011102.4287360     
   61045710.7197664     
   61090258.6246048     
   61145989.1674458     
   61214098.0959404     
   61295675.7263307     
   61391619.9470330     
   61502512.0256709     
   61628445.6615549     
   61768799.3318113     
   61921943.7667180     
   62084883.0775302     
   62252843.6889432     
   62418852.6933784     
   62573381.6275049     
   62704154.2251407     
   62796200.9108761     
   62832178.8040059     
   57850642.1730709     
   57906515.1256794     
   58055721.6108429     
   58271860.4196471     
   58531152.0339824     
   58813290.6224760     
   59101792.4223913     
   59383958.7848807     
   59650576.6238957     
   59895465.2131050     
   60114956.3985126     
   60307371.6349389     
   60472537.4671772     
   60611363.0051810     
   60725489.2082756     
   60817010.2394450     
   60888261.1843786     
   60941663.2748914     
   60979616.6249705     
   61004430.6836919     
   61018283.5751717     
   61023202.8222274     
   61021061.3619021     
   61013584.0898597     
   61002361.3288694     
   60988866.5696258     
   60974476.5777323     
   60960492.5129745     
   60948161.0858274     
   60938694.9999461     
   60933292.0113887     
   60933151.8815059     
   60939490.3092382     
   60953548.5917734     
   60976597.2671937     
   61009931.3239378     
   61054853.7050773     
   61112642.7768696     
   61184498.1536043     
   61271457.7431248     
   61374277.0455449     
   61493259.5562779     
   61628024.7579095     
   61777198.6316838     
   61938014.1760358     
   62105824.0174576     
   62273565.3421581     
   62431282.0059689     
   62565868.7908505     
   62661191.0442270     
   62698602.9215396     
   57974076.1677364     
   58036214.1721644     
   58200810.4671435     
   58436964.9743275     
   58717329.6448611     
   59018993.0993587     
   59323749.9394537     
   59617925.1696686     
   59891914.3719220     
   60139573.3858659     
   60357558.9101885     
   60544690.1571393     
   60701374.7705483     
   60829120.9807020     
   60930142.5276395     
   61007052.6431591     
   61062637.3964740     
   61099695.9317698     
   61120934.5704439     
   61128902.5812844     
   61125958.9924802     
   61114261.6720571     
   61095771.7426848     
   61072268.0545768     
   61045367.8388135     
   61016550.7837478     
   60987184.6332211     
   60958551.0261951     
   60931870.7152853     
   60908327.5448466     
   60889090.6583234     
   60875334.3510844     
   60868254.7916907     
   60869082.4971669     
   60879088.9578747     
   60899585.1559704     
   60931908.9012301     
   60977396.9123311     
   61037336.3790075     
   61112889.2752279     
   61204980.7471639     
   61314140.0218092     
   61440277.7309154     
   61582376.7932863     
   61738066.8245710     
   61903054.5035537     
   62070423.0590478     
   62229927.6693245     
   62367576.7618990     
   62465838.3481687     
   62504558.7655531     
   58124054.0422478     
   58193247.2575838     
   58374711.3564259     
   58632079.8017409     
   58933894.1199884     
   59254417.7106343     
   59573723.3888942     
   59877292.0994008     
   60155326.3227120     
   60401936.1378094     
   60614310.5440999     
   60791947.0036640     
   60935980.3143610     
   61048628.1198514     
   61132753.9033548     
   61191538.0260909     
   61228241.9096473     
   61246048.4939740     
   61247962.4480417     
   61236755.3076310     
   61214943.0462472     
   61184786.0606509     
   61148303.8723747     
   61107298.8556883     
   61063384.9447147     
   61018018.5524090     
   60972529.8879534     
   60928153.5343479     
   60886057.5913344     
   60847370.9395729     
   60813208.2690334     
   60784692.4556339     
   60762973.6731161     
   60749244.2928537     
   60744748.1510826     
   60750782.1526617     
   60768687.4435685     
   60799826.5408389     
   60845541.8714990     
   60907090.0896360     
   60985545.0535873     
   61081659.6824463     
   61195671.2855956     
   61327022.9144829     
   61473950.8912207     
   61632859.1465293     
   61797403.1501195     
   61957362.5822836     
   62097777.1300982     
   62199172.0118849     
   62239287.9398386     
   58304812.2014511     
   58381717.3543604     
   58580983.7234225     
   58859752.8950195     
   59181989.8619384     
   59519045.8992058     
   59849412.4841778     
   60157980.5856671     
   60435049.9371677     
   60675263.7248761     
   60876584.7135817     
   61039381.6795650     
   61165659.7137896     
   61258443.0554668     
   61321302.8670333     
   61358012.9757444     
   61372312.3636536     
   61367752.5230921     
   61347609.3784812     
   61314842.2581958     
   61272085.6226383     
   61221662.4197035     
   61165610.7633124     
   61105717.9887884     
   61043558.0082642     
   60980529.3067775     
   60917891.9483886     
   60856802.6701053     
   60798347.5919783     
   60743572.3151555     
   60693509.2532550     
   60649201.9703979     
   60611726.0950163     
   60582206.0487914     
   60561826.3813842     
   60551835.9495416     
   60553542.5590646     
   60568295.0637429     
   60597449.3742618     
   60642314.4369757     
   60704073.8831112     
   60783678.0219347     
   60881696.8758300     
   60998112.1830204     
   61131990.8013233     
   61280902.5508320     
   61439825.7968074     
   61599315.8068961     
   61743475.9651960     
   61849680.7209141     
   61891908.9009182     
   58519635.9598930     
   58604573.6787233     
   58821503.1458293     
   59120127.8873272     
   59459575.1094392     
   59808426.7563078     
   60143934.0490837     
   60450802.1827192     
   60719815.9065791     
   60946482.3898165     
   61129796.8662594     
   61271185.5424257     
   61373644.8157633     
   61441072.3810697     
   61477771.5239811     
   61488102.5815006     
   61476253.2797419     
   61446100.7746163     
   61401141.3315916     
   61344467.6081829     
   61278777.6885070     
   61206403.8899794     
   61129352.6739272     
   61049349.6646973     
   60967885.8390225     
   60886262.4650621     
   60805633.4420767     
   60727044.4071648     
   60651468.4121078     
   60579838.1926188     
   60513075.0997134     
   60452114.6694197     
   60397928.5917319     
   60351542.5154514     
   60314048.7075739     
   60286612.1043710     
   60270467.8079189     
   60266907.7094729     
   60277253.8414646     
   60302816.5182388     
   60344836.5433342     
   60404412.6053075     
   60482416.0063144     
   60579389.3891545     
   60695397.2470939     
   60829688.1879363     
   60979717.7993325     
   61138560.3627312     
   61290228.5322388     
   61406585.4690021     
   61453284.5534643     
   58769126.2512113     
   58861770.1119122     
   59094391.8688095     
   59408635.4533343     
   59758923.7706582     
   60111562.1818886     
   60443162.7643012     
   60738814.7274848     
   60990261.4209023     
   61194231.5470282     
   61350998.7269214     
   61463196.4719798     
   61534885.6059750     
   61570852.6643801     
   61576107.5537738     
   61555544.6678851     
   61513732.0047832     
   61454796.0655770     
   61382375.1091943     
   61299618.6565430     
   61209216.2685210     
   61113443.1461544     
   61014213.8316509     
   60913138.2063278     
   60811576.1638157     
   60710688.9050737     
   60611485.8791383     
   60514867.0885774     
   60421660.8800862     
   60332657.5190028     
   60248638.8553056     
   60170404.2659032     
   60098792.8291676     
   60034701.3721858     
   59979097.6536407     
   59933027.5507552     
   59897614.7937543     
   59874051.6913097     
   59863579.6785391     
   59867459.8141011     
   59886936.1610223     
   59923200.0238777     
   59977370.6259734     
   60050516.3423754     
   60143739.1160087     
   60258293.7942063     
   60395396.5940324     
   60553898.5728428     
   60721646.6049042     
   60862238.0966235     
   60920115.6850369     
   59048243.5123770     
   59147180.8390452     
   59390694.7490005     
   59712460.5210831     
   60062976.6301736     
   60407244.3863845     
   60722139.9427954     
   60993860.7877943     
   61215630.8844216     
   61385738.7241135     
   61505924.9437498     
   61580105.7070276     
   61613400.9789558     
   61611427.1435030     
   61579809.0133691     
   61523866.2032388     
   61448432.0980579     
   61357769.0629154     
   61255549.9564579     
   61144882.5024947     
   61028359.0188503     
   60908119.0491504     
   60785916.4710771     
   60663185.7105973     
   60541103.9176490     
   60420647.5219604     
   60302642.6365596     
   60187809.4287229     
   60076800.9269435     
   59970236.8550280     
   59868733.0432819     
   59772926.8088286     
   59683498.4553539     
   59601188.7440795     
   59526811.8684647     
   59461263.1891600     
   59405520.8679955     
   59360640.7734744     
   59327744.9312885     
   59308005.8855606     
   59302633.5013268     
   59312878.4234130     
   59340079.8262592     
   59385807.1630407     
   59452179.8347629     
   59542485.8786761     
   59662226.2371179     
   59819920.4703863     
   60017495.8741118     
   60213943.3210398     
   60303069.4607900     
   59341613.7328242     
   59443781.8006673     
   59689377.6652789     
   60005458.8620771     
   60340318.8989313     
   60659217.0340697     
   60940498.5008079     
   61172294.3003887     
   61349809.1292638     
   61473142.6486196     
   61545577.4017932     
   61572269.8118032     
   61559284.4173719     
   61512913.4827014     
   61439226.1732635     
   61343795.3141820     
   61231555.6291527     
   61106754.6013890     
   60972964.7726982     
   60833133.6447691     
   60689653.8544010     
   60544441.6674034     
   60399015.9955316     
   60254573.1998570     
   60112055.1196507     
   59972209.2749654     
   59835641.1925486     
   59702859.4052802     
   59574313.9609103     
   59450429.3295880     
   59331632.4982427     
   59218376.8434238     
   59111162.1245788     
   59010550.6720116     
   58917179.6080929     
   58831768.8301174     
   58755124.6617201     
   58688139.7997594     
   58631791.8105270     
   58587145.5250915     
   58555370.2450704     
   58537792.6226233     
   58536024.1342813     
   58552235.2529195     
   58589710.5174357     
   58653948.1839580     
   58754824.0876083     
   58911285.9709971     
   59157742.2860281     
   59462531.5446150     
   59612461.3113828     
   59616571.5924730     
   59716622.7949691     
   59950295.6206085     
   60241320.4063862     
   60538723.7558035     
   60810214.6808603     
   61037040.9144834     
   61210084.5026830     
   61326905.4356085     
   61389495.9923077     
   61402581.8418158     
   61372359.7853122     
   61305591.1258764     
   61208982.6563250     
   61088794.0477317     
   60950616.7831741     
   60799277.3120756     
   60638825.3381319     
   60472576.3498581     
   60303185.1665032     
   60132734.0183086     
   59962824.1669645     
   59794664.1750792     
   59629150.8302540     
   59466940.7554632     
   59308512.1689815     
   59154217.2283008     
   59004325.9562754     
   58859062.9655536     
   58718638.1666847     
   58583272.4718888     
   58453219.2715167     
   58328782.2141376     
   58210329.6029853     
   58098305.5943149     
   57993238.4807654     
   57895746.9167048     
   57806546.3769518     
   57726460.9255352     
   57656450.1015697     
   57597668.3787503     
   57551587.4249292     
   57520234.4813791     
   57506645.4183156     
   57515725.7207829     
   57555927.2854872     
   57642801.5149755     
   57807330.8769834     
   58132939.3453658     
   58521040.5058940     
   58690245.9213959     
   59813599.2045692     
   59903333.1057569     
   60105055.9069569     
   60345100.6164934     
   60577543.6297773     
   60775270.3846303     
   60923919.4779093     
   61017769.5323346     
   61056860.6661411     
   61044907.4928247     
   60987758.5299257     
   60892269.9317254     
   60765511.2289552     
   60614237.7668259     
   60444571.2035327     
   60261835.8981463     
   60070506.7893423     
   59874232.2150942     
   59675902.5592118     
   59477742.8323899     
   59281414.0360438     
   59088113.6631109     
   58898669.5408668     
   58713623.7284099     
   58533304.9501195     
   58357889.4394090     
   58187451.0957825     
   58022002.4305535     
   57861527.9150021     
   57706011.1985082     
   57555457.4022378     
   57409911.4275230     
   57269472.9991597     
   57134309.0226026     
   57004663.8307964     
   56880868.1983655     
   56763348.9815604     
   56652643.5534681     
   56549427.6597641     
   56454572.6810659     
   56369259.2630348     
   56295190.7466285     
   56234977.8668284     
   56192822.0117362     
   56175748.3825855     
   56195943.8854388     
   56275525.4264606     
   56458824.1968230     
   56830988.6843760     
   57223870.2039438     
   57384512.3631908     
   59834353.2560781     
   59902471.5193168     
   60046310.7680869     
   60203853.4297775     
   60339805.4062734     
   60435192.9670816     
   60481310.1179209     
   60476109.9293778     
   60421874.9462312     
   60323567.8020102     
   60187603.5346108     
   60020942.4468981     
   59830451.6874382     
   59622488.8837353     
   59402660.2377676     
   59175710.1360155     
   58945506.2279574     
   58715089.0641801     
   58486759.6672317     
   58262184.2686215     
   58042502.5373975     
   57828431.4611393     
   57620360.3756244     
   57418434.3099009     
   57222624.1991430     
   57032784.0595901     
   56848696.5241947     
   56670108.7786290     
   56496760.9335819     
   56328408.5380440     
   56164840.5683758     
   56005893.9549767     
   55851465.5637721     
   55701522.5361511     
   55556112.0303328     
   55415371.8379577     
   55279544.5341863     
   55149000.7725421     
   55024283.6654804     
   54906197.1969754     
   54795977.5660984     
   54695606.8025679     
   54608356.4869355     
   54539700.5489958     
   54498845.1310495     
   54501354.7987519     
   54573873.2677523     
   54761166.0899616     
   55121654.1056982     
   55497999.8908099     
   55665666.2091879     
   59528535.8354340     
   59561108.3274338     
   59617064.2069726     
   59658053.0917276     
   59665676.4414446     
   59631776.0317140     
   59554000.5341431     
   59433720.2946470     
   59274808.3359175     
   59082708.3574850     
   58863648.6214340     
   58624012.7959252     
   58369883.7550899     
   58106744.2106634     
   57839303.0581610     
   57571421.6065166     
   57306120.5401457     
   57045645.7472185     
   56791566.7901082     
   56544885.8547401     
   56306144.9722476     
   56075526.8041752     
   55852946.2048121     
   55638129.5063511     
   55430679.3633900     
   55230125.2760868     
   55035961.9126046     
   54847678.0306988     
   54664778.4412393     
   54486800.8172148     
   54313328.6879584     
   54144001.7386367     
   53978524.5427743     
   53816675.0660591     
   53658314.6406958     
   53503401.5928592     
   53352011.6227057     
   53204370.6771011     
   53060913.0991439     
   52922393.0451372     
   52790100.2044554     
   52666256.9432282     
   52554694.6651543     
   52461925.8751905     
   52398754.9088732     
   52382576.2892546     
   52440092.6036953     
   52608168.2838364     
   52925316.8630111     
   53275832.3889277     
   53441081.7689088     
   58682587.8112486     
   58664706.7980878     
   58603096.4558994     
   58496731.5967582     
   58349909.4846956     
   58166985.3310243     
   57951813.7361746     
   57708335.7514995     
   57441009.7087428     
   57154800.1270568     
   56854898.6419392     
   56546396.1275813     
   56234018.4492837     
   55921937.8587715     
   55613640.9838045     
   55311858.0666752     
   55018569.9729099     
   54735082.9678639     
   54462134.5404758     
   54199998.8117296     
   53948582.8613107     
   53707516.8406270     
   53476237.7097889     
   53254061.3451139     
   53040238.7225366     
   52833996.4950820     
   52634565.5201552     
   52441201.1408746     
   52253197.7992745     
   52069899.5703801     
   51890707.7657452     
   51715086.7154012     
   51542569.0503284     
   51372762.4006396     
   51205360.2267974     
   51040160.1810323     
   50877093.6605763     
   50716270.7592333     
   50558049.4577905     
   50403153.2311068     
   50252896.4867001     
   50109614.9194306     
   49977413.4123081     
   49863297.9296374     
   49778661.8452132     
   49740876.4617767     
   49774090.2396700     
   49906323.9063786     
   50162151.3368193     
   50464327.1804449     
   50613454.0140365     
   57015480.6674907     
   56934602.0303484     
   56733396.6385461     
   56460530.4836714     
   56146638.1476559     
   55808818.7312873     
   55456050.5738962     
   55093541.6759180     
   54725159.3995483     
   54354410.6567992     
   53984651.8666325     
   53619042.8306530     
   53260483.3774147     
   52911528.8461077     
   52574247.1934911     
   52250088.7249031     
   51939869.8340239     
   51643869.8204189     
   51361954.1251746     
   51093666.5512738     
   50838298.8460897     
   50594961.1873613     
   50362654.9635834     
   50140334.9256172     
   49926952.5787240     
   49721483.1677034     
   49522942.5845880     
   49330398.5140495     
   49142977.8091763     
   48959870.8310519     
   48780333.6748201     
   48603689.3023439     
   48429329.0118299     
   48256716.6908339     
   48085400.1270109     
   47915034.9381712     
   47745426.7340338     
   47576594.7214939     
   47408856.5516214     
   47242941.6121516     
   47080170.5531991     
   46922831.7068413     
   46774905.0507159     
   46643190.5656728     
   46538583.2626921     
   46476965.1027761     
   46478689.1578175     
   46565040.7625309     
   46744692.2970133     
   46983194.7677669     
   47104786.2404107     
   54189661.8547241     
   54040401.6421431     
   53695243.5505817     
   53257439.6341432     
   52784961.0259979     
   52306314.3551904     
   51833884.0192434     
   51372583.7637306     
   50924528.4389723     
   50490984.2218290     
   50072884.6615256     
   49670996.6160137     
   49286107.6969672     
   48919061.3915243     
   48570506.9361417     
   48240587.6508589     
   47928893.5570097     
   47634655.9125677     
   47356915.8247126     
   47094574.1133651     
   46846404.9961576     
   46611100.2419256     
   46387330.6561391     
   46173793.0757189     
   45969234.4332184     
   45772463.1963126     
   45582355.3918552     
   45397858.4730123     
   45217993.0468711     
   45041852.0762022     
   44868597.9845211     
   44697459.6511252     
   44527729.3866945     
   44358763.2152259     
   44189989.9068672     
   44020938.2426344     
   43851292.2020700     
   43680979.1759583     
   43510287.7247205     
   43339995.3491380     
   43171494.4500624     
   43006937.9231459     
   42849817.8299199     
   42706041.4122781     
   42585149.4910069     
   42500554.3326218     
   42468185.3806778     
   42502079.7369164     
   42606130.1989861     
   42775665.8129458     
   42861658.5287416     
   49843503.2656451     
   49637214.3318692     
   49170728.1857166     
   48595169.6317748     
   47997027.9757513     
   47414810.6671028     
   46861709.8239056     
   46340123.1748250     
   45849439.4986357     
   45388274.7035762     
   44954884.2030392     
   44547463.8674257     
   44164590.7965001     
   43805520.1446119     
   43469691.1145403     
   43155986.4948895     
   42862751.7267893     
   42588263.9437020     
   42330948.0235788     
   42089266.1504268     
   41861668.8006850     
   41646624.6112769     
   41442662.5024033     
   41248384.7091039     
   41062469.7216576     
   40883674.5517467     
   40710834.8049387     
   40542864.4076222     
   40378756.9394618     
   40217579.5657664     
   40058467.0405191     
   39900615.5328486     
   39743276.1793280     
   39585747.5032787     
   39427378.4215223     
   39267589.0345024     
   39105933.5370706     
   38942209.8123044     
   38776604.1045615     
   38609880.6085856     
   38443566.1397779     
   38280009.7265966     
   38121965.5013937     
   37974078.1041947     
   37844016.8837767     
   37742512.2611139     
   37681003.9371465     
   37668864.7525271     
   37710419.9939913     
   37808014.2633514     
   37850036.8651957     
   43673796.6762317     
   43429425.3230965     
   42891775.5093825     
   42227318.0904900     
   41555453.3391873     
   40930744.9672766     
   40356688.8280825     
   39831305.4656249     
   39350761.4859225     
   38910145.9864282     
   38505663.0282523     
   38133563.1645890     
   37790150.2898564     
   37472971.2052511     
   37180231.0017940     
   36909540.4117248     
   36658211.5071084     
   36424300.5777213     
   36205989.1000692     
   36001577.1226785     
   35809502.3502569     
   35628329.1941789     
   35456705.1812862     
   35293339.5212454     
   35136997.4300695     
   34986522.9418773     
   34840832.0963221     
   34698902.3371514     
   34559793.0569875     
   34422634.4473916     
   34286599.4364233     
   34150935.0338439     
   34014924.8618005     
   33877884.2580489     
   33739157.3064632     
   33598103.1241588     
   33454148.3344954     
   33306936.4797306     
   33156444.2097091     
   33003083.1589196     
   32848059.2719321     
   32693909.7951217     
   32544883.1416352     
   32402786.9567847     
   32275087.0820403     
   32169019.6724090     
   32091957.4388956     
   32049946.7341284     
   32046559.1852585     
   32081227.4673892     
   32087657.6352692     
   35222233.5232091     
   35000144.0771503     
   34525454.9217814     
   33940431.3461988     
   33322179.7642826     
   32733157.7958647     
   32210623.0361620     
   31756370.3646453     
   31353014.3891330     
   30991455.4070834     
   30667400.5597281     
   30379952.2371734     
   30125999.3379813     
   29896184.9561906     
   29682039.2980660     
   29481614.2530140     
   29295799.7387070     
   29123564.5782688     
   28963244.9244592     
   28813214.7507286     
   28672201.7924778     
   28539158.0052816     
   28413071.2483579     
   28292927.9991628     
   28177758.1132641     
   28066615.3885718     
   27958626.2689579     
   27852973.6849777     
   27748858.2801986     
   27645525.4742245     
   27542318.5859817     
   27438568.0818591     
   27333683.5499011     
   27227133.2522524     
   27118390.3452366     
   27006887.3852693     
   26892000.1222317     
   26773239.2552599     
   26650559.2766607     
   26523879.2605595     
   26393017.1496479     
   26258313.9650522     
   26120615.2708042     
   25998667.2643614     
   25890471.5457181     
   25798187.2374153     
   25725229.0365494     
   25675030.4497263     
   25649194.5923584     
   25647813.7848662     
   25638757.0244855     
   24224843.9780118     
   24123748.4922028     
   23865365.7509994     
   23523650.8492713     
   23149376.8105255     
   22767393.2427397     
   22425761.9176256     
   22138232.0290665     
   21889648.5759425     
   21671380.3929950     
   21479577.2829426     
   21314084.2505047     
   21173118.3252489     
   21049268.1900095     
   20933724.0702087     
   20824489.1149245     
   20723436.9964994     
   20630030.5794082     
   20543119.8894166     
   20461649.7307319     
   20384917.3824188     
   20312413.1151339     
   20243611.7471504     
   20177942.8832143     
   20114843.7736194     
   20053746.7286615     
   19994126.6802841     
   19935491.4633571     
   19877343.9607794     
   19819208.4426658     
   19760687.6419460     
   19701353.3389880     
   19640853.0857063     
   19578878.0618041     
   19515154.1304190     
   19449441.0866039     
   19381551.1371819     
   19311592.1196110     
   19239059.6456344     
   19163562.9101655     
   19084541.7779310     
   19001829.4861390     
   18914834.4198712     
   18840164.3513678     
   18774779.9720026     
   18718231.6618463     
   18671567.5375096     
   18636330.0198069     
   18613629.1745069     
   18600937.6935964     
   18595594.6911704     
   11100000.0000000     
   11100000.0000000     
   11100000.0000000     
   11100000.0000000     
   11100000.0000000     
   11100000.0000000     
   11100000.0000000     
   11100000.0000000     
   11100000.0000000     
   11100000.0000000     
   11100000.0000000     
   11100000.0000000     
   11100000.0000000     
   11100000.0000000     
   11100000.0000000     
   11100000.0000000     
   11100000.0000000     
   11100000.0000000     
   11100000.0000000     
   11100000.0000000     
   11100000.0000000     
   11100000.0000000     
   11100000.0000000     
   11100000.0000000     
   11100000.0000000     
   11100000.0000000     
   11100000.0000000     
   11100000.0000000     
   11100000.0000000     
   11100000.0000000     
   11100000.0000000     
   11100000.0000000     
   11100000.0000000     
   11100000.0000000     
   11100000.0000000     
   11100000.0000000     
   11100000.0000000     
   11100000.0000000     
   11100000.0000000     
   11100000.0000000     
   11100000.0000000     
   11100000.0000000     
   11100000.0000000     
   11100000.0000000     
   11100000.0000000     
   11100000.0000000     
   11100000.0000000     
   11100000.0000000     
   11100000.0000000     
   11100000.0000000     
   11100000.0000000     
VECTORS u double 
    0.00000E+00        -0.32257E-01         0.00000E+00
    0.00000E+00        -0.32011E-01         0.00000E+00
    0.00000E+00        -0.31473E-01         0.00000E+00
    0.00000E+00        -0.30722E-01         0.00000E+00
    0.00000E+00        -0.29820E-01         0.00000E+00
    0.00000E+00        -0.28809E-01         0.00000E+00
    0.00000E+00        -0.27718E-01         0.00000E+00
    0.00000E+00        -0.26572E-01         0.00000E+00
    0.00000E+00        -0.25386E-01         0.00000E+00
    0.00000E+00        -0.24176E-01         0.00000E+00
    0.00000E+00        -0.22953E-01         0.00000E+00
    0.00000E+00        -0.21726E-01         0.00000E+00
    0.00000E+00        -0.20503E-01         0.00000E+00
    0.00000E+00        -0.19291E-01         0.00000E+00
    0.00000E+00        -0.18095E-01         0.00000E+00
    0.00000E+00        -0.16920E-01         0.00000E+00
    0.00000E+00        -0.15770E-01         0.00000E+00
    0.00000E+00        -0.14648E-01         0.00000E+00
    0.00000E+00        -0.13558E-01         0.00000E+00
    0.00000E+00        -0.12502E-01         0.00000E+00
    0.00000E+00        -0.11482E-01         0.00000E+00
    0.00000E+00        -0.10499E-01         0.00000E+00
    0.00000E+00        -0.95563E-02         0.00000E+00
    0.00000E+00        -0.86536E-02         0.00000E+00
    0.00000E+00        -0.77923E-02         0.00000E+00
    0.00000E+00        -0.69730E-02         0.00000E+00
    0.00000E+00        -0.61963E-02         0.00000E+00
    0.00000E+00        -0.54624E-02         0.00000E+00
    0.00000E+00        -0.47714E-02         0.00000E+00
    0.00000E+00        -0.41233E-02         0.00000E+00
    0.00000E+00        -0.35179E-02         0.00000E+00
    0.00000E+00        -0.29548E-02         0.00000E+00
    0.00000E+00        -0.24338E-02         0.00000E+00
    0.00000E+00        -0.19542E-02         0.00000E+00
    0.00000E+00        -0.15154E-02         0.00000E+00
    0.00000E+00        -0.11169E-02         0.00000E+00
    0.00000E+00        -0.75790E-03         0.00000E+00
    0.00000E+00        -0.43781E-03         0.00000E+00
    0.00000E+00        -0.15593E-03         0.00000E+00
    0.00000E+00         0.88307E-04         0.00000E+00
    0.00000E+00         0.29539E-03         0.00000E+00
    0.00000E+00         0.46564E-03         0.00000E+00
    0.00000E+00         0.59909E-03         0.00000E+00
    0.00000E+00         0.69543E-03         0.00000E+00
    0.00000E+00         0.75378E-03         0.00000E+00
    0.00000E+00         0.77242E-03         0.00000E+00
    0.00000E+00         0.74826E-03         0.00000E+00
    0.00000E+00         0.67597E-03         0.00000E+00
    0.00000E+00         0.54590E-03         0.00000E+00
    0.00000E+00         0.33957E-03         0.00000E+00
    0.00000E+00         0.00000E+00         0.00000E+00
    0.50739E-02        -0.33132E-01         0.00000E+00
    0.42260E-02        -0.32492E-01         0.00000E+00
    0.38966E-02        -0.31780E-01         0.00000E+00
    0.37189E-02        -0.30935E-01         0.00000E+00
    0.36073E-02        -0.29974E-01         0.00000E+00
    0.35272E-02        -0.28924E-01         0.00000E+00
    0.34627E-02        -0.27807E-01         0.00000E+00
    0.34058E-02        -0.26640E-01         0.00000E+00
    0.33522E-02        -0.25440E-01         0.00000E+00
    0.32994E-02        -0.24219E-01         0.00000E+00
    0.32462E-02        -0.22987E-01         0.00000E+00
    0.31918E-02        -0.21752E-01         0.00000E+00
    0.31358E-02        -0.20524E-01         0.00000E+00
    0.30781E-02        -0.19307E-01         0.00000E+00
    0.30185E-02        -0.18107E-01         0.00000E+00
    0.29573E-02        -0.16929E-01         0.00000E+00
    0.28944E-02        -0.15776E-01         0.00000E+00
    0.28301E-02        -0.14652E-01         0.00000E+00
    0.27644E-02        -0.13560E-01         0.00000E+00
    0.26977E-02        -0.12502E-01         0.00000E+00
    0.26300E-02        -0.11480E-01         0.00000E+00
    0.25615E-02        -0.10497E-01         0.00000E+00
    0.24925E-02        -0.95528E-02         0.00000E+00
    0.24230E-02        -0.86493E-02         0.00000E+00
    0.23533E-02        -0.77874E-02         0.00000E+00
    0.22835E-02        -0.69676E-02         0.00000E+00
    0.22138E-02        -0.61905E-02         0.00000E+00
    0.21443E-02        -0.54563E-02         0.00000E+00
    0.20751E-02        -0.47652E-02         0.00000E+00
    0.20063E-02        -0.41170E-02         0.00000E+00
    0.19380E-02        -0.35116E-02         0.00000E+00
    0.18703E-02        -0.29487E-02         0.00000E+00
    0.18032E-02        -0.24278E-02         0.00000E+00
    0.17367E-02        -0.19485E-02         0.00000E+00
    0.16708E-02        -0.15100E-02         0.00000E+00
    0.16055E-02        -0.11119E-02         0.00000E+00
    0.15407E-02        -0.75344E-03         0.00000E+00
    0.14761E-02        -0.43391E-03         0.00000E+00
    0.14116E-02        -0.15268E-03         0.00000E+00
    0.13469E-02         0.90817E-04         0.00000E+00
    0.12814E-02         0.29706E-03         0.00000E+00
    0.12146E-02         0.46635E-03         0.00000E+00
    0.11456E-02         0.59870E-03         0.00000E+00
    0.10732E-02         0.69377E-03         0.00000E+00
    0.99575E-03         0.75064E-03         0.00000E+00
    0.91054E-03         0.76750E-03         0.00000E+00
    0.81363E-03         0.74122E-03         0.00000E+00
    0.69836E-03         0.66637E-03         0.00000E+00
    0.55241E-03         0.53335E-03         0.00000E+00
    0.35005E-03         0.32348E-03         0.00000E+00
    0.00000E+00         0.00000E+00         0.00000E+00
    0.91692E-02        -0.34776E-01         0.00000E+00
    0.79049E-02        -0.33672E-01         0.00000E+00
    0.72797E-02        -0.32606E-01         0.00000E+00
    0.69373E-02        -0.31533E-01         0.00000E+00
    0.67225E-02        -0.30421E-01         0.00000E+00
    0.65704E-02        -0.29266E-01         0.00000E+00
    0.64499E-02        -0.28073E-01         0.00000E+00
    0.63448E-02        -0.26850E-01         0.00000E+00
    0.62462E-02        -0.25607E-01         0.00000E+00
    0.61493E-02        -0.24352E-01         0.00000E+00
    0.60513E-02        -0.23094E-01         0.00000E+00
    0.59506E-02        -0.21839E-01         0.00000E+00
    0.58466E-02        -0.20593E-01         0.00000E+00
    0.57389E-02        -0.19361E-01         0.00000E+00
    0.56273E-02        -0.18150E-01         0.00000E+00
    0.55122E-02        -0.16961E-01         0.00000E+00
    0.53936E-02        -0.15800E-01         0.00000E+00
    0.52720E-02        -0.14669E-01         0.00000E+00
    0.51476E-02        -0.13571E-01         0.00000E+00
    0.50208E-02        -0.12508E-01         0.00000E+00
    0.48920E-02        -0.11482E-01         0.00000E+00
    0.47616E-02        -0.10495E-01         0.00000E+00
    0.46299E-02        -0.95482E-02         0.00000E+00
    0.44973E-02        -0.86423E-02         0.00000E+00
    0.43641E-02        -0.77783E-02         0.00000E+00
    0.42307E-02        -0.69570E-02         0.00000E+00
    0.40973E-02        -0.61787E-02         0.00000E+00
    0.39642E-02        -0.54436E-02         0.00000E+00
    0.38317E-02        -0.47519E-02         0.00000E+00
    0.36999E-02        -0.41034E-02         0.00000E+00
    0.35691E-02        -0.34981E-02         0.00000E+00
    0.34394E-02        -0.29354E-02         0.00000E+00
    0.33109E-02        -0.24150E-02         0.00000E+00
    0.31836E-02        -0.19364E-02         0.00000E+00
    0.30575E-02        -0.14990E-02         0.00000E+00
    0.29326E-02        -0.11021E-02         0.00000E+00
    0.28085E-02        -0.74503E-03         0.00000E+00
    0.26851E-02        -0.42718E-03         0.00000E+00
    0.25618E-02        -0.14789E-03         0.00000E+00
    0.24381E-02         0.93401E-04         0.00000E+00
    0.23131E-02         0.29714E-03         0.00000E+00
    0.21856E-02         0.46357E-03         0.00000E+00
    0.20539E-02         0.59267E-03         0.00000E+00
    0.19157E-02         0.68403E-03         0.00000E+00
    0.17676E-02         0.73665E-03         0.00000E+00
    0.16048E-02         0.74866E-03         0.00000E+00
    0.14197E-02         0.71688E-03         0.00000E+00
    0.12001E-02         0.63610E-03         0.00000E+00
    0.92451E-03         0.49777E-03         0.00000E+00
    0.55068E-03         0.28849E-03         0.00000E+00
    0.00000E+00         0.00000E+00         0.00000E+00
    0.12461E-01        -0.36546E-01         0.00000E+00
    0.11092E-01        -0.35107E-01         0.00000E+00
    0.10284E-01        -0.33726E-01         0.00000E+00
    0.97983E-02        -0.32398E-01         0.00000E+00
    0.94844E-02        -0.31094E-01         0.00000E+00
    0.92609E-02        -0.29796E-01         0.00000E+00
    0.90850E-02        -0.28495E-01         0.00000E+00
    0.89330E-02        -0.27189E-01         0.00000E+00
    0.87918E-02        -0.25881E-01         0.00000E+00
    0.86538E-02        -0.24575E-01         0.00000E+00
    0.85146E-02        -0.23275E-01         0.00000E+00
    0.83717E-02        -0.21986E-01         0.00000E+00
    0.82240E-02        -0.20712E-01         0.00000E+00
    0.80707E-02        -0.19458E-01         0.00000E+00
    0.79118E-02        -0.18227E-01         0.00000E+00
    0.77475E-02        -0.17023E-01         0.00000E+00
    0.75780E-02        -0.15848E-01         0.00000E+00
    0.74038E-02        -0.14705E-01         0.00000E+00
    0.72254E-02        -0.13597E-01         0.00000E+00
    0.70434E-02        -0.12526E-01         0.00000E+00
    0.68583E-02        -0.11493E-01         0.00000E+00
    0.66706E-02        -0.10500E-01         0.00000E+00
    0.64810E-02        -0.95478E-02         0.00000E+00
    0.62899E-02        -0.86377E-02         0.00000E+00
    0.60979E-02        -0.77703E-02         0.00000E+00
    0.59054E-02        -0.69463E-02         0.00000E+00
    0.57130E-02        -0.61658E-02         0.00000E+00
    0.55209E-02        -0.54293E-02         0.00000E+00
    0.53295E-02        -0.47365E-02         0.00000E+00
    0.51393E-02        -0.40876E-02         0.00000E+00
    0.49505E-02        -0.34821E-02         0.00000E+00
    0.47632E-02        -0.29198E-02         0.00000E+00
    0.45777E-02        -0.24002E-02         0.00000E+00
    0.43939E-02        -0.19228E-02         0.00000E+00
    0.42120E-02        -0.14869E-02         0.00000E+00
    0.40318E-02        -0.10919E-02         0.00000E+00
    0.38529E-02        -0.73719E-03         0.00000E+00
    0.36750E-02        -0.42204E-03         0.00000E+00
    0.34975E-02        -0.14586E-03         0.00000E+00
    0.33194E-02         0.91889E-04         0.00000E+00
    0.31395E-02         0.29162E-03         0.00000E+00
    0.29562E-02         0.45356E-03         0.00000E+00
    0.27669E-02         0.57764E-03         0.00000E+00
    0.25684E-02         0.66340E-03         0.00000E+00
    0.23560E-02         0.70986E-03         0.00000E+00
    0.21229E-02         0.71524E-03         0.00000E+00
    0.18589E-02         0.67674E-03         0.00000E+00
    0.15481E-02         0.59019E-03         0.00000E+00
    0.11652E-02         0.45009E-03         0.00000E+00
    0.66903E-03         0.25213E-03         0.00000E+00
    0.00000E+00         0.00000E+00         0.00000E+00
    0.15190E-01        -0.38213E-01         0.00000E+00
    0.13869E-01        -0.36547E-01         0.00000E+00
    0.12985E-01        -0.34935E-01         0.00000E+00
    0.12399E-01        -0.33392E-01         0.00000E+00
    0.11998E-01        -0.31905E-01         0.00000E+00
    0.11704E-01        -0.30457E-01         0.00000E+00
    0.11470E-01        -0.29035E-01         0.00000E+00
    0.11269E-01        -0.27632E-01         0.00000E+00
    0.11083E-01        -0.26246E-01         0.00000E+00
    0.10903E-01        -0.24876E-01         0.00000E+00
    0.10723E-01        -0.23524E-01         0.00000E+00
    0.10539E-01        -0.22191E-01         0.00000E+00
    0.10349E-01        -0.20881E-01         0.00000E+00
    0.10152E-01        -0.19597E-01         0.00000E+00
    0.99474E-02        -0.18340E-01         0.00000E+00
    0.97363E-02        -0.17114E-01         0.00000E+00
    0.95185E-02        -0.15921E-01         0.00000E+00
    0.92946E-02        -0.14762E-01         0.00000E+00
    0.90652E-02        -0.13641E-01         0.00000E+00
    0.88310E-02        -0.12558E-01         0.00000E+00
    0.85927E-02        -0.11515E-01         0.00000E+00
    0.83510E-02        -0.10514E-01         0.00000E+00
    0.81066E-02        -0.95550E-02         0.00000E+00
    0.78604E-02        -0.86391E-02         0.00000E+00
    0.76128E-02        -0.77670E-02         0.00000E+00
    0.73645E-02        -0.69391E-02         0.00000E+00
    0.71162E-02        -0.61557E-02         0.00000E+00
    0.68684E-02        -0.54169E-02         0.00000E+00
    0.66215E-02        -0.47228E-02         0.00000E+00
    0.63761E-02        -0.40730E-02         0.00000E+00
    0.61325E-02        -0.34673E-02         0.00000E+00
    0.58909E-02        -0.29055E-02         0.00000E+00
    0.56517E-02        -0.23868E-02         0.00000E+00
    0.54148E-02        -0.19109E-02         0.00000E+00
    0.51803E-02        -0.14770E-02         0.00000E+00
    0.49480E-02        -0.10846E-02         0.00000E+00
    0.47177E-02        -0.73293E-03         0.00000E+00
    0.44887E-02        -0.42135E-03         0.00000E+00
    0.42603E-02        -0.14926E-03         0.00000E+00
    0.40314E-02         0.83867E-04         0.00000E+00
    0.38003E-02         0.27844E-03         0.00000E+00
    0.35649E-02         0.43468E-03         0.00000E+00
    0.33223E-02         0.55254E-03         0.00000E+00
    0.30683E-02         0.63163E-03         0.00000E+00
    0.27972E-02         0.67114E-03         0.00000E+00
    0.25008E-02         0.66968E-03         0.00000E+00
    0.21677E-02         0.62533E-03         0.00000E+00
    0.17806E-02         0.53574E-03         0.00000E+00
    0.13149E-02         0.39928E-03         0.00000E+00
    0.73601E-03         0.21755E-03         0.00000E+00
    0.00000E+00         0.00000E+00         0.00000E+00
    0.17544E-01        -0.39694E-01         0.00000E+00
    0.16338E-01        -0.37881E-01         0.00000E+00
    0.15448E-01        -0.36113E-01         0.00000E+00
    0.14806E-01        -0.34409E-01         0.00000E+00
    0.14335E-01        -0.32770E-01         0.00000E+00
    0.13976E-01        -0.31187E-01         0.00000E+00
    0.13684E-01        -0.29648E-01         0.00000E+00
    0.13431E-01        -0.28147E-01         0.00000E+00
    0.13198E-01        -0.26678E-01         0.00000E+00
    0.12973E-01        -0.25239E-01         0.00000E+00
    0.12749E-01        -0.23828E-01         0.00000E+00
    0.12522E-01        -0.22446E-01         0.00000E+00
    0.12289E-01        -0.21094E-01         0.00000E+00
    0.12048E-01        -0.19774E-01         0.00000E+00
    0.11798E-01        -0.18486E-01         0.00000E+00
    0.11541E-01        -0.17234E-01         0.00000E+00
    0.11276E-01        -0.16018E-01         0.00000E+00
    0.11004E-01        -0.14841E-01         0.00000E+00
    0.10725E-01        -0.13703E-01         0.00000E+00
    0.10440E-01        -0.12606E-01         0.00000E+00
    0.10150E-01        -0.11551E-01         0.00000E+00
    0.98561E-02        -0.10540E-01         0.00000E+00
    0.95590E-02        -0.95718E-02         0.00000E+00
    0.92595E-02        -0.86487E-02         0.00000E+00
    0.89585E-02        -0.77706E-02         0.00000E+00
    0.86566E-02        -0.69378E-02         0.00000E+00
    0.83547E-02        -0.61507E-02         0.00000E+00
    0.80533E-02        -0.54091E-02         0.00000E+00
    0.77532E-02        -0.47129E-02         0.00000E+00
    0.74548E-02        -0.40621E-02         0.00000E+00
    0.71586E-02        -0.34561E-02         0.00000E+00
    0.68651E-02        -0.28946E-02         0.00000E+00
    0.65743E-02        -0.23771E-02         0.00000E+00
    0.62866E-02        -0.19029E-02         0.00000E+00
    0.60019E-02        -0.14715E-02         0.00000E+00
    0.57200E-02        -0.10821E-02         0.00000E+00
    0.54405E-02        -0.73401E-03         0.00000E+00
    0.51629E-02        -0.42667E-03         0.00000E+00
    0.48862E-02        -0.15939E-03         0.00000E+00
    0.46090E-02         0.68371E-04         0.00000E+00
    0.43295E-02         0.25704E-03         0.00000E+00
    0.40453E-02         0.40690E-03         0.00000E+00
    0.37528E-02         0.51801E-03         0.00000E+00
    0.34474E-02         0.59020E-03         0.00000E+00
    0.31227E-02         0.62299E-03         0.00000E+00
    0.27702E-02         0.61570E-03         0.00000E+00
    0.23777E-02         0.56757E-03         0.00000E+00
    0.19289E-02         0.47834E-03         0.00000E+00
    0.14021E-02         0.34942E-03         0.00000E+00
    0.76962E-03         0.18603E-03         0.00000E+00
    0.00000E+00         0.00000E+00         0.00000E+00
    0.19661E-01        -0.40970E-01         0.00000E+00
    0.18590E-01        -0.39069E-01         0.00000E+00
    0.17734E-01        -0.37200E-01         0.00000E+00
    0.17068E-01        -0.35385E-01         0.00000E+00
    0.16549E-01        -0.33631E-01         0.00000E+00
    0.16133E-01        -0.31936E-01         0.00000E+00
    0.15784E-01        -0.30296E-01         0.00000E+00
    0.15478E-01        -0.28703E-01         0.00000E+00
    0.15194E-01        -0.27154E-01         0.00000E+00
    0.14921E-01        -0.25645E-01         0.00000E+00
    0.14651E-01        -0.24173E-01         0.00000E+00
    0.14379E-01        -0.22739E-01         0.00000E+00
    0.14100E-01        -0.21342E-01         0.00000E+00
    0.13813E-01        -0.19983E-01         0.00000E+00
    0.13518E-01        -0.18662E-01         0.00000E+00
    0.13214E-01        -0.17380E-01         0.00000E+00
    0.12901E-01        -0.16139E-01         0.00000E+00
    0.12580E-01        -0.14940E-01         0.00000E+00
    0.12251E-01        -0.13783E-01         0.00000E+00
    0.11916E-01        -0.12670E-01         0.00000E+00
    0.11576E-01        -0.11601E-01         0.00000E+00
    0.11231E-01        -0.10577E-01         0.00000E+00
    0.10882E-01        -0.95991E-02         0.00000E+00
    0.10530E-01        -0.86674E-02         0.00000E+00
    0.10177E-01        -0.77822E-02         0.00000E+00
    0.98223E-02        -0.69437E-02         0.00000E+00
    0.94679E-02        -0.61520E-02         0.00000E+00
    0.91144E-02        -0.54070E-02         0.00000E+00
    0.87623E-02        -0.47085E-02         0.00000E+00
    0.84124E-02        -0.40563E-02         0.00000E+00
    0.80651E-02        -0.34498E-02         0.00000E+00
    0.77210E-02        -0.28887E-02         0.00000E+00
    0.73803E-02        -0.23723E-02         0.00000E+00
    0.70433E-02        -0.19000E-02         0.00000E+00
    0.67098E-02        -0.14712E-02         0.00000E+00
    0.63799E-02        -0.10852E-02         0.00000E+00
    0.60529E-02        -0.74117E-03         0.00000E+00
    0.57284E-02        -0.43847E-03         0.00000E+00
    0.54051E-02        -0.17644E-03         0.00000E+00
    0.50817E-02         0.45542E-04         0.00000E+00
    0.47560E-02         0.22798E-03         0.00000E+00
    0.44253E-02         0.37129E-03         0.00000E+00
    0.40859E-02         0.47573E-03         0.00000E+00
    0.37329E-02         0.54144E-03         0.00000E+00
    0.33596E-02         0.56850E-03         0.00000E+00
    0.29574E-02         0.55703E-03         0.00000E+00
    0.25149E-02         0.50753E-03         0.00000E+00
    0.20174E-02         0.42154E-03         0.00000E+00
    0.14466E-02         0.30263E-03         0.00000E+00
    0.78159E-03         0.15797E-03         0.00000E+00
    0.00000E+00         0.00000E+00         0.00000E+00
    0.21637E-01        -0.42057E-01         0.00000E+00
    0.20697E-01        -0.40104E-01         0.00000E+00
    0.19894E-01        -0.38174E-01         0.00000E+00
    0.19227E-01        -0.36285E-01         0.00000E+00
    0.18675E-01        -0.34449E-01         0.00000E+00
    0.18212E-01        -0.32669E-01         0.00000E+00
    0.17812E-01        -0.30944E-01         0.00000E+00
    0.17452E-01        -0.29272E-01         0.00000E+00
    0.17117E-01        -0.27650E-01         0.00000E+00
    0.16793E-01        -0.26075E-01         0.00000E+00
    0.16474E-01        -0.24545E-01         0.00000E+00
    0.16152E-01        -0.23059E-01         0.00000E+00
    0.15826E-01        -0.21616E-01         0.00000E+00
    0.15491E-01        -0.20216E-01         0.00000E+00
    0.15148E-01        -0.18860E-01         0.00000E+00
    0.14795E-01        -0.17547E-01         0.00000E+00
    0.14433E-01        -0.16279E-01         0.00000E+00
    0.14063E-01        -0.15056E-01         0.00000E+00
    0.13684E-01        -0.13879E-01         0.00000E+00
    0.13299E-01        -0.12747E-01         0.00000E+00
    0.12907E-01        -0.11663E-01         0.00000E+00
    0.12510E-01        -0.10626E-01         0.00000E+00
    0.12110E-01        -0.96367E-02         0.00000E+00
    0.11706E-01        -0.86954E-02         0.00000E+00
    0.11301E-01        -0.78022E-02         0.00000E+00
    0.10894E-01        -0.69572E-02         0.00000E+00
    0.10488E-01        -0.61603E-02         0.00000E+00
    0.10083E-01        -0.54114E-02         0.00000E+00
    0.96798E-02        -0.47101E-02         0.00000E+00
    0.92790E-02        -0.40562E-02         0.00000E+00
    0.88814E-02        -0.34490E-02         0.00000E+00
    0.84875E-02        -0.28882E-02         0.00000E+00
    0.80977E-02        -0.23729E-02         0.00000E+00
    0.77122E-02        -0.19027E-02         0.00000E+00
    0.73310E-02        -0.14767E-02         0.00000E+00
    0.69540E-02        -0.10941E-02         0.00000E+00
    0.65807E-02        -0.75433E-03         0.00000E+00
    0.62103E-02        -0.45648E-03         0.00000E+00
    0.58418E-02        -0.19984E-03         0.00000E+00
    0.54735E-02         0.16283E-04         0.00000E+00
    0.51034E-02         0.19255E-03         0.00000E+00
    0.47284E-02         0.32955E-03         0.00000E+00
    0.43447E-02         0.42784E-03         0.00000E+00
    0.39474E-02         0.48799E-03         0.00000E+00
    0.35300E-02         0.51066E-03         0.00000E+00
    0.30842E-02         0.49684E-03         0.00000E+00
    0.25998E-02         0.44816E-03         0.00000E+00
    0.20643E-02         0.36753E-03         0.00000E+00
    0.14628E-02         0.25991E-03         0.00000E+00
    0.77983E-03         0.13337E-03         0.00000E+00
    0.00000E+00         0.00000E+00         0.00000E+00
    0.23540E-01        -0.42980E-01         0.00000E+00
    0.22716E-01        -0.40999E-01         0.00000E+00
    0.21970E-01        -0.39034E-01         0.00000E+00
    0.21314E-01        -0.37098E-01         0.00000E+00
    0.20743E-01        -0.35205E-01         0.00000E+00
    0.20242E-01        -0.33362E-01         0.00000E+00
    0.19795E-01        -0.31571E-01         0.00000E+00
    0.19384E-01        -0.29834E-01         0.00000E+00
    0.18996E-01        -0.28148E-01         0.00000E+00
    0.18620E-01        -0.26514E-01         0.00000E+00
    0.18249E-01        -0.24930E-01         0.00000E+00
    0.17877E-01        -0.23394E-01         0.00000E+00
    0.17499E-01        -0.21907E-01         0.00000E+00
    0.17114E-01        -0.20467E-01         0.00000E+00
    0.16721E-01        -0.19075E-01         0.00000E+00
    0.16317E-01        -0.17731E-01         0.00000E+00
    0.15905E-01        -0.16435E-01         0.00000E+00
    0.15483E-01        -0.15187E-01         0.00000E+00
    0.15054E-01        -0.13988E-01         0.00000E+00
    0.14617E-01        -0.12837E-01         0.00000E+00
    0.14173E-01        -0.11737E-01         0.00000E+00
    0.13724E-01        -0.10685E-01         0.00000E+00
    0.13271E-01        -0.96837E-02         0.00000E+00
    0.12815E-01        -0.87319E-02         0.00000E+00
    0.12358E-01        -0.78300E-02         0.00000E+00
    0.11899E-01        -0.69779E-02         0.00000E+00
    0.11441E-01        -0.61753E-02         0.00000E+00
    0.10985E-01        -0.54221E-02         0.00000E+00
    0.10530E-01        -0.47177E-02         0.00000E+00
    0.10079E-01        -0.40618E-02         0.00000E+00
    0.96309E-02        -0.34538E-02         0.00000E+00
    0.91875E-02        -0.28930E-02         0.00000E+00
    0.87489E-02        -0.23789E-02         0.00000E+00
    0.83154E-02        -0.19106E-02         0.00000E+00
    0.78869E-02        -0.14874E-02         0.00000E+00
    0.74633E-02        -0.11084E-02         0.00000E+00
    0.70442E-02        -0.77285E-03         0.00000E+00
    0.66288E-02        -0.47982E-03         0.00000E+00
    0.62159E-02        -0.22850E-03         0.00000E+00
    0.58040E-02        -0.18041E-04         0.00000E+00
    0.53906E-02         0.15240E-03         0.00000E+00
    0.49731E-02         0.28365E-03         0.00000E+00
    0.45475E-02         0.37663E-03         0.00000E+00
    0.41090E-02         0.43235E-03         0.00000E+00
    0.36515E-02         0.45208E-03         0.00000E+00
    0.31676E-02         0.43760E-03         0.00000E+00
    0.26483E-02         0.39148E-03         0.00000E+00
    0.20832E-02         0.31759E-03         0.00000E+00
    0.14609E-02         0.22170E-03         0.00000E+00
    0.76981E-03         0.11208E-03         0.00000E+00
    0.00000E+00         0.00000E+00         0.00000E+00
    0.25411E-01        -0.43769E-01         0.00000E+00
    0.24685E-01        -0.41774E-01         0.00000E+00
    0.23992E-01        -0.39788E-01         0.00000E+00
    0.23353E-01        -0.37824E-01         0.00000E+00
    0.22771E-01        -0.35893E-01         0.00000E+00
    0.22241E-01        -0.34004E-01         0.00000E+00
    0.21752E-01        -0.32163E-01         0.00000E+00
    0.21293E-01        -0.30372E-01         0.00000E+00
    0.20854E-01        -0.28634E-01         0.00000E+00
    0.20425E-01        -0.26949E-01         0.00000E+00
    0.20001E-01        -0.25316E-01         0.00000E+00
    0.19575E-01        -0.23735E-01         0.00000E+00
    0.19145E-01        -0.22205E-01         0.00000E+00
    0.18707E-01        -0.20727E-01         0.00000E+00
    0.18261E-01        -0.19301E-01         0.00000E+00
    0.17805E-01        -0.17925E-01         0.00000E+00
    0.17340E-01        -0.16601E-01         0.00000E+00
    0.16865E-01        -0.15328E-01         0.00000E+00
    0.16383E-01        -0.14107E-01         0.00000E+00
    0.15893E-01        -0.12937E-01         0.00000E+00
    0.15396E-01        -0.11819E-01         0.00000E+00
    0.14894E-01        -0.10753E-01         0.00000E+00
    0.14388E-01        -0.97386E-02         0.00000E+00
    0.13879E-01        -0.87759E-02         0.00000E+00
    0.13368E-01        -0.78648E-02         0.00000E+00
    0.12857E-01        -0.70051E-02         0.00000E+00
    0.12347E-01        -0.61964E-02         0.00000E+00
    0.11838E-01        -0.54384E-02         0.00000E+00
    0.11332E-01        -0.47307E-02         0.00000E+00
    0.10830E-01        -0.40726E-02         0.00000E+00
    0.10332E-01        -0.34635E-02         0.00000E+00
    0.98387E-02        -0.29028E-02         0.00000E+00
    0.93513E-02        -0.23896E-02         0.00000E+00
    0.88698E-02        -0.19232E-02         0.00000E+00
    0.83941E-02        -0.15027E-02         0.00000E+00
    0.79242E-02        -0.11272E-02         0.00000E+00
    0.74596E-02        -0.79572E-03         0.00000E+00
    0.69996E-02        -0.50733E-03         0.00000E+00
    0.65430E-02        -0.26105E-03         0.00000E+00
    0.60882E-02        -0.55848E-04         0.00000E+00
    0.56329E-02         0.10932E-03         0.00000E+00
    0.51744E-02         0.23558E-03         0.00000E+00
    0.47089E-02         0.32421E-03         0.00000E+00
    0.42320E-02         0.37667E-03         0.00000E+00
    0.37381E-02         0.39483E-03         0.00000E+00
    0.32207E-02         0.38111E-03         0.00000E+00
    0.26722E-02         0.33879E-03         0.00000E+00
    0.20841E-02         0.27240E-03         0.00000E+00
    0.14478E-02         0.18805E-03         0.00000E+00
    0.75523E-03         0.93849E-04         0.00000E+00
    0.00000E+00         0.00000E+00         0.00000E+00
    0.27278E-01        -0.44453E-01         0.00000E+00
    0.26630E-01        -0.42449E-01         0.00000E+00
    0.25985E-01        -0.40451E-01         0.00000E+00
    0.25364E-01        -0.38469E-01         0.00000E+00
    0.24776E-01        -0.36512E-01         0.00000E+00
    0.24222E-01        -0.34590E-01         0.00000E+00
    0.23696E-01        -0.32711E-01         0.00000E+00
    0.23192E-01        -0.30879E-01         0.00000E+00
    0.22703E-01        -0.29098E-01         0.00000E+00
    0.22222E-01        -0.27369E-01         0.00000E+00
    0.21744E-01        -0.25693E-01         0.00000E+00
    0.21264E-01        -0.24072E-01         0.00000E+00
    0.20779E-01        -0.22504E-01         0.00000E+00
    0.20286E-01        -0.20990E-01         0.00000E+00
    0.19785E-01        -0.19531E-01         0.00000E+00
    0.19275E-01        -0.18125E-01         0.00000E+00
    0.18755E-01        -0.16774E-01         0.00000E+00
    0.18226E-01        -0.15477E-01         0.00000E+00
    0.17689E-01        -0.14233E-01         0.00000E+00
    0.17144E-01        -0.13044E-01         0.00000E+00
    0.16592E-01        -0.11909E-01         0.00000E+00
    0.16036E-01        -0.10827E-01         0.00000E+00
    0.15476E-01        -0.97998E-02         0.00000E+00
    0.14912E-01        -0.88259E-02         0.00000E+00
    0.14348E-01        -0.79052E-02         0.00000E+00
    0.13783E-01        -0.70376E-02         0.00000E+00
    0.13220E-01        -0.62226E-02         0.00000E+00
    0.12658E-01        -0.54597E-02         0.00000E+00
    0.12100E-01        -0.47483E-02         0.00000E+00
    0.11546E-01        -0.40878E-02         0.00000E+00
    0.10998E-01        -0.34775E-02         0.00000E+00
    0.10455E-01        -0.29166E-02         0.00000E+00
    0.99182E-02        -0.24043E-02         0.00000E+00
    0.93884E-02        -0.19396E-02         0.00000E+00
    0.88655E-02        -0.15216E-02         0.00000E+00
    0.83492E-02        -0.11494E-02         0.00000E+00
    0.78393E-02        -0.82174E-03         0.00000E+00
    0.73350E-02        -0.53766E-03         0.00000E+00
    0.68351E-02        -0.29599E-03         0.00000E+00
    0.63381E-02        -0.95524E-04         0.00000E+00
    0.58419E-02         0.65047E-04         0.00000E+00
    0.53438E-02         0.18715E-03         0.00000E+00
    0.48404E-02         0.27240E-03         0.00000E+00
    0.43275E-02         0.32272E-03         0.00000E+00
    0.38004E-02         0.34046E-03         0.00000E+00
    0.32534E-02         0.32857E-03         0.00000E+00
    0.26801E-02         0.29086E-03         0.00000E+00
    0.20740E-02         0.23221E-03         0.00000E+00
    0.14287E-02         0.15882E-03         0.00000E+00
    0.73860E-03         0.78374E-04         0.00000E+00
    0.00000E+00         0.00000E+00         0.00000E+00
    0.29155E-01        -0.45054E-01         0.00000E+00
    0.28570E-01        -0.43044E-01         0.00000E+00
    0.27965E-01        -0.41038E-01         0.00000E+00
    0.27361E-01        -0.39043E-01         0.00000E+00
    0.26769E-01        -0.37068E-01         0.00000E+00
    0.26194E-01        -0.35123E-01         0.00000E+00
    0.25635E-01        -0.33215E-01         0.00000E+00
    0.25090E-01        -0.31350E-01         0.00000E+00
    0.24553E-01        -0.29534E-01         0.00000E+00
    0.24021E-01        -0.27768E-01         0.00000E+00
    0.23489E-01        -0.26056E-01         0.00000E+00
    0.22954E-01        -0.24399E-01         0.00000E+00
    0.22413E-01        -0.22797E-01         0.00000E+00
    0.21864E-01        -0.21250E-01         0.00000E+00
    0.21307E-01        -0.19760E-01         0.00000E+00
    0.20739E-01        -0.18326E-01         0.00000E+00
    0.20163E-01        -0.16949E-01         0.00000E+00
    0.19578E-01        -0.15628E-01         0.00000E+00
    0.18984E-01        -0.14363E-01         0.00000E+00
    0.18383E-01        -0.13155E-01         0.00000E+00
    0.17775E-01        -0.12003E-01         0.00000E+00
    0.17163E-01        -0.10906E-01         0.00000E+00
    0.16546E-01        -0.98654E-02         0.00000E+00
    0.15928E-01        -0.88801E-02         0.00000E+00
    0.15308E-01        -0.79498E-02         0.00000E+00
    0.14689E-01        -0.70742E-02         0.00000E+00
    0.14071E-01        -0.62526E-02         0.00000E+00
    0.13456E-01        -0.54846E-02         0.00000E+00
    0.12845E-01        -0.47694E-02         0.00000E+00
    0.12239E-01        -0.41064E-02         0.00000E+00
    0.11639E-01        -0.34947E-02         0.00000E+00
    0.11046E-01        -0.29335E-02         0.00000E+00
    0.10460E-01        -0.24218E-02         0.00000E+00
    0.98812E-02        -0.19587E-02         0.00000E+00
    0.93107E-02        -0.15430E-02         0.00000E+00
    0.87480E-02        -0.11737E-02         0.00000E+00
    0.81927E-02        -0.84961E-03         0.00000E+00
    0.76442E-02        -0.56944E-03         0.00000E+00
    0.71014E-02        -0.33189E-03         0.00000E+00
    0.65628E-02        -0.13555E-03         0.00000E+00
    0.60266E-02         0.21141E-04         0.00000E+00
    0.54902E-02         0.13990E-03         0.00000E+00
    0.49505E-02         0.22270E-03         0.00000E+00
    0.44039E-02         0.27183E-03         0.00000E+00
    0.38463E-02         0.29006E-03         0.00000E+00
    0.32728E-02         0.28076E-03         0.00000E+00
    0.26784E-02         0.24805E-03         0.00000E+00
    0.20580E-02         0.19700E-03         0.00000E+00
    0.14069E-02         0.13372E-03         0.00000E+00
    0.72151E-03         0.65357E-04         0.00000E+00
    0.00000E+00         0.00000E+00         0.00000E+00
    0.31054E-01        -0.45592E-01         0.00000E+00
    0.30516E-01        -0.43576E-01         0.00000E+00
    0.29942E-01        -0.41563E-01         0.00000E+00
    0.29352E-01        -0.39558E-01         0.00000E+00
    0.28757E-01        -0.37569E-01         0.00000E+00
    0.28165E-01        -0.35605E-01         0.00000E+00
    0.27576E-01        -0.33675E-01         0.00000E+00
    0.26992E-01        -0.31784E-01         0.00000E+00
    0.26410E-01        -0.29939E-01         0.00000E+00
    0.25828E-01        -0.28143E-01         0.00000E+00
    0.25242E-01        -0.26400E-01         0.00000E+00
    0.24652E-01        -0.24711E-01         0.00000E+00
    0.24054E-01        -0.23079E-01         0.00000E+00
    0.23448E-01        -0.21503E-01         0.00000E+00
    0.22832E-01        -0.19985E-01         0.00000E+00
    0.22207E-01        -0.18525E-01         0.00000E+00
    0.21573E-01        -0.17123E-01         0.00000E+00
    0.20929E-01        -0.15780E-01         0.00000E+00
    0.20277E-01        -0.14494E-01         0.00000E+00
    0.19618E-01        -0.13267E-01         0.00000E+00
    0.18952E-01        -0.12098E-01         0.00000E+00
    0.18282E-01        -0.10987E-01         0.00000E+00
    0.17609E-01        -0.99335E-02         0.00000E+00
    0.16934E-01        -0.89370E-02         0.00000E+00
    0.16257E-01        -0.79971E-02         0.00000E+00
    0.15582E-01        -0.71134E-02         0.00000E+00
    0.14909E-01        -0.62853E-02         0.00000E+00
    0.14240E-01        -0.55120E-02         0.00000E+00
    0.13575E-01        -0.47930E-02         0.00000E+00
    0.12916E-01        -0.41273E-02         0.00000E+00
    0.12264E-01        -0.35141E-02         0.00000E+00
    0.11619E-01        -0.29524E-02         0.00000E+00
    0.10983E-01        -0.24411E-02         0.00000E+00
    0.10355E-01        -0.19793E-02         0.00000E+00
    0.97370E-02        -0.15657E-02         0.00000E+00
    0.91275E-02        -0.11990E-02         0.00000E+00
    0.85267E-02        -0.87808E-03         0.00000E+00
    0.79341E-02        -0.60137E-03         0.00000E+00
    0.73487E-02        -0.36741E-03         0.00000E+00
    0.67692E-02        -0.17458E-03         0.00000E+00
    0.61937E-02        -0.21071E-04         0.00000E+00
    0.56201E-02         0.95107E-04         0.00000E+00
    0.50457E-02         0.17624E-03         0.00000E+00
    0.44674E-02         0.22495E-03         0.00000E+00
    0.38814E-02         0.24434E-03         0.00000E+00
    0.32841E-02         0.23806E-03         0.00000E+00
    0.26713E-02         0.21045E-03         0.00000E+00
    0.20392E-02         0.16660E-03         0.00000E+00
    0.13845E-02         0.11241E-03         0.00000E+00
    0.70496E-03         0.54503E-04         0.00000E+00
    0.00000E+00         0.00000E+00         0.00000E+00
    0.32978E-01        -0.46083E-01         0.00000E+00
    0.32476E-01        -0.44060E-01         0.00000E+00
    0.31927E-01        -0.42038E-01         0.00000E+00
    0.31347E-01        -0.40023E-01         0.00000E+00
    0.30748E-01        -0.38022E-01         0.00000E+00
    0.30138E-01        -0.36043E-01         0.00000E+00
    0.29522E-01        -0.34094E-01         0.00000E+00
    0.28901E-01        -0.32183E-01         0.00000E+00
    0.28275E-01        -0.30314E-01         0.00000E+00
    0.27644E-01        -0.28492E-01         0.00000E+00
    0.27007E-01        -0.26723E-01         0.00000E+00
    0.26361E-01        -0.25007E-01         0.00000E+00
    0.25706E-01        -0.23347E-01         0.00000E+00
    0.25042E-01        -0.21745E-01         0.00000E+00
    0.24368E-01        -0.20202E-01         0.00000E+00
    0.23683E-01        -0.18718E-01         0.00000E+00
    0.22989E-01        -0.17293E-01         0.00000E+00
    0.22285E-01        -0.15928E-01         0.00000E+00
    0.21574E-01        -0.14624E-01         0.00000E+00
    0.20855E-01        -0.13379E-01         0.00000E+00
    0.20131E-01        -0.12194E-01         0.00000E+00
    0.19401E-01        -0.11069E-01         0.00000E+00
    0.18669E-01        -0.10002E-01         0.00000E+00
    0.17936E-01        -0.89949E-02         0.00000E+00
    0.17202E-01        -0.80456E-02         0.00000E+00
    0.16470E-01        -0.71539E-02         0.00000E+00
    0.15740E-01        -0.63193E-02         0.00000E+00
    0.15015E-01        -0.55408E-02         0.00000E+00
    0.14295E-01        -0.48178E-02         0.00000E+00
    0.13582E-01        -0.41494E-02         0.00000E+00
    0.12877E-01        -0.35345E-02         0.00000E+00
    0.12181E-01        -0.29721E-02         0.00000E+00
    0.11494E-01        -0.24612E-02         0.00000E+00
    0.10816E-01        -0.20004E-02         0.00000E+00
    0.10150E-01        -0.15885E-02         0.00000E+00
    0.94931E-02        -0.12242E-02         0.00000E+00
    0.88467E-02        -0.90598E-03         0.00000E+00
    0.82101E-02        -0.63226E-03         0.00000E+00
    0.75823E-02        -0.40137E-03         0.00000E+00
    0.69622E-02        -0.21146E-03         0.00000E+00
    0.63483E-02        -0.60514E-04         0.00000E+00
    0.57386E-02         0.53740E-04         0.00000E+00
    0.51308E-02         0.13385E-03         0.00000E+00
    0.45223E-02         0.18271E-03         0.00000E+00
    0.39100E-02         0.20368E-03         0.00000E+00
    0.32909E-02         0.20061E-03         0.00000E+00
    0.26618E-02         0.17793E-03         0.00000E+00
    0.20198E-02         0.14070E-03         0.00000E+00
    0.13628E-02         0.94538E-04         0.00000E+00
    0.68950E-03         0.45538E-04         0.00000E+00
    0.00000E+00         0.00000E+00         0.00000E+00
    0.34931E-01        -0.46539E-01         0.00000E+00
    0.34455E-01        -0.44506E-01         0.00000E+00
    0.33923E-01        -0.42474E-01         0.00000E+00
    0.33350E-01        -0.40449E-01         0.00000E+00
    0.32745E-01        -0.38436E-01         0.00000E+00
    0.32119E-01        -0.36443E-01         0.00000E+00
    0.31476E-01        -0.34478E-01         0.00000E+00
    0.30820E-01        -0.32548E-01         0.00000E+00
    0.30152E-01        -0.30659E-01         0.00000E+00
    0.29474E-01        -0.28816E-01         0.00000E+00
    0.28784E-01        -0.27023E-01         0.00000E+00
    0.28084E-01        -0.25284E-01         0.00000E+00
    0.27372E-01        -0.23600E-01         0.00000E+00
    0.26650E-01        -0.21975E-01         0.00000E+00
    0.25915E-01        -0.20408E-01         0.00000E+00
    0.25171E-01        -0.18902E-01         0.00000E+00
    0.24415E-01        -0.17457E-01         0.00000E+00
    0.23651E-01        -0.16072E-01         0.00000E+00
    0.22878E-01        -0.14750E-01         0.00000E+00
    0.22099E-01        -0.13488E-01         0.00000E+00
    0.21313E-01        -0.12288E-01         0.00000E+00
    0.20524E-01        -0.11149E-01         0.00000E+00
    0.19732E-01        -0.10071E-01         0.00000E+00
    0.18938E-01        -0.90525E-02         0.00000E+00
    0.18146E-01        -0.80940E-02         0.00000E+00
    0.17355E-01        -0.71945E-02         0.00000E+00
    0.16568E-01        -0.63534E-02         0.00000E+00
    0.15786E-01        -0.55698E-02         0.00000E+00
    0.15010E-01        -0.48429E-02         0.00000E+00
    0.14243E-01        -0.41716E-02         0.00000E+00
    0.13483E-01        -0.35549E-02         0.00000E+00
    0.12734E-01        -0.29918E-02         0.00000E+00
    0.11996E-01        -0.24809E-02         0.00000E+00
    0.11268E-01        -0.20209E-02         0.00000E+00
    0.10552E-01        -0.16105E-02         0.00000E+00
    0.98486E-02        -0.12482E-02         0.00000E+00
    0.91565E-02        -0.93229E-03         0.00000E+00
    0.84758E-02        -0.66113E-03         0.00000E+00
    0.78059E-02        -0.43281E-03         0.00000E+00
    0.71457E-02        -0.24530E-03         0.00000E+00
    0.64940E-02        -0.96363E-04         0.00000E+00
    0.58492E-02         0.16502E-04         0.00000E+00
    0.52092E-02         0.96071E-04         0.00000E+00
    0.45719E-02         0.14547E-03         0.00000E+00
    0.39348E-02         0.16824E-03         0.00000E+00
    0.32956E-02         0.16835E-03         0.00000E+00
    0.26517E-02         0.15027E-03         0.00000E+00
    0.20013E-02         0.11895E-03         0.00000E+00
    0.13427E-02         0.79729E-04         0.00000E+00
    0.67537E-03         0.38210E-04         0.00000E+00
    0.00000E+00         0.00000E+00         0.00000E+00
    0.36914E-01        -0.46970E-01         0.00000E+00
    0.36457E-01        -0.44924E-01         0.00000E+00
    0.35936E-01        -0.42880E-01         0.00000E+00
    0.35365E-01        -0.40842E-01         0.00000E+00
    0.34753E-01        -0.38817E-01         0.00000E+00
    0.34110E-01        -0.36811E-01         0.00000E+00
    0.33440E-01        -0.34831E-01         0.00000E+00
    0.32750E-01        -0.32884E-01         0.00000E+00
    0.32041E-01        -0.30977E-01         0.00000E+00
    0.31316E-01        -0.29115E-01         0.00000E+00
    0.30576E-01        -0.27302E-01         0.00000E+00
    0.29821E-01        -0.25541E-01         0.00000E+00
    0.29053E-01        -0.23837E-01         0.00000E+00
    0.28271E-01        -0.22190E-01         0.00000E+00
    0.27477E-01        -0.20603E-01         0.00000E+00
    0.26671E-01        -0.19077E-01         0.00000E+00
    0.25854E-01        -0.17612E-01         0.00000E+00
    0.25028E-01        -0.16210E-01         0.00000E+00
    0.24193E-01        -0.14870E-01         0.00000E+00
    0.23351E-01        -0.13593E-01         0.00000E+00
    0.22503E-01        -0.12379E-01         0.00000E+00
    0.21652E-01        -0.11227E-01         0.00000E+00
    0.20798E-01        -0.10137E-01         0.00000E+00
    0.19944E-01        -0.91084E-02         0.00000E+00
    0.19091E-01        -0.81410E-02         0.00000E+00
    0.18241E-01        -0.72340E-02         0.00000E+00
    0.17395E-01        -0.63866E-02         0.00000E+00
    0.16555E-01        -0.55980E-02         0.00000E+00
    0.15723E-01        -0.48671E-02         0.00000E+00
    0.14899E-01        -0.41930E-02         0.00000E+00
    0.14085E-01        -0.35744E-02         0.00000E+00
    0.13282E-01        -0.30103E-02         0.00000E+00
    0.12492E-01        -0.24993E-02         0.00000E+00
    0.11713E-01        -0.20400E-02         0.00000E+00
    0.10948E-01        -0.16307E-02         0.00000E+00
    0.10197E-01        -0.12701E-02         0.00000E+00
    0.94589E-02        -0.95616E-03         0.00000E+00
    0.87342E-02        -0.68714E-03         0.00000E+00
    0.80223E-02        -0.46096E-03         0.00000E+00
    0.73224E-02        -0.27540E-03         0.00000E+00
    0.66336E-02        -0.12803E-03         0.00000E+00
    0.59544E-02        -0.16141E-04         0.00000E+00
    0.52832E-02         0.63226E-04         0.00000E+00
    0.46183E-02         0.11338E-03         0.00000E+00
    0.39578E-02         0.13798E-03         0.00000E+00
    0.32997E-02         0.14109E-03         0.00000E+00
    0.26423E-02         0.12715E-03         0.00000E+00
    0.19842E-02         0.10098E-03         0.00000E+00
    0.13243E-02         0.67634E-04         0.00000E+00
    0.66265E-03         0.32297E-04         0.00000E+00
    0.00000E+00         0.00000E+00         0.00000E+00
    0.38928E-01        -0.47383E-01         0.00000E+00
    0.38483E-01        -0.45322E-01         0.00000E+00
    0.37969E-01        -0.43264E-01         0.00000E+00
    0.37396E-01        -0.41212E-01         0.00000E+00
    0.36775E-01        -0.39172E-01         0.00000E+00
    0.36113E-01        -0.37152E-01         0.00000E+00
    0.35417E-01        -0.35158E-01         0.00000E+00
    0.34693E-01        -0.33195E-01         0.00000E+00
    0.33944E-01        -0.31272E-01         0.00000E+00
    0.33173E-01        -0.29392E-01         0.00000E+00
    0.32382E-01        -0.27560E-01         0.00000E+00
    0.31574E-01        -0.25781E-01         0.00000E+00
    0.30748E-01        -0.24057E-01         0.00000E+00
    0.29908E-01        -0.22392E-01         0.00000E+00
    0.29053E-01        -0.20786E-01         0.00000E+00
    0.28185E-01        -0.19241E-01         0.00000E+00
    0.27306E-01        -0.17759E-01         0.00000E+00
    0.26416E-01        -0.16340E-01         0.00000E+00
    0.25518E-01        -0.14985E-01         0.00000E+00
    0.24613E-01        -0.13693E-01         0.00000E+00
    0.23702E-01        -0.12465E-01         0.00000E+00
    0.22787E-01        -0.11301E-01         0.00000E+00
    0.21871E-01        -0.10200E-01         0.00000E+00
    0.20955E-01        -0.91617E-02         0.00000E+00
    0.20041E-01        -0.81858E-02         0.00000E+00
    0.19130E-01        -0.72716E-02         0.00000E+00
    0.18224E-01        -0.64181E-02         0.00000E+00
    0.17325E-01        -0.56244E-02         0.00000E+00
    0.16435E-01        -0.48897E-02         0.00000E+00
    0.15554E-01        -0.42127E-02         0.00000E+00
    0.14685E-01        -0.35923E-02         0.00000E+00
    0.13828E-01        -0.30271E-02         0.00000E+00
    0.12984E-01        -0.25158E-02         0.00000E+00
    0.12154E-01        -0.20568E-02         0.00000E+00
    0.11340E-01        -0.16485E-02         0.00000E+00
    0.10540E-01        -0.12892E-02         0.00000E+00
    0.97559E-02        -0.97690E-03         0.00000E+00
    0.89872E-02        -0.70966E-03         0.00000E+00
    0.82335E-02        -0.48526E-03         0.00000E+00
    0.74943E-02        -0.30128E-03         0.00000E+00
    0.67688E-02        -0.15512E-03         0.00000E+00
    0.60560E-02        -0.43927E-04         0.00000E+00
    0.53545E-02         0.35438E-04         0.00000E+00
    0.46630E-02         0.86412E-04         0.00000E+00
    0.39801E-02         0.11275E-03         0.00000E+00
    0.33042E-02         0.11856E-03         0.00000E+00
    0.26341E-02         0.10822E-03         0.00000E+00
    0.19688E-02         0.86402E-04         0.00000E+00
    0.13079E-02         0.57925E-04         0.00000E+00
    0.65127E-03         0.27601E-04         0.00000E+00
    0.00000E+00         0.00000E+00         0.00000E+00
    0.40974E-01        -0.47785E-01         0.00000E+00
    0.40536E-01        -0.45706E-01         0.00000E+00
    0.40024E-01        -0.43631E-01         0.00000E+00
    0.39446E-01        -0.41563E-01         0.00000E+00
    0.38812E-01        -0.39508E-01         0.00000E+00
    0.38130E-01        -0.37473E-01         0.00000E+00
    0.37407E-01        -0.35463E-01         0.00000E+00
    0.36649E-01        -0.33485E-01         0.00000E+00
    0.35860E-01        -0.31545E-01         0.00000E+00
    0.35043E-01        -0.29649E-01         0.00000E+00
    0.34203E-01        -0.27801E-01         0.00000E+00
    0.33341E-01        -0.26004E-01         0.00000E+00
    0.32459E-01        -0.24263E-01         0.00000E+00
    0.31559E-01        -0.22580E-01         0.00000E+00
    0.30644E-01        -0.20956E-01         0.00000E+00
    0.29713E-01        -0.19395E-01         0.00000E+00
    0.28771E-01        -0.17897E-01         0.00000E+00
    0.27817E-01        -0.16462E-01         0.00000E+00
    0.26855E-01        -0.15092E-01         0.00000E+00
    0.25885E-01        -0.13787E-01         0.00000E+00
    0.24910E-01        -0.12546E-01         0.00000E+00
    0.23931E-01        -0.11370E-01         0.00000E+00
    0.22951E-01        -0.10259E-01         0.00000E+00
    0.21972E-01        -0.92117E-02         0.00000E+00
    0.20995E-01        -0.82277E-02         0.00000E+00
    0.20022E-01        -0.73065E-02         0.00000E+00
    0.19055E-01        -0.64471E-02         0.00000E+00
    0.18096E-01        -0.56486E-02         0.00000E+00
    0.17147E-01        -0.49101E-02         0.00000E+00
    0.16209E-01        -0.42302E-02         0.00000E+00
    0.15283E-01        -0.36078E-02         0.00000E+00
    0.14371E-01        -0.30414E-02         0.00000E+00
    0.13473E-01        -0.25296E-02         0.00000E+00
    0.12592E-01        -0.20708E-02         0.00000E+00
    0.11727E-01        -0.16632E-02         0.00000E+00
    0.10879E-01        -0.13050E-02         0.00000E+00
    0.10049E-01        -0.99403E-03         0.00000E+00
    0.92363E-02        -0.72827E-03         0.00000E+00
    0.84409E-02        -0.50532E-03         0.00000E+00
    0.76627E-02        -0.32263E-03         0.00000E+00
    0.69011E-02        -0.17745E-03         0.00000E+00
    0.61552E-02        -0.66762E-04         0.00000E+00
    0.54241E-02         0.12687E-04         0.00000E+00
    0.47069E-02         0.64439E-04         0.00000E+00
    0.40023E-02         0.92319E-04         0.00000E+00
    0.33095E-02         0.10042E-03         0.00000E+00
    0.26273E-02         0.93097E-04         0.00000E+00
    0.19553E-02         0.74860E-04         0.00000E+00
    0.12931E-02         0.50308E-04         0.00000E+00
    0.64107E-03         0.23951E-04         0.00000E+00
    0.00000E+00         0.00000E+00         0.00000E+00
    0.43053E-01        -0.48179E-01         0.00000E+00
    0.42618E-01        -0.46081E-01         0.00000E+00
    0.42103E-01        -0.43987E-01         0.00000E+00
    0.41517E-01        -0.41901E-01         0.00000E+00
    0.40868E-01        -0.39829E-01         0.00000E+00
    0.40164E-01        -0.37777E-01         0.00000E+00
    0.39413E-01        -0.35751E-01         0.00000E+00
    0.38620E-01        -0.33758E-01         0.00000E+00
    0.37791E-01        -0.31802E-01         0.00000E+00
    0.36929E-01        -0.29890E-01         0.00000E+00
    0.36039E-01        -0.28025E-01         0.00000E+00
    0.35123E-01        -0.26212E-01         0.00000E+00
    0.34184E-01        -0.24454E-01         0.00000E+00
    0.33225E-01        -0.22755E-01         0.00000E+00
    0.32248E-01        -0.21116E-01         0.00000E+00
    0.31255E-01        -0.19539E-01         0.00000E+00
    0.30249E-01        -0.18025E-01         0.00000E+00
    0.29231E-01        -0.16576E-01         0.00000E+00
    0.28203E-01        -0.15193E-01         0.00000E+00
    0.27168E-01        -0.13874E-01         0.00000E+00
    0.26127E-01        -0.12622E-01         0.00000E+00
    0.25084E-01        -0.11435E-01         0.00000E+00
    0.24039E-01        -0.10314E-01         0.00000E+00
    0.22995E-01        -0.92580E-02         0.00000E+00
    0.21954E-01        -0.82663E-02         0.00000E+00
    0.20919E-01        -0.73383E-02         0.00000E+00
    0.19890E-01        -0.64733E-02         0.00000E+00
    0.18870E-01        -0.56701E-02         0.00000E+00
    0.17861E-01        -0.49277E-02         0.00000E+00
    0.16864E-01        -0.42450E-02         0.00000E+00
    0.15881E-01        -0.36205E-02         0.00000E+00
    0.14913E-01        -0.30529E-02         0.00000E+00
    0.13962E-01        -0.25405E-02         0.00000E+00
    0.13028E-01        -0.20816E-02         0.00000E+00
    0.12112E-01        -0.16745E-02         0.00000E+00
    0.11216E-01        -0.13171E-02         0.00000E+00
    0.10339E-01        -0.10072E-02         0.00000E+00
    0.94825E-02        -0.74268E-03         0.00000E+00
    0.86456E-02        -0.52094E-03         0.00000E+00
    0.78287E-02        -0.33933E-03         0.00000E+00
    0.70312E-02        -0.19495E-03         0.00000E+00
    0.62528E-02        -0.84685E-04         0.00000E+00
    0.54928E-02        -0.51626E-05         0.00000E+00
    0.47504E-02         0.47235E-04         0.00000E+00
    0.40250E-02         0.76373E-04         0.00000E+00
    0.33157E-02         0.86344E-04         0.00000E+00
    0.26220E-02         0.81426E-04         0.00000E+00
    0.19434E-02         0.66015E-04         0.00000E+00
    0.12800E-02         0.44516E-04         0.00000E+00
    0.63189E-03         0.21199E-04         0.00000E+00
    0.00000E+00         0.00000E+00         0.00000E+00
    0.45166E-01        -0.48572E-01         0.00000E+00
    0.44729E-01        -0.46452E-01         0.00000E+00
    0.44208E-01        -0.44337E-01         0.00000E+00
    0.43610E-01        -0.42231E-01         0.00000E+00
    0.42944E-01        -0.40140E-01         0.00000E+00
    0.42217E-01        -0.38070E-01         0.00000E+00
    0.41436E-01        -0.36027E-01         0.00000E+00
    0.40607E-01        -0.34017E-01         0.00000E+00
    0.39737E-01        -0.32045E-01         0.00000E+00
    0.38829E-01        -0.30116E-01         0.00000E+00
    0.37889E-01        -0.28236E-01         0.00000E+00
    0.36919E-01        -0.26407E-01         0.00000E+00
    0.35924E-01        -0.24634E-01         0.00000E+00
    0.34905E-01        -0.22919E-01         0.00000E+00
    0.33867E-01        -0.21265E-01         0.00000E+00
    0.32811E-01        -0.19673E-01         0.00000E+00
    0.31740E-01        -0.18145E-01         0.00000E+00
    0.30656E-01        -0.16683E-01         0.00000E+00
    0.29563E-01        -0.15286E-01         0.00000E+00
    0.28461E-01        -0.13956E-01         0.00000E+00
    0.27355E-01        -0.12693E-01         0.00000E+00
    0.26245E-01        -0.11496E-01         0.00000E+00
    0.25134E-01        -0.10365E-01         0.00000E+00
    0.24025E-01        -0.93006E-02         0.00000E+00
    0.22920E-01        -0.83014E-02         0.00000E+00
    0.21820E-01        -0.73670E-02         0.00000E+00
    0.20729E-01        -0.64964E-02         0.00000E+00
    0.19647E-01        -0.56886E-02         0.00000E+00
    0.18577E-01        -0.49425E-02         0.00000E+00
    0.17521E-01        -0.42569E-02         0.00000E+00
    0.16480E-01        -0.36303E-02         0.00000E+00
    0.15455E-01        -0.30613E-02         0.00000E+00
    0.14449E-01        -0.25481E-02         0.00000E+00
    0.13462E-01        -0.20890E-02         0.00000E+00
    0.12496E-01        -0.16821E-02         0.00000E+00
    0.11551E-01        -0.13253E-02         0.00000E+00
    0.10628E-01        -0.10163E-02         0.00000E+00
    0.97266E-02        -0.75279E-03         0.00000E+00
    0.88483E-02        -0.53207E-03         0.00000E+00
    0.79927E-02        -0.35138E-03         0.00000E+00
    0.71598E-02        -0.20771E-03         0.00000E+00
    0.63493E-02        -0.97849E-04         0.00000E+00
    0.55608E-02        -0.18333E-04         0.00000E+00
    0.47939E-02         0.34514E-04         0.00000E+00
    0.40480E-02         0.64585E-04         0.00000E+00
    0.33228E-02         0.75957E-04         0.00000E+00
    0.26178E-02         0.72850E-04         0.00000E+00
    0.19329E-02         0.59551E-04         0.00000E+00
    0.12680E-02         0.40314E-04         0.00000E+00
    0.62351E-03         0.19218E-04         0.00000E+00
    0.00000E+00         0.00000E+00         0.00000E+00
    0.47314E-01        -0.48965E-01         0.00000E+00
    0.46871E-01        -0.46822E-01         0.00000E+00
    0.46340E-01        -0.44684E-01         0.00000E+00
    0.45728E-01        -0.42557E-01         0.00000E+00
    0.45041E-01        -0.40445E-01         0.00000E+00
    0.44289E-01        -0.38356E-01         0.00000E+00
    0.43477E-01        -0.36294E-01         0.00000E+00
    0.42612E-01        -0.34267E-01         0.00000E+00
    0.41699E-01        -0.32278E-01         0.00000E+00
    0.40746E-01        -0.30333E-01         0.00000E+00
    0.39755E-01        -0.28436E-01         0.00000E+00
    0.38731E-01        -0.26592E-01         0.00000E+00
    0.37678E-01        -0.24803E-01         0.00000E+00
    0.36600E-01        -0.23074E-01         0.00000E+00
    0.35499E-01        -0.21405E-01         0.00000E+00
    0.34379E-01        -0.19799E-01         0.00000E+00
    0.33243E-01        -0.18258E-01         0.00000E+00
    0.32094E-01        -0.16783E-01         0.00000E+00
    0.30934E-01        -0.15374E-01         0.00000E+00
    0.29765E-01        -0.14032E-01         0.00000E+00
    0.28592E-01        -0.12758E-01         0.00000E+00
    0.27415E-01        -0.11552E-01         0.00000E+00
    0.26238E-01        -0.10412E-01         0.00000E+00
    0.25062E-01        -0.93395E-02         0.00000E+00
    0.23891E-01        -0.83332E-02         0.00000E+00
    0.22727E-01        -0.73925E-02         0.00000E+00
    0.21572E-01        -0.65165E-02         0.00000E+00
    0.20427E-01        -0.57042E-02         0.00000E+00
    0.19296E-01        -0.49544E-02         0.00000E+00
    0.18179E-01        -0.42659E-02         0.00000E+00
    0.17080E-01        -0.36371E-02         0.00000E+00
    0.15998E-01        -0.30665E-02         0.00000E+00
    0.14937E-01        -0.25525E-02         0.00000E+00
    0.13896E-01        -0.20930E-02         0.00000E+00
    0.12879E-01        -0.16861E-02         0.00000E+00
    0.11884E-01        -0.13297E-02         0.00000E+00
    0.10914E-01        -0.10214E-02         0.00000E+00
    0.99691E-02        -0.75865E-03         0.00000E+00
    0.90494E-02        -0.53879E-03         0.00000E+00
    0.81554E-02        -0.35892E-03         0.00000E+00
    0.72872E-02        -0.21592E-03         0.00000E+00
    0.64449E-02        -0.10649E-03         0.00000E+00
    0.56283E-02        -0.27112E-04         0.00000E+00
    0.48372E-02         0.25949E-04         0.00000E+00
    0.40714E-02         0.56600E-04         0.00000E+00
    0.33306E-02         0.68905E-04         0.00000E+00
    0.26146E-02         0.67034E-04         0.00000E+00
    0.19234E-02         0.55185E-04         0.00000E+00
    0.12570E-02         0.37493E-04         0.00000E+00
    0.61574E-03         0.17899E-04         0.00000E+00
    0.00000E+00         0.00000E+00         0.00000E+00
    0.49497E-01        -0.49364E-01         0.00000E+00
    0.49046E-01        -0.47195E-01         0.00000E+00
    0.48502E-01        -0.45033E-01         0.00000E+00
    0.47872E-01        -0.42882E-01         0.00000E+00
    0.47163E-01        -0.40748E-01         0.00000E+00
    0.46382E-01        -0.38638E-01         0.00000E+00
    0.45537E-01        -0.36557E-01         0.00000E+00
    0.44634E-01        -0.34510E-01         0.00000E+00
    0.43679E-01        -0.32504E-01         0.00000E+00
    0.42678E-01        -0.30542E-01         0.00000E+00
    0.41636E-01        -0.28629E-01         0.00000E+00
    0.40557E-01        -0.26769E-01         0.00000E+00
    0.39447E-01        -0.24965E-01         0.00000E+00
    0.38308E-01        -0.23221E-01         0.00000E+00
    0.37145E-01        -0.21538E-01         0.00000E+00
    0.35961E-01        -0.19919E-01         0.00000E+00
    0.34759E-01        -0.18365E-01         0.00000E+00
    0.33543E-01        -0.16877E-01         0.00000E+00
    0.32316E-01        -0.15457E-01         0.00000E+00
    0.31080E-01        -0.14104E-01         0.00000E+00
    0.29838E-01        -0.12820E-01         0.00000E+00
    0.28593E-01        -0.11604E-01         0.00000E+00
    0.27349E-01        -0.10456E-01         0.00000E+00
    0.26106E-01        -0.93752E-02         0.00000E+00
    0.24869E-01        -0.83620E-02         0.00000E+00
    0.23639E-01        -0.74152E-02         0.00000E+00
    0.22419E-01        -0.65339E-02         0.00000E+00
    0.21211E-01        -0.57172E-02         0.00000E+00
    0.20017E-01        -0.49637E-02         0.00000E+00
    0.18840E-01        -0.42721E-02         0.00000E+00
    0.17681E-01        -0.36411E-02         0.00000E+00
    0.16542E-01        -0.30688E-02         0.00000E+00
    0.15424E-01        -0.25537E-02         0.00000E+00
    0.14330E-01        -0.20936E-02         0.00000E+00
    0.13261E-01        -0.16866E-02         0.00000E+00
    0.12217E-01        -0.13304E-02         0.00000E+00
    0.11200E-01        -0.10226E-02         0.00000E+00
    0.10210E-01        -0.76046E-03         0.00000E+00
    0.92493E-02        -0.54134E-03         0.00000E+00
    0.83169E-02        -0.36220E-03         0.00000E+00
    0.74137E-02        -0.21986E-03         0.00000E+00
    0.65398E-02        -0.11093E-03         0.00000E+00
    0.56954E-02        -0.31839E-04         0.00000E+00
    0.48805E-02         0.21181E-04         0.00000E+00
    0.40950E-02         0.52056E-04         0.00000E+00
    0.33389E-02         0.64840E-04         0.00000E+00
    0.26121E-02         0.63661E-04         0.00000E+00
    0.19147E-02         0.52655E-04         0.00000E+00
    0.12467E-02         0.35868E-04         0.00000E+00
    0.60838E-03         0.17148E-04         0.00000E+00
    0.00000E+00         0.00000E+00         0.00000E+00
    0.51717E-01        -0.49770E-01         0.00000E+00
    0.51254E-01        -0.47575E-01         0.00000E+00
    0.50695E-01        -0.45386E-01         0.00000E+00
    0.50044E-01        -0.43210E-01         0.00000E+00
    0.49310E-01        -0.41052E-01         0.00000E+00
    0.48499E-01        -0.38920E-01         0.00000E+00
    0.47619E-01        -0.36817E-01         0.00000E+00
    0.46676E-01        -0.34751E-01         0.00000E+00
    0.45677E-01        -0.32726E-01         0.00000E+00
    0.44627E-01        -0.30746E-01         0.00000E+00
    0.43533E-01        -0.28817E-01         0.00000E+00
    0.42399E-01        -0.26941E-01         0.00000E+00
    0.41230E-01        -0.25122E-01         0.00000E+00
    0.40030E-01        -0.23363E-01         0.00000E+00
    0.38804E-01        -0.21666E-01         0.00000E+00
    0.37555E-01        -0.20034E-01         0.00000E+00
    0.36287E-01        -0.18467E-01         0.00000E+00
    0.35004E-01        -0.16967E-01         0.00000E+00
    0.33708E-01        -0.15536E-01         0.00000E+00
    0.32404E-01        -0.14172E-01         0.00000E+00
    0.31094E-01        -0.12878E-01         0.00000E+00
    0.29780E-01        -0.11653E-01         0.00000E+00
    0.28467E-01        -0.10497E-01         0.00000E+00
    0.27157E-01        -0.94086E-02         0.00000E+00
    0.25853E-01        -0.83886E-02         0.00000E+00
    0.24556E-01        -0.74358E-02         0.00000E+00
    0.23271E-01        -0.65493E-02         0.00000E+00
    0.21998E-01        -0.57280E-02         0.00000E+00
    0.20742E-01        -0.49707E-02         0.00000E+00
    0.19503E-01        -0.42761E-02         0.00000E+00
    0.18284E-01        -0.36426E-02         0.00000E+00
    0.17086E-01        -0.30685E-02         0.00000E+00
    0.15913E-01        -0.25521E-02         0.00000E+00
    0.14764E-01        -0.20913E-02         0.00000E+00
    0.13643E-01        -0.16839E-02         0.00000E+00
    0.12549E-01        -0.13277E-02         0.00000E+00
    0.11485E-01        -0.10201E-02         0.00000E+00
    0.10451E-01        -0.75853E-03         0.00000E+00
    0.94482E-02        -0.54002E-03         0.00000E+00
    0.84775E-02        -0.36156E-03         0.00000E+00
    0.75393E-02        -0.21987E-03         0.00000E+00
    0.66340E-02        -0.11153E-03         0.00000E+00
    0.57620E-02        -0.32893E-04         0.00000E+00
    0.49234E-02         0.19832E-04         0.00000E+00
    0.41185E-02         0.50588E-04         0.00000E+00
    0.33473E-02         0.63422E-04         0.00000E+00
    0.26099E-02         0.62437E-04         0.00000E+00
    0.19063E-02         0.51725E-04         0.00000E+00
    0.12367E-02         0.35278E-04         0.00000E+00
    0.60124E-03         0.16883E-04         0.00000E+00
    0.00000E+00         0.00000E+00         0.00000E+00
    0.53975E-01        -0.50187E-01         0.00000E+00
    0.53498E-01        -0.47964E-01         0.00000E+00
    0.52919E-01        -0.45747E-01         0.00000E+00
    0.52245E-01        -0.43544E-01         0.00000E+00
    0.51483E-01        -0.41361E-01         0.00000E+00
    0.50640E-01        -0.39205E-01         0.00000E+00
    0.49723E-01        -0.37080E-01         0.00000E+00
    0.48738E-01        -0.34993E-01         0.00000E+00
    0.47694E-01        -0.32948E-01         0.00000E+00
    0.46594E-01        -0.30950E-01         0.00000E+00
    0.45447E-01        -0.29003E-01         0.00000E+00
    0.44256E-01        -0.27111E-01         0.00000E+00
    0.43028E-01        -0.25276E-01         0.00000E+00
    0.41767E-01        -0.23503E-01         0.00000E+00
    0.40477E-01        -0.21792E-01         0.00000E+00
    0.39162E-01        -0.20146E-01         0.00000E+00
    0.37827E-01        -0.18567E-01         0.00000E+00
    0.36476E-01        -0.17055E-01         0.00000E+00
    0.35112E-01        -0.15612E-01         0.00000E+00
    0.33738E-01        -0.14239E-01         0.00000E+00
    0.32358E-01        -0.12935E-01         0.00000E+00
    0.30976E-01        -0.11701E-01         0.00000E+00
    0.29594E-01        -0.10536E-01         0.00000E+00
    0.28215E-01        -0.94407E-02         0.00000E+00
    0.26842E-01        -0.84139E-02         0.00000E+00
    0.25479E-01        -0.74551E-02         0.00000E+00
    0.24127E-01        -0.65633E-02         0.00000E+00
    0.22790E-01        -0.57374E-02         0.00000E+00
    0.21470E-01        -0.49763E-02         0.00000E+00
    0.20168E-01        -0.42784E-02         0.00000E+00
    0.18889E-01        -0.36423E-02         0.00000E+00
    0.17632E-01        -0.30662E-02         0.00000E+00
    0.16402E-01        -0.25483E-02         0.00000E+00
    0.15199E-01        -0.20864E-02         0.00000E+00
    0.14024E-01        -0.16785E-02         0.00000E+00
    0.12881E-01        -0.13221E-02         0.00000E+00
    0.11769E-01        -0.10146E-02         0.00000E+00
    0.10691E-01        -0.75329E-03         0.00000E+00
    0.96464E-02        -0.53529E-03         0.00000E+00
    0.86373E-02        -0.35743E-03         0.00000E+00
    0.76641E-02        -0.21640E-03         0.00000E+00
    0.67275E-02        -0.10871E-03         0.00000E+00
    0.58280E-02        -0.30684E-04         0.00000E+00
    0.49660E-02         0.21509E-04         0.00000E+00
    0.41417E-02         0.51827E-04         0.00000E+00
    0.33555E-02         0.64321E-04         0.00000E+00
    0.26076E-02         0.63083E-04         0.00000E+00
    0.18980E-02         0.52180E-04         0.00000E+00
    0.12268E-02         0.35575E-04         0.00000E+00
    0.59416E-03         0.17032E-04         0.00000E+00
    0.00000E+00         0.00000E+00         0.00000E+00
    0.56272E-01        -0.50618E-01         0.00000E+00
    0.55778E-01        -0.48365E-01         0.00000E+00
    0.55178E-01        -0.46119E-01         0.00000E+00
    0.54477E-01        -0.43888E-01         0.00000E+00
    0.53685E-01        -0.41678E-01         0.00000E+00
    0.52807E-01        -0.39496E-01         0.00000E+00
    0.51850E-01        -0.37348E-01         0.00000E+00
    0.50822E-01        -0.35238E-01         0.00000E+00
    0.49730E-01        -0.33173E-01         0.00000E+00
    0.48580E-01        -0.31156E-01         0.00000E+00
    0.47378E-01        -0.29190E-01         0.00000E+00
    0.46130E-01        -0.27281E-01         0.00000E+00
    0.44842E-01        -0.25431E-01         0.00000E+00
    0.43517E-01        -0.23642E-01         0.00000E+00
    0.42163E-01        -0.21917E-01         0.00000E+00
    0.40782E-01        -0.20258E-01         0.00000E+00
    0.39380E-01        -0.18666E-01         0.00000E+00
    0.37959E-01        -0.17143E-01         0.00000E+00
    0.36526E-01        -0.15689E-01         0.00000E+00
    0.35082E-01        -0.14305E-01         0.00000E+00
    0.33632E-01        -0.12992E-01         0.00000E+00
    0.32180E-01        -0.11748E-01         0.00000E+00
    0.30728E-01        -0.10576E-01         0.00000E+00
    0.29280E-01        -0.94727E-02         0.00000E+00
    0.27838E-01        -0.84392E-02         0.00000E+00
    0.26407E-01        -0.74743E-02         0.00000E+00
    0.24989E-01        -0.65771E-02         0.00000E+00
    0.23586E-01        -0.57465E-02         0.00000E+00
    0.22201E-01        -0.49813E-02         0.00000E+00
    0.20837E-01        -0.42800E-02         0.00000E+00
    0.19496E-01        -0.36410E-02         0.00000E+00
    0.18180E-01        -0.30626E-02         0.00000E+00
    0.16892E-01        -0.25429E-02         0.00000E+00
    0.15634E-01        -0.20798E-02         0.00000E+00
    0.14407E-01        -0.16710E-02         0.00000E+00
    0.13213E-01        -0.13141E-02         0.00000E+00
    0.12053E-01        -0.10064E-02         0.00000E+00
    0.10930E-01        -0.74530E-03         0.00000E+00
    0.98439E-02        -0.52765E-03         0.00000E+00
    0.87963E-02        -0.35032E-03         0.00000E+00
    0.77882E-02        -0.20993E-03         0.00000E+00
    0.68202E-02        -0.10294E-03         0.00000E+00
    0.58933E-02        -0.25654E-04         0.00000E+00
    0.50078E-02         0.25803E-04         0.00000E+00
    0.41644E-02         0.55407E-04         0.00000E+00
    0.33633E-02         0.67219E-04         0.00000E+00
    0.26049E-02         0.65335E-04         0.00000E+00
    0.18894E-02         0.53818E-04         0.00000E+00
    0.12167E-02         0.36628E-04         0.00000E+00
    0.58698E-03         0.17532E-04         0.00000E+00
    0.00000E+00         0.00000E+00         0.00000E+00
    0.58610E-01        -0.51066E-01         0.00000E+00
    0.58096E-01        -0.48781E-01         0.00000E+00
    0.57471E-01        -0.46504E-01         0.00000E+00
    0.56742E-01        -0.44244E-01         0.00000E+00
    0.55916E-01        -0.42006E-01         0.00000E+00
    0.55001E-01        -0.39797E-01         0.00000E+00
    0.54003E-01        -0.37624E-01         0.00000E+00
    0.52930E-01        -0.35491E-01         0.00000E+00
    0.51788E-01        -0.33404E-01         0.00000E+00
    0.50586E-01        -0.31366E-01         0.00000E+00
    0.49328E-01        -0.29382E-01         0.00000E+00
    0.48021E-01        -0.27455E-01         0.00000E+00
    0.46671E-01        -0.25589E-01         0.00000E+00
    0.45283E-01        -0.23784E-01         0.00000E+00
    0.43863E-01        -0.22045E-01         0.00000E+00
    0.42415E-01        -0.20372E-01         0.00000E+00
    0.40944E-01        -0.18768E-01         0.00000E+00
    0.39454E-01        -0.17232E-01         0.00000E+00
    0.37950E-01        -0.15767E-01         0.00000E+00
    0.36436E-01        -0.14373E-01         0.00000E+00
    0.34916E-01        -0.13050E-01         0.00000E+00
    0.33392E-01        -0.11798E-01         0.00000E+00
    0.31870E-01        -0.10617E-01         0.00000E+00
    0.30352E-01        -0.95062E-02         0.00000E+00
    0.28841E-01        -0.84658E-02         0.00000E+00
    0.27341E-01        -0.74946E-02         0.00000E+00
    0.25855E-01        -0.65919E-02         0.00000E+00
    0.24386E-01        -0.57564E-02         0.00000E+00
    0.22936E-01        -0.49868E-02         0.00000E+00
    0.21509E-01        -0.42818E-02         0.00000E+00
    0.20106E-01        -0.36396E-02         0.00000E+00
    0.18730E-01        -0.30587E-02         0.00000E+00
    0.17384E-01        -0.25368E-02         0.00000E+00
    0.16070E-01        -0.20721E-02         0.00000E+00
    0.14790E-01        -0.16621E-02         0.00000E+00
    0.13545E-01        -0.13045E-02         0.00000E+00
    0.12337E-01        -0.99645E-03         0.00000E+00
    0.11169E-01        -0.73522E-03         0.00000E+00
    0.10041E-01        -0.51774E-03         0.00000E+00
    0.89548E-02        -0.34080E-03         0.00000E+00
    0.79115E-02        -0.20100E-03         0.00000E+00
    0.69122E-02        -0.94734E-04         0.00000E+00
    0.59577E-02        -0.18267E-04         0.00000E+00
    0.50489E-02         0.32295E-04         0.00000E+00
    0.41863E-02         0.60957E-04         0.00000E+00
    0.33704E-02         0.71802E-04         0.00000E+00
    0.26017E-02         0.68941E-04         0.00000E+00
    0.18803E-02         0.56453E-04         0.00000E+00
    0.12062E-02         0.38316E-04         0.00000E+00
    0.57957E-03         0.18326E-04         0.00000E+00
    0.00000E+00         0.00000E+00         0.00000E+00
    0.60991E-01        -0.51533E-01         0.00000E+00
    0.60453E-01        -0.49215E-01         0.00000E+00
    0.59801E-01        -0.46907E-01         0.00000E+00
    0.59040E-01        -0.44615E-01         0.00000E+00
    0.58179E-01        -0.42348E-01         0.00000E+00
    0.57223E-01        -0.40111E-01         0.00000E+00
    0.56181E-01        -0.37912E-01         0.00000E+00
    0.55061E-01        -0.35754E-01         0.00000E+00
    0.53868E-01        -0.33644E-01         0.00000E+00
    0.52611E-01        -0.31585E-01         0.00000E+00
    0.51296E-01        -0.29582E-01         0.00000E+00
    0.49929E-01        -0.27636E-01         0.00000E+00
    0.48516E-01        -0.25752E-01         0.00000E+00
    0.47064E-01        -0.23932E-01         0.00000E+00
    0.45577E-01        -0.22178E-01         0.00000E+00
    0.44061E-01        -0.20491E-01         0.00000E+00
    0.42520E-01        -0.18874E-01         0.00000E+00
    0.40961E-01        -0.17326E-01         0.00000E+00
    0.39386E-01        -0.15850E-01         0.00000E+00
    0.37800E-01        -0.14445E-01         0.00000E+00
    0.36208E-01        -0.13112E-01         0.00000E+00
    0.34613E-01        -0.11851E-01         0.00000E+00
    0.33020E-01        -0.10661E-01         0.00000E+00
    0.31431E-01        -0.95430E-02         0.00000E+00
    0.29850E-01        -0.84955E-02         0.00000E+00
    0.28281E-01        -0.75178E-02         0.00000E+00
    0.26727E-01        -0.66092E-02         0.00000E+00
    0.25191E-01        -0.57684E-02         0.00000E+00
    0.23675E-01        -0.49942E-02         0.00000E+00
    0.22184E-01        -0.42851E-02         0.00000E+00
    0.20719E-01        -0.36394E-02         0.00000E+00
    0.19283E-01        -0.30555E-02         0.00000E+00
    0.17879E-01        -0.25312E-02         0.00000E+00
    0.16508E-01        -0.20644E-02         0.00000E+00
    0.15174E-01        -0.16529E-02         0.00000E+00
    0.13878E-01        -0.12941E-02         0.00000E+00
    0.12622E-01        -0.98539E-03         0.00000E+00
    0.11408E-01        -0.72378E-03         0.00000E+00
    0.10238E-01        -0.50626E-03         0.00000E+00
    0.91128E-02        -0.32955E-03         0.00000E+00
    0.80342E-02        -0.19021E-03         0.00000E+00
    0.70034E-02        -0.84628E-04         0.00000E+00
    0.60214E-02        -0.90155E-05         0.00000E+00
    0.50891E-02         0.40550E-04         0.00000E+00
    0.42073E-02         0.68105E-04         0.00000E+00
    0.33766E-02         0.77761E-04         0.00000E+00
    0.25976E-02         0.73657E-04         0.00000E+00
    0.18704E-02         0.59907E-04         0.00000E+00
    0.11952E-02         0.40526E-04         0.00000E+00
    0.57182E-03         0.19362E-04         0.00000E+00
    0.00000E+00         0.00000E+00         0.00000E+00
    0.63415E-01        -0.52022E-01         0.00000E+00
    0.62852E-01        -0.49671E-01         0.00000E+00
    0.62169E-01        -0.47329E-01         0.00000E+00
    0.61374E-01        -0.45005E-01         0.00000E+00
    0.60473E-01        -0.42707E-01         0.00000E+00
    0.59476E-01        -0.40441E-01         0.00000E+00
    0.58388E-01        -0.38214E-01         0.00000E+00
    0.57217E-01        -0.36031E-01         0.00000E+00
    0.55972E-01        -0.33897E-01         0.00000E+00
    0.54658E-01        -0.31816E-01         0.00000E+00
    0.53284E-01        -0.29791E-01         0.00000E+00
    0.51855E-01        -0.27827E-01         0.00000E+00
    0.50379E-01        -0.25925E-01         0.00000E+00
    0.48860E-01        -0.24089E-01         0.00000E+00
    0.47306E-01        -0.22319E-01         0.00000E+00
    0.45720E-01        -0.20618E-01         0.00000E+00
    0.44110E-01        -0.18987E-01         0.00000E+00
    0.42479E-01        -0.17427E-01         0.00000E+00
    0.40832E-01        -0.15939E-01         0.00000E+00
    0.39175E-01        -0.14524E-01         0.00000E+00
    0.37510E-01        -0.13180E-01         0.00000E+00
    0.35843E-01        -0.11910E-01         0.00000E+00
    0.34178E-01        -0.10711E-01         0.00000E+00
    0.32517E-01        -0.95851E-02         0.00000E+00
    0.30866E-01        -0.85301E-02         0.00000E+00
    0.29227E-01        -0.75457E-02         0.00000E+00
    0.27604E-01        -0.66308E-02         0.00000E+00
    0.26001E-01        -0.57844E-02         0.00000E+00
    0.24419E-01        -0.50051E-02         0.00000E+00
    0.22863E-01        -0.42914E-02         0.00000E+00
    0.21335E-01        -0.36418E-02         0.00000E+00
    0.19838E-01        -0.30544E-02         0.00000E+00
    0.18375E-01        -0.25271E-02         0.00000E+00
    0.16948E-01        -0.20579E-02         0.00000E+00
    0.15560E-01        -0.16444E-02         0.00000E+00
    0.14212E-01        -0.12841E-02         0.00000E+00
    0.12907E-01        -0.97420E-03         0.00000E+00
    0.11648E-01        -0.71187E-03         0.00000E+00
    0.10435E-01        -0.49398E-03         0.00000E+00
    0.92706E-02        -0.31726E-03         0.00000E+00
    0.81565E-02        -0.17822E-03         0.00000E+00
    0.70939E-02        -0.73212E-04         0.00000E+00
    0.60841E-02         0.15824E-05         0.00000E+00
    0.51282E-02         0.50120E-04         0.00000E+00
    0.42272E-02         0.76471E-04         0.00000E+00
    0.33817E-02         0.84786E-04         0.00000E+00
    0.25924E-02         0.79245E-04         0.00000E+00
    0.18596E-02         0.64009E-04         0.00000E+00
    0.11834E-02         0.43151E-04         0.00000E+00
    0.56364E-03         0.20590E-04         0.00000E+00
    0.00000E+00         0.00000E+00         0.00000E+00
    0.65885E-01        -0.52538E-01         0.00000E+00
    0.65293E-01        -0.50151E-01         0.00000E+00
    0.64576E-01        -0.47774E-01         0.00000E+00
    0.63744E-01        -0.45417E-01         0.00000E+00
    0.62802E-01        -0.43086E-01         0.00000E+00
    0.61759E-01        -0.40790E-01         0.00000E+00
    0.60623E-01        -0.38534E-01         0.00000E+00
    0.59400E-01        -0.36324E-01         0.00000E+00
    0.58100E-01        -0.34165E-01         0.00000E+00
    0.56728E-01        -0.32061E-01         0.00000E+00
    0.55293E-01        -0.30015E-01         0.00000E+00
    0.53801E-01        -0.28031E-01         0.00000E+00
    0.52259E-01        -0.26111E-01         0.00000E+00
    0.50673E-01        -0.24257E-01         0.00000E+00
    0.49049E-01        -0.22471E-01         0.00000E+00
    0.47394E-01        -0.20755E-01         0.00000E+00
    0.45712E-01        -0.19111E-01         0.00000E+00
    0.44009E-01        -0.17538E-01         0.00000E+00
    0.42290E-01        -0.16038E-01         0.00000E+00
    0.40560E-01        -0.14611E-01         0.00000E+00
    0.38822E-01        -0.13257E-01         0.00000E+00
    0.37082E-01        -0.11977E-01         0.00000E+00
    0.35344E-01        -0.10770E-01         0.00000E+00
    0.33612E-01        -0.96348E-02         0.00000E+00
    0.31889E-01        -0.85720E-02         0.00000E+00
    0.30180E-01        -0.75802E-02         0.00000E+00
    0.28488E-01        -0.66587E-02         0.00000E+00
    0.26816E-01        -0.58061E-02         0.00000E+00
    0.25168E-01        -0.50212E-02         0.00000E+00
    0.23547E-01        -0.43024E-02         0.00000E+00
    0.21955E-01        -0.36483E-02         0.00000E+00
    0.20397E-01        -0.30568E-02         0.00000E+00
    0.18875E-01        -0.25260E-02         0.00000E+00
    0.17390E-01        -0.20538E-02         0.00000E+00
    0.15947E-01        -0.16378E-02         0.00000E+00
    0.14548E-01        -0.12754E-02         0.00000E+00
    0.13194E-01        -0.96391E-03         0.00000E+00
    0.11888E-01        -0.70042E-03         0.00000E+00
    0.10632E-01        -0.48180E-03         0.00000E+00
    0.94284E-02        -0.30474E-03         0.00000E+00
    0.82784E-02        -0.16574E-03         0.00000E+00
    0.71838E-02        -0.61115E-04         0.00000E+00
    0.61460E-02         0.12979E-04         0.00000E+00
    0.51664E-02         0.60536E-04         0.00000E+00
    0.42460E-02         0.85666E-04         0.00000E+00
    0.33856E-02         0.92565E-04         0.00000E+00
    0.25861E-02         0.85466E-04         0.00000E+00
    0.18477E-02         0.68591E-04         0.00000E+00
    0.11707E-02         0.46088E-04         0.00000E+00
    0.55494E-03         0.21963E-04         0.00000E+00
    0.00000E+00         0.00000E+00         0.00000E+00
    0.68402E-01        -0.53081E-01         0.00000E+00
    0.67777E-01        -0.50658E-01         0.00000E+00
    0.67025E-01        -0.48245E-01         0.00000E+00
    0.66152E-01        -0.45853E-01         0.00000E+00
    0.65166E-01        -0.43489E-01         0.00000E+00
    0.64075E-01        -0.41161E-01         0.00000E+00
    0.62887E-01        -0.38876E-01         0.00000E+00
    0.61611E-01        -0.36638E-01         0.00000E+00
    0.60253E-01        -0.34453E-01         0.00000E+00
    0.58821E-01        -0.32325E-01         0.00000E+00
    0.57323E-01        -0.30256E-01         0.00000E+00
    0.55766E-01        -0.28251E-01         0.00000E+00
    0.54157E-01        -0.26312E-01         0.00000E+00
    0.52503E-01        -0.24440E-01         0.00000E+00
    0.50809E-01        -0.22638E-01         0.00000E+00
    0.49082E-01        -0.20907E-01         0.00000E+00
    0.47328E-01        -0.19248E-01         0.00000E+00
    0.45552E-01        -0.17662E-01         0.00000E+00
    0.43760E-01        -0.16149E-01         0.00000E+00
    0.41956E-01        -0.14711E-01         0.00000E+00
    0.40144E-01        -0.13346E-01         0.00000E+00
    0.38331E-01        -0.12055E-01         0.00000E+00
    0.36520E-01        -0.10838E-01         0.00000E+00
    0.34715E-01        -0.96946E-02         0.00000E+00
    0.32921E-01        -0.86234E-02         0.00000E+00
    0.31140E-01        -0.76238E-02         0.00000E+00
    0.29378E-01        -0.66949E-02         0.00000E+00
    0.27638E-01        -0.58356E-02         0.00000E+00
    0.25922E-01        -0.50444E-02         0.00000E+00
    0.24236E-01        -0.43200E-02         0.00000E+00
    0.22580E-01        -0.36606E-02         0.00000E+00
    0.20960E-01        -0.30644E-02         0.00000E+00
    0.19378E-01        -0.25295E-02         0.00000E+00
    0.17836E-01        -0.20536E-02         0.00000E+00
    0.16337E-01        -0.16344E-02         0.00000E+00
    0.14885E-01        -0.12693E-02         0.00000E+00
    0.13482E-01        -0.95567E-03         0.00000E+00
    0.12129E-01        -0.69049E-03         0.00000E+00
    0.10830E-01        -0.47066E-03         0.00000E+00
    0.95865E-02        -0.29284E-03         0.00000E+00
    0.84003E-02        -0.15353E-03         0.00000E+00
    0.72733E-02        -0.49005E-04         0.00000E+00
    0.62073E-02         0.24597E-04         0.00000E+00
    0.52036E-02         0.71310E-04         0.00000E+00
    0.42636E-02         0.95289E-04         0.00000E+00
    0.33883E-02         0.10078E-03         0.00000E+00
    0.25785E-02         0.92080E-04         0.00000E+00
    0.18346E-02         0.73485E-04         0.00000E+00
    0.11571E-02         0.49233E-04         0.00000E+00
    0.54568E-03         0.23435E-04         0.00000E+00
    0.00000E+00         0.00000E+00         0.00000E+00
    0.70968E-01        -0.53656E-01         0.00000E+00
    0.70307E-01        -0.51195E-01         0.00000E+00
    0.69515E-01        -0.48745E-01         0.00000E+00
    0.68599E-01        -0.46317E-01         0.00000E+00
    0.67566E-01        -0.43919E-01         0.00000E+00
    0.66425E-01        -0.41558E-01         0.00000E+00
    0.65183E-01        -0.39242E-01         0.00000E+00
    0.63850E-01        -0.36975E-01         0.00000E+00
    0.62432E-01        -0.34763E-01         0.00000E+00
    0.60938E-01        -0.32610E-01         0.00000E+00
    0.59375E-01        -0.30518E-01         0.00000E+00
    0.57752E-01        -0.28492E-01         0.00000E+00
    0.56074E-01        -0.26532E-01         0.00000E+00
    0.54350E-01        -0.24642E-01         0.00000E+00
    0.52585E-01        -0.22823E-01         0.00000E+00
    0.50786E-01        -0.21075E-01         0.00000E+00
    0.48958E-01        -0.19402E-01         0.00000E+00
    0.47109E-01        -0.17802E-01         0.00000E+00
    0.45242E-01        -0.16276E-01         0.00000E+00
    0.43363E-01        -0.14825E-01         0.00000E+00
    0.41478E-01        -0.13449E-01         0.00000E+00
    0.39590E-01        -0.12148E-01         0.00000E+00
    0.37705E-01        -0.10921E-01         0.00000E+00
    0.35827E-01        -0.97672E-02         0.00000E+00
    0.33960E-01        -0.86869E-02         0.00000E+00
    0.32109E-01        -0.76788E-02         0.00000E+00
    0.30276E-01        -0.67420E-02         0.00000E+00
    0.28466E-01        -0.58752E-02         0.00000E+00
    0.26683E-01        -0.50771E-02         0.00000E+00
    0.24930E-01        -0.43462E-02         0.00000E+00
    0.23211E-01        -0.36808E-02         0.00000E+00
    0.21528E-01        -0.30792E-02         0.00000E+00
    0.19885E-01        -0.25392E-02         0.00000E+00
    0.18285E-01        -0.20589E-02         0.00000E+00
    0.16731E-01        -0.16358E-02         0.00000E+00
    0.15226E-01        -0.12673E-02         0.00000E+00
    0.13772E-01        -0.95076E-03         0.00000E+00
    0.12372E-01        -0.68324E-03         0.00000E+00
    0.11029E-01        -0.46159E-03         0.00000E+00
    0.97454E-02        -0.28249E-03         0.00000E+00
    0.85225E-02        -0.14240E-03         0.00000E+00
    0.73628E-02        -0.37600E-04         0.00000E+00
    0.62681E-02         0.35823E-04         0.00000E+00
    0.52401E-02         0.81929E-04         0.00000E+00
    0.42803E-02         0.10492E-03         0.00000E+00
    0.33898E-02         0.10910E-03         0.00000E+00
    0.25696E-02         0.98843E-04         0.00000E+00
    0.18204E-02         0.78524E-04         0.00000E+00
    0.11425E-02         0.52485E-04         0.00000E+00
    0.53583E-03         0.24960E-04         0.00000E+00
    0.00000E+00         0.00000E+00         0.00000E+00
    0.73583E-01        -0.54266E-01         0.00000E+00
    0.72884E-01        -0.51766E-01         0.00000E+00
    0.72049E-01        -0.49278E-01         0.00000E+00
    0.71087E-01        -0.46813E-01         0.00000E+00
    0.70004E-01        -0.44379E-01         0.00000E+00
    0.68809E-01        -0.41984E-01         0.00000E+00
    0.67511E-01        -0.39636E-01         0.00000E+00
    0.66118E-01        -0.37339E-01         0.00000E+00
    0.64638E-01        -0.35100E-01         0.00000E+00
    0.63080E-01        -0.32920E-01         0.00000E+00
    0.61451E-01        -0.30805E-01         0.00000E+00
    0.59759E-01        -0.28755E-01         0.00000E+00
    0.58012E-01        -0.26775E-01         0.00000E+00
    0.56216E-01        -0.24866E-01         0.00000E+00
    0.54378E-01        -0.23029E-01         0.00000E+00
    0.52505E-01        -0.21265E-01         0.00000E+00
    0.50603E-01        -0.19575E-01         0.00000E+00
    0.48679E-01        -0.17961E-01         0.00000E+00
    0.46737E-01        -0.16422E-01         0.00000E+00
    0.44783E-01        -0.14958E-01         0.00000E+00
    0.42822E-01        -0.13570E-01         0.00000E+00
    0.40860E-01        -0.12257E-01         0.00000E+00
    0.38901E-01        -0.11019E-01         0.00000E+00
    0.36949E-01        -0.98554E-02         0.00000E+00
    0.35009E-01        -0.87654E-02         0.00000E+00
    0.33085E-01        -0.77481E-02         0.00000E+00
    0.31182E-01        -0.68025E-02         0.00000E+00
    0.29303E-01        -0.59274E-02         0.00000E+00
    0.27451E-01        -0.51214E-02         0.00000E+00
    0.25632E-01        -0.43832E-02         0.00000E+00
    0.23847E-01        -0.37110E-02         0.00000E+00
    0.22101E-01        -0.31029E-02         0.00000E+00
    0.20397E-01        -0.25571E-02         0.00000E+00
    0.18739E-01        -0.20714E-02         0.00000E+00
    0.17129E-01        -0.16435E-02         0.00000E+00
    0.15570E-01        -0.12708E-02         0.00000E+00
    0.14065E-01        -0.95054E-03         0.00000E+00
    0.12618E-01        -0.67991E-03         0.00000E+00
    0.11231E-01        -0.45574E-03         0.00000E+00
    0.99057E-02        -0.27470E-03         0.00000E+00
    0.86456E-02        -0.13326E-03         0.00000E+00
    0.74526E-02        -0.27663E-04         0.00000E+00
    0.63288E-02         0.46007E-04         0.00000E+00
    0.52761E-02         0.91853E-04         0.00000E+00
    0.42961E-02         0.11413E-03         0.00000E+00
    0.33902E-02         0.11719E-03         0.00000E+00
    0.25596E-02         0.10550E-03         0.00000E+00
    0.18050E-02         0.83534E-04         0.00000E+00
    0.11269E-02         0.55740E-04         0.00000E+00
    0.52536E-03         0.26492E-04         0.00000E+00
    0.00000E+00         0.00000E+00         0.00000E+00
    0.76250E-01        -0.54915E-01         0.00000E+00
    0.75509E-01        -0.52374E-01         0.00000E+00
    0.74629E-01        -0.49847E-01         0.00000E+00
    0.73616E-01        -0.47343E-01         0.00000E+00
    0.72480E-01        -0.44872E-01         0.00000E+00
    0.71230E-01        -0.42443E-01         0.00000E+00
    0.69872E-01        -0.40062E-01         0.00000E+00
    0.68417E-01        -0.37734E-01         0.00000E+00
    0.66873E-01        -0.35466E-01         0.00000E+00
    0.65248E-01        -0.33259E-01         0.00000E+00
    0.63551E-01        -0.31119E-01         0.00000E+00
    0.61788E-01        -0.29047E-01         0.00000E+00
    0.59969E-01        -0.27045E-01         0.00000E+00
    0.58100E-01        -0.25116E-01         0.00000E+00
    0.56188E-01        -0.23260E-01         0.00000E+00
    0.54241E-01        -0.21479E-01         0.00000E+00
    0.52264E-01        -0.19773E-01         0.00000E+00
    0.50263E-01        -0.18144E-01         0.00000E+00
    0.48245E-01        -0.16590E-01         0.00000E+00
    0.46215E-01        -0.15113E-01         0.00000E+00
    0.44179E-01        -0.13712E-01         0.00000E+00
    0.42141E-01        -0.12387E-01         0.00000E+00
    0.40107E-01        -0.11137E-01         0.00000E+00
    0.38081E-01        -0.99625E-02         0.00000E+00
    0.36068E-01        -0.88619E-02         0.00000E+00
    0.34071E-01        -0.78345E-02         0.00000E+00
    0.32097E-01        -0.68792E-02         0.00000E+00
    0.30147E-01        -0.59949E-02         0.00000E+00
    0.28227E-01        -0.51802E-02         0.00000E+00
    0.26341E-01        -0.44336E-02         0.00000E+00
    0.24491E-01        -0.37534E-02         0.00000E+00
    0.22681E-01        -0.31380E-02         0.00000E+00
    0.20916E-01        -0.25853E-02         0.00000E+00
    0.19198E-01        -0.20932E-02         0.00000E+00
    0.17531E-01        -0.16594E-02         0.00000E+00
    0.15918E-01        -0.12814E-02         0.00000E+00
    0.14363E-01        -0.95652E-03         0.00000E+00
    0.12867E-01        -0.68187E-03         0.00000E+00
    0.11435E-01        -0.45431E-03         0.00000E+00
    0.10068E-01        -0.27055E-03         0.00000E+00
    0.87701E-02        -0.12703E-03         0.00000E+00
    0.75433E-02        -0.20009E-04         0.00000E+00
    0.63898E-02         0.54459E-04         0.00000E+00
    0.53119E-02         0.10051E-03         0.00000E+00
    0.43113E-02         0.12244E-03         0.00000E+00
    0.33897E-02         0.12470E-03         0.00000E+00
    0.25484E-02         0.11180E-03         0.00000E+00
    0.17885E-02         0.88336E-04         0.00000E+00
    0.11103E-02         0.58891E-04         0.00000E+00
    0.51429E-03         0.27983E-04         0.00000E+00
    0.00000E+00         0.00000E+00         0.00000E+00
    0.78970E-01        -0.55604E-01         0.00000E+00
    0.78184E-01        -0.53023E-01         0.00000E+00
    0.77254E-01        -0.50455E-01         0.00000E+00
    0.76189E-01        -0.47912E-01         0.00000E+00
    0.74997E-01        -0.45404E-01         0.00000E+00
    0.73687E-01        -0.42938E-01         0.00000E+00
    0.72268E-01        -0.40523E-01         0.00000E+00
    0.70748E-01        -0.38164E-01         0.00000E+00
    0.69137E-01        -0.35866E-01         0.00000E+00
    0.67443E-01        -0.33632E-01         0.00000E+00
    0.65675E-01        -0.31466E-01         0.00000E+00
    0.63841E-01        -0.29369E-01         0.00000E+00
    0.61948E-01        -0.27346E-01         0.00000E+00
    0.60004E-01        -0.25396E-01         0.00000E+00
    0.58017E-01        -0.23521E-01         0.00000E+00
    0.55994E-01        -0.21721E-01         0.00000E+00
    0.53940E-01        -0.19999E-01         0.00000E+00
    0.51863E-01        -0.18353E-01         0.00000E+00
    0.49768E-01        -0.16785E-01         0.00000E+00
    0.47661E-01        -0.15293E-01         0.00000E+00
    0.45549E-01        -0.13879E-01         0.00000E+00
    0.43435E-01        -0.12541E-01         0.00000E+00
    0.41325E-01        -0.11279E-01         0.00000E+00
    0.39224E-01        -0.10092E-01         0.00000E+00
    0.37137E-01        -0.89798E-02         0.00000E+00
    0.35068E-01        -0.79413E-02         0.00000E+00
    0.33021E-01        -0.69753E-02         0.00000E+00
    0.31002E-01        -0.60807E-02         0.00000E+00
    0.29012E-01        -0.52560E-02         0.00000E+00
    0.27058E-01        -0.44999E-02         0.00000E+00
    0.25142E-01        -0.38107E-02         0.00000E+00
    0.23269E-01        -0.31867E-02         0.00000E+00
    0.21442E-01        -0.26259E-02         0.00000E+00
    0.19664E-01        -0.21262E-02         0.00000E+00
    0.17940E-01        -0.16854E-02         0.00000E+00
    0.16272E-01        -0.13010E-02         0.00000E+00
    0.14665E-01        -0.97032E-03         0.00000E+00
    0.13120E-01        -0.69057E-03         0.00000E+00
    0.11642E-01        -0.45863E-03         0.00000E+00
    0.10233E-01        -0.27119E-03         0.00000E+00
    0.88968E-02        -0.12473E-03         0.00000E+00
    0.76355E-02        -0.15510E-04         0.00000E+00
    0.64517E-02         0.60444E-04         0.00000E+00
    0.53480E-02         0.10730E-03         0.00000E+00
    0.43264E-02         0.12939E-03         0.00000E+00
    0.33887E-02         0.13124E-03         0.00000E+00
    0.25365E-02         0.11746E-03         0.00000E+00
    0.17710E-02         0.92745E-04         0.00000E+00
    0.10929E-02         0.61826E-04         0.00000E+00
    0.50265E-03         0.29385E-04         0.00000E+00
    0.00000E+00         0.00000E+00         0.00000E+00
    0.81745E-01        -0.56339E-01         0.00000E+00
    0.80910E-01        -0.53716E-01         0.00000E+00
    0.79927E-01        -0.51106E-01         0.00000E+00
    0.78806E-01        -0.48523E-01         0.00000E+00
    0.77554E-01        -0.45976E-01         0.00000E+00
    0.76182E-01        -0.43474E-01         0.00000E+00
    0.74698E-01        -0.41024E-01         0.00000E+00
    0.73111E-01        -0.38632E-01         0.00000E+00
    0.71431E-01        -0.36303E-01         0.00000E+00
    0.69666E-01        -0.34041E-01         0.00000E+00
    0.67825E-01        -0.31848E-01         0.00000E+00
    0.65917E-01        -0.29728E-01         0.00000E+00
    0.63949E-01        -0.27681E-01         0.00000E+00
    0.61929E-01        -0.25709E-01         0.00000E+00
    0.59865E-01        -0.23814E-01         0.00000E+00
    0.57764E-01        -0.21996E-01         0.00000E+00
    0.55633E-01        -0.20256E-01         0.00000E+00
    0.53478E-01        -0.18594E-01         0.00000E+00
    0.51306E-01        -0.17010E-01         0.00000E+00
    0.49122E-01        -0.15503E-01         0.00000E+00
    0.46932E-01        -0.14074E-01         0.00000E+00
    0.44741E-01        -0.12722E-01         0.00000E+00
    0.42556E-01        -0.11447E-01         0.00000E+00
    0.40380E-01        -0.10247E-01         0.00000E+00
    0.38218E-01        -0.91226E-02         0.00000E+00
    0.36076E-01        -0.80719E-02         0.00000E+00
    0.33957E-01        -0.70940E-02         0.00000E+00
    0.31867E-01        -0.61879E-02         0.00000E+00
    0.29808E-01        -0.53521E-02         0.00000E+00
    0.27786E-01        -0.45852E-02         0.00000E+00
    0.25804E-01        -0.38856E-02         0.00000E+00
    0.23866E-01        -0.32516E-02         0.00000E+00
    0.21976E-01        -0.26813E-02         0.00000E+00
    0.20139E-01        -0.21727E-02         0.00000E+00
    0.18356E-01        -0.17235E-02         0.00000E+00
    0.16633E-01        -0.13314E-02         0.00000E+00
    0.14973E-01        -0.99369E-03         0.00000E+00
    0.13379E-01        -0.70760E-03         0.00000E+00
    0.11854E-01        -0.47009E-03         0.00000E+00
    0.10402E-01        -0.27787E-03         0.00000E+00
    0.90266E-02        -0.12746E-03         0.00000E+00
    0.77300E-02        -0.15098E-04         0.00000E+00
    0.65153E-02         0.63179E-04         0.00000E+00
    0.53851E-02         0.11156E-03         0.00000E+00
    0.43418E-02         0.13445E-03         0.00000E+00
    0.33875E-02         0.13642E-03         0.00000E+00
    0.25240E-02         0.12219E-03         0.00000E+00
    0.17528E-02         0.96564E-04         0.00000E+00
    0.10748E-02         0.64430E-04         0.00000E+00
    0.49050E-03         0.30646E-04         0.00000E+00
    0.00000E+00         0.00000E+00         0.00000E+00
    0.84576E-01        -0.57123E-01         0.00000E+00
    0.83688E-01        -0.54457E-01         0.00000E+00
    0.82649E-01        -0.51805E-01         0.00000E+00
    0.81468E-01        -0.49180E-01         0.00000E+00
    0.80154E-01        -0.46594E-01         0.00000E+00
    0.78716E-01        -0.44054E-01         0.00000E+00
    0.77164E-01        -0.41569E-01         0.00000E+00
    0.75508E-01        -0.39143E-01         0.00000E+00
    0.73756E-01        -0.36783E-01         0.00000E+00
    0.71917E-01        -0.34491E-01         0.00000E+00
    0.70002E-01        -0.32271E-01         0.00000E+00
    0.68017E-01        -0.30125E-01         0.00000E+00
    0.65972E-01        -0.28055E-01         0.00000E+00
    0.63875E-01        -0.26061E-01         0.00000E+00
    0.61733E-01        -0.24146E-01         0.00000E+00
    0.59554E-01        -0.22308E-01         0.00000E+00
    0.57344E-01        -0.20550E-01         0.00000E+00
    0.55110E-01        -0.18870E-01         0.00000E+00
    0.52859E-01        -0.17269E-01         0.00000E+00
    0.50597E-01        -0.15747E-01         0.00000E+00
    0.48330E-01        -0.14303E-01         0.00000E+00
    0.46062E-01        -0.12936E-01         0.00000E+00
    0.43800E-01        -0.11646E-01         0.00000E+00
    0.41549E-01        -0.10432E-01         0.00000E+00
    0.39312E-01        -0.92940E-02         0.00000E+00
    0.37097E-01        -0.82299E-02         0.00000E+00
    0.34905E-01        -0.72389E-02         0.00000E+00
    0.32744E-01        -0.63199E-02         0.00000E+00
    0.30615E-01        -0.54715E-02         0.00000E+00
    0.28525E-01        -0.46924E-02         0.00000E+00
    0.26476E-01        -0.39810E-02         0.00000E+00
    0.24473E-01        -0.33355E-02         0.00000E+00
    0.22521E-01        -0.27542E-02         0.00000E+00
    0.20622E-01        -0.22351E-02         0.00000E+00
    0.18781E-01        -0.17761E-02         0.00000E+00
    0.17002E-01        -0.13747E-02         0.00000E+00
    0.15288E-01        -0.10285E-02         0.00000E+00
    0.13644E-01        -0.73465E-03         0.00000E+00
    0.12072E-01        -0.49021E-03         0.00000E+00
    0.10576E-01        -0.29194E-03         0.00000E+00
    0.91605E-02        -0.13637E-03         0.00000E+00
    0.78278E-02        -0.19767E-04         0.00000E+00
    0.65813E-02         0.61827E-04         0.00000E+00
    0.54238E-02         0.11263E-03         0.00000E+00
    0.43581E-02         0.13708E-03         0.00000E+00
    0.33866E-02         0.13983E-03         0.00000E+00
    0.25114E-02         0.12568E-03         0.00000E+00
    0.17341E-02         0.99587E-04         0.00000E+00
    0.10560E-02         0.66579E-04         0.00000E+00
    0.47792E-03         0.31712E-04         0.00000E+00
    0.00000E+00         0.00000E+00         0.00000E+00
    0.87465E-01        -0.57960E-01         0.00000E+00
    0.86521E-01        -0.55250E-01         0.00000E+00
    0.85421E-01        -0.52554E-01         0.00000E+00
    0.84177E-01        -0.49888E-01         0.00000E+00
    0.82797E-01        -0.47261E-01         0.00000E+00
    0.81291E-01        -0.44682E-01         0.00000E+00
    0.79668E-01        -0.42161E-01         0.00000E+00
    0.77939E-01        -0.39701E-01         0.00000E+00
    0.76112E-01        -0.37309E-01         0.00000E+00
    0.74198E-01        -0.34987E-01         0.00000E+00
    0.72205E-01        -0.32740E-01         0.00000E+00
    0.70143E-01        -0.30567E-01         0.00000E+00
    0.68019E-01        -0.28473E-01         0.00000E+00
    0.65843E-01        -0.26456E-01         0.00000E+00
    0.63621E-01        -0.24519E-01         0.00000E+00
    0.61362E-01        -0.22662E-01         0.00000E+00
    0.59073E-01        -0.20884E-01         0.00000E+00
    0.56760E-01        -0.19186E-01         0.00000E+00
    0.54430E-01        -0.17568E-01         0.00000E+00
    0.52089E-01        -0.16029E-01         0.00000E+00
    0.49743E-01        -0.14568E-01         0.00000E+00
    0.47398E-01        -0.13186E-01         0.00000E+00
    0.45059E-01        -0.11880E-01         0.00000E+00
    0.42732E-01        -0.10651E-01         0.00000E+00
    0.40421E-01        -0.94981E-02         0.00000E+00
    0.38131E-01        -0.84192E-02         0.00000E+00
    0.35867E-01        -0.74137E-02         0.00000E+00
    0.33634E-01        -0.64803E-02         0.00000E+00
    0.31436E-01        -0.56179E-02         0.00000E+00
    0.29276E-01        -0.48249E-02         0.00000E+00
    0.27161E-01        -0.41000E-02         0.00000E+00
    0.25093E-01        -0.34414E-02         0.00000E+00
    0.23077E-01        -0.28474E-02         0.00000E+00
    0.21117E-01        -0.23161E-02         0.00000E+00
    0.19217E-01        -0.18455E-02         0.00000E+00
    0.17381E-01        -0.14332E-02         0.00000E+00
    0.15613E-01        -0.10768E-02         0.00000E+00
    0.13917E-01        -0.77354E-03         0.00000E+00
    0.12297E-01        -0.52062E-03         0.00000E+00
    0.10757E-01        -0.31481E-03         0.00000E+00
    0.92998E-02        -0.15270E-03         0.00000E+00
    0.79300E-02        -0.30583E-04         0.00000E+00
    0.66507E-02         0.55497E-04         0.00000E+00
    0.54651E-02         0.10977E-03         0.00000E+00
    0.43761E-02         0.13670E-03         0.00000E+00
    0.33867E-02         0.14101E-03         0.00000E+00
    0.24990E-02         0.12762E-03         0.00000E+00
    0.17153E-02         0.10160E-03         0.00000E+00
    0.10369E-02         0.68144E-04         0.00000E+00
    0.46501E-03         0.32526E-04         0.00000E+00
    0.00000E+00         0.00000E+00         0.00000E+00
    0.90413E-01        -0.58854E-01         0.00000E+00
    0.89408E-01        -0.56098E-01         0.00000E+00
    0.88245E-01        -0.53359E-01         0.00000E+00
    0.86934E-01        -0.50649E-01         0.00000E+00
    0.85484E-01        -0.47981E-01         0.00000E+00
    0.83906E-01        -0.45364E-01         0.00000E+00
    0.82209E-01        -0.42805E-01         0.00000E+00
    0.80404E-01        -0.40311E-01         0.00000E+00
    0.78501E-01        -0.37886E-01         0.00000E+00
    0.76508E-01        -0.35534E-01         0.00000E+00
    0.74436E-01        -0.33257E-01         0.00000E+00
    0.72294E-01        -0.31058E-01         0.00000E+00
    0.70090E-01        -0.28939E-01         0.00000E+00
    0.67833E-01        -0.26899E-01         0.00000E+00
    0.65531E-01        -0.24940E-01         0.00000E+00
    0.63191E-01        -0.23062E-01         0.00000E+00
    0.60821E-01        -0.21264E-01         0.00000E+00
    0.58427E-01        -0.19547E-01         0.00000E+00
    0.56018E-01        -0.17910E-01         0.00000E+00
    0.53597E-01        -0.16354E-01         0.00000E+00
    0.51173E-01        -0.14876E-01         0.00000E+00
    0.48750E-01        -0.13476E-01         0.00000E+00
    0.46334E-01        -0.12154E-01         0.00000E+00
    0.43931E-01        -0.10909E-01         0.00000E+00
    0.41545E-01        -0.97391E-02         0.00000E+00
    0.39181E-01        -0.86439E-02         0.00000E+00
    0.36844E-01        -0.76223E-02         0.00000E+00
    0.34539E-01        -0.66730E-02         0.00000E+00
    0.32271E-01        -0.57948E-02         0.00000E+00
    0.30043E-01        -0.49863E-02         0.00000E+00
    0.27860E-01        -0.42460E-02         0.00000E+00
    0.25726E-01        -0.35724E-02         0.00000E+00
    0.23646E-01        -0.29638E-02         0.00000E+00
    0.21624E-01        -0.24184E-02         0.00000E+00
    0.19664E-01        -0.19342E-02         0.00000E+00
    0.17771E-01        -0.15091E-02         0.00000E+00
    0.15948E-01        -0.11406E-02         0.00000E+00
    0.14200E-01        -0.82622E-03         0.00000E+00
    0.12531E-01        -0.56305E-03         0.00000E+00
    0.10945E-01        -0.34803E-03         0.00000E+00
    0.94460E-02        -0.17779E-03         0.00000E+00
    0.80380E-02        -0.48683E-04         0.00000E+00
    0.67248E-02         0.43233E-04         0.00000E+00
    0.55099E-02         0.10219E-03         0.00000E+00
    0.43968E-02         0.13268E-03         0.00000E+00
    0.33884E-02         0.13950E-03         0.00000E+00
    0.24876E-02         0.12765E-03         0.00000E+00
    0.16968E-02         0.10236E-03         0.00000E+00
    0.10178E-02         0.68986E-04         0.00000E+00
    0.45191E-03         0.33027E-04         0.00000E+00
    0.00000E+00         0.00000E+00         0.00000E+00
    0.93422E-01        -0.59809E-01         0.00000E+00
    0.92352E-01        -0.57008E-01         0.00000E+00
    0.91121E-01        -0.54223E-01         0.00000E+00
    0.89739E-01        -0.51470E-01         0.00000E+00
    0.88216E-01        -0.48760E-01         0.00000E+00
    0.86563E-01        -0.46102E-01         0.00000E+00
    0.84789E-01        -0.43506E-01         0.00000E+00
    0.82905E-01        -0.40976E-01         0.00000E+00
    0.80922E-01        -0.38518E-01         0.00000E+00
    0.78849E-01        -0.36135E-01         0.00000E+00
    0.76696E-01        -0.33829E-01         0.00000E+00
    0.74472E-01        -0.31603E-01         0.00000E+00
    0.72186E-01        -0.29458E-01         0.00000E+00
    0.69846E-01        -0.27394E-01         0.00000E+00
    0.67462E-01        -0.25413E-01         0.00000E+00
    0.65040E-01        -0.23513E-01         0.00000E+00
    0.62589E-01        -0.21694E-01         0.00000E+00
    0.60114E-01        -0.19958E-01         0.00000E+00
    0.57624E-01        -0.18302E-01         0.00000E+00
    0.55124E-01        -0.16726E-01         0.00000E+00
    0.52621E-01        -0.15230E-01         0.00000E+00
    0.50120E-01        -0.13812E-01         0.00000E+00
    0.47627E-01        -0.12472E-01         0.00000E+00
    0.45147E-01        -0.11209E-01         0.00000E+00
    0.42686E-01        -0.10021E-01         0.00000E+00
    0.40248E-01        -0.89086E-02         0.00000E+00
    0.37838E-01        -0.78692E-02         0.00000E+00
    0.35462E-01        -0.69022E-02         0.00000E+00
    0.33123E-01        -0.60063E-02         0.00000E+00
    0.30825E-01        -0.51802E-02         0.00000E+00
    0.28575E-01        -0.44226E-02         0.00000E+00
    0.26375E-01        -0.37319E-02         0.00000E+00
    0.24231E-01        -0.31066E-02         0.00000E+00
    0.22146E-01        -0.25450E-02         0.00000E+00
    0.20126E-01        -0.20452E-02         0.00000E+00
    0.18174E-01        -0.16050E-02         0.00000E+00
    0.16296E-01        -0.12224E-02         0.00000E+00
    0.14495E-01        -0.89476E-03         0.00000E+00
    0.12776E-01        -0.61936E-03         0.00000E+00
    0.11143E-01        -0.39323E-03         0.00000E+00
    0.96005E-02        -0.21307E-03         0.00000E+00
    0.81532E-02        -0.75284E-04         0.00000E+00
    0.68049E-02         0.24018E-04         0.00000E+00
    0.55596E-02         0.89059E-04         0.00000E+00
    0.44210E-02         0.12437E-03         0.00000E+00
    0.33927E-02         0.13479E-03         0.00000E+00
    0.24778E-02         0.12542E-03         0.00000E+00
    0.16791E-02         0.10162E-03         0.00000E+00
    0.99887E-03         0.68957E-04         0.00000E+00
    0.43879E-03         0.33149E-04         0.00000E+00
    0.00000E+00         0.00000E+00         0.00000E+00
    0.96492E-01        -0.60829E-01         0.00000E+00
    0.95353E-01        -0.57981E-01         0.00000E+00
    0.94050E-01        -0.55151E-01         0.00000E+00
    0.92593E-01        -0.52354E-01         0.00000E+00
    0.90994E-01        -0.49601E-01         0.00000E+00
    0.89262E-01        -0.46903E-01         0.00000E+00
    0.87408E-01        -0.44269E-01         0.00000E+00
    0.85443E-01        -0.41703E-01         0.00000E+00
    0.83377E-01        -0.39211E-01         0.00000E+00
    0.81221E-01        -0.36796E-01         0.00000E+00
    0.78984E-01        -0.34461E-01         0.00000E+00
    0.76677E-01        -0.32207E-01         0.00000E+00
    0.74307E-01        -0.30036E-01         0.00000E+00
    0.71884E-01        -0.27948E-01         0.00000E+00
    0.69416E-01        -0.25942E-01         0.00000E+00
    0.66911E-01        -0.24020E-01         0.00000E+00
    0.64377E-01        -0.22181E-01         0.00000E+00
    0.61821E-01        -0.20423E-01         0.00000E+00
    0.59250E-01        -0.18747E-01         0.00000E+00
    0.56670E-01        -0.17152E-01         0.00000E+00
    0.54087E-01        -0.15636E-01         0.00000E+00
    0.51508E-01        -0.14199E-01         0.00000E+00
    0.48938E-01        -0.12840E-01         0.00000E+00
    0.46382E-01        -0.11557E-01         0.00000E+00
    0.43846E-01        -0.10350E-01         0.00000E+00
    0.41334E-01        -0.92178E-02         0.00000E+00
    0.38851E-01        -0.81588E-02         0.00000E+00
    0.36403E-01        -0.71721E-02         0.00000E+00
    0.33993E-01        -0.62565E-02         0.00000E+00
    0.31627E-01        -0.54108E-02         0.00000E+00
    0.29308E-01        -0.46336E-02         0.00000E+00
    0.27042E-01        -0.39236E-02         0.00000E+00
    0.24833E-01        -0.32792E-02         0.00000E+00
    0.22686E-01        -0.26990E-02         0.00000E+00
    0.20604E-01        -0.21812E-02         0.00000E+00
    0.18594E-01        -0.17237E-02         0.00000E+00
    0.16659E-01        -0.13246E-02         0.00000E+00
    0.14803E-01        -0.98140E-03         0.00000E+00
    0.13033E-01        -0.69155E-03         0.00000E+00
    0.11352E-01        -0.45216E-03         0.00000E+00
    0.97653E-02        -0.26004E-03         0.00000E+00
    0.82773E-02        -0.11169E-03         0.00000E+00
    0.68925E-02        -0.32390E-05         0.00000E+00
    0.56154E-02         0.69493E-04         0.00000E+00
    0.44501E-02         0.11105E-03         0.00000E+00
    0.34006E-02         0.12632E-03         0.00000E+00
    0.24705E-02         0.12051E-03         0.00000E+00
    0.16629E-02         0.99119E-04         0.00000E+00
    0.98065E-03         0.67901E-04         0.00000E+00
    0.42585E-03         0.32825E-04         0.00000E+00
    0.00000E+00         0.00000E+00         0.00000E+00
    0.99626E-01        -0.61919E-01         0.00000E+00
    0.98412E-01        -0.59025E-01         0.00000E+00
    0.97033E-01        -0.56148E-01         0.00000E+00
    0.95498E-01        -0.53306E-01         0.00000E+00
    0.93818E-01        -0.50510E-01         0.00000E+00
    0.92004E-01        -0.47771E-01         0.00000E+00
    0.90067E-01        -0.45098E-01         0.00000E+00
    0.88017E-01        -0.42496E-01         0.00000E+00
    0.85867E-01        -0.39969E-01         0.00000E+00
    0.83625E-01        -0.37522E-01         0.00000E+00
    0.81302E-01        -0.35157E-01         0.00000E+00
    0.78909E-01        -0.32875E-01         0.00000E+00
    0.76453E-01        -0.30678E-01         0.00000E+00
    0.73945E-01        -0.28564E-01         0.00000E+00
    0.71393E-01        -0.26535E-01         0.00000E+00
    0.68804E-01        -0.24590E-01         0.00000E+00
    0.66187E-01        -0.22728E-01         0.00000E+00
    0.63549E-01        -0.20950E-01         0.00000E+00
    0.60896E-01        -0.19252E-01         0.00000E+00
    0.58236E-01        -0.17636E-01         0.00000E+00
    0.55574E-01        -0.16100E-01         0.00000E+00
    0.52916E-01        -0.14642E-01         0.00000E+00
    0.50269E-01        -0.13262E-01         0.00000E+00
    0.47637E-01        -0.11958E-01         0.00000E+00
    0.45026E-01        -0.10730E-01         0.00000E+00
    0.42440E-01        -0.95765E-02         0.00000E+00
    0.39884E-01        -0.84959E-02         0.00000E+00
    0.37364E-01        -0.74875E-02         0.00000E+00
    0.34884E-01        -0.65499E-02         0.00000E+00
    0.32449E-01        -0.56822E-02         0.00000E+00
    0.30062E-01        -0.48831E-02         0.00000E+00
    0.27730E-01        -0.41512E-02         0.00000E+00
    0.25456E-01        -0.34853E-02         0.00000E+00
    0.23245E-01        -0.28839E-02         0.00000E+00
    0.21102E-01        -0.23454E-02         0.00000E+00
    0.19031E-01        -0.18680E-02         0.00000E+00
    0.17039E-01        -0.14498E-02         0.00000E+00
    0.15128E-01        -0.10885E-02         0.00000E+00
    0.13306E-01        -0.78173E-03         0.00000E+00
    0.11575E-01        -0.52670E-03         0.00000E+00
    0.99424E-02        -0.32035E-03         0.00000E+00
    0.84122E-02        -0.15928E-03         0.00000E+00
    0.69894E-02        -0.39703E-04         0.00000E+00
    0.56790E-02         0.42534E-04         0.00000E+00
    0.44854E-02         0.91972E-04         0.00000E+00
    0.34132E-02         0.11354E-03         0.00000E+00
    0.24665E-02         0.11252E-03         0.00000E+00
    0.16488E-02         0.94572E-04         0.00000E+00
    0.96359E-03         0.65649E-04         0.00000E+00
    0.41332E-03         0.31980E-04         0.00000E+00
    0.00000E+00         0.00000E+00         0.00000E+00
    0.10282E+00        -0.63084E-01         0.00000E+00
    0.10153E+00        -0.60142E-01         0.00000E+00
    0.10007E+00        -0.57219E-01         0.00000E+00
    0.98454E-01        -0.54331E-01         0.00000E+00
    0.96689E-01        -0.51492E-01         0.00000E+00
    0.94790E-01        -0.48712E-01         0.00000E+00
    0.92766E-01        -0.45999E-01         0.00000E+00
    0.90629E-01        -0.43360E-01         0.00000E+00
    0.88390E-01        -0.40799E-01         0.00000E+00
    0.86061E-01        -0.38320E-01         0.00000E+00
    0.83650E-01        -0.35924E-01         0.00000E+00
    0.81169E-01        -0.33614E-01         0.00000E+00
    0.78626E-01        -0.31389E-01         0.00000E+00
    0.76032E-01        -0.29250E-01         0.00000E+00
    0.73393E-01        -0.27196E-01         0.00000E+00
    0.70720E-01        -0.25228E-01         0.00000E+00
    0.68019E-01        -0.23343E-01         0.00000E+00
    0.65298E-01        -0.21542E-01         0.00000E+00
    0.62564E-01        -0.19823E-01         0.00000E+00
    0.59823E-01        -0.18185E-01         0.00000E+00
    0.57082E-01        -0.16626E-01         0.00000E+00
    0.54346E-01        -0.15147E-01         0.00000E+00
    0.51622E-01        -0.13744E-01         0.00000E+00
    0.48914E-01        -0.12418E-01         0.00000E+00
    0.46228E-01        -0.11167E-01         0.00000E+00
    0.43568E-01        -0.99900E-02         0.00000E+00
    0.40941E-01        -0.88857E-02         0.00000E+00
    0.38349E-01        -0.78532E-02         0.00000E+00
    0.35799E-01        -0.68914E-02         0.00000E+00
    0.33294E-01        -0.59991E-02         0.00000E+00
    0.30840E-01        -0.51754E-02         0.00000E+00
    0.28440E-01        -0.44190E-02         0.00000E+00
    0.26101E-01        -0.37287E-02         0.00000E+00
    0.23826E-01        -0.31033E-02         0.00000E+00
    0.21621E-01        -0.25412E-02         0.00000E+00
    0.19490E-01        -0.20410E-02         0.00000E+00
    0.17439E-01        -0.16008E-02         0.00000E+00
    0.15472E-01        -0.12186E-02         0.00000E+00
    0.13596E-01        -0.89217E-03         0.00000E+00
    0.11815E-01        -0.61884E-03         0.00000E+00
    0.10134E-01        -0.39573E-03         0.00000E+00
    0.85602E-02        -0.21955E-03         0.00000E+00
    0.70977E-02        -0.86620E-04         0.00000E+00
    0.57521E-02         0.71632E-05         0.00000E+00
    0.45285E-02         0.66319E-04         0.00000E+00
    0.34319E-02         0.95801E-04         0.00000E+00
    0.24669E-02         0.10099E-03         0.00000E+00
    0.16377E-02         0.87674E-04         0.00000E+00
    0.94820E-03         0.62020E-04         0.00000E+00
    0.40147E-03         0.30534E-04         0.00000E+00
    0.00000E+00         0.00000E+00         0.00000E+00
    0.10609E+00        -0.64328E-01         0.00000E+00
    0.10471E+00        -0.61338E-01         0.00000E+00
    0.10317E+00        -0.58368E-01         0.00000E+00
    0.10146E+00        -0.55435E-01         0.00000E+00
    0.99609E-01        -0.52552E-01         0.00000E+00
    0.97619E-01        -0.49730E-01         0.00000E+00
    0.95505E-01        -0.46977E-01         0.00000E+00
    0.93278E-01        -0.44301E-01         0.00000E+00
    0.90949E-01        -0.41706E-01         0.00000E+00
    0.88529E-01        -0.39194E-01         0.00000E+00
    0.86028E-01        -0.36767E-01         0.00000E+00
    0.83457E-01        -0.34428E-01         0.00000E+00
    0.80826E-01        -0.32176E-01         0.00000E+00
    0.78143E-01        -0.30011E-01         0.00000E+00
    0.75418E-01        -0.27932E-01         0.00000E+00
    0.72659E-01        -0.25939E-01         0.00000E+00
    0.69874E-01        -0.24032E-01         0.00000E+00
    0.67070E-01        -0.22207E-01         0.00000E+00
    0.64254E-01        -0.20465E-01         0.00000E+00
    0.61433E-01        -0.18804E-01         0.00000E+00
    0.58612E-01        -0.17222E-01         0.00000E+00
    0.55799E-01        -0.15719E-01         0.00000E+00
    0.52998E-01        -0.14293E-01         0.00000E+00
    0.50214E-01        -0.12942E-01         0.00000E+00
    0.47454E-01        -0.11666E-01         0.00000E+00
    0.44722E-01        -0.10464E-01         0.00000E+00
    0.42022E-01        -0.93335E-02         0.00000E+00
    0.39359E-01        -0.82745E-02         0.00000E+00
    0.36739E-01        -0.72858E-02         0.00000E+00
    0.34165E-01        -0.63663E-02         0.00000E+00
    0.31643E-01        -0.55151E-02         0.00000E+00
    0.29177E-01        -0.47311E-02         0.00000E+00
    0.26772E-01        -0.40135E-02         0.00000E+00
    0.24433E-01        -0.33609E-02         0.00000E+00
    0.22165E-01        -0.27722E-02         0.00000E+00
    0.19972E-01        -0.22460E-02         0.00000E+00
    0.17862E-01        -0.17807E-02         0.00000E+00
    0.15838E-01        -0.13745E-02         0.00000E+00
    0.13906E-01        -0.10253E-02         0.00000E+00
    0.12073E-01        -0.73072E-03         0.00000E+00
    0.10343E-01        -0.48804E-03         0.00000E+00
    0.87236E-02        -0.29409E-03         0.00000E+00
    0.72194E-02        -0.14532E-03         0.00000E+00
    0.58367E-02        -0.37711E-04         0.00000E+00
    0.45811E-02         0.33225E-04         0.00000E+00
    0.34581E-02         0.72456E-04         0.00000E+00
    0.24729E-02         0.85438E-04         0.00000E+00
    0.16305E-02         0.78099E-04         0.00000E+00
    0.93513E-03         0.56821E-04         0.00000E+00
    0.39061E-03         0.28402E-04         0.00000E+00
    0.00000E+00         0.00000E+00         0.00000E+00
    0.10942E+00        -0.65657E-01         0.00000E+00
    0.10795E+00        -0.62619E-01         0.00000E+00
    0.10632E+00        -0.59602E-01         0.00000E+00
    0.10452E+00        -0.56622E-01         0.00000E+00
    0.10258E+00        -0.53695E-01         0.00000E+00
    0.10049E+00        -0.50831E-01         0.00000E+00
    0.98286E-01        -0.48039E-01         0.00000E+00
    0.95965E-01        -0.45325E-01         0.00000E+00
    0.93542E-01        -0.42695E-01         0.00000E+00
    0.91029E-01        -0.40150E-01         0.00000E+00
    0.88436E-01        -0.37693E-01         0.00000E+00
    0.85774E-01        -0.35324E-01         0.00000E+00
    0.83053E-01        -0.33044E-01         0.00000E+00
    0.80281E-01        -0.30853E-01         0.00000E+00
    0.77468E-01        -0.28749E-01         0.00000E+00
    0.74623E-01        -0.26732E-01         0.00000E+00
    0.71753E-01        -0.24799E-01         0.00000E+00
    0.68865E-01        -0.22951E-01         0.00000E+00
    0.65968E-01        -0.21185E-01         0.00000E+00
    0.63066E-01        -0.19500E-01         0.00000E+00
    0.60167E-01        -0.17894E-01         0.00000E+00
    0.57276E-01        -0.16365E-01         0.00000E+00
    0.54399E-01        -0.14914E-01         0.00000E+00
    0.51541E-01        -0.13537E-01         0.00000E+00
    0.48707E-01        -0.12234E-01         0.00000E+00
    0.45902E-01        -0.11004E-01         0.00000E+00
    0.43130E-01        -0.98450E-02         0.00000E+00
    0.40397E-01        -0.87569E-02         0.00000E+00
    0.37708E-01        -0.77385E-02         0.00000E+00
    0.35065E-01        -0.67888E-02         0.00000E+00
    0.32476E-01        -0.59070E-02         0.00000E+00
    0.29943E-01        -0.50924E-02         0.00000E+00
    0.27472E-01        -0.43440E-02         0.00000E+00
    0.25068E-01        -0.36609E-02         0.00000E+00
    0.22737E-01        -0.30421E-02         0.00000E+00
    0.20482E-01        -0.24864E-02         0.00000E+00
    0.18311E-01        -0.19925E-02         0.00000E+00
    0.16228E-01        -0.15589E-02         0.00000E+00
    0.14240E-01        -0.11837E-02         0.00000E+00
    0.12353E-01        -0.86462E-03         0.00000E+00
    0.10572E-01        -0.59925E-03         0.00000E+00
    0.89051E-02        -0.38460E-03         0.00000E+00
    0.73572E-02        -0.21723E-03         0.00000E+00
    0.59351E-02        -0.93254E-04         0.00000E+00
    0.46452E-02        -0.82365E-05         0.00000E+00
    0.34935E-02         0.42790E-04         0.00000E+00
    0.24860E-02         0.65345E-04         0.00000E+00
    0.16282E-02         0.65496E-04         0.00000E+00
    0.92506E-03         0.49845E-04         0.00000E+00
    0.38110E-03         0.25493E-04         0.00000E+00
    0.00000E+00         0.00000E+00         0.00000E+00
    0.11281E+00        -0.67076E-01         0.00000E+00
    0.11126E+00        -0.63990E-01         0.00000E+00
    0.10953E+00        -0.60924E-01         0.00000E+00
    0.10763E+00        -0.57898E-01         0.00000E+00
    0.10559E+00        -0.54927E-01         0.00000E+00
    0.10341E+00        -0.52021E-01         0.00000E+00
    0.10111E+00        -0.49189E-01         0.00000E+00
    0.98690E-01        -0.46438E-01         0.00000E+00
    0.96171E-01        -0.43772E-01         0.00000E+00
    0.93563E-01        -0.41195E-01         0.00000E+00
    0.90875E-01        -0.38707E-01         0.00000E+00
    0.88120E-01        -0.36309E-01         0.00000E+00
    0.85307E-01        -0.34001E-01         0.00000E+00
    0.82445E-01        -0.31783E-01         0.00000E+00
    0.79544E-01        -0.29653E-01         0.00000E+00
    0.76611E-01        -0.27611E-01         0.00000E+00
    0.73656E-01        -0.25654E-01         0.00000E+00
    0.70685E-01        -0.23781E-01         0.00000E+00
    0.67706E-01        -0.21990E-01         0.00000E+00
    0.64724E-01        -0.20279E-01         0.00000E+00
    0.61747E-01        -0.18647E-01         0.00000E+00
    0.58779E-01        -0.17093E-01         0.00000E+00
    0.55827E-01        -0.15613E-01         0.00000E+00
    0.52894E-01        -0.14209E-01         0.00000E+00
    0.49988E-01        -0.12876E-01         0.00000E+00
    0.47111E-01        -0.11616E-01         0.00000E+00
    0.44269E-01        -0.10426E-01         0.00000E+00
    0.41467E-01        -0.93063E-02         0.00000E+00
    0.38708E-01        -0.82551E-02         0.00000E+00
    0.35998E-01        -0.72721E-02         0.00000E+00
    0.33340E-01        -0.63565E-02         0.00000E+00
    0.30741E-01        -0.55076E-02         0.00000E+00
    0.28205E-01        -0.47249E-02         0.00000E+00
    0.25736E-01        -0.40076E-02         0.00000E+00
    0.23340E-01        -0.33549E-02         0.00000E+00
    0.21023E-01        -0.27660E-02         0.00000E+00
    0.18790E-01        -0.22398E-02         0.00000E+00
    0.16648E-01        -0.17750E-02         0.00000E+00
    0.14602E-01        -0.13701E-02         0.00000E+00
    0.12659E-01        -0.10230E-02         0.00000E+00
    0.10825E-01        -0.73150E-03         0.00000E+00
    0.91077E-02        -0.49287E-03         0.00000E+00
    0.75136E-02        -0.30387E-03         0.00000E+00
    0.60498E-02        -0.16071E-03         0.00000E+00
    0.47230E-02        -0.59059E-04         0.00000E+00
    0.35401E-02         0.60412E-05         0.00000E+00
    0.25077E-02         0.40158E-04         0.00000E+00
    0.16320E-02         0.49493E-04         0.00000E+00
    0.91879E-03         0.40868E-04         0.00000E+00
    0.37333E-03         0.21709E-04         0.00000E+00
    0.00000E+00         0.00000E+00         0.00000E+00
    0.11628E+00        -0.68590E-01         0.00000E+00
    0.11462E+00        -0.65455E-01         0.00000E+00
    0.11279E+00        -0.62342E-01         0.00000E+00
    0.11080E+00        -0.59270E-01         0.00000E+00
    0.10866E+00        -0.56254E-01         0.00000E+00
    0.10638E+00        -0.53306E-01         0.00000E+00
    0.10397E+00        -0.50434E-01         0.00000E+00
    0.10145E+00        -0.47646E-01         0.00000E+00
    0.98836E-01        -0.44945E-01         0.00000E+00
    0.96129E-01        -0.42335E-01         0.00000E+00
    0.93345E-01        -0.39816E-01         0.00000E+00
    0.90495E-01        -0.37389E-01         0.00000E+00
    0.87588E-01        -0.35053E-01         0.00000E+00
    0.84635E-01        -0.32808E-01         0.00000E+00
    0.81645E-01        -0.30652E-01         0.00000E+00
    0.78625E-01        -0.28584E-01         0.00000E+00
    0.75585E-01        -0.26602E-01         0.00000E+00
    0.72531E-01        -0.24703E-01         0.00000E+00
    0.69470E-01        -0.22886E-01         0.00000E+00
    0.66409E-01        -0.21149E-01         0.00000E+00
    0.63354E-01        -0.19490E-01         0.00000E+00
    0.60310E-01        -0.17907E-01         0.00000E+00
    0.57283E-01        -0.16399E-01         0.00000E+00
    0.54278E-01        -0.14964E-01         0.00000E+00
    0.51300E-01        -0.13600E-01         0.00000E+00
    0.48352E-01        -0.12307E-01         0.00000E+00
    0.45441E-01        -0.11084E-01         0.00000E+00
    0.42569E-01        -0.99288E-02         0.00000E+00
    0.39743E-01        -0.88417E-02         0.00000E+00
    0.36965E-01        -0.78219E-02         0.00000E+00
    0.34241E-01        -0.68688E-02         0.00000E+00
    0.31576E-01        -0.59820E-02         0.00000E+00
    0.28973E-01        -0.51610E-02         0.00000E+00
    0.26439E-01        -0.44055E-02         0.00000E+00
    0.23979E-01        -0.37150E-02         0.00000E+00
    0.21599E-01        -0.30888E-02         0.00000E+00
    0.19303E-01        -0.25261E-02         0.00000E+00
    0.17099E-01        -0.20261E-02         0.00000E+00
    0.14994E-01        -0.15874E-02         0.00000E+00
    0.12993E-01        -0.12084E-02         0.00000E+00
    0.11104E-01        -0.88702E-03         0.00000E+00
    0.93346E-02        -0.62086E-03         0.00000E+00
    0.76918E-02        -0.40686E-03         0.00000E+00
    0.61834E-02        -0.24142E-03         0.00000E+00
    0.48169E-02        -0.12031E-03         0.00000E+00
    0.35998E-02        -0.38606E-04         0.00000E+00
    0.25395E-02         0.92827E-05         0.00000E+00
    0.16431E-02         0.29685E-04         0.00000E+00
    0.91719E-03         0.29653E-04         0.00000E+00
    0.36774E-03         0.16945E-04         0.00000E+00
    0.00000E+00         0.00000E+00         0.00000E+00
    0.11981E+00        -0.70205E-01         0.00000E+00
    0.11805E+00        -0.67021E-01         0.00000E+00
    0.11612E+00        -0.63860E-01         0.00000E+00
    0.11402E+00        -0.60742E-01         0.00000E+00
    0.11177E+00        -0.57682E-01         0.00000E+00
    0.10939E+00        -0.54692E-01         0.00000E+00
    0.10688E+00        -0.51781E-01         0.00000E+00
    0.10426E+00        -0.48956E-01         0.00000E+00
    0.10154E+00        -0.46220E-01         0.00000E+00
    0.98728E-01        -0.43577E-01         0.00000E+00
    0.95845E-01        -0.41027E-01         0.00000E+00
    0.92899E-01        -0.38570E-01         0.00000E+00
    0.89898E-01        -0.36207E-01         0.00000E+00
    0.86852E-01        -0.33935E-01         0.00000E+00
    0.83772E-01        -0.31753E-01         0.00000E+00
    0.80665E-01        -0.29659E-01         0.00000E+00
    0.77539E-01        -0.27650E-01         0.00000E+00
    0.74402E-01        -0.25726E-01         0.00000E+00
    0.71260E-01        -0.23882E-01         0.00000E+00
    0.68121E-01        -0.22117E-01         0.00000E+00
    0.64989E-01        -0.20430E-01         0.00000E+00
    0.61870E-01        -0.18817E-01         0.00000E+00
    0.58770E-01        -0.17278E-01         0.00000E+00
    0.55694E-01        -0.15810E-01         0.00000E+00
    0.52645E-01        -0.14413E-01         0.00000E+00
    0.49628E-01        -0.13084E-01         0.00000E+00
    0.46648E-01        -0.11824E-01         0.00000E+00
    0.43710E-01        -0.10631E-01         0.00000E+00
    0.40816E-01        -0.95044E-02         0.00000E+00
    0.37972E-01        -0.84442E-02         0.00000E+00
    0.35182E-01        -0.74497E-02         0.00000E+00
    0.32450E-01        -0.65209E-02         0.00000E+00
    0.29782E-01        -0.56576E-02         0.00000E+00
    0.27183E-01        -0.48596E-02         0.00000E+00
    0.24658E-01        -0.41268E-02         0.00000E+00
    0.22213E-01        -0.34588E-02         0.00000E+00
    0.19854E-01        -0.28553E-02         0.00000E+00
    0.17588E-01        -0.23156E-02         0.00000E+00
    0.15421E-01        -0.18388E-02         0.00000E+00
    0.13360E-01        -0.14235E-02         0.00000E+00
    0.11414E-01        -0.10682E-02         0.00000E+00
    0.95895E-02        -0.77063E-03         0.00000E+00
    0.78951E-02        -0.52795E-03         0.00000E+00
    0.63390E-02        -0.33681E-03         0.00000E+00
    0.49295E-02        -0.19311E-03         0.00000E+00
    0.36750E-02        -0.92023E-04         0.00000E+00
    0.25835E-02        -0.27918E-04         0.00000E+00
    0.16631E-02         0.56442E-05         0.00000E+00
    0.92126E-03         0.15943E-04         0.00000E+00
    0.36484E-03         0.11088E-04         0.00000E+00
    0.00000E+00         0.00000E+00         0.00000E+00
    0.12342E+00        -0.71927E-01         0.00000E+00
    0.12155E+00        -0.68694E-01         0.00000E+00
    0.11950E+00        -0.65486E-01         0.00000E+00
    0.11729E+00        -0.62322E-01         0.00000E+00
    0.11494E+00        -0.59217E-01         0.00000E+00
    0.11244E+00        -0.56186E-01         0.00000E+00
    0.10982E+00        -0.53235E-01         0.00000E+00
    0.10709E+00        -0.50373E-01         0.00000E+00
    0.10427E+00        -0.47603E-01         0.00000E+00
    0.10136E+00        -0.44927E-01         0.00000E+00
    0.98376E-01        -0.42347E-01         0.00000E+00
    0.95331E-01        -0.39862E-01         0.00000E+00
    0.92234E-01        -0.37470E-01         0.00000E+00
    0.89096E-01        -0.35171E-01         0.00000E+00
    0.85925E-01        -0.32963E-01         0.00000E+00
    0.82730E-01        -0.30843E-01         0.00000E+00
    0.79519E-01        -0.28808E-01         0.00000E+00
    0.76300E-01        -0.26856E-01         0.00000E+00
    0.73078E-01        -0.24984E-01         0.00000E+00
    0.69861E-01        -0.23191E-01         0.00000E+00
    0.66654E-01        -0.21474E-01         0.00000E+00
    0.63462E-01        -0.19830E-01         0.00000E+00
    0.60290E-01        -0.18257E-01         0.00000E+00
    0.57144E-01        -0.16755E-01         0.00000E+00
    0.54026E-01        -0.15321E-01         0.00000E+00
    0.50942E-01        -0.13954E-01         0.00000E+00
    0.47895E-01        -0.12654E-01         0.00000E+00
    0.44890E-01        -0.11419E-01         0.00000E+00
    0.41931E-01        -0.10250E-01         0.00000E+00
    0.39021E-01        -0.91454E-02         0.00000E+00
    0.36166E-01        -0.81055E-02         0.00000E+00
    0.33369E-01        -0.71304E-02         0.00000E+00
    0.30636E-01        -0.62202E-02         0.00000E+00
    0.27972E-01        -0.53750E-02         0.00000E+00
    0.25382E-01        -0.45952E-02         0.00000E+00
    0.22872E-01        -0.38806E-02         0.00000E+00
    0.20448E-01        -0.32314E-02         0.00000E+00
    0.18117E-01        -0.26472E-02         0.00000E+00
    0.15887E-01        -0.21275E-02         0.00000E+00
    0.13765E-01        -0.16715E-02         0.00000E+00
    0.11758E-01        -0.12777E-02         0.00000E+00
    0.98762E-02        -0.94436E-03         0.00000E+00
    0.81271E-02        -0.66898E-03         0.00000E+00
    0.65200E-02        -0.44839E-03         0.00000E+00
    0.50639E-02        -0.27869E-03         0.00000E+00
    0.37682E-02        -0.15515E-03         0.00000E+00
    0.26418E-02        -0.72127E-04         0.00000E+00
    0.16936E-02        -0.23093E-04         0.00000E+00
    0.93208E-03        -0.53668E-06         0.00000E+00
    0.36519E-03         0.40170E-05         0.00000E+00
    0.00000E+00         0.00000E+00         0.00000E+00
    0.12709E+00        -0.73761E-01         0.00000E+00
    0.12511E+00        -0.70481E-01         0.00000E+00
    0.12294E+00        -0.67225E-01         0.00000E+00
    0.12062E+00        -0.64015E-01         0.00000E+00
    0.11815E+00        -0.60867E-01         0.00000E+00
    0.11554E+00        -0.57794E-01         0.00000E+00
    0.11281E+00        -0.54805E-01         0.00000E+00
    0.10997E+00        -0.51906E-01         0.00000E+00
    0.10704E+00        -0.49102E-01         0.00000E+00
    0.10402E+00        -0.46394E-01         0.00000E+00
    0.10094E+00        -0.43783E-01         0.00000E+00
    0.97793E-01        -0.41269E-01         0.00000E+00
    0.94599E-01        -0.38851E-01         0.00000E+00
    0.91367E-01        -0.36525E-01         0.00000E+00
    0.88105E-01        -0.34290E-01         0.00000E+00
    0.84823E-01        -0.32143E-01         0.00000E+00
    0.81527E-01        -0.30081E-01         0.00000E+00
    0.78226E-01        -0.28102E-01         0.00000E+00
    0.74925E-01        -0.26202E-01         0.00000E+00
    0.71632E-01        -0.24379E-01         0.00000E+00
    0.68351E-01        -0.22630E-01         0.00000E+00
    0.65087E-01        -0.20953E-01         0.00000E+00
    0.61846E-01        -0.19345E-01         0.00000E+00
    0.58630E-01        -0.17806E-01         0.00000E+00
    0.55446E-01        -0.16333E-01         0.00000E+00
    0.52296E-01        -0.14925E-01         0.00000E+00
    0.49184E-01        -0.13581E-01         0.00000E+00
    0.46115E-01        -0.12302E-01         0.00000E+00
    0.43091E-01        -0.11085E-01         0.00000E+00
    0.40118E-01        -0.99322E-02         0.00000E+00
    0.37198E-01        -0.88424E-02         0.00000E+00
    0.34337E-01        -0.78164E-02         0.00000E+00
    0.31539E-01        -0.68544E-02         0.00000E+00
    0.28810E-01        -0.59572E-02         0.00000E+00
    0.26155E-01        -0.51252E-02         0.00000E+00
    0.23579E-01        -0.43589E-02         0.00000E+00
    0.21089E-01        -0.36587E-02         0.00000E+00
    0.18693E-01        -0.30248E-02         0.00000E+00
    0.16398E-01        -0.24571E-02         0.00000E+00
    0.14211E-01        -0.19552E-02         0.00000E+00
    0.12142E-01        -0.15182E-02         0.00000E+00
    0.10199E-01        -0.11444E-02         0.00000E+00
    0.83918E-02        -0.83193E-03         0.00000E+00
    0.67299E-02        -0.57781E-03         0.00000E+00
    0.52233E-02        -0.37835E-03         0.00000E+00
    0.38822E-02        -0.22897E-03         0.00000E+00
    0.27165E-02        -0.12407E-03         0.00000E+00
    0.17362E-02        -0.57021E-04         0.00000E+00
    0.95086E-03        -0.20080E-04         0.00000E+00
    0.36939E-03        -0.43980E-05         0.00000E+00
    0.00000E+00         0.00000E+00         0.00000E+00
    0.13083E+00        -0.75714E-01         0.00000E+00
    0.12873E+00        -0.72386E-01         0.00000E+00
    0.12645E+00        -0.69083E-01         0.00000E+00
    0.12400E+00        -0.65828E-01         0.00000E+00
    0.12141E+00        -0.62637E-01         0.00000E+00
    0.11868E+00        -0.59523E-01         0.00000E+00
    0.11584E+00        -0.56495E-01         0.00000E+00
    0.11289E+00        -0.53561E-01         0.00000E+00
    0.10984E+00        -0.50723E-01         0.00000E+00
    0.10672E+00        -0.47984E-01         0.00000E+00
    0.10353E+00        -0.45344E-01         0.00000E+00
    0.10028E+00        -0.42802E-01         0.00000E+00
    0.96991E-01        -0.40356E-01         0.00000E+00
    0.93664E-01        -0.38004E-01         0.00000E+00
    0.90311E-01        -0.35742E-01         0.00000E+00
    0.86942E-01        -0.33569E-01         0.00000E+00
    0.83562E-01        -0.31480E-01         0.00000E+00
    0.80180E-01        -0.29473E-01         0.00000E+00
    0.76802E-01        -0.27543E-01         0.00000E+00
    0.73434E-01        -0.25689E-01         0.00000E+00
    0.70081E-01        -0.23907E-01         0.00000E+00
    0.66747E-01        -0.22195E-01         0.00000E+00
    0.63438E-01        -0.20550E-01         0.00000E+00
    0.60157E-01        -0.18971E-01         0.00000E+00
    0.56907E-01        -0.17456E-01         0.00000E+00
    0.53694E-01        -0.16004E-01         0.00000E+00
    0.50519E-01        -0.14614E-01         0.00000E+00
    0.47388E-01        -0.13285E-01         0.00000E+00
    0.44302E-01        -0.12018E-01         0.00000E+00
    0.41266E-01        -0.10812E-01         0.00000E+00
    0.38283E-01        -0.96673E-02         0.00000E+00
    0.35359E-01        -0.85854E-02         0.00000E+00
    0.32497E-01        -0.75666E-02         0.00000E+00
    0.29703E-01        -0.66119E-02         0.00000E+00
    0.26982E-01        -0.57222E-02         0.00000E+00
    0.24340E-01        -0.48986E-02         0.00000E+00
    0.21784E-01        -0.41418E-02         0.00000E+00
    0.19321E-01        -0.34526E-02         0.00000E+00
    0.16958E-01        -0.28314E-02         0.00000E+00
    0.14705E-01        -0.22782E-02         0.00000E+00
    0.12570E-01        -0.17925E-02         0.00000E+00
    0.10563E-01        -0.13733E-02         0.00000E+00
    0.86936E-02        -0.10189E-02         0.00000E+00
    0.69728E-02        -0.72678E-03         0.00000E+00
    0.54113E-02        -0.49348E-03         0.00000E+00
    0.40201E-02        -0.31457E-03         0.00000E+00
    0.28103E-02        -0.18454E-03         0.00000E+00
    0.17931E-02        -0.96671E-04         0.00000E+00
    0.97894E-03        -0.43004E-04         0.00000E+00
    0.37813E-03        -0.14297E-04         0.00000E+00
    0.00000E+00         0.00000E+00         0.00000E+00
    0.13465E+00        -0.77793E-01         0.00000E+00
    0.13241E+00        -0.74417E-01         0.00000E+00
    0.13000E+00        -0.71068E-01         0.00000E+00
    0.12743E+00        -0.67768E-01         0.00000E+00
    0.12472E+00        -0.64534E-01         0.00000E+00
    0.12187E+00        -0.61380E-01         0.00000E+00
    0.11890E+00        -0.58315E-01         0.00000E+00
    0.11584E+00        -0.55346E-01         0.00000E+00
    0.11268E+00        -0.52476E-01         0.00000E+00
    0.10945E+00        -0.49706E-01         0.00000E+00
    0.10615E+00        -0.47037E-01         0.00000E+00
    0.10280E+00        -0.44467E-01         0.00000E+00
    0.99409E-01        -0.41995E-01         0.00000E+00
    0.95988E-01        -0.39616E-01         0.00000E+00
    0.92544E-01        -0.37329E-01         0.00000E+00
    0.89088E-01        -0.35129E-01         0.00000E+00
    0.85625E-01        -0.33012E-01         0.00000E+00
    0.82164E-01        -0.30976E-01         0.00000E+00
    0.78709E-01        -0.29017E-01         0.00000E+00
    0.75268E-01        -0.27130E-01         0.00000E+00
    0.71845E-01        -0.25314E-01         0.00000E+00
    0.68444E-01        -0.23565E-01         0.00000E+00
    0.65069E-01        -0.21881E-01         0.00000E+00
    0.61725E-01        -0.20260E-01         0.00000E+00
    0.58414E-01        -0.18700E-01         0.00000E+00
    0.55139E-01        -0.17200E-01         0.00000E+00
    0.51904E-01        -0.15760E-01         0.00000E+00
    0.48712E-01        -0.14378E-01         0.00000E+00
    0.45566E-01        -0.13055E-01         0.00000E+00
    0.42470E-01        -0.11791E-01         0.00000E+00
    0.39427E-01        -0.10587E-01         0.00000E+00
    0.36440E-01        -0.94442E-02         0.00000E+00
    0.33515E-01        -0.83630E-02         0.00000E+00
    0.30657E-01        -0.73451E-02         0.00000E+00
    0.27870E-01        -0.63919E-02         0.00000E+00
    0.25161E-01        -0.55050E-02         0.00000E+00
    0.22537E-01        -0.46856E-02         0.00000E+00
    0.20006E-01        -0.39351E-02         0.00000E+00
    0.17574E-01        -0.32543E-02         0.00000E+00
    0.15251E-01        -0.26438E-02         0.00000E+00
    0.13047E-01        -0.21038E-02         0.00000E+00
    0.10973E-01        -0.16337E-02         0.00000E+00
    0.90372E-02        -0.12322E-02         0.00000E+00
    0.72530E-02        -0.89717E-03         0.00000E+00
    0.56316E-02        -0.62555E-03         0.00000E+00
    0.41852E-02        -0.41309E-03         0.00000E+00
    0.29260E-02        -0.25437E-03         0.00000E+00
    0.18662E-02        -0.14261E-03         0.00000E+00
    0.10178E-02        -0.69647E-04         0.00000E+00
    0.39216E-03        -0.25828E-04         0.00000E+00
    0.00000E+00         0.00000E+00         0.00000E+00
    0.13853E+00        -0.80002E-01         0.00000E+00
    0.13617E+00        -0.76580E-01         0.00000E+00
    0.13362E+00        -0.73185E-01         0.00000E+00
    0.13092E+00        -0.69841E-01         0.00000E+00
    0.12807E+00        -0.66566E-01         0.00000E+00
    0.12510E+00        -0.63373E-01         0.00000E+00
    0.12201E+00        -0.60272E-01         0.00000E+00
    0.11882E+00        -0.57268E-01         0.00000E+00
    0.11555E+00        -0.54366E-01         0.00000E+00
    0.11220E+00        -0.51567E-01         0.00000E+00
    0.10880E+00        -0.48870E-01         0.00000E+00
    0.10534E+00        -0.46274E-01         0.00000E+00
    0.10185E+00        -0.43775E-01         0.00000E+00
    0.98338E-01        -0.41371E-01         0.00000E+00
    0.94804E-01        -0.39058E-01         0.00000E+00
    0.91261E-01        -0.36831E-01         0.00000E+00
    0.87716E-01        -0.34687E-01         0.00000E+00
    0.84177E-01        -0.32622E-01         0.00000E+00
    0.80648E-01        -0.30631E-01         0.00000E+00
    0.77137E-01        -0.28712E-01         0.00000E+00
    0.73646E-01        -0.26860E-01         0.00000E+00
    0.70180E-01        -0.25072E-01         0.00000E+00
    0.66743E-01        -0.23346E-01         0.00000E+00
    0.63338E-01        -0.21681E-01         0.00000E+00
    0.59968E-01        -0.20073E-01         0.00000E+00
    0.56635E-01        -0.18522E-01         0.00000E+00
    0.53343E-01        -0.17027E-01         0.00000E+00
    0.50094E-01        -0.15588E-01         0.00000E+00
    0.46890E-01        -0.14205E-01         0.00000E+00
    0.43735E-01        -0.12879E-01         0.00000E+00
    0.40633E-01        -0.11610E-01         0.00000E+00
    0.37586E-01        -0.10400E-01         0.00000E+00
    0.34599E-01        -0.92505E-02         0.00000E+00
    0.31677E-01        -0.81633E-02         0.00000E+00
    0.28825E-01        -0.71404E-02         0.00000E+00
    0.26049E-01        -0.61837E-02         0.00000E+00
    0.23356E-01        -0.52952E-02         0.00000E+00
    0.20754E-01        -0.44768E-02         0.00000E+00
    0.18251E-01        -0.37299E-02         0.00000E+00
    0.15856E-01        -0.30559E-02         0.00000E+00
    0.13580E-01        -0.24554E-02         0.00000E+00
    0.11434E-01        -0.19284E-02         0.00000E+00
    0.94278E-02        -0.14741E-02         0.00000E+00
    0.75752E-02        -0.10910E-02         0.00000E+00
    0.58886E-02        -0.77616E-03         0.00000E+00
    0.43812E-02        -0.52576E-03         0.00000E+00
    0.30665E-02        -0.33445E-03         0.00000E+00
    0.19580E-02        -0.19545E-03         0.00000E+00
    0.10690E-02        -0.10037E-03         0.00000E+00
    0.41229E-03        -0.39154E-04         0.00000E+00
    0.00000E+00         0.00000E+00         0.00000E+00
    0.14249E+00        -0.82351E-01         0.00000E+00
    0.13998E+00        -0.78883E-01         0.00000E+00
    0.13730E+00        -0.75443E-01         0.00000E+00
    0.13446E+00        -0.72057E-01         0.00000E+00
    0.13148E+00        -0.68741E-01         0.00000E+00
    0.12837E+00        -0.65510E-01         0.00000E+00
    0.12516E+00        -0.62373E-01         0.00000E+00
    0.12184E+00        -0.59336E-01         0.00000E+00
    0.11845E+00        -0.56404E-01         0.00000E+00
    0.11499E+00        -0.53576E-01         0.00000E+00
    0.11147E+00        -0.50852E-01         0.00000E+00
    0.10792E+00        -0.48230E-01         0.00000E+00
    0.10433E+00        -0.45706E-01         0.00000E+00
    0.10071E+00        -0.43277E-01         0.00000E+00
    0.97089E-01        -0.40939E-01         0.00000E+00
    0.93461E-01        -0.38686E-01         0.00000E+00
    0.89835E-01        -0.36515E-01         0.00000E+00
    0.86220E-01        -0.34420E-01         0.00000E+00
    0.82620E-01        -0.32397E-01         0.00000E+00
    0.79040E-01        -0.30443E-01         0.00000E+00
    0.75485E-01        -0.28554E-01         0.00000E+00
    0.71957E-01        -0.26726E-01         0.00000E+00
    0.68461E-01        -0.24957E-01         0.00000E+00
    0.64999E-01        -0.23243E-01         0.00000E+00
    0.61573E-01        -0.21584E-01         0.00000E+00
    0.58186E-01        -0.19979E-01         0.00000E+00
    0.54840E-01        -0.18426E-01         0.00000E+00
    0.51536E-01        -0.16925E-01         0.00000E+00
    0.48278E-01        -0.15477E-01         0.00000E+00
    0.45067E-01        -0.14083E-01         0.00000E+00
    0.41908E-01        -0.12743E-01         0.00000E+00
    0.38802E-01        -0.11460E-01         0.00000E+00
    0.35755E-01        -0.10236E-01         0.00000E+00
    0.32770E-01        -0.90733E-02         0.00000E+00
    0.29853E-01        -0.79738E-02         0.00000E+00
    0.27009E-01        -0.69405E-02         0.00000E+00
    0.24247E-01        -0.59759E-02         0.00000E+00
    0.21573E-01        -0.50827E-02         0.00000E+00
    0.18996E-01        -0.42629E-02         0.00000E+00
    0.16527E-01        -0.35185E-02         0.00000E+00
    0.14175E-01        -0.28507E-02         0.00000E+00
    0.11952E-01        -0.22604E-02         0.00000E+00
    0.98709E-02        -0.17473E-02         0.00000E+00
    0.79445E-02        -0.13103E-02         0.00000E+00
    0.61867E-02        -0.94700E-03         0.00000E+00
    0.46121E-02        -0.65388E-03         0.00000E+00
    0.32352E-02        -0.42575E-03         0.00000E+00
    0.20710E-02        -0.25585E-03         0.00000E+00
    0.11343E-02        -0.13557E-03         0.00000E+00
    0.43944E-03        -0.54447E-04         0.00000E+00
    0.00000E+00         0.00000E+00         0.00000E+00
    0.14652E+00        -0.84845E-01         0.00000E+00
    0.14386E+00        -0.81332E-01         0.00000E+00
    0.14103E+00        -0.77849E-01         0.00000E+00
    0.13805E+00        -0.74420E-01         0.00000E+00
    0.13493E+00        -0.71065E-01         0.00000E+00
    0.13169E+00        -0.67797E-01         0.00000E+00
    0.12834E+00        -0.64626E-01         0.00000E+00
    0.12490E+00        -0.61558E-01         0.00000E+00
    0.12138E+00        -0.58596E-01         0.00000E+00
    0.11780E+00        -0.55741E-01         0.00000E+00
    0.11418E+00        -0.52992E-01         0.00000E+00
    0.11051E+00        -0.50345E-01         0.00000E+00
    0.10682E+00        -0.47797E-01         0.00000E+00
    0.10311E+00        -0.45344E-01         0.00000E+00
    0.99400E-01        -0.42981E-01         0.00000E+00
    0.95687E-01        -0.40703E-01         0.00000E+00
    0.91983E-01        -0.38504E-01         0.00000E+00
    0.88294E-01        -0.36379E-01         0.00000E+00
    0.84625E-01        -0.34325E-01         0.00000E+00
    0.80980E-01        -0.32335E-01         0.00000E+00
    0.77363E-01        -0.30407E-01         0.00000E+00
    0.73778E-01        -0.28537E-01         0.00000E+00
    0.70226E-01        -0.26721E-01         0.00000E+00
    0.66711E-01        -0.24957E-01         0.00000E+00
    0.63233E-01        -0.23244E-01         0.00000E+00
    0.59795E-01        -0.21580E-01         0.00000E+00
    0.56398E-01        -0.19964E-01         0.00000E+00
    0.53044E-01        -0.18397E-01         0.00000E+00
    0.49735E-01        -0.16879E-01         0.00000E+00
    0.46472E-01        -0.15411E-01         0.00000E+00
    0.43258E-01        -0.13995E-01         0.00000E+00
    0.40096E-01        -0.12633E-01         0.00000E+00
    0.36989E-01        -0.11328E-01         0.00000E+00
    0.33942E-01        -0.10082E-01         0.00000E+00
    0.30961E-01        -0.88989E-02         0.00000E+00
    0.28050E-01        -0.77816E-02         0.00000E+00
    0.25217E-01        -0.67336E-02         0.00000E+00
    0.22469E-01        -0.57580E-02         0.00000E+00
    0.19817E-01        -0.48578E-02         0.00000E+00
    0.17269E-01        -0.40356E-02         0.00000E+00
    0.14838E-01        -0.32935E-02         0.00000E+00
    0.12534E-01        -0.26330E-02         0.00000E+00
    0.10373E-01        -0.20544E-02         0.00000E+00
    0.83665E-02        -0.15573E-02         0.00000E+00
    0.65311E-02        -0.11399E-02         0.00000E+00
    0.48821E-02        -0.79885E-03         0.00000E+00
    0.34356E-02        -0.52930E-03         0.00000E+00
    0.22081E-02        -0.32450E-03         0.00000E+00
    0.12157E-02        -0.17566E-03         0.00000E+00
    0.47459E-03        -0.71891E-04         0.00000E+00
    0.00000E+00         0.00000E+00         0.00000E+00
    0.15061E+00        -0.87491E-01         0.00000E+00
    0.14780E+00        -0.83935E-01         0.00000E+00
    0.14482E+00        -0.80409E-01         0.00000E+00
    0.14169E+00        -0.76940E-01         0.00000E+00
    0.13842E+00        -0.73547E-01         0.00000E+00
    0.13504E+00        -0.70243E-01         0.00000E+00
    0.13156E+00        -0.67040E-01         0.00000E+00
    0.12799E+00        -0.63942E-01         0.00000E+00
    0.12434E+00        -0.60953E-01         0.00000E+00
    0.12065E+00        -0.58072E-01         0.00000E+00
    0.11690E+00        -0.55298E-01         0.00000E+00
    0.11313E+00        -0.52629E-01         0.00000E+00
    0.10934E+00        -0.50058E-01         0.00000E+00
    0.10554E+00        -0.47582E-01         0.00000E+00
    0.10174E+00        -0.45195E-01         0.00000E+00
    0.97941E-01        -0.42891E-01         0.00000E+00
    0.94160E-01        -0.40665E-01         0.00000E+00
    0.90399E-01        -0.38511E-01         0.00000E+00
    0.86664E-01        -0.36423E-01         0.00000E+00
    0.82957E-01        -0.34398E-01         0.00000E+00
    0.79283E-01        -0.32429E-01         0.00000E+00
    0.75644E-01        -0.30515E-01         0.00000E+00
    0.72041E-01        -0.28650E-01         0.00000E+00
    0.68477E-01        -0.26833E-01         0.00000E+00
    0.64952E-01        -0.25062E-01         0.00000E+00
    0.61467E-01        -0.23335E-01         0.00000E+00
    0.58024E-01        -0.21652E-01         0.00000E+00
    0.54624E-01        -0.20014E-01         0.00000E+00
    0.51266E-01        -0.18420E-01         0.00000E+00
    0.47954E-01        -0.16873E-01         0.00000E+00
    0.44689E-01        -0.15374E-01         0.00000E+00
    0.41473E-01        -0.13926E-01         0.00000E+00
    0.38309E-01        -0.12533E-01         0.00000E+00
    0.35202E-01        -0.11197E-01         0.00000E+00
    0.32156E-01        -0.99225E-02         0.00000E+00
    0.29178E-01        -0.87136E-02         0.00000E+00
    0.26273E-01        -0.75742E-02         0.00000E+00
    0.23451E-01        -0.65082E-02         0.00000E+00
    0.20720E-01        -0.55196E-02         0.00000E+00
    0.18091E-01        -0.46118E-02         0.00000E+00
    0.15576E-01        -0.37877E-02         0.00000E+00
    0.13187E-01        -0.30495E-02         0.00000E+00
    0.10939E-01        -0.23983E-02         0.00000E+00
    0.88472E-02        -0.18345E-02         0.00000E+00
    0.69271E-02        -0.13567E-02         0.00000E+00
    0.51961E-02        -0.96217E-03         0.00000E+00
    0.36718E-02        -0.64620E-03         0.00000E+00
    0.23721E-02        -0.40215E-03         0.00000E+00
    0.13152E-02        -0.22110E-03         0.00000E+00
    0.51881E-03        -0.91687E-04         0.00000E+00
    0.00000E+00         0.00000E+00         0.00000E+00
    0.15478E+00        -0.90297E-01         0.00000E+00
    0.15180E+00        -0.86699E-01         0.00000E+00
    0.14866E+00        -0.83133E-01         0.00000E+00
    0.14538E+00        -0.79624E-01         0.00000E+00
    0.14196E+00        -0.76194E-01         0.00000E+00
    0.13843E+00        -0.72857E-01         0.00000E+00
    0.13481E+00        -0.69623E-01         0.00000E+00
    0.13110E+00        -0.66497E-01         0.00000E+00
    0.12733E+00        -0.63482E-01         0.00000E+00
    0.12351E+00        -0.60577E-01         0.00000E+00
    0.11966E+00        -0.57781E-01         0.00000E+00
    0.11578E+00        -0.55090E-01         0.00000E+00
    0.11188E+00        -0.52498E-01         0.00000E+00
    0.10799E+00        -0.50001E-01         0.00000E+00
    0.10410E+00        -0.47591E-01         0.00000E+00
    0.10022E+00        -0.45263E-01         0.00000E+00
    0.96365E-01        -0.43009E-01         0.00000E+00
    0.92536E-01        -0.40825E-01         0.00000E+00
    0.88738E-01        -0.38704E-01         0.00000E+00
    0.84974E-01        -0.36641E-01         0.00000E+00
    0.81246E-01        -0.34631E-01         0.00000E+00
    0.77557E-01        -0.32670E-01         0.00000E+00
    0.73908E-01        -0.30755E-01         0.00000E+00
    0.70300E-01        -0.28881E-01         0.00000E+00
    0.66732E-01        -0.27049E-01         0.00000E+00
    0.63206E-01        -0.25255E-01         0.00000E+00
    0.59722E-01        -0.23501E-01         0.00000E+00
    0.56279E-01        -0.21786E-01         0.00000E+00
    0.52878E-01        -0.20111E-01         0.00000E+00
    0.49521E-01        -0.18478E-01         0.00000E+00
    0.46208E-01        -0.16889E-01         0.00000E+00
    0.42940E-01        -0.15349E-01         0.00000E+00
    0.39722E-01        -0.13860E-01         0.00000E+00
    0.36557E-01        -0.12426E-01         0.00000E+00
    0.33448E-01        -0.11052E-01         0.00000E+00
    0.30402E-01        -0.97432E-02         0.00000E+00
    0.27425E-01        -0.85039E-02         0.00000E+00
    0.24527E-01        -0.73392E-02         0.00000E+00
    0.21715E-01        -0.62537E-02         0.00000E+00
    0.19001E-01        -0.52518E-02         0.00000E+00
    0.16398E-01        -0.43374E-02         0.00000E+00
    0.13919E-01        -0.35135E-02         0.00000E+00
    0.11578E-01        -0.27822E-02         0.00000E+00
    0.93930E-02        -0.21444E-02         0.00000E+00
    0.73805E-02        -0.15996E-02         0.00000E+00
    0.55591E-02        -0.11454E-02         0.00000E+00
    0.39479E-02        -0.77762E-03         0.00000E+00
    0.25666E-02        -0.48962E-03         0.00000E+00
    0.14352E-02        -0.27236E-03         0.00000E+00
    0.57329E-03        -0.11405E-03         0.00000E+00
    0.00000E+00         0.00000E+00         0.00000E+00
    0.15901E+00        -0.93271E-01         0.00000E+00
    0.15587E+00        -0.89632E-01         0.00000E+00
    0.15256E+00        -0.86026E-01         0.00000E+00
    0.14912E+00        -0.82481E-01         0.00000E+00
    0.14554E+00        -0.79016E-01         0.00000E+00
    0.14186E+00        -0.75647E-01         0.00000E+00
    0.13809E+00        -0.72384E-01         0.00000E+00
    0.13425E+00        -0.69232E-01         0.00000E+00
    0.13035E+00        -0.66193E-01         0.00000E+00
    0.12640E+00        -0.63267E-01         0.00000E+00
    0.12243E+00        -0.60451E-01         0.00000E+00
    0.11844E+00        -0.57740E-01         0.00000E+00
    0.11444E+00        -0.55128E-01         0.00000E+00
    0.11045E+00        -0.52611E-01         0.00000E+00
    0.10648E+00        -0.50179E-01         0.00000E+00
    0.10252E+00        -0.47827E-01         0.00000E+00
    0.98598E-01        -0.45548E-01         0.00000E+00
    0.94705E-01        -0.43334E-01         0.00000E+00
    0.90848E-01        -0.41179E-01         0.00000E+00
    0.87030E-01        -0.39078E-01         0.00000E+00
    0.83254E-01        -0.37025E-01         0.00000E+00
    0.79521E-01        -0.35015E-01         0.00000E+00
    0.75830E-01        -0.33046E-01         0.00000E+00
    0.72183E-01        -0.31113E-01         0.00000E+00
    0.68579E-01        -0.29215E-01         0.00000E+00
    0.65017E-01        -0.27351E-01         0.00000E+00
    0.61496E-01        -0.25520E-01         0.00000E+00
    0.58016E-01        -0.23722E-01         0.00000E+00
    0.54577E-01        -0.21960E-01         0.00000E+00
    0.51179E-01        -0.20235E-01         0.00000E+00
    0.47821E-01        -0.18550E-01         0.00000E+00
    0.44506E-01        -0.16909E-01         0.00000E+00
    0.41236E-01        -0.15317E-01         0.00000E+00
    0.38014E-01        -0.13777E-01         0.00000E+00
    0.34843E-01        -0.12295E-01         0.00000E+00
    0.31730E-01        -0.10878E-01         0.00000E+00
    0.28681E-01        -0.95295E-02         0.00000E+00
    0.25704E-01        -0.82569E-02         0.00000E+00
    0.22809E-01        -0.70655E-02         0.00000E+00
    0.20007E-01        -0.59606E-02         0.00000E+00
    0.17312E-01        -0.49471E-02         0.00000E+00
    0.14736E-01        -0.40289E-02         0.00000E+00
    0.12297E-01        -0.32093E-02         0.00000E+00
    0.10011E-01        -0.24898E-02         0.00000E+00
    0.78976E-02        -0.18707E-02         0.00000E+00
    0.59765E-02        -0.13504E-02         0.00000E+00
    0.42685E-02        -0.92485E-03         0.00000E+00
    0.27950E-02        -0.58776E-03         0.00000E+00
    0.15781E-02        -0.32996E-03         0.00000E+00
    0.63931E-03        -0.13920E-03         0.00000E+00
    0.00000E+00         0.00000E+00         0.00000E+00
    0.16331E+00        -0.96420E-01         0.00000E+00
    0.15999E+00        -0.92742E-01         0.00000E+00
    0.15651E+00        -0.89099E-01         0.00000E+00
    0.15290E+00        -0.85518E-01         0.00000E+00
    0.14916E+00        -0.82021E-01         0.00000E+00
    0.14533E+00        -0.78622E-01         0.00000E+00
    0.14141E+00        -0.75332E-01         0.00000E+00
    0.13742E+00        -0.72156E-01         0.00000E+00
    0.13339E+00        -0.69096E-01         0.00000E+00
    0.12931E+00        -0.66150E-01         0.00000E+00
    0.12522E+00        -0.63316E-01         0.00000E+00
    0.12112E+00        -0.60588E-01         0.00000E+00
    0.11703E+00        -0.57959E-01         0.00000E+00
    0.11294E+00        -0.55423E-01         0.00000E+00
    0.10888E+00        -0.52971E-01         0.00000E+00
    0.10485E+00        -0.50596E-01         0.00000E+00
    0.10086E+00        -0.48291E-01         0.00000E+00
    0.96905E-01        -0.46047E-01         0.00000E+00
    0.92993E-01        -0.43859E-01         0.00000E+00
    0.89128E-01        -0.41718E-01         0.00000E+00
    0.85308E-01        -0.39621E-01         0.00000E+00
    0.81536E-01        -0.37561E-01         0.00000E+00
    0.77811E-01        -0.35535E-01         0.00000E+00
    0.74131E-01        -0.33540E-01         0.00000E+00
    0.70496E-01        -0.31573E-01         0.00000E+00
    0.66903E-01        -0.29633E-01         0.00000E+00
    0.63352E-01        -0.27720E-01         0.00000E+00
    0.59841E-01        -0.25835E-01         0.00000E+00
    0.56369E-01        -0.23979E-01         0.00000E+00
    0.52934E-01        -0.22155E-01         0.00000E+00
    0.49537E-01        -0.20366E-01         0.00000E+00
    0.46178E-01        -0.18617E-01         0.00000E+00
    0.42859E-01        -0.16913E-01         0.00000E+00
    0.39582E-01        -0.15258E-01         0.00000E+00
    0.36351E-01        -0.13660E-01         0.00000E+00
    0.33172E-01        -0.12124E-01         0.00000E+00
    0.30050E-01        -0.10658E-01         0.00000E+00
    0.26993E-01        -0.92679E-02         0.00000E+00
    0.24013E-01        -0.79609E-02         0.00000E+00
    0.21119E-01        -0.67434E-02         0.00000E+00
    0.18326E-01        -0.56214E-02         0.00000E+00
    0.15648E-01        -0.45998E-02         0.00000E+00
    0.13103E-01        -0.36830E-02         0.00000E+00
    0.10709E-01        -0.28735E-02         0.00000E+00
    0.84853E-02        -0.21724E-02         0.00000E+00
    0.64544E-02        -0.15788E-02         0.00000E+00
    0.46386E-02        -0.10892E-02         0.00000E+00
    0.30613E-02        -0.69752E-03         0.00000E+00
    0.17465E-02        -0.39447E-03         0.00000E+00
    0.71826E-03        -0.16740E-03         0.00000E+00
    0.00000E+00         0.00000E+00         0.00000E+00
    0.16768E+00        -0.99752E-01         0.00000E+00
    0.16418E+00        -0.96038E-01         0.00000E+00
    0.16052E+00        -0.92359E-01         0.00000E+00
    0.15673E+00        -0.88745E-01         0.00000E+00
    0.15282E+00        -0.85217E-01         0.00000E+00
    0.14883E+00        -0.81791E-01         0.00000E+00
    0.14475E+00        -0.78477E-01         0.00000E+00
    0.14062E+00        -0.75279E-01         0.00000E+00
    0.13644E+00        -0.72201E-01         0.00000E+00
    0.13224E+00        -0.69238E-01         0.00000E+00
    0.12803E+00        -0.66388E-01         0.00000E+00
    0.12382E+00        -0.63645E-01         0.00000E+00
    0.11963E+00        -0.61001E-01         0.00000E+00
    0.11545E+00        -0.58448E-01         0.00000E+00
    0.11131E+00        -0.55978E-01         0.00000E+00
    0.10721E+00        -0.53582E-01         0.00000E+00
    0.10315E+00        -0.51251E-01         0.00000E+00
    0.99137E-01        -0.48979E-01         0.00000E+00
    0.95176E-01        -0.46755E-01         0.00000E+00
    0.91267E-01        -0.44575E-01         0.00000E+00
    0.87411E-01        -0.42432E-01         0.00000E+00
    0.83606E-01        -0.40319E-01         0.00000E+00
    0.79852E-01        -0.38234E-01         0.00000E+00
    0.76146E-01        -0.36173E-01         0.00000E+00
    0.72487E-01        -0.34133E-01         0.00000E+00
    0.68871E-01        -0.32113E-01         0.00000E+00
    0.65296E-01        -0.30113E-01         0.00000E+00
    0.61760E-01        -0.28134E-01         0.00000E+00
    0.58260E-01        -0.26178E-01         0.00000E+00
    0.54795E-01        -0.24248E-01         0.00000E+00
    0.51363E-01        -0.22348E-01         0.00000E+00
    0.47965E-01        -0.20482E-01         0.00000E+00
    0.44600E-01        -0.18657E-01         0.00000E+00
    0.41271E-01        -0.16879E-01         0.00000E+00
    0.37982E-01        -0.15154E-01         0.00000E+00
    0.34736E-01        -0.13491E-01         0.00000E+00
    0.31541E-01        -0.11896E-01         0.00000E+00
    0.28404E-01        -0.10379E-01         0.00000E+00
    0.25335E-01        -0.89460E-02         0.00000E+00
    0.22346E-01        -0.76058E-02         0.00000E+00
    0.19450E-01        -0.63652E-02         0.00000E+00
    0.16664E-01        -0.52305E-02         0.00000E+00
    0.14006E-01        -0.42070E-02         0.00000E+00
    0.11494E-01        -0.32986E-02         0.00000E+00
    0.91508E-02        -0.25073E-02         0.00000E+00
    0.69991E-02        -0.18327E-02         0.00000E+00
    0.50636E-02        -0.12722E-02         0.00000E+00
    0.33696E-02        -0.81989E-03         0.00000E+00
    0.19435E-02        -0.46648E-03         0.00000E+00
    0.81166E-03        -0.19892E-03         0.00000E+00
    0.00000E+00         0.00000E+00         0.00000E+00
    0.17212E+00        -0.10328E+00         0.00000E+00
    0.16842E+00        -0.99526E-01         0.00000E+00
    0.16457E+00        -0.95814E-01         0.00000E+00
    0.16060E+00        -0.92169E-01         0.00000E+00
    0.15652E+00        -0.88614E-01         0.00000E+00
    0.15236E+00        -0.85163E-01         0.00000E+00
    0.14812E+00        -0.81827E-01         0.00000E+00
    0.14384E+00        -0.78612E-01         0.00000E+00
    0.13952E+00        -0.75517E-01         0.00000E+00
    0.13519E+00        -0.72541E-01         0.00000E+00
    0.13086E+00        -0.69679E-01         0.00000E+00
    0.12654E+00        -0.66923E-01         0.00000E+00
    0.12224E+00        -0.64266E-01         0.00000E+00
    0.11798E+00        -0.61699E-01         0.00000E+00
    0.11376E+00        -0.59212E-01         0.00000E+00
    0.10958E+00        -0.56796E-01         0.00000E+00
    0.10546E+00        -0.54441E-01         0.00000E+00
    0.10140E+00        -0.52139E-01         0.00000E+00
    0.97396E-01        -0.49882E-01         0.00000E+00
    0.93451E-01        -0.47661E-01         0.00000E+00
    0.89564E-01        -0.45470E-01         0.00000E+00
    0.85733E-01        -0.43303E-01         0.00000E+00
    0.81958E-01        -0.41156E-01         0.00000E+00
    0.78233E-01        -0.39025E-01         0.00000E+00
    0.74557E-01        -0.36907E-01         0.00000E+00
    0.70925E-01        -0.34802E-01         0.00000E+00
    0.67334E-01        -0.32710E-01         0.00000E+00
    0.63779E-01        -0.30631E-01         0.00000E+00
    0.60258E-01        -0.28568E-01         0.00000E+00
    0.56768E-01        -0.26525E-01         0.00000E+00
    0.53307E-01        -0.24505E-01         0.00000E+00
    0.49874E-01        -0.22514E-01         0.00000E+00
    0.46468E-01        -0.20560E-01         0.00000E+00
    0.43091E-01        -0.18648E-01         0.00000E+00
    0.39745E-01        -0.16787E-01         0.00000E+00
    0.36434E-01        -0.14986E-01         0.00000E+00
    0.33166E-01        -0.13252E-01         0.00000E+00
    0.29946E-01        -0.11597E-01         0.00000E+00
    0.26787E-01        -0.10027E-01         0.00000E+00
    0.23698E-01        -0.85535E-02         0.00000E+00
    0.20695E-01        -0.71837E-02         0.00000E+00
    0.17794E-01        -0.59255E-02         0.00000E+00
    0.15014E-01        -0.47854E-02         0.00000E+00
    0.12376E-01        -0.37685E-02         0.00000E+00
    0.99019E-02        -0.28779E-02         0.00000E+00
    0.76176E-02        -0.21142E-02         0.00000E+00
    0.55493E-02        -0.14754E-02         0.00000E+00
    0.37246E-02        -0.95594E-03         0.00000E+00
    0.21723E-02        -0.54665E-03         0.00000E+00
    0.92115E-03        -0.23403E-03         0.00000E+00
    0.00000E+00         0.00000E+00         0.00000E+00
    0.17662E+00        -0.10700E+00         0.00000E+00
    0.17271E+00        -0.10322E+00         0.00000E+00
    0.16867E+00        -0.99475E-01         0.00000E+00
    0.16451E+00        -0.95801E-01         0.00000E+00
    0.16025E+00        -0.92220E-01         0.00000E+00
    0.15591E+00        -0.88748E-01         0.00000E+00
    0.15151E+00        -0.85394E-01         0.00000E+00
    0.14708E+00        -0.82164E-01         0.00000E+00
    0.14261E+00        -0.79056E-01         0.00000E+00
    0.13815E+00        -0.76070E-01         0.00000E+00
    0.13369E+00        -0.73198E-01         0.00000E+00
    0.12926E+00        -0.70433E-01         0.00000E+00
    0.12487E+00        -0.67766E-01         0.00000E+00
    0.12052E+00        -0.65187E-01         0.00000E+00
    0.11622E+00        -0.62685E-01         0.00000E+00
    0.11198E+00        -0.60251E-01         0.00000E+00
    0.10781E+00        -0.57873E-01         0.00000E+00
    0.10370E+00        -0.55543E-01         0.00000E+00
    0.99654E-01        -0.53250E-01         0.00000E+00
    0.95679E-01        -0.50988E-01         0.00000E+00
    0.91768E-01        -0.48748E-01         0.00000E+00
    0.87920E-01        -0.46524E-01         0.00000E+00
    0.84131E-01        -0.44312E-01         0.00000E+00
    0.80396E-01        -0.42108E-01         0.00000E+00
    0.76711E-01        -0.39908E-01         0.00000E+00
    0.73071E-01        -0.37713E-01         0.00000E+00
    0.69470E-01        -0.35522E-01         0.00000E+00
    0.65905E-01        -0.33337E-01         0.00000E+00
    0.62370E-01        -0.31160E-01         0.00000E+00
    0.58863E-01        -0.28995E-01         0.00000E+00
    0.55378E-01        -0.26848E-01         0.00000E+00
    0.51915E-01        -0.24724E-01         0.00000E+00
    0.48472E-01        -0.22630E-01         0.00000E+00
    0.45050E-01        -0.20575E-01         0.00000E+00
    0.41650E-01        -0.18567E-01         0.00000E+00
    0.38276E-01        -0.16617E-01         0.00000E+00
    0.34934E-01        -0.14734E-01         0.00000E+00
    0.31632E-01        -0.12929E-01         0.00000E+00
    0.28379E-01        -0.11211E-01         0.00000E+00
    0.25187E-01        -0.95927E-02         0.00000E+00
    0.22071E-01        -0.80824E-02         0.00000E+00
    0.19048E-01        -0.66896E-02         0.00000E+00
    0.16138E-01        -0.54223E-02         0.00000E+00
    0.13363E-01        -0.42867E-02         0.00000E+00
    0.10747E-01        -0.32872E-02         0.00000E+00
    0.83173E-02        -0.24255E-02         0.00000E+00
    0.61020E-02        -0.17004E-02         0.00000E+00
    0.41312E-02        -0.11069E-02         0.00000E+00
    0.24361E-02        -0.63569E-03         0.00000E+00
    0.10485E-02        -0.27306E-03         0.00000E+00
    0.00000E+00         0.00000E+00         0.00000E+00
    0.18118E+00        -0.11093E+00         0.00000E+00
    0.17707E+00        -0.10712E+00         0.00000E+00
    0.17282E+00        -0.10335E+00         0.00000E+00
    0.16846E+00        -0.99650E-01         0.00000E+00
    0.16401E+00        -0.96047E-01         0.00000E+00
    0.15949E+00        -0.92556E-01         0.00000E+00
    0.15493E+00        -0.89188E-01         0.00000E+00
    0.15033E+00        -0.85945E-01         0.00000E+00
    0.14572E+00        -0.82829E-01         0.00000E+00
    0.14112E+00        -0.79836E-01         0.00000E+00
    0.13654E+00        -0.76958E-01         0.00000E+00
    0.13200E+00        -0.74187E-01         0.00000E+00
    0.12750E+00        -0.71513E-01         0.00000E+00
    0.12307E+00        -0.68925E-01         0.00000E+00
    0.11870E+00        -0.66411E-01         0.00000E+00
    0.11440E+00        -0.63960E-01         0.00000E+00
    0.11017E+00        -0.61560E-01         0.00000E+00
    0.10602E+00        -0.59202E-01         0.00000E+00
    0.10195E+00        -0.56874E-01         0.00000E+00
    0.97952E-01        -0.54569E-01         0.00000E+00
    0.94027E-01        -0.52279E-01         0.00000E+00
    0.90169E-01        -0.49996E-01         0.00000E+00
    0.86374E-01        -0.47716E-01         0.00000E+00
    0.82638E-01        -0.45434E-01         0.00000E+00
    0.78953E-01        -0.43149E-01         0.00000E+00
    0.75313E-01        -0.40858E-01         0.00000E+00
    0.71713E-01        -0.38563E-01         0.00000E+00
    0.68145E-01        -0.36265E-01         0.00000E+00
    0.64604E-01        -0.33966E-01         0.00000E+00
    0.61086E-01        -0.31672E-01         0.00000E+00
    0.57584E-01        -0.29388E-01         0.00000E+00
    0.54097E-01        -0.27120E-01         0.00000E+00
    0.50622E-01        -0.24878E-01         0.00000E+00
    0.47159E-01        -0.22669E-01         0.00000E+00
    0.43708E-01        -0.20504E-01         0.00000E+00
    0.40273E-01        -0.18394E-01         0.00000E+00
    0.36859E-01        -0.16349E-01         0.00000E+00
    0.33472E-01        -0.14383E-01         0.00000E+00
    0.30123E-01        -0.12506E-01         0.00000E+00
    0.26823E-01        -0.10730E-01         0.00000E+00
    0.23589E-01        -0.90672E-02         0.00000E+00
    0.20437E-01        -0.75281E-02         0.00000E+00
    0.17388E-01        -0.61220E-02         0.00000E+00
    0.14466E-01        -0.48568E-02         0.00000E+00
    0.11696E-01        -0.37382E-02         0.00000E+00
    0.91062E-02        -0.27692E-02         0.00000E+00
    0.67284E-02        -0.19492E-02         0.00000E+00
    0.45946E-02        -0.12739E-02         0.00000E+00
    0.27389E-02        -0.73435E-03         0.00000E+00
    0.11957E-02        -0.31635E-03         0.00000E+00
    0.00000E+00         0.00000E+00         0.00000E+00
    0.18580E+00        -0.11508E+00         0.00000E+00
    0.18147E+00        -0.11124E+00         0.00000E+00
    0.17701E+00        -0.10745E+00         0.00000E+00
    0.17245E+00        -0.10373E+00         0.00000E+00
    0.16780E+00        -0.10010E+00         0.00000E+00
    0.16310E+00        -0.96598E-01         0.00000E+00
    0.15835E+00        -0.93218E-01         0.00000E+00
    0.15359E+00        -0.89968E-01         0.00000E+00
    0.14883E+00        -0.86847E-01         0.00000E+00
    0.14409E+00        -0.83851E-01         0.00000E+00
    0.13939E+00        -0.80971E-01         0.00000E+00
    0.13474E+00        -0.78198E-01         0.00000E+00
    0.13015E+00        -0.75520E-01         0.00000E+00
    0.12563E+00        -0.72926E-01         0.00000E+00
    0.12119E+00        -0.70402E-01         0.00000E+00
    0.11683E+00        -0.67936E-01         0.00000E+00
    0.11256E+00        -0.65516E-01         0.00000E+00
    0.10838E+00        -0.63130E-01         0.00000E+00
    0.10429E+00        -0.60768E-01         0.00000E+00
    0.10027E+00        -0.58419E-01         0.00000E+00
    0.96341E-01        -0.56076E-01         0.00000E+00
    0.92483E-01        -0.53732E-01         0.00000E+00
    0.88693E-01        -0.51380E-01         0.00000E+00
    0.84964E-01        -0.49017E-01         0.00000E+00
    0.81288E-01        -0.46641E-01         0.00000E+00
    0.77659E-01        -0.44249E-01         0.00000E+00
    0.74067E-01        -0.41843E-01         0.00000E+00
    0.70506E-01        -0.39425E-01         0.00000E+00
    0.66968E-01        -0.36997E-01         0.00000E+00
    0.63446E-01        -0.34565E-01         0.00000E+00
    0.59935E-01        -0.32135E-01         0.00000E+00
    0.56431E-01        -0.29715E-01         0.00000E+00
    0.52930E-01        -0.27313E-01         0.00000E+00
    0.49430E-01        -0.24940E-01         0.00000E+00
    0.45931E-01        -0.22606E-01         0.00000E+00
    0.42437E-01        -0.20324E-01         0.00000E+00
    0.38950E-01        -0.18107E-01         0.00000E+00
    0.35479E-01        -0.15966E-01         0.00000E+00
    0.32031E-01        -0.13917E-01         0.00000E+00
    0.28621E-01        -0.11972E-01         0.00000E+00
    0.25262E-01        -0.10144E-01         0.00000E+00
    0.21973E-01        -0.84462E-02         0.00000E+00
    0.18776E-01        -0.68894E-02         0.00000E+00
    0.15694E-01        -0.54831E-02         0.00000E+00
    0.12757E-01        -0.42344E-02         0.00000E+00
    0.99928E-02        -0.31477E-02         0.00000E+00
    0.74358E-02        -0.22236E-02         0.00000E+00
    0.51207E-02        -0.14584E-02         0.00000E+00
    0.30845E-02        -0.84348E-03         0.00000E+00
    0.13648E-02        -0.36427E-03         0.00000E+00
    0.00000E+00         0.00000E+00         0.00000E+00
    0.19049E+00        -0.11946E+00         0.00000E+00
    0.18593E+00        -0.11560E+00         0.00000E+00
    0.18125E+00        -0.11178E+00         0.00000E+00
    0.17647E+00        -0.10804E+00         0.00000E+00
    0.17162E+00        -0.10440E+00         0.00000E+00
    0.16672E+00        -0.10088E+00         0.00000E+00
    0.16179E+00        -0.97498E-01         0.00000E+00
    0.15686E+00        -0.94244E-01         0.00000E+00
    0.15195E+00        -0.91123E-01         0.00000E+00
    0.14707E+00        -0.88128E-01         0.00000E+00
    0.14224E+00        -0.85250E-01         0.00000E+00
    0.13748E+00        -0.82478E-01         0.00000E+00
    0.13279E+00        -0.79801E-01         0.00000E+00
    0.12820E+00        -0.77203E-01         0.00000E+00
    0.12369E+00        -0.74672E-01         0.00000E+00
    0.11929E+00        -0.72194E-01         0.00000E+00
    0.11498E+00        -0.69754E-01         0.00000E+00
    0.11077E+00        -0.67341E-01         0.00000E+00
    0.10666E+00        -0.64944E-01         0.00000E+00
    0.10264E+00        -0.62551E-01         0.00000E+00
    0.98713E-01        -0.60153E-01         0.00000E+00
    0.94865E-01        -0.57745E-01         0.00000E+00
    0.91089E-01        -0.55318E-01         0.00000E+00
    0.87378E-01        -0.52870E-01         0.00000E+00
    0.83723E-01        -0.50397E-01         0.00000E+00
    0.80113E-01        -0.47899E-01         0.00000E+00
    0.76540E-01        -0.45376E-01         0.00000E+00
    0.72995E-01        -0.42829E-01         0.00000E+00
    0.69469E-01        -0.40264E-01         0.00000E+00
    0.65953E-01        -0.37686E-01         0.00000E+00
    0.62440E-01        -0.35101E-01         0.00000E+00
    0.58926E-01        -0.32518E-01         0.00000E+00
    0.55404E-01        -0.29947E-01         0.00000E+00
    0.51873E-01        -0.27398E-01         0.00000E+00
    0.48330E-01        -0.24884E-01         0.00000E+00
    0.44779E-01        -0.22419E-01         0.00000E+00
    0.41221E-01        -0.20015E-01         0.00000E+00
    0.37664E-01        -0.17688E-01         0.00000E+00
    0.34117E-01        -0.15453E-01         0.00000E+00
    0.30591E-01        -0.13325E-01         0.00000E+00
    0.27102E-01        -0.11319E-01         0.00000E+00
    0.23668E-01        -0.94499E-02         0.00000E+00
    0.20313E-01        -0.77295E-02         0.00000E+00
    0.17060E-01        -0.61696E-02         0.00000E+00
    0.13941E-01        -0.47792E-02         0.00000E+00
    0.10986E-01        -0.35640E-02         0.00000E+00
    0.82320E-02        -0.25258E-02         0.00000E+00
    0.57157E-02        -0.16619E-02         0.00000E+00
    0.34773E-02        -0.96398E-03         0.00000E+00
    0.15582E-02        -0.41724E-03         0.00000E+00
    0.00000E+00         0.00000E+00         0.00000E+00
    0.19523E+00        -0.12407E+00         0.00000E+00
    0.19043E+00        -0.12019E+00         0.00000E+00
    0.18552E+00        -0.11635E+00         0.00000E+00
    0.18052E+00        -0.11260E+00         0.00000E+00
    0.17546E+00        -0.10895E+00         0.00000E+00
    0.17036E+00        -0.10543E+00         0.00000E+00
    0.16524E+00        -0.10204E+00         0.00000E+00
    0.16014E+00        -0.98785E-01         0.00000E+00
    0.15507E+00        -0.95668E-01         0.00000E+00
    0.15004E+00        -0.92679E-01         0.00000E+00
    0.14509E+00        -0.89808E-01         0.00000E+00
    0.14022E+00        -0.87043E-01         0.00000E+00
    0.13544E+00        -0.84369E-01         0.00000E+00
    0.13077E+00        -0.81772E-01         0.00000E+00
    0.12620E+00        -0.79236E-01         0.00000E+00
    0.12175E+00        -0.76747E-01         0.00000E+00
    0.11742E+00        -0.74289E-01         0.00000E+00
    0.11319E+00        -0.71850E-01         0.00000E+00
    0.10907E+00        -0.69417E-01         0.00000E+00
    0.10506E+00        -0.66978E-01         0.00000E+00
    0.10115E+00        -0.64525E-01         0.00000E+00
    0.97318E-01        -0.62049E-01         0.00000E+00
    0.93568E-01        -0.59544E-01         0.00000E+00
    0.89886E-01        -0.57005E-01         0.00000E+00
    0.86261E-01        -0.54431E-01         0.00000E+00
    0.82683E-01        -0.51819E-01         0.00000E+00
    0.79140E-01        -0.49172E-01         0.00000E+00
    0.75621E-01        -0.46491E-01         0.00000E+00
    0.72116E-01        -0.43780E-01         0.00000E+00
    0.68615E-01        -0.41046E-01         0.00000E+00
    0.65109E-01        -0.38297E-01         0.00000E+00
    0.61592E-01        -0.35541E-01         0.00000E+00
    0.58057E-01        -0.32789E-01         0.00000E+00
    0.54499E-01        -0.30053E-01         0.00000E+00
    0.50918E-01        -0.27347E-01         0.00000E+00
    0.47312E-01        -0.24685E-01         0.00000E+00
    0.43685E-01        -0.22083E-01         0.00000E+00
    0.40043E-01        -0.19556E-01         0.00000E+00
    0.36393E-01        -0.17122E-01         0.00000E+00
    0.32747E-01        -0.14798E-01         0.00000E+00
    0.29122E-01        -0.12600E-01         0.00000E+00
    0.25536E-01        -0.10545E-01         0.00000E+00
    0.22011E-01        -0.86476E-02         0.00000E+00
    0.18576E-01        -0.69212E-02         0.00000E+00
    0.15259E-01        -0.53765E-02         0.00000E+00
    0.12097E-01        -0.40211E-02         0.00000E+00
    0.91254E-02        -0.28582E-02         0.00000E+00
    0.63862E-02        -0.18861E-02         0.00000E+00
    0.39221E-02        -0.10969E-02         0.00000E+00
    0.17782E-02        -0.47570E-03         0.00000E+00
    0.00000E+00         0.00000E+00         0.00000E+00
    0.20003E+00        -0.12893E+00         0.00000E+00
    0.19498E+00        -0.12504E+00         0.00000E+00
    0.18983E+00        -0.12119E+00         0.00000E+00
    0.18460E+00        -0.11742E+00         0.00000E+00
    0.17931E+00        -0.11376E+00         0.00000E+00
    0.17400E+00        -0.11024E+00         0.00000E+00
    0.16870E+00        -0.10685E+00         0.00000E+00
    0.16341E+00        -0.10360E+00         0.00000E+00
    0.15818E+00        -0.10050E+00         0.00000E+00
    0.15301E+00        -0.97519E-01         0.00000E+00
    0.14793E+00        -0.94660E-01         0.00000E+00
    0.14295E+00        -0.91905E-01         0.00000E+00
    0.13808E+00        -0.89239E-01         0.00000E+00
    0.13334E+00        -0.86646E-01         0.00000E+00
    0.12872E+00        -0.84108E-01         0.00000E+00
    0.12423E+00        -0.81610E-01         0.00000E+00
    0.11987E+00        -0.79136E-01         0.00000E+00
    0.11564E+00        -0.76671E-01         0.00000E+00
    0.11153E+00        -0.74201E-01         0.00000E+00
    0.10753E+00        -0.71715E-01         0.00000E+00
    0.10364E+00        -0.69203E-01         0.00000E+00
    0.99845E-01        -0.66657E-01         0.00000E+00
    0.96133E-01        -0.64069E-01         0.00000E+00
    0.92492E-01        -0.61436E-01         0.00000E+00
    0.88910E-01        -0.58754E-01         0.00000E+00
    0.85375E-01        -0.56023E-01         0.00000E+00
    0.81873E-01        -0.53244E-01         0.00000E+00
    0.78391E-01        -0.50420E-01         0.00000E+00
    0.74918E-01        -0.47555E-01         0.00000E+00
    0.71442E-01        -0.44657E-01         0.00000E+00
    0.67952E-01        -0.41733E-01         0.00000E+00
    0.64440E-01        -0.38794E-01         0.00000E+00
    0.60899E-01        -0.35850E-01         0.00000E+00
    0.57322E-01        -0.32916E-01         0.00000E+00
    0.53706E-01        -0.30005E-01         0.00000E+00
    0.50050E-01        -0.27134E-01         0.00000E+00
    0.46355E-01        -0.24320E-01         0.00000E+00
    0.42627E-01        -0.21580E-01         0.00000E+00
    0.38873E-01        -0.18933E-01         0.00000E+00
    0.35105E-01        -0.16398E-01         0.00000E+00
    0.31337E-01        -0.13993E-01         0.00000E+00
    0.27589E-01        -0.11738E-01         0.00000E+00
    0.23885E-01        -0.96495E-02         0.00000E+00
    0.20253E-01        -0.77426E-02         0.00000E+00
    0.16724E-01        -0.60305E-02         0.00000E+00
    0.13334E-01        -0.45224E-02         0.00000E+00
    0.10125E-01        -0.32233E-02         0.00000E+00
    0.71394E-02        -0.21327E-02         0.00000E+00
    0.44240E-02        -0.12432E-02         0.00000E+00
    0.20275E-02        -0.54016E-03         0.00000E+00
    0.00000E+00         0.00000E+00         0.00000E+00
    0.20489E+00        -0.13405E+00         0.00000E+00
    0.19958E+00        -0.13014E+00         0.00000E+00
    0.19417E+00        -0.12628E+00         0.00000E+00
    0.18870E+00        -0.12251E+00         0.00000E+00
    0.18318E+00        -0.11885E+00         0.00000E+00
    0.17766E+00        -0.11533E+00         0.00000E+00
    0.17215E+00        -0.11195E+00         0.00000E+00
    0.16668E+00        -0.10871E+00         0.00000E+00
    0.16128E+00        -0.10562E+00         0.00000E+00
    0.15597E+00        -0.10266E+00         0.00000E+00
    0.15076E+00        -0.99819E-01         0.00000E+00
    0.14567E+00        -0.97080E-01         0.00000E+00
    0.14072E+00        -0.94427E-01         0.00000E+00
    0.13591E+00        -0.91841E-01         0.00000E+00
    0.13124E+00        -0.89305E-01         0.00000E+00
    0.12673E+00        -0.86800E-01         0.00000E+00
    0.12235E+00        -0.84310E-01         0.00000E+00
    0.11812E+00        -0.81818E-01         0.00000E+00
    0.11403E+00        -0.79312E-01         0.00000E+00
    0.11006E+00        -0.76777E-01         0.00000E+00
    0.10620E+00        -0.74203E-01         0.00000E+00
    0.10245E+00        -0.71583E-01         0.00000E+00
    0.98789E-01        -0.68908E-01         0.00000E+00
    0.95202E-01        -0.66174E-01         0.00000E+00
    0.91676E-01        -0.63379E-01         0.00000E+00
    0.88196E-01        -0.60522E-01         0.00000E+00
    0.84747E-01        -0.57604E-01         0.00000E+00
    0.81314E-01        -0.54628E-01         0.00000E+00
    0.77884E-01        -0.51601E-01         0.00000E+00
    0.74443E-01        -0.48529E-01         0.00000E+00
    0.70979E-01        -0.45420E-01         0.00000E+00
    0.67482E-01        -0.42287E-01         0.00000E+00
    0.63942E-01        -0.39140E-01         0.00000E+00
    0.60352E-01        -0.35995E-01         0.00000E+00
    0.56707E-01        -0.32868E-01         0.00000E+00
    0.53004E-01        -0.29775E-01         0.00000E+00
    0.49245E-01        -0.26735E-01         0.00000E+00
    0.45432E-01        -0.23767E-01         0.00000E+00
    0.41572E-01        -0.20893E-01         0.00000E+00
    0.37677E-01        -0.18132E-01         0.00000E+00
    0.33761E-01        -0.15506E-01         0.00000E+00
    0.29843E-01        -0.13036E-01         0.00000E+00
    0.25949E-01        -0.10741E-01         0.00000E+00
    0.22105E-01        -0.86394E-02         0.00000E+00
    0.18346E-01        -0.67456E-02         0.00000E+00
    0.14711E-01        -0.50716E-02         0.00000E+00
    0.11241E-01        -0.36240E-02         0.00000E+00
    0.79832E-02        -0.24037E-02         0.00000E+00
    0.49884E-02        -0.14043E-02         0.00000E+00
    0.23092E-02        -0.61116E-03         0.00000E+00
    0.00000E+00         0.00000E+00         0.00000E+00
    0.20980E+00        -0.13945E+00         0.00000E+00
    0.20422E+00        -0.13553E+00         0.00000E+00
    0.19855E+00        -0.13166E+00         0.00000E+00
    0.19282E+00        -0.12788E+00         0.00000E+00
    0.18706E+00        -0.12423E+00         0.00000E+00
    0.18131E+00        -0.12071E+00         0.00000E+00
    0.17559E+00        -0.11735E+00         0.00000E+00
    0.16993E+00        -0.11413E+00         0.00000E+00
    0.16436E+00        -0.11106E+00         0.00000E+00
    0.15890E+00        -0.10812E+00         0.00000E+00
    0.15357E+00        -0.10530E+00         0.00000E+00
    0.14838E+00        -0.10258E+00         0.00000E+00
    0.14334E+00        -0.99948E-01         0.00000E+00
    0.13847E+00        -0.97373E-01         0.00000E+00
    0.13377E+00        -0.94841E-01         0.00000E+00
    0.12923E+00        -0.92331E-01         0.00000E+00
    0.12486E+00        -0.89826E-01         0.00000E+00
    0.12064E+00        -0.87308E-01         0.00000E+00
    0.11657E+00        -0.84763E-01         0.00000E+00
    0.11264E+00        -0.82177E-01         0.00000E+00
    0.10883E+00        -0.79539E-01         0.00000E+00
    0.10514E+00        -0.76840E-01         0.00000E+00
    0.10154E+00        -0.74072E-01         0.00000E+00
    0.98022E-01        -0.71233E-01         0.00000E+00
    0.94565E-01        -0.68317E-01         0.00000E+00
    0.91153E-01        -0.65327E-01         0.00000E+00
    0.87770E-01        -0.62262E-01         0.00000E+00
    0.84399E-01        -0.59127E-01         0.00000E+00
    0.81023E-01        -0.55928E-01         0.00000E+00
    0.77629E-01        -0.52671E-01         0.00000E+00
    0.74201E-01        -0.49368E-01         0.00000E+00
    0.70728E-01        -0.46030E-01         0.00000E+00
    0.67197E-01        -0.42669E-01         0.00000E+00
    0.63602E-01        -0.39302E-01         0.00000E+00
    0.59933E-01        -0.35945E-01         0.00000E+00
    0.56189E-01        -0.32617E-01         0.00000E+00
    0.52367E-01        -0.29337E-01         0.00000E+00
    0.48470E-01        -0.26128E-01         0.00000E+00
    0.44504E-01        -0.23011E-01         0.00000E+00
    0.40479E-01        -0.20010E-01         0.00000E+00
    0.36409E-01        -0.17147E-01         0.00000E+00
    0.32313E-01        -0.14446E-01         0.00000E+00
    0.28216E-01        -0.11929E-01         0.00000E+00
    0.24147E-01        -0.96171E-02         0.00000E+00
    0.20141E-01        -0.75268E-02         0.00000E+00
    0.16237E-01        -0.56726E-02         0.00000E+00
    0.12483E-01        -0.40632E-02         0.00000E+00
    0.89259E-02        -0.27013E-02         0.00000E+00
    0.56213E-02        -0.15815E-02         0.00000E+00
    0.26263E-02        -0.68935E-03         0.00000E+00
    0.00000E+00         0.00000E+00         0.00000E+00
    0.21476E+00        -0.14512E+00         0.00000E+00
    0.20890E+00        -0.14119E+00         0.00000E+00
    0.20295E+00        -0.13732E+00         0.00000E+00
    0.19696E+00        -0.13355E+00         0.00000E+00
    0.19095E+00        -0.12990E+00         0.00000E+00
    0.18496E+00        -0.12640E+00         0.00000E+00
    0.17903E+00        -0.12306E+00         0.00000E+00
    0.17317E+00        -0.11987E+00         0.00000E+00
    0.16743E+00        -0.11683E+00         0.00000E+00
    0.16181E+00        -0.11392E+00         0.00000E+00
    0.15636E+00        -0.11113E+00         0.00000E+00
    0.15106E+00        -0.10843E+00         0.00000E+00
    0.14595E+00        -0.10582E+00         0.00000E+00
    0.14103E+00        -0.10326E+00         0.00000E+00
    0.13629E+00        -0.10073E+00         0.00000E+00
    0.13174E+00        -0.98221E-01         0.00000E+00
    0.12738E+00        -0.95701E-01         0.00000E+00
    0.12319E+00        -0.93156E-01         0.00000E+00
    0.11916E+00        -0.90570E-01         0.00000E+00
    0.11528E+00        -0.87930E-01         0.00000E+00
    0.11154E+00        -0.85223E-01         0.00000E+00
    0.10792E+00        -0.82440E-01         0.00000E+00
    0.10440E+00        -0.79575E-01         0.00000E+00
    0.10096E+00        -0.76623E-01         0.00000E+00
    0.97584E-01        -0.73581E-01         0.00000E+00
    0.94255E-01        -0.70449E-01         0.00000E+00
    0.90951E-01        -0.67229E-01         0.00000E+00
    0.87653E-01        -0.63925E-01         0.00000E+00
    0.84345E-01        -0.60545E-01         0.00000E+00
    0.81009E-01        -0.57095E-01         0.00000E+00
    0.77628E-01        -0.53587E-01         0.00000E+00
    0.74188E-01        -0.50033E-01         0.00000E+00
    0.70677E-01        -0.46447E-01         0.00000E+00
    0.67084E-01        -0.42845E-01         0.00000E+00
    0.63399E-01        -0.39246E-01         0.00000E+00
    0.59618E-01        -0.35669E-01         0.00000E+00
    0.55737E-01        -0.32137E-01         0.00000E+00
    0.51758E-01        -0.28671E-01         0.00000E+00
    0.47685E-01        -0.25297E-01         0.00000E+00
    0.43526E-01        -0.22039E-01         0.00000E+00
    0.39296E-01        -0.18924E-01         0.00000E+00
    0.35014E-01        -0.15976E-01         0.00000E+00
    0.30702E-01        -0.13221E-01         0.00000E+00
    0.26393E-01        -0.10682E-01         0.00000E+00
    0.22120E-01        -0.83795E-02         0.00000E+00
    0.17928E-01        -0.63299E-02         0.00000E+00
    0.13862E-01        -0.45446E-02         0.00000E+00
    0.99765E-02        -0.30280E-02         0.00000E+00
    0.63293E-02        -0.17763E-02         0.00000E+00
    0.29823E-02        -0.77542E-03         0.00000E+00
    0.00000E+00         0.00000E+00         0.00000E+00
    0.21978E+00        -0.15108E+00         0.00000E+00
    0.21362E+00        -0.14716E+00         0.00000E+00
    0.20738E+00        -0.14330E+00         0.00000E+00
    0.20111E+00        -0.13953E+00         0.00000E+00
    0.19484E+00        -0.13590E+00         0.00000E+00
    0.18860E+00        -0.13242E+00         0.00000E+00
    0.18244E+00        -0.12910E+00         0.00000E+00
    0.17638E+00        -0.12595E+00         0.00000E+00
    0.17046E+00        -0.12294E+00         0.00000E+00
    0.16470E+00        -0.12007E+00         0.00000E+00
    0.15911E+00        -0.11731E+00         0.00000E+00
    0.15372E+00        -0.11465E+00         0.00000E+00
    0.14854E+00        -0.11206E+00         0.00000E+00
    0.14357E+00        -0.10952E+00         0.00000E+00
    0.13881E+00        -0.10700E+00         0.00000E+00
    0.13427E+00        -0.10449E+00         0.00000E+00
    0.12992E+00        -0.10195E+00         0.00000E+00
    0.12577E+00        -0.99377E-01         0.00000E+00
    0.12179E+00        -0.96748E-01         0.00000E+00
    0.11799E+00        -0.94049E-01         0.00000E+00
    0.11432E+00        -0.91269E-01         0.00000E+00
    0.11079E+00        -0.88398E-01         0.00000E+00
    0.10736E+00        -0.85428E-01         0.00000E+00
    0.10402E+00        -0.82356E-01         0.00000E+00
    0.10074E+00        -0.79179E-01         0.00000E+00
    0.97508E-01        -0.75898E-01         0.00000E+00
    0.94297E-01        -0.72514E-01         0.00000E+00
    0.91088E-01        -0.69033E-01         0.00000E+00
    0.87859E-01        -0.65462E-01         0.00000E+00
    0.84593E-01        -0.61808E-01         0.00000E+00
    0.81270E-01        -0.58085E-01         0.00000E+00
    0.77875E-01        -0.54304E-01         0.00000E+00
    0.74393E-01        -0.50481E-01         0.00000E+00
    0.70810E-01        -0.46633E-01         0.00000E+00
    0.67116E-01        -0.42779E-01         0.00000E+00
    0.63304E-01        -0.38941E-01         0.00000E+00
    0.59369E-01        -0.35142E-01         0.00000E+00
    0.55309E-01        -0.31406E-01         0.00000E+00
    0.51129E-01        -0.27759E-01         0.00000E+00
    0.46835E-01        -0.24229E-01         0.00000E+00
    0.42440E-01        -0.20845E-01         0.00000E+00
    0.37961E-01        -0.17634E-01         0.00000E+00
    0.33424E-01        -0.14624E-01         0.00000E+00
    0.28859E-01        -0.11841E-01         0.00000E+00
    0.24301E-01        -0.93094E-02         0.00000E+00
    0.19795E-01        -0.70483E-02         0.00000E+00
    0.15391E-01        -0.50718E-02         0.00000E+00
    0.11145E-01        -0.33866E-02         0.00000E+00
    0.71193E-02        -0.19904E-02         0.00000E+00
    0.33809E-02        -0.87018E-03         0.00000E+00
    0.00000E+00         0.00000E+00         0.00000E+00
    0.22485E+00        -0.15736E+00         0.00000E+00
    0.21837E+00        -0.15344E+00         0.00000E+00
    0.21183E+00        -0.14959E+00         0.00000E+00
    0.20527E+00        -0.14584E+00         0.00000E+00
    0.19872E+00        -0.14223E+00         0.00000E+00
    0.19223E+00        -0.13878E+00         0.00000E+00
    0.18583E+00        -0.13550E+00         0.00000E+00
    0.17956E+00        -0.13238E+00         0.00000E+00
    0.17346E+00        -0.12941E+00         0.00000E+00
    0.16754E+00        -0.12658E+00         0.00000E+00
    0.16184E+00        -0.12387E+00         0.00000E+00
    0.15635E+00        -0.12125E+00         0.00000E+00
    0.15111E+00        -0.11869E+00         0.00000E+00
    0.14610E+00        -0.11617E+00         0.00000E+00
    0.14133E+00        -0.11366E+00         0.00000E+00
    0.13680E+00        -0.11114E+00         0.00000E+00
    0.13249E+00        -0.10859E+00         0.00000E+00
    0.12839E+00        -0.10599E+00         0.00000E+00
    0.12448E+00        -0.10331E+00         0.00000E+00
    0.12076E+00        -0.10055E+00         0.00000E+00
    0.11719E+00        -0.97689E-01         0.00000E+00
    0.11376E+00        -0.94722E-01         0.00000E+00
    0.11044E+00        -0.91641E-01         0.00000E+00
    0.10721E+00        -0.88442E-01         0.00000E+00
    0.10404E+00        -0.85122E-01         0.00000E+00
    0.10092E+00        -0.81682E-01         0.00000E+00
    0.97819E-01        -0.78125E-01         0.00000E+00
    0.94710E-01        -0.74457E-01         0.00000E+00
    0.91575E-01        -0.70685E-01         0.00000E+00
    0.88391E-01        -0.66819E-01         0.00000E+00
    0.85139E-01        -0.62870E-01         0.00000E+00
    0.81799E-01        -0.58851E-01         0.00000E+00
    0.78355E-01        -0.54780E-01         0.00000E+00
    0.74792E-01        -0.50674E-01         0.00000E+00
    0.71097E-01        -0.46554E-01         0.00000E+00
    0.67260E-01        -0.42442E-01         0.00000E+00
    0.63275E-01        -0.38362E-01         0.00000E+00
    0.59139E-01        -0.34341E-01         0.00000E+00
    0.54852E-01        -0.30407E-01         0.00000E+00
    0.50420E-01        -0.26590E-01         0.00000E+00
    0.45855E-01        -0.22919E-01         0.00000E+00
    0.41173E-01        -0.19428E-01         0.00000E+00
    0.36398E-01        -0.16145E-01         0.00000E+00
    0.31561E-01        -0.13101E-01         0.00000E+00
    0.26697E-01        -0.10323E-01         0.00000E+00
    0.21853E-01        -0.78332E-02         0.00000E+00
    0.17082E-01        -0.56491E-02         0.00000E+00
    0.12441E-01        -0.37801E-02         0.00000E+00
    0.79988E-02        -0.22260E-02         0.00000E+00
    0.38263E-02        -0.97454E-03         0.00000E+00
    0.00000E+00         0.00000E+00         0.00000E+00
    0.22997E+00        -0.16396E+00         0.00000E+00
    0.22317E+00        -0.16006E+00         0.00000E+00
    0.21630E+00        -0.15622E+00         0.00000E+00
    0.20943E+00        -0.15249E+00         0.00000E+00
    0.20259E+00        -0.14891E+00         0.00000E+00
    0.19583E+00        -0.14550E+00         0.00000E+00
    0.18919E+00        -0.14226E+00         0.00000E+00
    0.18271E+00        -0.13919E+00         0.00000E+00
    0.17642E+00        -0.13627E+00         0.00000E+00
    0.17035E+00        -0.13350E+00         0.00000E+00
    0.16452E+00        -0.13083E+00         0.00000E+00
    0.15895E+00        -0.12825E+00         0.00000E+00
    0.15364E+00        -0.12572E+00         0.00000E+00
    0.14861E+00        -0.12323E+00         0.00000E+00
    0.14384E+00        -0.12073E+00         0.00000E+00
    0.13934E+00        -0.11821E+00         0.00000E+00
    0.13508E+00        -0.11564E+00         0.00000E+00
    0.13105E+00        -0.11300E+00         0.00000E+00
    0.12723E+00        -0.11027E+00         0.00000E+00
    0.12360E+00        -0.10744E+00         0.00000E+00
    0.12015E+00        -0.10450E+00         0.00000E+00
    0.11684E+00        -0.10143E+00         0.00000E+00
    0.11364E+00        -0.98224E-01         0.00000E+00
    0.11054E+00        -0.94888E-01         0.00000E+00
    0.10750E+00        -0.91416E-01         0.00000E+00
    0.10451E+00        -0.87808E-01         0.00000E+00
    0.10152E+00        -0.84070E-01         0.00000E+00
    0.98532E-01        -0.80205E-01         0.00000E+00
    0.95502E-01        -0.76222E-01         0.00000E+00
    0.92414E-01        -0.72132E-01         0.00000E+00
    0.89244E-01        -0.67947E-01         0.00000E+00
    0.85971E-01        -0.63681E-01         0.00000E+00
    0.82576E-01        -0.59351E-01         0.00000E+00
    0.79042E-01        -0.54977E-01         0.00000E+00
    0.75354E-01        -0.50578E-01         0.00000E+00
    0.71500E-01        -0.46179E-01         0.00000E+00
    0.67470E-01        -0.41806E-01         0.00000E+00
    0.63260E-01        -0.37486E-01         0.00000E+00
    0.58868E-01        -0.33250E-01         0.00000E+00
    0.54298E-01        -0.29129E-01         0.00000E+00
    0.49558E-01        -0.25157E-01         0.00000E+00
    0.44666E-01        -0.21367E-01         0.00000E+00
    0.39641E-01        -0.17794E-01         0.00000E+00
    0.34516E-01        -0.14471E-01         0.00000E+00
    0.29326E-01        -0.11427E-01         0.00000E+00
    0.24119E-01        -0.86907E-02         0.00000E+00
    0.18948E-01        -0.62814E-02         0.00000E+00
    0.13877E-01        -0.42122E-02         0.00000E+00
    0.89763E-02        -0.24851E-02         0.00000E+00
    0.43229E-02        -0.10896E-02         0.00000E+00
    0.00000E+00         0.00000E+00         0.00000E+00
    0.23515E+00        -0.17091E+00         0.00000E+00
    0.22799E+00        -0.16702E+00         0.00000E+00
    0.22079E+00        -0.16320E+00         0.00000E+00
    0.21359E+00        -0.15950E+00         0.00000E+00
    0.20645E+00        -0.15596E+00         0.00000E+00
    0.19940E+00        -0.15260E+00         0.00000E+00
    0.19251E+00        -0.14941E+00         0.00000E+00
    0.18580E+00        -0.14640E+00         0.00000E+00
    0.17932E+00        -0.14354E+00         0.00000E+00
    0.17310E+00        -0.14082E+00         0.00000E+00
    0.16715E+00        -0.13821E+00         0.00000E+00
    0.16150E+00        -0.13568E+00         0.00000E+00
    0.15615E+00        -0.13319E+00         0.00000E+00
    0.15110E+00        -0.13072E+00         0.00000E+00
    0.14635E+00        -0.12823E+00         0.00000E+00
    0.14189E+00        -0.12570E+00         0.00000E+00
    0.13769E+00        -0.12311E+00         0.00000E+00
    0.13375E+00        -0.12043E+00         0.00000E+00
    0.13004E+00        -0.11765E+00         0.00000E+00
    0.12653E+00        -0.11474E+00         0.00000E+00
    0.12320E+00        -0.11170E+00         0.00000E+00
    0.12003E+00        -0.10852E+00         0.00000E+00
    0.11698E+00        -0.10518E+00         0.00000E+00
    0.11402E+00        -0.10170E+00         0.00000E+00
    0.11113E+00        -0.98068E-01         0.00000E+00
    0.10827E+00        -0.94282E-01         0.00000E+00
    0.10542E+00        -0.90351E-01         0.00000E+00
    0.10256E+00        -0.86280E-01         0.00000E+00
    0.99651E-01        -0.82077E-01         0.00000E+00
    0.96671E-01        -0.77753E-01         0.00000E+00
    0.93595E-01        -0.73322E-01         0.00000E+00
    0.90400E-01        -0.68799E-01         0.00000E+00
    0.87065E-01        -0.64200E-01         0.00000E+00
    0.83570E-01        -0.59545E-01         0.00000E+00
    0.79898E-01        -0.54857E-01         0.00000E+00
    0.76034E-01        -0.50160E-01         0.00000E+00
    0.71967E-01        -0.45481E-01         0.00000E+00
    0.67687E-01        -0.40850E-01         0.00000E+00
    0.63193E-01        -0.36297E-01         0.00000E+00
    0.58483E-01        -0.31858E-01         0.00000E+00
    0.53567E-01        -0.27567E-01         0.00000E+00
    0.48456E-01        -0.23462E-01         0.00000E+00
    0.43171E-01        -0.19580E-01         0.00000E+00
    0.37742E-01        -0.15958E-01         0.00000E+00
    0.32205E-01        -0.12630E-01         0.00000E+00
    0.26607E-01        -0.96273E-02         0.00000E+00
    0.21005E-01        -0.69741E-02         0.00000E+00
    0.15465E-01        -0.46867E-02         0.00000E+00
    0.10061E-01        -0.27704E-02         0.00000E+00
    0.48756E-02        -0.12164E-02         0.00000E+00
    0.00000E+00         0.00000E+00         0.00000E+00
    0.24038E+00        -0.17821E+00         0.00000E+00
    0.23286E+00        -0.17435E+00         0.00000E+00
    0.22529E+00        -0.17056E+00         0.00000E+00
    0.21775E+00        -0.16690E+00         0.00000E+00
    0.21028E+00        -0.16341E+00         0.00000E+00
    0.20294E+00        -0.16010E+00         0.00000E+00
    0.19577E+00        -0.15698E+00         0.00000E+00
    0.18884E+00        -0.15403E+00         0.00000E+00
    0.18217E+00        -0.15124E+00         0.00000E+00
    0.17579E+00        -0.14859E+00         0.00000E+00
    0.16974E+00        -0.14604E+00         0.00000E+00
    0.16401E+00        -0.14356E+00         0.00000E+00
    0.15863E+00        -0.14111E+00         0.00000E+00
    0.15358E+00        -0.13866E+00         0.00000E+00
    0.14886E+00        -0.13618E+00         0.00000E+00
    0.14446E+00        -0.13365E+00         0.00000E+00
    0.14035E+00        -0.13103E+00         0.00000E+00
    0.13651E+00        -0.12830E+00         0.00000E+00
    0.13292E+00        -0.12544E+00         0.00000E+00
    0.12955E+00        -0.12245E+00         0.00000E+00
    0.12637E+00        -0.11931E+00         0.00000E+00
    0.12335E+00        -0.11600E+00         0.00000E+00
    0.12045E+00        -0.11253E+00         0.00000E+00
    0.11765E+00        -0.10889E+00         0.00000E+00
    0.11492E+00        -0.10508E+00         0.00000E+00
    0.11222E+00        -0.10111E+00         0.00000E+00
    0.10953E+00        -0.96972E-01         0.00000E+00
    0.10681E+00        -0.92683E-01         0.00000E+00
    0.10403E+00        -0.88250E-01         0.00000E+00
    0.10117E+00        -0.83684E-01         0.00000E+00
    0.98201E-01        -0.78997E-01         0.00000E+00
    0.95096E-01        -0.74206E-01         0.00000E+00
    0.91832E-01        -0.69329E-01         0.00000E+00
    0.88387E-01        -0.64385E-01         0.00000E+00
    0.84740E-01        -0.59398E-01         0.00000E+00
    0.80875E-01        -0.54392E-01         0.00000E+00
    0.76776E-01        -0.49396E-01         0.00000E+00
    0.72433E-01        -0.44440E-01         0.00000E+00
    0.67839E-01        -0.39557E-01         0.00000E+00
    0.62992E-01        -0.34784E-01         0.00000E+00
    0.57895E-01        -0.30159E-01         0.00000E+00
    0.52560E-01        -0.25722E-01         0.00000E+00
    0.47005E-01        -0.21513E-01         0.00000E+00
    0.41256E-01        -0.17573E-01         0.00000E+00
    0.35351E-01        -0.13940E-01         0.00000E+00
    0.29336E-01        -0.10651E-01         0.00000E+00
    0.23268E-01        -0.77333E-02         0.00000E+00
    0.17217E-01        -0.52084E-02         0.00000E+00
    0.11261E-01        -0.30848E-02         0.00000E+00
    0.54898E-02        -0.13566E-02         0.00000E+00
    0.00000E+00         0.00000E+00         0.00000E+00
    0.24567E+00        -0.18589E+00         0.00000E+00
    0.23775E+00        -0.18207E+00         0.00000E+00
    0.22981E+00        -0.17832E+00         0.00000E+00
    0.22189E+00        -0.17471E+00         0.00000E+00
    0.21408E+00        -0.17128E+00         0.00000E+00
    0.20642E+00        -0.16803E+00         0.00000E+00
    0.19898E+00        -0.16498E+00         0.00000E+00
    0.19181E+00        -0.16212E+00         0.00000E+00
    0.18495E+00        -0.15941E+00         0.00000E+00
    0.17842E+00        -0.15683E+00         0.00000E+00
    0.17226E+00        -0.15434E+00         0.00000E+00
    0.16648E+00        -0.15191E+00         0.00000E+00
    0.16107E+00        -0.14950E+00         0.00000E+00
    0.15604E+00        -0.14708E+00         0.00000E+00
    0.15137E+00        -0.14461E+00         0.00000E+00
    0.14704E+00        -0.14205E+00         0.00000E+00
    0.14304E+00        -0.13940E+00         0.00000E+00
    0.13933E+00        -0.13661E+00         0.00000E+00
    0.13588E+00        -0.13368E+00         0.00000E+00
    0.13266E+00        -0.13059E+00         0.00000E+00
    0.12965E+00        -0.12733E+00         0.00000E+00
    0.12680E+00        -0.12388E+00         0.00000E+00
    0.12408E+00        -0.12026E+00         0.00000E+00
    0.12146E+00        -0.11645E+00         0.00000E+00
    0.11890E+00        -0.11245E+00         0.00000E+00
    0.11638E+00        -0.10828E+00         0.00000E+00
    0.11385E+00        -0.10393E+00         0.00000E+00
    0.11128E+00        -0.99416E-01         0.00000E+00
    0.10865E+00        -0.94742E-01         0.00000E+00
    0.10592E+00        -0.89923E-01         0.00000E+00
    0.10307E+00        -0.84972E-01         0.00000E+00
    0.10007E+00        -0.79905E-01         0.00000E+00
    0.96885E-01        -0.74741E-01         0.00000E+00
    0.93500E-01        -0.69499E-01         0.00000E+00
    0.89889E-01        -0.64203E-01         0.00000E+00
    0.86031E-01        -0.58879E-01         0.00000E+00
    0.81909E-01        -0.53556E-01         0.00000E+00
    0.77509E-01        -0.48264E-01         0.00000E+00
    0.72821E-01        -0.43040E-01         0.00000E+00
    0.67837E-01        -0.37919E-01         0.00000E+00
    0.62560E-01        -0.32945E-01         0.00000E+00
    0.56996E-01        -0.28158E-01         0.00000E+00
    0.51160E-01        -0.23603E-01         0.00000E+00
    0.45078E-01        -0.19325E-01         0.00000E+00
    0.38783E-01        -0.15367E-01         0.00000E+00
    0.32322E-01        -0.11769E-01         0.00000E+00
    0.25753E-01        -0.85658E-02         0.00000E+00
    0.19148E-01        -0.57824E-02         0.00000E+00
    0.12589E-01        -0.34318E-02         0.00000E+00
    0.61713E-02        -0.15117E-02         0.00000E+00
    0.00000E+00         0.00000E+00         0.00000E+00
    0.25102E+00        -0.19399E+00         0.00000E+00
    0.24268E+00        -0.19021E+00         0.00000E+00
    0.23433E+00        -0.18651E+00         0.00000E+00
    0.22602E+00        -0.18296E+00         0.00000E+00
    0.21784E+00        -0.17959E+00         0.00000E+00
    0.20986E+00        -0.17643E+00         0.00000E+00
    0.20213E+00        -0.17346E+00         0.00000E+00
    0.19471E+00        -0.17068E+00         0.00000E+00
    0.18765E+00        -0.16806E+00         0.00000E+00
    0.18098E+00        -0.16556E+00         0.00000E+00
    0.17473E+00        -0.16315E+00         0.00000E+00
    0.16890E+00        -0.16078E+00         0.00000E+00
    0.16348E+00        -0.15841E+00         0.00000E+00
    0.15849E+00        -0.15600E+00         0.00000E+00
    0.15389E+00        -0.15352E+00         0.00000E+00
    0.14966E+00        -0.15095E+00         0.00000E+00
    0.14578E+00        -0.14824E+00         0.00000E+00
    0.14222E+00        -0.14538E+00         0.00000E+00
    0.13893E+00        -0.14236E+00         0.00000E+00
    0.13589E+00        -0.13916E+00         0.00000E+00
    0.13306E+00        -0.13576E+00         0.00000E+00
    0.13040E+00        -0.13217E+00         0.00000E+00
    0.12788E+00        -0.12838E+00         0.00000E+00
    0.12545E+00        -0.12438E+00         0.00000E+00
    0.12308E+00        -0.12019E+00         0.00000E+00
    0.12074E+00        -0.11580E+00         0.00000E+00
    0.11839E+00        -0.11123E+00         0.00000E+00
    0.11599E+00        -0.10647E+00         0.00000E+00
    0.11352E+00        -0.10155E+00         0.00000E+00
    0.11093E+00        -0.96468E-01         0.00000E+00
    0.10821E+00        -0.91244E-01         0.00000E+00
    0.10532E+00        -0.85893E-01         0.00000E+00
    0.10223E+00        -0.80434E-01         0.00000E+00
    0.98917E-01        -0.74887E-01         0.00000E+00
    0.95351E-01        -0.69276E-01         0.00000E+00
    0.91511E-01        -0.63626E-01         0.00000E+00
    0.87375E-01        -0.57966E-01         0.00000E+00
    0.82925E-01        -0.52329E-01         0.00000E+00
    0.78148E-01        -0.46752E-01         0.00000E+00
    0.73032E-01        -0.41272E-01         0.00000E+00
    0.67575E-01        -0.35933E-01         0.00000E+00
    0.61779E-01        -0.30780E-01         0.00000E+00
    0.55655E-01        -0.25861E-01         0.00000E+00
    0.49224E-01        -0.21225E-01         0.00000E+00
    0.42519E-01        -0.16920E-01         0.00000E+00
    0.35584E-01        -0.12992E-01         0.00000E+00
    0.28478E-01        -0.94795E-02         0.00000E+00
    0.21273E-01        -0.64146E-02         0.00000E+00
    0.14055E-01        -0.38154E-02         0.00000E+00
    0.69265E-02        -0.16835E-02         0.00000E+00
    0.00000E+00         0.00000E+00         0.00000E+00
    0.25643E+00        -0.20251E+00         0.00000E+00
    0.24765E+00        -0.19879E+00         0.00000E+00
    0.23886E+00        -0.19515E+00         0.00000E+00
    0.23013E+00        -0.19167E+00         0.00000E+00
    0.22156E+00        -0.18839E+00         0.00000E+00
    0.21322E+00        -0.18532E+00         0.00000E+00
    0.20519E+00        -0.18245E+00         0.00000E+00
    0.19753E+00        -0.17978E+00         0.00000E+00
    0.19027E+00        -0.17725E+00         0.00000E+00
    0.18347E+00        -0.17484E+00         0.00000E+00
    0.17713E+00        -0.17249E+00         0.00000E+00
    0.17126E+00        -0.17018E+00         0.00000E+00
    0.16587E+00        -0.16784E+00         0.00000E+00
    0.16093E+00        -0.16544E+00         0.00000E+00
    0.15642E+00        -0.16295E+00         0.00000E+00
    0.15232E+00        -0.16034E+00         0.00000E+00
    0.14858E+00        -0.15757E+00         0.00000E+00
    0.14519E+00        -0.15463E+00         0.00000E+00
    0.14209E+00        -0.15149E+00         0.00000E+00
    0.13925E+00        -0.14816E+00         0.00000E+00
    0.13662E+00        -0.14461E+00         0.00000E+00
    0.13417E+00        -0.14085E+00         0.00000E+00
    0.13185E+00        -0.13688E+00         0.00000E+00
    0.12963E+00        -0.13268E+00         0.00000E+00
    0.12747E+00        -0.12828E+00         0.00000E+00
    0.12532E+00        -0.12366E+00         0.00000E+00
    0.12316E+00        -0.11885E+00         0.00000E+00
    0.12094E+00        -0.11384E+00         0.00000E+00
    0.11864E+00        -0.10866E+00         0.00000E+00
    0.11621E+00        -0.10331E+00         0.00000E+00
    0.11363E+00        -0.97806E-01         0.00000E+00
    0.11086E+00        -0.92165E-01         0.00000E+00
    0.10788E+00        -0.86406E-01         0.00000E+00
    0.10464E+00        -0.80548E-01         0.00000E+00
    0.10113E+00        -0.74615E-01         0.00000E+00
    0.97320E-01        -0.68632E-01         0.00000E+00
    0.93179E-01        -0.62630E-01         0.00000E+00
    0.88689E-01        -0.56641E-01         0.00000E+00
    0.83830E-01        -0.50701E-01         0.00000E+00
    0.78587E-01        -0.44850E-01         0.00000E+00
    0.72952E-01        -0.39135E-01         0.00000E+00
    0.66922E-01        -0.33601E-01         0.00000E+00
    0.60504E-01        -0.28301E-01         0.00000E+00
    0.53714E-01        -0.23287E-01         0.00000E+00
    0.46579E-01        -0.18613E-01         0.00000E+00
    0.39142E-01        -0.14329E-01         0.00000E+00
    0.31460E-01        -0.10483E-01         0.00000E+00
    0.23607E-01        -0.71119E-02         0.00000E+00
    0.15672E-01        -0.42400E-02         0.00000E+00
    0.77623E-02        -0.18744E-02         0.00000E+00
    0.00000E+00         0.00000E+00         0.00000E+00
    0.26192E+00        -0.21150E+00         0.00000E+00
    0.25266E+00        -0.20784E+00         0.00000E+00
    0.24339E+00        -0.20429E+00         0.00000E+00
    0.23421E+00        -0.20090E+00         0.00000E+00
    0.22522E+00        -0.19771E+00         0.00000E+00
    0.21651E+00        -0.19475E+00         0.00000E+00
    0.20817E+00        -0.19200E+00         0.00000E+00
    0.20025E+00        -0.18943E+00         0.00000E+00
    0.19281E+00        -0.18701E+00         0.00000E+00
    0.18587E+00        -0.18469E+00         0.00000E+00
    0.17947E+00        -0.18241E+00         0.00000E+00
    0.17359E+00        -0.18015E+00         0.00000E+00
    0.16823E+00        -0.17783E+00         0.00000E+00
    0.16337E+00        -0.17544E+00         0.00000E+00
    0.15898E+00        -0.17292E+00         0.00000E+00
    0.15502E+00        -0.17025E+00         0.00000E+00
    0.15147E+00        -0.16739E+00         0.00000E+00
    0.14826E+00        -0.16435E+00         0.00000E+00
    0.14537E+00        -0.16108E+00         0.00000E+00
    0.14275E+00        -0.15760E+00         0.00000E+00
    0.14034E+00        -0.15388E+00         0.00000E+00
    0.13812E+00        -0.14993E+00         0.00000E+00
    0.13602E+00        -0.14575E+00         0.00000E+00
    0.13402E+00        -0.14134E+00         0.00000E+00
    0.13208E+00        -0.13670E+00         0.00000E+00
    0.13014E+00        -0.13185E+00         0.00000E+00
    0.12818E+00        -0.12679E+00         0.00000E+00
    0.12615E+00        -0.12152E+00         0.00000E+00
    0.12402E+00        -0.11607E+00         0.00000E+00
    0.12176E+00        -0.11044E+00         0.00000E+00
    0.11933E+00        -0.10465E+00         0.00000E+00
    0.11669E+00        -0.98713E-01         0.00000E+00
    0.11382E+00        -0.92648E-01         0.00000E+00
    0.11068E+00        -0.86475E-01         0.00000E+00
    0.10723E+00        -0.80216E-01         0.00000E+00
    0.10346E+00        -0.73898E-01         0.00000E+00
    0.99325E-01        -0.67549E-01         0.00000E+00
    0.94804E-01        -0.61202E-01         0.00000E+00
    0.89872E-01        -0.54893E-01         0.00000E+00
    0.84510E-01        -0.48663E-01         0.00000E+00
    0.78702E-01        -0.42560E-01         0.00000E+00
    0.72440E-01        -0.36632E-01         0.00000E+00
    0.65724E-01        -0.30933E-01         0.00000E+00
    0.58563E-01        -0.25522E-01         0.00000E+00
    0.50981E-01        -0.20456E-01         0.00000E+00
    0.43015E-01        -0.15793E-01         0.00000E+00
    0.34719E-01        -0.11587E-01         0.00000E+00
    0.26167E-01        -0.78820E-02         0.00000E+00
    0.17452E-01        -0.47108E-02         0.00000E+00
    0.86862E-02        -0.20868E-02         0.00000E+00
    0.00000E+00         0.00000E+00         0.00000E+00
    0.26750E+00        -0.22099E+00         0.00000E+00
    0.25771E+00        -0.21742E+00         0.00000E+00
    0.24792E+00        -0.21396E+00         0.00000E+00
    0.23825E+00        -0.21067E+00         0.00000E+00
    0.22881E+00        -0.20761E+00         0.00000E+00
    0.21971E+00        -0.20477E+00         0.00000E+00
    0.21104E+00        -0.20214E+00         0.00000E+00
    0.20287E+00        -0.19970E+00         0.00000E+00
    0.19524E+00        -0.19738E+00         0.00000E+00
    0.18819E+00        -0.19515E+00         0.00000E+00
    0.18174E+00        -0.19295E+00         0.00000E+00
    0.17587E+00        -0.19072E+00         0.00000E+00
    0.17057E+00        -0.18842E+00         0.00000E+00
    0.16582E+00        -0.18601E+00         0.00000E+00
    0.16158E+00        -0.18344E+00         0.00000E+00
    0.15780E+00        -0.18069E+00         0.00000E+00
    0.15444E+00        -0.17773E+00         0.00000E+00
    0.15146E+00        -0.17455E+00         0.00000E+00
    0.14879E+00        -0.17113E+00         0.00000E+00
    0.14641E+00        -0.16746E+00         0.00000E+00
    0.14424E+00        -0.16355E+00         0.00000E+00
    0.14226E+00        -0.15939E+00         0.00000E+00
    0.14040E+00        -0.15499E+00         0.00000E+00
    0.13863E+00        -0.15034E+00         0.00000E+00
    0.13691E+00        -0.14546E+00         0.00000E+00
    0.13520E+00        -0.14035E+00         0.00000E+00
    0.13344E+00        -0.13502E+00         0.00000E+00
    0.13161E+00        -0.12949E+00         0.00000E+00
    0.12967E+00        -0.12375E+00         0.00000E+00
    0.12759E+00        -0.11784E+00         0.00000E+00
    0.12531E+00        -0.11176E+00         0.00000E+00
    0.12282E+00        -0.10552E+00         0.00000E+00
    0.12007E+00        -0.99149E-01         0.00000E+00
    0.11702E+00        -0.92659E-01         0.00000E+00
    0.11366E+00        -0.86074E-01         0.00000E+00
    0.10993E+00        -0.79419E-01         0.00000E+00
    0.10581E+00        -0.72722E-01         0.00000E+00
    0.10127E+00        -0.66014E-01         0.00000E+00
    0.96278E-01        -0.59332E-01         0.00000E+00
    0.90805E-01        -0.52718E-01         0.00000E+00
    0.84832E-01        -0.46218E-01         0.00000E+00
    0.78341E-01        -0.39883E-01         0.00000E+00
    0.71326E-01        -0.33772E-01         0.00000E+00
    0.63788E-01        -0.27944E-01         0.00000E+00
    0.55742E-01        -0.22464E-01         0.00000E+00
    0.47221E-01        -0.17396E-01         0.00000E+00
    0.38274E-01        -0.12801E-01         0.00000E+00
    0.28972E-01        -0.87336E-02         0.00000E+00
    0.19411E-01        -0.52338E-02         0.00000E+00
    0.97065E-02        -0.23237E-02         0.00000E+00
    0.00000E+00         0.00000E+00         0.00000E+00
    0.27317E+00        -0.23104E+00         0.00000E+00
    0.26280E+00        -0.22757E+00         0.00000E+00
    0.25244E+00        -0.22422E+00         0.00000E+00
    0.24224E+00        -0.22106E+00         0.00000E+00
    0.23232E+00        -0.21813E+00         0.00000E+00
    0.22281E+00        -0.21543E+00         0.00000E+00
    0.21380E+00        -0.21295E+00         0.00000E+00
    0.20537E+00        -0.21063E+00         0.00000E+00
    0.19757E+00        -0.20843E+00         0.00000E+00
    0.19043E+00        -0.20629E+00         0.00000E+00
    0.18395E+00        -0.20414E+00         0.00000E+00
    0.17812E+00        -0.20194E+00         0.00000E+00
    0.17292E+00        -0.19963E+00         0.00000E+00
    0.16831E+00        -0.19717E+00         0.00000E+00
    0.16424E+00        -0.19453E+00         0.00000E+00
    0.16067E+00        -0.19167E+00         0.00000E+00
    0.15754E+00        -0.18857E+00         0.00000E+00
    0.15479E+00        -0.18523E+00         0.00000E+00
    0.15238E+00        -0.18162E+00         0.00000E+00
    0.15025E+00        -0.17775E+00         0.00000E+00
    0.14834E+00        -0.17362E+00         0.00000E+00
    0.14661E+00        -0.16922E+00         0.00000E+00
    0.14500E+00        -0.16457E+00         0.00000E+00
    0.14348E+00        -0.15966E+00         0.00000E+00
    0.14199E+00        -0.15452E+00         0.00000E+00
    0.14050E+00        -0.14914E+00         0.00000E+00
    0.13896E+00        -0.14353E+00         0.00000E+00
    0.13734E+00        -0.13771E+00         0.00000E+00
    0.13559E+00        -0.13170E+00         0.00000E+00
    0.13368E+00        -0.12549E+00         0.00000E+00
    0.13157E+00        -0.11911E+00         0.00000E+00
    0.12922E+00        -0.11258E+00         0.00000E+00
    0.12660E+00        -0.10589E+00         0.00000E+00
    0.12367E+00        -0.99088E-01         0.00000E+00
    0.12039E+00        -0.92179E-01         0.00000E+00
    0.11672E+00        -0.85188E-01         0.00000E+00
    0.11263E+00        -0.78143E-01         0.00000E+00
    0.10809E+00        -0.71076E-01         0.00000E+00
    0.10304E+00        -0.64021E-01         0.00000E+00
    0.97471E-01        -0.57019E-01         0.00000E+00
    0.91343E-01        -0.50117E-01         0.00000E+00
    0.84631E-01        -0.43368E-01         0.00000E+00
    0.77320E-01        -0.36830E-01         0.00000E+00
    0.69401E-01        -0.30568E-01         0.00000E+00
    0.60880E-01        -0.24652E-01         0.00000E+00
    0.51779E-01        -0.19152E-01         0.00000E+00
    0.42143E-01        -0.14139E-01         0.00000E+00
    0.32039E-01        -0.96765E-02         0.00000E+00
    0.21561E-01        -0.58157E-02         0.00000E+00
    0.10832E-01        -0.25883E-02         0.00000E+00
    0.00000E+00         0.00000E+00         0.00000E+00
    0.27896E+00        -0.24169E+00         0.00000E+00
    0.26795E+00        -0.23835E+00         0.00000E+00
    0.25696E+00        -0.23513E+00         0.00000E+00
    0.24618E+00        -0.23212E+00         0.00000E+00
    0.23574E+00        -0.22935E+00         0.00000E+00
    0.22579E+00        -0.22681E+00         0.00000E+00
    0.21643E+00        -0.22448E+00         0.00000E+00
    0.20775E+00        -0.22230E+00         0.00000E+00
    0.19979E+00        -0.22021E+00         0.00000E+00
    0.19258E+00        -0.21815E+00         0.00000E+00
    0.18611E+00        -0.21604E+00         0.00000E+00
    0.18035E+00        -0.21385E+00         0.00000E+00
    0.17528E+00        -0.21150E+00         0.00000E+00
    0.17084E+00        -0.20896E+00         0.00000E+00
    0.16698E+00        -0.20620E+00         0.00000E+00
    0.16365E+00        -0.20320E+00         0.00000E+00
    0.16077E+00        -0.19993E+00         0.00000E+00
    0.15829E+00        -0.19638E+00         0.00000E+00
    0.15615E+00        -0.19256E+00         0.00000E+00
    0.15429E+00        -0.18845E+00         0.00000E+00
    0.15265E+00        -0.18406E+00         0.00000E+00
    0.15118E+00        -0.17940E+00         0.00000E+00
    0.14984E+00        -0.17447E+00         0.00000E+00
    0.14857E+00        -0.16928E+00         0.00000E+00
    0.14732E+00        -0.16385E+00         0.00000E+00
    0.14606E+00        -0.15818E+00         0.00000E+00
    0.14474E+00        -0.15229E+00         0.00000E+00
    0.14332E+00        -0.14618E+00         0.00000E+00
    0.14177E+00        -0.13987E+00         0.00000E+00
    0.14004E+00        -0.13337E+00         0.00000E+00
    0.13810E+00        -0.12669E+00         0.00000E+00
    0.13591E+00        -0.11985E+00         0.00000E+00
    0.13342E+00        -0.11286E+00         0.00000E+00
    0.13061E+00        -0.10574E+00         0.00000E+00
    0.12742E+00        -0.98513E-01         0.00000E+00
    0.12383E+00        -0.91192E-01         0.00000E+00
    0.11978E+00        -0.83806E-01         0.00000E+00
    0.11524E+00        -0.76383E-01         0.00000E+00
    0.11016E+00        -0.68958E-01         0.00000E+00
    0.10450E+00        -0.61570E-01         0.00000E+00
    0.98231E-01        -0.54265E-01         0.00000E+00
    0.91310E-01        -0.47095E-01         0.00000E+00
    0.83710E-01        -0.40121E-01         0.00000E+00
    0.75412E-01        -0.33409E-01         0.00000E+00
    0.66407E-01        -0.27035E-01         0.00000E+00
    0.56708E-01        -0.21077E-01         0.00000E+00
    0.46347E-01        -0.15614E-01         0.00000E+00
    0.35387E-01        -0.10722E-01         0.00000E+00
    0.23920E-01        -0.64638E-02         0.00000E+00
    0.12071E-01        -0.28845E-02         0.00000E+00
    0.00000E+00         0.00000E+00         0.00000E+00
    0.28488E+00        -0.25301E+00         0.00000E+00
    0.27315E+00        -0.24982E+00         0.00000E+00
    0.26147E+00        -0.24677E+00         0.00000E+00
    0.25004E+00        -0.24394E+00         0.00000E+00
    0.23904E+00        -0.24135E+00         0.00000E+00
    0.22863E+00        -0.23899E+00         0.00000E+00
    0.21892E+00        -0.23683E+00         0.00000E+00
    0.21000E+00        -0.23478E+00         0.00000E+00
    0.20191E+00        -0.23279E+00         0.00000E+00
    0.19465E+00        -0.23079E+00         0.00000E+00
    0.18822E+00        -0.22870E+00         0.00000E+00
    0.18257E+00        -0.22647E+00         0.00000E+00
    0.17767E+00        -0.22405E+00         0.00000E+00
    0.17345E+00        -0.22139E+00         0.00000E+00
    0.16983E+00        -0.21848E+00         0.00000E+00
    0.16676E+00        -0.21528E+00         0.00000E+00
    0.16417E+00        -0.21179E+00         0.00000E+00
    0.16198E+00        -0.20800E+00         0.00000E+00
    0.16012E+00        -0.20391E+00         0.00000E+00
    0.15855E+00        -0.19952E+00         0.00000E+00
    0.15720E+00        -0.19484E+00         0.00000E+00
    0.15600E+00        -0.18988E+00         0.00000E+00
    0.15492E+00        -0.18465E+00         0.00000E+00
    0.15390E+00        -0.17916E+00         0.00000E+00
    0.15290E+00        -0.17342E+00         0.00000E+00
    0.15187E+00        -0.16745E+00         0.00000E+00
    0.15077E+00        -0.16125E+00         0.00000E+00
    0.14956E+00        -0.15484E+00         0.00000E+00
    0.14821E+00        -0.14823E+00         0.00000E+00
    0.14666E+00        -0.14143E+00         0.00000E+00
    0.14489E+00        -0.13446E+00         0.00000E+00
    0.14285E+00        -0.12732E+00         0.00000E+00
    0.14051E+00        -0.12003E+00         0.00000E+00
    0.13782E+00        -0.11260E+00         0.00000E+00
    0.13474E+00        -0.10506E+00         0.00000E+00
    0.13122E+00        -0.97416E-01         0.00000E+00
    0.12723E+00        -0.89697E-01         0.00000E+00
    0.12270E+00        -0.81927E-01         0.00000E+00
    0.11760E+00        -0.74140E-01         0.00000E+00
    0.11188E+00        -0.66371E-01         0.00000E+00
    0.10548E+00        -0.58665E-01         0.00000E+00
    0.98369E-01        -0.51073E-01         0.00000E+00
    0.90494E-01        -0.43656E-01         0.00000E+00
    0.81823E-01        -0.36483E-01         0.00000E+00
    0.72333E-01        -0.29632E-01         0.00000E+00
    0.62020E-01        -0.23187E-01         0.00000E+00
    0.50903E-01        -0.17241E-01         0.00000E+00
    0.39034E-01        -0.11881E-01         0.00000E+00
    0.26501E-01        -0.71864E-02         0.00000E+00
    0.13435E-01        -0.32162E-02         0.00000E+00
    0.00000E+00         0.00000E+00         0.00000E+00
    0.29097E+00        -0.26509E+00         0.00000E+00
    0.27842E+00        -0.26209E+00         0.00000E+00
    0.26596E+00        -0.25924E+00         0.00000E+00
    0.25381E+00        -0.25662E+00         0.00000E+00
    0.24221E+00        -0.25424E+00         0.00000E+00
    0.23131E+00        -0.25207E+00         0.00000E+00
    0.22125E+00        -0.25007E+00         0.00000E+00
    0.21211E+00        -0.24816E+00         0.00000E+00
    0.20390E+00        -0.24625E+00         0.00000E+00
    0.19665E+00        -0.24428E+00         0.00000E+00
    0.19030E+00        -0.24216E+00         0.00000E+00
    0.18481E+00        -0.23986E+00         0.00000E+00
    0.18012E+00        -0.23730E+00         0.00000E+00
    0.17615E+00        -0.23448E+00         0.00000E+00
    0.17282E+00        -0.23135E+00         0.00000E+00
    0.17004E+00        -0.22790E+00         0.00000E+00
    0.16775E+00        -0.22414E+00         0.00000E+00
    0.16587E+00        -0.22005E+00         0.00000E+00
    0.16433E+00        -0.21565E+00         0.00000E+00
    0.16305E+00        -0.21094E+00         0.00000E+00
    0.16198E+00        -0.20593E+00         0.00000E+00
    0.16107E+00        -0.20064E+00         0.00000E+00
    0.16025E+00        -0.19508E+00         0.00000E+00
    0.15949E+00        -0.18926E+00         0.00000E+00
    0.15873E+00        -0.18319E+00         0.00000E+00
    0.15792E+00        -0.17690E+00         0.00000E+00
    0.15704E+00        -0.17039E+00         0.00000E+00
    0.15604E+00        -0.16367E+00         0.00000E+00
    0.15488E+00        -0.15675E+00         0.00000E+00
    0.15351E+00        -0.14965E+00         0.00000E+00
    0.15191E+00        -0.14238E+00         0.00000E+00
    0.15003E+00        -0.13495E+00         0.00000E+00
    0.14783E+00        -0.12736E+00         0.00000E+00
    0.14527E+00        -0.11964E+00         0.00000E+00
    0.14230E+00        -0.11179E+00         0.00000E+00
    0.13887E+00        -0.10384E+00         0.00000E+00
    0.13494E+00        -0.95797E-01         0.00000E+00
    0.13045E+00        -0.87694E-01         0.00000E+00
    0.12535E+00        -0.79556E-01         0.00000E+00
    0.11958E+00        -0.71417E-01         0.00000E+00
    0.11308E+00        -0.63319E-01         0.00000E+00
    0.10579E+00        -0.55309E-01         0.00000E+00
    0.97658E-01        -0.47448E-01         0.00000E+00
    0.88629E-01        -0.39804E-01         0.00000E+00
    0.78661E-01        -0.32459E-01         0.00000E+00
    0.67727E-01        -0.25502E-01         0.00000E+00
    0.55827E-01        -0.19038E-01         0.00000E+00
    0.42999E-01        -0.13168E-01         0.00000E+00
    0.29323E-01        -0.79924E-02         0.00000E+00
    0.14931E-01        -0.35878E-02         0.00000E+00
    0.00000E+00         0.00000E+00         0.00000E+00
    0.29724E+00        -0.27804E+00         0.00000E+00
    0.28376E+00        -0.27528E+00         0.00000E+00
    0.27040E+00        -0.27266E+00         0.00000E+00
    0.25747E+00        -0.27028E+00         0.00000E+00
    0.24521E+00        -0.26813E+00         0.00000E+00
    0.23381E+00        -0.26617E+00         0.00000E+00
    0.22340E+00        -0.26433E+00         0.00000E+00
    0.21406E+00        -0.26252E+00         0.00000E+00
    0.20579E+00        -0.26067E+00         0.00000E+00
    0.19858E+00        -0.25867E+00         0.00000E+00
    0.19237E+00        -0.25648E+00         0.00000E+00
    0.18709E+00        -0.25403E+00         0.00000E+00
    0.18265E+00        -0.25129E+00         0.00000E+00
    0.17897E+00        -0.24822E+00         0.00000E+00
    0.17596E+00        -0.24480E+00         0.00000E+00
    0.17351E+00        -0.24105E+00         0.00000E+00
    0.17155E+00        -0.23695E+00         0.00000E+00
    0.16999E+00        -0.23250E+00         0.00000E+00
    0.16877E+00        -0.22774E+00         0.00000E+00
    0.16780E+00        -0.22266E+00         0.00000E+00
    0.16702E+00        -0.21728E+00         0.00000E+00
    0.16638E+00        -0.21162E+00         0.00000E+00
    0.16583E+00        -0.20569E+00         0.00000E+00
    0.16531E+00        -0.19952E+00         0.00000E+00
    0.16479E+00        -0.19311E+00         0.00000E+00
    0.16421E+00        -0.18648E+00         0.00000E+00
    0.16353E+00        -0.17964E+00         0.00000E+00
    0.16273E+00        -0.17260E+00         0.00000E+00
    0.16175E+00        -0.16538E+00         0.00000E+00
    0.16056E+00        -0.15798E+00         0.00000E+00
    0.15913E+00        -0.15041E+00         0.00000E+00
    0.15740E+00        -0.14269E+00         0.00000E+00
    0.15535E+00        -0.13482E+00         0.00000E+00
    0.15292E+00        -0.12681E+00         0.00000E+00
    0.15006E+00        -0.11867E+00         0.00000E+00
    0.14673E+00        -0.11043E+00         0.00000E+00
    0.14288E+00        -0.10208E+00         0.00000E+00
    0.13844E+00        -0.93664E-01         0.00000E+00
    0.13335E+00        -0.85193E-01         0.00000E+00
    0.12755E+00        -0.76699E-01         0.00000E+00
    0.12097E+00        -0.68222E-01         0.00000E+00
    0.11354E+00        -0.59805E-01         0.00000E+00
    0.10517E+00        -0.51504E-01         0.00000E+00
    0.95812E-01        -0.43388E-01         0.00000E+00
    0.85383E-01        -0.35535E-01         0.00000E+00
    0.73833E-01        -0.28043E-01         0.00000E+00
    0.61135E-01        -0.21023E-01         0.00000E+00
    0.47301E-01        -0.14599E-01         0.00000E+00
    0.32401E-01        -0.88920E-02         0.00000E+00
    0.16571E-01        -0.40040E-02         0.00000E+00
    0.00000E+00         0.00000E+00         0.00000E+00
    0.30373E+00        -0.29201E+00         0.00000E+00
    0.28916E+00        -0.28952E+00         0.00000E+00
    0.27479E+00        -0.28718E+00         0.00000E+00
    0.26097E+00        -0.28507E+00         0.00000E+00
    0.24800E+00        -0.28317E+00         0.00000E+00
    0.23609E+00        -0.28141E+00         0.00000E+00
    0.22535E+00        -0.27972E+00         0.00000E+00
    0.21584E+00        -0.27799E+00         0.00000E+00
    0.20756E+00        -0.27612E+00         0.00000E+00
    0.20045E+00        -0.27405E+00         0.00000E+00
    0.19443E+00        -0.27170E+00         0.00000E+00
    0.18941E+00        -0.26903E+00         0.00000E+00
    0.18529E+00        -0.26600E+00         0.00000E+00
    0.18194E+00        -0.26260E+00         0.00000E+00
    0.17928E+00        -0.25883E+00         0.00000E+00
    0.17718E+00        -0.25468E+00         0.00000E+00
    0.17557E+00        -0.25017E+00         0.00000E+00
    0.17435E+00        -0.24531E+00         0.00000E+00
    0.17344E+00        -0.24012E+00         0.00000E+00
    0.17278E+00        -0.23462E+00         0.00000E+00
    0.17229E+00        -0.22882E+00         0.00000E+00
    0.17193E+00        -0.22276E+00         0.00000E+00
    0.17163E+00        -0.21644E+00         0.00000E+00
    0.17135E+00        -0.20988E+00         0.00000E+00
    0.17104E+00        -0.20310E+00         0.00000E+00
    0.17067E+00        -0.19612E+00         0.00000E+00
    0.17020E+00        -0.18895E+00         0.00000E+00
    0.16958E+00        -0.18159E+00         0.00000E+00
    0.16878E+00        -0.17405E+00         0.00000E+00
    0.16776E+00        -0.16636E+00         0.00000E+00
    0.16649E+00        -0.15851E+00         0.00000E+00
    0.16491E+00        -0.15050E+00         0.00000E+00
    0.16300E+00        -0.14236E+00         0.00000E+00
    0.16070E+00        -0.13408E+00         0.00000E+00
    0.15796E+00        -0.12567E+00         0.00000E+00
    0.15474E+00        -0.11715E+00         0.00000E+00
    0.15097E+00        -0.10853E+00         0.00000E+00
    0.14660E+00        -0.99811E-01         0.00000E+00
    0.14155E+00        -0.91028E-01         0.00000E+00
    0.13574E+00        -0.82201E-01         0.00000E+00
    0.12911E+00        -0.73364E-01         0.00000E+00
    0.12156E+00        -0.64556E-01         0.00000E+00
    0.11300E+00        -0.55828E-01         0.00000E+00
    0.10334E+00        -0.47243E-01         0.00000E+00
    0.92478E-01        -0.38879E-01         0.00000E+00
    0.80333E-01        -0.30833E-01         0.00000E+00
    0.66835E-01        -0.23224E-01         0.00000E+00
    0.51959E-01        -0.16194E-01         0.00000E+00
    0.35756E-01        -0.98976E-02         0.00000E+00
    0.18365E-01        -0.44701E-02         0.00000E+00
    0.00000E+00         0.00000E+00         0.00000E+00
    0.31048E+00        -0.30718E+00         0.00000E+00
    0.29462E+00        -0.30501E+00         0.00000E+00
    0.27907E+00        -0.30300E+00         0.00000E+00
    0.26427E+00        -0.30119E+00         0.00000E+00
    0.25054E+00        -0.29954E+00         0.00000E+00
    0.23810E+00        -0.29797E+00         0.00000E+00
    0.22706E+00        -0.29638E+00         0.00000E+00
    0.21744E+00        -0.29465E+00         0.00000E+00
    0.20920E+00        -0.29270E+00         0.00000E+00
    0.20226E+00        -0.29045E+00         0.00000E+00
    0.19650E+00        -0.28784E+00         0.00000E+00
    0.19180E+00        -0.28484E+00         0.00000E+00
    0.18804E+00        -0.28144E+00         0.00000E+00
    0.18507E+00        -0.27761E+00         0.00000E+00
    0.18278E+00        -0.27338E+00         0.00000E+00
    0.18106E+00        -0.26876E+00         0.00000E+00
    0.17981E+00        -0.26376E+00         0.00000E+00
    0.17893E+00        -0.25841E+00         0.00000E+00
    0.17835E+00        -0.25273E+00         0.00000E+00
    0.17798E+00        -0.24675E+00         0.00000E+00
    0.17777E+00        -0.24050E+00         0.00000E+00
    0.17766E+00        -0.23399E+00         0.00000E+00
    0.17760E+00        -0.22724E+00         0.00000E+00
    0.17755E+00        -0.22028E+00         0.00000E+00
    0.17745E+00        -0.21312E+00         0.00000E+00
    0.17727E+00        -0.20577E+00         0.00000E+00
    0.17698E+00        -0.19825E+00         0.00000E+00
    0.17653E+00        -0.19056E+00         0.00000E+00
    0.17589E+00        -0.18272E+00         0.00000E+00
    0.17503E+00        -0.17473E+00         0.00000E+00
    0.17390E+00        -0.16660E+00         0.00000E+00
    0.17247E+00        -0.15834E+00         0.00000E+00
    0.17070E+00        -0.14993E+00         0.00000E+00
    0.16853E+00        -0.14140E+00         0.00000E+00
    0.16592E+00        -0.13275E+00         0.00000E+00
    0.16281E+00        -0.12397E+00         0.00000E+00
    0.15914E+00        -0.11509E+00         0.00000E+00
    0.15484E+00        -0.10610E+00         0.00000E+00
    0.14984E+00        -0.97032E-01         0.00000E+00
    0.14406E+00        -0.87899E-01         0.00000E+00
    0.13741E+00        -0.78727E-01         0.00000E+00
    0.12977E+00        -0.69551E-01         0.00000E+00
    0.12106E+00        -0.60415E-01         0.00000E+00
    0.11114E+00        -0.51376E-01         0.00000E+00
    0.99899E-01        -0.42507E-01         0.00000E+00
    0.87203E-01        -0.33899E-01         0.00000E+00
    0.72932E-01        -0.25671E-01         0.00000E+00
    0.56999E-01        -0.17984E-01         0.00000E+00
    0.39412E-01        -0.11028E-01         0.00000E+00
    0.20324E-01        -0.49941E-02         0.00000E+00
    0.00000E+00         0.00000E+00         0.00000E+00
    0.31750E+00        -0.32380E+00         0.00000E+00
    0.30010E+00        -0.32200E+00         0.00000E+00
    0.28318E+00        -0.32035E+00         0.00000E+00
    0.26728E+00        -0.31885E+00         0.00000E+00
    0.25275E+00        -0.31744E+00         0.00000E+00
    0.23980E+00        -0.31602E+00         0.00000E+00
    0.22850E+00        -0.31445E+00         0.00000E+00
    0.21883E+00        -0.31264E+00         0.00000E+00
    0.21071E+00        -0.31049E+00         0.00000E+00
    0.20401E+00        -0.30793E+00         0.00000E+00
    0.19858E+00        -0.30493E+00         0.00000E+00
    0.19426E+00        -0.30148E+00         0.00000E+00
    0.19090E+00        -0.29756E+00         0.00000E+00
    0.18834E+00        -0.29319E+00         0.00000E+00
    0.18645E+00        -0.28840E+00         0.00000E+00
    0.18512E+00        -0.28320E+00         0.00000E+00
    0.18423E+00        -0.27763E+00         0.00000E+00
    0.18369E+00        -0.27171E+00         0.00000E+00
    0.18342E+00        -0.26548E+00         0.00000E+00
    0.18334E+00        -0.25897E+00         0.00000E+00
    0.18339E+00        -0.25221E+00         0.00000E+00
    0.18352E+00        -0.24522E+00         0.00000E+00
    0.18368E+00        -0.23801E+00         0.00000E+00
    0.18382E+00        -0.23062E+00         0.00000E+00
    0.18391E+00        -0.22306E+00         0.00000E+00
    0.18390E+00        -0.21534E+00         0.00000E+00
    0.18377E+00        -0.20747E+00         0.00000E+00
    0.18348E+00        -0.19946E+00         0.00000E+00
    0.18299E+00        -0.19131E+00         0.00000E+00
    0.18226E+00        -0.18304E+00         0.00000E+00
    0.18127E+00        -0.17464E+00         0.00000E+00
    0.17998E+00        -0.16612E+00         0.00000E+00
    0.17833E+00        -0.15748E+00         0.00000E+00
    0.17629E+00        -0.14872E+00         0.00000E+00
    0.17380E+00        -0.13984E+00         0.00000E+00
    0.17081E+00        -0.13083E+00         0.00000E+00
    0.16724E+00        -0.12172E+00         0.00000E+00
    0.16304E+00        -0.11249E+00         0.00000E+00
    0.15812E+00        -0.10317E+00         0.00000E+00
    0.15239E+00        -0.93759E-01         0.00000E+00
    0.14574E+00        -0.84282E-01         0.00000E+00
    0.13807E+00        -0.74766E-01         0.00000E+00
    0.12925E+00        -0.65249E-01         0.00000E+00
    0.11913E+00        -0.55780E-01         0.00000E+00
    0.10757E+00        -0.46423E-01         0.00000E+00
    0.94391E-01        -0.37264E-01         0.00000E+00
    0.79413E-01        -0.28412E-01         0.00000E+00
    0.62453E-01        -0.20023E-01         0.00000E+00
    0.43419E-01        -0.12330E-01         0.00000E+00
    0.22466E-01        -0.55953E-02         0.00000E+00
    0.00000E+00         0.00000E+00         0.00000E+00
    0.32480E+00        -0.34218E+00         0.00000E+00
    0.30552E+00        -0.34080E+00         0.00000E+00
    0.28702E+00        -0.33952E+00         0.00000E+00
    0.26990E+00        -0.33833E+00         0.00000E+00
    0.25453E+00        -0.33712E+00         0.00000E+00
    0.24108E+00        -0.33575E+00         0.00000E+00
    0.22959E+00        -0.33409E+00         0.00000E+00
    0.21996E+00        -0.33204E+00         0.00000E+00
    0.21205E+00        -0.32953E+00         0.00000E+00
    0.20568E+00        -0.32651E+00         0.00000E+00
    0.20064E+00        -0.32296E+00         0.00000E+00
    0.19676E+00        -0.31889E+00         0.00000E+00
    0.19383E+00        -0.31432E+00         0.00000E+00
    0.19171E+00        -0.30927E+00         0.00000E+00
    0.19024E+00        -0.30379E+00         0.00000E+00
    0.18930E+00        -0.29791E+00         0.00000E+00
    0.18877E+00        -0.29167E+00         0.00000E+00
    0.18855E+00        -0.28511E+00         0.00000E+00
    0.18857E+00        -0.27827E+00         0.00000E+00
    0.18876E+00        -0.27118E+00         0.00000E+00
    0.18904E+00        -0.26386E+00         0.00000E+00
    0.18939E+00        -0.25635E+00         0.00000E+00
    0.18973E+00        -0.24867E+00         0.00000E+00
    0.19005E+00        -0.24083E+00         0.00000E+00
    0.19029E+00        -0.23285E+00         0.00000E+00
    0.19043E+00        -0.22475E+00         0.00000E+00
    0.19044E+00        -0.21652E+00         0.00000E+00
    0.19027E+00        -0.20819E+00         0.00000E+00
    0.18991E+00        -0.19975E+00         0.00000E+00
    0.18931E+00        -0.19121E+00         0.00000E+00
    0.18844E+00        -0.18256E+00         0.00000E+00
    0.18726E+00        -0.17380E+00         0.00000E+00
    0.18574E+00        -0.16494E+00         0.00000E+00
    0.18382E+00        -0.15597E+00         0.00000E+00
    0.18145E+00        -0.14689E+00         0.00000E+00
    0.17858E+00        -0.13769E+00         0.00000E+00
    0.17513E+00        -0.12837E+00         0.00000E+00
    0.17104E+00        -0.11894E+00         0.00000E+00
    0.16622E+00        -0.10939E+00         0.00000E+00
    0.16056E+00        -0.99739E-01         0.00000E+00
    0.15396E+00        -0.89991E-01         0.00000E+00
    0.14630E+00        -0.80169E-01         0.00000E+00
    0.13742E+00        -0.70302E-01         0.00000E+00
    0.12717E+00        -0.60431E-01         0.00000E+00
    0.11536E+00        -0.50614E-01         0.00000E+00
    0.10180E+00        -0.40930E-01         0.00000E+00
    0.86226E-01        -0.31482E-01         0.00000E+00
    0.68355E-01        -0.22410E-01         0.00000E+00
    0.47869E-01        -0.13924E-01         0.00000E+00
    0.24824E-01        -0.63888E-02         0.00000E+00
    0.00000E+00         0.00000E+00         0.00000E+00
    0.33231E+00        -0.36276E+00         0.00000E+00
    0.31076E+00        -0.36180E+00         0.00000E+00
    0.29042E+00        -0.36089E+00         0.00000E+00
    0.27196E+00        -0.35995E+00         0.00000E+00
    0.25573E+00        -0.35882E+00         0.00000E+00
    0.24185E+00        -0.35736E+00         0.00000E+00
    0.23024E+00        -0.35542E+00         0.00000E+00
    0.22076E+00        -0.35294E+00         0.00000E+00
    0.21315E+00        -0.34985E+00         0.00000E+00
    0.20719E+00        -0.34615E+00         0.00000E+00
    0.20262E+00        -0.34186E+00         0.00000E+00
    0.19922E+00        -0.33699E+00         0.00000E+00
    0.19677E+00        -0.33160E+00         0.00000E+00
    0.19510E+00        -0.32573E+00         0.00000E+00
    0.19404E+00        -0.31944E+00         0.00000E+00
    0.19348E+00        -0.31277E+00         0.00000E+00
    0.19328E+00        -0.30577E+00         0.00000E+00
    0.19337E+00        -0.29849E+00         0.00000E+00
    0.19365E+00        -0.29097E+00         0.00000E+00
    0.19407E+00        -0.28324E+00         0.00000E+00
    0.19456E+00        -0.27534E+00         0.00000E+00
    0.19508E+00        -0.26728E+00         0.00000E+00
    0.19558E+00        -0.25909E+00         0.00000E+00
    0.19603E+00        -0.25079E+00         0.00000E+00
    0.19640E+00        -0.24239E+00         0.00000E+00
    0.19666E+00        -0.23390E+00         0.00000E+00
    0.19677E+00        -0.22533E+00         0.00000E+00
    0.19671E+00        -0.21668E+00         0.00000E+00
    0.19645E+00        -0.20796E+00         0.00000E+00
    0.19595E+00        -0.19915E+00         0.00000E+00
    0.19518E+00        -0.19027E+00         0.00000E+00
    0.19411E+00        -0.18130E+00         0.00000E+00
    0.19270E+00        -0.17225E+00         0.00000E+00
    0.19090E+00        -0.16309E+00         0.00000E+00
    0.18865E+00        -0.15384E+00         0.00000E+00
    0.18590E+00        -0.14447E+00         0.00000E+00
    0.18258E+00        -0.13499E+00         0.00000E+00
    0.17861E+00        -0.12538E+00         0.00000E+00
    0.17390E+00        -0.11565E+00         0.00000E+00
    0.16836E+00        -0.10579E+00         0.00000E+00
    0.16185E+00        -0.95807E-01         0.00000E+00
    0.15424E+00        -0.85714E-01         0.00000E+00
    0.14537E+00        -0.75529E-01         0.00000E+00
    0.13507E+00        -0.65287E-01         0.00000E+00
    0.12311E+00        -0.55039E-01         0.00000E+00
    0.10926E+00        -0.44860E-01         0.00000E+00
    0.93247E-01        -0.34856E-01         0.00000E+00
    0.74690E-01        -0.25182E-01         0.00000E+00
    0.52924E-01        -0.16111E-01         0.00000E+00
    0.27546E-01        -0.77400E-02         0.00000E+00
    0.00000E+00         0.00000E+00         0.00000E+00
    0.33989E+00        -0.38607E+00         0.00000E+00
    0.31558E+00        -0.38550E+00         0.00000E+00
    0.29312E+00        -0.38487E+00         0.00000E+00
    0.27322E+00        -0.38404E+00         0.00000E+00
    0.25615E+00        -0.38281E+00         0.00000E+00
    0.24191E+00        -0.38102E+00         0.00000E+00
    0.23032E+00        -0.37856E+00         0.00000E+00
    0.22109E+00        -0.37536E+00         0.00000E+00
    0.21390E+00        -0.37144E+00         0.00000E+00
    0.20843E+00        -0.36681E+00         0.00000E+00
    0.20439E+00        -0.36153E+00         0.00000E+00
    0.20150E+00        -0.35565E+00         0.00000E+00
    0.19954E+00        -0.34926E+00         0.00000E+00
    0.19832E+00        -0.34241E+00         0.00000E+00
    0.19766E+00        -0.33518E+00         0.00000E+00
    0.19745E+00        -0.32761E+00         0.00000E+00
    0.19756E+00        -0.31977E+00         0.00000E+00
    0.19791E+00        -0.31170E+00         0.00000E+00
    0.19842E+00        -0.30345E+00         0.00000E+00
    0.19902E+00        -0.29504E+00         0.00000E+00
    0.19967E+00        -0.28651E+00         0.00000E+00
    0.20033E+00        -0.27788E+00         0.00000E+00
    0.20095E+00        -0.26918E+00         0.00000E+00
    0.20151E+00        -0.26041E+00         0.00000E+00
    0.20197E+00        -0.25158E+00         0.00000E+00
    0.20231E+00        -0.24271E+00         0.00000E+00
    0.20250E+00        -0.23380E+00         0.00000E+00
    0.20251E+00        -0.22484E+00         0.00000E+00
    0.20232E+00        -0.21585E+00         0.00000E+00
    0.20190E+00        -0.20680E+00         0.00000E+00
    0.20122E+00        -0.19771E+00         0.00000E+00
    0.20024E+00        -0.18855E+00         0.00000E+00
    0.19893E+00        -0.17932E+00         0.00000E+00
    0.19723E+00        -0.17001E+00         0.00000E+00
    0.19510E+00        -0.16062E+00         0.00000E+00
    0.19248E+00        -0.15112E+00         0.00000E+00
    0.18929E+00        -0.14150E+00         0.00000E+00
    0.18546E+00        -0.13176E+00         0.00000E+00
    0.18090E+00        -0.12188E+00         0.00000E+00
    0.17549E+00        -0.11185E+00         0.00000E+00
    0.16912E+00        -0.10167E+00         0.00000E+00
    0.16163E+00        -0.91348E-01         0.00000E+00
    0.15284E+00        -0.80880E-01         0.00000E+00
    0.14257E+00        -0.70295E-01         0.00000E+00
    0.13057E+00        -0.59635E-01         0.00000E+00
    0.11658E+00        -0.48973E-01         0.00000E+00
    0.10030E+00        -0.38420E-01         0.00000E+00
    0.81315E-01        -0.28145E-01         0.00000E+00
    0.59057E-01        -0.18365E-01         0.00000E+00
    0.31192E-01        -0.88079E-02         0.00000E+00
    0.00000E+00         0.00000E+00         0.00000E+00
    0.34726E+00        -0.41278E+00         0.00000E+00
    0.31961E+00        -0.41246E+00         0.00000E+00
    0.29475E+00        -0.41194E+00         0.00000E+00
    0.27334E+00        -0.41098E+00         0.00000E+00
    0.25550E+00        -0.40934E+00         0.00000E+00
    0.24104E+00        -0.40688E+00         0.00000E+00
    0.22961E+00        -0.40352E+00         0.00000E+00
    0.22077E+00        -0.39927E+00         0.00000E+00
    0.21410E+00        -0.39417E+00         0.00000E+00
    0.20920E+00        -0.38832E+00         0.00000E+00
    0.20572E+00        -0.38179E+00         0.00000E+00
    0.20337E+00        -0.37469E+00         0.00000E+00
    0.20189E+00        -0.36711E+00         0.00000E+00
    0.20110E+00        -0.35912E+00         0.00000E+00
    0.20081E+00        -0.35082E+00         0.00000E+00
    0.20091E+00        -0.34225E+00         0.00000E+00
    0.20128E+00        -0.33349E+00         0.00000E+00
    0.20184E+00        -0.32457E+00         0.00000E+00
    0.20253E+00        -0.31553E+00         0.00000E+00
    0.20327E+00        -0.30641E+00         0.00000E+00
    0.20404E+00        -0.29724E+00         0.00000E+00
    0.20478E+00        -0.28803E+00         0.00000E+00
    0.20548E+00        -0.27880E+00         0.00000E+00
    0.20610E+00        -0.26956E+00         0.00000E+00
    0.20661E+00        -0.26032E+00         0.00000E+00
    0.20699E+00        -0.25107E+00         0.00000E+00
    0.20723E+00        -0.24183E+00         0.00000E+00
    0.20729E+00        -0.23259E+00         0.00000E+00
    0.20715E+00        -0.22334E+00         0.00000E+00
    0.20679E+00        -0.21407E+00         0.00000E+00
    0.20617E+00        -0.20479E+00         0.00000E+00
    0.20527E+00        -0.19546E+00         0.00000E+00
    0.20404E+00        -0.18609E+00         0.00000E+00
    0.20244E+00        -0.17666E+00         0.00000E+00
    0.20042E+00        -0.16716E+00         0.00000E+00
    0.19793E+00        -0.15755E+00         0.00000E+00
    0.19488E+00        -0.14784E+00         0.00000E+00
    0.19121E+00        -0.13800E+00         0.00000E+00
    0.18682E+00        -0.12801E+00         0.00000E+00
    0.18159E+00        -0.11786E+00         0.00000E+00
    0.17540E+00        -0.10753E+00         0.00000E+00
    0.16809E+00        -0.97012E-01         0.00000E+00
    0.15947E+00        -0.86297E-01         0.00000E+00
    0.14934E+00        -0.75398E-01         0.00000E+00
    0.13743E+00        -0.64342E-01         0.00000E+00
    0.12346E+00        -0.53191E-01         0.00000E+00
    0.10711E+00        -0.42050E-01         0.00000E+00
    0.88052E-01        -0.31074E-01         0.00000E+00
    0.65854E-01        -0.20418E-01         0.00000E+00
    0.35977E-01        -0.97033E-02         0.00000E+00
    0.00000E+00         0.00000E+00         0.00000E+00
    0.35389E+00        -0.44370E+00         0.00000E+00
    0.32226E+00        -0.44334E+00         0.00000E+00
    0.29477E+00        -0.44259E+00         0.00000E+00
    0.27186E+00        -0.44108E+00         0.00000E+00
    0.25339E+00        -0.43858E+00         0.00000E+00
    0.23889E+00        -0.43497E+00         0.00000E+00
    0.22779E+00        -0.43025E+00         0.00000E+00
    0.21949E+00        -0.42451E+00         0.00000E+00
    0.21344E+00        -0.41786E+00         0.00000E+00
    0.20916E+00        -0.41044E+00         0.00000E+00
    0.20627E+00        -0.40239E+00         0.00000E+00
    0.20445E+00        -0.39383E+00         0.00000E+00
    0.20343E+00        -0.38487E+00         0.00000E+00
    0.20302E+00        -0.37561E+00         0.00000E+00
    0.20305E+00        -0.36612E+00         0.00000E+00
    0.20340E+00        -0.35647E+00         0.00000E+00
    0.20398E+00        -0.34671E+00         0.00000E+00
    0.20469E+00        -0.33690E+00         0.00000E+00
    0.20549E+00        -0.32705E+00         0.00000E+00
    0.20632E+00        -0.31720E+00         0.00000E+00
    0.20715E+00        -0.30738E+00         0.00000E+00
    0.20794E+00        -0.29758E+00         0.00000E+00
    0.20866E+00        -0.28783E+00         0.00000E+00
    0.20930E+00        -0.27813E+00         0.00000E+00
    0.20982E+00        -0.26848E+00         0.00000E+00
    0.21022E+00        -0.25888E+00         0.00000E+00
    0.21047E+00        -0.24933E+00         0.00000E+00
    0.21055E+00        -0.23982E+00         0.00000E+00
    0.21043E+00        -0.23034E+00         0.00000E+00
    0.21011E+00        -0.22088E+00         0.00000E+00
    0.20953E+00        -0.21143E+00         0.00000E+00
    0.20869E+00        -0.20197E+00         0.00000E+00
    0.20754E+00        -0.19249E+00         0.00000E+00
    0.20603E+00        -0.18296E+00         0.00000E+00
    0.20412E+00        -0.17338E+00         0.00000E+00
    0.20176E+00        -0.16371E+00         0.00000E+00
    0.19887E+00        -0.15394E+00         0.00000E+00
    0.19537E+00        -0.14404E+00         0.00000E+00
    0.19117E+00        -0.13399E+00         0.00000E+00
    0.18617E+00        -0.12376E+00         0.00000E+00
    0.18022E+00        -0.11332E+00         0.00000E+00
    0.17316E+00        -0.10265E+00         0.00000E+00
    0.16481E+00        -0.91728E-01         0.00000E+00
    0.15493E+00        -0.80550E-01         0.00000E+00
    0.14327E+00        -0.69119E-01         0.00000E+00
    0.12950E+00        -0.57476E-01         0.00000E+00
    0.11332E+00        -0.45707E-01         0.00000E+00
    0.94421E-01        -0.33962E-01         0.00000E+00
    0.72543E-01        -0.22434E-01         0.00000E+00
    0.41560E-01        -0.10670E-01         0.00000E+00
    0.00000E+00         0.00000E+00         0.00000E+00
    0.35888E+00        -0.47975E+00         0.00000E+00
    0.32267E+00        -0.47883E+00         0.00000E+00
    0.29241E+00        -0.47727E+00         0.00000E+00
    0.26813E+00        -0.47459E+00         0.00000E+00
    0.24926E+00        -0.47057E+00         0.00000E+00
    0.23497E+00        -0.46518E+00         0.00000E+00
    0.22441E+00        -0.45853E+00         0.00000E+00
    0.21679E+00        -0.45079E+00         0.00000E+00
    0.21144E+00        -0.44216E+00         0.00000E+00
    0.20782E+00        -0.43283E+00         0.00000E+00
    0.20552E+00        -0.42298E+00         0.00000E+00
    0.20418E+00        -0.41274E+00         0.00000E+00
    0.20357E+00        -0.40224E+00         0.00000E+00
    0.20348E+00        -0.39157E+00         0.00000E+00
    0.20376E+00        -0.38081E+00         0.00000E+00
    0.20430E+00        -0.37001E+00         0.00000E+00
    0.20501E+00        -0.35922E+00         0.00000E+00
    0.20581E+00        -0.34849E+00         0.00000E+00
    0.20667E+00        -0.33782E+00         0.00000E+00
    0.20752E+00        -0.32724E+00         0.00000E+00
    0.20836E+00        -0.31677E+00         0.00000E+00
    0.20914E+00        -0.30640E+00         0.00000E+00
    0.20984E+00        -0.29615E+00         0.00000E+00
    0.21046E+00        -0.28601E+00         0.00000E+00
    0.21096E+00        -0.27598E+00         0.00000E+00
    0.21133E+00        -0.26605E+00         0.00000E+00
    0.21156E+00        -0.25621E+00         0.00000E+00
    0.21163E+00        -0.24646E+00         0.00000E+00
    0.21152E+00        -0.23677E+00         0.00000E+00
    0.21121E+00        -0.22715E+00         0.00000E+00
    0.21067E+00        -0.21756E+00         0.00000E+00
    0.20987E+00        -0.20799E+00         0.00000E+00
    0.20878E+00        -0.19843E+00         0.00000E+00
    0.20736E+00        -0.18885E+00         0.00000E+00
    0.20556E+00        -0.17922E+00         0.00000E+00
    0.20334E+00        -0.16952E+00         0.00000E+00
    0.20061E+00        -0.15973E+00         0.00000E+00
    0.19731E+00        -0.14981E+00         0.00000E+00
    0.19334E+00        -0.13973E+00         0.00000E+00
    0.18859E+00        -0.12946E+00         0.00000E+00
    0.18294E+00        -0.11896E+00         0.00000E+00
    0.17622E+00        -0.10819E+00         0.00000E+00
    0.16824E+00        -0.97123E-01         0.00000E+00
    0.15877E+00        -0.85714E-01         0.00000E+00
    0.14752E+00        -0.73951E-01         0.00000E+00
    0.13417E+00        -0.61843E-01         0.00000E+00
    0.11837E+00        -0.49450E-01         0.00000E+00
    0.99788E-01        -0.36926E-01         0.00000E+00
    0.78234E-01        -0.24533E-01         0.00000E+00
    0.47412E-01        -0.11732E-01         0.00000E+00
    0.00000E+00         0.00000E+00         0.00000E+00
    0.36086E+00        -0.52185E+00         0.00000E+00
    0.31958E+00        -0.51954E+00         0.00000E+00
    0.28662E+00        -0.51629E+00         0.00000E+00
    0.26129E+00        -0.51154E+00         0.00000E+00
    0.24239E+00        -0.50514E+00         0.00000E+00
    0.22863E+00        -0.49718E+00         0.00000E+00
    0.21882E+00        -0.48792E+00         0.00000E+00
    0.21201E+00        -0.47763E+00         0.00000E+00
    0.20742E+00        -0.46658E+00         0.00000E+00
    0.20447E+00        -0.45501E+00         0.00000E+00
    0.20271E+00        -0.44310E+00         0.00000E+00
    0.20181E+00        -0.43100E+00         0.00000E+00
    0.20152E+00        -0.41883E+00         0.00000E+00
    0.20167E+00        -0.40666E+00         0.00000E+00
    0.20212E+00        -0.39457E+00         0.00000E+00
    0.20277E+00        -0.38260E+00         0.00000E+00
    0.20353E+00        -0.37078E+00         0.00000E+00
    0.20436E+00        -0.35912E+00         0.00000E+00
    0.20520E+00        -0.34764E+00         0.00000E+00
    0.20603E+00        -0.33636E+00         0.00000E+00
    0.20682E+00        -0.32526E+00         0.00000E+00
    0.20754E+00        -0.31435E+00         0.00000E+00
    0.20819E+00        -0.30363E+00         0.00000E+00
    0.20874E+00        -0.29308E+00         0.00000E+00
    0.20919E+00        -0.28270E+00         0.00000E+00
    0.20952E+00        -0.27247E+00         0.00000E+00
    0.20971E+00        -0.26238E+00         0.00000E+00
    0.20974E+00        -0.25241E+00         0.00000E+00
    0.20962E+00        -0.24256E+00         0.00000E+00
    0.20930E+00        -0.23279E+00         0.00000E+00
    0.20878E+00        -0.22310E+00         0.00000E+00
    0.20801E+00        -0.21346E+00         0.00000E+00
    0.20699E+00        -0.20385E+00         0.00000E+00
    0.20565E+00        -0.19423E+00         0.00000E+00
    0.20397E+00        -0.18460E+00         0.00000E+00
    0.20188E+00        -0.17491E+00         0.00000E+00
    0.19934E+00        -0.16513E+00         0.00000E+00
    0.19625E+00        -0.15524E+00         0.00000E+00
    0.19254E+00        -0.14518E+00         0.00000E+00
    0.18811E+00        -0.13492E+00         0.00000E+00
    0.18282E+00        -0.12440E+00         0.00000E+00
    0.17652E+00        -0.11359E+00         0.00000E+00
    0.16902E+00        -0.10243E+00         0.00000E+00
    0.16010E+00        -0.90859E-01         0.00000E+00
    0.14946E+00        -0.78834E-01         0.00000E+00
    0.13675E+00        -0.66330E-01         0.00000E+00
    0.12157E+00        -0.53368E-01         0.00000E+00
    0.10348E+00        -0.40055E-01         0.00000E+00
    0.82207E-01        -0.26664E-01         0.00000E+00
    0.52655E-01        -0.12936E-01         0.00000E+00
    0.00000E+00         0.00000E+00         0.00000E+00
    0.35776E+00        -0.57078E+00         0.00000E+00
    0.31128E+00        -0.56583E+00         0.00000E+00
    0.27605E+00        -0.55963E+00         0.00000E+00
    0.25025E+00        -0.55161E+00         0.00000E+00
    0.23184E+00        -0.54174E+00         0.00000E+00
    0.21897E+00        -0.53033E+00         0.00000E+00
    0.21015E+00        -0.51773E+00         0.00000E+00
    0.20426E+00        -0.50434E+00         0.00000E+00
    0.20045E+00        -0.49047E+00         0.00000E+00
    0.19812E+00        -0.47636E+00         0.00000E+00
    0.19683E+00        -0.46220E+00         0.00000E+00
    0.19628E+00        -0.44811E+00         0.00000E+00
    0.19623E+00        -0.43420E+00         0.00000E+00
    0.19653E+00        -0.42051E+00         0.00000E+00
    0.19706E+00        -0.40709E+00         0.00000E+00
    0.19773E+00        -0.39396E+00         0.00000E+00
    0.19848E+00        -0.38112E+00         0.00000E+00
    0.19926E+00        -0.36858E+00         0.00000E+00
    0.20004E+00        -0.35634E+00         0.00000E+00
    0.20079E+00        -0.34439E+00         0.00000E+00
    0.20149E+00        -0.33272E+00         0.00000E+00
    0.20212E+00        -0.32131E+00         0.00000E+00
    0.20268E+00        -0.31016E+00         0.00000E+00
    0.20314E+00        -0.29924E+00         0.00000E+00
    0.20351E+00        -0.28855E+00         0.00000E+00
    0.20376E+00        -0.27805E+00         0.00000E+00
    0.20389E+00        -0.26775E+00         0.00000E+00
    0.20389E+00        -0.25761E+00         0.00000E+00
    0.20373E+00        -0.24762E+00         0.00000E+00
    0.20340E+00        -0.23775E+00         0.00000E+00
    0.20289E+00        -0.22799E+00         0.00000E+00
    0.20216E+00        -0.21830E+00         0.00000E+00
    0.20119E+00        -0.20867E+00         0.00000E+00
    0.19995E+00        -0.19907E+00         0.00000E+00
    0.19838E+00        -0.18946E+00         0.00000E+00
    0.19646E+00        -0.17981E+00         0.00000E+00
    0.19411E+00        -0.17009E+00         0.00000E+00
    0.19127E+00        -0.16025E+00         0.00000E+00
    0.18785E+00        -0.15025E+00         0.00000E+00
    0.18377E+00        -0.14005E+00         0.00000E+00
    0.17890E+00        -0.12958E+00         0.00000E+00
    0.17311E+00        -0.11878E+00         0.00000E+00
    0.16622E+00        -0.10759E+00         0.00000E+00
    0.15800E+00        -0.95941E-01         0.00000E+00
    0.14816E+00        -0.83749E-01         0.00000E+00
    0.13634E+00        -0.70960E-01         0.00000E+00
    0.12206E+00        -0.57544E-01         0.00000E+00
    0.10475E+00        -0.43538E-01         0.00000E+00
    0.83694E-01        -0.29114E-01         0.00000E+00
    0.56061E-01        -0.14457E-01         0.00000E+00
    0.00000E+00         0.00000E+00         0.00000E+00
    0.34672E+00        -0.62684E+00         0.00000E+00
    0.29558E+00        -0.61753E+00         0.00000E+00
    0.25904E+00        -0.60672E+00         0.00000E+00
    0.23368E+00        -0.59394E+00         0.00000E+00
    0.21642E+00        -0.57940E+00         0.00000E+00
    0.20485E+00        -0.56356E+00         0.00000E+00
    0.19722E+00        -0.54695E+00         0.00000E+00
    0.19232E+00        -0.52998E+00         0.00000E+00
    0.18927E+00        -0.51298E+00         0.00000E+00
    0.18749E+00        -0.49616E+00         0.00000E+00
    0.18658E+00        -0.47965E+00         0.00000E+00
    0.18627E+00        -0.46356E+00         0.00000E+00
    0.18636E+00        -0.44791E+00         0.00000E+00
    0.18672E+00        -0.43274E+00         0.00000E+00
    0.18725E+00        -0.41804E+00         0.00000E+00
    0.18787E+00        -0.40380E+00         0.00000E+00
    0.18855E+00        -0.39002E+00         0.00000E+00
    0.18923E+00        -0.37667E+00         0.00000E+00
    0.18990E+00        -0.36373E+00         0.00000E+00
    0.19053E+00        -0.35118E+00         0.00000E+00
    0.19111E+00        -0.33900E+00         0.00000E+00
    0.19163E+00        -0.32716E+00         0.00000E+00
    0.19207E+00        -0.31563E+00         0.00000E+00
    0.19244E+00        -0.30440E+00         0.00000E+00
    0.19271E+00        -0.29345E+00         0.00000E+00
    0.19288E+00        -0.28274E+00         0.00000E+00
    0.19295E+00        -0.27226E+00         0.00000E+00
    0.19289E+00        -0.26199E+00         0.00000E+00
    0.19270E+00        -0.25190E+00         0.00000E+00
    0.19236E+00        -0.24196E+00         0.00000E+00
    0.19186E+00        -0.23216E+00         0.00000E+00
    0.19117E+00        -0.22247E+00         0.00000E+00
    0.19027E+00        -0.21285E+00         0.00000E+00
    0.18912E+00        -0.20329E+00         0.00000E+00
    0.18769E+00        -0.19374E+00         0.00000E+00
    0.18594E+00        -0.18417E+00         0.00000E+00
    0.18381E+00        -0.17453E+00         0.00000E+00
    0.18125E+00        -0.16480E+00         0.00000E+00
    0.17817E+00        -0.15490E+00         0.00000E+00
    0.17449E+00        -0.14479E+00         0.00000E+00
    0.17011E+00        -0.13441E+00         0.00000E+00
    0.16491E+00        -0.12369E+00         0.00000E+00
    0.15873E+00        -0.11255E+00         0.00000E+00
    0.15136E+00        -0.10090E+00         0.00000E+00
    0.14253E+00        -0.88641E-01         0.00000E+00
    0.13185E+00        -0.75695E-01         0.00000E+00
    0.11881E+00        -0.61981E-01         0.00000E+00
    0.10268E+00        -0.47482E-01         0.00000E+00
    0.82298E-01        -0.32345E-01         0.00000E+00
    0.56295E-01        -0.16679E-01         0.00000E+00
    0.00000E+00         0.00000E+00         0.00000E+00
    0.32402E+00        -0.68942E+00         0.00000E+00
    0.26985E+00        -0.67351E+00         0.00000E+00
    0.23365E+00        -0.65613E+00         0.00000E+00
    0.21001E+00        -0.63697E+00         0.00000E+00
    0.19467E+00        -0.61650E+00         0.00000E+00
    0.18480E+00        -0.59540E+00         0.00000E+00
    0.17853E+00        -0.57424E+00         0.00000E+00
    0.17463E+00        -0.55342E+00         0.00000E+00
    0.17228E+00        -0.53316E+00         0.00000E+00
    0.17097E+00        -0.51360E+00         0.00000E+00
    0.17034E+00        -0.49480E+00         0.00000E+00
    0.17018E+00        -0.47677E+00         0.00000E+00
    0.17032E+00        -0.45950E+00         0.00000E+00
    0.17066E+00        -0.44296E+00         0.00000E+00
    0.17112E+00        -0.42709E+00         0.00000E+00
    0.17166E+00        -0.41188E+00         0.00000E+00
    0.17221E+00        -0.39726E+00         0.00000E+00
    0.17277E+00        -0.38321E+00         0.00000E+00
    0.17330E+00        -0.36967E+00         0.00000E+00
    0.17380E+00        -0.35662E+00         0.00000E+00
    0.17425E+00        -0.34401E+00         0.00000E+00
    0.17465E+00        -0.33180E+00         0.00000E+00
    0.17498E+00        -0.31998E+00         0.00000E+00
    0.17523E+00        -0.30850E+00         0.00000E+00
    0.17542E+00        -0.29734E+00         0.00000E+00
    0.17551E+00        -0.28647E+00         0.00000E+00
    0.17551E+00        -0.27587E+00         0.00000E+00
    0.17542E+00        -0.26550E+00         0.00000E+00
    0.17520E+00        -0.25535E+00         0.00000E+00
    0.17487E+00        -0.24538E+00         0.00000E+00
    0.17439E+00        -0.23558E+00         0.00000E+00
    0.17375E+00        -0.22590E+00         0.00000E+00
    0.17293E+00        -0.21634E+00         0.00000E+00
    0.17190E+00        -0.20684E+00         0.00000E+00
    0.17062E+00        -0.19738E+00         0.00000E+00
    0.16907E+00        -0.18792E+00         0.00000E+00
    0.16720E+00        -0.17842E+00         0.00000E+00
    0.16494E+00        -0.16882E+00         0.00000E+00
    0.16224E+00        -0.15907E+00         0.00000E+00
    0.15903E+00        -0.14911E+00         0.00000E+00
    0.15520E+00        -0.13886E+00         0.00000E+00
    0.15067E+00        -0.12826E+00         0.00000E+00
    0.14531E+00        -0.11722E+00         0.00000E+00
    0.13894E+00        -0.10564E+00         0.00000E+00
    0.13130E+00        -0.93408E-01         0.00000E+00
    0.12203E+00        -0.80424E-01         0.00000E+00
    0.11062E+00        -0.66560E-01         0.00000E+00
    0.96234E-01        -0.51689E-01         0.00000E+00
    0.77632E-01        -0.35718E-01         0.00000E+00
    0.53354E-01        -0.18696E-01         0.00000E+00
    0.00000E+00         0.00000E+00         0.00000E+00
    0.28537E+00        -0.75608E+00         0.00000E+00
    0.23107E+00        -0.73133E+00         0.00000E+00
    0.19781E+00        -0.70531E+00         0.00000E+00
    0.17750E+00        -0.67818E+00         0.00000E+00
    0.16487E+00        -0.65077E+00         0.00000E+00
    0.15704E+00        -0.62387E+00         0.00000E+00
    0.15221E+00        -0.59799E+00         0.00000E+00
    0.14927E+00        -0.57333E+00         0.00000E+00
    0.14756E+00        -0.54997E+00         0.00000E+00
    0.14663E+00        -0.52787E+00         0.00000E+00
    0.14620E+00        -0.50699E+00         0.00000E+00
    0.14611E+00        -0.48725E+00         0.00000E+00
    0.14625E+00        -0.46856E+00         0.00000E+00
    0.14654E+00        -0.45083E+00         0.00000E+00
    0.14691E+00        -0.43400E+00         0.00000E+00
    0.14734E+00        -0.41797E+00         0.00000E+00
    0.14777E+00        -0.40268E+00         0.00000E+00
    0.14820E+00        -0.38806E+00         0.00000E+00
    0.14861E+00        -0.37405E+00         0.00000E+00
    0.14898E+00        -0.36060E+00         0.00000E+00
    0.14932E+00        -0.34766E+00         0.00000E+00
    0.14960E+00        -0.33519E+00         0.00000E+00
    0.14983E+00        -0.32314E+00         0.00000E+00
    0.15001E+00        -0.31149E+00         0.00000E+00
    0.15012E+00        -0.30018E+00         0.00000E+00
    0.15016E+00        -0.28921E+00         0.00000E+00
    0.15012E+00        -0.27853E+00         0.00000E+00
    0.15000E+00        -0.26811E+00         0.00000E+00
    0.14979E+00        -0.25794E+00         0.00000E+00
    0.14948E+00        -0.24798E+00         0.00000E+00
    0.14905E+00        -0.23821E+00         0.00000E+00
    0.14848E+00        -0.22859E+00         0.00000E+00
    0.14777E+00        -0.21910E+00         0.00000E+00
    0.14689E+00        -0.20970E+00         0.00000E+00
    0.14580E+00        -0.20037E+00         0.00000E+00
    0.14448E+00        -0.19105E+00         0.00000E+00
    0.14290E+00        -0.18171E+00         0.00000E+00
    0.14100E+00        -0.17229E+00         0.00000E+00
    0.13873E+00        -0.16273E+00         0.00000E+00
    0.13603E+00        -0.15296E+00         0.00000E+00
    0.13282E+00        -0.14289E+00         0.00000E+00
    0.12903E+00        -0.13244E+00         0.00000E+00
    0.12459E+00        -0.12154E+00         0.00000E+00
    0.11938E+00        -0.11007E+00         0.00000E+00
    0.11313E+00        -0.97915E-01         0.00000E+00
    0.10553E+00        -0.84975E-01         0.00000E+00
    0.96151E-01        -0.71077E-01         0.00000E+00
    0.84255E-01        -0.55949E-01         0.00000E+00
    0.68462E-01        -0.39248E-01         0.00000E+00
    0.46758E-01        -0.20852E-01         0.00000E+00
    0.00000E+00         0.00000E+00         0.00000E+00
    0.22342E+00        -0.82376E+00         0.00000E+00
    0.17467E+00        -0.78808E+00         0.00000E+00
    0.14876E+00        -0.75091E+00         0.00000E+00
    0.13402E+00        -0.71406E+00         0.00000E+00
    0.12498E+00        -0.67917E+00         0.00000E+00
    0.11938E+00        -0.64666E+00         0.00000E+00
    0.11598E+00        -0.61644E+00         0.00000E+00
    0.11400E+00        -0.58840E+00         0.00000E+00
    0.11287E+00        -0.56240E+00         0.00000E+00
    0.11228E+00        -0.53823E+00         0.00000E+00
    0.11202E+00        -0.51567E+00         0.00000E+00
    0.11199E+00        -0.49455E+00         0.00000E+00
    0.11215E+00        -0.47474E+00         0.00000E+00
    0.11241E+00        -0.45612E+00         0.00000E+00
    0.11273E+00        -0.43855E+00         0.00000E+00
    0.11307E+00        -0.42193E+00         0.00000E+00
    0.11343E+00        -0.40615E+00         0.00000E+00
    0.11377E+00        -0.39113E+00         0.00000E+00
    0.11409E+00        -0.37680E+00         0.00000E+00
    0.11438E+00        -0.36308E+00         0.00000E+00
    0.11464E+00        -0.34993E+00         0.00000E+00
    0.11485E+00        -0.33729E+00         0.00000E+00
    0.11503E+00        -0.32511E+00         0.00000E+00
    0.11516E+00        -0.31335E+00         0.00000E+00
    0.11523E+00        -0.30197E+00         0.00000E+00
    0.11526E+00        -0.29095E+00         0.00000E+00
    0.11522E+00        -0.28024E+00         0.00000E+00
    0.11512E+00        -0.26983E+00         0.00000E+00
    0.11495E+00        -0.25967E+00         0.00000E+00
    0.11470E+00        -0.24975E+00         0.00000E+00
    0.11435E+00        -0.24004E+00         0.00000E+00
    0.11391E+00        -0.23050E+00         0.00000E+00
    0.11334E+00        -0.22112E+00         0.00000E+00
    0.11264E+00        -0.21185E+00         0.00000E+00
    0.11178E+00        -0.20266E+00         0.00000E+00
    0.11075E+00        -0.19352E+00         0.00000E+00
    0.10950E+00        -0.18437E+00         0.00000E+00
    0.10800E+00        -0.17517E+00         0.00000E+00
    0.10622E+00        -0.16585E+00         0.00000E+00
    0.10411E+00        -0.15633E+00         0.00000E+00
    0.10159E+00        -0.14651E+00         0.00000E+00
    0.98615E-01        -0.13627E+00         0.00000E+00
    0.95196E-01        -0.12544E+00         0.00000E+00
    0.91309E-01        -0.11407E+00         0.00000E+00
    0.86619E-01        -0.10205E+00         0.00000E+00
    0.80895E-01        -0.89178E-01         0.00000E+00
    0.73923E-01        -0.75280E-01         0.00000E+00
    0.65268E-01        -0.60052E-01         0.00000E+00
    0.53623E-01        -0.42923E-01         0.00000E+00
    0.36043E-01        -0.23235E-01         0.00000E+00
    0.00000E+00         0.00000E+00         0.00000E+00
    0.12959E+00        -0.88478E+00         0.00000E+00
    0.97783E-01        -0.83520E+00         0.00000E+00
    0.84115E-01        -0.78517E+00         0.00000E+00
    0.76433E-01        -0.73947E+00         0.00000E+00
    0.71816E-01        -0.69838E+00         0.00000E+00
    0.68994E-01        -0.66137E+00         0.00000E+00
    0.67298E-01        -0.62788E+00         0.00000E+00
    0.66313E-01        -0.59745E+00         0.00000E+00
    0.65810E-01        -0.56965E+00         0.00000E+00
    0.65600E-01        -0.54410E+00         0.00000E+00
    0.65573E-01        -0.52049E+00         0.00000E+00
    0.65632E-01        -0.49855E+00         0.00000E+00
    0.65725E-01        -0.47811E+00         0.00000E+00
    0.65845E-01        -0.45898E+00         0.00000E+00
    0.65982E-01        -0.44101E+00         0.00000E+00
    0.66123E-01        -0.42406E+00         0.00000E+00
    0.66261E-01        -0.40802E+00         0.00000E+00
    0.66389E-01        -0.39280E+00         0.00000E+00
    0.66504E-01        -0.37829E+00         0.00000E+00
    0.66602E-01        -0.36444E+00         0.00000E+00
    0.66682E-01        -0.35118E+00         0.00000E+00
    0.66742E-01        -0.33846E+00         0.00000E+00
    0.66782E-01        -0.32621E+00         0.00000E+00
    0.66798E-01        -0.31441E+00         0.00000E+00
    0.66791E-01        -0.30300E+00         0.00000E+00
    0.66756E-01        -0.29196E+00         0.00000E+00
    0.66692E-01        -0.28126E+00         0.00000E+00
    0.66596E-01        -0.27086E+00         0.00000E+00
    0.66464E-01        -0.26073E+00         0.00000E+00
    0.66292E-01        -0.25086E+00         0.00000E+00
    0.66074E-01        -0.24120E+00         0.00000E+00
    0.65804E-01        -0.23174E+00         0.00000E+00
    0.65475E-01        -0.22244E+00         0.00000E+00
    0.65076E-01        -0.21328E+00         0.00000E+00
    0.64596E-01        -0.20421E+00         0.00000E+00
    0.64023E-01        -0.19521E+00         0.00000E+00
    0.63345E-01        -0.18621E+00         0.00000E+00
    0.62552E-01        -0.17718E+00         0.00000E+00
    0.61613E-01        -0.16804E+00         0.00000E+00
    0.60504E-01        -0.15873E+00         0.00000E+00
    0.59199E-01        -0.14915E+00         0.00000E+00
    0.57669E-01        -0.13916E+00         0.00000E+00
    0.55771E-01        -0.12861E+00         0.00000E+00
    0.53351E-01        -0.11754E+00         0.00000E+00
    0.50411E-01        -0.10580E+00         0.00000E+00
    0.46794E-01        -0.93068E-01         0.00000E+00
    0.42447E-01        -0.78992E-01         0.00000E+00
    0.37676E-01        -0.63368E-01         0.00000E+00
    0.31492E-01        -0.46118E-01         0.00000E+00
    0.21157E-01        -0.26097E-01         0.00000E+00
    0.00000E+00         0.00000E+00         0.00000E+00
    0.00000E+00        -0.91845E+00         0.00000E+00
    0.00000E+00        -0.85509E+00         0.00000E+00
    0.00000E+00        -0.79846E+00         0.00000E+00
    0.00000E+00        -0.74904E+00         0.00000E+00
    0.00000E+00        -0.70549E+00         0.00000E+00
    0.00000E+00        -0.66676E+00         0.00000E+00
    0.00000E+00        -0.63204E+00         0.00000E+00
    0.00000E+00        -0.60068E+00         0.00000E+00
    0.00000E+00        -0.57217E+00         0.00000E+00
    0.00000E+00        -0.54609E+00         0.00000E+00
    0.00000E+00        -0.52210E+00         0.00000E+00
    0.00000E+00        -0.49989E+00         0.00000E+00
    0.00000E+00        -0.47924E+00         0.00000E+00
    0.00000E+00        -0.45994E+00         0.00000E+00
    0.00000E+00        -0.44183E+00         0.00000E+00
    0.00000E+00        -0.42477E+00         0.00000E+00
    0.00000E+00        -0.40865E+00         0.00000E+00
    0.00000E+00        -0.39335E+00         0.00000E+00
    0.00000E+00        -0.37879E+00         0.00000E+00
    0.00000E+00        -0.36490E+00         0.00000E+00
    0.00000E+00        -0.35160E+00         0.00000E+00
    0.00000E+00        -0.33885E+00         0.00000E+00
    0.00000E+00        -0.32658E+00         0.00000E+00
    0.00000E+00        -0.31476E+00         0.00000E+00
    0.00000E+00        -0.30335E+00         0.00000E+00
    0.00000E+00        -0.29230E+00         0.00000E+00
    0.00000E+00        -0.28160E+00         0.00000E+00
    0.00000E+00        -0.27120E+00         0.00000E+00
    0.00000E+00        -0.26109E+00         0.00000E+00
    0.00000E+00        -0.25123E+00         0.00000E+00
    0.00000E+00        -0.24159E+00         0.00000E+00
    0.00000E+00        -0.23215E+00         0.00000E+00
    0.00000E+00        -0.22289E+00         0.00000E+00
    0.00000E+00        -0.21376E+00         0.00000E+00
    0.00000E+00        -0.20474E+00         0.00000E+00
    0.00000E+00        -0.19578E+00         0.00000E+00
    0.00000E+00        -0.18684E+00         0.00000E+00
    0.00000E+00        -0.17786E+00         0.00000E+00
    0.00000E+00        -0.16880E+00         0.00000E+00
    0.00000E+00        -0.15956E+00         0.00000E+00
    0.00000E+00        -0.15007E+00         0.00000E+00
    0.00000E+00        -0.14024E+00         0.00000E+00
    0.00000E+00        -0.12999E+00         0.00000E+00
    0.00000E+00        -0.11916E+00         0.00000E+00
    0.00000E+00        -0.10758E+00         0.00000E+00
    0.00000E+00        -0.94940E-01         0.00000E+00
    0.00000E+00        -0.80690E-01         0.00000E+00
    0.00000E+00        -0.64702E-01         0.00000E+00
    0.00000E+00        -0.47443E-01         0.00000E+00
    0.00000E+00        -0.27329E-01         0.00000E+00
    0.00000E+00         0.00000E+00         0.00000E+00
CELL_DATA       5000
VECTORS vDarcy double 
    0.58021E-08         0.48339E-10         0.00000E+00
    0.56650E-08         0.88702E-10         0.00000E+00
    0.54829E-08         0.93471E-10         0.00000E+00
    0.53008E-08         0.88541E-10         0.00000E+00
    0.51311E-08         0.81161E-10         0.00000E+00
    0.49762E-08         0.73777E-10         0.00000E+00
    0.48353E-08         0.67170E-10         0.00000E+00
    0.47066E-08         0.61505E-10         0.00000E+00
    0.45883E-08         0.56729E-10         0.00000E+00
    0.44789E-08         0.52725E-10         0.00000E+00
    0.43768E-08         0.49364E-10         0.00000E+00
    0.42809E-08         0.46534E-10         0.00000E+00
    0.41902E-08         0.44139E-10         0.00000E+00
    0.41040E-08         0.42100E-10         0.00000E+00
    0.40215E-08         0.40354E-10         0.00000E+00
    0.39423E-08         0.38850E-10         0.00000E+00
    0.38659E-08         0.37546E-10         0.00000E+00
    0.37920E-08         0.36407E-10         0.00000E+00
    0.37202E-08         0.35405E-10         0.00000E+00
    0.36502E-08         0.34517E-10         0.00000E+00
    0.35820E-08         0.33724E-10         0.00000E+00
    0.35153E-08         0.33009E-10         0.00000E+00
    0.34499E-08         0.32362E-10         0.00000E+00
    0.33858E-08         0.31770E-10         0.00000E+00
    0.33228E-08         0.31228E-10         0.00000E+00
    0.32608E-08         0.30729E-10         0.00000E+00
    0.31998E-08         0.30269E-10         0.00000E+00
    0.31397E-08         0.29846E-10         0.00000E+00
    0.30804E-08         0.29459E-10         0.00000E+00
    0.30218E-08         0.29109E-10         0.00000E+00
    0.29639E-08         0.28799E-10         0.00000E+00
    0.29066E-08         0.28531E-10         0.00000E+00
    0.28498E-08         0.28310E-10         0.00000E+00
    0.27933E-08         0.28143E-10         0.00000E+00
    0.27371E-08         0.28035E-10         0.00000E+00
    0.26811E-08         0.27996E-10         0.00000E+00
    0.26251E-08         0.28033E-10         0.00000E+00
    0.25689E-08         0.28156E-10         0.00000E+00
    0.25123E-08         0.28372E-10         0.00000E+00
    0.24553E-08         0.28688E-10         0.00000E+00
    0.23975E-08         0.29104E-10         0.00000E+00
    0.23388E-08         0.29614E-10         0.00000E+00
    0.22790E-08         0.30194E-10         0.00000E+00
    0.22180E-08         0.30791E-10         0.00000E+00
    0.21559E-08         0.31303E-10         0.00000E+00
    0.20931E-08         0.31533E-10         0.00000E+00
    0.20304E-08         0.31113E-10         0.00000E+00
    0.19700E-08         0.29320E-10         0.00000E+00
    0.19160E-08         0.24635E-10         0.00000E+00
    0.18783E-08         0.13115E-10         0.00000E+00
    0.42348E-08         0.99123E-10         0.00000E+00
    0.42119E-08         0.19784E-09         0.00000E+00
    0.41576E-08         0.22089E-09         0.00000E+00
    0.40837E-08         0.21696E-09         0.00000E+00
    0.40021E-08         0.20409E-09         0.00000E+00
    0.39186E-08         0.18922E-09         0.00000E+00
    0.38363E-08         0.17501E-09         0.00000E+00
    0.37563E-08         0.16231E-09         0.00000E+00
    0.36792E-08         0.15130E-09         0.00000E+00
    0.36049E-08         0.14185E-09         0.00000E+00
    0.35335E-08         0.13378E-09         0.00000E+00
    0.34646E-08         0.12687E-09         0.00000E+00
    0.33982E-08         0.12095E-09         0.00000E+00
    0.33338E-08         0.11585E-09         0.00000E+00
    0.32715E-08         0.11143E-09         0.00000E+00
    0.32109E-08         0.10759E-09         0.00000E+00
    0.31518E-08         0.10424E-09         0.00000E+00
    0.30942E-08         0.10128E-09         0.00000E+00
    0.30379E-08         0.98659E-10         0.00000E+00
    0.29828E-08         0.96320E-10         0.00000E+00
    0.29287E-08         0.94216E-10         0.00000E+00
    0.28757E-08         0.92309E-10         0.00000E+00
    0.28235E-08         0.90569E-10         0.00000E+00
    0.27722E-08         0.88970E-10         0.00000E+00
    0.27218E-08         0.87494E-10         0.00000E+00
    0.26721E-08         0.86126E-10         0.00000E+00
    0.26231E-08         0.84858E-10         0.00000E+00
    0.25748E-08         0.83683E-10         0.00000E+00
    0.25271E-08         0.82600E-10         0.00000E+00
    0.24800E-08         0.81612E-10         0.00000E+00
    0.24335E-08         0.80724E-10         0.00000E+00
    0.23875E-08         0.79945E-10         0.00000E+00
    0.23419E-08         0.79287E-10         0.00000E+00
    0.22968E-08         0.78766E-10         0.00000E+00
    0.22520E-08         0.78398E-10         0.00000E+00
    0.22074E-08         0.78203E-10         0.00000E+00
    0.21631E-08         0.78200E-10         0.00000E+00
    0.21189E-08         0.78410E-10         0.00000E+00
    0.20747E-08         0.78845E-10         0.00000E+00
    0.20304E-08         0.79514E-10         0.00000E+00
    0.19861E-08         0.80405E-10         0.00000E+00
    0.19416E-08         0.81480E-10         0.00000E+00
    0.18971E-08         0.82648E-10         0.00000E+00
    0.18527E-08         0.83730E-10         0.00000E+00
    0.18088E-08         0.84394E-10         0.00000E+00
    0.17660E-08         0.84043E-10         0.00000E+00
    0.17257E-08         0.81591E-10         0.00000E+00
    0.16899E-08         0.75028E-10         0.00000E+00
    0.16624E-08         0.60420E-10         0.00000E+00
    0.16482E-08         0.29238E-10         0.00000E+00
    0.29645E-08         0.90716E-10         0.00000E+00
    0.29897E-08         0.20396E-09         0.00000E+00
    0.30100E-08         0.24888E-09         0.00000E+00
    0.30130E-08         0.25979E-09         0.00000E+00
    0.30003E-08         0.25559E-09         0.00000E+00
    0.29761E-08         0.24537E-09         0.00000E+00
    0.29439E-08         0.23333E-09         0.00000E+00
    0.29065E-08         0.22135E-09         0.00000E+00
    0.28658E-08         0.21018E-09         0.00000E+00
    0.28229E-08         0.20008E-09         0.00000E+00
    0.27788E-08         0.19107E-09         0.00000E+00
    0.27342E-08         0.18310E-09         0.00000E+00
    0.26893E-08         0.17605E-09         0.00000E+00
    0.26445E-08         0.16983E-09         0.00000E+00
    0.26000E-08         0.16432E-09         0.00000E+00
    0.25559E-08         0.15944E-09         0.00000E+00
    0.25123E-08         0.15509E-09         0.00000E+00
    0.24691E-08         0.15119E-09         0.00000E+00
    0.24265E-08         0.14769E-09         0.00000E+00
    0.23844E-08         0.14452E-09         0.00000E+00
    0.23428E-08         0.14163E-09         0.00000E+00
    0.23018E-08         0.13898E-09         0.00000E+00
    0.22613E-08         0.13653E-09         0.00000E+00
    0.22213E-08         0.13425E-09         0.00000E+00
    0.21819E-08         0.13213E-09         0.00000E+00
    0.21429E-08         0.13013E-09         0.00000E+00
    0.21045E-08         0.12826E-09         0.00000E+00
    0.20666E-08         0.12651E-09         0.00000E+00
    0.20292E-08         0.12487E-09         0.00000E+00
    0.19922E-08         0.12335E-09         0.00000E+00
    0.19558E-08         0.12196E-09         0.00000E+00
    0.19198E-08         0.12070E-09         0.00000E+00
    0.18843E-08         0.11961E-09         0.00000E+00
    0.18492E-08         0.11869E-09         0.00000E+00
    0.18145E-08         0.11796E-09         0.00000E+00
    0.17802E-08         0.11745E-09         0.00000E+00
    0.17464E-08         0.11717E-09         0.00000E+00
    0.17129E-08         0.11715E-09         0.00000E+00
    0.16798E-08         0.11738E-09         0.00000E+00
    0.16472E-08         0.11786E-09         0.00000E+00
    0.16151E-08         0.11854E-09         0.00000E+00
    0.15835E-08         0.11931E-09         0.00000E+00
    0.15529E-08         0.12001E-09         0.00000E+00
    0.15233E-08         0.12030E-09         0.00000E+00
    0.14955E-08         0.11961E-09         0.00000E+00
    0.14701E-08         0.11700E-09         0.00000E+00
    0.14482E-08         0.11085E-09         0.00000E+00
    0.14313E-08         0.98403E-10         0.00000E+00
    0.14210E-08         0.74923E-10         0.00000E+00
    0.14173E-08         0.32611E-10         0.00000E+00
    0.19816E-08         0.64796E-10         0.00000E+00
    0.20250E-08         0.16128E-09         0.00000E+00
    0.20801E-08         0.21616E-09         0.00000E+00
    0.21267E-08         0.24292E-09         0.00000E+00
    0.21587E-08         0.25317E-09         0.00000E+00
    0.21763E-08         0.25442E-09         0.00000E+00
    0.21818E-08         0.25099E-09         0.00000E+00
    0.21775E-08         0.24530E-09         0.00000E+00
    0.21659E-08         0.23863E-09         0.00000E+00
    0.21487E-08         0.23170E-09         0.00000E+00
    0.21273E-08         0.22488E-09         0.00000E+00
    0.21029E-08         0.21837E-09         0.00000E+00
    0.20763E-08         0.21227E-09         0.00000E+00
    0.20481E-08         0.20660E-09         0.00000E+00
    0.20188E-08         0.20137E-09         0.00000E+00
    0.19887E-08         0.19657E-09         0.00000E+00
    0.19581E-08         0.19216E-09         0.00000E+00
    0.19273E-08         0.18811E-09         0.00000E+00
    0.18963E-08         0.18438E-09         0.00000E+00
    0.18653E-08         0.18093E-09         0.00000E+00
    0.18344E-08         0.17771E-09         0.00000E+00
    0.18036E-08         0.17471E-09         0.00000E+00
    0.17730E-08         0.17188E-09         0.00000E+00
    0.17427E-08         0.16921E-09         0.00000E+00
    0.17126E-08         0.16668E-09         0.00000E+00
    0.16829E-08         0.16426E-09         0.00000E+00
    0.16535E-08         0.16196E-09         0.00000E+00
    0.16244E-08         0.15977E-09         0.00000E+00
    0.15958E-08         0.15768E-09         0.00000E+00
    0.15675E-08         0.15572E-09         0.00000E+00
    0.15397E-08         0.15387E-09         0.00000E+00
    0.15123E-08         0.15216E-09         0.00000E+00
    0.14854E-08         0.15061E-09         0.00000E+00
    0.14589E-08         0.14922E-09         0.00000E+00
    0.14330E-08         0.14802E-09         0.00000E+00
    0.14076E-08         0.14703E-09         0.00000E+00
    0.13828E-08         0.14626E-09         0.00000E+00
    0.13586E-08         0.14570E-09         0.00000E+00
    0.13352E-08         0.14534E-09         0.00000E+00
    0.13126E-08         0.14514E-09         0.00000E+00
    0.12910E-08         0.14500E-09         0.00000E+00
    0.12706E-08         0.14476E-09         0.00000E+00
    0.12517E-08         0.14415E-09         0.00000E+00
    0.12347E-08         0.14270E-09         0.00000E+00
    0.12200E-08         0.13969E-09         0.00000E+00
    0.12084E-08         0.13397E-09         0.00000E+00
    0.12004E-08         0.12373E-09         0.00000E+00
    0.11966E-08         0.10622E-09         0.00000E+00
    0.11967E-08         0.77354E-10         0.00000E+00
    0.11988E-08         0.31840E-10         0.00000E+00
    0.12596E-08         0.35259E-10         0.00000E+00
    0.13048E-08         0.10222E-09         0.00000E+00
    0.13693E-08         0.15557E-09         0.00000E+00
    0.14333E-08         0.19287E-09         0.00000E+00
    0.14876E-08         0.21693E-09         0.00000E+00
    0.15292E-08         0.23141E-09         0.00000E+00
    0.15585E-08         0.23933E-09         0.00000E+00
    0.15768E-08         0.24287E-09         0.00000E+00
    0.15860E-08         0.24349E-09         0.00000E+00
    0.15878E-08         0.24223E-09         0.00000E+00
    0.15838E-08         0.23975E-09         0.00000E+00
    0.15752E-08         0.23654E-09         0.00000E+00
    0.15630E-08         0.23291E-09         0.00000E+00
    0.15480E-08         0.22910E-09         0.00000E+00
    0.15310E-08         0.22524E-09         0.00000E+00
    0.15123E-08         0.22143E-09         0.00000E+00
    0.14925E-08         0.21773E-09         0.00000E+00
    0.14717E-08         0.21416E-09         0.00000E+00
    0.14503E-08         0.21073E-09         0.00000E+00
    0.14285E-08         0.20744E-09         0.00000E+00
    0.14063E-08         0.20429E-09         0.00000E+00
    0.13840E-08         0.20126E-09         0.00000E+00
    0.13615E-08         0.19833E-09         0.00000E+00
    0.13392E-08         0.19550E-09         0.00000E+00
    0.13169E-08         0.19276E-09         0.00000E+00
    0.12947E-08         0.19009E-09         0.00000E+00
    0.12728E-08         0.18749E-09         0.00000E+00
    0.12511E-08         0.18497E-09         0.00000E+00
    0.12297E-08         0.18253E-09         0.00000E+00
    0.12086E-08         0.18017E-09         0.00000E+00
    0.11879E-08         0.17791E-09         0.00000E+00
    0.11677E-08         0.17575E-09         0.00000E+00
    0.11480E-08         0.17371E-09         0.00000E+00
    0.11287E-08         0.17180E-09         0.00000E+00
    0.11101E-08         0.17003E-09         0.00000E+00
    0.10921E-08         0.16841E-09         0.00000E+00
    0.10748E-08         0.16694E-09         0.00000E+00
    0.10584E-08         0.16559E-09         0.00000E+00
    0.10430E-08         0.16432E-09         0.00000E+00
    0.10287E-08         0.16306E-09         0.00000E+00
    0.10158E-08         0.16165E-09         0.00000E+00
    0.10044E-08         0.15987E-09         0.00000E+00
    0.99497E-09         0.15738E-09         0.00000E+00
    0.98779E-09         0.15365E-09         0.00000E+00
    0.98325E-09         0.14789E-09         0.00000E+00
    0.98172E-09         0.13893E-09         0.00000E+00
    0.98335E-09         0.12511E-09         0.00000E+00
    0.98787E-09         0.10415E-09         0.00000E+00
    0.99408E-09         0.73131E-10         0.00000E+00
    0.99926E-09         0.28823E-10         0.00000E+00
    0.75740E-09         0.91680E-11         0.00000E+00
    0.79576E-09         0.44783E-10         0.00000E+00
    0.85476E-09         0.89508E-10         0.00000E+00
    0.91872E-09         0.13095E-09         0.00000E+00
    0.97839E-09         0.16489E-09         0.00000E+00
    0.10293E-08         0.19087E-09         0.00000E+00
    0.10701E-08         0.20987E-09         0.00000E+00
    0.11009E-08         0.22318E-09         0.00000E+00
    0.11228E-08         0.23206E-09         0.00000E+00
    0.11371E-08         0.23757E-09         0.00000E+00
    0.11450E-08         0.24056E-09         0.00000E+00
    0.11476E-08         0.24170E-09         0.00000E+00
    0.11461E-08         0.24152E-09         0.00000E+00
    0.11411E-08         0.24041E-09         0.00000E+00
    0.11334E-08         0.23866E-09         0.00000E+00
    0.11236E-08         0.23649E-09         0.00000E+00
    0.11120E-08         0.23404E-09         0.00000E+00
    0.10992E-08         0.23143E-09         0.00000E+00
    0.10854E-08         0.22871E-09         0.00000E+00
    0.10708E-08         0.22594E-09         0.00000E+00
    0.10556E-08         0.22314E-09         0.00000E+00
    0.10400E-08         0.22034E-09         0.00000E+00
    0.10241E-08         0.21753E-09         0.00000E+00
    0.10081E-08         0.21472E-09         0.00000E+00
    0.99201E-09         0.21192E-09         0.00000E+00
    0.97595E-09         0.20913E-09         0.00000E+00
    0.96000E-09         0.20635E-09         0.00000E+00
    0.94422E-09         0.20359E-09         0.00000E+00
    0.92867E-09         0.20085E-09         0.00000E+00
    0.91342E-09         0.19815E-09         0.00000E+00
    0.89854E-09         0.19548E-09         0.00000E+00
    0.88407E-09         0.19287E-09         0.00000E+00
    0.87010E-09         0.19032E-09         0.00000E+00
    0.85669E-09         0.18783E-09         0.00000E+00
    0.84393E-09         0.18541E-09         0.00000E+00
    0.83191E-09         0.18305E-09         0.00000E+00
    0.82074E-09         0.18072E-09         0.00000E+00
    0.81055E-09         0.17840E-09         0.00000E+00
    0.80151E-09         0.17599E-09         0.00000E+00
    0.79380E-09         0.17339E-09         0.00000E+00
    0.78763E-09         0.17042E-09         0.00000E+00
    0.78325E-09         0.16682E-09         0.00000E+00
    0.78094E-09         0.16219E-09         0.00000E+00
    0.78097E-09         0.15600E-09         0.00000E+00
    0.78355E-09         0.14749E-09         0.00000E+00
    0.78878E-09         0.13564E-09         0.00000E+00
    0.79643E-09         0.11911E-09         0.00000E+00
    0.80575E-09         0.96296E-10         0.00000E+00
    0.81513E-09         0.65398E-10         0.00000E+00
    0.82173E-09         0.24778E-10         0.00000E+00
    0.42813E-09        -0.10538E-10         0.00000E+00
    0.45632E-09        -0.20532E-11         0.00000E+00
    0.50267E-09         0.31000E-10         0.00000E+00
    0.55672E-09         0.71440E-10         0.00000E+00
    0.61088E-09         0.11057E-09         0.00000E+00
    0.66050E-09         0.14464E-09         0.00000E+00
    0.70328E-09         0.17256E-09         0.00000E+00
    0.73844E-09         0.19448E-09         0.00000E+00
    0.76615E-09         0.21112E-09         0.00000E+00
    0.78704E-09         0.22334E-09         0.00000E+00
    0.80193E-09         0.23200E-09         0.00000E+00
    0.81170E-09         0.23783E-09         0.00000E+00
    0.81717E-09         0.24150E-09         0.00000E+00
    0.81908E-09         0.24351E-09         0.00000E+00
    0.81805E-09         0.24428E-09         0.00000E+00
    0.81464E-09         0.24412E-09         0.00000E+00
    0.80930E-09         0.24327E-09         0.00000E+00
    0.80241E-09         0.24192E-09         0.00000E+00
    0.79429E-09         0.24018E-09         0.00000E+00
    0.78520E-09         0.23817E-09         0.00000E+00
    0.77536E-09         0.23594E-09         0.00000E+00
    0.76496E-09         0.23354E-09         0.00000E+00
    0.75414E-09         0.23100E-09         0.00000E+00
    0.74306E-09         0.22836E-09         0.00000E+00
    0.73181E-09         0.22562E-09         0.00000E+00
    0.72050E-09         0.22280E-09         0.00000E+00
    0.70922E-09         0.21992E-09         0.00000E+00
    0.69806E-09         0.21697E-09         0.00000E+00
    0.68709E-09         0.21399E-09         0.00000E+00
    0.67638E-09         0.21097E-09         0.00000E+00
    0.66602E-09         0.20792E-09         0.00000E+00
    0.65608E-09         0.20484E-09         0.00000E+00
    0.64663E-09         0.20176E-09         0.00000E+00
    0.63778E-09         0.19865E-09         0.00000E+00
    0.62961E-09         0.19552E-09         0.00000E+00
    0.62223E-09         0.19233E-09         0.00000E+00
    0.61578E-09         0.18906E-09         0.00000E+00
    0.61038E-09         0.18564E-09         0.00000E+00
    0.60621E-09         0.18196E-09         0.00000E+00
    0.60345E-09         0.17790E-09         0.00000E+00
    0.60230E-09         0.17324E-09         0.00000E+00
    0.60297E-09         0.16771E-09         0.00000E+00
    0.60566E-09         0.16092E-09         0.00000E+00
    0.61054E-09         0.15237E-09         0.00000E+00
    0.61767E-09         0.14141E-09         0.00000E+00
    0.62691E-09         0.12725E-09         0.00000E+00
    0.63781E-09         0.10895E-09         0.00000E+00
    0.64939E-09         0.85555E-10         0.00000E+00
    0.65994E-09         0.56209E-10         0.00000E+00
    0.66685E-09         0.20461E-10         0.00000E+00
    0.22681E-09        -0.23374E-10         0.00000E+00
    0.24463E-09        -0.35218E-10         0.00000E+00
    0.27635E-09        -0.13908E-10         0.00000E+00
    0.31635E-09         0.22296E-10         0.00000E+00
    0.35935E-09         0.62556E-10         0.00000E+00
    0.40137E-09         0.10102E-09         0.00000E+00
    0.43984E-09         0.13493E-09         0.00000E+00
    0.47343E-09         0.16336E-09         0.00000E+00
    0.50163E-09         0.18634E-09         0.00000E+00
    0.52448E-09         0.20439E-09         0.00000E+00
    0.54233E-09         0.21820E-09         0.00000E+00
    0.55571E-09         0.22848E-09         0.00000E+00
    0.56517E-09         0.23592E-09         0.00000E+00
    0.57127E-09         0.24109E-09         0.00000E+00
    0.57453E-09         0.24447E-09         0.00000E+00
    0.57541E-09         0.24646E-09         0.00000E+00
    0.57432E-09         0.24736E-09         0.00000E+00
    0.57161E-09         0.24742E-09         0.00000E+00
    0.56759E-09         0.24682E-09         0.00000E+00
    0.56251E-09         0.24570E-09         0.00000E+00
    0.55659E-09         0.24416E-09         0.00000E+00
    0.55002E-09         0.24228E-09         0.00000E+00
    0.54297E-09         0.24012E-09         0.00000E+00
    0.53557E-09         0.23772E-09         0.00000E+00
    0.52795E-09         0.23512E-09         0.00000E+00
    0.52021E-09         0.23234E-09         0.00000E+00
    0.51246E-09         0.22940E-09         0.00000E+00
    0.50479E-09         0.22632E-09         0.00000E+00
    0.49728E-09         0.22312E-09         0.00000E+00
    0.49002E-09         0.21980E-09         0.00000E+00
    0.48309E-09         0.21637E-09         0.00000E+00
    0.47657E-09         0.21285E-09         0.00000E+00
    0.47056E-09         0.20921E-09         0.00000E+00
    0.46514E-09         0.20546E-09         0.00000E+00
    0.46043E-09         0.20158E-09         0.00000E+00
    0.45653E-09         0.19754E-09         0.00000E+00
    0.45358E-09         0.19327E-09         0.00000E+00
    0.45170E-09         0.18870E-09         0.00000E+00
    0.45106E-09         0.18371E-09         0.00000E+00
    0.45182E-09         0.17815E-09         0.00000E+00
    0.45414E-09         0.17182E-09         0.00000E+00
    0.45817E-09         0.16442E-09         0.00000E+00
    0.46406E-09         0.15563E-09         0.00000E+00
    0.47184E-09         0.14500E-09         0.00000E+00
    0.48145E-09         0.13204E-09         0.00000E+00
    0.49262E-09         0.11621E-09         0.00000E+00
    0.50476E-09         0.96961E-10         0.00000E+00
    0.51683E-09         0.73897E-10         0.00000E+00
    0.52725E-09         0.46891E-10         0.00000E+00
    0.53378E-09         0.16340E-10         0.00000E+00
    0.11489E-09        -0.30168E-10         0.00000E+00
    0.12379E-09        -0.55148E-10         0.00000E+00
    0.14195E-09        -0.43858E-10         0.00000E+00
    0.16753E-09        -0.13339E-10         0.00000E+00
    0.19754E-09         0.25184E-10         0.00000E+00
    0.22906E-09         0.64861E-10         0.00000E+00
    0.25978E-09         0.10189E-09         0.00000E+00
    0.28815E-09         0.13445E-09         0.00000E+00
    0.31327E-09         0.16194E-09         0.00000E+00
    0.33473E-09         0.18447E-09         0.00000E+00
    0.35250E-09         0.20249E-09         0.00000E+00
    0.36674E-09         0.21658E-09         0.00000E+00
    0.37773E-09         0.22737E-09         0.00000E+00
    0.38583E-09         0.23544E-09         0.00000E+00
    0.39140E-09         0.24129E-09         0.00000E+00
    0.39479E-09         0.24536E-09         0.00000E+00
    0.39632E-09         0.24801E-09         0.00000E+00
    0.39631E-09         0.24950E-09         0.00000E+00
    0.39500E-09         0.25007E-09         0.00000E+00
    0.39265E-09         0.24989E-09         0.00000E+00
    0.38944E-09         0.24910E-09         0.00000E+00
    0.38556E-09         0.24779E-09         0.00000E+00
    0.38117E-09         0.24606E-09         0.00000E+00
    0.37640E-09         0.24395E-09         0.00000E+00
    0.37139E-09         0.24153E-09         0.00000E+00
    0.36624E-09         0.23882E-09         0.00000E+00
    0.36105E-09         0.23586E-09         0.00000E+00
    0.35591E-09         0.23267E-09         0.00000E+00
    0.35093E-09         0.22927E-09         0.00000E+00
    0.34618E-09         0.22567E-09         0.00000E+00
    0.34175E-09         0.22187E-09         0.00000E+00
    0.33773E-09         0.21789E-09         0.00000E+00
    0.33422E-09         0.21370E-09         0.00000E+00
    0.33130E-09         0.20931E-09         0.00000E+00
    0.32908E-09         0.20467E-09         0.00000E+00
    0.32766E-09         0.19976E-09         0.00000E+00
    0.32718E-09         0.19449E-09         0.00000E+00
    0.32774E-09         0.18878E-09         0.00000E+00
    0.32949E-09         0.18252E-09         0.00000E+00
    0.33256E-09         0.17553E-09         0.00000E+00
    0.33706E-09         0.16762E-09         0.00000E+00
    0.34310E-09         0.15854E-09         0.00000E+00
    0.35072E-09         0.14800E-09         0.00000E+00
    0.35989E-09         0.13566E-09         0.00000E+00
    0.37046E-09         0.12119E-09         0.00000E+00
    0.38205E-09         0.10428E-09         0.00000E+00
    0.39406E-09         0.84742E-10         0.00000E+00
    0.40550E-09         0.62596E-10         0.00000E+00
    0.41502E-09         0.38254E-10         0.00000E+00
    0.42078E-09         0.12681E-10         0.00000E+00
    0.61982E-10        -0.32277E-10         0.00000E+00
    0.64067E-10        -0.64031E-10         0.00000E+00
    0.71141E-10        -0.60204E-10         0.00000E+00
    0.84033E-10        -0.35469E-10         0.00000E+00
    0.10165E-09        -0.30966E-12         0.00000E+00
    0.12220E-09         0.38293E-10         0.00000E+00
    0.14389E-09         0.76039E-10         0.00000E+00
    0.16527E-09         0.11055E-09         0.00000E+00
    0.18528E-09         0.14072E-09         0.00000E+00
    0.20326E-09         0.16625E-09         0.00000E+00
    0.21887E-09         0.18733E-09         0.00000E+00
    0.23200E-09         0.20437E-09         0.00000E+00
    0.24269E-09         0.21789E-09         0.00000E+00
    0.25110E-09         0.22841E-09         0.00000E+00
    0.25742E-09         0.23643E-09         0.00000E+00
    0.26189E-09         0.24237E-09         0.00000E+00
    0.26475E-09         0.24661E-09         0.00000E+00
    0.26621E-09         0.24945E-09         0.00000E+00
    0.26650E-09         0.25114E-09         0.00000E+00
    0.26580E-09         0.25188E-09         0.00000E+00
    0.26431E-09         0.25182E-09         0.00000E+00
    0.26217E-09         0.25109E-09         0.00000E+00
    0.25954E-09         0.24979E-09         0.00000E+00
    0.25654E-09         0.24799E-09         0.00000E+00
    0.25329E-09         0.24576E-09         0.00000E+00
    0.24990E-09         0.24314E-09         0.00000E+00
    0.24648E-09         0.24016E-09         0.00000E+00
    0.24310E-09         0.23687E-09         0.00000E+00
    0.23987E-09         0.23328E-09         0.00000E+00
    0.23687E-09         0.22940E-09         0.00000E+00
    0.23419E-09         0.22525E-09         0.00000E+00
    0.23191E-09         0.22081E-09         0.00000E+00
    0.23012E-09         0.21609E-09         0.00000E+00
    0.22891E-09         0.21105E-09         0.00000E+00
    0.22838E-09         0.20568E-09         0.00000E+00
    0.22863E-09         0.19991E-09         0.00000E+00
    0.22977E-09         0.19368E-09         0.00000E+00
    0.23189E-09         0.18690E-09         0.00000E+00
    0.23511E-09         0.17943E-09         0.00000E+00
    0.23951E-09         0.17114E-09         0.00000E+00
    0.24518E-09         0.16184E-09         0.00000E+00
    0.25216E-09         0.15131E-09         0.00000E+00
    0.26043E-09         0.13934E-09         0.00000E+00
    0.26990E-09         0.12568E-09         0.00000E+00
    0.28034E-09         0.11016E-09         0.00000E+00
    0.29138E-09         0.92682E-10         0.00000E+00
    0.30241E-09         0.73311E-10         0.00000E+00
    0.31258E-09         0.52407E-10         0.00000E+00
    0.32078E-09         0.30733E-10         0.00000E+00
    0.32561E-09         0.96055E-11         0.00000E+00
    0.45773E-10        -0.31116E-10         0.00000E+00
    0.43116E-10        -0.64621E-10         0.00000E+00
    0.41973E-10        -0.65545E-10         0.00000E+00
    0.44788E-10        -0.45834E-10         0.00000E+00
    0.51868E-10        -0.14639E-10         0.00000E+00
    0.62436E-10         0.21507E-10         0.00000E+00
    0.75304E-10         0.58261E-10         0.00000E+00
    0.89280E-10         0.92972E-10         0.00000E+00
    0.10335E-09         0.12421E-09         0.00000E+00
    0.11676E-09         0.15137E-09         0.00000E+00
    0.12899E-09         0.17437E-09         0.00000E+00
    0.13974E-09         0.19345E-09         0.00000E+00
    0.14888E-09         0.20898E-09         0.00000E+00
    0.15639E-09         0.22141E-09         0.00000E+00
    0.16232E-09         0.23117E-09         0.00000E+00
    0.16679E-09         0.23868E-09         0.00000E+00
    0.16994E-09         0.24429E-09         0.00000E+00
    0.17193E-09         0.24832E-09         0.00000E+00
    0.17291E-09         0.25101E-09         0.00000E+00
    0.17304E-09         0.25258E-09         0.00000E+00
    0.17246E-09         0.25319E-09         0.00000E+00
    0.17130E-09         0.25300E-09         0.00000E+00
    0.16970E-09         0.25211E-09         0.00000E+00
    0.16777E-09         0.25060E-09         0.00000E+00
    0.16561E-09         0.24855E-09         0.00000E+00
    0.16334E-09         0.24601E-09         0.00000E+00
    0.16103E-09         0.24302E-09         0.00000E+00
    0.15879E-09         0.23963E-09         0.00000E+00
    0.15669E-09         0.23585E-09         0.00000E+00
    0.15482E-09         0.23170E-09         0.00000E+00
    0.15326E-09         0.22719E-09         0.00000E+00
    0.15210E-09         0.22231E-09         0.00000E+00
    0.15142E-09         0.21706E-09         0.00000E+00
    0.15130E-09         0.21141E-09         0.00000E+00
    0.15182E-09         0.20533E-09         0.00000E+00
    0.15308E-09         0.19875E-09         0.00000E+00
    0.15516E-09         0.19163E-09         0.00000E+00
    0.15814E-09         0.18385E-09         0.00000E+00
    0.16211E-09         0.17531E-09         0.00000E+00
    0.16711E-09         0.16587E-09         0.00000E+00
    0.17318E-09         0.15537E-09         0.00000E+00
    0.18033E-09         0.14366E-09         0.00000E+00
    0.18848E-09         0.13057E-09         0.00000E+00
    0.19750E-09         0.11596E-09         0.00000E+00
    0.20715E-09         0.99794E-10         0.00000E+00
    0.21704E-09         0.82127E-10         0.00000E+00
    0.22664E-09         0.63238E-10         0.00000E+00
    0.23524E-09         0.43702E-10         0.00000E+00
    0.24198E-09         0.24502E-10         0.00000E+00
    0.24584E-09         0.71405E-11         0.00000E+00
    0.50817E-10        -0.27901E-10         0.00000E+00
    0.45181E-10        -0.59544E-10         0.00000E+00
    0.38462E-10        -0.62760E-10         0.00000E+00
    0.33911E-10        -0.46882E-10         0.00000E+00
    0.32762E-10        -0.19523E-10         0.00000E+00
    0.35033E-10         0.13553E-10         0.00000E+00
    0.40109E-10         0.48270E-10         0.00000E+00
    0.47141E-10         0.81955E-10         0.00000E+00
    0.55277E-10         0.11302E-09         0.00000E+00
    0.63781E-10         0.14065E-09         0.00000E+00
    0.72080E-10         0.16456E-09         0.00000E+00
    0.79769E-10         0.18482E-09         0.00000E+00
    0.86587E-10         0.20166E-09         0.00000E+00
    0.92395E-10         0.21542E-09         0.00000E+00
    0.97140E-10         0.22648E-09         0.00000E+00
    0.10084E-09         0.23520E-09         0.00000E+00
    0.10354E-09         0.24191E-09         0.00000E+00
    0.10534E-09         0.24691E-09         0.00000E+00
    0.10633E-09         0.25044E-09         0.00000E+00
    0.10663E-09         0.25272E-09         0.00000E+00
    0.10634E-09         0.25392E-09         0.00000E+00
    0.10557E-09         0.25420E-09         0.00000E+00
    0.10443E-09         0.25366E-09         0.00000E+00
    0.10301E-09         0.25240E-09         0.00000E+00
    0.10141E-09         0.25050E-09         0.00000E+00
    0.99723E-10         0.24802E-09         0.00000E+00
    0.98032E-10         0.24501E-09         0.00000E+00
    0.96418E-10         0.24150E-09         0.00000E+00
    0.94961E-10         0.23753E-09         0.00000E+00
    0.93739E-10         0.23311E-09         0.00000E+00
    0.92826E-10         0.22825E-09         0.00000E+00
    0.92299E-10         0.22294E-09         0.00000E+00
    0.92233E-10         0.21718E-09         0.00000E+00
    0.92701E-10         0.21094E-09         0.00000E+00
    0.93777E-10         0.20419E-09         0.00000E+00
    0.95534E-10         0.19687E-09         0.00000E+00
    0.98039E-10         0.18892E-09         0.00000E+00
    0.10135E-09         0.18025E-09         0.00000E+00
    0.10552E-09         0.17077E-09         0.00000E+00
    0.11057E-09         0.16035E-09         0.00000E+00
    0.11651E-09         0.14888E-09         0.00000E+00
    0.12329E-09         0.13623E-09         0.00000E+00
    0.13083E-09         0.12231E-09         0.00000E+00
    0.13895E-09         0.10708E-09         0.00000E+00
    0.14741E-09         0.90575E-10         0.00000E+00
    0.15587E-09         0.73003E-10         0.00000E+00
    0.16386E-09         0.54772E-10         0.00000E+00
    0.17083E-09         0.36594E-10         0.00000E+00
    0.17614E-09         0.19564E-10         0.00000E+00
    0.17910E-09         0.52518E-11         0.00000E+00
    0.67042E-10        -0.23561E-10         0.00000E+00
    0.59766E-10        -0.50972E-10         0.00000E+00
    0.49612E-10        -0.54460E-10         0.00000E+00
    0.40085E-10        -0.41105E-10         0.00000E+00
    0.32948E-10        -0.17014E-10         0.00000E+00
    0.28781E-10         0.12940E-10         0.00000E+00
    0.27454E-10         0.45133E-10         0.00000E+00
    0.28463E-10         0.77050E-10         0.00000E+00
    0.31170E-10         0.10708E-09         0.00000E+00
    0.34943E-10         0.13431E-09         0.00000E+00
    0.39231E-10         0.15831E-09         0.00000E+00
    0.43594E-10         0.17901E-09         0.00000E+00
    0.47712E-10         0.19653E-09         0.00000E+00
    0.51365E-10         0.21109E-09         0.00000E+00
    0.54424E-10         0.22301E-09         0.00000E+00
    0.56826E-10         0.23258E-09         0.00000E+00
    0.58561E-10         0.24010E-09         0.00000E+00
    0.59653E-10         0.24583E-09         0.00000E+00
    0.60156E-10         0.25002E-09         0.00000E+00
    0.60134E-10         0.25286E-09         0.00000E+00
    0.59663E-10         0.25454E-09         0.00000E+00
    0.58825E-10         0.25519E-09         0.00000E+00
    0.57701E-10         0.25493E-09         0.00000E+00
    0.56372E-10         0.25387E-09         0.00000E+00
    0.54919E-10         0.25208E-09         0.00000E+00
    0.53419E-10         0.24963E-09         0.00000E+00
    0.51946E-10         0.24657E-09         0.00000E+00
    0.50575E-10         0.24293E-09         0.00000E+00
    0.49376E-10         0.23876E-09         0.00000E+00
    0.48420E-10         0.23406E-09         0.00000E+00
    0.47773E-10         0.22885E-09         0.00000E+00
    0.47503E-10         0.22313E-09         0.00000E+00
    0.47676E-10         0.21688E-09         0.00000E+00
    0.48354E-10         0.21009E-09         0.00000E+00
    0.49600E-10         0.20272E-09         0.00000E+00
    0.51468E-10         0.19472E-09         0.00000E+00
    0.54009E-10         0.18603E-09         0.00000E+00
    0.57261E-10         0.17658E-09         0.00000E+00
    0.61250E-10         0.16629E-09         0.00000E+00
    0.65976E-10         0.15505E-09         0.00000E+00
    0.71415E-10         0.14280E-09         0.00000E+00
    0.77501E-10         0.12944E-09         0.00000E+00
    0.84122E-10         0.11494E-09         0.00000E+00
    0.91109E-10         0.99332E-10         0.00000E+00
    0.98225E-10         0.82739E-10         0.00000E+00
    0.10517E-09         0.65444E-10         0.00000E+00
    0.11156E-09         0.47946E-10         0.00000E+00
    0.11698E-09         0.31025E-10         0.00000E+00
    0.12099E-09         0.15816E-10         0.00000E+00
    0.12316E-09         0.38717E-11         0.00000E+00
    0.88261E-10        -0.18744E-10         0.00000E+00
    0.80272E-10        -0.40524E-10         0.00000E+00
    0.68267E-10        -0.42750E-10         0.00000E+00
    0.55661E-10        -0.30681E-10         0.00000E+00
    0.44447E-10        -0.90863E-11         0.00000E+00
    0.35570E-10         0.18055E-10         0.00000E+00
    0.29264E-10         0.47651E-10         0.00000E+00
    0.25335E-10         0.77452E-10         0.00000E+00
    0.23367E-10         0.10594E-09         0.00000E+00
    0.22871E-10         0.13217E-09         0.00000E+00
    0.23369E-10         0.15566E-09         0.00000E+00
    0.24443E-10         0.17623E-09         0.00000E+00
    0.25756E-10         0.19388E-09         0.00000E+00
    0.27053E-10         0.20879E-09         0.00000E+00
    0.28155E-10         0.22115E-09         0.00000E+00
    0.28950E-10         0.23124E-09         0.00000E+00
    0.29378E-10         0.23928E-09         0.00000E+00
    0.29416E-10         0.24552E-09         0.00000E+00
    0.29074E-10         0.25017E-09         0.00000E+00
    0.28382E-10         0.25343E-09         0.00000E+00
    0.27386E-10         0.25544E-09         0.00000E+00
    0.26140E-10         0.25637E-09         0.00000E+00
    0.24704E-10         0.25631E-09         0.00000E+00
    0.23142E-10         0.25538E-09         0.00000E+00
    0.21516E-10         0.25365E-09         0.00000E+00
    0.19894E-10         0.25118E-09         0.00000E+00
    0.18337E-10         0.24804E-09         0.00000E+00
    0.16911E-10         0.24426E-09         0.00000E+00
    0.15676E-10         0.23987E-09         0.00000E+00
    0.14694E-10         0.23489E-09         0.00000E+00
    0.14024E-10         0.22934E-09         0.00000E+00
    0.13723E-10         0.22321E-09         0.00000E+00
    0.13848E-10         0.21650E-09         0.00000E+00
    0.14450E-10         0.20919E-09         0.00000E+00
    0.15578E-10         0.20125E-09         0.00000E+00
    0.17274E-10         0.19263E-09         0.00000E+00
    0.19571E-10         0.18328E-09         0.00000E+00
    0.22490E-10         0.17316E-09         0.00000E+00
    0.26035E-10         0.16218E-09         0.00000E+00
    0.30190E-10         0.15028E-09         0.00000E+00
    0.34909E-10         0.13741E-09         0.00000E+00
    0.40112E-10         0.12353E-09         0.00000E+00
    0.45681E-10         0.10866E-09         0.00000E+00
    0.51448E-10         0.92863E-10         0.00000E+00
    0.57201E-10         0.76339E-10         0.00000E+00
    0.62681E-10         0.59423E-10         0.00000E+00
    0.67598E-10         0.42657E-10         0.00000E+00
    0.71644E-10         0.26844E-10         0.00000E+00
    0.74531E-10         0.13103E-10         0.00000E+00
    0.76031E-10         0.29186E-11         0.00000E+00
    0.11093E-09        -0.13857E-10         0.00000E+00
    0.10281E-09        -0.29307E-10         0.00000E+00
    0.90033E-10        -0.29184E-10         0.00000E+00
    0.75731E-10        -0.17339E-10         0.00000E+00
    0.61937E-10         0.25794E-11         0.00000E+00
    0.49793E-10         0.27411E-10         0.00000E+00
    0.39789E-10         0.54606E-10         0.00000E+00
    0.31979E-10         0.82237E-10         0.00000E+00
    0.26156E-10         0.10894E-09         0.00000E+00
    0.21981E-10         0.13384E-09         0.00000E+00
    0.19076E-10         0.15641E-09         0.00000E+00
    0.17075E-10         0.17641E-09         0.00000E+00
    0.15662E-10         0.19380E-09         0.00000E+00
    0.14578E-10         0.20866E-09         0.00000E+00
    0.13623E-10         0.22114E-09         0.00000E+00
    0.12655E-10         0.23143E-09         0.00000E+00
    0.11580E-10         0.23974E-09         0.00000E+00
    0.10344E-10         0.24626E-09         0.00000E+00
    0.89244E-11         0.25119E-09         0.00000E+00
    0.73219E-11         0.25470E-09         0.00000E+00
    0.55555E-11         0.25693E-09         0.00000E+00
    0.36567E-11         0.25802E-09         0.00000E+00
    0.16657E-11         0.25808E-09         0.00000E+00
   -0.37134E-12         0.25721E-09         0.00000E+00
   -0.24047E-11         0.25548E-09         0.00000E+00
   -0.43827E-11         0.25295E-09         0.00000E+00
   -0.62523E-11         0.24969E-09         0.00000E+00
   -0.79606E-11         0.24574E-09         0.00000E+00
   -0.94549E-11         0.24112E-09         0.00000E+00
   -0.10683E-10         0.23585E-09         0.00000E+00
   -0.11596E-10         0.22996E-09         0.00000E+00
   -0.12144E-10         0.22344E-09         0.00000E+00
   -0.12281E-10         0.21629E-09         0.00000E+00
   -0.11967E-10         0.20849E-09         0.00000E+00
   -0.11164E-10         0.20002E-09         0.00000E+00
   -0.98431E-11         0.19084E-09         0.00000E+00
   -0.79852E-11         0.18092E-09         0.00000E+00
   -0.55836E-11         0.17020E-09         0.00000E+00
   -0.26485E-11         0.15865E-09         0.00000E+00
    0.78869E-12         0.14622E-09         0.00000E+00
    0.46714E-11         0.13287E-09         0.00000E+00
    0.89130E-11         0.11862E-09         0.00000E+00
    0.13394E-10         0.10352E-09         0.00000E+00
    0.17960E-10         0.87671E-10         0.00000E+00
    0.22425E-10         0.71314E-10         0.00000E+00
    0.26577E-10         0.54815E-10         0.00000E+00
    0.30195E-10         0.38730E-10         0.00000E+00
    0.33067E-10         0.23852E-10         0.00000E+00
    0.35026E-10         0.11249E-10         0.00000E+00
    0.35989E-10         0.23092E-11         0.00000E+00
    0.13318E-09        -0.91322E-11         0.00000E+00
    0.12527E-09        -0.18015E-10         0.00000E+00
    0.11239E-09        -0.14817E-10         0.00000E+00
    0.97332E-10        -0.23427E-11         0.00000E+00
    0.82042E-10         0.16667E-10         0.00000E+00
    0.67748E-10         0.39762E-10         0.00000E+00
    0.55101E-10         0.64905E-10         0.00000E+00
    0.44342E-10         0.90507E-10         0.00000E+00
    0.35436E-10         0.11540E-09         0.00000E+00
    0.28189E-10         0.13880E-09         0.00000E+00
    0.22328E-10         0.16021E-09         0.00000E+00
    0.17561E-10         0.17937E-09         0.00000E+00
    0.13610E-10         0.19620E-09         0.00000E+00
    0.10234E-10         0.21072E-09         0.00000E+00
    0.72337E-11         0.22303E-09         0.00000E+00
    0.44570E-11         0.23328E-09         0.00000E+00
    0.17914E-11         0.24162E-09         0.00000E+00
   -0.83847E-12         0.24824E-09         0.00000E+00
   -0.34779E-11         0.25328E-09         0.00000E+00
   -0.61480E-11         0.25689E-09         0.00000E+00
   -0.88506E-11         0.25921E-09         0.00000E+00
   -0.11573E-10         0.26037E-09         0.00000E+00
   -0.14293E-10         0.26045E-09         0.00000E+00
   -0.16979E-10         0.25956E-09         0.00000E+00
   -0.19594E-10         0.25777E-09         0.00000E+00
   -0.22100E-10         0.25514E-09         0.00000E+00
   -0.24455E-10         0.25173E-09         0.00000E+00
   -0.26614E-10         0.24757E-09         0.00000E+00
   -0.28535E-10         0.24270E-09         0.00000E+00
   -0.30176E-10         0.23714E-09         0.00000E+00
   -0.31494E-10         0.23091E-09         0.00000E+00
   -0.32449E-10         0.22400E-09         0.00000E+00
   -0.33006E-10         0.21642E-09         0.00000E+00
   -0.33133E-10         0.20817E-09         0.00000E+00
   -0.32802E-10         0.19921E-09         0.00000E+00
   -0.31996E-10         0.18952E-09         0.00000E+00
   -0.30706E-10         0.17909E-09         0.00000E+00
   -0.28937E-10         0.16786E-09         0.00000E+00
   -0.26709E-10         0.15583E-09         0.00000E+00
   -0.24062E-10         0.14296E-09         0.00000E+00
   -0.21059E-10         0.12925E-09         0.00000E+00
   -0.17788E-10         0.11474E-09         0.00000E+00
   -0.14361E-10         0.99497E-10         0.00000E+00
   -0.10917E-10         0.83680E-10         0.00000E+00
   -0.76145E-11         0.67537E-10         0.00000E+00
   -0.46228E-11         0.51448E-10         0.00000E+00
   -0.21058E-11         0.35963E-10         0.00000E+00
   -0.19934E-12         0.21841E-10         0.00000E+00
    0.10181E-11         0.10083E-10         0.00000E+00
    0.15634E-11         0.19663E-11         0.00000E+00
    0.15418E-09        -0.46761E-11         0.00000E+00
    0.14664E-09        -0.70309E-11         0.00000E+00
    0.13403E-09        -0.31245E-12         0.00000E+00
    0.11880E-09         0.13447E-10         0.00000E+00
    0.10275E-09         0.32216E-10         0.00000E+00
    0.87113E-10         0.54143E-10         0.00000E+00
    0.72635E-10         0.77649E-10         0.00000E+00
    0.59685E-10         0.10147E-09         0.00000E+00
    0.48365E-10         0.12466E-09         0.00000E+00
    0.38605E-10         0.14655E-09         0.00000E+00
    0.30234E-10         0.16670E-09         0.00000E+00
    0.23036E-10         0.18485E-09         0.00000E+00
    0.16786E-10         0.20092E-09         0.00000E+00
    0.11272E-10         0.21489E-09         0.00000E+00
    0.63124E-11         0.22682E-09         0.00000E+00
    0.17552E-11         0.23682E-09         0.00000E+00
   -0.25166E-11         0.24502E-09         0.00000E+00
   -0.65896E-11         0.25155E-09         0.00000E+00
   -0.10523E-10         0.25654E-09         0.00000E+00
   -0.14353E-10         0.26012E-09         0.00000E+00
   -0.18097E-10         0.26242E-09         0.00000E+00
   -0.21757E-10         0.26354E-09         0.00000E+00
   -0.25325E-10         0.26357E-09         0.00000E+00
   -0.28783E-10         0.26259E-09         0.00000E+00
   -0.32107E-10         0.26068E-09         0.00000E+00
   -0.35267E-10         0.25790E-09         0.00000E+00
   -0.38232E-10         0.25429E-09         0.00000E+00
   -0.40968E-10         0.24990E-09         0.00000E+00
   -0.43440E-10         0.24476E-09         0.00000E+00
   -0.45615E-10         0.23889E-09         0.00000E+00
   -0.47458E-10         0.23231E-09         0.00000E+00
   -0.48939E-10         0.22503E-09         0.00000E+00
   -0.50029E-10         0.21704E-09         0.00000E+00
   -0.50704E-10         0.20835E-09         0.00000E+00
   -0.50947E-10         0.19894E-09         0.00000E+00
   -0.50748E-10         0.18879E-09         0.00000E+00
   -0.50107E-10         0.17789E-09         0.00000E+00
   -0.49035E-10         0.16622E-09         0.00000E+00
   -0.47561E-10         0.15377E-09         0.00000E+00
   -0.45729E-10         0.14053E-09         0.00000E+00
   -0.43601E-10         0.12654E-09         0.00000E+00
   -0.41263E-10         0.11184E-09         0.00000E+00
   -0.38818E-10         0.96525E-10         0.00000E+00
   -0.36386E-10         0.80777E-10         0.00000E+00
   -0.34101E-10         0.64853E-10         0.00000E+00
   -0.32095E-10         0.49133E-10         0.00000E+00
   -0.30484E-10         0.34149E-10         0.00000E+00
   -0.29349E-10         0.20613E-10         0.00000E+00
   -0.28707E-10         0.94509E-11         0.00000E+00
   -0.28476E-10         0.18229E-11         0.00000E+00
    0.17366E-09        -0.51975E-12         0.00000E+00
    0.16654E-09         0.34679E-11         0.00000E+00
    0.15437E-09         0.13962E-10         0.00000E+00
    0.13929E-09         0.29489E-10         0.00000E+00
    0.12294E-09         0.48572E-10         0.00000E+00
    0.10652E-09         0.69848E-10         0.00000E+00
    0.90798E-10         0.92141E-10         0.00000E+00
    0.76239E-10         0.11449E-09         0.00000E+00
    0.63047E-10         0.13616E-09         0.00000E+00
    0.51252E-10         0.15661E-09         0.00000E+00
    0.40776E-10         0.17548E-09         0.00000E+00
    0.31472E-10         0.19257E-09         0.00000E+00
    0.23173E-10         0.20776E-09         0.00000E+00
    0.15705E-10         0.22103E-09         0.00000E+00
    0.89078E-11         0.23243E-09         0.00000E+00
    0.26435E-11         0.24203E-09         0.00000E+00
   -0.32021E-11         0.24993E-09         0.00000E+00
   -0.87184E-11         0.25623E-09         0.00000E+00
   -0.13971E-10         0.26104E-09         0.00000E+00
   -0.19007E-10         0.26448E-09         0.00000E+00
   -0.23852E-10         0.26665E-09         0.00000E+00
   -0.28522E-10         0.26764E-09         0.00000E+00
   -0.33017E-10         0.26753E-09         0.00000E+00
   -0.37331E-10         0.26640E-09         0.00000E+00
   -0.41450E-10         0.26432E-09         0.00000E+00
   -0.45355E-10         0.26133E-09         0.00000E+00
   -0.49022E-10         0.25749E-09         0.00000E+00
   -0.52426E-10         0.25284E-09         0.00000E+00
   -0.55541E-10         0.24741E-09         0.00000E+00
   -0.58339E-10         0.24122E-09         0.00000E+00
   -0.60795E-10         0.23429E-09         0.00000E+00
   -0.62885E-10         0.22663E-09         0.00000E+00
   -0.64588E-10         0.21824E-09         0.00000E+00
   -0.65886E-10         0.20913E-09         0.00000E+00
   -0.66770E-10         0.19929E-09         0.00000E+00
   -0.67235E-10         0.18871E-09         0.00000E+00
   -0.67288E-10         0.17738E-09         0.00000E+00
   -0.66946E-10         0.16531E-09         0.00000E+00
   -0.66239E-10         0.15249E-09         0.00000E+00
   -0.65212E-10         0.13895E-09         0.00000E+00
   -0.63927E-10         0.12471E-09         0.00000E+00
   -0.62462E-10         0.10986E-09         0.00000E+00
   -0.60908E-10         0.94504E-10         0.00000E+00
   -0.59371E-10         0.78830E-10         0.00000E+00
   -0.57957E-10         0.63101E-10         0.00000E+00
   -0.56769E-10         0.47690E-10         0.00000E+00
   -0.55888E-10         0.33101E-10         0.00000E+00
   -0.55355E-10         0.19994E-10         0.00000E+00
   -0.55146E-10         0.92185E-11         0.00000E+00
   -0.55145E-10         0.18234E-11         0.00000E+00
    0.19166E-09         0.33509E-11         0.00000E+00
    0.18493E-09         0.13438E-10         0.00000E+00
    0.17326E-09         0.27836E-10         0.00000E+00
    0.15847E-09         0.45479E-10         0.00000E+00
    0.14208E-09         0.65320E-10         0.00000E+00
    0.12521E-09         0.86396E-10         0.00000E+00
    0.10866E-09         0.10787E-09         0.00000E+00
    0.92915E-10         0.12906E-09         0.00000E+00
    0.78269E-10         0.14943E-09         0.00000E+00
    0.64828E-10         0.16857E-09         0.00000E+00
    0.52588E-10         0.18623E-09         0.00000E+00
    0.41471E-10         0.20224E-09         0.00000E+00
    0.31360E-10         0.21650E-09         0.00000E+00
    0.22123E-10         0.22900E-09         0.00000E+00
    0.13628E-10         0.23976E-09         0.00000E+00
    0.57526E-11         0.24884E-09         0.00000E+00
   -0.16061E-11         0.25632E-09         0.00000E+00
   -0.85348E-11         0.26228E-09         0.00000E+00
   -0.15101E-10         0.26681E-09         0.00000E+00
   -0.21354E-10         0.27001E-09         0.00000E+00
   -0.27329E-10         0.27195E-09         0.00000E+00
   -0.33047E-10         0.27273E-09         0.00000E+00
   -0.38518E-10         0.27241E-09         0.00000E+00
   -0.43744E-10         0.27106E-09         0.00000E+00
   -0.48718E-10         0.26875E-09         0.00000E+00
   -0.53430E-10         0.26551E-09         0.00000E+00
   -0.57863E-10         0.26141E-09         0.00000E+00
   -0.62001E-10         0.25647E-09         0.00000E+00
   -0.65823E-10         0.25072E-09         0.00000E+00
   -0.69310E-10         0.24419E-09         0.00000E+00
   -0.72441E-10         0.23690E-09         0.00000E+00
   -0.75200E-10         0.22886E-09         0.00000E+00
   -0.77570E-10         0.22008E-09         0.00000E+00
   -0.79542E-10         0.21056E-09         0.00000E+00
   -0.81109E-10         0.20030E-09         0.00000E+00
   -0.82272E-10         0.18932E-09         0.00000E+00
   -0.83041E-10         0.17760E-09         0.00000E+00
   -0.83437E-10         0.16515E-09         0.00000E+00
   -0.83489E-10         0.15200E-09         0.00000E+00
   -0.83241E-10         0.13817E-09         0.00000E+00
   -0.82752E-10         0.12372E-09         0.00000E+00
   -0.82089E-10         0.10873E-09         0.00000E+00
   -0.81333E-10         0.93327E-10         0.00000E+00
   -0.80573E-10         0.77708E-10         0.00000E+00
   -0.79896E-10         0.62131E-10         0.00000E+00
   -0.79378E-10         0.46955E-10         0.00000E+00
   -0.79077E-10         0.32653E-10         0.00000E+00
   -0.79005E-10         0.19837E-10         0.00000E+00
   -0.79115E-10         0.92775E-11         0.00000E+00
   -0.79275E-10         0.19236E-11         0.00000E+00
    0.20833E-09         0.69726E-11         0.00000E+00
    0.20195E-09         0.22914E-10         0.00000E+00
    0.19073E-09         0.41268E-10         0.00000E+00
    0.17628E-09         0.61275E-10         0.00000E+00
    0.15997E-09         0.82223E-10         0.00000E+00
    0.14286E-09         0.10348E-09         0.00000E+00
    0.12572E-09         0.12449E-09         0.00000E+00
    0.10909E-09         0.14482E-09         0.00000E+00
    0.93292E-10         0.16411E-09         0.00000E+00
    0.78504E-10         0.18212E-09         0.00000E+00
    0.64779E-10         0.19866E-09         0.00000E+00
    0.52096E-10         0.21361E-09         0.00000E+00
    0.40386E-10         0.22694E-09         0.00000E+00
    0.29553E-10         0.23862E-09         0.00000E+00
    0.19497E-10         0.24869E-09         0.00000E+00
    0.10116E-10         0.25717E-09         0.00000E+00
    0.13193E-11         0.26415E-09         0.00000E+00
   -0.69726E-11         0.26967E-09         0.00000E+00
   -0.14824E-10         0.27383E-09         0.00000E+00
   -0.22286E-10         0.27670E-09         0.00000E+00
   -0.29395E-10         0.27834E-09         0.00000E+00
   -0.36179E-10         0.27884E-09         0.00000E+00
   -0.42652E-10         0.27824E-09         0.00000E+00
   -0.48822E-10         0.27662E-09         0.00000E+00
   -0.54691E-10         0.27403E-09         0.00000E+00
   -0.60252E-10         0.27051E-09         0.00000E+00
   -0.65497E-10         0.26610E-09         0.00000E+00
   -0.70414E-10         0.26084E-09         0.00000E+00
   -0.74990E-10         0.25475E-09         0.00000E+00
   -0.79210E-10         0.24787E-09         0.00000E+00
   -0.83061E-10         0.24021E-09         0.00000E+00
   -0.86529E-10         0.23178E-09         0.00000E+00
   -0.89605E-10         0.22260E-09         0.00000E+00
   -0.92281E-10         0.21268E-09         0.00000E+00
   -0.94557E-10         0.20202E-09         0.00000E+00
   -0.96435E-10         0.19064E-09         0.00000E+00
   -0.97928E-10         0.17854E-09         0.00000E+00
   -0.99055E-10         0.16573E-09         0.00000E+00
   -0.99847E-10         0.15226E-09         0.00000E+00
   -0.10034E-09         0.13816E-09         0.00000E+00
   -0.10060E-09         0.12349E-09         0.00000E+00
   -0.10067E-09         0.10836E-09         0.00000E+00
   -0.10062E-09         0.92895E-10         0.00000E+00
   -0.10053E-09         0.77293E-10         0.00000E+00
   -0.10048E-09         0.61810E-10         0.00000E+00
   -0.10051E-09         0.46789E-10         0.00000E+00
   -0.10066E-09         0.32672E-10         0.00000E+00
   -0.10093E-09         0.20022E-10         0.00000E+00
   -0.10127E-09         0.95426E-11         0.00000E+00
   -0.10155E-09         0.20897E-11         0.00000E+00
    0.22388E-09         0.10391E-10         0.00000E+00
    0.21779E-09         0.31968E-10         0.00000E+00
    0.20693E-09         0.54294E-10         0.00000E+00
    0.19279E-09         0.76842E-10         0.00000E+00
    0.17659E-09         0.99169E-10         0.00000E+00
    0.15932E-09         0.12091E-09         0.00000E+00
    0.14175E-09         0.14176E-09         0.00000E+00
    0.12443E-09         0.16150E-09         0.00000E+00
    0.10770E-09         0.17995E-09         0.00000E+00
    0.91784E-10         0.19698E-09         0.00000E+00
    0.76791E-10         0.21251E-09         0.00000E+00
    0.62742E-10         0.22649E-09         0.00000E+00
    0.49611E-10         0.23891E-09         0.00000E+00
    0.37338E-10         0.24976E-09         0.00000E+00
    0.25849E-10         0.25909E-09         0.00000E+00
    0.15065E-10         0.26693E-09         0.00000E+00
    0.49087E-11         0.27334E-09         0.00000E+00
   -0.46889E-11         0.27837E-09         0.00000E+00
   -0.13787E-10         0.28209E-09         0.00000E+00
   -0.22435E-10         0.28455E-09         0.00000E+00
   -0.30669E-10         0.28583E-09         0.00000E+00
   -0.38520E-10         0.28598E-09         0.00000E+00
   -0.46005E-10         0.28506E-09         0.00000E+00
   -0.53138E-10         0.28311E-09         0.00000E+00
   -0.59922E-10         0.28019E-09         0.00000E+00
   -0.66359E-10         0.27634E-09         0.00000E+00
   -0.72445E-10         0.27159E-09         0.00000E+00
   -0.78173E-10         0.26598E-09         0.00000E+00
   -0.83535E-10         0.25954E-09         0.00000E+00
   -0.88520E-10         0.25229E-09         0.00000E+00
   -0.93121E-10         0.24424E-09         0.00000E+00
   -0.97327E-10         0.23542E-09         0.00000E+00
   -0.10113E-09         0.22584E-09         0.00000E+00
   -0.10453E-09         0.21552E-09         0.00000E+00
   -0.10753E-09         0.20446E-09         0.00000E+00
   -0.11013E-09         0.19268E-09         0.00000E+00
   -0.11234E-09         0.18020E-09         0.00000E+00
   -0.11419E-09         0.16705E-09         0.00000E+00
   -0.11570E-09         0.15325E-09         0.00000E+00
   -0.11690E-09         0.13887E-09         0.00000E+00
   -0.11785E-09         0.12398E-09         0.00000E+00
   -0.11859E-09         0.10868E-09         0.00000E+00
   -0.11917E-09         0.93117E-10         0.00000E+00
   -0.11967E-09         0.77482E-10         0.00000E+00
   -0.12014E-09         0.62027E-10         0.00000E+00
   -0.12061E-09         0.47078E-10         0.00000E+00
   -0.12112E-09         0.33048E-10         0.00000E+00
   -0.12166E-09         0.20458E-10         0.00000E+00
   -0.12216E-09         0.99493E-11         0.00000E+00
   -0.12251E-09         0.22968E-11         0.00000E+00
    0.23850E-09         0.13652E-10         0.00000E+00
    0.23262E-09         0.40689E-10         0.00000E+00
    0.22205E-09         0.66988E-10         0.00000E+00
    0.20814E-09         0.92208E-10         0.00000E+00
    0.19202E-09         0.11613E-09         0.00000E+00
    0.17463E-09         0.13860E-09         0.00000E+00
    0.15670E-09         0.15956E-09         0.00000E+00
    0.13879E-09         0.17895E-09         0.00000E+00
    0.12127E-09         0.19675E-09         0.00000E+00
    0.10439E-09         0.21297E-09         0.00000E+00
    0.88289E-10         0.22761E-09         0.00000E+00
    0.73032E-10         0.24069E-09         0.00000E+00
    0.58627E-10         0.25224E-09         0.00000E+00
    0.45044E-10         0.26228E-09         0.00000E+00
    0.32236E-10         0.27087E-09         0.00000E+00
    0.20143E-10         0.27803E-09         0.00000E+00
    0.87042E-11         0.28383E-09         0.00000E+00
   -0.21395E-11         0.28832E-09         0.00000E+00
   -0.12440E-10         0.29154E-09         0.00000E+00
   -0.22243E-10         0.29355E-09         0.00000E+00
   -0.31584E-10         0.29441E-09         0.00000E+00
   -0.40492E-10         0.29416E-09         0.00000E+00
   -0.48990E-10         0.29286E-09         0.00000E+00
   -0.57090E-10         0.29054E-09         0.00000E+00
   -0.64803E-10         0.28726E-09         0.00000E+00
   -0.72131E-10         0.28304E-09         0.00000E+00
   -0.79077E-10         0.27792E-09         0.00000E+00
   -0.85636E-10         0.27194E-09         0.00000E+00
   -0.91805E-10         0.26511E-09         0.00000E+00
   -0.97577E-10         0.25747E-09         0.00000E+00
   -0.10295E-09         0.24903E-09         0.00000E+00
   -0.10791E-09         0.23980E-09         0.00000E+00
   -0.11246E-09         0.22982E-09         0.00000E+00
   -0.11660E-09         0.21908E-09         0.00000E+00
   -0.12032E-09         0.20762E-09         0.00000E+00
   -0.12364E-09         0.19544E-09         0.00000E+00
   -0.12657E-09         0.18258E-09         0.00000E+00
   -0.12912E-09         0.16906E-09         0.00000E+00
   -0.13132E-09         0.15494E-09         0.00000E+00
   -0.13320E-09         0.14026E-09         0.00000E+00
   -0.13479E-09         0.12512E-09         0.00000E+00
   -0.13614E-09         0.10962E-09         0.00000E+00
   -0.13730E-09         0.93917E-10         0.00000E+00
   -0.13831E-09         0.78192E-10         0.00000E+00
   -0.13922E-09         0.62694E-10         0.00000E+00
   -0.14007E-09         0.47734E-10         0.00000E+00
   -0.14087E-09         0.33701E-10         0.00000E+00
   -0.14160E-09         0.21078E-10         0.00000E+00
   -0.14222E-09         0.10451E-10         0.00000E+00
   -0.14261E-09         0.25277E-11         0.00000E+00
    0.25236E-09         0.16801E-10         0.00000E+00
    0.24662E-09         0.49170E-10         0.00000E+00
    0.23625E-09         0.79443E-10         0.00000E+00
    0.22248E-09         0.10744E-09         0.00000E+00
    0.20638E-09         0.13312E-09         0.00000E+00
    0.18885E-09         0.15654E-09         0.00000E+00
    0.17059E-09         0.17781E-09         0.00000E+00
    0.15215E-09         0.19705E-09         0.00000E+00
    0.13393E-09         0.21440E-09         0.00000E+00
    0.11618E-09         0.22995E-09         0.00000E+00
    0.99092E-10         0.24382E-09         0.00000E+00
    0.82745E-10         0.25609E-09         0.00000E+00
    0.67180E-10         0.26682E-09         0.00000E+00
    0.52396E-10         0.27607E-09         0.00000E+00
    0.38365E-10         0.28392E-09         0.00000E+00
    0.25047E-10         0.29040E-09         0.00000E+00
    0.12395E-10         0.29556E-09         0.00000E+00
    0.36311E-12         0.29946E-09         0.00000E+00
   -0.11095E-10         0.30215E-09         0.00000E+00
   -0.22019E-10         0.30367E-09         0.00000E+00
   -0.32442E-10         0.30406E-09         0.00000E+00
   -0.42394E-10         0.30337E-09         0.00000E+00
   -0.51895E-10         0.30165E-09         0.00000E+00
   -0.60962E-10         0.29892E-09         0.00000E+00
   -0.69606E-10         0.29524E-09         0.00000E+00
   -0.77833E-10         0.29062E-09         0.00000E+00
   -0.85648E-10         0.28511E-09         0.00000E+00
   -0.93051E-10         0.27872E-09         0.00000E+00
   -0.10004E-09         0.27149E-09         0.00000E+00
   -0.10661E-09         0.26344E-09         0.00000E+00
   -0.11277E-09         0.25458E-09         0.00000E+00
   -0.11850E-09         0.24494E-09         0.00000E+00
   -0.12380E-09         0.23454E-09         0.00000E+00
   -0.12868E-09         0.22338E-09         0.00000E+00
   -0.13314E-09         0.21150E-09         0.00000E+00
   -0.13718E-09         0.19892E-09         0.00000E+00
   -0.14081E-09         0.18566E-09         0.00000E+00
   -0.14405E-09         0.17177E-09         0.00000E+00
   -0.14692E-09         0.15730E-09         0.00000E+00
   -0.14944E-09         0.14230E-09         0.00000E+00
   -0.15164E-09         0.12688E-09         0.00000E+00
   -0.15356E-09         0.11114E-09         0.00000E+00
   -0.15524E-09         0.95236E-10         0.00000E+00
   -0.15671E-09         0.79357E-10         0.00000E+00
   -0.15802E-09         0.63743E-10         0.00000E+00
   -0.15918E-09         0.48692E-10         0.00000E+00
   -0.16021E-09         0.34573E-10         0.00000E+00
   -0.16110E-09         0.21833E-10         0.00000E+00
   -0.16180E-09         0.11017E-10         0.00000E+00
   -0.16222E-09         0.27708E-11         0.00000E+00
    0.26560E-09         0.19875E-10         0.00000E+00
    0.25994E-09         0.57496E-10         0.00000E+00
    0.24967E-09         0.91755E-10         0.00000E+00
    0.23595E-09         0.12261E-09         0.00000E+00
    0.21981E-09         0.15019E-09         0.00000E+00
    0.20209E-09         0.17472E-09         0.00000E+00
    0.18348E-09         0.19648E-09         0.00000E+00
    0.16454E-09         0.21576E-09         0.00000E+00
    0.14565E-09         0.23280E-09         0.00000E+00
    0.12711E-09         0.24783E-09         0.00000E+00
    0.10911E-09         0.26104E-09         0.00000E+00
    0.91759E-10         0.27257E-09         0.00000E+00
    0.75124E-10         0.28254E-09         0.00000E+00
    0.59222E-10         0.29104E-09         0.00000E+00
    0.44048E-10         0.29816E-09         0.00000E+00
    0.29576E-10         0.30395E-09         0.00000E+00
    0.15775E-10         0.30846E-09         0.00000E+00
    0.26075E-11         0.31176E-09         0.00000E+00
   -0.99644E-11         0.31388E-09         0.00000E+00
   -0.21975E-10         0.31487E-09         0.00000E+00
   -0.33455E-10         0.31476E-09         0.00000E+00
   -0.44430E-10         0.31360E-09         0.00000E+00
   -0.54923E-10         0.31142E-09         0.00000E+00
   -0.64949E-10         0.30825E-09         0.00000E+00
   -0.74522E-10         0.30413E-09         0.00000E+00
   -0.83651E-10         0.29908E-09         0.00000E+00
   -0.92340E-10         0.29315E-09         0.00000E+00
   -0.10059E-09         0.28634E-09         0.00000E+00
   -0.10841E-09         0.27868E-09         0.00000E+00
   -0.11579E-09         0.27020E-09         0.00000E+00
   -0.12273E-09         0.26091E-09         0.00000E+00
   -0.12924E-09         0.25084E-09         0.00000E+00
   -0.13531E-09         0.24000E-09         0.00000E+00
   -0.14093E-09         0.22842E-09         0.00000E+00
   -0.14612E-09         0.21611E-09         0.00000E+00
   -0.15088E-09         0.20311E-09         0.00000E+00
   -0.15521E-09         0.18944E-09         0.00000E+00
   -0.15913E-09         0.17515E-09         0.00000E+00
   -0.16265E-09         0.16030E-09         0.00000E+00
   -0.16579E-09         0.14496E-09         0.00000E+00
   -0.16857E-09         0.12921E-09         0.00000E+00
   -0.17103E-09         0.11319E-09         0.00000E+00
   -0.17319E-09         0.97028E-10         0.00000E+00
   -0.17509E-09         0.80931E-10         0.00000E+00
   -0.17674E-09         0.65129E-10         0.00000E+00
   -0.17818E-09         0.49909E-10         0.00000E+00
   -0.17942E-09         0.35623E-10         0.00000E+00
   -0.18044E-09         0.22694E-10         0.00000E+00
   -0.18121E-09         0.11627E-10         0.00000E+00
   -0.18165E-09         0.30198E-11         0.00000E+00
    0.27830E-09         0.22909E-10         0.00000E+00
    0.27267E-09         0.65745E-10         0.00000E+00
    0.26243E-09         0.10402E-09         0.00000E+00
    0.24868E-09         0.13781E-09         0.00000E+00
    0.23240E-09         0.16741E-09         0.00000E+00
    0.21444E-09         0.19319E-09         0.00000E+00
    0.19546E-09         0.21560E-09         0.00000E+00
    0.17600E-09         0.23505E-09         0.00000E+00
    0.15647E-09         0.25192E-09         0.00000E+00
    0.13717E-09         0.26655E-09         0.00000E+00
    0.11831E-09         0.27919E-09         0.00000E+00
    0.10002E-09         0.29006E-09         0.00000E+00
    0.82376E-10         0.29932E-09         0.00000E+00
    0.65424E-10         0.30711E-09         0.00000E+00
    0.49170E-10         0.31352E-09         0.00000E+00
    0.33605E-10         0.31862E-09         0.00000E+00
    0.18708E-10         0.32249E-09         0.00000E+00
    0.44520E-11         0.32516E-09         0.00000E+00
   -0.91936E-11         0.32670E-09         0.00000E+00
   -0.22258E-10         0.32713E-09         0.00000E+00
   -0.34767E-10         0.32649E-09         0.00000E+00
   -0.46746E-10         0.32482E-09         0.00000E+00
   -0.58215E-10         0.32215E-09         0.00000E+00
   -0.69191E-10         0.31851E-09         0.00000E+00
   -0.79688E-10         0.31393E-09         0.00000E+00
   -0.89714E-10         0.30843E-09         0.00000E+00
   -0.99278E-10         0.30205E-09         0.00000E+00
   -0.10838E-09         0.29479E-09         0.00000E+00
   -0.11703E-09         0.28669E-09         0.00000E+00
   -0.12523E-09         0.27777E-09         0.00000E+00
   -0.13297E-09         0.26803E-09         0.00000E+00
   -0.14025E-09         0.25751E-09         0.00000E+00
   -0.14708E-09         0.24623E-09         0.00000E+00
   -0.15346E-09         0.23420E-09         0.00000E+00
   -0.15938E-09         0.22145E-09         0.00000E+00
   -0.16485E-09         0.20800E-09         0.00000E+00
   -0.16987E-09         0.19390E-09         0.00000E+00
   -0.17446E-09         0.17920E-09         0.00000E+00
   -0.17861E-09         0.16394E-09         0.00000E+00
   -0.18236E-09         0.14821E-09         0.00000E+00
   -0.18571E-09         0.13210E-09         0.00000E+00
   -0.18869E-09         0.11573E-09         0.00000E+00
   -0.19131E-09         0.99264E-10         0.00000E+00
   -0.19360E-09         0.82883E-10         0.00000E+00
   -0.19559E-09         0.66820E-10         0.00000E+00
   -0.19729E-09         0.51357E-10         0.00000E+00
   -0.19871E-09         0.36831E-10         0.00000E+00
   -0.19984E-09         0.23644E-10         0.00000E+00
   -0.20067E-09         0.12271E-10         0.00000E+00
   -0.20113E-09         0.32716E-11         0.00000E+00
    0.29055E-09         0.25931E-10         0.00000E+00
    0.28491E-09         0.73987E-10         0.00000E+00
    0.27461E-09         0.11632E-09         0.00000E+00
    0.26075E-09         0.15313E-09         0.00000E+00
    0.24427E-09         0.18484E-09         0.00000E+00
    0.22599E-09         0.21200E-09         0.00000E+00
    0.20659E-09         0.23518E-09         0.00000E+00
    0.18660E-09         0.25493E-09         0.00000E+00
    0.16643E-09         0.27175E-09         0.00000E+00
    0.14638E-09         0.28606E-09         0.00000E+00
    0.12669E-09         0.29823E-09         0.00000E+00
    0.10750E-09         0.30850E-09         0.00000E+00
    0.88900E-10         0.31712E-09         0.00000E+00
    0.70947E-10         0.32422E-09         0.00000E+00
    0.53664E-10         0.32994E-09         0.00000E+00
    0.37054E-10         0.33437E-09         0.00000E+00
    0.21107E-10         0.33758E-09         0.00000E+00
    0.58029E-11         0.33963E-09         0.00000E+00
   -0.88803E-11         0.34056E-09         0.00000E+00
   -0.22967E-10         0.34042E-09         0.00000E+00
   -0.36480E-10         0.33923E-09         0.00000E+00
   -0.49442E-10         0.33703E-09         0.00000E+00
   -0.61872E-10         0.33385E-09         0.00000E+00
   -0.73785E-10         0.32971E-09         0.00000E+00
   -0.85197E-10         0.32464E-09         0.00000E+00
   -0.96116E-10         0.31867E-09         0.00000E+00
   -0.10655E-09         0.31181E-09         0.00000E+00
   -0.11651E-09         0.30409E-09         0.00000E+00
   -0.12599E-09         0.29553E-09         0.00000E+00
   -0.13500E-09         0.28614E-09         0.00000E+00
   -0.14354E-09         0.27594E-09         0.00000E+00
   -0.15161E-09         0.26496E-09         0.00000E+00
   -0.15920E-09         0.25321E-09         0.00000E+00
   -0.16633E-09         0.24071E-09         0.00000E+00
   -0.17298E-09         0.22750E-09         0.00000E+00
   -0.17916E-09         0.21360E-09         0.00000E+00
   -0.18488E-09         0.19904E-09         0.00000E+00
   -0.19013E-09         0.18389E-09         0.00000E+00
   -0.19492E-09         0.16820E-09         0.00000E+00
   -0.19926E-09         0.15204E-09         0.00000E+00
   -0.20317E-09         0.13552E-09         0.00000E+00
   -0.20665E-09         0.11876E-09         0.00000E+00
   -0.20972E-09         0.10193E-09         0.00000E+00
   -0.21240E-09         0.85195E-10         0.00000E+00
   -0.21471E-09         0.68802E-10         0.00000E+00
   -0.21666E-09         0.53024E-10         0.00000E+00
   -0.21826E-09         0.38187E-10         0.00000E+00
   -0.21952E-09         0.24678E-10         0.00000E+00
   -0.22040E-09         0.12949E-10         0.00000E+00
   -0.22088E-09         0.35266E-11         0.00000E+00
    0.30238E-09         0.28965E-10         0.00000E+00
    0.29670E-09         0.82280E-10         0.00000E+00
    0.28629E-09         0.12873E-09         0.00000E+00
    0.27223E-09         0.16864E-09         0.00000E+00
    0.25548E-09         0.20257E-09         0.00000E+00
    0.23683E-09         0.23120E-09         0.00000E+00
    0.21696E-09         0.25525E-09         0.00000E+00
    0.19640E-09         0.27540E-09         0.00000E+00
    0.17557E-09         0.29227E-09         0.00000E+00
    0.15478E-09         0.30637E-09         0.00000E+00
    0.13428E-09         0.31812E-09         0.00000E+00
    0.11421E-09         0.32787E-09         0.00000E+00
    0.94681E-10         0.33587E-09         0.00000E+00
    0.75764E-10         0.34233E-09         0.00000E+00
    0.57491E-10         0.34739E-09         0.00000E+00
    0.39875E-10         0.35115E-09         0.00000E+00
    0.22915E-10         0.35371E-09         0.00000E+00
    0.65986E-11         0.35512E-09         0.00000E+00
   -0.90904E-11         0.35544E-09         0.00000E+00
   -0.24171E-10         0.35470E-09         0.00000E+00
   -0.38664E-10         0.35295E-09         0.00000E+00
   -0.52589E-10         0.35020E-09         0.00000E+00
   -0.65962E-10         0.34648E-09         0.00000E+00
   -0.78800E-10         0.34183E-09         0.00000E+00
   -0.91117E-10         0.33625E-09         0.00000E+00
   -0.10292E-09         0.32978E-09         0.00000E+00
   -0.11422E-09         0.32244E-09         0.00000E+00
   -0.12503E-09         0.31423E-09         0.00000E+00
   -0.13535E-09         0.30518E-09         0.00000E+00
   -0.14517E-09         0.29531E-09         0.00000E+00
   -0.15451E-09         0.28464E-09         0.00000E+00
   -0.16336E-09         0.27318E-09         0.00000E+00
   -0.17173E-09         0.26095E-09         0.00000E+00
   -0.17961E-09         0.24797E-09         0.00000E+00
   -0.18699E-09         0.23428E-09         0.00000E+00
   -0.19389E-09         0.21990E-09         0.00000E+00
   -0.20029E-09         0.20487E-09         0.00000E+00
   -0.20621E-09         0.18923E-09         0.00000E+00
   -0.21163E-09         0.17307E-09         0.00000E+00
   -0.21657E-09         0.15645E-09         0.00000E+00
   -0.22103E-09         0.13948E-09         0.00000E+00
   -0.22502E-09         0.12228E-09         0.00000E+00
   -0.22854E-09         0.10501E-09         0.00000E+00
   -0.23162E-09         0.87866E-10         0.00000E+00
   -0.23425E-09         0.71074E-10         0.00000E+00
   -0.23646E-09         0.54909E-10         0.00000E+00
   -0.23825E-09         0.39693E-10         0.00000E+00
   -0.23962E-09         0.25800E-10         0.00000E+00
   -0.24057E-09         0.13665E-10         0.00000E+00
   -0.24107E-09         0.37870E-11         0.00000E+00
    0.31385E-09         0.32032E-10         0.00000E+00
    0.30807E-09         0.90676E-10         0.00000E+00
    0.29749E-09         0.14132E-09         0.00000E+00
    0.28318E-09         0.18441E-09         0.00000E+00
    0.26608E-09         0.22065E-09         0.00000E+00
    0.24700E-09         0.25085E-09         0.00000E+00
    0.22661E-09         0.27587E-09         0.00000E+00
    0.20545E-09         0.29651E-09         0.00000E+00
    0.18394E-09         0.31350E-09         0.00000E+00
    0.16241E-09         0.32745E-09         0.00000E+00
    0.14109E-09         0.33886E-09         0.00000E+00
    0.12015E-09         0.34813E-09         0.00000E+00
    0.99721E-10         0.35557E-09         0.00000E+00
    0.79866E-10         0.36141E-09         0.00000E+00
    0.60632E-10         0.36582E-09         0.00000E+00
    0.42041E-10         0.36893E-09         0.00000E+00
    0.24098E-10         0.37084E-09         0.00000E+00
    0.67988E-11         0.37161E-09         0.00000E+00
   -0.98682E-11         0.37131E-09         0.00000E+00
   -0.25918E-10         0.36997E-09         0.00000E+00
   -0.41369E-10         0.36763E-09         0.00000E+00
   -0.56236E-10         0.36431E-09         0.00000E+00
   -0.70537E-10         0.36004E-09         0.00000E+00
   -0.84286E-10         0.35485E-09         0.00000E+00
   -0.97497E-10         0.34875E-09         0.00000E+00
   -0.11018E-09         0.34177E-09         0.00000E+00
   -0.12234E-09         0.33392E-09         0.00000E+00
   -0.13400E-09         0.32521E-09         0.00000E+00
   -0.14514E-09         0.31567E-09         0.00000E+00
   -0.15578E-09         0.30530E-09         0.00000E+00
   -0.16592E-09         0.29413E-09         0.00000E+00
   -0.17556E-09         0.28218E-09         0.00000E+00
   -0.18470E-09         0.26945E-09         0.00000E+00
   -0.19333E-09         0.25598E-09         0.00000E+00
   -0.20146E-09         0.24179E-09         0.00000E+00
   -0.20907E-09         0.22690E-09         0.00000E+00
   -0.21617E-09         0.21137E-09         0.00000E+00
   -0.22276E-09         0.19523E-09         0.00000E+00
   -0.22882E-09         0.17856E-09         0.00000E+00
   -0.23436E-09         0.16144E-09         0.00000E+00
   -0.23938E-09         0.14397E-09         0.00000E+00
   -0.24388E-09         0.12627E-09         0.00000E+00
   -0.24787E-09         0.10852E-09         0.00000E+00
   -0.25134E-09         0.90901E-10         0.00000E+00
   -0.25431E-09         0.73644E-10         0.00000E+00
   -0.25679E-09         0.57025E-10         0.00000E+00
   -0.25879E-09         0.41362E-10         0.00000E+00
   -0.26030E-09         0.27022E-10         0.00000E+00
   -0.26133E-09         0.14427E-10         0.00000E+00
   -0.26187E-09         0.40571E-11         0.00000E+00
    0.32494E-09         0.35149E-10         0.00000E+00
    0.31905E-09         0.99219E-10         0.00000E+00
    0.30826E-09         0.15415E-09         0.00000E+00
    0.29363E-09         0.20052E-09         0.00000E+00
    0.27613E-09         0.23914E-09         0.00000E+00
    0.25656E-09         0.27100E-09         0.00000E+00
    0.23560E-09         0.29707E-09         0.00000E+00
    0.21380E-09         0.31828E-09         0.00000E+00
    0.19158E-09         0.33546E-09         0.00000E+00
    0.16928E-09         0.34933E-09         0.00000E+00
    0.14714E-09         0.36045E-09         0.00000E+00
    0.12535E-09         0.36928E-09         0.00000E+00
    0.10402E-09         0.37618E-09         0.00000E+00
    0.83249E-10         0.38142E-09         0.00000E+00
    0.63076E-10         0.38521E-09         0.00000E+00
    0.43534E-10         0.38767E-09         0.00000E+00
    0.24634E-10         0.38893E-09         0.00000E+00
    0.63769E-11         0.38907E-09         0.00000E+00
   -0.11244E-10         0.38814E-09         0.00000E+00
   -0.28241E-10         0.38618E-09         0.00000E+00
   -0.44628E-10         0.38325E-09         0.00000E+00
   -0.60420E-10         0.37935E-09         0.00000E+00
   -0.75632E-10         0.37452E-09         0.00000E+00
   -0.90279E-10         0.36877E-09         0.00000E+00
   -0.10437E-09         0.36214E-09         0.00000E+00
   -0.11792E-09         0.35462E-09         0.00000E+00
   -0.13094E-09         0.34625E-09         0.00000E+00
   -0.14344E-09         0.33702E-09         0.00000E+00
   -0.15541E-09         0.32697E-09         0.00000E+00
   -0.16687E-09         0.31610E-09         0.00000E+00
   -0.17781E-09         0.30442E-09         0.00000E+00
   -0.18824E-09         0.29196E-09         0.00000E+00
   -0.19815E-09         0.27872E-09         0.00000E+00
   -0.20754E-09         0.26474E-09         0.00000E+00
   -0.21641E-09         0.25002E-09         0.00000E+00
   -0.22475E-09         0.23462E-09         0.00000E+00
   -0.23256E-09         0.21856E-09         0.00000E+00
   -0.23982E-09         0.20189E-09         0.00000E+00
   -0.24653E-09         0.18468E-09         0.00000E+00
   -0.25269E-09         0.16702E-09         0.00000E+00
   -0.25829E-09         0.14900E-09         0.00000E+00
   -0.26332E-09         0.13077E-09         0.00000E+00
   -0.26778E-09         0.11247E-09         0.00000E+00
   -0.27168E-09         0.94317E-10         0.00000E+00
   -0.27501E-09         0.76531E-10         0.00000E+00
   -0.27778E-09         0.59389E-10         0.00000E+00
   -0.28000E-09         0.43212E-10         0.00000E+00
   -0.28168E-09         0.28361E-10         0.00000E+00
   -0.28281E-09         0.15250E-10         0.00000E+00
   -0.28338E-09         0.43425E-11         0.00000E+00
    0.33567E-09         0.38331E-10         0.00000E+00
    0.32964E-09         0.10795E-09         0.00000E+00
    0.31859E-09         0.16727E-09         0.00000E+00
    0.30360E-09         0.21701E-09         0.00000E+00
    0.28564E-09         0.25812E-09         0.00000E+00
    0.26553E-09         0.29170E-09         0.00000E+00
    0.24395E-09         0.31889E-09         0.00000E+00
    0.22147E-09         0.34074E-09         0.00000E+00
    0.19852E-09         0.35817E-09         0.00000E+00
    0.17543E-09         0.37200E-09         0.00000E+00
    0.15247E-09         0.38287E-09         0.00000E+00
    0.12982E-09         0.39130E-09         0.00000E+00
    0.10760E-09         0.39770E-09         0.00000E+00
    0.85917E-10         0.40237E-09         0.00000E+00
    0.64820E-10         0.40553E-09         0.00000E+00
    0.44345E-10         0.40736E-09         0.00000E+00
    0.24508E-10         0.40798E-09         0.00000E+00
    0.53146E-11         0.40747E-09         0.00000E+00
   -0.13239E-10         0.40591E-09         0.00000E+00
   -0.31163E-10         0.40333E-09         0.00000E+00
   -0.48467E-10         0.39979E-09         0.00000E+00
   -0.65167E-10         0.39530E-09         0.00000E+00
   -0.81275E-10         0.38989E-09         0.00000E+00
   -0.96805E-10         0.38358E-09         0.00000E+00
   -0.11177E-09         0.37639E-09         0.00000E+00
   -0.12618E-09         0.36833E-09         0.00000E+00
   -0.14005E-09         0.35942E-09         0.00000E+00
   -0.15338E-09         0.34967E-09         0.00000E+00
   -0.16618E-09         0.33909E-09         0.00000E+00
   -0.17845E-09         0.32770E-09         0.00000E+00
   -0.19019E-09         0.31551E-09         0.00000E+00
   -0.20141E-09         0.30252E-09         0.00000E+00
   -0.21211E-09         0.28876E-09         0.00000E+00
   -0.22227E-09         0.27425E-09         0.00000E+00
   -0.23189E-09         0.25900E-09         0.00000E+00
   -0.24096E-09         0.24305E-09         0.00000E+00
   -0.24948E-09         0.22644E-09         0.00000E+00
   -0.25744E-09         0.20922E-09         0.00000E+00
   -0.26482E-09         0.19144E-09         0.00000E+00
   -0.27161E-09         0.17321E-09         0.00000E+00
   -0.27780E-09         0.15461E-09         0.00000E+00
   -0.28339E-09         0.13578E-09         0.00000E+00
   -0.28835E-09         0.11689E-09         0.00000E+00
   -0.29270E-09         0.98140E-10         0.00000E+00
   -0.29642E-09         0.79760E-10         0.00000E+00
   -0.29952E-09         0.62030E-10         0.00000E+00
   -0.30199E-09         0.45269E-10         0.00000E+00
   -0.30386E-09         0.29840E-10         0.00000E+00
   -0.30510E-09         0.16149E-10         0.00000E+00
   -0.30574E-09         0.46500E-11         0.00000E+00
    0.34602E-09         0.41591E-10         0.00000E+00
    0.33984E-09         0.11689E-09         0.00000E+00
    0.32849E-09         0.18073E-09         0.00000E+00
    0.31309E-09         0.23394E-09         0.00000E+00
    0.29462E-09         0.27762E-09         0.00000E+00
    0.27392E-09         0.31301E-09         0.00000E+00
    0.25169E-09         0.34139E-09         0.00000E+00
    0.22849E-09         0.36392E-09         0.00000E+00
    0.20477E-09         0.38166E-09         0.00000E+00
    0.18088E-09         0.39549E-09         0.00000E+00
    0.15708E-09         0.40614E-09         0.00000E+00
    0.13356E-09         0.41420E-09         0.00000E+00
    0.11046E-09         0.42011E-09         0.00000E+00
    0.87871E-10         0.42422E-09         0.00000E+00
    0.65862E-10         0.42678E-09         0.00000E+00
    0.44468E-10         0.42798E-09         0.00000E+00
    0.23711E-10         0.42796E-09         0.00000E+00
    0.35988E-11         0.42680E-09         0.00000E+00
   -0.15870E-10         0.42460E-09         0.00000E+00
   -0.34701E-10         0.42140E-09         0.00000E+00
   -0.52906E-10         0.41723E-09         0.00000E+00
   -0.70496E-10         0.41214E-09         0.00000E+00
   -0.87484E-10         0.40614E-09         0.00000E+00
   -0.10388E-09         0.39926E-09         0.00000E+00
   -0.11971E-09         0.39150E-09         0.00000E+00
   -0.13497E-09         0.38289E-09         0.00000E+00
   -0.14968E-09         0.37344E-09         0.00000E+00
   -0.16384E-09         0.36315E-09         0.00000E+00
   -0.17746E-09         0.35204E-09         0.00000E+00
   -0.19054E-09         0.34011E-09         0.00000E+00
   -0.20309E-09         0.32739E-09         0.00000E+00
   -0.21511E-09         0.31387E-09         0.00000E+00
   -0.22658E-09         0.29958E-09         0.00000E+00
   -0.23752E-09         0.28453E-09         0.00000E+00
   -0.24790E-09         0.26873E-09         0.00000E+00
   -0.25773E-09         0.25223E-09         0.00000E+00
   -0.26698E-09         0.23504E-09         0.00000E+00
   -0.27564E-09         0.21724E-09         0.00000E+00
   -0.28371E-09         0.19887E-09         0.00000E+00
   -0.29116E-09         0.18002E-09         0.00000E+00
   -0.29797E-09         0.16080E-09         0.00000E+00
   -0.30414E-09         0.14134E-09         0.00000E+00
   -0.30965E-09         0.12181E-09         0.00000E+00
   -0.31448E-09         0.10240E-09         0.00000E+00
   -0.31862E-09         0.83366E-10         0.00000E+00
   -0.32208E-09         0.64980E-10         0.00000E+00
   -0.32485E-09         0.47566E-10         0.00000E+00
   -0.32693E-09         0.31485E-10         0.00000E+00
   -0.32832E-09         0.17144E-10         0.00000E+00
   -0.32903E-09         0.49873E-11         0.00000E+00
    0.35597E-09         0.44938E-10         0.00000E+00
    0.34962E-09         0.12608E-09         0.00000E+00
    0.33794E-09         0.19457E-09         0.00000E+00
    0.32209E-09         0.25135E-09         0.00000E+00
    0.30307E-09         0.29769E-09         0.00000E+00
    0.28174E-09         0.33497E-09         0.00000E+00
    0.25881E-09         0.36459E-09         0.00000E+00
    0.23486E-09         0.38786E-09         0.00000E+00
    0.21035E-09         0.40594E-09         0.00000E+00
    0.18563E-09         0.41981E-09         0.00000E+00
    0.16098E-09         0.43028E-09         0.00000E+00
    0.13658E-09         0.43798E-09         0.00000E+00
    0.11260E-09         0.44342E-09         0.00000E+00
    0.89111E-10         0.44698E-09         0.00000E+00
    0.66198E-10         0.44894E-09         0.00000E+00
    0.43898E-10         0.44951E-09         0.00000E+00
    0.22234E-10         0.44884E-09         0.00000E+00
    0.12189E-11         0.44704E-09         0.00000E+00
   -0.19148E-10         0.44420E-09         0.00000E+00
   -0.38870E-10         0.44036E-09         0.00000E+00
   -0.57958E-10         0.43557E-09         0.00000E+00
   -0.76423E-10         0.42986E-09         0.00000E+00
   -0.94277E-10         0.42326E-09         0.00000E+00
   -0.11153E-09         0.41579E-09         0.00000E+00
   -0.12821E-09         0.40746E-09         0.00000E+00
   -0.14431E-09         0.39829E-09         0.00000E+00
   -0.15985E-09         0.38828E-09         0.00000E+00
   -0.17483E-09         0.37745E-09         0.00000E+00
   -0.18927E-09         0.36580E-09         0.00000E+00
   -0.20316E-09         0.35334E-09         0.00000E+00
   -0.21652E-09         0.34007E-09         0.00000E+00
   -0.22933E-09         0.32602E-09         0.00000E+00
   -0.24160E-09         0.31118E-09         0.00000E+00
   -0.25332E-09         0.29558E-09         0.00000E+00
   -0.26448E-09         0.27922E-09         0.00000E+00
   -0.27507E-09         0.26214E-09         0.00000E+00
   -0.28507E-09         0.24438E-09         0.00000E+00
   -0.29446E-09         0.22597E-09         0.00000E+00
   -0.30324E-09         0.20698E-09         0.00000E+00
   -0.31138E-09         0.18749E-09         0.00000E+00
   -0.31885E-09         0.16761E-09         0.00000E+00
   -0.32563E-09         0.14748E-09         0.00000E+00
   -0.33171E-09         0.12725E-09         0.00000E+00
   -0.33707E-09         0.10714E-09         0.00000E+00
   -0.34169E-09         0.87389E-10         0.00000E+00
   -0.34555E-09         0.68279E-10         0.00000E+00
   -0.34865E-09         0.50138E-10         0.00000E+00
   -0.35098E-09         0.33329E-10         0.00000E+00
   -0.35255E-09         0.18258E-10         0.00000E+00
   -0.35334E-09         0.53632E-11         0.00000E+00
    0.36551E-09         0.48383E-10         0.00000E+00
    0.35896E-09         0.13554E-09         0.00000E+00
    0.34693E-09         0.20882E-09         0.00000E+00
    0.33059E-09         0.26929E-09         0.00000E+00
    0.31098E-09         0.31838E-09         0.00000E+00
    0.28898E-09         0.35761E-09         0.00000E+00
    0.26532E-09         0.38854E-09         0.00000E+00
    0.24059E-09         0.41260E-09         0.00000E+00
    0.21526E-09         0.43105E-09         0.00000E+00
    0.18969E-09         0.44499E-09         0.00000E+00
    0.16417E-09         0.45528E-09         0.00000E+00
    0.13890E-09         0.46265E-09         0.00000E+00
    0.11402E-09         0.46763E-09         0.00000E+00
    0.89636E-10         0.47065E-09         0.00000E+00
    0.65824E-10         0.47201E-09         0.00000E+00
    0.42627E-10         0.47195E-09         0.00000E+00
    0.20070E-10         0.47063E-09         0.00000E+00
   -0.18348E-11         0.46818E-09         0.00000E+00
   -0.23084E-10         0.46468E-09         0.00000E+00
   -0.43681E-10         0.46019E-09         0.00000E+00
   -0.63636E-10         0.45477E-09         0.00000E+00
   -0.82960E-10         0.44845E-09         0.00000E+00
   -0.10166E-09         0.44124E-09         0.00000E+00
   -0.11977E-09         0.43317E-09         0.00000E+00
   -0.13727E-09         0.42426E-09         0.00000E+00
   -0.15420E-09         0.41452E-09         0.00000E+00
   -0.17056E-09         0.40395E-09         0.00000E+00
   -0.18637E-09         0.39257E-09         0.00000E+00
   -0.20162E-09         0.38037E-09         0.00000E+00
   -0.21632E-09         0.36736E-09         0.00000E+00
   -0.23048E-09         0.35356E-09         0.00000E+00
   -0.24410E-09         0.33896E-09         0.00000E+00
   -0.25717E-09         0.32357E-09         0.00000E+00
   -0.26968E-09         0.30741E-09         0.00000E+00
   -0.28163E-09         0.29049E-09         0.00000E+00
   -0.29299E-09         0.27283E-09         0.00000E+00
   -0.30377E-09         0.25447E-09         0.00000E+00
   -0.31392E-09         0.23544E-09         0.00000E+00
   -0.32344E-09         0.21581E-09         0.00000E+00
   -0.33230E-09         0.19566E-09         0.00000E+00
   -0.34046E-09         0.17509E-09         0.00000E+00
   -0.34791E-09         0.15424E-09         0.00000E+00
   -0.35461E-09         0.13327E-09         0.00000E+00
   -0.36053E-09         0.11240E-09         0.00000E+00
   -0.36567E-09         0.91873E-10         0.00000E+00
   -0.36998E-09         0.71972E-10         0.00000E+00
   -0.37346E-09         0.53026E-10         0.00000E+00
   -0.37609E-09         0.35406E-10         0.00000E+00
   -0.37786E-09         0.19514E-10         0.00000E+00
   -0.37875E-09         0.57871E-11         0.00000E+00
    0.37459E-09         0.51934E-10         0.00000E+00
    0.36783E-09         0.14529E-09         0.00000E+00
    0.35543E-09         0.22350E-09         0.00000E+00
    0.33858E-09         0.28779E-09         0.00000E+00
    0.31834E-09         0.33972E-09         0.00000E+00
    0.29564E-09         0.38098E-09         0.00000E+00
    0.27121E-09         0.41327E-09         0.00000E+00
    0.24566E-09         0.43815E-09         0.00000E+00
    0.21949E-09         0.45701E-09         0.00000E+00
    0.19306E-09         0.47103E-09         0.00000E+00
    0.16665E-09         0.48117E-09         0.00000E+00
    0.14049E-09         0.48820E-09         0.00000E+00
    0.11471E-09         0.49273E-09         0.00000E+00
    0.89439E-10         0.49520E-09         0.00000E+00
    0.64734E-10         0.49597E-09         0.00000E+00
    0.40648E-10         0.49527E-09         0.00000E+00
    0.17208E-10         0.49330E-09         0.00000E+00
   -0.55718E-11         0.49019E-09         0.00000E+00
   -0.27689E-10         0.48603E-09         0.00000E+00
   -0.49146E-10         0.48089E-09         0.00000E+00
   -0.69951E-10         0.47483E-09         0.00000E+00
   -0.90118E-10         0.46788E-09         0.00000E+00
   -0.10966E-09         0.46005E-09         0.00000E+00
   -0.12859E-09         0.45139E-09         0.00000E+00
   -0.14692E-09         0.44189E-09         0.00000E+00
   -0.16466E-09         0.43157E-09         0.00000E+00
   -0.18184E-09         0.42044E-09         0.00000E+00
   -0.19845E-09         0.40850E-09         0.00000E+00
   -0.21451E-09         0.39575E-09         0.00000E+00
   -0.23002E-09         0.38220E-09         0.00000E+00
   -0.24499E-09         0.36785E-09         0.00000E+00
   -0.25941E-09         0.35271E-09         0.00000E+00
   -0.27329E-09         0.33677E-09         0.00000E+00
   -0.28661E-09         0.32005E-09         0.00000E+00
   -0.29936E-09         0.30255E-09         0.00000E+00
   -0.31153E-09         0.28431E-09         0.00000E+00
   -0.32309E-09         0.26533E-09         0.00000E+00
   -0.33404E-09         0.24567E-09         0.00000E+00
   -0.34433E-09         0.22538E-09         0.00000E+00
   -0.35394E-09         0.20455E-09         0.00000E+00
   -0.36284E-09         0.18326E-09         0.00000E+00
   -0.37099E-09         0.16166E-09         0.00000E+00
   -0.37836E-09         0.13992E-09         0.00000E+00
   -0.38491E-09         0.11824E-09         0.00000E+00
   -0.39061E-09         0.96871E-10         0.00000E+00
   -0.39543E-09         0.76106E-10         0.00000E+00
   -0.39934E-09         0.56277E-10         0.00000E+00
   -0.40231E-09         0.37753E-10         0.00000E+00
   -0.40431E-09         0.20939E-10         0.00000E+00
   -0.40533E-09         0.62694E-11         0.00000E+00
    0.38318E-09         0.55598E-10         0.00000E+00
    0.37621E-09         0.15535E-09         0.00000E+00
    0.36340E-09         0.23866E-09         0.00000E+00
    0.34601E-09         0.30688E-09         0.00000E+00
    0.32512E-09         0.36175E-09         0.00000E+00
    0.30168E-09         0.40510E-09         0.00000E+00
    0.27646E-09         0.43880E-09         0.00000E+00
    0.25007E-09         0.46454E-09         0.00000E+00
    0.22303E-09         0.48383E-09         0.00000E+00
    0.19572E-09         0.49795E-09         0.00000E+00
    0.16842E-09         0.50794E-09         0.00000E+00
    0.14135E-09         0.51465E-09         0.00000E+00
    0.11468E-09         0.51872E-09         0.00000E+00
    0.88511E-10         0.52065E-09         0.00000E+00
    0.62918E-10         0.52081E-09         0.00000E+00
    0.37952E-10         0.51948E-09         0.00000E+00
    0.13640E-10         0.51685E-09         0.00000E+00
   -0.10003E-10         0.51307E-09         0.00000E+00
   -0.32972E-10         0.50824E-09         0.00000E+00
   -0.55273E-10         0.50244E-09         0.00000E+00
   -0.76913E-10         0.49573E-09         0.00000E+00
   -0.97905E-10         0.48814E-09         0.00000E+00
   -0.11826E-09         0.47969E-09         0.00000E+00
   -0.13801E-09         0.47042E-09         0.00000E+00
   -0.15714E-09         0.46033E-09         0.00000E+00
   -0.17570E-09         0.44943E-09         0.00000E+00
   -0.19367E-09         0.43773E-09         0.00000E+00
   -0.21109E-09         0.42523E-09         0.00000E+00
   -0.22795E-09         0.41194E-09         0.00000E+00
   -0.24427E-09         0.39784E-09         0.00000E+00
   -0.26004E-09         0.38295E-09         0.00000E+00
   -0.27528E-09         0.36726E-09         0.00000E+00
   -0.28997E-09         0.35078E-09         0.00000E+00
   -0.30410E-09         0.33350E-09         0.00000E+00
   -0.31767E-09         0.31543E-09         0.00000E+00
   -0.33066E-09         0.29659E-09         0.00000E+00
   -0.34305E-09         0.27700E-09         0.00000E+00
   -0.35481E-09         0.25670E-09         0.00000E+00
   -0.36592E-09         0.23575E-09         0.00000E+00
   -0.37633E-09         0.21420E-09         0.00000E+00
   -0.38601E-09         0.19218E-09         0.00000E+00
   -0.39492E-09         0.16980E-09         0.00000E+00
   -0.40301E-09         0.14724E-09         0.00000E+00
   -0.41024E-09         0.12470E-09         0.00000E+00
   -0.41657E-09         0.10244E-09         0.00000E+00
   -0.42195E-09         0.80738E-10         0.00000E+00
   -0.42634E-09         0.59939E-10         0.00000E+00
   -0.42969E-09         0.40411E-10         0.00000E+00
   -0.43197E-09         0.22561E-10         0.00000E+00
   -0.43313E-09         0.68210E-11         0.00000E+00
    0.39124E-09         0.59380E-10         0.00000E+00
    0.38404E-09         0.16574E-09         0.00000E+00
    0.37082E-09         0.25430E-09         0.00000E+00
    0.35286E-09         0.32659E-09         0.00000E+00
    0.33130E-09         0.38449E-09         0.00000E+00
    0.30709E-09         0.43001E-09         0.00000E+00
    0.28104E-09         0.46517E-09         0.00000E+00
    0.25380E-09         0.49180E-09         0.00000E+00
    0.22587E-09         0.51154E-09         0.00000E+00
    0.19765E-09         0.52577E-09         0.00000E+00
    0.16945E-09         0.53563E-09         0.00000E+00
    0.14148E-09         0.54201E-09         0.00000E+00
    0.11390E-09         0.54562E-09         0.00000E+00
    0.86840E-10         0.54699E-09         0.00000E+00
    0.60364E-10         0.54654E-09         0.00000E+00
    0.34525E-10         0.54456E-09         0.00000E+00
    0.93525E-11         0.54125E-09         0.00000E+00
   -0.15139E-10         0.53679E-09         0.00000E+00
   -0.38946E-10         0.53129E-09         0.00000E+00
   -0.62073E-10         0.52482E-09         0.00000E+00
   -0.84530E-10         0.51745E-09         0.00000E+00
   -0.10633E-09         0.50921E-09         0.00000E+00
   -0.12749E-09         0.50014E-09         0.00000E+00
   -0.14803E-09         0.49025E-09         0.00000E+00
   -0.16796E-09         0.47957E-09         0.00000E+00
   -0.18730E-09         0.46809E-09         0.00000E+00
   -0.20607E-09         0.45582E-09         0.00000E+00
   -0.22428E-09         0.44277E-09         0.00000E+00
   -0.24194E-09         0.42892E-09         0.00000E+00
   -0.25905E-09         0.41429E-09         0.00000E+00
   -0.27564E-09         0.39886E-09         0.00000E+00
   -0.29168E-09         0.38263E-09         0.00000E+00
   -0.30720E-09         0.36560E-09         0.00000E+00
   -0.32216E-09         0.34777E-09         0.00000E+00
   -0.33657E-09         0.32914E-09         0.00000E+00
   -0.35041E-09         0.30971E-09         0.00000E+00
   -0.36365E-09         0.28951E-09         0.00000E+00
   -0.37626E-09         0.26857E-09         0.00000E+00
   -0.38821E-09         0.24694E-09         0.00000E+00
   -0.39947E-09         0.22468E-09         0.00000E+00
   -0.40998E-09         0.20190E-09         0.00000E+00
   -0.41970E-09         0.17871E-09         0.00000E+00
   -0.42857E-09         0.15530E-09         0.00000E+00
   -0.43655E-09         0.13185E-09         0.00000E+00
   -0.44357E-09         0.10863E-09         0.00000E+00
   -0.44957E-09         0.85924E-10         0.00000E+00
   -0.45450E-09         0.64065E-10         0.00000E+00
   -0.45829E-09         0.43426E-10         0.00000E+00
   -0.46088E-09         0.24412E-10         0.00000E+00
   -0.46220E-09         0.74539E-11         0.00000E+00
    0.39873E-09         0.63287E-10         0.00000E+00
    0.39130E-09         0.17646E-09         0.00000E+00
    0.37764E-09         0.27046E-09         0.00000E+00
    0.35909E-09         0.34694E-09         0.00000E+00
    0.33682E-09         0.40797E-09         0.00000E+00
    0.31183E-09         0.45573E-09         0.00000E+00
    0.28494E-09         0.49239E-09         0.00000E+00
    0.25681E-09         0.51995E-09         0.00000E+00
    0.22798E-09         0.54015E-09         0.00000E+00
    0.19884E-09         0.55451E-09         0.00000E+00
    0.16972E-09         0.56422E-09         0.00000E+00
    0.14084E-09         0.57027E-09         0.00000E+00
    0.11236E-09         0.57341E-09         0.00000E+00
    0.84409E-10         0.57422E-09         0.00000E+00
    0.57055E-10         0.57314E-09         0.00000E+00
    0.30353E-10         0.57049E-09         0.00000E+00
    0.43320E-11         0.56651E-09         0.00000E+00
   -0.20994E-10         0.56136E-09         0.00000E+00
   -0.45622E-10         0.55516E-09         0.00000E+00
   -0.69557E-10         0.54801E-09         0.00000E+00
   -0.92813E-10         0.53997E-09         0.00000E+00
   -0.11540E-09         0.53108E-09         0.00000E+00
   -0.13735E-09         0.52137E-09         0.00000E+00
   -0.15866E-09         0.51087E-09         0.00000E+00
   -0.17937E-09         0.49959E-09         0.00000E+00
   -0.19948E-09         0.48752E-09         0.00000E+00
   -0.21903E-09         0.47469E-09         0.00000E+00
   -0.23801E-09         0.46109E-09         0.00000E+00
   -0.25646E-09         0.44671E-09         0.00000E+00
   -0.27437E-09         0.43154E-09         0.00000E+00
   -0.29176E-09         0.41558E-09         0.00000E+00
   -0.30863E-09         0.39883E-09         0.00000E+00
   -0.32497E-09         0.38126E-09         0.00000E+00
   -0.34078E-09         0.36289E-09         0.00000E+00
   -0.35605E-09         0.34369E-09         0.00000E+00
   -0.37075E-09         0.32369E-09         0.00000E+00
   -0.38487E-09         0.30289E-09         0.00000E+00
   -0.39837E-09         0.28131E-09         0.00000E+00
   -0.41122E-09         0.25900E-09         0.00000E+00
   -0.42336E-09         0.23602E-09         0.00000E+00
   -0.43476E-09         0.21247E-09         0.00000E+00
   -0.44535E-09         0.18846E-09         0.00000E+00
   -0.45507E-09         0.16415E-09         0.00000E+00
   -0.46386E-09         0.13976E-09         0.00000E+00
   -0.47164E-09         0.11552E-09         0.00000E+00
   -0.47833E-09         0.91729E-10         0.00000E+00
   -0.48386E-09         0.68712E-10         0.00000E+00
   -0.48813E-09         0.46843E-10         0.00000E+00
   -0.49108E-09         0.26523E-10         0.00000E+00
   -0.49259E-09         0.81807E-11         0.00000E+00
    0.40560E-09         0.67323E-10         0.00000E+00
    0.39792E-09         0.18754E-09         0.00000E+00
    0.38381E-09         0.28714E-09         0.00000E+00
    0.36466E-09         0.36796E-09         0.00000E+00
    0.34167E-09         0.43221E-09         0.00000E+00
    0.31587E-09         0.48228E-09         0.00000E+00
    0.28811E-09         0.52049E-09         0.00000E+00
    0.25908E-09         0.54900E-09         0.00000E+00
    0.22932E-09         0.56969E-09         0.00000E+00
    0.19926E-09         0.58416E-09         0.00000E+00
    0.16922E-09         0.59373E-09         0.00000E+00
    0.13942E-09         0.59944E-09         0.00000E+00
    0.11004E-09         0.60210E-09         0.00000E+00
    0.81196E-10         0.60233E-09         0.00000E+00
    0.52972E-10         0.60061E-09         0.00000E+00
    0.25418E-10         0.59728E-09         0.00000E+00
   -0.14380E-11         0.59260E-09         0.00000E+00
   -0.27582E-10         0.58674E-09         0.00000E+00
   -0.53013E-10         0.57984E-09         0.00000E+00
   -0.77738E-10         0.57200E-09         0.00000E+00
   -0.10177E-09         0.56327E-09         0.00000E+00
   -0.12513E-09         0.55372E-09         0.00000E+00
   -0.14783E-09         0.54338E-09         0.00000E+00
   -0.16990E-09         0.53225E-09         0.00000E+00
   -0.19136E-09         0.52037E-09         0.00000E+00
   -0.21223E-09         0.50773E-09         0.00000E+00
   -0.23254E-09         0.49434E-09         0.00000E+00
   -0.25229E-09         0.48019E-09         0.00000E+00
   -0.27152E-09         0.46527E-09         0.00000E+00
   -0.29022E-09         0.44959E-09         0.00000E+00
   -0.30841E-09         0.43312E-09         0.00000E+00
   -0.32610E-09         0.41585E-09         0.00000E+00
   -0.34328E-09         0.39777E-09         0.00000E+00
   -0.35994E-09         0.37886E-09         0.00000E+00
   -0.37608E-09         0.35913E-09         0.00000E+00
   -0.39168E-09         0.33856E-09         0.00000E+00
   -0.40671E-09         0.31716E-09         0.00000E+00
   -0.42114E-09         0.29496E-09         0.00000E+00
   -0.43492E-09         0.27198E-09         0.00000E+00
   -0.44801E-09         0.24828E-09         0.00000E+00
   -0.46035E-09         0.22395E-09         0.00000E+00
   -0.47187E-09         0.19909E-09         0.00000E+00
   -0.48251E-09         0.17388E-09         0.00000E+00
   -0.49218E-09         0.14849E-09         0.00000E+00
   -0.50079E-09         0.12318E-09         0.00000E+00
   -0.50824E-09         0.98219E-10         0.00000E+00
   -0.51444E-09         0.73943E-10         0.00000E+00
   -0.51926E-09         0.50714E-10         0.00000E+00
   -0.52260E-09         0.28931E-10         0.00000E+00
   -0.52433E-09         0.90148E-11         0.00000E+00
    0.41180E-09         0.71492E-10         0.00000E+00
    0.40387E-09         0.19899E-09         0.00000E+00
    0.38930E-09         0.30438E-09         0.00000E+00
    0.36952E-09         0.38966E-09         0.00000E+00
    0.34579E-09         0.45724E-09         0.00000E+00
    0.31916E-09         0.50968E-09         0.00000E+00
    0.29052E-09         0.54949E-09         0.00000E+00
    0.26057E-09         0.57898E-09         0.00000E+00
    0.22988E-09         0.60016E-09         0.00000E+00
    0.19888E-09         0.61475E-09         0.00000E+00
    0.16790E-09         0.62417E-09         0.00000E+00
    0.13719E-09         0.62952E-09         0.00000E+00
    0.10690E-09         0.63168E-09         0.00000E+00
    0.77179E-10         0.63132E-09         0.00000E+00
    0.48094E-10         0.62894E-09         0.00000E+00
    0.19699E-10         0.62491E-09         0.00000E+00
   -0.79768E-11         0.61950E-09         0.00000E+00
   -0.34921E-10         0.61292E-09         0.00000E+00
   -0.61134E-10         0.60530E-09         0.00000E+00
   -0.86626E-10         0.59675E-09         0.00000E+00
   -0.11141E-09         0.58734E-09         0.00000E+00
   -0.13551E-09         0.57712E-09         0.00000E+00
   -0.15895E-09         0.56612E-09         0.00000E+00
   -0.18176E-09         0.55438E-09         0.00000E+00
   -0.20395E-09         0.54190E-09         0.00000E+00
   -0.22556E-09         0.52868E-09         0.00000E+00
   -0.24660E-09         0.51473E-09         0.00000E+00
   -0.26711E-09         0.50005E-09         0.00000E+00
   -0.28709E-09         0.48462E-09         0.00000E+00
   -0.30658E-09         0.46843E-09         0.00000E+00
   -0.32557E-09         0.45146E-09         0.00000E+00
   -0.34407E-09         0.43370E-09         0.00000E+00
   -0.36209E-09         0.41512E-09         0.00000E+00
   -0.37963E-09         0.39571E-09         0.00000E+00
   -0.39666E-09         0.37546E-09         0.00000E+00
   -0.41318E-09         0.35435E-09         0.00000E+00
   -0.42915E-09         0.33238E-09         0.00000E+00
   -0.44454E-09         0.30956E-09         0.00000E+00
   -0.45931E-09         0.28592E-09         0.00000E+00
   -0.47339E-09         0.26151E-09         0.00000E+00
   -0.48674E-09         0.23640E-09         0.00000E+00
   -0.49927E-09         0.21069E-09         0.00000E+00
   -0.51089E-09         0.18454E-09         0.00000E+00
   -0.52151E-09         0.15812E-09         0.00000E+00
   -0.53103E-09         0.13167E-09         0.00000E+00
   -0.53932E-09         0.10547E-09         0.00000E+00
   -0.54625E-09         0.79821E-10         0.00000E+00
   -0.55168E-09         0.55093E-10         0.00000E+00
   -0.55547E-09         0.31671E-10         0.00000E+00
   -0.55743E-09         0.99705E-11         0.00000E+00
    0.41727E-09         0.75798E-10         0.00000E+00
    0.40908E-09         0.21080E-09         0.00000E+00
    0.39404E-09         0.32217E-09         0.00000E+00
    0.37363E-09         0.41205E-09         0.00000E+00
    0.34914E-09         0.48307E-09         0.00000E+00
    0.32166E-09         0.53796E-09         0.00000E+00
    0.29212E-09         0.57941E-09         0.00000E+00
    0.26124E-09         0.60989E-09         0.00000E+00
    0.22961E-09         0.63157E-09         0.00000E+00
    0.19766E-09         0.64628E-09         0.00000E+00
    0.16575E-09         0.65553E-09         0.00000E+00
    0.13411E-09         0.66051E-09         0.00000E+00
    0.10293E-09         0.66215E-09         0.00000E+00
    0.72329E-10         0.66117E-09         0.00000E+00
    0.42393E-10         0.65811E-09         0.00000E+00
    0.13172E-10         0.65335E-09         0.00000E+00
   -0.15306E-10         0.64721E-09         0.00000E+00
   -0.43030E-10         0.63988E-09         0.00000E+00
   -0.70002E-10         0.63153E-09         0.00000E+00
   -0.96236E-10         0.62225E-09         0.00000E+00
   -0.12175E-09         0.61214E-09         0.00000E+00
   -0.14657E-09         0.60124E-09         0.00000E+00
   -0.17072E-09         0.58959E-09         0.00000E+00
   -0.19422E-09         0.57722E-09         0.00000E+00
   -0.21712E-09         0.56414E-09         0.00000E+00
   -0.23944E-09         0.55036E-09         0.00000E+00
   -0.26120E-09         0.53587E-09         0.00000E+00
   -0.28244E-09         0.52066E-09         0.00000E+00
   -0.30317E-09         0.50473E-09         0.00000E+00
   -0.32342E-09         0.48805E-09         0.00000E+00
   -0.34320E-09         0.47061E-09         0.00000E+00
   -0.36253E-09         0.45237E-09         0.00000E+00
   -0.38140E-09         0.43333E-09         0.00000E+00
   -0.39981E-09         0.41345E-09         0.00000E+00
   -0.41775E-09         0.39270E-09         0.00000E+00
   -0.43521E-09         0.37108E-09         0.00000E+00
   -0.45216E-09         0.34856E-09         0.00000E+00
   -0.46856E-09         0.32516E-09         0.00000E+00
   -0.48435E-09         0.30089E-09         0.00000E+00
   -0.49950E-09         0.27577E-09         0.00000E+00
   -0.51391E-09         0.24989E-09         0.00000E+00
   -0.52751E-09         0.22333E-09         0.00000E+00
   -0.54019E-09         0.19622E-09         0.00000E+00
   -0.55185E-09         0.16873E-09         0.00000E+00
   -0.56236E-09         0.14109E-09         0.00000E+00
   -0.57156E-09         0.11355E-09         0.00000E+00
   -0.57931E-09         0.86417E-10         0.00000E+00
   -0.58542E-09         0.60037E-10         0.00000E+00
   -0.58969E-09         0.34784E-10         0.00000E+00
   -0.59193E-09         0.11063E-10         0.00000E+00
    0.42197E-09         0.80245E-10         0.00000E+00
    0.41352E-09         0.22301E-09         0.00000E+00
    0.39799E-09         0.34053E-09         0.00000E+00
    0.37693E-09         0.43517E-09         0.00000E+00
    0.35166E-09         0.50971E-09         0.00000E+00
    0.32333E-09         0.56711E-09         0.00000E+00
    0.29288E-09         0.61025E-09         0.00000E+00
    0.26105E-09         0.64175E-09         0.00000E+00
    0.22846E-09         0.66393E-09         0.00000E+00
    0.19557E-09         0.67876E-09         0.00000E+00
    0.16271E-09         0.68782E-09         0.00000E+00
    0.13016E-09         0.69241E-09         0.00000E+00
    0.98081E-10         0.69351E-09         0.00000E+00
    0.66614E-10         0.69188E-09         0.00000E+00
    0.35840E-10         0.68811E-09         0.00000E+00
    0.58094E-11         0.68261E-09         0.00000E+00
   -0.23450E-10         0.67569E-09         0.00000E+00
   -0.51930E-10         0.66760E-09         0.00000E+00
   -0.79636E-10         0.65849E-09         0.00000E+00
   -0.10658E-09         0.64847E-09         0.00000E+00
   -0.13280E-09         0.63764E-09         0.00000E+00
   -0.15830E-09         0.62605E-09         0.00000E+00
   -0.18312E-09         0.61375E-09         0.00000E+00
   -0.20731E-09         0.60075E-09         0.00000E+00
   -0.23088E-09         0.58708E-09         0.00000E+00
   -0.25388E-09         0.57273E-09         0.00000E+00
   -0.27633E-09         0.55771E-09         0.00000E+00
   -0.29828E-09         0.54200E-09         0.00000E+00
   -0.31974E-09         0.52558E-09         0.00000E+00
   -0.34074E-09         0.50845E-09         0.00000E+00
   -0.36130E-09         0.49056E-09         0.00000E+00
   -0.38144E-09         0.47189E-09         0.00000E+00
   -0.40115E-09         0.45240E-09         0.00000E+00
   -0.42045E-09         0.43208E-09         0.00000E+00
   -0.43932E-09         0.41088E-09         0.00000E+00
   -0.45775E-09         0.38878E-09         0.00000E+00
   -0.47570E-09         0.36576E-09         0.00000E+00
   -0.49315E-09         0.34180E-09         0.00000E+00
   -0.51003E-09         0.31692E-09         0.00000E+00
   -0.52628E-09         0.29113E-09         0.00000E+00
   -0.54183E-09         0.26449E-09         0.00000E+00
   -0.55657E-09         0.23707E-09         0.00000E+00
   -0.57040E-09         0.20899E-09         0.00000E+00
   -0.58318E-09         0.18040E-09         0.00000E+00
   -0.59476E-09         0.15151E-09         0.00000E+00
   -0.60497E-09         0.12254E-09         0.00000E+00
   -0.61361E-09         0.93804E-10         0.00000E+00
   -0.62046E-09         0.65607E-10         0.00000E+00
   -0.62528E-09         0.38312E-10         0.00000E+00
   -0.62782E-09         0.12309E-10         0.00000E+00
    0.42584E-09         0.84836E-10         0.00000E+00
    0.41711E-09         0.23560E-09         0.00000E+00
    0.40109E-09         0.35948E-09         0.00000E+00
    0.37937E-09         0.45901E-09         0.00000E+00
    0.35332E-09         0.53719E-09         0.00000E+00
    0.32411E-09         0.59717E-09         0.00000E+00
    0.29273E-09         0.64203E-09         0.00000E+00
    0.25996E-09         0.67457E-09         0.00000E+00
    0.22640E-09         0.69726E-09         0.00000E+00
    0.19255E-09         0.71218E-09         0.00000E+00
    0.15875E-09         0.72105E-09         0.00000E+00
    0.12528E-09         0.72521E-09         0.00000E+00
    0.92319E-10         0.72574E-09         0.00000E+00
    0.59997E-10         0.72344E-09         0.00000E+00
    0.28401E-10         0.71892E-09         0.00000E+00
   -0.24190E-11         0.71264E-09         0.00000E+00
   -0.32437E-10         0.70494E-09         0.00000E+00
   -0.61647E-10         0.69605E-09         0.00000E+00
   -0.90057E-10         0.68615E-09         0.00000E+00
   -0.11769E-09         0.67538E-09         0.00000E+00
   -0.14456E-09         0.66382E-09         0.00000E+00
   -0.17071E-09         0.65153E-09         0.00000E+00
   -0.19618E-09         0.63857E-09         0.00000E+00
   -0.22100E-09         0.62494E-09         0.00000E+00
   -0.24521E-09         0.61068E-09         0.00000E+00
   -0.26886E-09         0.59578E-09         0.00000E+00
   -0.29197E-09         0.58024E-09         0.00000E+00
   -0.31459E-09         0.56404E-09         0.00000E+00
   -0.33676E-09         0.54717E-09         0.00000E+00
   -0.35849E-09         0.52960E-09         0.00000E+00
   -0.37982E-09         0.51129E-09         0.00000E+00
   -0.40076E-09         0.49222E-09         0.00000E+00
   -0.42132E-09         0.47235E-09         0.00000E+00
   -0.44151E-09         0.45163E-09         0.00000E+00
   -0.46133E-09         0.43002E-09         0.00000E+00
   -0.48074E-09         0.40749E-09         0.00000E+00
   -0.49974E-09         0.38400E-09         0.00000E+00
   -0.51827E-09         0.35954E-09         0.00000E+00
   -0.53628E-09         0.33408E-09         0.00000E+00
   -0.55371E-09         0.30765E-09         0.00000E+00
   -0.57046E-09         0.28027E-09         0.00000E+00
   -0.58643E-09         0.25200E-09         0.00000E+00
   -0.60148E-09         0.22294E-09         0.00000E+00
   -0.61547E-09         0.19322E-09         0.00000E+00
   -0.62822E-09         0.16301E-09         0.00000E+00
   -0.63952E-09         0.13254E-09         0.00000E+00
   -0.64913E-09         0.10206E-09         0.00000E+00
   -0.65680E-09         0.71868E-10         0.00000E+00
   -0.66222E-09         0.42300E-10         0.00000E+00
   -0.66509E-09         0.13725E-10         0.00000E+00
    0.42881E-09         0.89572E-10         0.00000E+00
    0.41981E-09         0.24859E-09         0.00000E+00
    0.40329E-09         0.37902E-09         0.00000E+00
    0.38089E-09         0.48359E-09         0.00000E+00
    0.35404E-09         0.56551E-09         0.00000E+00
    0.32396E-09         0.62814E-09         0.00000E+00
    0.29164E-09         0.67476E-09         0.00000E+00
    0.25790E-09         0.70835E-09         0.00000E+00
    0.22337E-09         0.73155E-09         0.00000E+00
    0.18856E-09         0.74656E-09         0.00000E+00
    0.15383E-09         0.75520E-09         0.00000E+00
    0.11944E-09         0.75892E-09         0.00000E+00
    0.85602E-10         0.75884E-09         0.00000E+00
    0.52439E-10         0.75582E-09         0.00000E+00
    0.20039E-10         0.75053E-09         0.00000E+00
   -0.11548E-10         0.74344E-09         0.00000E+00
   -0.42298E-10         0.73491E-09         0.00000E+00
   -0.72207E-10         0.72520E-09         0.00000E+00
   -0.10129E-09         0.71450E-09         0.00000E+00
   -0.12956E-09         0.70294E-09         0.00000E+00
   -0.15706E-09         0.69063E-09         0.00000E+00
   -0.18382E-09         0.67764E-09         0.00000E+00
   -0.20989E-09         0.66400E-09         0.00000E+00
   -0.23530E-09         0.64975E-09         0.00000E+00
   -0.26012E-09         0.63490E-09         0.00000E+00
   -0.28437E-09         0.61946E-09         0.00000E+00
   -0.30811E-09         0.60341E-09         0.00000E+00
   -0.33137E-09         0.58675E-09         0.00000E+00
   -0.35421E-09         0.56945E-09         0.00000E+00
   -0.37665E-09         0.55148E-09         0.00000E+00
   -0.39872E-09         0.53281E-09         0.00000E+00
   -0.42045E-09         0.51338E-09         0.00000E+00
   -0.44186E-09         0.49316E-09         0.00000E+00
   -0.46294E-09         0.47209E-09         0.00000E+00
   -0.48371E-09         0.45013E-09         0.00000E+00
   -0.50414E-09         0.42722E-09         0.00000E+00
   -0.52420E-09         0.40333E-09         0.00000E+00
   -0.54386E-09         0.37840E-09         0.00000E+00
   -0.56306E-09         0.35243E-09         0.00000E+00
   -0.58172E-09         0.32539E-09         0.00000E+00
   -0.59975E-09         0.29730E-09         0.00000E+00
   -0.61702E-09         0.26820E-09         0.00000E+00
   -0.63338E-09         0.23816E-09         0.00000E+00
   -0.64868E-09         0.20728E-09         0.00000E+00
   -0.66269E-09         0.17571E-09         0.00000E+00
   -0.67517E-09         0.14363E-09         0.00000E+00
   -0.68585E-09         0.11127E-09         0.00000E+00
   -0.69441E-09         0.78888E-10         0.00000E+00
   -0.70050E-09         0.46795E-10         0.00000E+00
   -0.70374E-09         0.15330E-10         0.00000E+00
    0.43083E-09         0.94458E-10         0.00000E+00
    0.42155E-09         0.26199E-09         0.00000E+00
    0.40452E-09         0.39917E-09         0.00000E+00
    0.38144E-09         0.50892E-09         0.00000E+00
    0.35378E-09         0.59468E-09         0.00000E+00
    0.32280E-09         0.66003E-09         0.00000E+00
    0.28953E-09         0.70845E-09         0.00000E+00
    0.25482E-09         0.74311E-09         0.00000E+00
    0.21932E-09         0.76681E-09         0.00000E+00
    0.18355E-09         0.78189E-09         0.00000E+00
    0.14788E-09         0.79028E-09         0.00000E+00
    0.11259E-09         0.79351E-09         0.00000E+00
    0.77882E-10         0.79279E-09         0.00000E+00
    0.43894E-10         0.78902E-09         0.00000E+00
    0.10711E-10         0.78291E-09         0.00000E+00
   -0.21617E-10         0.77497E-09         0.00000E+00
   -0.53067E-10         0.76558E-09         0.00000E+00
   -0.83641E-10         0.75501E-09         0.00000E+00
   -0.11335E-09         0.74347E-09         0.00000E+00
   -0.14223E-09         0.73111E-09         0.00000E+00
   -0.17031E-09         0.71804E-09         0.00000E+00
   -0.19763E-09         0.70432E-09         0.00000E+00
   -0.22425E-09         0.69000E-09         0.00000E+00
   -0.25022E-09         0.67512E-09         0.00000E+00
   -0.27558E-09         0.65970E-09         0.00000E+00
   -0.30039E-09         0.64372E-09         0.00000E+00
   -0.32471E-09         0.62720E-09         0.00000E+00
   -0.34858E-09         0.61010E-09         0.00000E+00
   -0.37205E-09         0.59241E-09         0.00000E+00
   -0.39517E-09         0.57408E-09         0.00000E+00
   -0.41796E-09         0.55508E-09         0.00000E+00
   -0.44047E-09         0.53535E-09         0.00000E+00
   -0.46271E-09         0.51483E-09         0.00000E+00
   -0.48469E-09         0.49348E-09         0.00000E+00
   -0.50641E-09         0.47123E-09         0.00000E+00
   -0.52787E-09         0.44801E-09         0.00000E+00
   -0.54903E-09         0.42377E-09         0.00000E+00
   -0.56986E-09         0.39845E-09         0.00000E+00
   -0.59030E-09         0.37201E-09         0.00000E+00
   -0.61025E-09         0.34442E-09         0.00000E+00
   -0.62963E-09         0.31567E-09         0.00000E+00
   -0.64828E-09         0.28576E-09         0.00000E+00
   -0.66606E-09         0.25474E-09         0.00000E+00
   -0.68275E-09         0.22268E-09         0.00000E+00
   -0.69812E-09         0.18969E-09         0.00000E+00
   -0.71189E-09         0.15591E-09         0.00000E+00
   -0.72373E-09         0.12151E-09         0.00000E+00
   -0.73327E-09         0.86740E-10         0.00000E+00
   -0.74008E-09         0.51847E-10         0.00000E+00
   -0.74372E-09         0.17142E-10         0.00000E+00
    0.43184E-09         0.99494E-10         0.00000E+00
    0.42228E-09         0.27579E-09         0.00000E+00
    0.40473E-09         0.41993E-09         0.00000E+00
    0.38096E-09         0.53502E-09         0.00000E+00
    0.35248E-09         0.62473E-09         0.00000E+00
    0.32059E-09         0.69286E-09         0.00000E+00
    0.28636E-09         0.74311E-09         0.00000E+00
    0.25067E-09         0.77885E-09         0.00000E+00
    0.21420E-09         0.80304E-09         0.00000E+00
    0.17746E-09         0.81817E-09         0.00000E+00
    0.14085E-09         0.82628E-09         0.00000E+00
    0.10467E-09         0.82899E-09         0.00000E+00
    0.69106E-10         0.82758E-09         0.00000E+00
    0.34312E-10         0.82302E-09         0.00000E+00
    0.37081E-12         0.81604E-09         0.00000E+00
   -0.32668E-10         0.80721E-09         0.00000E+00
   -0.64785E-10         0.79691E-09         0.00000E+00
   -0.95983E-10         0.78545E-09         0.00000E+00
   -0.12628E-09         0.77304E-09         0.00000E+00
   -0.15571E-09         0.75985E-09         0.00000E+00
   -0.18432E-09         0.74599E-09         0.00000E+00
   -0.21216E-09         0.73153E-09         0.00000E+00
   -0.23928E-09         0.71653E-09         0.00000E+00
   -0.26573E-09         0.70102E-09         0.00000E+00
   -0.29159E-09         0.68502E-09         0.00000E+00
   -0.31692E-09         0.66853E-09         0.00000E+00
   -0.34176E-09         0.65155E-09         0.00000E+00
   -0.36619E-09         0.63405E-09         0.00000E+00
   -0.39025E-09         0.61600E-09         0.00000E+00
   -0.41401E-09         0.59736E-09         0.00000E+00
   -0.43749E-09         0.57808E-09         0.00000E+00
   -0.46075E-09         0.55810E-09         0.00000E+00
   -0.48380E-09         0.53737E-09         0.00000E+00
   -0.50667E-09         0.51580E-09         0.00000E+00
   -0.52936E-09         0.49333E-09         0.00000E+00
   -0.55186E-09         0.46987E-09         0.00000E+00
   -0.57415E-09         0.44536E-09         0.00000E+00
   -0.59619E-09         0.41973E-09         0.00000E+00
   -0.61791E-09         0.39289E-09         0.00000E+00
   -0.63922E-09         0.36481E-09         0.00000E+00
   -0.66002E-09         0.33545E-09         0.00000E+00
   -0.68015E-09         0.30477E-09         0.00000E+00
   -0.69942E-09         0.27279E-09         0.00000E+00
   -0.71761E-09         0.23953E-09         0.00000E+00
   -0.73445E-09         0.20506E-09         0.00000E+00
   -0.74961E-09         0.16947E-09         0.00000E+00
   -0.76271E-09         0.13289E-09         0.00000E+00
   -0.77331E-09         0.95502E-10         0.00000E+00
   -0.78092E-09         0.57510E-10         0.00000E+00
   -0.78499E-09         0.19184E-10         0.00000E+00
    0.43178E-09         0.10469E-09         0.00000E+00
    0.42193E-09         0.29002E-09         0.00000E+00
    0.40386E-09         0.44131E-09         0.00000E+00
    0.37938E-09         0.56189E-09         0.00000E+00
    0.35006E-09         0.65565E-09         0.00000E+00
    0.31726E-09         0.72663E-09         0.00000E+00
    0.28207E-09         0.77875E-09         0.00000E+00
    0.24539E-09         0.81558E-09         0.00000E+00
    0.20792E-09         0.84025E-09         0.00000E+00
    0.17022E-09         0.85540E-09         0.00000E+00
    0.13268E-09         0.86319E-09         0.00000E+00
    0.95613E-10         0.86533E-09         0.00000E+00
    0.59217E-10         0.86319E-09         0.00000E+00
    0.23638E-10         0.85778E-09         0.00000E+00
   -0.11034E-10         0.84989E-09         0.00000E+00
   -0.44751E-10         0.84011E-09         0.00000E+00
   -0.77496E-10         0.82886E-09         0.00000E+00
   -0.10927E-09         0.81647E-09         0.00000E+00
   -0.14011E-09         0.80316E-09         0.00000E+00
   -0.17004E-09         0.78910E-09         0.00000E+00
   -0.19913E-09         0.77443E-09         0.00000E+00
   -0.22741E-09         0.75921E-09         0.00000E+00
   -0.25496E-09         0.74351E-09         0.00000E+00
   -0.28185E-09         0.72738E-09         0.00000E+00
   -0.30815E-09         0.71081E-09         0.00000E+00
   -0.33391E-09         0.69383E-09         0.00000E+00
   -0.35923E-09         0.67642E-09         0.00000E+00
   -0.38416E-09         0.65854E-09         0.00000E+00
   -0.40876E-09         0.64018E-09         0.00000E+00
   -0.43311E-09         0.62128E-09         0.00000E+00
   -0.45724E-09         0.60178E-09         0.00000E+00
   -0.48122E-09         0.58163E-09         0.00000E+00
   -0.50506E-09         0.56074E-09         0.00000E+00
   -0.52881E-09         0.53904E-09         0.00000E+00
   -0.55246E-09         0.51643E-09         0.00000E+00
   -0.57602E-09         0.49283E-09         0.00000E+00
   -0.59946E-09         0.46814E-09         0.00000E+00
   -0.62274E-09         0.44227E-09         0.00000E+00
   -0.64580E-09         0.41513E-09         0.00000E+00
   -0.66853E-09         0.38663E-09         0.00000E+00
   -0.69083E-09         0.35672E-09         0.00000E+00
   -0.71251E-09         0.32531E-09         0.00000E+00
   -0.73338E-09         0.29239E-09         0.00000E+00
   -0.75318E-09         0.25792E-09         0.00000E+00
   -0.77160E-09         0.22192E-09         0.00000E+00
   -0.78826E-09         0.18442E-09         0.00000E+00
   -0.80273E-09         0.14550E-09         0.00000E+00
   -0.81448E-09         0.10525E-09         0.00000E+00
   -0.82295E-09         0.63840E-10         0.00000E+00
   -0.82750E-09         0.21475E-10         0.00000E+00
    0.43059E-09         0.11003E-09         0.00000E+00
    0.42044E-09         0.30468E-09         0.00000E+00
    0.40184E-09         0.46333E-09         0.00000E+00
    0.37664E-09         0.58955E-09         0.00000E+00
    0.34648E-09         0.68747E-09         0.00000E+00
    0.31274E-09         0.76136E-09         0.00000E+00
    0.27657E-09         0.81538E-09         0.00000E+00
    0.23890E-09         0.85331E-09         0.00000E+00
    0.20044E-09         0.87845E-09         0.00000E+00
    0.16177E-09         0.89358E-09         0.00000E+00
    0.12331E-09         0.90100E-09         0.00000E+00
    0.85365E-10         0.90254E-09         0.00000E+00
    0.48149E-10         0.89960E-09         0.00000E+00
    0.11809E-10         0.89329E-09         0.00000E+00
   -0.23563E-10         0.88443E-09         0.00000E+00
   -0.57920E-10         0.87365E-09         0.00000E+00
   -0.91247E-10         0.86140E-09         0.00000E+00
   -0.12356E-09         0.84802E-09         0.00000E+00
   -0.15487E-09         0.83376E-09         0.00000E+00
   -0.18525E-09         0.81881E-09         0.00000E+00
   -0.21474E-09         0.80329E-09         0.00000E+00
   -0.24340E-09         0.78730E-09         0.00000E+00
   -0.27132E-09         0.77090E-09         0.00000E+00
   -0.29857E-09         0.75413E-09         0.00000E+00
   -0.32523E-09         0.73701E-09         0.00000E+00
   -0.35137E-09         0.71955E-09         0.00000E+00
   -0.37708E-09         0.70173E-09         0.00000E+00
   -0.40245E-09         0.68352E-09         0.00000E+00
   -0.42753E-09         0.66489E-09         0.00000E+00
   -0.45242E-09         0.64579E-09         0.00000E+00
   -0.47715E-09         0.62615E-09         0.00000E+00
   -0.50181E-09         0.60589E-09         0.00000E+00
   -0.52642E-09         0.58493E-09         0.00000E+00
   -0.55102E-09         0.56319E-09         0.00000E+00
   -0.57562E-09         0.54054E-09         0.00000E+00
   -0.60024E-09         0.51689E-09         0.00000E+00
   -0.62485E-09         0.49213E-09         0.00000E+00
   -0.64941E-09         0.46612E-09         0.00000E+00
   -0.67385E-09         0.43877E-09         0.00000E+00
   -0.69808E-09         0.40995E-09         0.00000E+00
   -0.72194E-09         0.37956E-09         0.00000E+00
   -0.74528E-09         0.34749E-09         0.00000E+00
   -0.76785E-09         0.31365E-09         0.00000E+00
   -0.78936E-09         0.27797E-09         0.00000E+00
   -0.80947E-09         0.24040E-09         0.00000E+00
   -0.82775E-09         0.20089E-09         0.00000E+00
   -0.84368E-09         0.15944E-09         0.00000E+00
   -0.85669E-09         0.11608E-09         0.00000E+00
   -0.86610E-09         0.70898E-10         0.00000E+00
   -0.87117E-09         0.24041E-10         0.00000E+00
    0.42821E-09         0.11554E-09         0.00000E+00
    0.41776E-09         0.31976E-09         0.00000E+00
    0.39861E-09         0.48599E-09         0.00000E+00
    0.37269E-09         0.61801E-09         0.00000E+00
    0.34166E-09         0.72019E-09         0.00000E+00
    0.30698E-09         0.79707E-09         0.00000E+00
    0.26981E-09         0.85302E-09         0.00000E+00
    0.23113E-09         0.89204E-09         0.00000E+00
    0.19168E-09         0.91762E-09         0.00000E+00
    0.15204E-09         0.93271E-09         0.00000E+00
    0.11266E-09         0.93972E-09         0.00000E+00
    0.73849E-10         0.94058E-09         0.00000E+00
    0.35832E-10         0.93679E-09         0.00000E+00
   -0.12422E-11         0.92951E-09         0.00000E+00
   -0.37280E-10         0.91962E-09         0.00000E+00
   -0.72236E-10         0.90777E-09         0.00000E+00
   -0.10610E-09         0.89446E-09         0.00000E+00
   -0.13888E-09         0.88005E-09         0.00000E+00
   -0.17062E-09         0.86479E-09         0.00000E+00
   -0.20136E-09         0.84890E-09         0.00000E+00
   -0.23118E-09         0.83251E-09         0.00000E+00
   -0.26016E-09         0.81572E-09         0.00000E+00
   -0.28836E-09         0.79860E-09         0.00000E+00
   -0.31588E-09         0.78120E-09         0.00000E+00
   -0.34282E-09         0.76353E-09         0.00000E+00
   -0.36925E-09         0.74561E-09         0.00000E+00
   -0.39529E-09         0.72741E-09         0.00000E+00
   -0.42101E-09         0.70892E-09         0.00000E+00
   -0.44651E-09         0.69008E-09         0.00000E+00
   -0.47186E-09         0.67084E-09         0.00000E+00
   -0.49714E-09         0.65112E-09         0.00000E+00
   -0.52243E-09         0.63085E-09         0.00000E+00
   -0.54776E-09         0.60992E-09         0.00000E+00
   -0.57319E-09         0.58823E-09         0.00000E+00
   -0.59874E-09         0.56566E-09         0.00000E+00
   -0.62442E-09         0.54207E-09         0.00000E+00
   -0.65021E-09         0.51735E-09         0.00000E+00
   -0.67607E-09         0.49133E-09         0.00000E+00
   -0.70195E-09         0.46388E-09         0.00000E+00
   -0.72771E-09         0.43484E-09         0.00000E+00
   -0.75323E-09         0.40406E-09         0.00000E+00
   -0.77831E-09         0.37139E-09         0.00000E+00
   -0.80267E-09         0.33668E-09         0.00000E+00
   -0.82602E-09         0.29980E-09         0.00000E+00
   -0.84794E-09         0.26060E-09         0.00000E+00
   -0.86795E-09         0.21897E-09         0.00000E+00
   -0.88547E-09         0.17481E-09         0.00000E+00
   -0.89983E-09         0.12807E-09         0.00000E+00
   -0.91026E-09         0.78745E-10         0.00000E+00
   -0.91590E-09         0.26904E-10         0.00000E+00
    0.42457E-09         0.12121E-09         0.00000E+00
    0.41382E-09         0.33529E-09         0.00000E+00
    0.39411E-09         0.50931E-09         0.00000E+00
    0.36744E-09         0.64729E-09         0.00000E+00
    0.33554E-09         0.75384E-09         0.00000E+00
    0.29989E-09         0.83376E-09         0.00000E+00
    0.26171E-09         0.89167E-09         0.00000E+00
    0.22201E-09         0.93178E-09         0.00000E+00
    0.18155E-09         0.95778E-09         0.00000E+00
    0.14095E-09         0.97278E-09         0.00000E+00
    0.10065E-09         0.97933E-09         0.00000E+00
    0.60984E-10         0.97945E-09         0.00000E+00
    0.22185E-10         0.97474E-09         0.00000E+00
   -0.15594E-10         0.96642E-09         0.00000E+00
   -0.52260E-10         0.95542E-09         0.00000E+00
   -0.87766E-10         0.94244E-09         0.00000E+00
   -0.12211E-09         0.92800E-09         0.00000E+00
   -0.15530E-09         0.91248E-09         0.00000E+00
   -0.18738E-09         0.89618E-09         0.00000E+00
   -0.21842E-09         0.87930E-09         0.00000E+00
   -0.24850E-09         0.86200E-09         0.00000E+00
   -0.27768E-09         0.84439E-09         0.00000E+00
   -0.30608E-09         0.82653E-09         0.00000E+00
   -0.33379E-09         0.80849E-09         0.00000E+00
   -0.36091E-09         0.79029E-09         0.00000E+00
   -0.38754E-09         0.77193E-09         0.00000E+00
   -0.41381E-09         0.75339E-09         0.00000E+00
   -0.43980E-09         0.73465E-09         0.00000E+00
   -0.46562E-09         0.71566E-09         0.00000E+00
   -0.49137E-09         0.69635E-09         0.00000E+00
   -0.51713E-09         0.67665E-09         0.00000E+00
   -0.54298E-09         0.65645E-09         0.00000E+00
   -0.56899E-09         0.63566E-09         0.00000E+00
   -0.59521E-09         0.61414E-09         0.00000E+00
   -0.62168E-09         0.59176E-09         0.00000E+00
   -0.64841E-09         0.56838E-09         0.00000E+00
   -0.67539E-09         0.54382E-09         0.00000E+00
   -0.70259E-09         0.51792E-09         0.00000E+00
   -0.72993E-09         0.49050E-09         0.00000E+00
   -0.75730E-09         0.46136E-09         0.00000E+00
   -0.78455E-09         0.43030E-09         0.00000E+00
   -0.81145E-09         0.39712E-09         0.00000E+00
   -0.83772E-09         0.36160E-09         0.00000E+00
   -0.86301E-09         0.32352E-09         0.00000E+00
   -0.88687E-09         0.28265E-09         0.00000E+00
   -0.90874E-09         0.23879E-09         0.00000E+00
   -0.92797E-09         0.19174E-09         0.00000E+00
   -0.94379E-09         0.14133E-09         0.00000E+00
   -0.95532E-09         0.87449E-10         0.00000E+00
   -0.96157E-09         0.30092E-10         0.00000E+00
    0.41963E-09         0.12705E-09         0.00000E+00
    0.40856E-09         0.35128E-09         0.00000E+00
    0.38828E-09         0.53331E-09         0.00000E+00
    0.36084E-09         0.67740E-09         0.00000E+00
    0.32804E-09         0.78843E-09         0.00000E+00
    0.29140E-09         0.87145E-09         0.00000E+00
    0.25220E-09         0.93135E-09         0.00000E+00
    0.21145E-09         0.97255E-09         0.00000E+00
    0.16998E-09         0.99894E-09         0.00000E+00
    0.12840E-09         0.10138E-08         0.00000E+00
    0.87187E-10         0.10198E-08         0.00000E+00
    0.46681E-10         0.10191E-08         0.00000E+00
    0.71217E-11         0.10134E-08         0.00000E+00
   -0.31331E-10         0.10040E-08         0.00000E+00
   -0.68583E-10         0.99178E-09         0.00000E+00
   -0.10459E-09         0.97759E-09         0.00000E+00
   -0.13935E-09         0.96194E-09         0.00000E+00
   -0.17288E-09         0.94526E-09         0.00000E+00
   -0.20523E-09         0.92785E-09         0.00000E+00
   -0.23648E-09         0.90993E-09         0.00000E+00
   -0.26671E-09         0.89167E-09         0.00000E+00
   -0.29601E-09         0.87320E-09         0.00000E+00
   -0.32450E-09         0.85460E-09         0.00000E+00
   -0.35228E-09         0.83592E-09         0.00000E+00
   -0.37948E-09         0.81718E-09         0.00000E+00
   -0.40621E-09         0.79840E-09         0.00000E+00
   -0.43259E-09         0.77956E-09         0.00000E+00
   -0.45875E-09         0.76063E-09         0.00000E+00
   -0.48480E-09         0.74155E-09         0.00000E+00
   -0.51085E-09         0.72226E-09         0.00000E+00
   -0.53701E-09         0.70266E-09         0.00000E+00
   -0.56336E-09         0.68265E-09         0.00000E+00
   -0.58998E-09         0.66210E-09         0.00000E+00
   -0.61695E-09         0.64088E-09         0.00000E+00
   -0.64430E-09         0.61884E-09         0.00000E+00
   -0.67206E-09         0.59579E-09         0.00000E+00
   -0.70024E-09         0.57156E-09         0.00000E+00
   -0.72878E-09         0.54593E-09         0.00000E+00
   -0.75763E-09         0.51868E-09         0.00000E+00
   -0.78666E-09         0.48958E-09         0.00000E+00
   -0.81571E-09         0.45837E-09         0.00000E+00
   -0.84453E-09         0.42478E-09         0.00000E+00
   -0.87282E-09         0.38851E-09         0.00000E+00
   -0.90017E-09         0.34925E-09         0.00000E+00
   -0.92609E-09         0.30669E-09         0.00000E+00
   -0.94995E-09         0.26049E-09         0.00000E+00
   -0.97102E-09         0.21034E-09         0.00000E+00
   -0.98841E-09         0.15594E-09         0.00000E+00
   -0.10011E-08         0.97081E-10         0.00000E+00
   -0.10080E-08         0.33631E-10         0.00000E+00
    0.41331E-09         0.13306E-09         0.00000E+00
    0.40192E-09         0.36773E-09         0.00000E+00
    0.38105E-09         0.55801E-09         0.00000E+00
    0.35282E-09         0.70837E-09         0.00000E+00
    0.31909E-09         0.82399E-09         0.00000E+00
    0.28144E-09         0.91018E-09         0.00000E+00
    0.24117E-09         0.97208E-09         0.00000E+00
    0.19937E-09         0.10144E-08         0.00000E+00
    0.15686E-09         0.10411E-08         0.00000E+00
    0.11430E-09         0.10558E-08         0.00000E+00
    0.72175E-10         0.10612E-08         0.00000E+00
    0.30839E-10         0.10596E-08         0.00000E+00
   -0.94578E-11         0.10528E-08         0.00000E+00
   -0.48551E-10         0.10421E-08         0.00000E+00
   -0.86344E-10         0.10287E-08         0.00000E+00
   -0.12279E-09         0.10132E-08         0.00000E+00
   -0.15790E-09         0.99623E-09         0.00000E+00
   -0.19169E-09         0.97830E-09         0.00000E+00
   -0.22422E-09         0.95970E-09         0.00000E+00
   -0.25558E-09         0.94068E-09         0.00000E+00
   -0.28586E-09         0.92143E-09         0.00000E+00
   -0.31517E-09         0.90206E-09         0.00000E+00
   -0.34363E-09         0.88269E-09         0.00000E+00
   -0.37137E-09         0.86335E-09         0.00000E+00
   -0.39852E-09         0.84409E-09         0.00000E+00
   -0.42522E-09         0.82492E-09         0.00000E+00
   -0.45161E-09         0.80582E-09         0.00000E+00
   -0.47782E-09         0.78675E-09         0.00000E+00
   -0.50398E-09         0.76765E-09         0.00000E+00
   -0.53023E-09         0.74846E-09         0.00000E+00
   -0.55668E-09         0.72906E-09         0.00000E+00
   -0.58344E-09         0.70935E-09         0.00000E+00
   -0.61060E-09         0.68919E-09         0.00000E+00
   -0.63825E-09         0.66841E-09         0.00000E+00
   -0.66645E-09         0.64685E-09         0.00000E+00
   -0.69522E-09         0.62431E-09         0.00000E+00
   -0.72457E-09         0.60056E-09         0.00000E+00
   -0.75448E-09         0.57537E-09         0.00000E+00
   -0.78486E-09         0.54847E-09         0.00000E+00
   -0.81561E-09         0.51957E-09         0.00000E+00
   -0.84652E-09         0.48835E-09         0.00000E+00
   -0.87736E-09         0.45446E-09         0.00000E+00
   -0.90777E-09         0.41753E-09         0.00000E+00
   -0.93731E-09         0.37713E-09         0.00000E+00
   -0.96542E-09         0.33284E-09         0.00000E+00
   -0.99141E-09         0.28419E-09         0.00000E+00
   -0.10144E-08         0.23073E-09         0.00000E+00
   -0.10335E-08         0.17203E-09         0.00000E+00
   -0.10475E-08         0.10771E-09         0.00000E+00
   -0.10552E-08         0.37551E-10         0.00000E+00
    0.40557E-09         0.13924E-09         0.00000E+00
    0.39384E-09         0.38467E-09         0.00000E+00
    0.37236E-09         0.58342E-09         0.00000E+00
    0.34331E-09         0.74024E-09         0.00000E+00
    0.30861E-09         0.86055E-09         0.00000E+00
    0.26991E-09         0.94998E-09         0.00000E+00
    0.22856E-09         0.10139E-08         0.00000E+00
    0.18567E-09         0.10572E-08         0.00000E+00
    0.14210E-09         0.10843E-08         0.00000E+00
    0.98547E-10         0.10987E-08         0.00000E+00
    0.55505E-10         0.11034E-08         0.00000E+00
    0.13348E-10         0.11009E-08         0.00000E+00
   -0.27664E-10         0.10929E-08         0.00000E+00
   -0.67361E-10         0.10809E-08         0.00000E+00
   -0.10565E-09         0.10660E-08         0.00000E+00
   -0.14247E-09         0.10491E-08         0.00000E+00
   -0.17785E-09         0.10308E-08         0.00000E+00
   -0.21181E-09         0.10115E-08         0.00000E+00
   -0.24443E-09         0.99164E-09         0.00000E+00
   -0.27579E-09         0.97146E-09         0.00000E+00
   -0.30600E-09         0.95114E-09         0.00000E+00
   -0.33519E-09         0.93085E-09         0.00000E+00
   -0.36349E-09         0.91067E-09         0.00000E+00
   -0.39105E-09         0.89067E-09         0.00000E+00
   -0.41801E-09         0.87089E-09         0.00000E+00
   -0.44454E-09         0.85135E-09         0.00000E+00
   -0.47079E-09         0.83202E-09         0.00000E+00
   -0.49692E-09         0.81288E-09         0.00000E+00
   -0.52307E-09         0.79384E-09         0.00000E+00
   -0.54939E-09         0.77484E-09         0.00000E+00
   -0.57602E-09         0.75576E-09         0.00000E+00
   -0.60309E-09         0.73648E-09         0.00000E+00
   -0.63071E-09         0.71684E-09         0.00000E+00
   -0.65897E-09         0.69667E-09         0.00000E+00
   -0.68795E-09         0.67577E-09         0.00000E+00
   -0.71768E-09         0.65391E-09         0.00000E+00
   -0.74820E-09         0.63083E-09         0.00000E+00
   -0.77946E-09         0.60627E-09         0.00000E+00
   -0.81141E-09         0.57990E-09         0.00000E+00
   -0.84391E-09         0.55138E-09         0.00000E+00
   -0.87677E-09         0.52031E-09         0.00000E+00
   -0.90970E-09         0.48627E-09         0.00000E+00
   -0.94234E-09         0.44877E-09         0.00000E+00
   -0.97419E-09         0.40728E-09         0.00000E+00
   -0.10046E-08         0.36124E-09         0.00000E+00
   -0.10329E-08         0.31004E-09         0.00000E+00
   -0.10580E-08         0.25305E-09         0.00000E+00
   -0.10789E-08         0.18969E-09         0.00000E+00
   -0.10943E-08         0.11943E-09         0.00000E+00
   -0.11027E-08         0.41882E-10         0.00000E+00
    0.39634E-09         0.14562E-09         0.00000E+00
    0.38426E-09         0.40211E-09         0.00000E+00
    0.36214E-09         0.60958E-09         0.00000E+00
    0.33223E-09         0.77303E-09         0.00000E+00
    0.29653E-09         0.89816E-09         0.00000E+00
    0.25674E-09         0.99087E-09         0.00000E+00
    0.21426E-09         0.10568E-08         0.00000E+00
    0.17024E-09         0.11012E-08         0.00000E+00
    0.12559E-09         0.11285E-08         0.00000E+00
    0.81017E-10         0.11426E-08         0.00000E+00
    0.37053E-10         0.11465E-08         0.00000E+00
   -0.59165E-11         0.11429E-08         0.00000E+00
   -0.47621E-10         0.11336E-08         0.00000E+00
   -0.87885E-10         0.11201E-08         0.00000E+00
   -0.12661E-09         0.11038E-08         0.00000E+00
   -0.16375E-09         0.10853E-08         0.00000E+00
   -0.19931E-09         0.10655E-08         0.00000E+00
   -0.23335E-09         0.10448E-08         0.00000E+00
   -0.26593E-09         0.10236E-08         0.00000E+00
   -0.29716E-09         0.10021E-08         0.00000E+00
   -0.32717E-09         0.98069E-09         0.00000E+00
   -0.35610E-09         0.95941E-09         0.00000E+00
   -0.38409E-09         0.93840E-09         0.00000E+00
   -0.41132E-09         0.91772E-09         0.00000E+00
   -0.43795E-09         0.89744E-09         0.00000E+00
   -0.46415E-09         0.87754E-09         0.00000E+00
   -0.49011E-09         0.85804E-09         0.00000E+00
   -0.51599E-09         0.83887E-09         0.00000E+00
   -0.54198E-09         0.81998E-09         0.00000E+00
   -0.56824E-09         0.80128E-09         0.00000E+00
   -0.59492E-09         0.78264E-09         0.00000E+00
   -0.62218E-09         0.76393E-09         0.00000E+00
   -0.65014E-09         0.74497E-09         0.00000E+00
   -0.67892E-09         0.72558E-09         0.00000E+00
   -0.70860E-09         0.70552E-09         0.00000E+00
   -0.73925E-09         0.68454E-09         0.00000E+00
   -0.77089E-09         0.66235E-09         0.00000E+00
   -0.80351E-09         0.63863E-09         0.00000E+00
   -0.83703E-09         0.61301E-09         0.00000E+00
   -0.87132E-09         0.58507E-09         0.00000E+00
   -0.90618E-09         0.55434E-09         0.00000E+00
   -0.94130E-09         0.52030E-09         0.00000E+00
   -0.97628E-09         0.48235E-09         0.00000E+00
   -0.10106E-08         0.43984E-09         0.00000E+00
   -0.10435E-08         0.39203E-09         0.00000E+00
   -0.10741E-08         0.33817E-09         0.00000E+00
   -0.11015E-08         0.27743E-09         0.00000E+00
   -0.11244E-08         0.20905E-09         0.00000E+00
   -0.11412E-08         0.13230E-09         0.00000E+00
   -0.11505E-08         0.46657E-10         0.00000E+00
    0.38557E-09         0.15218E-09         0.00000E+00
    0.37312E-09         0.42008E-09         0.00000E+00
    0.35032E-09         0.63653E-09         0.00000E+00
    0.31952E-09         0.80678E-09         0.00000E+00
    0.28276E-09         0.93685E-09         0.00000E+00
    0.24182E-09         0.10329E-08         0.00000E+00
    0.19815E-09         0.11009E-08         0.00000E+00
    0.15296E-09         0.11463E-08         0.00000E+00
    0.10719E-09         0.11738E-08         0.00000E+00
    0.61579E-10         0.11875E-08         0.00000E+00
    0.16682E-10         0.11905E-08         0.00000E+00
   -0.27095E-10         0.11856E-08         0.00000E+00
   -0.69471E-10         0.11749E-08         0.00000E+00
   -0.11026E-09         0.11599E-08         0.00000E+00
   -0.14936E-09         0.11418E-08         0.00000E+00
   -0.18673E-09         0.11217E-08         0.00000E+00
   -0.22239E-09         0.11003E-08         0.00000E+00
   -0.25639E-09         0.10780E-08         0.00000E+00
   -0.28882E-09         0.10553E-08         0.00000E+00
   -0.31979E-09         0.10326E-08         0.00000E+00
   -0.34945E-09         0.10099E-08         0.00000E+00
   -0.37796E-09         0.98760E-09         0.00000E+00
   -0.40547E-09         0.96572E-09         0.00000E+00
   -0.43219E-09         0.94435E-09         0.00000E+00
   -0.45830E-09         0.92355E-09         0.00000E+00
   -0.48400E-09         0.90333E-09         0.00000E+00
   -0.50949E-09         0.88369E-09         0.00000E+00
   -0.53496E-09         0.86458E-09         0.00000E+00
   -0.56061E-09         0.84592E-09         0.00000E+00
   -0.58664E-09         0.82762E-09         0.00000E+00
   -0.61322E-09         0.80956E-09         0.00000E+00
   -0.64053E-09         0.79157E-09         0.00000E+00
   -0.66871E-09         0.77347E-09         0.00000E+00
   -0.69789E-09         0.75505E-09         0.00000E+00
   -0.72819E-09         0.73604E-09         0.00000E+00
   -0.75969E-09         0.71617E-09         0.00000E+00
   -0.79241E-09         0.69509E-09         0.00000E+00
   -0.82635E-09         0.67245E-09         0.00000E+00
   -0.86145E-09         0.64781E-09         0.00000E+00
   -0.89757E-09         0.62068E-09         0.00000E+00
   -0.93449E-09         0.59050E-09         0.00000E+00
   -0.97188E-09         0.55665E-09         0.00000E+00
   -0.10093E-08         0.51840E-09         0.00000E+00
   -0.10461E-08         0.47493E-09         0.00000E+00
   -0.10817E-08         0.42537E-09         0.00000E+00
   -0.11149E-08         0.36873E-09         0.00000E+00
   -0.11447E-08         0.30402E-09         0.00000E+00
   -0.11696E-08         0.23022E-09         0.00000E+00
   -0.11880E-08         0.14643E-09         0.00000E+00
   -0.11982E-08         0.51911E-10         0.00000E+00
    0.37321E-09         0.15896E-09         0.00000E+00
    0.36036E-09         0.43862E-09         0.00000E+00
    0.33685E-09         0.66431E-09         0.00000E+00
    0.30508E-09         0.84157E-09         0.00000E+00
    0.26721E-09         0.97670E-09         0.00000E+00
    0.22505E-09         0.10762E-08         0.00000E+00
    0.18013E-09         0.11463E-08         0.00000E+00
    0.13371E-09         0.11926E-08         0.00000E+00
    0.86768E-10         0.12203E-08         0.00000E+00
    0.40083E-10         0.12334E-08         0.00000E+00
   -0.57635E-11         0.12354E-08         0.00000E+00
   -0.50347E-10         0.12291E-08         0.00000E+00
   -0.93371E-10         0.12168E-08         0.00000E+00
   -0.13464E-09         0.12000E-08         0.00000E+00
   -0.17406E-09         0.11802E-08         0.00000E+00
   -0.21159E-09         0.11583E-08         0.00000E+00
   -0.24723E-09         0.11351E-08         0.00000E+00
   -0.28107E-09         0.11111E-08         0.00000E+00
   -0.31321E-09         0.10868E-08         0.00000E+00
   -0.34376E-09         0.10626E-08         0.00000E+00
   -0.37291E-09         0.10387E-08         0.00000E+00
   -0.40081E-09         0.10153E-08         0.00000E+00
   -0.42766E-09         0.99244E-09         0.00000E+00
   -0.45368E-09         0.97036E-09         0.00000E+00
   -0.47907E-09         0.94904E-09         0.00000E+00
   -0.50406E-09         0.92853E-09         0.00000E+00
   -0.52888E-09         0.90880E-09         0.00000E+00
   -0.55374E-09         0.88980E-09         0.00000E+00
   -0.57887E-09         0.87148E-09         0.00000E+00
   -0.60448E-09         0.85371E-09         0.00000E+00
   -0.63078E-09         0.83636E-09         0.00000E+00
   -0.65797E-09         0.81926E-09         0.00000E+00
   -0.68622E-09         0.80221E-09         0.00000E+00
   -0.71568E-09         0.78496E-09         0.00000E+00
   -0.74649E-09         0.76723E-09         0.00000E+00
   -0.77874E-09         0.74871E-09         0.00000E+00
   -0.81248E-09         0.72901E-09         0.00000E+00
   -0.84771E-09         0.70771E-09         0.00000E+00
   -0.88437E-09         0.68431E-09         0.00000E+00
   -0.92234E-09         0.65825E-09         0.00000E+00
   -0.96136E-09         0.62887E-09         0.00000E+00
   -0.10011E-08         0.59541E-09         0.00000E+00
   -0.10411E-08         0.55702E-09         0.00000E+00
   -0.10806E-08         0.51271E-09         0.00000E+00
   -0.11189E-08         0.46139E-09         0.00000E+00
   -0.11548E-08         0.40189E-09         0.00000E+00
   -0.11871E-08         0.33295E-09         0.00000E+00
   -0.12143E-08         0.25334E-09         0.00000E+00
   -0.12344E-08         0.16190E-09         0.00000E+00
   -0.12455E-08         0.57679E-10         0.00000E+00
    0.35920E-09         0.16595E-09         0.00000E+00
    0.34593E-09         0.45775E-09         0.00000E+00
    0.32164E-09         0.69298E-09         0.00000E+00
    0.28885E-09         0.87745E-09         0.00000E+00
    0.24977E-09         0.10178E-08         0.00000E+00
    0.20631E-09         0.11207E-08         0.00000E+00
    0.16007E-09         0.11929E-08         0.00000E+00
    0.11234E-09         0.12402E-08         0.00000E+00
    0.64166E-10         0.12678E-08         0.00000E+00
    0.16362E-10         0.12803E-08         0.00000E+00
   -0.30460E-10         0.12811E-08         0.00000E+00
   -0.75852E-10         0.12734E-08         0.00000E+00
   -0.11950E-09         0.12592E-08         0.00000E+00
   -0.16122E-09         0.12406E-08         0.00000E+00
   -0.20088E-09         0.12187E-08         0.00000E+00
   -0.23846E-09         0.11948E-08         0.00000E+00
   -0.27399E-09         0.11697E-08         0.00000E+00
   -0.30753E-09         0.11439E-08         0.00000E+00
   -0.33921E-09         0.11179E-08         0.00000E+00
   -0.36918E-09         0.10921E-08         0.00000E+00
   -0.39762E-09         0.10668E-08         0.00000E+00
   -0.42472E-09         0.10422E-08         0.00000E+00
   -0.45070E-09         0.10184E-08         0.00000E+00
   -0.47579E-09         0.99554E-09         0.00000E+00
   -0.50025E-09         0.97371E-09         0.00000E+00
   -0.52430E-09         0.95291E-09         0.00000E+00
   -0.54822E-09         0.93314E-09         0.00000E+00
   -0.57224E-09         0.91434E-09         0.00000E+00
   -0.59663E-09         0.89645E-09         0.00000E+00
   -0.62161E-09         0.87934E-09         0.00000E+00
   -0.64744E-09         0.86286E-09         0.00000E+00
   -0.67432E-09         0.84683E-09         0.00000E+00
   -0.70246E-09         0.83103E-09         0.00000E+00
   -0.73205E-09         0.81519E-09         0.00000E+00
   -0.76323E-09         0.79899E-09         0.00000E+00
   -0.79612E-09         0.78209E-09         0.00000E+00
   -0.83079E-09         0.76404E-09         0.00000E+00
   -0.86726E-09         0.74438E-09         0.00000E+00
   -0.90546E-09         0.72252E-09         0.00000E+00
   -0.94527E-09         0.69782E-09         0.00000E+00
   -0.98644E-09         0.66950E-09         0.00000E+00
   -0.10286E-08         0.63667E-09         0.00000E+00
   -0.10712E-08         0.59833E-09         0.00000E+00
   -0.11135E-08         0.55329E-09         0.00000E+00
   -0.11547E-08         0.50025E-09         0.00000E+00
   -0.11935E-08         0.43779E-09         0.00000E+00
   -0.12286E-08         0.36439E-09         0.00000E+00
   -0.12581E-08         0.27853E-09         0.00000E+00
   -0.12800E-08         0.17880E-09         0.00000E+00
   -0.12921E-08         0.64000E-10         0.00000E+00
    0.34350E-09         0.17318E-09         0.00000E+00
    0.32976E-09         0.47753E-09         0.00000E+00
    0.30464E-09         0.72261E-09         0.00000E+00
    0.27073E-09         0.91452E-09         0.00000E+00
    0.23035E-09         0.10602E-08         0.00000E+00
    0.18549E-09         0.11667E-08         0.00000E+00
    0.13781E-09         0.12409E-08         0.00000E+00
    0.88682E-10         0.12890E-08         0.00000E+00
    0.39202E-10         0.13166E-08         0.00000E+00
   -0.97760E-11         0.13283E-08         0.00000E+00
   -0.57607E-10         0.13278E-08         0.00000E+00
   -0.10382E-09         0.13183E-08         0.00000E+00
   -0.14808E-09         0.13022E-08         0.00000E+00
   -0.19018E-09         0.12814E-08         0.00000E+00
   -0.23002E-09         0.12574E-08         0.00000E+00
   -0.26755E-09         0.12313E-08         0.00000E+00
   -0.30282E-09         0.12040E-08         0.00000E+00
   -0.33592E-09         0.11762E-08         0.00000E+00
   -0.36698E-09         0.11483E-08         0.00000E+00
   -0.39616E-09         0.11208E-08         0.00000E+00
   -0.42368E-09         0.10940E-08         0.00000E+00
   -0.44975E-09         0.10681E-08         0.00000E+00
   -0.47462E-09         0.10433E-08         0.00000E+00
   -0.49855E-09         0.10197E-08         0.00000E+00
   -0.52182E-09         0.99730E-09         0.00000E+00
   -0.54469E-09         0.97625E-09         0.00000E+00
   -0.56745E-09         0.95648E-09         0.00000E+00
   -0.59038E-09         0.93796E-09         0.00000E+00
   -0.61377E-09         0.92060E-09         0.00000E+00
   -0.63789E-09         0.90429E-09         0.00000E+00
   -0.66300E-09         0.88885E-09         0.00000E+00
   -0.68936E-09         0.87409E-09         0.00000E+00
   -0.71720E-09         0.85976E-09         0.00000E+00
   -0.74673E-09         0.84557E-09         0.00000E+00
   -0.77812E-09         0.83118E-09         0.00000E+00
   -0.81152E-09         0.81619E-09         0.00000E+00
   -0.84702E-09         0.80011E-09         0.00000E+00
   -0.88464E-09         0.78240E-09         0.00000E+00
   -0.92434E-09         0.76241E-09         0.00000E+00
   -0.96599E-09         0.73938E-09         0.00000E+00
   -0.10093E-08         0.71243E-09         0.00000E+00
   -0.10539E-08         0.68051E-09         0.00000E+00
   -0.10993E-08         0.64244E-09         0.00000E+00
   -0.11446E-08         0.59682E-09         0.00000E+00
   -0.11888E-08         0.54210E-09         0.00000E+00
   -0.12306E-08         0.47660E-09         0.00000E+00
   -0.12685E-08         0.39849E-09         0.00000E+00
   -0.13005E-08         0.30594E-09         0.00000E+00
   -0.13244E-08         0.19724E-09         0.00000E+00
   -0.13377E-08         0.70915E-10         0.00000E+00
    0.32603E-09         0.18067E-09         0.00000E+00
    0.31179E-09         0.49801E-09         0.00000E+00
    0.28575E-09         0.75329E-09         0.00000E+00
    0.25062E-09         0.95287E-09         0.00000E+00
    0.20882E-09         0.11040E-08         0.00000E+00
    0.16243E-09         0.12141E-08         0.00000E+00
    0.11319E-09         0.12904E-08         0.00000E+00
    0.62557E-10         0.13393E-08         0.00000E+00
    0.11674E-10         0.13667E-08         0.00000E+00
   -0.38551E-10         0.13774E-08         0.00000E+00
   -0.87434E-10         0.13754E-08         0.00000E+00
   -0.13447E-09         0.13640E-08         0.00000E+00
   -0.17933E-09         0.13457E-08         0.00000E+00
   -0.22177E-09         0.13225E-08         0.00000E+00
   -0.26169E-09         0.12961E-08         0.00000E+00
   -0.29907E-09         0.12676E-08         0.00000E+00
   -0.33394E-09         0.12379E-08         0.00000E+00
   -0.36642E-09         0.12078E-08         0.00000E+00
   -0.39666E-09         0.11779E-08         0.00000E+00
   -0.42484E-09         0.11486E-08         0.00000E+00
   -0.45121E-09         0.11201E-08         0.00000E+00
   -0.47600E-09         0.10928E-08         0.00000E+00
   -0.49950E-09         0.10669E-08         0.00000E+00
   -0.52199E-09         0.10425E-08         0.00000E+00
   -0.54378E-09         0.10196E-08         0.00000E+00
   -0.56517E-09         0.99826E-09         0.00000E+00
   -0.58649E-09         0.97855E-09         0.00000E+00
   -0.60806E-09         0.96039E-09         0.00000E+00
   -0.63017E-09         0.94368E-09         0.00000E+00
   -0.65315E-09         0.92831E-09         0.00000E+00
   -0.67730E-09         0.91409E-09         0.00000E+00
   -0.70289E-09         0.90080E-09         0.00000E+00
   -0.73019E-09         0.88819E-09         0.00000E+00
   -0.75945E-09         0.87593E-09         0.00000E+00
   -0.79086E-09         0.86364E-09         0.00000E+00
   -0.82461E-09         0.85087E-09         0.00000E+00
   -0.86079E-09         0.83710E-09         0.00000E+00
   -0.89947E-09         0.82170E-09         0.00000E+00
   -0.94060E-09         0.80394E-09         0.00000E+00
   -0.98406E-09         0.78295E-09         0.00000E+00
   -0.10296E-08         0.75770E-09         0.00000E+00
   -0.10767E-08         0.72700E-09         0.00000E+00
   -0.11249E-08         0.68945E-09         0.00000E+00
   -0.11732E-08         0.64342E-09         0.00000E+00
   -0.12206E-08         0.58710E-09         0.00000E+00
   -0.12656E-08         0.51848E-09         0.00000E+00
   -0.13065E-08         0.43541E-09         0.00000E+00
   -0.13412E-08         0.33571E-09         0.00000E+00
   -0.13672E-08         0.21732E-09         0.00000E+00
   -0.13816E-08         0.78464E-10         0.00000E+00
    0.30675E-09         0.18845E-09         0.00000E+00
    0.29196E-09         0.51928E-09         0.00000E+00
    0.26490E-09         0.78512E-09         0.00000E+00
    0.22843E-09         0.99264E-09         0.00000E+00
    0.18505E-09         0.11494E-08         0.00000E+00
    0.13697E-09         0.12632E-08         0.00000E+00
    0.86031E-10         0.13415E-08         0.00000E+00
    0.33747E-10         0.13911E-08         0.00000E+00
   -0.18653E-10         0.14182E-08         0.00000E+00
   -0.70214E-10         0.14277E-08         0.00000E+00
   -0.12020E-09         0.14240E-08         0.00000E+00
   -0.16810E-09         0.14103E-08         0.00000E+00
   -0.21352E-09         0.13896E-08         0.00000E+00
   -0.25625E-09         0.13638E-08         0.00000E+00
   -0.29617E-09         0.13346E-08         0.00000E+00
   -0.33325E-09         0.13034E-08         0.00000E+00
   -0.36757E-09         0.12712E-08         0.00000E+00
   -0.39924E-09         0.12387E-08         0.00000E+00
   -0.42843E-09         0.12065E-08         0.00000E+00
   -0.45538E-09         0.11751E-08         0.00000E+00
   -0.48032E-09         0.11449E-08         0.00000E+00
   -0.50355E-09         0.11161E-08         0.00000E+00
   -0.52538E-09         0.10890E-08         0.00000E+00
   -0.54613E-09         0.10636E-08         0.00000E+00
   -0.56613E-09         0.10402E-08         0.00000E+00
   -0.58573E-09         0.10186E-08         0.00000E+00
   -0.60530E-09         0.99904E-09         0.00000E+00
   -0.62517E-09         0.98133E-09         0.00000E+00
   -0.64570E-09         0.96539E-09         0.00000E+00
   -0.66723E-09         0.95111E-09         0.00000E+00
   -0.69011E-09         0.93830E-09         0.00000E+00
   -0.71464E-09         0.92672E-09         0.00000E+00
   -0.74115E-09         0.91608E-09         0.00000E+00
   -0.76989E-09         0.90603E-09         0.00000E+00
   -0.80110E-09         0.89617E-09         0.00000E+00
   -0.83500E-09         0.88598E-09         0.00000E+00
   -0.87171E-09         0.87489E-09         0.00000E+00
   -0.91131E-09         0.86219E-09         0.00000E+00
   -0.95378E-09         0.84706E-09         0.00000E+00
   -0.99899E-09         0.82850E-09         0.00000E+00
   -0.10467E-08         0.80534E-09         0.00000E+00
   -0.10964E-08         0.77620E-09         0.00000E+00
   -0.11474E-08         0.73946E-09         0.00000E+00
   -0.11989E-08         0.69323E-09         0.00000E+00
   -0.12496E-08         0.63540E-09         0.00000E+00
   -0.12980E-08         0.56360E-09         0.00000E+00
   -0.13421E-08         0.47532E-09         0.00000E+00
   -0.13796E-08         0.36799E-09         0.00000E+00
   -0.14078E-08         0.23916E-09         0.00000E+00
   -0.14234E-08         0.86694E-10         0.00000E+00
    0.28560E-09         0.19654E-09         0.00000E+00
    0.27018E-09         0.54141E-09         0.00000E+00
    0.24199E-09         0.81824E-09         0.00000E+00
    0.20401E-09         0.10340E-08         0.00000E+00
    0.15889E-09         0.11965E-08         0.00000E+00
    0.10894E-09         0.13140E-08         0.00000E+00
    0.56104E-10         0.13943E-08         0.00000E+00
    0.20069E-11         0.14446E-08         0.00000E+00
   -0.52053E-10         0.14711E-08         0.00000E+00
   -0.10505E-09         0.14793E-08         0.00000E+00
   -0.15622E-09         0.14735E-08         0.00000E+00
   -0.20499E-09         0.14574E-08         0.00000E+00
   -0.25097E-09         0.14339E-08         0.00000E+00
   -0.29392E-09         0.14051E-08         0.00000E+00
   -0.33373E-09         0.13730E-08         0.00000E+00
   -0.37039E-09         0.13388E-08         0.00000E+00
   -0.40396E-09         0.13037E-08         0.00000E+00
   -0.43460E-09         0.12685E-08         0.00000E+00
   -0.46251E-09         0.12338E-08         0.00000E+00
   -0.48794E-09         0.12002E-08         0.00000E+00
   -0.51117E-09         0.11680E-08         0.00000E+00
   -0.53253E-09         0.11376E-08         0.00000E+00
   -0.55235E-09         0.11091E-08         0.00000E+00
   -0.57101E-09         0.10829E-08         0.00000E+00
   -0.58888E-09         0.10588E-08         0.00000E+00
   -0.60633E-09         0.10371E-08         0.00000E+00
   -0.62378E-09         0.10176E-08         0.00000E+00
   -0.64160E-09         0.10004E-08         0.00000E+00
   -0.66019E-09         0.98540E-09         0.00000E+00
   -0.67994E-09         0.97238E-09         0.00000E+00
   -0.70122E-09         0.96118E-09         0.00000E+00
   -0.72438E-09         0.95154E-09         0.00000E+00
   -0.74978E-09         0.94315E-09         0.00000E+00
   -0.77772E-09         0.93564E-09         0.00000E+00
   -0.80848E-09         0.92854E-09         0.00000E+00
   -0.84230E-09         0.92132E-09         0.00000E+00
   -0.87934E-09         0.91331E-09         0.00000E+00
   -0.91970E-09         0.90374E-09         0.00000E+00
   -0.96339E-09         0.89167E-09         0.00000E+00
   -0.10103E-08         0.87598E-09         0.00000E+00
   -0.10601E-08         0.85533E-09         0.00000E+00
   -0.11123E-08         0.82814E-09         0.00000E+00
   -0.11663E-08         0.79254E-09         0.00000E+00
   -0.12210E-08         0.74637E-09         0.00000E+00
   -0.12752E-08         0.68714E-09         0.00000E+00
   -0.13271E-08         0.61213E-09         0.00000E+00
   -0.13746E-08         0.51840E-09         0.00000E+00
   -0.14151E-08         0.40294E-09         0.00000E+00
   -0.14456E-08         0.26286E-09         0.00000E+00
   -0.14626E-08         0.95650E-10         0.00000E+00
    0.26251E-09         0.20499E-09         0.00000E+00
    0.24639E-09         0.56451E-09         0.00000E+00
    0.21692E-09         0.85279E-09         0.00000E+00
    0.17724E-09         0.10771E-08         0.00000E+00
    0.13015E-09         0.12456E-08         0.00000E+00
    0.78099E-10         0.13670E-08         0.00000E+00
    0.23157E-10         0.14492E-08         0.00000E+00
   -0.32952E-10         0.14999E-08         0.00000E+00
   -0.88839E-10         0.15257E-08         0.00000E+00
   -0.14341E-09         0.15323E-08         0.00000E+00
   -0.19584E-09         0.15241E-08         0.00000E+00
   -0.24552E-09         0.15052E-08         0.00000E+00
   -0.29203E-09         0.14785E-08         0.00000E+00
   -0.33514E-09         0.14465E-08         0.00000E+00
   -0.37472E-09         0.14110E-08         0.00000E+00
   -0.41078E-09         0.13735E-08         0.00000E+00
   -0.44341E-09         0.13352E-08         0.00000E+00
   -0.47278E-09         0.12970E-08         0.00000E+00
   -0.49912E-09         0.12596E-08         0.00000E+00
   -0.52272E-09         0.12235E-08         0.00000E+00
   -0.54391E-09         0.11891E-08         0.00000E+00
   -0.56304E-09         0.11569E-08         0.00000E+00
   -0.58049E-09         0.11271E-08         0.00000E+00
   -0.59668E-09         0.10998E-08         0.00000E+00
   -0.61202E-09         0.10751E-08         0.00000E+00
   -0.62694E-09         0.10532E-08         0.00000E+00
   -0.64187E-09         0.10339E-08         0.00000E+00
   -0.65725E-09         0.10173E-08         0.00000E+00
   -0.67352E-09         0.10033E-08         0.00000E+00
   -0.69109E-09         0.99176E-09         0.00000E+00
   -0.71039E-09         0.98238E-09         0.00000E+00
   -0.73182E-09         0.97494E-09         0.00000E+00
   -0.75577E-09         0.96910E-09         0.00000E+00
   -0.78259E-09         0.96445E-09         0.00000E+00
   -0.81259E-09         0.96050E-09         0.00000E+00
   -0.84606E-09         0.95664E-09         0.00000E+00
   -0.88319E-09         0.95216E-09         0.00000E+00
   -0.92411E-09         0.94618E-09         0.00000E+00
   -0.96885E-09         0.93765E-09         0.00000E+00
   -0.10173E-08         0.92531E-09         0.00000E+00
   -0.10691E-08         0.90765E-09         0.00000E+00
   -0.11239E-08         0.88285E-09         0.00000E+00
   -0.11809E-08         0.84877E-09         0.00000E+00
   -0.12389E-08         0.80293E-09         0.00000E+00
   -0.12967E-08         0.74247E-09         0.00000E+00
   -0.13522E-08         0.66423E-09         0.00000E+00
   -0.14032E-08         0.56481E-09         0.00000E+00
   -0.14469E-08         0.44070E-09         0.00000E+00
   -0.14799E-08         0.28855E-09         0.00000E+00
   -0.14983E-08         0.10538E-09         0.00000E+00
    0.23740E-09         0.21385E-09         0.00000E+00
    0.22047E-09         0.58871E-09         0.00000E+00
    0.18955E-09         0.88897E-09         0.00000E+00
    0.14795E-09         0.11222E-08         0.00000E+00
    0.98633E-10         0.12969E-08         0.00000E+00
    0.44208E-10         0.14221E-08         0.00000E+00
   -0.13107E-10         0.15063E-08         0.00000E+00
   -0.71467E-10         0.15573E-08         0.00000E+00
   -0.12938E-09         0.15822E-08         0.00000E+00
   -0.18568E-09         0.15867E-08         0.00000E+00
   -0.23946E-09         0.15759E-08         0.00000E+00
   -0.29008E-09         0.15538E-08         0.00000E+00
   -0.33712E-09         0.15236E-08         0.00000E+00
   -0.38030E-09         0.14878E-08         0.00000E+00
   -0.41952E-09         0.14485E-08         0.00000E+00
   -0.45480E-09         0.14073E-08         0.00000E+00
   -0.48624E-09         0.13655E-08         0.00000E+00
   -0.51406E-09         0.13239E-08         0.00000E+00
   -0.53852E-09         0.12834E-08         0.00000E+00
   -0.55995E-09         0.12446E-08         0.00000E+00
   -0.57872E-09         0.12079E-08         0.00000E+00
   -0.59523E-09         0.11738E-08         0.00000E+00
   -0.60990E-09         0.11424E-08         0.00000E+00
   -0.62320E-09         0.11140E-08         0.00000E+00
   -0.63558E-09         0.10886E-08         0.00000E+00
   -0.64752E-09         0.10665E-08         0.00000E+00
   -0.65950E-09         0.10475E-08         0.00000E+00
   -0.67200E-09         0.10316E-08         0.00000E+00
   -0.68550E-09         0.10188E-08         0.00000E+00
   -0.70047E-09         0.10088E-08         0.00000E+00
   -0.71738E-09         0.10015E-08         0.00000E+00
   -0.73667E-09         0.99653E-09         0.00000E+00
   -0.75878E-09         0.99355E-09         0.00000E+00
   -0.78410E-09         0.99213E-09         0.00000E+00
   -0.81300E-09         0.99172E-09         0.00000E+00
   -0.84580E-09         0.99168E-09         0.00000E+00
   -0.88274E-09         0.99119E-09         0.00000E+00
   -0.92398E-09         0.98931E-09         0.00000E+00
   -0.96957E-09         0.98485E-09         0.00000E+00
   -0.10194E-08         0.97640E-09         0.00000E+00
   -0.10732E-08         0.96224E-09         0.00000E+00
   -0.11305E-08         0.94032E-09         0.00000E+00
   -0.11904E-08         0.90819E-09         0.00000E+00
   -0.12519E-08         0.86301E-09         0.00000E+00
   -0.13133E-08         0.80152E-09         0.00000E+00
   -0.13726E-08         0.72006E-09         0.00000E+00
   -0.14273E-08         0.61471E-09         0.00000E+00
   -0.14743E-08         0.48144E-09         0.00000E+00
   -0.15099E-08         0.31634E-09         0.00000E+00
   -0.15298E-08         0.11594E-09         0.00000E+00
    0.21018E-09         0.22317E-09         0.00000E+00
    0.19233E-09         0.61417E-09         0.00000E+00
    0.15975E-09         0.92702E-09         0.00000E+00
    0.11594E-09         0.11696E-08         0.00000E+00
    0.64080E-10         0.13508E-08         0.00000E+00
    0.69581E-11         0.14799E-08         0.00000E+00
   -0.53042E-10         0.15659E-08         0.00000E+00
   -0.11394E-09         0.16170E-08         0.00000E+00
   -0.17411E-09         0.16406E-08         0.00000E+00
   -0.23231E-09         0.16428E-08         0.00000E+00
   -0.28756E-09         0.16289E-08         0.00000E+00
   -0.33917E-09         0.16031E-08         0.00000E+00
   -0.38670E-09         0.15688E-08         0.00000E+00
   -0.42986E-09         0.15289E-08         0.00000E+00
   -0.46856E-09         0.14854E-08         0.00000E+00
   -0.50283E-09         0.14400E-08         0.00000E+00
   -0.53283E-09         0.13942E-08         0.00000E+00
   -0.55878E-09         0.13490E-08         0.00000E+00
   -0.58100E-09         0.13051E-08         0.00000E+00
   -0.59987E-09         0.12633E-08         0.00000E+00
   -0.61580E-09         0.12240E-08         0.00000E+00
   -0.62924E-09         0.11877E-08         0.00000E+00
   -0.64068E-09         0.11546E-08         0.00000E+00
   -0.65062E-09         0.11250E-08         0.00000E+00
   -0.65957E-09         0.10989E-08         0.00000E+00
   -0.66805E-09         0.10766E-08         0.00000E+00
   -0.67659E-09         0.10579E-08         0.00000E+00
   -0.68573E-09         0.10429E-08         0.00000E+00
   -0.69598E-09         0.10313E-08         0.00000E+00
   -0.70787E-09         0.10232E-08         0.00000E+00
   -0.72192E-09         0.10181E-08         0.00000E+00
   -0.73862E-09         0.10159E-08         0.00000E+00
   -0.75844E-09         0.10161E-08         0.00000E+00
   -0.78185E-09         0.10183E-08         0.00000E+00
   -0.80926E-09         0.10219E-08         0.00000E+00
   -0.84102E-09         0.10261E-08         0.00000E+00
   -0.87743E-09         0.10301E-08         0.00000E+00
   -0.91869E-09         0.10329E-08         0.00000E+00
   -0.96488E-09         0.10331E-08         0.00000E+00
   -0.10159E-08         0.10291E-08         0.00000E+00
   -0.10716E-08         0.10190E-08         0.00000E+00
   -0.11312E-08         0.10005E-08         0.00000E+00
   -0.11941E-08         0.97081E-09         0.00000E+00
   -0.12590E-08         0.92669E-09         0.00000E+00
   -0.13241E-08         0.86440E-09         0.00000E+00
   -0.13874E-08         0.77977E-09         0.00000E+00
   -0.14459E-08         0.66829E-09         0.00000E+00
   -0.14964E-08         0.52532E-09         0.00000E+00
   -0.15347E-08         0.34636E-09         0.00000E+00
   -0.15563E-08         0.12737E-09         0.00000E+00
    0.18073E-09         0.23302E-09         0.00000E+00
    0.16182E-09         0.64108E-09         0.00000E+00
    0.12731E-09         0.96720E-09         0.00000E+00
    0.80969E-10         0.12195E-08         0.00000E+00
    0.26192E-10         0.14074E-08         0.00000E+00
   -0.34014E-10         0.15405E-08         0.00000E+00
   -0.97071E-10         0.16283E-08         0.00000E+00
   -0.16083E-09         0.16793E-08         0.00000E+00
   -0.22354E-09         0.17012E-08         0.00000E+00
   -0.28384E-09         0.17006E-08         0.00000E+00
   -0.34068E-09         0.16831E-08         0.00000E+00
   -0.39334E-09         0.16531E-08         0.00000E+00
   -0.44131E-09         0.16143E-08         0.00000E+00
   -0.48434E-09         0.15696E-08         0.00000E+00
   -0.52233E-09         0.15213E-08         0.00000E+00
   -0.55535E-09         0.14714E-08         0.00000E+00
   -0.58358E-09         0.14211E-08         0.00000E+00
   -0.60730E-09         0.13717E-08         0.00000E+00
   -0.62688E-09         0.13241E-08         0.00000E+00
   -0.64274E-09         0.12790E-08         0.00000E+00
   -0.65537E-09         0.12368E-08         0.00000E+00
   -0.66526E-09         0.11982E-08         0.00000E+00
   -0.67295E-09         0.11632E-08         0.00000E+00
   -0.67901E-09         0.11323E-08         0.00000E+00
   -0.68399E-09         0.11055E-08         0.00000E+00
   -0.68848E-09         0.10830E-08         0.00000E+00
   -0.69305E-09         0.10646E-08         0.00000E+00
   -0.69829E-09         0.10505E-08         0.00000E+00
   -0.70477E-09         0.10404E-08         0.00000E+00
   -0.71306E-09         0.10343E-08         0.00000E+00
   -0.72372E-09         0.10318E-08         0.00000E+00
   -0.73732E-09         0.10326E-08         0.00000E+00
   -0.75438E-09         0.10363E-08         0.00000E+00
   -0.77539E-09         0.10425E-08         0.00000E+00
   -0.80084E-09         0.10505E-08         0.00000E+00
   -0.83114E-09         0.10595E-08         0.00000E+00
   -0.86663E-09         0.10686E-08         0.00000E+00
   -0.90755E-09         0.10766E-08         0.00000E+00
   -0.95403E-09         0.10820E-08         0.00000E+00
   -0.10060E-08         0.10832E-08         0.00000E+00
   -0.10633E-08         0.10778E-08         0.00000E+00
   -0.11252E-08         0.10633E-08         0.00000E+00
   -0.11910E-08         0.10366E-08         0.00000E+00
   -0.12592E-08         0.99400E-09         0.00000E+00
   -0.13282E-08         0.93120E-09         0.00000E+00
   -0.13955E-08         0.84348E-09         0.00000E+00
   -0.14580E-08         0.72569E-09         0.00000E+00
   -0.15121E-08         0.57250E-09         0.00000E+00
   -0.15533E-08         0.37873E-09         0.00000E+00
   -0.15765E-08         0.13974E-09         0.00000E+00
    0.14890E-09         0.24348E-09         0.00000E+00
    0.12876E-09         0.66966E-09         0.00000E+00
    0.92025E-10         0.10098E-08         0.00000E+00
    0.42746E-10         0.12725E-08         0.00000E+00
   -0.15398E-10         0.14674E-08         0.00000E+00
   -0.79147E-10         0.16045E-08         0.00000E+00
   -0.14570E-09         0.16939E-08         0.00000E+00
   -0.21271E-09         0.17444E-08         0.00000E+00
   -0.27827E-09         0.17643E-08         0.00000E+00
   -0.34090E-09         0.17605E-08         0.00000E+00
   -0.39948E-09         0.17387E-08         0.00000E+00
   -0.45321E-09         0.17039E-08         0.00000E+00
   -0.50159E-09         0.16599E-08         0.00000E+00
   -0.54434E-09         0.16098E-08         0.00000E+00
   -0.58139E-09         0.15562E-08         0.00000E+00
   -0.61285E-09         0.15010E-08         0.00000E+00
   -0.63895E-09         0.14458E-08         0.00000E+00
   -0.66002E-09         0.13918E-08         0.00000E+00
   -0.67650E-09         0.13401E-08         0.00000E+00
   -0.68886E-09         0.12912E-08         0.00000E+00
   -0.69765E-09         0.12460E-08         0.00000E+00
   -0.70344E-09         0.12047E-08         0.00000E+00
   -0.70683E-09         0.11678E-08         0.00000E+00
   -0.70843E-09         0.11354E-08         0.00000E+00
   -0.70887E-09         0.11078E-08         0.00000E+00
   -0.70878E-09         0.10851E-08         0.00000E+00
   -0.70880E-09         0.10671E-08         0.00000E+00
   -0.70955E-09         0.10540E-08         0.00000E+00
   -0.71167E-09         0.10455E-08         0.00000E+00
   -0.71578E-09         0.10416E-08         0.00000E+00
   -0.72250E-09         0.10418E-08         0.00000E+00
   -0.73243E-09         0.10460E-08         0.00000E+00
   -0.74616E-09         0.10537E-08         0.00000E+00
   -0.76425E-09         0.10643E-08         0.00000E+00
   -0.78723E-09         0.10772E-08         0.00000E+00
   -0.81557E-09         0.10915E-08         0.00000E+00
   -0.84967E-09         0.11062E-08         0.00000E+00
   -0.88984E-09         0.11201E-08         0.00000E+00
   -0.93623E-09         0.11314E-08         0.00000E+00
   -0.98885E-09         0.11384E-08         0.00000E+00
   -0.10474E-08         0.11384E-08         0.00000E+00
   -0.11114E-08         0.11287E-08         0.00000E+00
   -0.11799E-08         0.11056E-08         0.00000E+00
   -0.12515E-08         0.10649E-08         0.00000E+00
   -0.13243E-08         0.10020E-08         0.00000E+00
   -0.13957E-08         0.91133E-09         0.00000E+00
   -0.14624E-08         0.78706E-09         0.00000E+00
   -0.15202E-08         0.62312E-09         0.00000E+00
   -0.15645E-08         0.41357E-09         0.00000E+00
   -0.15895E-08         0.15309E-09         0.00000E+00
    0.11450E-09         0.25467E-09         0.00000E+00
    0.92920E-10         0.70020E-09         0.00000E+00
    0.53595E-10         0.10554E-08         0.00000E+00
    0.90376E-12         0.13290E-08         0.00000E+00
   -0.61141E-10         0.15311E-08         0.00000E+00
   -0.12898E-09         0.16724E-08         0.00000E+00
   -0.19953E-09         0.17631E-08         0.00000E+00
   -0.27024E-09         0.18129E-08         0.00000E+00
   -0.33902E-09         0.18302E-08         0.00000E+00
   -0.40424E-09         0.18224E-08         0.00000E+00
   -0.46469E-09         0.17958E-08         0.00000E+00
   -0.51953E-09         0.17554E-08         0.00000E+00
   -0.56823E-09         0.17054E-08         0.00000E+00
   -0.61052E-09         0.16493E-08         0.00000E+00
   -0.64637E-09         0.15896E-08         0.00000E+00
   -0.67591E-09         0.15286E-08         0.00000E+00
   -0.69945E-09         0.14679E-08         0.00000E+00
   -0.71740E-09         0.14088E-08         0.00000E+00
   -0.73023E-09         0.13524E-08         0.00000E+00
   -0.73853E-09         0.12995E-08         0.00000E+00
   -0.74290E-09         0.12508E-08         0.00000E+00
   -0.74397E-09         0.12067E-08         0.00000E+00
   -0.74243E-09         0.11676E-08         0.00000E+00
   -0.73895E-09         0.11337E-08         0.00000E+00
   -0.73421E-09         0.11053E-08         0.00000E+00
   -0.72891E-09         0.10823E-08         0.00000E+00
   -0.72373E-09         0.10648E-08         0.00000E+00
   -0.71936E-09         0.10527E-08         0.00000E+00
   -0.71649E-09         0.10460E-08         0.00000E+00
   -0.71579E-09         0.10445E-08         0.00000E+00
   -0.71793E-09         0.10478E-08         0.00000E+00
   -0.72358E-09         0.10556E-08         0.00000E+00
   -0.73337E-09         0.10676E-08         0.00000E+00
   -0.74793E-09         0.10830E-08         0.00000E+00
   -0.76785E-09         0.11013E-08         0.00000E+00
   -0.79367E-09         0.11215E-08         0.00000E+00
   -0.82585E-09         0.11425E-08         0.00000E+00
   -0.86475E-09         0.11629E-08         0.00000E+00
   -0.91060E-09         0.11809E-08         0.00000E+00
   -0.96343E-09         0.11944E-08         0.00000E+00
   -0.10230E-08         0.12006E-08         0.00000E+00
   -0.10888E-08         0.11963E-08         0.00000E+00
   -0.11599E-08         0.11775E-08         0.00000E+00
   -0.12347E-08         0.11395E-08         0.00000E+00
   -0.13113E-08         0.10768E-08         0.00000E+00
   -0.13868E-08         0.98338E-09         0.00000E+00
   -0.14576E-08         0.85253E-09         0.00000E+00
   -0.15194E-08         0.67733E-09         0.00000E+00
   -0.15668E-08         0.45101E-09         0.00000E+00
   -0.15936E-08         0.16748E-09         0.00000E+00
    0.77288E-10         0.26670E-09         0.00000E+00
    0.54020E-10         0.73302E-09         0.00000E+00
    0.11657E-10         0.11042E-08         0.00000E+00
   -0.45016E-10         0.13895E-08         0.00000E+00
   -0.11160E-09         0.15992E-08         0.00000E+00
   -0.18416E-09         0.17447E-08         0.00000E+00
   -0.25931E-09         0.18366E-08         0.00000E+00
   -0.33423E-09         0.18851E-08         0.00000E+00
   -0.40663E-09         0.18992E-08         0.00000E+00
   -0.47472E-09         0.18868E-08         0.00000E+00
   -0.53719E-09         0.18544E-08         0.00000E+00
   -0.59315E-09         0.18076E-08         0.00000E+00
   -0.64205E-09         0.17508E-08         0.00000E+00
   -0.68365E-09         0.16878E-08         0.00000E+00
   -0.71794E-09         0.16213E-08         0.00000E+00
   -0.74515E-09         0.15537E-08         0.00000E+00
   -0.76564E-09         0.14868E-08         0.00000E+00
   -0.77989E-09         0.14221E-08         0.00000E+00
   -0.78848E-09         0.13606E-08         0.00000E+00
   -0.79207E-09         0.13033E-08         0.00000E+00
   -0.79135E-09         0.12508E-08         0.00000E+00
   -0.78704E-09         0.12036E-08         0.00000E+00
   -0.77987E-09         0.11621E-08         0.00000E+00
   -0.77061E-09         0.11265E-08         0.00000E+00
   -0.76000E-09         0.10971E-08         0.00000E+00
   -0.74879E-09         0.10739E-08         0.00000E+00
   -0.73773E-09         0.10569E-08         0.00000E+00
   -0.72755E-09         0.10461E-08         0.00000E+00
   -0.71900E-09         0.10413E-08         0.00000E+00
   -0.71280E-09         0.10423E-08         0.00000E+00
   -0.70968E-09         0.10490E-08         0.00000E+00
   -0.71035E-09         0.10608E-08         0.00000E+00
   -0.71553E-09         0.10774E-08         0.00000E+00
   -0.72589E-09         0.10981E-08         0.00000E+00
   -0.74209E-09         0.11223E-08         0.00000E+00
   -0.76473E-09         0.11490E-08         0.00000E+00
   -0.79437E-09         0.11768E-08         0.00000E+00
   -0.83141E-09         0.12045E-08         0.00000E+00
   -0.87617E-09         0.12299E-08         0.00000E+00
   -0.92871E-09         0.12507E-08         0.00000E+00
   -0.98887E-09         0.12640E-08         0.00000E+00
   -0.10561E-08         0.12659E-08         0.00000E+00
   -0.11294E-08         0.12522E-08         0.00000E+00
   -0.12073E-08         0.12175E-08         0.00000E+00
   -0.12875E-08         0.11556E-08         0.00000E+00
   -0.13671E-08         0.10597E-08         0.00000E+00
   -0.14422E-08         0.92218E-09         0.00000E+00
   -0.15080E-08         0.73523E-09         0.00000E+00
   -0.15586E-08         0.49115E-09         0.00000E+00
   -0.15874E-08         0.18296E-09         0.00000E+00
    0.36935E-10         0.27972E-09         0.00000E+00
    0.11680E-10         0.76852E-09         0.00000E+00
   -0.34254E-10         0.11570E-08         0.00000E+00
   -0.95591E-10         0.14547E-08         0.00000E+00
   -0.16745E-09         0.16725E-08         0.00000E+00
   -0.24549E-09         0.18220E-08         0.00000E+00
   -0.32593E-09         0.19148E-08         0.00000E+00
   -0.40565E-09         0.19615E-08         0.00000E+00
   -0.48211E-09         0.19716E-08         0.00000E+00
   -0.55336E-09         0.19536E-08         0.00000E+00
   -0.61798E-09         0.19146E-08         0.00000E+00
   -0.67504E-09         0.18604E-08         0.00000E+00
   -0.72397E-09         0.17959E-08         0.00000E+00
   -0.76456E-09         0.17249E-08         0.00000E+00
   -0.79689E-09         0.16507E-08         0.00000E+00
   -0.82125E-09         0.15758E-08         0.00000E+00
   -0.83808E-09         0.15020E-08         0.00000E+00
   -0.84799E-09         0.14310E-08         0.00000E+00
   -0.85164E-09         0.13639E-08         0.00000E+00
   -0.84980E-09         0.13017E-08         0.00000E+00
   -0.84324E-09         0.12450E-08         0.00000E+00
   -0.83279E-09         0.11945E-08         0.00000E+00
   -0.81925E-09         0.11504E-08         0.00000E+00
   -0.80345E-09         0.11131E-08         0.00000E+00
   -0.78621E-09         0.10827E-08         0.00000E+00
   -0.76834E-09         0.10592E-08         0.00000E+00
   -0.75064E-09         0.10428E-08         0.00000E+00
   -0.73391E-09         0.10333E-08         0.00000E+00
   -0.71893E-09         0.10305E-08         0.00000E+00
   -0.70649E-09         0.10344E-08         0.00000E+00
   -0.69736E-09         0.10446E-08         0.00000E+00
   -0.69232E-09         0.10608E-08         0.00000E+00
   -0.69213E-09         0.10824E-08         0.00000E+00
   -0.69754E-09         0.11089E-08         0.00000E+00
   -0.70928E-09         0.11395E-08         0.00000E+00
   -0.72802E-09         0.11732E-08         0.00000E+00
   -0.75438E-09         0.12086E-08         0.00000E+00
   -0.78888E-09         0.12442E-08         0.00000E+00
   -0.83188E-09         0.12779E-08         0.00000E+00
   -0.88353E-09         0.13069E-08         0.00000E+00
   -0.94370E-09         0.13281E-08         0.00000E+00
   -0.10119E-08         0.13372E-08         0.00000E+00
   -0.10871E-08         0.13294E-08         0.00000E+00
   -0.11677E-08         0.12987E-08         0.00000E+00
   -0.12514E-08         0.12383E-08         0.00000E+00
   -0.13350E-08         0.11402E-08         0.00000E+00
   -0.14143E-08         0.99606E-09         0.00000E+00
   -0.14841E-08         0.79693E-09         0.00000E+00
   -0.15381E-08         0.53408E-09         0.00000E+00
   -0.15688E-08         0.19958E-09         0.00000E+00
   -0.69894E-11         0.29391E-09         0.00000E+00
   -0.34596E-10         0.80719E-09         0.00000E+00
   -0.84739E-10         0.12144E-08         0.00000E+00
   -0.15155E-09         0.15254E-08         0.00000E+00
   -0.22958E-09         0.17516E-08         0.00000E+00
   -0.31396E-09         0.19053E-08         0.00000E+00
   -0.40048E-09         0.19985E-08         0.00000E+00
   -0.48564E-09         0.20426E-08         0.00000E+00
   -0.56664E-09         0.20479E-08         0.00000E+00
   -0.64135E-09         0.20233E-08         0.00000E+00
   -0.70823E-09         0.19764E-08         0.00000E+00
   -0.76630E-09         0.19137E-08         0.00000E+00
   -0.81501E-09         0.18402E-08         0.00000E+00
   -0.85420E-09         0.17604E-08         0.00000E+00
   -0.88404E-09         0.16775E-08         0.00000E+00
   -0.90491E-09         0.15943E-08         0.00000E+00
   -0.91739E-09         0.15128E-08         0.00000E+00
   -0.92219E-09         0.14349E-08         0.00000E+00
   -0.92011E-09         0.13616E-08         0.00000E+00
   -0.91201E-09         0.12940E-08         0.00000E+00
   -0.89879E-09         0.12329E-08         0.00000E+00
   -0.88135E-09         0.11787E-08         0.00000E+00
   -0.86060E-09         0.11319E-08         0.00000E+00
   -0.83744E-09         0.10927E-08         0.00000E+00
   -0.81275E-09         0.10612E-08         0.00000E+00
   -0.78742E-09         0.10375E-08         0.00000E+00
   -0.76229E-09         0.10217E-08         0.00000E+00
   -0.73820E-09         0.10136E-08         0.00000E+00
   -0.71601E-09         0.10131E-08         0.00000E+00
   -0.69653E-09         0.10200E-08         0.00000E+00
   -0.68059E-09         0.10340E-08         0.00000E+00
   -0.66902E-09         0.10548E-08         0.00000E+00
   -0.66265E-09         0.10818E-08         0.00000E+00
   -0.66228E-09         0.11145E-08         0.00000E+00
   -0.66872E-09         0.11520E-08         0.00000E+00
   -0.68272E-09         0.11934E-08         0.00000E+00
   -0.70499E-09         0.12371E-08         0.00000E+00
   -0.73612E-09         0.12814E-08         0.00000E+00
   -0.77657E-09         0.13241E-08         0.00000E+00
   -0.82658E-09         0.13623E-08         0.00000E+00
   -0.88607E-09         0.13923E-08         0.00000E+00
   -0.95459E-09         0.14097E-08         0.00000E+00
   -0.10311E-08         0.14087E-08         0.00000E+00
   -0.11141E-08         0.13830E-08         0.00000E+00
   -0.12009E-08         0.13246E-08         0.00000E+00
   -0.12883E-08         0.12248E-08         0.00000E+00
   -0.13717E-08         0.10741E-08         0.00000E+00
   -0.14455E-08         0.86245E-09         0.00000E+00
   -0.15029E-08         0.57986E-09         0.00000E+00
   -0.15357E-08         0.21737E-09         0.00000E+00
   -0.55056E-10         0.30949E-09         0.00000E+00
   -0.85452E-10         0.84961E-09         0.00000E+00
   -0.14057E-09         0.12773E-08         0.00000E+00
   -0.21382E-09         0.16026E-08         0.00000E+00
   -0.29906E-09         0.18377E-08         0.00000E+00
   -0.39078E-09         0.19953E-08         0.00000E+00
   -0.48427E-09         0.20885E-08         0.00000E+00
   -0.57559E-09         0.21292E-08         0.00000E+00
   -0.66164E-09         0.21284E-08         0.00000E+00
   -0.74007E-09         0.20959E-08         0.00000E+00
   -0.80926E-09         0.20399E-08         0.00000E+00
   -0.86817E-09         0.19672E-08         0.00000E+00
   -0.91630E-09         0.18835E-08         0.00000E+00
   -0.95357E-09         0.17935E-08         0.00000E+00
   -0.98026E-09         0.17008E-08         0.00000E+00
   -0.99688E-09         0.16084E-08         0.00000E+00
   -0.10042E-08         0.15185E-08         0.00000E+00
   -0.10030E-08         0.14328E-08         0.00000E+00
   -0.99423E-09         0.13528E-08         0.00000E+00
   -0.97894E-09         0.12794E-08         0.00000E+00
   -0.95812E-09         0.12135E-08         0.00000E+00
   -0.93277E-09         0.11554E-08         0.00000E+00
   -0.90390E-09         0.11056E-08         0.00000E+00
   -0.87248E-09         0.10644E-08         0.00000E+00
   -0.83948E-09         0.10318E-08         0.00000E+00
   -0.80581E-09         0.10079E-08         0.00000E+00
   -0.77240E-09         0.99274E-09         0.00000E+00
   -0.74012E-09         0.98616E-09         0.00000E+00
   -0.70986E-09         0.98804E-09         0.00000E+00
   -0.68250E-09         0.99816E-09         0.00000E+00
   -0.65889E-09         0.10163E-08         0.00000E+00
   -0.63993E-09         0.10420E-08         0.00000E+00
   -0.62648E-09         0.10748E-08         0.00000E+00
   -0.61943E-09         0.11141E-08         0.00000E+00
   -0.61964E-09         0.11591E-08         0.00000E+00
   -0.62796E-09         0.12086E-08         0.00000E+00
   -0.64518E-09         0.12613E-08         0.00000E+00
   -0.67200E-09         0.13152E-08         0.00000E+00
   -0.70897E-09         0.13678E-08         0.00000E+00
   -0.75643E-09         0.14161E-08         0.00000E+00
   -0.81439E-09         0.14560E-08         0.00000E+00
   -0.88246E-09         0.14826E-08         0.00000E+00
   -0.95966E-09         0.14896E-08         0.00000E+00
   -0.10443E-08         0.14697E-08         0.00000E+00
   -0.11339E-08         0.14142E-08         0.00000E+00
   -0.12247E-08         0.13134E-08         0.00000E+00
   -0.13120E-08         0.11563E-08         0.00000E+00
   -0.13897E-08         0.93178E-09         0.00000E+00
   -0.14504E-08         0.62852E-09         0.00000E+00
   -0.14852E-08         0.23635E-09         0.00000E+00
   -0.10802E-09         0.32674E-09         0.00000E+00
   -0.14174E-09         0.89647E-09         0.00000E+00
   -0.20275E-09         0.13466E-08         0.00000E+00
   -0.28358E-09         0.16874E-08         0.00000E+00
   -0.37723E-09         0.19317E-08         0.00000E+00
   -0.47746E-09         0.20932E-08         0.00000E+00
   -0.57889E-09         0.21855E-08         0.00000E+00
   -0.67714E-09         0.22217E-08         0.00000E+00
   -0.76873E-09         0.22136E-08         0.00000E+00
   -0.85112E-09         0.21716E-08         0.00000E+00
   -0.92256E-09         0.21048E-08         0.00000E+00
   -0.98202E-09         0.20206E-08         0.00000E+00
   -0.10291E-08         0.19253E-08         0.00000E+00
   -0.10637E-08         0.18237E-08         0.00000E+00
   -0.10864E-08         0.17200E-08         0.00000E+00
   -0.10979E-08         0.16173E-08         0.00000E+00
   -0.10990E-08         0.15180E-08         0.00000E+00
   -0.10907E-08         0.14239E-08         0.00000E+00
   -0.10743E-08         0.13365E-08         0.00000E+00
   -0.10507E-08         0.12569E-08         0.00000E+00
   -0.10213E-08         0.11857E-08         0.00000E+00
   -0.98699E-09         0.11235E-08         0.00000E+00
   -0.94901E-09         0.10706E-08         0.00000E+00
   -0.90838E-09         0.10273E-08         0.00000E+00
   -0.86612E-09         0.99360E-09         0.00000E+00
   -0.82321E-09         0.96955E-09         0.00000E+00
   -0.78062E-09         0.95510E-09         0.00000E+00
   -0.73926E-09         0.95016E-09         0.00000E+00
   -0.70005E-09         0.95457E-09         0.00000E+00
   -0.66390E-09         0.96812E-09         0.00000E+00
   -0.63172E-09         0.99053E-09         0.00000E+00
   -0.60443E-09         0.10214E-08         0.00000E+00
   -0.58294E-09         0.10604E-08         0.00000E+00
   -0.56821E-09         0.11067E-08         0.00000E+00
   -0.56117E-09         0.11596E-08         0.00000E+00
   -0.56275E-09         0.12180E-08         0.00000E+00
   -0.57384E-09         0.12802E-08         0.00000E+00
   -0.59525E-09         0.13444E-08         0.00000E+00
   -0.62763E-09         0.14079E-08         0.00000E+00
   -0.67146E-09         0.14673E-08         0.00000E+00
   -0.72684E-09         0.15182E-08         0.00000E+00
   -0.79347E-09         0.15551E-08         0.00000E+00
   -0.87042E-09         0.15712E-08         0.00000E+00
   -0.95600E-09         0.15583E-08         0.00000E+00
   -0.10476E-08         0.15067E-08         0.00000E+00
   -0.11413E-08         0.14055E-08         0.00000E+00
   -0.12322E-08         0.12424E-08         0.00000E+00
   -0.13135E-08         0.10048E-08         0.00000E+00
   -0.13774E-08         0.68004E-09         0.00000E+00
   -0.14143E-08         0.25655E-09         0.00000E+00
   -0.16689E-09         0.34597E-09         0.00000E+00
   -0.20457E-09         0.94864E-09         0.00000E+00
   -0.27258E-09         0.14234E-08         0.00000E+00
   -0.36233E-09         0.17811E-08         0.00000E+00
   -0.46579E-09         0.20351E-08         0.00000E+00
   -0.57581E-09         0.22001E-08         0.00000E+00
   -0.68628E-09         0.22906E-08         0.00000E+00
   -0.79223E-09         0.23208E-08         0.00000E+00
   -0.88983E-09         0.23036E-08         0.00000E+00
   -0.97629E-09         0.22504E-08         0.00000E+00
   -0.10498E-08         0.21710E-08         0.00000E+00
   -0.11093E-08         0.20735E-08         0.00000E+00
   -0.11545E-08         0.19647E-08         0.00000E+00
   -0.11857E-08         0.18501E-08         0.00000E+00
   -0.12034E-08         0.17340E-08         0.00000E+00
   -0.12085E-08         0.16199E-08         0.00000E+00
   -0.12022E-08         0.15102E-08         0.00000E+00
   -0.11857E-08         0.14070E-08         0.00000E+00
   -0.11603E-08         0.13116E-08         0.00000E+00
   -0.11273E-08         0.12253E-08         0.00000E+00
   -0.10881E-08         0.11486E-08         0.00000E+00
   -0.10438E-08         0.10821E-08         0.00000E+00
   -0.99559E-09         0.10260E-08         0.00000E+00
   -0.94472E-09         0.98048E-09         0.00000E+00
   -0.89222E-09         0.94567E-09         0.00000E+00
   -0.83912E-09         0.92148E-09         0.00000E+00
   -0.78641E-09         0.90786E-09         0.00000E+00
   -0.73504E-09         0.90468E-09         0.00000E+00
   -0.68597E-09         0.91177E-09         0.00000E+00
   -0.64011E-09         0.92891E-09         0.00000E+00
   -0.59840E-09         0.95585E-09         0.00000E+00
   -0.56179E-09         0.99223E-09         0.00000E+00
   -0.53124E-09         0.10376E-08         0.00000E+00
   -0.50776E-09         0.10913E-08         0.00000E+00
   -0.49234E-09         0.11526E-08         0.00000E+00
   -0.48600E-09         0.12203E-08         0.00000E+00
   -0.48973E-09         0.12928E-08         0.00000E+00
   -0.50445E-09         0.13680E-08         0.00000E+00
   -0.53096E-09         0.14432E-08         0.00000E+00
   -0.56984E-09         0.15147E-08         0.00000E+00
   -0.62136E-09         0.15777E-08         0.00000E+00
   -0.68531E-09         0.16262E-08         0.00000E+00
   -0.76085E-09         0.16526E-08         0.00000E+00
   -0.84632E-09         0.16479E-08         0.00000E+00
   -0.93900E-09         0.16014E-08         0.00000E+00
   -0.10349E-08         0.15006E-08         0.00000E+00
   -0.11287E-08         0.13320E-08         0.00000E+00
   -0.12134E-08         0.10813E-08         0.00000E+00
   -0.12803E-08         0.73429E-09         0.00000E+00
   -0.13190E-08         0.27792E-09         0.00000E+00
   -0.23300E-09         0.36758E-09         0.00000E+00
   -0.27541E-09         0.10071E-08         0.00000E+00
   -0.35173E-09         0.15093E-08         0.00000E+00
   -0.45196E-09         0.18853E-08         0.00000E+00
   -0.56683E-09         0.21493E-08         0.00000E+00
   -0.68807E-09         0.23171E-08         0.00000E+00
   -0.80871E-09         0.24046E-08         0.00000E+00
   -0.92313E-09         0.24272E-08         0.00000E+00
   -0.10271E-08         0.23988E-08         0.00000E+00
   -0.11176E-08         0.23322E-08         0.00000E+00
   -0.11927E-08         0.22379E-08         0.00000E+00
   -0.12516E-08         0.21249E-08         0.00000E+00
   -0.12940E-08         0.20009E-08         0.00000E+00
   -0.13205E-08         0.18715E-08         0.00000E+00
   -0.13318E-08         0.17416E-08         0.00000E+00
   -0.13292E-08         0.16148E-08         0.00000E+00
   -0.13141E-08         0.14938E-08         0.00000E+00
   -0.12879E-08         0.13807E-08         0.00000E+00
   -0.12522E-08         0.12768E-08         0.00000E+00
   -0.12084E-08         0.11834E-08         0.00000E+00
   -0.11581E-08         0.11009E-08         0.00000E+00
   -0.11025E-08         0.10299E-08         0.00000E+00
   -0.10430E-08         0.97050E-09         0.00000E+00
   -0.98083E-09         0.92288E-09         0.00000E+00
   -0.91705E-09         0.88699E-09         0.00000E+00
   -0.85277E-09         0.86277E-09         0.00000E+00
   -0.78899E-09         0.85009E-09         0.00000E+00
   -0.72668E-09         0.84879E-09         0.00000E+00
   -0.66679E-09         0.85869E-09         0.00000E+00
   -0.61026E-09         0.87959E-09         0.00000E+00
   -0.55804E-09         0.91123E-09         0.00000E+00
   -0.51108E-09         0.95328E-09         0.00000E+00
   -0.47040E-09         0.10053E-08         0.00000E+00
   -0.43701E-09         0.10667E-08         0.00000E+00
   -0.41199E-09         0.11368E-08         0.00000E+00
   -0.39643E-09         0.12142E-08         0.00000E+00
   -0.39141E-09         0.12975E-08         0.00000E+00
   -0.39799E-09         0.13845E-08         0.00000E+00
   -0.41710E-09         0.14723E-08         0.00000E+00
   -0.44949E-09         0.15569E-08         0.00000E+00
   -0.49558E-09         0.16331E-08         0.00000E+00
   -0.55531E-09         0.16944E-08         0.00000E+00
   -0.62798E-09         0.17326E-08         0.00000E+00
   -0.71196E-09         0.17374E-08         0.00000E+00
   -0.80455E-09         0.16971E-08         0.00000E+00
   -0.90165E-09         0.15978E-08         0.00000E+00
   -0.99759E-09         0.14244E-08         0.00000E+00
   -0.10849E-08         0.11608E-08         0.00000E+00
   -0.11544E-08         0.79107E-09         0.00000E+00
   -0.11949E-08         0.30042E-09         0.00000E+00
   -0.30809E-09         0.39206E-09         0.00000E+00
   -0.35617E-09         0.10731E-08         0.00000E+00
   -0.44234E-09         0.16057E-08         0.00000E+00
   -0.55488E-09         0.20016E-08         0.00000E+00
   -0.68293E-09         0.22759E-08         0.00000E+00
   -0.81693E-09         0.24458E-08         0.00000E+00
   -0.94886E-09         0.25286E-08         0.00000E+00
   -0.10724E-08         0.25412E-08         0.00000E+00
   -0.11829E-08         0.24992E-08         0.00000E+00
   -0.12771E-08         0.24164E-08         0.00000E+00
   -0.13531E-08         0.23047E-08         0.00000E+00
   -0.14102E-08         0.21740E-08         0.00000E+00
   -0.14485E-08         0.20325E-08         0.00000E+00
   -0.14687E-08         0.18865E-08         0.00000E+00
   -0.14721E-08         0.17413E-08         0.00000E+00
   -0.14601E-08         0.16006E-08         0.00000E+00
   -0.14345E-08         0.14673E-08         0.00000E+00
   -0.13970E-08         0.13435E-08         0.00000E+00
   -0.13493E-08         0.12307E-08         0.00000E+00
   -0.12933E-08         0.11297E-08         0.00000E+00
   -0.12304E-08         0.10413E-08         0.00000E+00
   -0.11623E-08         0.96573E-09         0.00000E+00
   -0.10903E-08         0.90310E-09         0.00000E+00
   -0.10156E-08         0.85341E-09         0.00000E+00
   -0.93948E-09         0.81657E-09         0.00000E+00
   -0.86301E-09         0.79243E-09         0.00000E+00
   -0.78719E-09         0.78082E-09         0.00000E+00
   -0.71298E-09         0.78154E-09         0.00000E+00
   -0.64134E-09         0.79441E-09         0.00000E+00
   -0.57318E-09         0.81919E-09         0.00000E+00
   -0.50944E-09         0.85566E-09         0.00000E+00
   -0.45109E-09         0.90353E-09         0.00000E+00
   -0.39912E-09         0.96241E-09         0.00000E+00
   -0.35461E-09         0.10317E-08         0.00000E+00
   -0.31867E-09         0.11108E-08         0.00000E+00
   -0.29245E-09         0.11984E-08         0.00000E+00
   -0.27715E-09         0.12930E-08         0.00000E+00
   -0.27393E-09         0.13924E-08         0.00000E+00
   -0.28389E-09         0.14935E-08         0.00000E+00
   -0.30795E-09         0.15921E-08         0.00000E+00
   -0.34672E-09         0.16827E-08         0.00000E+00
   -0.40035E-09         0.17582E-08         0.00000E+00
   -0.46829E-09         0.18094E-08         0.00000E+00
   -0.54905E-09         0.18254E-08         0.00000E+00
   -0.63996E-09         0.17927E-08         0.00000E+00
   -0.73683E-09         0.16962E-08         0.00000E+00
   -0.83376E-09         0.15189E-08         0.00000E+00
   -0.92290E-09         0.12428E-08         0.00000E+00
   -0.99438E-09         0.85002E-09         0.00000E+00
   -0.10363E-08         0.32393E-09         0.00000E+00
   -0.39448E-09         0.41998E-09         0.00000E+00
   -0.44934E-09         0.11481E-08         0.00000E+00
   -0.54716E-09         0.17147E-08         0.00000E+00
   -0.67405E-09         0.21321E-08         0.00000E+00
   -0.81723E-09         0.24167E-08         0.00000E+00
   -0.96555E-09         0.25873E-08         0.00000E+00
   -0.11098E-08         0.26632E-08         0.00000E+00
   -0.12429E-08         0.26632E-08         0.00000E+00
   -0.13597E-08         0.26045E-08         0.00000E+00
   -0.14569E-08         0.25025E-08         0.00000E+00
   -0.15327E-08         0.23705E-08         0.00000E+00
   -0.15865E-08         0.22193E-08         0.00000E+00
   -0.16188E-08         0.20579E-08         0.00000E+00
   -0.16308E-08         0.18934E-08         0.00000E+00
   -0.16241E-08         0.17311E-08         0.00000E+00
   -0.16007E-08         0.15753E-08         0.00000E+00
   -0.15625E-08         0.14288E-08         0.00000E+00
   -0.15117E-08         0.12937E-08         0.00000E+00
   -0.14504E-08         0.11715E-08         0.00000E+00
   -0.13804E-08         0.10629E-08         0.00000E+00
   -0.13035E-08         0.96846E-09         0.00000E+00
   -0.12214E-08         0.88836E-09         0.00000E+00
   -0.11356E-08         0.82258E-09         0.00000E+00
   -0.10473E-08         0.77098E-09         0.00000E+00
   -0.95775E-09         0.73336E-09         0.00000E+00
   -0.86807E-09         0.70949E-09         0.00000E+00
   -0.77926E-09         0.69912E-09         0.00000E+00
   -0.69223E-09         0.70202E-09         0.00000E+00
   -0.60790E-09         0.71796E-09         0.00000E+00
   -0.52716E-09         0.74674E-09         0.00000E+00
   -0.45091E-09         0.78813E-09         0.00000E+00
   -0.38009E-09         0.84189E-09         0.00000E+00
   -0.31570E-09         0.90769E-09         0.00000E+00
   -0.25880E-09         0.98505E-09         0.00000E+00
   -0.21053E-09         0.10733E-08         0.00000E+00
   -0.17211E-09         0.11713E-08         0.00000E+00
   -0.14480E-09         0.12775E-08         0.00000E+00
   -0.12992E-09         0.13898E-08         0.00000E+00
   -0.12870E-09         0.15049E-08         0.00000E+00
   -0.14228E-09         0.16184E-08         0.00000E+00
   -0.17148E-09         0.17244E-08         0.00000E+00
   -0.21670E-09         0.18153E-08         0.00000E+00
   -0.27761E-09         0.18811E-08         0.00000E+00
   -0.35295E-09         0.19097E-08         0.00000E+00
   -0.44011E-09         0.18864E-08         0.00000E+00
   -0.53493E-09         0.17942E-08         0.00000E+00
   -0.63132E-09         0.16142E-08         0.00000E+00
   -0.72107E-09         0.13264E-08         0.00000E+00
   -0.79374E-09         0.91061E-09         0.00000E+00
   -0.83670E-09         0.34826E-09         0.00000E+00
   -0.49517E-09         0.45205E-09         0.00000E+00
   -0.55811E-09         0.12339E-08         0.00000E+00
   -0.66965E-09         0.18383E-08         0.00000E+00
   -0.81317E-09         0.22788E-08         0.00000E+00
   -0.97349E-09         0.25734E-08         0.00000E+00
   -0.11376E-08         0.27430E-08         0.00000E+00
   -0.12950E-08         0.28092E-08         0.00000E+00
   -0.14376E-08         0.27930E-08         0.00000E+00
   -0.15601E-08         0.27139E-08         0.00000E+00
   -0.16589E-08         0.25891E-08         0.00000E+00
   -0.17326E-08         0.24333E-08         0.00000E+00
   -0.17810E-08         0.22586E-08         0.00000E+00
   -0.18049E-08         0.20749E-08         0.00000E+00
   -0.18062E-08         0.18897E-08         0.00000E+00
   -0.17869E-08         0.17089E-08         0.00000E+00
   -0.17495E-08         0.15367E-08         0.00000E+00
   -0.16964E-08         0.13762E-08         0.00000E+00
   -0.16302E-08         0.12293E-08         0.00000E+00
   -0.15531E-08         0.10974E-08         0.00000E+00
   -0.14673E-08         0.98115E-09         0.00000E+00
   -0.13748E-08         0.88080E-09         0.00000E+00
   -0.12772E-08         0.79638E-09         0.00000E+00
   -0.11763E-08         0.72770E-09         0.00000E+00
   -0.10732E-08         0.67447E-09         0.00000E+00
   -0.96916E-09         0.63635E-09         0.00000E+00
   -0.86531E-09         0.61299E-09         0.00000E+00
   -0.76258E-09         0.60407E-09         0.00000E+00
   -0.66185E-09         0.60931E-09         0.00000E+00
   -0.56396E-09         0.62845E-09         0.00000E+00
   -0.46973E-09         0.66128E-09         0.00000E+00
   -0.38001E-09         0.70762E-09         0.00000E+00
   -0.29568E-09         0.76726E-09         0.00000E+00
   -0.21770E-09         0.83995E-09         0.00000E+00
   -0.14711E-09         0.92530E-09         0.00000E+00
   -0.85049E-10         0.10227E-08         0.00000E+00
   -0.32765E-10         0.11312E-08         0.00000E+00
    0.83981E-11         0.12492E-08         0.00000E+00
    0.37033E-10         0.13746E-08         0.00000E+00
    0.51723E-10         0.15041E-08         0.00000E+00
    0.51138E-10         0.16333E-08         0.00000E+00
    0.34174E-10         0.17557E-08         0.00000E+00
    0.15127E-12         0.18633E-08         0.00000E+00
   -0.50928E-10         0.19452E-08         0.00000E+00
   -0.11806E-09         0.19881E-08         0.00000E+00
   -0.19889E-09         0.19760E-08         0.00000E+00
   -0.28931E-09         0.18899E-08         0.00000E+00
   -0.38314E-09         0.17088E-08         0.00000E+00
   -0.47190E-09         0.14103E-08         0.00000E+00
   -0.54462E-09         0.97206E-09         0.00000E+00
   -0.58800E-09         0.37314E-09         0.00000E+00
   -0.61402E-09         0.48912E-09         0.00000E+00
   -0.68656E-09         0.13323E-08         0.00000E+00
   -0.81413E-09         0.19791E-08         0.00000E+00
   -0.97664E-09         0.24441E-08         0.00000E+00
   -0.11560E-08         0.27478E-08         0.00000E+00
   -0.13371E-08         0.29138E-08         0.00000E+00
   -0.15079E-08         0.29665E-08         0.00000E+00
   -0.16595E-08         0.29299E-08         0.00000E+00
   -0.17861E-08         0.28261E-08         0.00000E+00
   -0.18844E-08         0.26742E-08         0.00000E+00
   -0.19534E-08         0.24908E-08         0.00000E+00
   -0.19932E-08         0.22894E-08         0.00000E+00
   -0.20057E-08         0.20805E-08         0.00000E+00
   -0.19930E-08         0.18726E-08         0.00000E+00
   -0.19580E-08         0.16717E-08         0.00000E+00
   -0.19037E-08         0.14821E-08         0.00000E+00
   -0.18330E-08         0.13070E-08         0.00000E+00
   -0.17488E-08         0.11481E-08         0.00000E+00
   -0.16537E-08         0.10065E-08         0.00000E+00
   -0.15501E-08         0.88271E-09         0.00000E+00
   -0.14402E-08         0.77676E-09         0.00000E+00
   -0.13257E-08         0.68840E-09         0.00000E+00
   -0.12082E-08         0.61724E-09         0.00000E+00
   -0.10892E-08         0.56278E-09         0.00000E+00
   -0.96967E-09         0.52454E-09         0.00000E+00
   -0.85075E-09         0.50203E-09         0.00000E+00
   -0.73326E-09         0.49483E-09         0.00000E+00
   -0.61802E-09         0.50258E-09         0.00000E+00
   -0.50577E-09         0.52502E-09         0.00000E+00
   -0.39722E-09         0.56193E-09         0.00000E+00
   -0.29314E-09         0.61316E-09         0.00000E+00
   -0.19432E-09         0.67857E-09         0.00000E+00
   -0.10163E-09         0.75798E-09         0.00000E+00
   -0.16056E-10         0.85111E-09         0.00000E+00
    0.61287E-10         0.95747E-09         0.00000E+00
    0.12916E-09         0.10762E-08         0.00000E+00
    0.18618E-09         0.12060E-08         0.00000E+00
    0.23084E-09         0.13446E-08         0.00000E+00
    0.26159E-09         0.14888E-08         0.00000E+00
    0.27686E-09         0.16340E-08         0.00000E+00
    0.27526E-09         0.17736E-08         0.00000E+00
    0.25576E-09         0.18989E-08         0.00000E+00
    0.21794E-09         0.19984E-08         0.00000E+00
    0.16241E-09         0.20576E-08         0.00000E+00
    0.91176E-10         0.20586E-08         0.00000E+00
    0.81134E-11         0.19807E-08         0.00000E+00
   -0.80630E-10         0.18005E-08         0.00000E+00
   -0.16634E-09         0.14930E-08         0.00000E+00
   -0.23766E-09         0.10334E-08         0.00000E+00
   -0.28065E-09         0.39820E-09         0.00000E+00
   -0.75592E-09         0.53217E-09         0.00000E+00
   -0.83974E-09         0.14456E-08         0.00000E+00
   -0.98579E-09         0.21394E-08         0.00000E+00
   -0.11696E-08         0.26302E-08         0.00000E+00
   -0.13697E-08         0.29413E-08         0.00000E+00
   -0.15682E-08         0.31000E-08         0.00000E+00
   -0.17517E-08         0.31345E-08         0.00000E+00
   -0.19106E-08         0.30724E-08         0.00000E+00
   -0.20388E-08         0.29385E-08         0.00000E+00
   -0.21333E-08         0.27548E-08         0.00000E+00
   -0.21937E-08         0.25396E-08         0.00000E+00
   -0.22211E-08         0.23079E-08         0.00000E+00
   -0.22179E-08         0.20713E-08         0.00000E+00
   -0.21873E-08         0.18386E-08         0.00000E+00
   -0.21329E-08         0.16162E-08         0.00000E+00
   -0.20581E-08         0.14085E-08         0.00000E+00
   -0.19666E-08         0.12184E-08         0.00000E+00
   -0.18616E-08         0.10474E-08         0.00000E+00
   -0.17461E-08         0.89650E-09         0.00000E+00
   -0.16226E-08         0.76566E-09         0.00000E+00
   -0.14935E-08         0.65468E-09         0.00000E+00
   -0.13605E-08         0.56301E-09         0.00000E+00
   -0.12253E-08         0.48998E-09         0.00000E+00
   -0.10892E-08         0.43489E-09         0.00000E+00
   -0.95329E-09         0.39704E-09         0.00000E+00
   -0.81847E-09         0.37579E-09         0.00000E+00
   -0.68552E-09         0.37063E-09         0.00000E+00
   -0.55509E-09         0.38111E-09         0.00000E+00
   -0.42780E-09         0.40694E-09         0.00000E+00
   -0.30424E-09         0.44790E-09         0.00000E+00
   -0.18502E-09         0.50389E-09         0.00000E+00
   -0.70809E-10         0.57481E-09         0.00000E+00
    0.37626E-10         0.66061E-09         0.00000E+00
    0.13941E-09         0.76113E-09         0.00000E+00
    0.23351E-09         0.87601E-09         0.00000E+00
    0.31872E-09         0.10046E-08         0.00000E+00
    0.39368E-09         0.11456E-08         0.00000E+00
    0.45682E-09         0.12971E-08         0.00000E+00
    0.50645E-09         0.14559E-08         0.00000E+00
    0.54081E-09         0.16172E-08         0.00000E+00
    0.55819E-09         0.17745E-08         0.00000E+00
    0.55711E-09         0.19186E-08         0.00000E+00
    0.53667E-09         0.20370E-08         0.00000E+00
    0.49688E-09         0.21143E-08         0.00000E+00
    0.43922E-09         0.21308E-08         0.00000E+00
    0.36714E-09         0.20637E-08         0.00000E+00
    0.28661E-09         0.18868E-08         0.00000E+00
    0.20643E-09         0.15726E-08         0.00000E+00
    0.13834E-09         0.10932E-08         0.00000E+00
    0.96731E-10         0.42294E-09         0.00000E+00
   -0.92688E-09         0.58230E-09         0.00000E+00
   -0.10238E-08         0.15761E-08         0.00000E+00
   -0.11907E-08         0.23218E-08         0.00000E+00
   -0.13977E-08         0.28386E-08         0.00000E+00
   -0.16193E-08         0.31544E-08         0.00000E+00
   -0.18347E-08         0.33009E-08         0.00000E+00
   -0.20290E-08         0.33113E-08         0.00000E+00
   -0.21918E-08         0.32172E-08         0.00000E+00
   -0.23174E-08         0.30473E-08         0.00000E+00
   -0.24033E-08         0.28264E-08         0.00000E+00
   -0.24499E-08         0.25750E-08         0.00000E+00
   -0.24595E-08         0.23095E-08         0.00000E+00
   -0.24356E-08         0.20425E-08         0.00000E+00
   -0.23822E-08         0.17833E-08         0.00000E+00
   -0.23037E-08         0.15385E-08         0.00000E+00
   -0.22045E-08         0.13123E-08         0.00000E+00
   -0.20886E-08         0.11073E-08         0.00000E+00
   -0.19598E-08         0.92474E-09         0.00000E+00
   -0.18212E-08         0.76509E-09         0.00000E+00
   -0.16756E-08         0.62804E-09         0.00000E+00
   -0.15254E-08         0.51292E-09         0.00000E+00
   -0.13725E-08         0.41884E-09         0.00000E+00
   -0.12184E-08         0.34482E-09         0.00000E+00
   -0.10643E-08         0.28986E-09         0.00000E+00
   -0.91115E-09         0.25306E-09         0.00000E+00
   -0.75981E-09         0.23362E-09         0.00000E+00
   -0.61084E-09         0.23087E-09         0.00000E+00
   -0.46473E-09         0.24432E-09         0.00000E+00
   -0.32191E-09         0.27362E-09         0.00000E+00
   -0.18280E-09         0.31856E-09         0.00000E+00
   -0.47841E-10         0.37905E-09         0.00000E+00
    0.82474E-10         0.45512E-09         0.00000E+00
    0.20755E-09         0.54679E-09         0.00000E+00
    0.32665E-09         0.65406E-09         0.00000E+00
    0.43889E-09         0.77675E-09         0.00000E+00
    0.54316E-09         0.91436E-09         0.00000E+00
    0.63815E-09         0.10659E-08         0.00000E+00
    0.72231E-09         0.12295E-08         0.00000E+00
    0.79387E-09         0.14022E-08         0.00000E+00
    0.85088E-09         0.15795E-08         0.00000E+00
    0.89130E-09         0.17545E-08         0.00000E+00
    0.91319E-09         0.19178E-08         0.00000E+00
    0.91496E-09         0.20565E-08         0.00000E+00
    0.89586E-09         0.21537E-08         0.00000E+00
    0.85656E-09         0.21883E-08         0.00000E+00
    0.79980E-09         0.21350E-08         0.00000E+00
    0.73114E-09         0.19647E-08         0.00000E+00
    0.65936E-09         0.16467E-08         0.00000E+00
    0.59651E-09         0.11501E-08         0.00000E+00
    0.55742E-09         0.44677E-09         0.00000E+00
   -0.11340E-08         0.64071E-09         0.00000E+00
   -0.12457E-08         0.17263E-08         0.00000E+00
   -0.14354E-08         0.25283E-08         0.00000E+00
   -0.16667E-08         0.30705E-08         0.00000E+00
   -0.19090E-08         0.33864E-08         0.00000E+00
   -0.21389E-08         0.35143E-08         0.00000E+00
   -0.23397E-08         0.34931E-08         0.00000E+00
   -0.25011E-08         0.33597E-08         0.00000E+00
   -0.26177E-08         0.31470E-08         0.00000E+00
   -0.26881E-08         0.28831E-08         0.00000E+00
   -0.27141E-08         0.25909E-08         0.00000E+00
   -0.26991E-08         0.22882E-08         0.00000E+00
   -0.26479E-08         0.19886E-08         0.00000E+00
   -0.25657E-08         0.17017E-08         0.00000E+00
   -0.24580E-08         0.14339E-08         0.00000E+00
   -0.23298E-08         0.11894E-08         0.00000E+00
   -0.21856E-08         0.97013E-09         0.00000E+00
   -0.20296E-08         0.77702E-09         0.00000E+00
   -0.18653E-08         0.60987E-09         0.00000E+00
   -0.16954E-08         0.46788E-09         0.00000E+00
   -0.15225E-08         0.34992E-09         0.00000E+00
   -0.13482E-08         0.25466E-09         0.00000E+00
   -0.11741E-08         0.18077E-09         0.00000E+00
   -0.10013E-08         0.12694E-09         0.00000E+00
   -0.83040E-09         0.92028E-10         0.00000E+00
   -0.66213E-09         0.75038E-10         0.00000E+00
   -0.49683E-09         0.75177E-10         0.00000E+00
   -0.33478E-09         0.91855E-10         0.00000E+00
   -0.17618E-09         0.12468E-09         0.00000E+00
   -0.21250E-10         0.17345E-09         0.00000E+00
    0.12981E-09         0.23813E-09         0.00000E+00
    0.27673E-09         0.31881E-09         0.00000E+00
    0.41912E-09         0.41564E-09         0.00000E+00
    0.55645E-09         0.52877E-09         0.00000E+00
    0.68803E-09         0.65822E-09         0.00000E+00
    0.81292E-09         0.80372E-09         0.00000E+00
    0.92996E-09         0.96451E-09         0.00000E+00
    0.10377E-08         0.11390E-08         0.00000E+00
    0.11343E-08         0.13246E-08         0.00000E+00
    0.12177E-08         0.15167E-08         0.00000E+00
    0.12857E-08         0.17089E-08         0.00000E+00
    0.13356E-08         0.18915E-08         0.00000E+00
    0.13652E-08         0.20514E-08         0.00000E+00
    0.13726E-08         0.21705E-08         0.00000E+00
    0.13573E-08         0.22262E-08         0.00000E+00
    0.13209E-08         0.21903E-08         0.00000E+00
    0.12681E-08         0.20308E-08         0.00000E+00
    0.12077E-08         0.17128E-08         0.00000E+00
    0.11521E-08         0.12024E-08         0.00000E+00
    0.11165E-08         0.46904E-09         0.00000E+00
   -0.13850E-08         0.70855E-09         0.00000E+00
   -0.15129E-08         0.18980E-08         0.00000E+00
   -0.17263E-08         0.27598E-08         0.00000E+00
   -0.19809E-08         0.33247E-08         0.00000E+00
   -0.22409E-08         0.36344E-08         0.00000E+00
   -0.24798E-08         0.37352E-08         0.00000E+00
   -0.26802E-08         0.36734E-08         0.00000E+00
   -0.28317E-08         0.34922E-08         0.00000E+00
   -0.29301E-08         0.32294E-08         0.00000E+00
   -0.29757E-08         0.29167E-08         0.00000E+00
   -0.29718E-08         0.25793E-08         0.00000E+00
   -0.29236E-08         0.22366E-08         0.00000E+00
   -0.28374E-08         0.19028E-08         0.00000E+00
   -0.27197E-08         0.15876E-08         0.00000E+00
   -0.25767E-08         0.12973E-08         0.00000E+00
   -0.24144E-08         0.10354E-08         0.00000E+00
   -0.22377E-08         0.80332E-09         0.00000E+00
   -0.20512E-08         0.60129E-09         0.00000E+00
   -0.18584E-08         0.42842E-09         0.00000E+00
   -0.16622E-08         0.28331E-09         0.00000E+00
   -0.14649E-08         0.16425E-09         0.00000E+00
   -0.12683E-08         0.69437E-10         0.00000E+00
   -0.10735E-08        -0.28910E-11         0.00000E+00
   -0.88137E-09        -0.54353E-10         0.00000E+00
   -0.69253E-09        -0.86370E-10         0.00000E+00
   -0.50723E-09        -0.10013E-09         0.00000E+00
   -0.32562E-09        -0.96572E-10         0.00000E+00
   -0.14769E-09        -0.76374E-10         0.00000E+00
    0.26599E-10        -0.39970E-10         0.00000E+00
    0.19733E-09         0.12442E-10         0.00000E+00
    0.36454E-09         0.80865E-10         0.00000E+00
    0.52823E-09         0.16547E-09         0.00000E+00
    0.68829E-09         0.26654E-09         0.00000E+00
    0.84445E-09         0.38438E-09         0.00000E+00
    0.99627E-09         0.51921E-09         0.00000E+00
    0.11431E-08         0.67102E-09         0.00000E+00
    0.12839E-08         0.83932E-09         0.00000E+00
    0.14176E-08         0.10229E-08         0.00000E+00
    0.15423E-08         0.12194E-08         0.00000E+00
    0.16560E-08         0.14247E-08         0.00000E+00
    0.17561E-08         0.16328E-08         0.00000E+00
    0.18397E-08         0.18341E-08         0.00000E+00
    0.19035E-08         0.20155E-08         0.00000E+00
    0.19441E-08         0.21584E-08         0.00000E+00
    0.19593E-08         0.22385E-08         0.00000E+00
    0.19487E-08         0.22250E-08         0.00000E+00
    0.19159E-08         0.20816E-08         0.00000E+00
    0.18692E-08         0.17691E-08         0.00000E+00
    0.18220E-08         0.12491E-08         0.00000E+00
    0.17906E-08         0.48927E-09         0.00000E+00
   -0.16876E-08         0.78674E-09         0.00000E+00
   -0.18319E-08         0.20920E-08         0.00000E+00
   -0.20680E-08         0.30153E-08         0.00000E+00
   -0.23419E-08         0.35977E-08         0.00000E+00
   -0.26125E-08         0.38920E-08         0.00000E+00
   -0.28511E-08         0.39551E-08         0.00000E+00
   -0.30395E-08         0.38423E-08         0.00000E+00
   -0.31687E-08         0.36040E-08         0.00000E+00
   -0.32363E-08         0.32837E-08         0.00000E+00
   -0.32447E-08         0.29165E-08         0.00000E+00
   -0.31995E-08         0.25303E-08         0.00000E+00
   -0.31077E-08         0.21457E-08         0.00000E+00
   -0.29773E-08         0.17771E-08         0.00000E+00
   -0.28161E-08         0.14343E-08         0.00000E+00
   -0.26313E-08         0.11229E-08         0.00000E+00
   -0.24295E-08         0.84557E-09         0.00000E+00
   -0.22161E-08         0.60307E-09         0.00000E+00
   -0.19957E-08         0.39461E-09         0.00000E+00
   -0.17719E-08         0.21855E-09         0.00000E+00
   -0.15476E-08         0.72729E-10         0.00000E+00
   -0.13249E-08        -0.45187E-10         0.00000E+00
   -0.11051E-08        -0.13754E-09         0.00000E+00
   -0.88930E-09        -0.20654E-09         0.00000E+00
   -0.67794E-09        -0.25415E-09         0.00000E+00
   -0.47127E-09        -0.28208E-09         0.00000E+00
   -0.26928E-09        -0.29171E-09         0.00000E+00
   -0.71777E-10        -0.28412E-09         0.00000E+00
    0.12155E-09        -0.26008E-09         0.00000E+00
    0.31105E-09        -0.22006E-09         0.00000E+00
    0.49713E-09        -0.16427E-09         0.00000E+00
    0.68013E-09        -0.92643E-10         0.00000E+00
    0.86035E-09        -0.49409E-11         0.00000E+00
    0.10380E-08         0.99240E-10         0.00000E+00
    0.12132E-08         0.22037E-09         0.00000E+00
    0.13857E-08         0.35887E-09         0.00000E+00
    0.15553E-08         0.51497E-09         0.00000E+00
    0.17213E-08         0.68851E-09         0.00000E+00
    0.18827E-08         0.87863E-09         0.00000E+00
    0.20382E-08         0.10834E-08         0.00000E+00
    0.21858E-08         0.12994E-08         0.00000E+00
    0.23228E-08         0.15209E-08         0.00000E+00
    0.24458E-08         0.17394E-08         0.00000E+00
    0.25505E-08         0.19418E-08         0.00000E+00
    0.26318E-08         0.21100E-08         0.00000E+00
    0.26848E-08         0.22187E-08         0.00000E+00
    0.27061E-08         0.22341E-08         0.00000E+00
    0.26966E-08         0.21148E-08         0.00000E+00
    0.26643E-08         0.18149E-08         0.00000E+00
    0.26243E-08         0.12906E-08         0.00000E+00
    0.25960E-08         0.50755E-09         0.00000E+00
   -0.20467E-08         0.87554E-09         0.00000E+00
   -0.22062E-08         0.23071E-08         0.00000E+00
   -0.24601E-08         0.32902E-08         0.00000E+00
   -0.27445E-08         0.38812E-08         0.00000E+00
   -0.30133E-08         0.41479E-08         0.00000E+00
   -0.32360E-08         0.41604E-08         0.00000E+00
   -0.33956E-08         0.39850E-08         0.00000E+00
   -0.34852E-08         0.36802E-08         0.00000E+00
   -0.35052E-08         0.32951E-08         0.00000E+00
   -0.34608E-08         0.28691E-08         0.00000E+00
   -0.33601E-08         0.24318E-08         0.00000E+00
   -0.32124E-08         0.20048E-08         0.00000E+00
   -0.30274E-08         0.16026E-08         0.00000E+00
   -0.28141E-08         0.12343E-08         0.00000E+00
   -0.25806E-08         0.90463E-09         0.00000E+00
   -0.23339E-08         0.61526E-09         0.00000E+00
   -0.20797E-08         0.36577E-09         0.00000E+00
   -0.18225E-08         0.15435E-09         0.00000E+00
   -0.15659E-08        -0.21594E-10         0.00000E+00
   -0.13122E-08        -0.16504E-09         0.00000E+00
   -0.10634E-08        -0.27903E-09         0.00000E+00
   -0.82038E-09        -0.36648E-09         0.00000E+00
   -0.58375E-09        -0.43006E-09         0.00000E+00
   -0.35365E-09        -0.47209E-09         0.00000E+00
   -0.12990E-09        -0.49456E-09         0.00000E+00
    0.87913E-10        -0.49903E-09         0.00000E+00
    0.30035E-09        -0.48673E-09         0.00000E+00
    0.50807E-09        -0.45851E-09         0.00000E+00
    0.71180E-09        -0.41487E-09         0.00000E+00
    0.91226E-09        -0.35600E-09         0.00000E+00
    0.11102E-08        -0.28181E-09         0.00000E+00
    0.13062E-08        -0.19199E-09         0.00000E+00
    0.15008E-08        -0.86011E-10         0.00000E+00
    0.16945E-08         0.36735E-10         0.00000E+00
    0.18876E-08         0.17687E-09         0.00000E+00
    0.20802E-08         0.33486E-09         0.00000E+00
    0.22719E-08         0.51085E-09         0.00000E+00
    0.24624E-08         0.70437E-09         0.00000E+00
    0.26506E-08         0.91401E-09         0.00000E+00
    0.28349E-08         0.11370E-08         0.00000E+00
    0.30128E-08         0.13685E-08         0.00000E+00
    0.31806E-08         0.16010E-08         0.00000E+00
    0.33331E-08         0.18230E-08         0.00000E+00
    0.34631E-08         0.20175E-08         0.00000E+00
    0.35621E-08         0.21593E-08         0.00000E+00
    0.36214E-08         0.22128E-08         0.00000E+00
    0.36372E-08         0.21298E-08         0.00000E+00
    0.36158E-08         0.18538E-08         0.00000E+00
    0.35764E-08         0.13310E-08         0.00000E+00
    0.35462E-08         0.52558E-09         0.00000E+00
   -0.24615E-08         0.97399E-09         0.00000E+00
   -0.26316E-08         0.25382E-08         0.00000E+00
   -0.28930E-08         0.35743E-08         0.00000E+00
   -0.31718E-08         0.41603E-08         0.00000E+00
   -0.34182E-08         0.43839E-08         0.00000E+00
   -0.36021E-08         0.43311E-08         0.00000E+00
   -0.37092E-08         0.40809E-08         0.00000E+00
   -0.37361E-08         0.37007E-08         0.00000E+00
   -0.36870E-08         0.32455E-08         0.00000E+00
   -0.35707E-08         0.27580E-08         0.00000E+00
   -0.33981E-08         0.22696E-08         0.00000E+00
   -0.31808E-08         0.18021E-08         0.00000E+00
   -0.29300E-08         0.13695E-08         0.00000E+00
   -0.26558E-08         0.97990E-09         0.00000E+00
   -0.23668E-08         0.63663E-09         0.00000E+00
   -0.20703E-08         0.34002E-09         0.00000E+00
   -0.17718E-08         0.88312E-10         0.00000E+00
   -0.14757E-08        -0.12153E-09         0.00000E+00
   -0.11849E-08        -0.29316E-09         0.00000E+00
   -0.90153E-09        -0.43046E-09         0.00000E+00
   -0.62679E-09        -0.53720E-09         0.00000E+00
   -0.36122E-09        -0.61689E-09         0.00000E+00
   -0.10484E-09        -0.67265E-09         0.00000E+00
    0.14272E-09        -0.70716E-09         0.00000E+00
    0.38211E-09        -0.72263E-09         0.00000E+00
    0.61418E-09        -0.72084E-09         0.00000E+00
    0.83993E-09        -0.70310E-09         0.00000E+00
    0.10604E-08        -0.67034E-09         0.00000E+00
    0.12767E-08        -0.62308E-09         0.00000E+00
    0.14900E-08        -0.56150E-09         0.00000E+00
    0.17013E-08        -0.48549E-09         0.00000E+00
    0.19116E-08        -0.39463E-09         0.00000E+00
    0.21219E-08        -0.28833E-09         0.00000E+00
    0.23331E-08        -0.16584E-09         0.00000E+00
    0.25458E-08        -0.26376E-10         0.00000E+00
    0.27606E-08         0.13075E-09         0.00000E+00
    0.29778E-08         0.30594E-09         0.00000E+00
    0.31975E-08         0.49913E-09         0.00000E+00
    0.34191E-08         0.70942E-09         0.00000E+00
    0.36416E-08         0.93476E-09         0.00000E+00
    0.38630E-08         0.11715E-08         0.00000E+00
    0.40797E-08         0.14135E-08         0.00000E+00
    0.42859E-08         0.16518E-08         0.00000E+00
    0.44725E-08         0.18720E-08         0.00000E+00
    0.46261E-08         0.20521E-08         0.00000E+00
    0.47302E-08         0.21564E-08         0.00000E+00
    0.47708E-08         0.21297E-08         0.00000E+00
    0.47490E-08         0.18972E-08         0.00000E+00
    0.46919E-08         0.13840E-08         0.00000E+00
    0.46458E-08         0.54896E-09         0.00000E+00
   -0.29179E-08         0.10790E-08         0.00000E+00
   -0.30892E-08         0.27746E-08         0.00000E+00
   -0.33393E-08         0.38493E-08         0.00000E+00
   -0.35864E-08         0.44112E-08         0.00000E+00
   -0.37798E-08         0.45727E-08         0.00000E+00
   -0.38927E-08         0.44392E-08         0.00000E+00
   -0.39156E-08         0.41029E-08         0.00000E+00
   -0.38506E-08         0.36406E-08         0.00000E+00
   -0.37066E-08         0.31125E-08         0.00000E+00
   -0.34962E-08         0.25642E-08         0.00000E+00
   -0.32334E-08         0.20279E-08         0.00000E+00
   -0.29319E-08         0.15249E-08         0.00000E+00
   -0.26041E-08         0.10681E-08         0.00000E+00
   -0.22607E-08         0.66373E-09         0.00000E+00
   -0.19104E-08         0.31361E-09         0.00000E+00
   -0.15602E-08         0.16334E-10         0.00000E+00
   -0.12153E-08        -0.23142E-09         0.00000E+00
   -0.87920E-09        -0.43402E-09         0.00000E+00
   -0.55438E-09        -0.59627E-09         0.00000E+00
   -0.24212E-09        -0.72298E-09         0.00000E+00
    0.57110E-10        -0.81865E-09         0.00000E+00
    0.34344E-09        -0.88735E-09         0.00000E+00
    0.61751E-09        -0.93264E-09         0.00000E+00
    0.88027E-09        -0.95749E-09         0.00000E+00
    0.11329E-08        -0.96435E-09         0.00000E+00
    0.13768E-08        -0.95511E-09         0.00000E+00
    0.16134E-08        -0.93119E-09         0.00000E+00
    0.18442E-08        -0.89354E-09         0.00000E+00
    0.20708E-08        -0.84270E-09         0.00000E+00
    0.22945E-08        -0.77884E-09         0.00000E+00
    0.25168E-08        -0.70178E-09         0.00000E+00
    0.27392E-08        -0.61108E-09         0.00000E+00
    0.29631E-08        -0.50604E-09         0.00000E+00
    0.31896E-08        -0.38582E-09         0.00000E+00
    0.34200E-08        -0.24951E-09         0.00000E+00
    0.36553E-08        -0.96251E-10         0.00000E+00
    0.38964E-08         0.74616E-10         0.00000E+00
    0.41439E-08         0.26334E-09         0.00000E+00
    0.43980E-08         0.46952E-09         0.00000E+00
    0.46582E-08         0.69186E-09         0.00000E+00
    0.49234E-08         0.92787E-09         0.00000E+00
    0.51903E-08         0.11735E-08         0.00000E+00
    0.54534E-08         0.14226E-08         0.00000E+00
    0.57021E-08         0.16659E-08         0.00000E+00
    0.59187E-08         0.18880E-08         0.00000E+00
    0.60755E-08         0.20597E-08         0.00000E+00
    0.61391E-08         0.21222E-08         0.00000E+00
    0.60934E-08         0.19722E-08         0.00000E+00
    0.59756E-08         0.14837E-08         0.00000E+00
    0.58781E-08         0.59285E-09         0.00000E+00
   -0.33779E-08         0.11839E-08         0.00000E+00
   -0.35339E-08         0.29970E-08         0.00000E+00
   -0.37426E-08         0.40858E-08         0.00000E+00
   -0.39190E-08         0.45982E-08         0.00000E+00
   -0.40166E-08         0.46766E-08         0.00000E+00
   -0.40158E-08         0.44474E-08         0.00000E+00
   -0.39149E-08         0.40168E-08         0.00000E+00
   -0.37231E-08         0.34697E-08         0.00000E+00
   -0.34546E-08         0.28709E-08         0.00000E+00
   -0.31263E-08         0.22672E-08         0.00000E+00
   -0.27548E-08         0.16906E-08         0.00000E+00
   -0.23550E-08         0.11610E-08         0.00000E+00
   -0.19401E-08         0.68930E-09         0.00000E+00
   -0.15208E-08         0.27969E-09         0.00000E+00
   -0.11052E-08        -0.68212E-10         0.00000E+00
   -0.69947E-09        -0.35775E-09         0.00000E+00
   -0.30783E-09        -0.59392E-09         0.00000E+00
    0.67140E-10        -0.78254E-09         0.00000E+00
    0.42410E-09        -0.92953E-09         0.00000E+00
    0.76274E-09        -0.10406E-08         0.00000E+00
    0.10835E-08        -0.11210E-08         0.00000E+00
    0.13873E-08        -0.11752E-08         0.00000E+00
    0.16757E-08        -0.12072E-08         0.00000E+00
    0.19501E-08        -0.12202E-08         0.00000E+00
    0.22126E-08        -0.12167E-08         0.00000E+00
    0.24648E-08        -0.11989E-08         0.00000E+00
    0.27088E-08        -0.11681E-08         0.00000E+00
    0.29466E-08        -0.11252E-08         0.00000E+00
    0.31799E-08        -0.10709E-08         0.00000E+00
    0.34108E-08        -0.10052E-08         0.00000E+00
    0.36410E-08        -0.92797E-09         0.00000E+00
    0.38723E-08        -0.83865E-09         0.00000E+00
    0.41065E-08        -0.73652E-09         0.00000E+00
    0.43453E-08        -0.62065E-09         0.00000E+00
    0.45902E-08        -0.49004E-09         0.00000E+00
    0.48429E-08        -0.34371E-09         0.00000E+00
    0.51047E-08        -0.18082E-09         0.00000E+00
    0.53769E-08        -0.83921E-12         0.00000E+00
    0.56602E-08         0.19629E-09         0.00000E+00
    0.59550E-08         0.40998E-09         0.00000E+00
    0.62608E-08         0.63893E-09         0.00000E+00
    0.65751E-08         0.88116E-09         0.00000E+00
    0.68928E-08         0.11341E-08         0.00000E+00
    0.72035E-08         0.13949E-08         0.00000E+00
    0.74870E-08         0.16590E-08         0.00000E+00
    0.77048E-08         0.19142E-08         0.00000E+00
    0.77932E-08         0.21156E-08         0.00000E+00
    0.76883E-08         0.21294E-08         0.00000E+00
    0.74195E-08         0.17130E-08         0.00000E+00
    0.71834E-08         0.69718E-09         0.00000E+00
   -0.37635E-08         0.12772E-08         0.00000E+00
   -0.38781E-08         0.31742E-08         0.00000E+00
   -0.40009E-08         0.42401E-08         0.00000E+00
   -0.40525E-08         0.46720E-08         0.00000E+00
   -0.39982E-08         0.46460E-08         0.00000E+00
   -0.38311E-08         0.43100E-08         0.00000E+00
   -0.35602E-08         0.37825E-08         0.00000E+00
   -0.32028E-08         0.31548E-08         0.00000E+00
   -0.27792E-08         0.24939E-08         0.00000E+00
   -0.23096E-08         0.18464E-08         0.00000E+00
   -0.18122E-08         0.12425E-08         0.00000E+00
   -0.13028E-08         0.69990E-09         0.00000E+00
   -0.79393E-09         0.22662E-09         0.00000E+00
   -0.29517E-09        -0.17575E-09         0.00000E+00
    0.18651E-09        -0.51004E-09         0.00000E+00
    0.64652E-09        -0.78165E-09         0.00000E+00
    0.10822E-08        -0.99733E-09         0.00000E+00
    0.14923E-08        -0.11643E-08         0.00000E+00
    0.18771E-08        -0.12895E-08         0.00000E+00
    0.22373E-08        -0.13795E-08         0.00000E+00
    0.25745E-08        -0.14401E-08         0.00000E+00
    0.28908E-08        -0.14762E-08         0.00000E+00
    0.31883E-08        -0.14920E-08         0.00000E+00
    0.34695E-08        -0.14910E-08         0.00000E+00
    0.37368E-08        -0.14756E-08         0.00000E+00
    0.39926E-08        -0.14481E-08         0.00000E+00
    0.42393E-08        -0.14097E-08         0.00000E+00
    0.44795E-08        -0.13614E-08         0.00000E+00
    0.47152E-08        -0.13038E-08         0.00000E+00
    0.49488E-08        -0.12368E-08         0.00000E+00
    0.51826E-08        -0.11603E-08         0.00000E+00
    0.54185E-08        -0.10736E-08         0.00000E+00
    0.56587E-08        -0.97601E-09         0.00000E+00
    0.59053E-08        -0.86654E-09         0.00000E+00
    0.61603E-08        -0.74413E-09         0.00000E+00
    0.64257E-08        -0.60770E-09         0.00000E+00
    0.67034E-08        -0.45629E-09         0.00000E+00
    0.69950E-08        -0.28912E-09         0.00000E+00
    0.73019E-08        -0.10573E-09         0.00000E+00
    0.76250E-08         0.94026E-10         0.00000E+00
    0.79642E-08         0.31006E-09         0.00000E+00
    0.83174E-08         0.54248E-09         0.00000E+00
    0.86800E-08         0.79249E-09         0.00000E+00
    0.90418E-08         0.10640E-08         0.00000E+00
    0.93824E-08         0.13657E-08         0.00000E+00
    0.96599E-08         0.17123E-08         0.00000E+00
    0.97810E-08         0.21080E-08         0.00000E+00
    0.95875E-08         0.24355E-08         0.00000E+00
    0.90163E-08         0.22469E-08         0.00000E+00
    0.84356E-08         0.98002E-09         0.00000E+00
   -0.39331E-08         0.13407E-08         0.00000E+00
   -0.39686E-08         0.32607E-08         0.00000E+00
   -0.39445E-08         0.42523E-08         0.00000E+00
   -0.38023E-08         0.45692E-08         0.00000E+00
   -0.35288E-08         0.44211E-08         0.00000E+00
   -0.31355E-08         0.39745E-08         0.00000E+00
   -0.26453E-08         0.33568E-08         0.00000E+00
   -0.20841E-08         0.26619E-08         0.00000E+00
   -0.14772E-08         0.19563E-08         0.00000E+00
   -0.84704E-09         0.12841E-08         0.00000E+00
   -0.21211E-09         0.67249E-09         0.00000E+00
    0.41302E-09         0.13540E-09         0.00000E+00
    0.10175E-08        -0.32230E-09         0.00000E+00
    0.15940E-08        -0.70204E-09         0.00000E+00
    0.21377E-08        -0.10092E-08         0.00000E+00
    0.26463E-08        -0.12512E-08         0.00000E+00
    0.31193E-08        -0.14364E-08         0.00000E+00
    0.35573E-08        -0.15734E-08         0.00000E+00
    0.39622E-08        -0.16700E-08         0.00000E+00
    0.43364E-08        -0.17334E-08         0.00000E+00
    0.46826E-08        -0.17697E-08         0.00000E+00
    0.50039E-08        -0.17842E-08         0.00000E+00
    0.53034E-08        -0.17812E-08         0.00000E+00
    0.55844E-08        -0.17640E-08         0.00000E+00
    0.58499E-08        -0.17353E-08         0.00000E+00
    0.61029E-08        -0.16972E-08         0.00000E+00
    0.63463E-08        -0.16508E-08         0.00000E+00
    0.65829E-08        -0.15970E-08         0.00000E+00
    0.68153E-08        -0.15363E-08         0.00000E+00
    0.70461E-08        -0.14687E-08         0.00000E+00
    0.72777E-08        -0.13937E-08         0.00000E+00
    0.75126E-08        -0.13110E-08         0.00000E+00
    0.77532E-08        -0.12195E-08         0.00000E+00
    0.80018E-08        -0.11183E-08         0.00000E+00
    0.82608E-08        -0.10064E-08         0.00000E+00
    0.85326E-08        -0.88258E-09         0.00000E+00
    0.88193E-08        -0.74577E-09         0.00000E+00
    0.91230E-08        -0.59496E-09         0.00000E+00
    0.94454E-08        -0.42924E-09         0.00000E+00
    0.97875E-08        -0.24765E-09         0.00000E+00
    0.10149E-07        -0.48885E-10         0.00000E+00
    0.10528E-07         0.16955E-09         0.00000E+00
    0.10918E-07         0.41292E-09         0.00000E+00
    0.11307E-07         0.69232E-09         0.00000E+00
    0.11673E-07         0.10303E-08         0.00000E+00
    0.11973E-07         0.14708E-08         0.00000E+00
    0.12107E-07         0.20944E-08         0.00000E+00
    0.11789E-07         0.29602E-08         0.00000E+00
    0.10741E-07         0.33416E-08         0.00000E+00
    0.96135E-08         0.15937E-08         0.00000E+00
   -0.36520E-08         0.13481E-08         0.00000E+00
   -0.35584E-08         0.31951E-08         0.00000E+00
   -0.33119E-08         0.40474E-08         0.00000E+00
   -0.28951E-08         0.42151E-08         0.00000E+00
   -0.23294E-08         0.39359E-08         0.00000E+00
   -0.16503E-08         0.33874E-08         0.00000E+00
   -0.89555E-09         0.26989E-08         0.00000E+00
   -0.99243E-10         0.19622E-08         0.00000E+00
    0.71034E-09         0.12395E-08         0.00000E+00
    0.15109E-08         0.57014E-09         0.00000E+00
    0.22860E-08        -0.23531E-10         0.00000E+00
    0.30240E-08        -0.53169E-09         0.00000E+00
    0.37175E-08        -0.95320E-09         0.00000E+00
    0.43624E-08        -0.12925E-08         0.00000E+00
    0.49574E-08        -0.15574E-08         0.00000E+00
    0.55030E-08        -0.17572E-08         0.00000E+00
    0.60014E-08        -0.19017E-08         0.00000E+00
    0.64555E-08        -0.20003E-08         0.00000E+00
    0.68689E-08        -0.20615E-08         0.00000E+00
    0.72458E-08        -0.20929E-08         0.00000E+00
    0.75902E-08        -0.21008E-08         0.00000E+00
    0.79065E-08        -0.20906E-08         0.00000E+00
    0.81985E-08        -0.20664E-08         0.00000E+00
    0.84702E-08        -0.20315E-08         0.00000E+00
    0.87254E-08        -0.19885E-08         0.00000E+00
    0.89675E-08        -0.19391E-08         0.00000E+00
    0.91997E-08        -0.18845E-08         0.00000E+00
    0.94252E-08        -0.18254E-08         0.00000E+00
    0.96469E-08        -0.17621E-08         0.00000E+00
    0.98677E-08        -0.16944E-08         0.00000E+00
    0.10090E-07        -0.16221E-08         0.00000E+00
    0.10317E-07        -0.15443E-08         0.00000E+00
    0.10551E-07        -0.14604E-08         0.00000E+00
    0.10794E-07        -0.13693E-08         0.00000E+00
    0.11049E-07        -0.12699E-08         0.00000E+00
    0.11319E-07        -0.11609E-08         0.00000E+00
    0.11606E-07        -0.10412E-08         0.00000E+00
    0.11913E-07        -0.90956E-09         0.00000E+00
    0.12240E-07        -0.76438E-09         0.00000E+00
    0.12589E-07        -0.60371E-09         0.00000E+00
    0.12959E-07        -0.42439E-09         0.00000E+00
    0.13347E-07        -0.22081E-09         0.00000E+00
    0.13743E-07         0.17480E-10         0.00000E+00
    0.14130E-07         0.31037E-09         0.00000E+00
    0.14480E-07         0.69626E-09         0.00000E+00
    0.14734E-07         0.12517E-08         0.00000E+00
    0.14773E-07         0.21399E-08         0.00000E+00
    0.14192E-07         0.38138E-08         0.00000E+00
    0.13109E-07         0.46193E-08         0.00000E+00
    0.12425E-07         0.21276E-08         0.00000E+00
   -0.25583E-08         0.12652E-08         0.00000E+00
   -0.22765E-08         0.29026E-08         0.00000E+00
   -0.17236E-08         0.35405E-08         0.00000E+00
   -0.95067E-09         0.35323E-08         0.00000E+00
   -0.25837E-10         0.31281E-08         0.00000E+00
    0.98710E-09         0.25032E-08         0.00000E+00
    0.20362E-08         0.17793E-08         0.00000E+00
    0.30824E-08         0.10394E-08         0.00000E+00
    0.40976E-08         0.33758E-09         0.00000E+00
    0.50627E-08        -0.29375E-09         0.00000E+00
    0.59661E-08        -0.83807E-09         0.00000E+00
    0.68011E-08        -0.12902E-08         0.00000E+00
    0.75655E-08        -0.16525E-08         0.00000E+00
    0.82598E-08        -0.19324E-08         0.00000E+00
    0.88867E-08        -0.21394E-08         0.00000E+00
    0.94503E-08        -0.22845E-08         0.00000E+00
    0.99558E-08        -0.23782E-08         0.00000E+00
    0.10408E-07        -0.24305E-08         0.00000E+00
    0.10814E-07        -0.24503E-08         0.00000E+00
    0.11178E-07        -0.24452E-08         0.00000E+00
    0.11507E-07        -0.24214E-08         0.00000E+00
    0.11805E-07        -0.23840E-08         0.00000E+00
    0.12077E-07        -0.23371E-08         0.00000E+00
    0.12328E-07        -0.22835E-08         0.00000E+00
    0.12562E-07        -0.22256E-08         0.00000E+00
    0.12783E-07        -0.21649E-08         0.00000E+00
    0.12994E-07        -0.21023E-08         0.00000E+00
    0.13199E-07        -0.20383E-08         0.00000E+00
    0.13401E-07        -0.19729E-08         0.00000E+00
    0.13603E-07        -0.19061E-08         0.00000E+00
    0.13807E-07        -0.18373E-08         0.00000E+00
    0.14017E-07        -0.17658E-08         0.00000E+00
    0.14236E-07        -0.16908E-08         0.00000E+00
    0.14464E-07        -0.16111E-08         0.00000E+00
    0.14707E-07        -0.15258E-08         0.00000E+00
    0.14965E-07        -0.14334E-08         0.00000E+00
    0.15242E-07        -0.13327E-08         0.00000E+00
    0.15540E-07        -0.12220E-08         0.00000E+00
    0.15859E-07        -0.10991E-08         0.00000E+00
    0.16202E-07        -0.96063E-09         0.00000E+00
    0.16565E-07        -0.80100E-09         0.00000E+00
    0.16944E-07        -0.61044E-09         0.00000E+00
    0.17327E-07        -0.37163E-09         0.00000E+00
    0.17692E-07        -0.53289E-10         0.00000E+00
    0.18000E-07         0.40265E-09         0.00000E+00
    0.18182E-07         0.11097E-08         0.00000E+00
    0.18105E-07         0.23189E-08         0.00000E+00
    0.17670E-07         0.46518E-08         0.00000E+00
    0.17327E-07         0.52066E-08         0.00000E+00
    0.17353E-07         0.21990E-08         0.00000E+00
   -0.13262E-09         0.10523E-08         0.00000E+00
    0.39738E-09         0.23037E-08         0.00000E+00
    0.13333E-08         0.26506E-08         0.00000E+00
    0.25266E-08         0.24560E-08         0.00000E+00
    0.38521E-08         0.19541E-08         0.00000E+00
    0.52179E-08         0.12984E-08         0.00000E+00
    0.65618E-08         0.59100E-09         0.00000E+00
    0.78443E-08        -0.10096E-09         0.00000E+00
    0.90422E-08        -0.73507E-09         0.00000E+00
    0.10143E-07        -0.12874E-08         0.00000E+00
    0.11143E-07        -0.17477E-08         0.00000E+00
    0.12043E-07        -0.21150E-08         0.00000E+00
    0.12845E-07        -0.23949E-08         0.00000E+00
    0.13558E-07        -0.25966E-08         0.00000E+00
    0.14187E-07        -0.27312E-08         0.00000E+00
    0.14741E-07        -0.28102E-08         0.00000E+00
    0.15228E-07        -0.28446E-08         0.00000E+00
    0.15655E-07        -0.28444E-08         0.00000E+00
    0.16031E-07        -0.28182E-08         0.00000E+00
    0.16363E-07        -0.27734E-08         0.00000E+00
    0.16657E-07        -0.27158E-08         0.00000E+00
    0.16920E-07        -0.26501E-08         0.00000E+00
    0.17157E-07        -0.25798E-08         0.00000E+00
    0.17372E-07        -0.25075E-08         0.00000E+00
    0.17572E-07        -0.24350E-08         0.00000E+00
    0.17759E-07        -0.23635E-08         0.00000E+00
    0.17938E-07        -0.22936E-08         0.00000E+00
    0.18111E-07        -0.22255E-08         0.00000E+00
    0.18282E-07        -0.21591E-08         0.00000E+00
    0.18455E-07        -0.20941E-08         0.00000E+00
    0.18631E-07        -0.20300E-08         0.00000E+00
    0.18813E-07        -0.19658E-08         0.00000E+00
    0.19005E-07        -0.19007E-08         0.00000E+00
    0.19209E-07        -0.18337E-08         0.00000E+00
    0.19427E-07        -0.17636E-08         0.00000E+00
    0.19662E-07        -0.16890E-08         0.00000E+00
    0.19916E-07        -0.16083E-08         0.00000E+00
    0.20192E-07        -0.15196E-08         0.00000E+00
    0.20490E-07        -0.14196E-08         0.00000E+00
    0.20811E-07        -0.13036E-08         0.00000E+00
    0.21152E-07        -0.11629E-08         0.00000E+00
    0.21508E-07        -0.98309E-09         0.00000E+00
    0.21865E-07        -0.73875E-09         0.00000E+00
    0.22200E-07        -0.38619E-09         0.00000E+00
    0.22477E-07         0.15137E-09         0.00000E+00
    0.22642E-07         0.10140E-08         0.00000E+00
    0.22662E-07         0.24706E-08         0.00000E+00
    0.22713E-07         0.48844E-08         0.00000E+00
    0.22901E-07         0.51282E-08         0.00000E+00
    0.22965E-07         0.21887E-08         0.00000E+00
    0.43145E-08         0.67127E-09         0.00000E+00
    0.51374E-08         0.13320E-08         0.00000E+00
    0.65003E-08         0.13235E-08         0.00000E+00
    0.81329E-08         0.95717E-09         0.00000E+00
    0.98503E-08         0.40991E-09         0.00000E+00
    0.11538E-07        -0.21106E-09         0.00000E+00
    0.13131E-07        -0.83654E-09         0.00000E+00
    0.14596E-07        -0.14210E-08         0.00000E+00
    0.15920E-07        -0.19360E-08         0.00000E+00
    0.17099E-07        -0.23668E-08         0.00000E+00
    0.18139E-07        -0.27086E-08         0.00000E+00
    0.19050E-07        -0.29641E-08         0.00000E+00
    0.19842E-07        -0.31407E-08         0.00000E+00
    0.20527E-07        -0.32485E-08         0.00000E+00
    0.21118E-07        -0.32989E-08         0.00000E+00
    0.21624E-07        -0.33034E-08         0.00000E+00
    0.22059E-07        -0.32726E-08         0.00000E+00
    0.22431E-07        -0.32161E-08         0.00000E+00
    0.22750E-07        -0.31417E-08         0.00000E+00
    0.23024E-07        -0.30562E-08         0.00000E+00
    0.23262E-07        -0.29646E-08         0.00000E+00
    0.23469E-07        -0.28710E-08         0.00000E+00
    0.23651E-07        -0.27783E-08         0.00000E+00
    0.23815E-07        -0.26884E-08         0.00000E+00
    0.23964E-07        -0.26026E-08         0.00000E+00
    0.24103E-07        -0.25217E-08         0.00000E+00
    0.24234E-07        -0.24458E-08         0.00000E+00
    0.24363E-07        -0.23750E-08         0.00000E+00
    0.24491E-07        -0.23089E-08         0.00000E+00
    0.24621E-07        -0.22469E-08         0.00000E+00
    0.24756E-07        -0.21885E-08         0.00000E+00
    0.24899E-07        -0.21327E-08         0.00000E+00
    0.25052E-07        -0.20786E-08         0.00000E+00
    0.25218E-07        -0.20251E-08         0.00000E+00
    0.25398E-07        -0.19710E-08         0.00000E+00
    0.25597E-07        -0.19148E-08         0.00000E+00
    0.25814E-07        -0.18546E-08         0.00000E+00
    0.26053E-07        -0.17878E-08         0.00000E+00
    0.26314E-07        -0.17107E-08         0.00000E+00
    0.26598E-07        -0.16167E-08         0.00000E+00
    0.26902E-07        -0.14948E-08         0.00000E+00
    0.27220E-07        -0.13254E-08         0.00000E+00
    0.27543E-07        -0.10762E-08         0.00000E+00
    0.27852E-07        -0.69351E-09         0.00000E+00
    0.28126E-07        -0.91126E-10         0.00000E+00
    0.28350E-07         0.86690E-09         0.00000E+00
    0.28579E-07         0.23691E-08         0.00000E+00
    0.28996E-07         0.45176E-08         0.00000E+00
    0.29457E-07         0.48457E-08         0.00000E+00
    0.29645E-07         0.22194E-08         0.00000E+00
    0.11616E-07         0.97943E-10         0.00000E+00
    0.12736E-07        -0.37696E-10         0.00000E+00
    0.14502E-07        -0.43584E-09         0.00000E+00
    0.16514E-07        -0.92799E-09         0.00000E+00
    0.18537E-07        -0.14455E-08         0.00000E+00
    0.20447E-07        -0.19530E-08         0.00000E+00
    0.22184E-07        -0.24251E-08         0.00000E+00
    0.23728E-07        -0.28416E-08         0.00000E+00
    0.25078E-07        -0.31887E-08         0.00000E+00
    0.26244E-07        -0.34597E-08         0.00000E+00
    0.27242E-07        -0.36543E-08         0.00000E+00
    0.28090E-07        -0.37767E-08         0.00000E+00
    0.28804E-07        -0.38348E-08         0.00000E+00
    0.29403E-07        -0.38383E-08         0.00000E+00
    0.29902E-07        -0.37978E-08         0.00000E+00
    0.30314E-07        -0.37239E-08         0.00000E+00
    0.30654E-07        -0.36264E-08         0.00000E+00
    0.30933E-07        -0.35135E-08         0.00000E+00
    0.31162E-07        -0.33921E-08         0.00000E+00
    0.31350E-07        -0.32677E-08         0.00000E+00
    0.31504E-07        -0.31446E-08         0.00000E+00
    0.31631E-07        -0.30257E-08         0.00000E+00
    0.31739E-07        -0.29133E-08         0.00000E+00
    0.31830E-07        -0.28085E-08         0.00000E+00
    0.31910E-07        -0.27120E-08         0.00000E+00
    0.31984E-07        -0.26240E-08         0.00000E+00
    0.32052E-07        -0.25443E-08         0.00000E+00
    0.32120E-07        -0.24727E-08         0.00000E+00
    0.32190E-07        -0.24085E-08         0.00000E+00
    0.32263E-07        -0.23511E-08         0.00000E+00
    0.32344E-07        -0.22997E-08         0.00000E+00
    0.32432E-07        -0.22533E-08         0.00000E+00
    0.32532E-07        -0.22110E-08         0.00000E+00
    0.32646E-07        -0.21718E-08         0.00000E+00
    0.32775E-07        -0.21341E-08         0.00000E+00
    0.32921E-07        -0.20964E-08         0.00000E+00
    0.33087E-07        -0.20564E-08         0.00000E+00
    0.33273E-07        -0.20112E-08         0.00000E+00
    0.33481E-07        -0.19561E-08         0.00000E+00
    0.33710E-07        -0.18837E-08         0.00000E+00
    0.33959E-07        -0.17808E-08         0.00000E+00
    0.34226E-07        -0.16251E-08         0.00000E+00
    0.34506E-07        -0.13792E-08         0.00000E+00
    0.34791E-07        -0.98538E-09         0.00000E+00
    0.35079E-07        -0.35976E-09         0.00000E+00
    0.35385E-07         0.60487E-09         0.00000E+00
    0.35786E-07         0.20021E-08         0.00000E+00
    0.36433E-07         0.38198E-08         0.00000E+00
    0.37164E-07         0.43513E-08         0.00000E+00
    0.37594E-07         0.20958E-08         0.00000E+00
    0.22648E-07        -0.65840E-09         0.00000E+00
    0.23999E-07        -0.17521E-08         0.00000E+00
    0.26039E-07        -0.25282E-08         0.00000E+00
    0.28263E-07        -0.30714E-08         0.00000E+00
    0.30410E-07        -0.34716E-08         0.00000E+00
    0.32360E-07        -0.37863E-08         0.00000E+00
    0.34070E-07        -0.40399E-08         0.00000E+00
    0.35538E-07        -0.42381E-08         0.00000E+00
    0.36775E-07        -0.43797E-08         0.00000E+00
    0.37804E-07        -0.44644E-08         0.00000E+00
    0.38651E-07        -0.44941E-08         0.00000E+00
    0.39339E-07        -0.44729E-08         0.00000E+00
    0.39893E-07        -0.44069E-08         0.00000E+00
    0.40332E-07        -0.43039E-08         0.00000E+00
    0.40674E-07        -0.41729E-08         0.00000E+00
    0.40936E-07        -0.40234E-08         0.00000E+00
    0.41133E-07        -0.38632E-08         0.00000E+00
    0.41276E-07        -0.36991E-08         0.00000E+00
    0.41377E-07        -0.35362E-08         0.00000E+00
    0.41444E-07        -0.33786E-08         0.00000E+00
    0.41486E-07        -0.32294E-08         0.00000E+00
    0.41508E-07        -0.30906E-08         0.00000E+00
    0.41515E-07        -0.29633E-08         0.00000E+00
    0.41513E-07        -0.28480E-08         0.00000E+00
    0.41505E-07        -0.27447E-08         0.00000E+00
    0.41494E-07        -0.26531E-08         0.00000E+00
    0.41483E-07        -0.25727E-08         0.00000E+00
    0.41473E-07        -0.25028E-08         0.00000E+00
    0.41468E-07        -0.24427E-08         0.00000E+00
    0.41469E-07        -0.23915E-08         0.00000E+00
    0.41478E-07        -0.23484E-08         0.00000E+00
    0.41498E-07        -0.23125E-08         0.00000E+00
    0.41529E-07        -0.22828E-08         0.00000E+00
    0.41573E-07        -0.22581E-08         0.00000E+00
    0.41634E-07        -0.22371E-08         0.00000E+00
    0.41712E-07        -0.22178E-08         0.00000E+00
    0.41809E-07        -0.21977E-08         0.00000E+00
    0.41926E-07        -0.21731E-08         0.00000E+00
    0.42063E-07        -0.21387E-08         0.00000E+00
    0.42220E-07        -0.20869E-08         0.00000E+00
    0.42397E-07        -0.20041E-08         0.00000E+00
    0.42595E-07        -0.18675E-08         0.00000E+00
    0.42817E-07        -0.16389E-08         0.00000E+00
    0.43068E-07        -0.12616E-08         0.00000E+00
    0.43360E-07        -0.66269E-09         0.00000E+00
    0.43729E-07         0.23292E-09         0.00000E+00
    0.44245E-07         0.14572E-08         0.00000E+00
    0.45058E-07         0.29032E-08         0.00000E+00
    0.45991E-07         0.36045E-08         0.00000E+00
    0.46599E-07         0.18048E-08         0.00000E+00
    0.38133E-07        -0.15343E-08         0.00000E+00
    0.39549E-07        -0.36424E-08         0.00000E+00
    0.41608E-07        -0.47378E-08         0.00000E+00
    0.43765E-07        -0.52425E-08         0.00000E+00
    0.45761E-07        -0.54431E-08         0.00000E+00
    0.47498E-07        -0.55013E-08         0.00000E+00
    0.48954E-07        -0.54921E-08         0.00000E+00
    0.50144E-07        -0.54429E-08         0.00000E+00
    0.51094E-07        -0.53620E-08         0.00000E+00
    0.51835E-07        -0.52524E-08         0.00000E+00
    0.52399E-07        -0.51166E-08         0.00000E+00
    0.52816E-07        -0.49563E-08         0.00000E+00
    0.53112E-07        -0.47733E-08         0.00000E+00
    0.53308E-07        -0.45722E-08         0.00000E+00
    0.53422E-07        -0.43605E-08         0.00000E+00
    0.53470E-07        -0.41461E-08         0.00000E+00
    0.53468E-07        -0.39349E-08         0.00000E+00
    0.53428E-07        -0.37310E-08         0.00000E+00
    0.53361E-07        -0.35375E-08         0.00000E+00
    0.53273E-07        -0.33569E-08         0.00000E+00
    0.53172E-07        -0.31909E-08         0.00000E+00
    0.53061E-07        -0.30405E-08         0.00000E+00
    0.52946E-07        -0.29057E-08         0.00000E+00
    0.52828E-07        -0.27863E-08         0.00000E+00
    0.52712E-07        -0.26816E-08         0.00000E+00
    0.52597E-07        -0.25910E-08         0.00000E+00
    0.52488E-07        -0.25136E-08         0.00000E+00
    0.52383E-07        -0.24486E-08         0.00000E+00
    0.52287E-07        -0.23950E-08         0.00000E+00
    0.52198E-07        -0.23519E-08         0.00000E+00
    0.52120E-07        -0.23186E-08         0.00000E+00
    0.52052E-07        -0.22939E-08         0.00000E+00
    0.51997E-07        -0.22772E-08         0.00000E+00
    0.51956E-07        -0.22673E-08         0.00000E+00
    0.51930E-07        -0.22628E-08         0.00000E+00
    0.51922E-07        -0.22617E-08         0.00000E+00
    0.51932E-07        -0.22610E-08         0.00000E+00
    0.51961E-07        -0.22562E-08         0.00000E+00
    0.52010E-07        -0.22414E-08         0.00000E+00
    0.52077E-07        -0.22085E-08         0.00000E+00
    0.52164E-07        -0.21460E-08         0.00000E+00
    0.52273E-07        -0.20336E-08         0.00000E+00
    0.52415E-07        -0.18366E-08         0.00000E+00
    0.52604E-07        -0.15033E-08         0.00000E+00
    0.52866E-07        -0.97476E-09         0.00000E+00
    0.53246E-07        -0.20430E-09         0.00000E+00
    0.53823E-07         0.80164E-09         0.00000E+00
    0.54677E-07         0.18913E-08         0.00000E+00
    0.55641E-07         0.27203E-08         0.00000E+00
    0.56338E-07         0.13839E-08         0.00000E+00
    0.58329E-07        -0.23703E-08         0.00000E+00
    0.59518E-07        -0.54110E-08         0.00000E+00
    0.61245E-07        -0.67557E-08         0.00000E+00
    0.63001E-07        -0.71375E-08         0.00000E+00
    0.64530E-07        -0.70724E-08         0.00000E+00
    0.65758E-07        -0.68369E-08         0.00000E+00
    0.66698E-07        -0.65526E-08         0.00000E+00
    0.67384E-07        -0.62583E-08         0.00000E+00
    0.67852E-07        -0.59647E-08         0.00000E+00
    0.68138E-07        -0.56766E-08         0.00000E+00
    0.68277E-07        -0.53954E-08         0.00000E+00
    0.68300E-07        -0.51184E-08         0.00000E+00
    0.68234E-07        -0.48408E-08         0.00000E+00
    0.68096E-07        -0.45626E-08         0.00000E+00
    0.67903E-07        -0.42908E-08         0.00000E+00
    0.67672E-07        -0.40329E-08         0.00000E+00
    0.67417E-07        -0.37915E-08         0.00000E+00
    0.67149E-07        -0.35670E-08         0.00000E+00
    0.66875E-07        -0.33602E-08         0.00000E+00
    0.66600E-07        -0.31718E-08         0.00000E+00
    0.66328E-07        -0.30023E-08         0.00000E+00
    0.66061E-07        -0.28515E-08         0.00000E+00
    0.65801E-07        -0.27188E-08         0.00000E+00
    0.65548E-07        -0.26032E-08         0.00000E+00
    0.65304E-07        -0.25038E-08         0.00000E+00
    0.65069E-07        -0.24197E-08         0.00000E+00
    0.64843E-07        -0.23498E-08         0.00000E+00
    0.64628E-07        -0.22932E-08         0.00000E+00
    0.64423E-07        -0.22488E-08         0.00000E+00
    0.64229E-07        -0.22158E-08         0.00000E+00
    0.64047E-07        -0.21933E-08         0.00000E+00
    0.63875E-07        -0.21805E-08         0.00000E+00
    0.63716E-07        -0.21766E-08         0.00000E+00
    0.63571E-07        -0.21809E-08         0.00000E+00
    0.63440E-07        -0.21923E-08         0.00000E+00
    0.63325E-07        -0.22087E-08         0.00000E+00
    0.63228E-07        -0.22269E-08         0.00000E+00
    0.63150E-07        -0.22420E-08         0.00000E+00
    0.63092E-07        -0.22468E-08         0.00000E+00
    0.63054E-07        -0.22321E-08         0.00000E+00
    0.63032E-07        -0.21874E-08         0.00000E+00
    0.63032E-07        -0.21011E-08         0.00000E+00
    0.63065E-07        -0.19444E-08         0.00000E+00
    0.63154E-07        -0.16730E-08         0.00000E+00
    0.63328E-07        -0.12407E-08         0.00000E+00
    0.63635E-07        -0.62585E-09         0.00000E+00
    0.64136E-07         0.14503E-09         0.00000E+00
    0.64860E-07         0.97070E-09         0.00000E+00
    0.65756E-07         0.17809E-08         0.00000E+00
    0.66528E-07         0.85344E-09         0.00000E+00
    0.82517E-07        -0.30044E-08         0.00000E+00
    0.83245E-07        -0.66942E-08         0.00000E+00
    0.84312E-07        -0.82668E-08         0.00000E+00
    0.85396E-07        -0.84667E-08         0.00000E+00
    0.86171E-07        -0.80462E-08         0.00000E+00
    0.86594E-07        -0.75144E-08         0.00000E+00
    0.86759E-07        -0.69798E-08         0.00000E+00
    0.86717E-07        -0.64749E-08         0.00000E+00
    0.86512E-07        -0.60119E-08         0.00000E+00
    0.86182E-07        -0.55858E-08         0.00000E+00
    0.85754E-07        -0.51968E-08         0.00000E+00
    0.85256E-07        -0.48419E-08         0.00000E+00
    0.84713E-07        -0.45083E-08         0.00000E+00
    0.84147E-07        -0.41905E-08         0.00000E+00
    0.83573E-07        -0.38960E-08         0.00000E+00
    0.83007E-07        -0.36304E-08         0.00000E+00
    0.82457E-07        -0.33893E-08         0.00000E+00
    0.81926E-07        -0.31708E-08         0.00000E+00
    0.81418E-07        -0.29740E-08         0.00000E+00
    0.80932E-07        -0.27978E-08         0.00000E+00
    0.80470E-07        -0.26414E-08         0.00000E+00
    0.80028E-07        -0.25039E-08         0.00000E+00
    0.79607E-07        -0.23843E-08         0.00000E+00
    0.79203E-07        -0.22817E-08         0.00000E+00
    0.78817E-07        -0.21951E-08         0.00000E+00
    0.78448E-07        -0.21235E-08         0.00000E+00
    0.78093E-07        -0.20660E-08         0.00000E+00
    0.77753E-07        -0.20214E-08         0.00000E+00
    0.77426E-07        -0.19889E-08         0.00000E+00
    0.77112E-07        -0.19677E-08         0.00000E+00
    0.76810E-07        -0.19568E-08         0.00000E+00
    0.76520E-07        -0.19557E-08         0.00000E+00
    0.76241E-07        -0.19638E-08         0.00000E+00
    0.75974E-07        -0.19806E-08         0.00000E+00
    0.75718E-07        -0.20056E-08         0.00000E+00
    0.75475E-07        -0.20374E-08         0.00000E+00
    0.75247E-07        -0.20729E-08         0.00000E+00
    0.75036E-07        -0.21073E-08         0.00000E+00
    0.74846E-07        -0.21339E-08         0.00000E+00
    0.74682E-07        -0.21423E-08         0.00000E+00
    0.74544E-07        -0.21180E-08         0.00000E+00
    0.74421E-07        -0.20471E-08         0.00000E+00
    0.74322E-07        -0.19332E-08         0.00000E+00
    0.74268E-07        -0.17184E-08         0.00000E+00
    0.74283E-07        -0.13838E-08         0.00000E+00
    0.74417E-07        -0.92380E-09         0.00000E+00
    0.74720E-07        -0.36100E-09         0.00000E+00
    0.75219E-07         0.25445E-09         0.00000E+00
    0.75938E-07         0.88175E-09         0.00000E+00
    0.76594E-07         0.32302E-09         0.00000E+00
    0.11254E-06        -0.31097E-08         0.00000E+00
    0.11197E-06        -0.67489E-08         0.00000E+00
    0.11102E-06        -0.83299E-08         0.00000E+00
    0.11013E-06        -0.86008E-08         0.00000E+00
    0.10954E-06        -0.80915E-08         0.00000E+00
    0.10896E-06        -0.73106E-08         0.00000E+00
    0.10814E-06        -0.65309E-08         0.00000E+00
    0.10715E-06        -0.58927E-08         0.00000E+00
    0.10611E-06        -0.53478E-08         0.00000E+00
    0.10505E-06        -0.48569E-08         0.00000E+00
    0.10395E-06        -0.43970E-08         0.00000E+00
    0.10279E-06        -0.39824E-08         0.00000E+00
    0.10161E-06        -0.36466E-08         0.00000E+00
    0.10050E-06        -0.33792E-08         0.00000E+00
    0.99507E-07        -0.31408E-08         0.00000E+00
    0.98602E-07        -0.29143E-08         0.00000E+00
    0.97754E-07        -0.27076E-08         0.00000E+00
    0.96957E-07        -0.25242E-08         0.00000E+00
    0.96207E-07        -0.23629E-08         0.00000E+00
    0.95504E-07        -0.22206E-08         0.00000E+00
    0.94843E-07        -0.20948E-08         0.00000E+00
    0.94219E-07        -0.19847E-08         0.00000E+00
    0.93627E-07        -0.18901E-08         0.00000E+00
    0.93064E-07        -0.18101E-08         0.00000E+00
    0.92528E-07        -0.17441E-08         0.00000E+00
    0.92014E-07        -0.16912E-08         0.00000E+00
    0.91521E-07        -0.16505E-08         0.00000E+00
    0.91046E-07        -0.16215E-08         0.00000E+00
    0.90587E-07        -0.16033E-08         0.00000E+00
    0.90143E-07        -0.15949E-08         0.00000E+00
    0.89711E-07        -0.15961E-08         0.00000E+00
    0.89291E-07        -0.16060E-08         0.00000E+00
    0.88880E-07        -0.16239E-08         0.00000E+00
    0.88477E-07        -0.16498E-08         0.00000E+00
    0.88080E-07        -0.16837E-08         0.00000E+00
    0.87689E-07        -0.17256E-08         0.00000E+00
    0.87306E-07        -0.17732E-08         0.00000E+00
    0.86931E-07        -0.18211E-08         0.00000E+00
    0.86567E-07        -0.18669E-08         0.00000E+00
    0.86228E-07        -0.19059E-08         0.00000E+00
    0.85938E-07        -0.19257E-08         0.00000E+00
    0.85732E-07        -0.19115E-08         0.00000E+00
    0.85523E-07        -0.17603E-08         0.00000E+00
    0.85258E-07        -0.15726E-08         0.00000E+00
    0.85036E-07        -0.13223E-08         0.00000E+00
    0.84917E-07        -0.10001E-08         0.00000E+00
    0.84944E-07        -0.61473E-09         0.00000E+00
    0.85149E-07        -0.19482E-09         0.00000E+00
    0.85539E-07         0.22192E-09         0.00000E+00
    0.85882E-07        -0.17511E-10         0.00000E+00
    0.14583E-06        -0.21546E-08         0.00000E+00
    0.14358E-06        -0.48871E-08         0.00000E+00
    0.14051E-06        -0.61783E-08         0.00000E+00
    0.13726E-06        -0.66168E-08         0.00000E+00
    0.13426E-06        -0.64734E-08         0.00000E+00
    0.13167E-06        -0.57611E-08         0.00000E+00
    0.12935E-06        -0.49452E-08         0.00000E+00
    0.12721E-06        -0.43463E-08         0.00000E+00
    0.12522E-06        -0.38655E-08         0.00000E+00
    0.12339E-06        -0.34391E-08         0.00000E+00
    0.12169E-06        -0.30196E-08         0.00000E+00
    0.12012E-06        -0.26328E-08         0.00000E+00
    0.11867E-06        -0.23578E-08         0.00000E+00
    0.11730E-06        -0.21979E-08         0.00000E+00
    0.11604E-06        -0.20644E-08         0.00000E+00
    0.11486E-06        -0.19124E-08         0.00000E+00
    0.11377E-06        -0.17709E-08         0.00000E+00
    0.11276E-06        -0.16482E-08         0.00000E+00
    0.11181E-06        -0.15433E-08         0.00000E+00
    0.11093E-06        -0.14516E-08         0.00000E+00
    0.11009E-06        -0.13703E-08         0.00000E+00
    0.10931E-06        -0.12993E-08         0.00000E+00
    0.10856E-06        -0.12387E-08         0.00000E+00
    0.10785E-06        -0.11885E-08         0.00000E+00
    0.10717E-06        -0.11483E-08         0.00000E+00
    0.10652E-06        -0.11174E-08         0.00000E+00
    0.10588E-06        -0.10953E-08         0.00000E+00
    0.10526E-06        -0.10818E-08         0.00000E+00
    0.10465E-06        -0.10765E-08         0.00000E+00
    0.10405E-06        -0.10782E-08         0.00000E+00
    0.10346E-06        -0.10872E-08         0.00000E+00
    0.10287E-06        -0.11026E-08         0.00000E+00
    0.10227E-06        -0.11235E-08         0.00000E+00
    0.10168E-06        -0.11498E-08         0.00000E+00
    0.10107E-06        -0.11814E-08         0.00000E+00
    0.10045E-06        -0.12185E-08         0.00000E+00
    0.99814E-07        -0.12581E-08         0.00000E+00
    0.99154E-07        -0.13014E-08         0.00000E+00
    0.98479E-07        -0.13478E-08         0.00000E+00
    0.97792E-07        -0.13992E-08         0.00000E+00
    0.97100E-07        -0.14494E-08         0.00000E+00
    0.96415E-07        -0.14980E-08         0.00000E+00
    0.95762E-07        -0.13108E-08         0.00000E+00
    0.95161E-07        -0.11572E-08         0.00000E+00
    0.94638E-07        -0.99222E-09         0.00000E+00
    0.94224E-07        -0.79748E-09         0.00000E+00
    0.93949E-07        -0.56957E-09         0.00000E+00
    0.93828E-07        -0.32358E-09         0.00000E+00
    0.93883E-07        -0.93815E-10         0.00000E+00
    0.93934E-07        -0.95998E-10         0.00000E+00
    0.17432E-06        -0.67397E-09         0.00000E+00
    0.17193E-06        -0.17226E-08         0.00000E+00
    0.16793E-06        -0.22781E-08         0.00000E+00
    0.16315E-06        -0.24952E-08         0.00000E+00
    0.15811E-06        -0.25466E-08         0.00000E+00
    0.15329E-06        -0.22775E-08         0.00000E+00
    0.14909E-06        -0.19169E-08         0.00000E+00
    0.14552E-06        -0.16572E-08         0.00000E+00
    0.14241E-06        -0.14551E-08         0.00000E+00
    0.13967E-06        -0.12787E-08         0.00000E+00
    0.13729E-06        -0.11033E-08         0.00000E+00
    0.13525E-06        -0.93977E-09         0.00000E+00
    0.13348E-06        -0.82567E-09         0.00000E+00
    0.13189E-06        -0.77029E-09         0.00000E+00
    0.13039E-06        -0.72823E-09         0.00000E+00
    0.12899E-06        -0.67368E-09         0.00000E+00
    0.12769E-06        -0.62271E-09         0.00000E+00
    0.12649E-06        -0.57940E-09         0.00000E+00
    0.12537E-06        -0.54313E-09         0.00000E+00
    0.12431E-06        -0.51155E-09         0.00000E+00
    0.12332E-06        -0.48336E-09         0.00000E+00
    0.12237E-06        -0.45868E-09         0.00000E+00
    0.12148E-06        -0.43779E-09         0.00000E+00
    0.12062E-06        -0.42066E-09         0.00000E+00
    0.11979E-06        -0.40731E-09         0.00000E+00
    0.11899E-06        -0.39747E-09         0.00000E+00
    0.11820E-06        -0.39090E-09         0.00000E+00
    0.11742E-06        -0.38765E-09         0.00000E+00
    0.11664E-06        -0.38757E-09         0.00000E+00
    0.11587E-06        -0.39014E-09         0.00000E+00
    0.11508E-06        -0.39556E-09         0.00000E+00
    0.11428E-06        -0.40334E-09         0.00000E+00
    0.11346E-06        -0.41317E-09         0.00000E+00
    0.11263E-06        -0.42483E-09         0.00000E+00
    0.11176E-06        -0.43809E-09         0.00000E+00
    0.11087E-06        -0.45260E-09         0.00000E+00
    0.10995E-06        -0.46639E-09         0.00000E+00
    0.10900E-06        -0.48355E-09         0.00000E+00
    0.10802E-06        -0.50331E-09         0.00000E+00
    0.10699E-06        -0.52681E-09         0.00000E+00
    0.10591E-06        -0.55142E-09         0.00000E+00
    0.10478E-06        -0.57997E-09         0.00000E+00
    0.10370E-06        -0.49780E-09         0.00000E+00
    0.10277E-06        -0.43590E-09         0.00000E+00
    0.10195E-06        -0.37699E-09         0.00000E+00
    0.10127E-06        -0.31109E-09         0.00000E+00
    0.10072E-06        -0.23492E-09         0.00000E+00
    0.10033E-06        -0.15134E-09         0.00000E+00
    0.10010E-06        -0.84610E-10         0.00000E+00
    0.99977E-07        -0.35620E-10         0.00000E+00
POINT_DATA       5151
VECTORS vDarcyNodal double 
    0.58504E-08         0.00000E+00         0.00000E+00
    0.57537E-08         0.00000E+00         0.00000E+00
    0.55763E-08         0.00000E+00         0.00000E+00
    0.53894E-08         0.00000E+00         0.00000E+00
    0.52123E-08         0.00000E+00         0.00000E+00
    0.50500E-08         0.00000E+00         0.00000E+00
    0.49024E-08         0.00000E+00         0.00000E+00
    0.47681E-08         0.00000E+00         0.00000E+00
    0.46451E-08         0.00000E+00         0.00000E+00
    0.45316E-08         0.00000E+00         0.00000E+00
    0.44262E-08         0.00000E+00         0.00000E+00
    0.43274E-08         0.00000E+00         0.00000E+00
    0.42344E-08         0.00000E+00         0.00000E+00
    0.41461E-08         0.00000E+00         0.00000E+00
    0.40619E-08         0.00000E+00         0.00000E+00
    0.39812E-08         0.00000E+00         0.00000E+00
    0.39035E-08         0.00000E+00         0.00000E+00
    0.38284E-08         0.00000E+00         0.00000E+00
    0.37556E-08         0.00000E+00         0.00000E+00
    0.36848E-08         0.00000E+00         0.00000E+00
    0.36157E-08         0.00000E+00         0.00000E+00
    0.35483E-08         0.00000E+00         0.00000E+00
    0.34823E-08         0.00000E+00         0.00000E+00
    0.34175E-08         0.00000E+00         0.00000E+00
    0.33540E-08         0.00000E+00         0.00000E+00
    0.32915E-08         0.00000E+00         0.00000E+00
    0.32301E-08         0.00000E+00         0.00000E+00
    0.31695E-08         0.00000E+00         0.00000E+00
    0.31099E-08         0.00000E+00         0.00000E+00
    0.30509E-08         0.00000E+00         0.00000E+00
    0.29927E-08         0.00000E+00         0.00000E+00
    0.29351E-08         0.00000E+00         0.00000E+00
    0.28781E-08         0.00000E+00         0.00000E+00
    0.28214E-08         0.00000E+00         0.00000E+00
    0.27652E-08         0.00000E+00         0.00000E+00
    0.27091E-08         0.74506E-22         0.00000E+00
    0.26531E-08         0.00000E+00         0.00000E+00
    0.25970E-08        -0.74506E-22         0.00000E+00
    0.25407E-08         0.00000E+00         0.00000E+00
    0.24840E-08         0.00000E+00         0.00000E+00
    0.24266E-08         0.00000E+00         0.00000E+00
    0.23684E-08         0.00000E+00         0.00000E+00
    0.23092E-08         0.00000E+00         0.00000E+00
    0.22488E-08         0.00000E+00         0.00000E+00
    0.21872E-08         0.00000E+00         0.00000E+00
    0.21246E-08         0.00000E+00         0.00000E+00
    0.20615E-08         0.00000E+00         0.00000E+00
    0.19993E-08         0.00000E+00         0.00000E+00
    0.19407E-08         0.00000E+00         0.00000E+00
    0.18914E-08         0.74506E-22         0.00000E+00
    0.18652E-08         0.14901E-21         0.00000E+00
    0.50438E-08         0.96677E-10         0.00000E+00
    0.49931E-08         0.13704E-09         0.00000E+00
    0.48839E-08         0.18217E-09         0.00000E+00
    0.47565E-08         0.18201E-09         0.00000E+00
    0.46281E-08         0.16970E-09         0.00000E+00
    0.45051E-08         0.15494E-09         0.00000E+00
    0.43897E-08         0.14095E-09         0.00000E+00
    0.42819E-08         0.12867E-09         0.00000E+00
    0.41811E-08         0.11823E-09         0.00000E+00
    0.40865E-08         0.10945E-09         0.00000E+00
    0.39974E-08         0.10209E-09         0.00000E+00
    0.39129E-08         0.95898E-10         0.00000E+00
    0.38326E-08         0.90673E-10         0.00000E+00
    0.37558E-08         0.86239E-10         0.00000E+00
    0.36820E-08         0.82454E-10         0.00000E+00
    0.36110E-08         0.79205E-10         0.00000E+00
    0.35422E-08         0.76397E-10         0.00000E+00
    0.34755E-08         0.73954E-10         0.00000E+00
    0.34107E-08         0.71813E-10         0.00000E+00
    0.33474E-08         0.69923E-10         0.00000E+00
    0.32856E-08         0.68241E-10         0.00000E+00
    0.32251E-08         0.66733E-10         0.00000E+00
    0.31658E-08         0.65371E-10         0.00000E+00
    0.31076E-08         0.64132E-10         0.00000E+00
    0.30504E-08         0.62999E-10         0.00000E+00
    0.29941E-08         0.61957E-10         0.00000E+00
    0.29387E-08         0.60998E-10         0.00000E+00
    0.28842E-08         0.60114E-10         0.00000E+00
    0.28303E-08         0.59305E-10         0.00000E+00
    0.27772E-08         0.58568E-10         0.00000E+00
    0.27247E-08         0.57908E-10         0.00000E+00
    0.26727E-08         0.57330E-10         0.00000E+00
    0.26213E-08         0.56841E-10         0.00000E+00
    0.25704E-08         0.56453E-10         0.00000E+00
    0.25197E-08         0.56178E-10         0.00000E+00
    0.24694E-08         0.56031E-10         0.00000E+00
    0.24192E-08         0.56029E-10         0.00000E+00
    0.23690E-08         0.56189E-10         0.00000E+00
    0.23187E-08         0.56528E-10         0.00000E+00
    0.22683E-08         0.57060E-10         0.00000E+00
    0.22174E-08         0.57792E-10         0.00000E+00
    0.21661E-08         0.58718E-10         0.00000E+00
    0.21143E-08         0.59808E-10         0.00000E+00
    0.20618E-08         0.60984E-10         0.00000E+00
    0.20089E-08         0.62093E-10         0.00000E+00
    0.19558E-08         0.62836E-10         0.00000E+00
    0.19033E-08         0.62646E-10         0.00000E+00
    0.18528E-08         0.60433E-10         0.00000E+00
    0.18071E-08         0.53956E-10         0.00000E+00
    0.17713E-08         0.37750E-10         0.00000E+00
    0.17552E-08         0.26230E-10         0.00000E+00
    0.35955E-08         0.10157E-09         0.00000E+00
    0.36039E-08         0.15992E-09         0.00000E+00
    0.35978E-08         0.23656E-09         0.00000E+00
    0.35698E-08         0.25584E-09         0.00000E+00
    0.35269E-08         0.25135E-09         0.00000E+00
    0.34754E-08         0.23838E-09         0.00000E+00
    0.34193E-08         0.22329E-09         0.00000E+00
    0.33610E-08         0.20865E-09         0.00000E+00
    0.33019E-08         0.19538E-09         0.00000E+00
    0.32430E-08         0.18370E-09         0.00000E+00
    0.31848E-08         0.17354E-09         0.00000E+00
    0.31275E-08         0.16475E-09         0.00000E+00
    0.30713E-08         0.15715E-09         0.00000E+00
    0.30162E-08         0.15056E-09         0.00000E+00
    0.29622E-08         0.14483E-09         0.00000E+00
    0.29093E-08         0.13982E-09         0.00000E+00
    0.28575E-08         0.13543E-09         0.00000E+00
    0.28066E-08         0.13156E-09         0.00000E+00
    0.27567E-08         0.12813E-09         0.00000E+00
    0.27077E-08         0.12506E-09         0.00000E+00
    0.26595E-08         0.12229E-09         0.00000E+00
    0.26121E-08         0.11979E-09         0.00000E+00
    0.25654E-08         0.11751E-09         0.00000E+00
    0.25194E-08         0.11541E-09         0.00000E+00
    0.24741E-08         0.11347E-09         0.00000E+00
    0.24295E-08         0.11166E-09         0.00000E+00
    0.23855E-08         0.10999E-09         0.00000E+00
    0.23421E-08         0.10843E-09         0.00000E+00
    0.22993E-08         0.10698E-09         0.00000E+00
    0.22570E-08         0.10564E-09         0.00000E+00
    0.22153E-08         0.10443E-09         0.00000E+00
    0.21740E-08         0.10334E-09         0.00000E+00
    0.21333E-08         0.10239E-09         0.00000E+00
    0.20929E-08         0.10160E-09         0.00000E+00
    0.20530E-08         0.10099E-09         0.00000E+00
    0.20135E-08         0.10057E-09         0.00000E+00
    0.19742E-08         0.10037E-09         0.00000E+00
    0.19353E-08         0.10042E-09         0.00000E+00
    0.18965E-08         0.10073E-09         0.00000E+00
    0.18580E-08         0.10130E-09         0.00000E+00
    0.18196E-08         0.10213E-09         0.00000E+00
    0.17815E-08         0.10317E-09         0.00000E+00
    0.17437E-08         0.10432E-09         0.00000E+00
    0.17063E-08         0.10539E-09         0.00000E+00
    0.16697E-08         0.10603E-09         0.00000E+00
    0.16345E-08         0.10560E-09         0.00000E+00
    0.16016E-08         0.10299E-09         0.00000E+00
    0.15723E-08         0.96185E-10         0.00000E+00
    0.15489E-08         0.81492E-10         0.00000E+00
    0.15344E-08         0.51908E-10         0.00000E+00
    0.15311E-08         0.32246E-10         0.00000E+00
    0.24601E-08         0.79864E-10         0.00000E+00
    0.24860E-08         0.13475E-09         0.00000E+00
    0.25287E-08         0.21628E-09         0.00000E+00
    0.25614E-08         0.25284E-09         0.00000E+00
    0.25783E-08         0.26404E-09         0.00000E+00
    0.25807E-08         0.26259E-09         0.00000E+00
    0.25717E-08         0.25542E-09         0.00000E+00
    0.25540E-08         0.24604E-09         0.00000E+00
    0.25301E-08         0.23615E-09         0.00000E+00
    0.25016E-08         0.22656E-09         0.00000E+00
    0.24700E-08         0.21761E-09         0.00000E+00
    0.24362E-08         0.20942E-09         0.00000E+00
    0.24009E-08         0.20201E-09         0.00000E+00
    0.23647E-08         0.19533E-09         0.00000E+00
    0.23279E-08         0.18933E-09         0.00000E+00
    0.22909E-08         0.18394E-09         0.00000E+00
    0.22537E-08         0.17909E-09         0.00000E+00
    0.22167E-08         0.17472E-09         0.00000E+00
    0.21797E-08         0.17076E-09         0.00000E+00
    0.21430E-08         0.16716E-09         0.00000E+00
    0.21066E-08         0.16386E-09         0.00000E+00
    0.20706E-08         0.16082E-09         0.00000E+00
    0.20348E-08         0.15800E-09         0.00000E+00
    0.19995E-08         0.15538E-09         0.00000E+00
    0.19645E-08         0.15291E-09         0.00000E+00
    0.19300E-08         0.15060E-09         0.00000E+00
    0.18958E-08         0.14841E-09         0.00000E+00
    0.18621E-08         0.14634E-09         0.00000E+00
    0.18289E-08         0.14440E-09         0.00000E+00
    0.17961E-08         0.14257E-09         0.00000E+00
    0.17637E-08         0.14088E-09         0.00000E+00
    0.17318E-08         0.13932E-09         0.00000E+00
    0.17003E-08         0.13792E-09         0.00000E+00
    0.16693E-08         0.13669E-09         0.00000E+00
    0.16388E-08         0.13566E-09         0.00000E+00
    0.16087E-08         0.13483E-09         0.00000E+00
    0.15791E-08         0.13424E-09         0.00000E+00
    0.15500E-08         0.13390E-09         0.00000E+00
    0.15215E-08         0.13380E-09         0.00000E+00
    0.14935E-08         0.13394E-09         0.00000E+00
    0.14662E-08         0.13427E-09         0.00000E+00
    0.14398E-08         0.13468E-09         0.00000E+00
    0.14143E-08         0.13500E-09         0.00000E+00
    0.13902E-08         0.13491E-09         0.00000E+00
    0.13678E-08         0.13388E-09         0.00000E+00
    0.13477E-08         0.13101E-09         0.00000E+00
    0.13308E-08         0.12486E-09         0.00000E+00
    0.13179E-08         0.11307E-09         0.00000E+00
    0.13101E-08         0.91835E-10         0.00000E+00
    0.13076E-08         0.55627E-10         0.00000E+00
    0.13084E-08         0.32977E-10         0.00000E+00
    0.16058E-08         0.49728E-10         0.00000E+00
    0.16354E-08         0.91322E-10         0.00000E+00
    0.16944E-08         0.16115E-09         0.00000E+00
    0.17550E-08         0.20623E-09         0.00000E+00
    0.18050E-08         0.23205E-09         0.00000E+00
    0.18413E-08         0.24500E-09         0.00000E+00
    0.18643E-08         0.24999E-09         0.00000E+00
    0.18760E-08         0.25026E-09         0.00000E+00
    0.18784E-08         0.24778E-09         0.00000E+00
    0.18735E-08         0.24377E-09         0.00000E+00
    0.18630E-08         0.23897E-09         0.00000E+00
    0.18481E-08         0.23383E-09         0.00000E+00
    0.18300E-08         0.22863E-09         0.00000E+00
    0.18093E-08         0.22354E-09         0.00000E+00
    0.17868E-08         0.21864E-09         0.00000E+00
    0.17630E-08         0.21401E-09         0.00000E+00
    0.17381E-08         0.20965E-09         0.00000E+00
    0.17125E-08         0.20556E-09         0.00000E+00
    0.16865E-08         0.20174E-09         0.00000E+00
    0.16601E-08         0.19815E-09         0.00000E+00
    0.16336E-08         0.19478E-09         0.00000E+00
    0.16071E-08         0.19160E-09         0.00000E+00
    0.15805E-08         0.18859E-09         0.00000E+00
    0.15541E-08         0.18572E-09         0.00000E+00
    0.15278E-08         0.18298E-09         0.00000E+00
    0.15017E-08         0.18035E-09         0.00000E+00
    0.14759E-08         0.17782E-09         0.00000E+00
    0.14503E-08         0.17539E-09         0.00000E+00
    0.14251E-08         0.17306E-09         0.00000E+00
    0.14003E-08         0.17083E-09         0.00000E+00
    0.13758E-08         0.16871E-09         0.00000E+00
    0.13518E-08         0.16671E-09         0.00000E+00
    0.13282E-08         0.16485E-09         0.00000E+00
    0.13051E-08         0.16313E-09         0.00000E+00
    0.12825E-08         0.16159E-09         0.00000E+00
    0.12605E-08         0.16022E-09         0.00000E+00
    0.12391E-08         0.15905E-09         0.00000E+00
    0.12185E-08         0.15806E-09         0.00000E+00
    0.11986E-08         0.15724E-09         0.00000E+00
    0.11796E-08         0.15654E-09         0.00000E+00
    0.11617E-08         0.15588E-09         0.00000E+00
    0.11450E-08         0.15508E-09         0.00000E+00
    0.11299E-08         0.15391E-09         0.00000E+00
    0.11167E-08         0.15193E-09         0.00000E+00
    0.11057E-08         0.14850E-09         0.00000E+00
    0.10975E-08         0.14264E-09         0.00000E+00
    0.10926E-08         0.13284E-09         0.00000E+00
    0.10912E-08         0.11689E-09         0.00000E+00
    0.10933E-08         0.91742E-10         0.00000E+00
    0.10975E-08         0.53567E-10         0.00000E+00
    0.11005E-08         0.30703E-10         0.00000E+00
    0.99545E-09         0.20790E-10         0.00000E+00
    0.10215E-08         0.46154E-10         0.00000E+00
    0.10790E-08         0.96644E-10         0.00000E+00
    0.11450E-08         0.14221E-09         0.00000E+00
    0.12070E-08         0.17775E-09         0.00000E+00
    0.12590E-08         0.20334E-09         0.00000E+00
    0.12995E-08         0.22075E-09         0.00000E+00
    0.13290E-08         0.23194E-09         0.00000E+00
    0.13487E-08         0.23858E-09         0.00000E+00
    0.13601E-08         0.24195E-09         0.00000E+00
    0.13648E-08         0.24300E-09         0.00000E+00
    0.13640E-08         0.24245E-09         0.00000E+00
    0.13588E-08         0.24082E-09         0.00000E+00
    0.13502E-08         0.23848E-09         0.00000E+00
    0.13389E-08         0.23569E-09         0.00000E+00
    0.13255E-08         0.23266E-09         0.00000E+00
    0.13104E-08         0.22951E-09         0.00000E+00
    0.12941E-08         0.22632E-09         0.00000E+00
    0.12768E-08         0.22315E-09         0.00000E+00
    0.12589E-08         0.22002E-09         0.00000E+00
    0.12404E-08         0.21695E-09         0.00000E+00
    0.12215E-08         0.21394E-09         0.00000E+00
    0.12024E-08         0.21100E-09         0.00000E+00
    0.11832E-08         0.20811E-09         0.00000E+00
    0.11640E-08         0.20528E-09         0.00000E+00
    0.11448E-08         0.20250E-09         0.00000E+00
    0.11258E-08         0.19977E-09         0.00000E+00
    0.11069E-08         0.19708E-09         0.00000E+00
    0.10883E-08         0.19445E-09         0.00000E+00
    0.10700E-08         0.19188E-09         0.00000E+00
    0.10520E-08         0.18937E-09         0.00000E+00
    0.10345E-08         0.18694E-09         0.00000E+00
    0.10173E-08         0.18461E-09         0.00000E+00
    0.10007E-08         0.18237E-09         0.00000E+00
    0.98469E-09         0.18024E-09         0.00000E+00
    0.96931E-09         0.17822E-09         0.00000E+00
    0.95468E-09         0.17630E-09         0.00000E+00
    0.94089E-09         0.17447E-09         0.00000E+00
    0.92809E-09         0.17267E-09         0.00000E+00
    0.91642E-09         0.17083E-09         0.00000E+00
    0.90608E-09         0.16882E-09         0.00000E+00
    0.89730E-09         0.16643E-09         0.00000E+00
    0.89036E-09         0.16335E-09         0.00000E+00
    0.88555E-09         0.15911E-09         0.00000E+00
    0.88320E-09         0.15304E-09         0.00000E+00
    0.88360E-09         0.14418E-09         0.00000E+00
    0.88689E-09         0.13120E-09         0.00000E+00
    0.89289E-09         0.11237E-09         0.00000E+00
    0.90074E-09         0.85536E-10         0.00000E+00
    0.90847E-09         0.48387E-10         0.00000E+00
    0.91252E-09         0.26942E-10         0.00000E+00
    0.58292E-09        -0.24536E-11         0.00000E+00
    0.60262E-09         0.77969E-11         0.00000E+00
    0.64946E-09         0.37648E-10         0.00000E+00
    0.70797E-09         0.78245E-10         0.00000E+00
    0.76747E-09         0.11808E-09         0.00000E+00
    0.82179E-09         0.15242E-09         0.00000E+00
    0.86802E-09         0.17999E-09         0.00000E+00
    0.90532E-09         0.20110E-09         0.00000E+00
    0.93402E-09         0.21666E-09         0.00000E+00
    0.95496E-09         0.22768E-09         0.00000E+00
    0.96918E-09         0.23512E-09         0.00000E+00
    0.97774E-09         0.23980E-09         0.00000E+00
    0.98160E-09         0.24240E-09         0.00000E+00
    0.98162E-09         0.24346E-09         0.00000E+00
    0.97853E-09         0.24338E-09         0.00000E+00
    0.97291E-09         0.24249E-09         0.00000E+00
    0.96529E-09         0.24102E-09         0.00000E+00
    0.95606E-09         0.23915E-09         0.00000E+00
    0.94557E-09         0.23699E-09         0.00000E+00
    0.93409E-09         0.23463E-09         0.00000E+00
    0.92186E-09         0.23213E-09         0.00000E+00
    0.90907E-09         0.22954E-09         0.00000E+00
    0.89587E-09         0.22686E-09         0.00000E+00
    0.88239E-09         0.22414E-09         0.00000E+00
    0.86875E-09         0.22136E-09         0.00000E+00
    0.85506E-09         0.21855E-09         0.00000E+00
    0.84139E-09         0.21572E-09         0.00000E+00
    0.82783E-09         0.21286E-09         0.00000E+00
    0.81445E-09         0.21000E-09         0.00000E+00
    0.80131E-09         0.20712E-09         0.00000E+00
    0.78849E-09         0.20426E-09         0.00000E+00
    0.77606E-09         0.20141E-09         0.00000E+00
    0.76409E-09         0.19858E-09         0.00000E+00
    0.75265E-09         0.19578E-09         0.00000E+00
    0.74182E-09         0.19300E-09         0.00000E+00
    0.73171E-09         0.19024E-09         0.00000E+00
    0.72243E-09         0.18747E-09         0.00000E+00
    0.71409E-09         0.18465E-09         0.00000E+00
    0.70685E-09         0.18171E-09         0.00000E+00
    0.70088E-09         0.17855E-09         0.00000E+00
    0.69637E-09         0.17499E-09         0.00000E+00
    0.69356E-09         0.17081E-09         0.00000E+00
    0.69267E-09         0.16566E-09         0.00000E+00
    0.69394E-09         0.15908E-09         0.00000E+00
    0.69757E-09         0.15045E-09         0.00000E+00
    0.70365E-09         0.13895E-09         0.00000E+00
    0.71204E-09         0.12355E-09         0.00000E+00
    0.72220E-09         0.10304E-09         0.00000E+00
    0.73294E-09         0.76158E-10         0.00000E+00
    0.74213E-09         0.41789E-10         0.00000E+00
    0.74645E-09         0.22615E-10         0.00000E+00
    0.32105E-09        -0.18623E-10         0.00000E+00
    0.33389E-09        -0.20388E-10         0.00000E+00
    0.36705E-09        -0.87008E-11         0.00000E+00
    0.41196E-09         0.24195E-10         0.00000E+00
    0.46111E-09         0.63925E-10         0.00000E+00
    0.50912E-09         0.10279E-09         0.00000E+00
    0.55275E-09         0.13721E-09         0.00000E+00
    0.59038E-09         0.16594E-09         0.00000E+00
    0.62150E-09         0.18895E-09         0.00000E+00
    0.64628E-09         0.20679E-09         0.00000E+00
    0.66523E-09         0.22022E-09         0.00000E+00
    0.67903E-09         0.23003E-09         0.00000E+00
    0.68838E-09         0.23693E-09         0.00000E+00
    0.69396E-09         0.24155E-09         0.00000E+00
    0.69639E-09         0.24441E-09         0.00000E+00
    0.69619E-09         0.24590E-09         0.00000E+00
    0.69385E-09         0.24636E-09         0.00000E+00
    0.68976E-09         0.24604E-09         0.00000E+00
    0.68426E-09         0.24511E-09         0.00000E+00
    0.67762E-09         0.24372E-09         0.00000E+00
    0.67009E-09         0.24197E-09         0.00000E+00
    0.66186E-09         0.23994E-09         0.00000E+00
    0.65312E-09         0.23768E-09         0.00000E+00
    0.64400E-09         0.23522E-09         0.00000E+00
    0.63463E-09         0.23261E-09         0.00000E+00
    0.62513E-09         0.22986E-09         0.00000E+00
    0.61559E-09         0.22700E-09         0.00000E+00
    0.60610E-09         0.22403E-09         0.00000E+00
    0.59675E-09         0.22097E-09         0.00000E+00
    0.58762E-09         0.21783E-09         0.00000E+00
    0.57878E-09         0.21462E-09         0.00000E+00
    0.57032E-09         0.21135E-09         0.00000E+00
    0.56232E-09         0.20802E-09         0.00000E+00
    0.55487E-09         0.20463E-09         0.00000E+00
    0.54805E-09         0.20117E-09         0.00000E+00
    0.54198E-09         0.19761E-09         0.00000E+00
    0.53678E-09         0.19392E-09         0.00000E+00
    0.53257E-09         0.19004E-09         0.00000E+00
    0.52951E-09         0.18588E-09         0.00000E+00
    0.52776E-09         0.18131E-09         0.00000E+00
    0.52751E-09         0.17614E-09         0.00000E+00
    0.52893E-09         0.17014E-09         0.00000E+00
    0.53221E-09         0.16296E-09         0.00000E+00
    0.53750E-09         0.15420E-09         0.00000E+00
    0.54487E-09         0.14333E-09         0.00000E+00
    0.55424E-09         0.12971E-09         0.00000E+00
    0.56529E-09         0.11265E-09         0.00000E+00
    0.57728E-09         0.91466E-10         0.00000E+00
    0.58894E-09         0.65606E-10         0.00000E+00
    0.59826E-09         0.34881E-10         0.00000E+00
    0.60238E-09         0.18308E-10         0.00000E+00
    0.16745E-09        -0.28126E-10         0.00000E+00
    0.17424E-09        -0.38204E-10         0.00000E+00
    0.19418E-09        -0.40426E-10         0.00000E+00
    0.22412E-09        -0.15807E-10         0.00000E+00
    0.25976E-09         0.20927E-10         0.00000E+00
    0.29713E-09         0.60780E-10         0.00000E+00
    0.33329E-09         0.98735E-10         0.00000E+00
    0.36633E-09         0.13235E-09         0.00000E+00
    0.39525E-09         0.16075E-09         0.00000E+00
    0.41965E-09         0.18394E-09         0.00000E+00
    0.43956E-09         0.20237E-09         0.00000E+00
    0.45527E-09         0.21665E-09         0.00000E+00
    0.46718E-09         0.22747E-09         0.00000E+00
    0.47573E-09         0.23545E-09         0.00000E+00
    0.48138E-09         0.24115E-09         0.00000E+00
    0.48455E-09         0.24502E-09         0.00000E+00
    0.48564E-09         0.24745E-09         0.00000E+00
    0.48500E-09         0.24875E-09         0.00000E+00
    0.48292E-09         0.24913E-09         0.00000E+00
    0.47967E-09         0.24880E-09         0.00000E+00
    0.47548E-09         0.24789E-09         0.00000E+00
    0.47055E-09         0.24651E-09         0.00000E+00
    0.46504E-09         0.24473E-09         0.00000E+00
    0.45910E-09         0.24262E-09         0.00000E+00
    0.45287E-09         0.24023E-09         0.00000E+00
    0.44647E-09         0.23760E-09         0.00000E+00
    0.43998E-09         0.23475E-09         0.00000E+00
    0.43353E-09         0.23170E-09         0.00000E+00
    0.42718E-09         0.22848E-09         0.00000E+00
    0.42103E-09         0.22509E-09         0.00000E+00
    0.41517E-09         0.22155E-09         0.00000E+00
    0.40967E-09         0.21787E-09         0.00000E+00
    0.40463E-09         0.21404E-09         0.00000E+00
    0.40014E-09         0.21005E-09         0.00000E+00
    0.39630E-09         0.20588E-09         0.00000E+00
    0.39321E-09         0.20151E-09         0.00000E+00
    0.39099E-09         0.19688E-09         0.00000E+00
    0.38977E-09         0.19192E-09         0.00000E+00
    0.38968E-09         0.18652E-09         0.00000E+00
    0.39088E-09         0.18056E-09         0.00000E+00
    0.39350E-09         0.17383E-09         0.00000E+00
    0.39770E-09         0.16610E-09         0.00000E+00
    0.40357E-09         0.15708E-09         0.00000E+00
    0.41120E-09         0.14642E-09         0.00000E+00
    0.42053E-09         0.13371E-09         0.00000E+00
    0.43138E-09         0.11854E-09         0.00000E+00
    0.44330E-09         0.10052E-09         0.00000E+00
    0.45552E-09         0.79392E-10         0.00000E+00
    0.46682E-09         0.55182E-10         0.00000E+00
    0.47545E-09         0.28351E-10         0.00000E+00
    0.47911E-09         0.14373E-10         0.00000E+00
    0.87379E-10        -0.32209E-10         0.00000E+00
    0.89489E-10        -0.47112E-10         0.00000E+00
    0.98372E-10        -0.58581E-10         0.00000E+00
    0.11472E-09        -0.41390E-10         0.00000E+00
    0.13685E-09        -0.90820E-11         0.00000E+00
    0.16234E-09         0.29265E-10         0.00000E+00
    0.18891E-09         0.68014E-10         0.00000E+00
    0.21476E-09         0.10398E-09         0.00000E+00
    0.23866E-09         0.13564E-09         0.00000E+00
    0.25989E-09         0.16247E-09         0.00000E+00
    0.27811E-09         0.18460E-09         0.00000E+00
    0.29326E-09         0.20242E-09         0.00000E+00
    0.30547E-09         0.21648E-09         0.00000E+00
    0.31495E-09         0.22735E-09         0.00000E+00
    0.32198E-09         0.23558E-09         0.00000E+00
    0.32684E-09         0.24163E-09         0.00000E+00
    0.32984E-09         0.24592E-09         0.00000E+00
    0.33123E-09         0.24876E-09         0.00000E+00
    0.33128E-09         0.25044E-09         0.00000E+00
    0.33022E-09         0.25116E-09         0.00000E+00
    0.32823E-09         0.25110E-09         0.00000E+00
    0.32551E-09         0.25038E-09         0.00000E+00
    0.32222E-09         0.24912E-09         0.00000E+00
    0.31849E-09         0.24739E-09         0.00000E+00
    0.31445E-09         0.24525E-09         0.00000E+00
    0.31023E-09         0.24275E-09         0.00000E+00
    0.30591E-09         0.23994E-09         0.00000E+00
    0.30161E-09         0.23683E-09         0.00000E+00
    0.29741E-09         0.23346E-09         0.00000E+00
    0.29339E-09         0.22984E-09         0.00000E+00
    0.28966E-09         0.22598E-09         0.00000E+00
    0.28628E-09         0.22189E-09         0.00000E+00
    0.28336E-09         0.21755E-09         0.00000E+00
    0.28097E-09         0.21297E-09         0.00000E+00
    0.27923E-09         0.20810E-09         0.00000E+00
    0.27823E-09         0.20292E-09         0.00000E+00
    0.27807E-09         0.19736E-09         0.00000E+00
    0.27887E-09         0.19135E-09         0.00000E+00
    0.28076E-09         0.18477E-09         0.00000E+00
    0.28384E-09         0.17749E-09         0.00000E+00
    0.28823E-09         0.16933E-09         0.00000E+00
    0.29401E-09         0.16006E-09         0.00000E+00
    0.30124E-09         0.14946E-09         0.00000E+00
    0.30991E-09         0.13725E-09         0.00000E+00
    0.31989E-09         0.12315E-09         0.00000E+00
    0.33092E-09         0.10694E-09         0.00000E+00
    0.34252E-09         0.88511E-10         0.00000E+00
    0.35395E-09         0.67946E-10         0.00000E+00
    0.36414E-09         0.45668E-10         0.00000E+00
    0.37166E-09         0.22584E-10         0.00000E+00
    0.37473E-09         0.10989E-10         0.00000E+00
    0.54458E-10        -0.32346E-10         0.00000E+00
    0.53297E-10        -0.49197E-10         0.00000E+00
    0.53886E-10        -0.65654E-10         0.00000E+00
    0.59228E-10        -0.54283E-10         0.00000E+00
    0.69593E-10        -0.26696E-10         0.00000E+00
    0.83923E-10         0.87175E-11         0.00000E+00
    0.10071E-09         0.46318E-10         0.00000E+00
    0.11849E-09         0.82604E-10         0.00000E+00
    0.13606E-09         0.11563E-09         0.00000E+00
    0.15257E-09         0.14449E-09         0.00000E+00
    0.16745E-09         0.16899E-09         0.00000E+00
    0.18041E-09         0.18929E-09         0.00000E+00
    0.19133E-09         0.20578E-09         0.00000E+00
    0.20024E-09         0.21895E-09         0.00000E+00
    0.20724E-09         0.22926E-09         0.00000E+00
    0.21250E-09         0.23716E-09         0.00000E+00
    0.21619E-09         0.24306E-09         0.00000E+00
    0.21850E-09         0.24730E-09         0.00000E+00
    0.21964E-09         0.25015E-09         0.00000E+00
    0.21977E-09         0.25185E-09         0.00000E+00
    0.21907E-09         0.25259E-09         0.00000E+00
    0.21769E-09         0.25252E-09         0.00000E+00
    0.21578E-09         0.25175E-09         0.00000E+00
    0.21346E-09         0.25039E-09         0.00000E+00
    0.21085E-09         0.24850E-09         0.00000E+00
    0.20806E-09         0.24614E-09         0.00000E+00
    0.20518E-09         0.24336E-09         0.00000E+00
    0.20232E-09         0.24021E-09         0.00000E+00
    0.19957E-09         0.23669E-09         0.00000E+00
    0.19700E-09         0.23284E-09         0.00000E+00
    0.19470E-09         0.22867E-09         0.00000E+00
    0.19276E-09         0.22417E-09         0.00000E+00
    0.19125E-09         0.21934E-09         0.00000E+00
    0.19028E-09         0.21417E-09         0.00000E+00
    0.18992E-09         0.20863E-09         0.00000E+00
    0.19028E-09         0.20267E-09         0.00000E+00
    0.19144E-09         0.19623E-09         0.00000E+00
    0.19349E-09         0.18923E-09         0.00000E+00
    0.19654E-09         0.18156E-09         0.00000E+00
    0.20067E-09         0.17309E-09         0.00000E+00
    0.20595E-09         0.16366E-09         0.00000E+00
    0.21241E-09         0.15309E-09         0.00000E+00
    0.22007E-09         0.14119E-09         0.00000E+00
    0.22884E-09         0.12778E-09         0.00000E+00
    0.23856E-09         0.11270E-09         0.00000E+00
    0.24893E-09         0.95905E-10         0.00000E+00
    0.25949E-09         0.77482E-10         0.00000E+00
    0.26956E-09         0.57772E-10         0.00000E+00
    0.27826E-09         0.37472E-10         0.00000E+00
    0.28449E-09         0.17754E-10         0.00000E+00
    0.28696E-09         0.82219E-11         0.00000E+00
    0.49902E-10        -0.29887E-10         0.00000E+00
    0.46687E-10        -0.46540E-10         0.00000E+00
    0.41610E-10        -0.64512E-10         0.00000E+00
    0.38825E-10        -0.57097E-10         0.00000E+00
    0.39873E-10        -0.33777E-10         0.00000E+00
    0.44757E-10        -0.18498E-11         0.00000E+00
    0.52711E-10         0.33450E-10         0.00000E+00
    0.62702E-10         0.68629E-10         0.00000E+00
    0.73719E-10         0.10155E-09         0.00000E+00
    0.84909E-10         0.13108E-09         0.00000E+00
    0.95630E-10         0.15676E-09         0.00000E+00
    0.10544E-09         0.17853E-09         0.00000E+00
    0.11407E-09         0.19665E-09         0.00000E+00
    0.12140E-09         0.21144E-09         0.00000E+00
    0.12738E-09         0.22333E-09         0.00000E+00
    0.13207E-09         0.23269E-09         0.00000E+00
    0.13555E-09         0.23991E-09         0.00000E+00
    0.13793E-09         0.24531E-09         0.00000E+00
    0.13934E-09         0.24917E-09         0.00000E+00
    0.13991E-09         0.25173E-09         0.00000E+00
    0.13976E-09         0.25318E-09         0.00000E+00
    0.13903E-09         0.25368E-09         0.00000E+00
    0.13784E-09         0.25336E-09         0.00000E+00
    0.13629E-09         0.25232E-09         0.00000E+00
    0.13449E-09         0.25065E-09         0.00000E+00
    0.13254E-09         0.24842E-09         0.00000E+00
    0.13052E-09         0.24567E-09         0.00000E+00
    0.12854E-09         0.24245E-09         0.00000E+00
    0.12667E-09         0.23879E-09         0.00000E+00
    0.12498E-09         0.23471E-09         0.00000E+00
    0.12358E-09         0.23022E-09         0.00000E+00
    0.12252E-09         0.22533E-09         0.00000E+00
    0.12189E-09         0.22003E-09         0.00000E+00
    0.12177E-09         0.21430E-09         0.00000E+00
    0.12223E-09         0.20811E-09         0.00000E+00
    0.12337E-09         0.20141E-09         0.00000E+00
    0.12525E-09         0.19415E-09         0.00000E+00
    0.12795E-09         0.18624E-09         0.00000E+00
    0.13154E-09         0.17760E-09         0.00000E+00
    0.13608E-09         0.16809E-09         0.00000E+00
    0.14160E-09         0.15758E-09         0.00000E+00
    0.14809E-09         0.14594E-09         0.00000E+00
    0.15553E-09         0.13304E-09         0.00000E+00
    0.16378E-09         0.11875E-09         0.00000E+00
    0.17267E-09         0.10306E-09         0.00000E+00
    0.18189E-09         0.86016E-10         0.00000E+00
    0.19101E-09         0.67884E-10         0.00000E+00
    0.19948E-09         0.49169E-10         0.00000E+00
    0.20659E-09         0.30733E-10         0.00000E+00
    0.21153E-09         0.13889E-10         0.00000E+00
    0.21342E-09         0.60592E-11         0.00000E+00
    0.61099E-10        -0.25914E-10         0.00000E+00
    0.56759E-10        -0.40905E-10         0.00000E+00
    0.48187E-10        -0.57793E-10         0.00000E+00
    0.39887E-10        -0.52546E-10         0.00000E+00
    0.34109E-10        -0.32628E-10         0.00000E+00
    0.31601E-10        -0.41202E-11         0.00000E+00
    0.32213E-10         0.28373E-10         0.00000E+00
    0.35350E-10         0.61596E-10         0.00000E+00
    0.40255E-10         0.93419E-10         0.00000E+00
    0.46192E-10         0.12258E-09         0.00000E+00
    0.52531E-10         0.14846E-09         0.00000E+00
    0.58779E-10         0.17085E-09         0.00000E+00
    0.64584E-10         0.18983E-09         0.00000E+00
    0.69715E-10         0.20564E-09         0.00000E+00
    0.74045E-10         0.21858E-09         0.00000E+00
    0.77519E-10         0.22899E-09         0.00000E+00
    0.80143E-10         0.23721E-09         0.00000E+00
    0.81958E-10         0.24351E-09         0.00000E+00
    0.83034E-10         0.24818E-09         0.00000E+00
    0.83454E-10         0.25143E-09         0.00000E+00
    0.83308E-10         0.25347E-09         0.00000E+00
    0.82693E-10         0.25444E-09         0.00000E+00
    0.81701E-10         0.25450E-09         0.00000E+00
    0.80425E-10         0.25374E-09         0.00000E+00
    0.78955E-10         0.25225E-09         0.00000E+00
    0.77375E-10         0.25010E-09         0.00000E+00
    0.75767E-10         0.24736E-09         0.00000E+00
    0.74211E-10         0.24406E-09         0.00000E+00
    0.72782E-10         0.24025E-09         0.00000E+00
    0.71556E-10         0.23593E-09         0.00000E+00
    0.70603E-10         0.23113E-09         0.00000E+00
    0.69996E-10         0.22586E-09         0.00000E+00
    0.69806E-10         0.22009E-09         0.00000E+00
    0.70102E-10         0.21383E-09         0.00000E+00
    0.70953E-10         0.20703E-09         0.00000E+00
    0.72424E-10         0.19965E-09         0.00000E+00
    0.74578E-10         0.19165E-09         0.00000E+00
    0.77470E-10         0.18293E-09         0.00000E+00
    0.81143E-10         0.17343E-09         0.00000E+00
    0.85626E-10         0.16303E-09         0.00000E+00
    0.90922E-10         0.15164E-09         0.00000E+00
    0.97002E-10         0.13916E-09         0.00000E+00
    0.10379E-09         0.12550E-09         0.00000E+00
    0.11116E-09         0.11063E-09         0.00000E+00
    0.11890E-09         0.94594E-10         0.00000E+00
    0.12674E-09         0.77562E-10         0.00000E+00
    0.13430E-09         0.59892E-10         0.00000E+00
    0.14112E-09         0.42198E-10         0.00000E+00
    0.14669E-09         0.25425E-10         0.00000E+00
    0.15044E-09         0.10927E-10         0.00000E+00
    0.15182E-09         0.44444E-11         0.00000E+00
    0.80060E-10        -0.21208E-10         0.00000E+00
    0.75243E-10        -0.33628E-10         0.00000E+00
    0.64795E-10        -0.47639E-10         0.00000E+00
    0.53085E-10        -0.43019E-10         0.00000E+00
    0.42661E-10        -0.25490E-10         0.00000E+00
    0.34733E-10         0.46165E-13         0.00000E+00
    0.29618E-10         0.29701E-10         0.00000E+00
    0.27100E-10         0.60587E-10         0.00000E+00
    0.26698E-10         0.90712E-10         0.00000E+00
    0.27840E-10         0.11881E-09         0.00000E+00
    0.29975E-10         0.14417E-09         0.00000E+00
    0.32625E-10         0.16648E-09         0.00000E+00
    0.35413E-10         0.18571E-09         0.00000E+00
    0.38055E-10         0.20198E-09         0.00000E+00
    0.40363E-10         0.21552E-09         0.00000E+00
    0.42217E-10         0.22659E-09         0.00000E+00
    0.43560E-10         0.23547E-09         0.00000E+00
    0.44378E-10         0.24242E-09         0.00000E+00
    0.44691E-10         0.24767E-09         0.00000E+00
    0.44539E-10         0.25145E-09         0.00000E+00
    0.43977E-10         0.25394E-09         0.00000E+00
    0.43072E-10         0.25528E-09         0.00000E+00
    0.41893E-10         0.25562E-09         0.00000E+00
    0.40512E-10         0.25507E-09         0.00000E+00
    0.39002E-10         0.25370E-09         0.00000E+00
    0.37434E-10         0.25160E-09         0.00000E+00
    0.35879E-10         0.24883E-09         0.00000E+00
    0.34405E-10         0.24543E-09         0.00000E+00
    0.33081E-10         0.24145E-09         0.00000E+00
    0.31972E-10         0.23689E-09         0.00000E+00
    0.31142E-10         0.23178E-09         0.00000E+00
    0.30655E-10         0.22613E-09         0.00000E+00
    0.30572E-10         0.21992E-09         0.00000E+00
    0.30952E-10         0.21315E-09         0.00000E+00
    0.31852E-10         0.20578E-09         0.00000E+00
    0.33325E-10         0.19779E-09         0.00000E+00
    0.35417E-10         0.18910E-09         0.00000E+00
    0.38163E-10         0.17968E-09         0.00000E+00
    0.41588E-10         0.16944E-09         0.00000E+00
    0.45697E-10         0.15831E-09         0.00000E+00
    0.50469E-10         0.14621E-09         0.00000E+00
    0.55854E-10         0.13307E-09         0.00000E+00
    0.61759E-10         0.11888E-09         0.00000E+00
    0.68044E-10         0.10364E-09         0.00000E+00
    0.74513E-10         0.87478E-10         0.00000E+00
    0.80913E-10         0.70621E-10         0.00000E+00
    0.86934E-10         0.53498E-10         0.00000E+00
    0.92223E-10         0.36773E-10         0.00000E+00
    0.96405E-10         0.21417E-10         0.00000E+00
    0.99118E-10         0.87607E-11         0.00000E+00
    0.10007E-09         0.32991E-11         0.00000E+00
    0.10204E-09        -0.16280E-10         0.00000E+00
    0.97150E-10        -0.25639E-10         0.00000E+00
    0.85933E-10        -0.35635E-10         0.00000E+00
    0.72367E-10        -0.30412E-10         0.00000E+00
    0.59025E-10        -0.14277E-10         0.00000E+00
    0.47359E-10         0.89230E-11         0.00000E+00
    0.38004E-10         0.36006E-10         0.00000E+00
    0.31050E-10         0.64517E-10         0.00000E+00
    0.26265E-10         0.92679E-10         0.00000E+00
    0.23259E-10         0.11930E-09         0.00000E+00
    0.21594E-10         0.14367E-09         0.00000E+00
    0.20851E-10         0.16541E-09         0.00000E+00
    0.20668E-10         0.18440E-09         0.00000E+00
    0.20751E-10         0.20069E-09         0.00000E+00
    0.20880E-10         0.21442E-09         0.00000E+00
    0.20898E-10         0.22580E-09         0.00000E+00
    0.20707E-10         0.23504E-09         0.00000E+00
    0.20250E-10         0.24238E-09         0.00000E+00
    0.19509E-10         0.24802E-09         0.00000E+00
    0.18489E-10         0.25214E-09         0.00000E+00
    0.17215E-10         0.25493E-09         0.00000E+00
    0.15727E-10         0.25653E-09         0.00000E+00
    0.14070E-10         0.25706E-09         0.00000E+00
    0.12300E-10         0.25663E-09         0.00000E+00
    0.10471E-10         0.25533E-09         0.00000E+00
    0.86411E-11         0.25323E-09         0.00000E+00
    0.68699E-11         0.25039E-09         0.00000E+00
    0.52152E-11         0.24686E-09         0.00000E+00
    0.37350E-11         0.24268E-09         0.00000E+00
    0.24861E-11         0.23787E-09         0.00000E+00
    0.15242E-11         0.23245E-09         0.00000E+00
    0.90347E-12         0.22643E-09         0.00000E+00
    0.67587E-12         0.21980E-09         0.00000E+00
    0.89054E-12         0.21255E-09         0.00000E+00
    0.15926E-11         0.20466E-09         0.00000E+00
    0.28216E-11         0.19609E-09         0.00000E+00
    0.46092E-11         0.18681E-09         0.00000E+00
    0.69763E-11         0.17676E-09         0.00000E+00
    0.99296E-11         0.16589E-09         0.00000E+00
    0.13457E-10         0.15415E-09         0.00000E+00
    0.17522E-10         0.14149E-09         0.00000E+00
    0.22058E-10         0.12787E-09         0.00000E+00
    0.26967E-10         0.11331E-09         0.00000E+00
    0.32108E-10         0.97877E-10         0.00000E+00
    0.37300E-10         0.81725E-10         0.00000E+00
    0.42325E-10         0.65140E-10         0.00000E+00
    0.46933E-10         0.48581E-10         0.00000E+00
    0.50860E-10         0.32727E-10         0.00000E+00
    0.53852E-10         0.18530E-10         0.00000E+00
    0.55706E-10         0.72607E-11         0.00000E+00
    0.56315E-10         0.25382E-11         0.00000E+00
    0.12441E-09        -0.11435E-10         0.00000E+00
    0.11969E-09        -0.17526E-10         0.00000E+00
    0.10840E-09        -0.22856E-10         0.00000E+00
    0.94029E-10        -0.16110E-10         0.00000E+00
    0.79033E-10        -0.48255E-12         0.00000E+00
    0.64946E-10         0.21067E-10         0.00000E+00
    0.52595E-10         0.46010E-10         0.00000E+00
    0.42295E-10         0.72326E-10         0.00000E+00
    0.34026E-10         0.98503E-10         0.00000E+00
    0.27566E-10         0.12348E-09         0.00000E+00
    0.22604E-10         0.14658E-09         0.00000E+00
    0.18800E-10         0.16741E-09         0.00000E+00
    0.15836E-10         0.18581E-09         0.00000E+00
    0.13436E-10         0.20177E-09         0.00000E+00
    0.11375E-10         0.21537E-09         0.00000E+00
    0.94812E-11         0.22677E-09         0.00000E+00
    0.76304E-11         0.23612E-09         0.00000E+00
    0.57408E-11         0.24362E-09         0.00000E+00
    0.37647E-11         0.24944E-09         0.00000E+00
    0.16817E-11         0.25375E-09         0.00000E+00
   -0.50775E-12         0.25670E-09         0.00000E+00
   -0.27873E-11         0.25843E-09         0.00000E+00
   -0.51292E-11         0.25905E-09         0.00000E+00
   -0.74979E-11         0.25867E-09         0.00000E+00
   -0.98521E-11         0.25736E-09         0.00000E+00
   -0.12147E-10         0.25520E-09         0.00000E+00
   -0.14336E-10         0.25226E-09         0.00000E+00
   -0.16371E-10         0.24857E-09         0.00000E+00
   -0.18204E-10         0.24417E-09         0.00000E+00
   -0.19787E-10         0.23910E-09         0.00000E+00
   -0.21073E-10         0.23336E-09         0.00000E+00
   -0.22017E-10         0.22698E-09         0.00000E+00
   -0.22576E-10         0.21993E-09         0.00000E+00
   -0.22711E-10         0.21223E-09         0.00000E+00
   -0.22388E-10         0.20385E-09         0.00000E+00
   -0.21578E-10         0.19477E-09         0.00000E+00
   -0.20261E-10         0.18495E-09         0.00000E+00
   -0.18430E-10         0.17436E-09         0.00000E+00
   -0.16090E-10         0.16296E-09         0.00000E+00
   -0.13267E-10         0.15071E-09         0.00000E+00
   -0.10007E-10         0.13760E-09         0.00000E+00
   -0.63814E-11         0.12363E-09         0.00000E+00
   -0.24932E-11         0.10883E-09         0.00000E+00
    0.15265E-11         0.93311E-10         0.00000E+00
    0.55168E-11         0.77260E-10         0.00000E+00
    0.92937E-11         0.60988E-10         0.00000E+00
    0.12661E-10         0.44964E-10         0.00000E+00
    0.15429E-10         0.29855E-10         0.00000E+00
    0.17439E-10         0.16571E-10         0.00000E+00
    0.18605E-10         0.62975E-11         0.00000E+00
    0.18948E-10         0.20802E-11         0.00000E+00
    0.14590E-09        -0.68294E-11         0.00000E+00
    0.14145E-09        -0.96213E-11         0.00000E+00
    0.13046E-09        -0.99757E-11         0.00000E+00
    0.11596E-09        -0.10499E-11         0.00000E+00
    0.10017E-09         0.14807E-10         0.00000E+00
    0.84621E-10         0.35362E-10         0.00000E+00
    0.70240E-10         0.58657E-10         0.00000E+00
    0.57496E-10         0.83086E-10         0.00000E+00
    0.46530E-10         0.10741E-09         0.00000E+00
    0.37270E-10         0.13073E-09         0.00000E+00
    0.29523E-10         0.15244E-09         0.00000E+00
    0.23039E-10         0.17218E-09         0.00000E+00
    0.17558E-10         0.18976E-09         0.00000E+00
    0.12838E-10         0.20515E-09         0.00000E+00
    0.86682E-11         0.21837E-09         0.00000E+00
    0.48779E-11         0.22954E-09         0.00000E+00
    0.13342E-11         0.23878E-09         0.00000E+00
   -0.20595E-11         0.24625E-09         0.00000E+00
   -0.53686E-11         0.25208E-09         0.00000E+00
   -0.86323E-11         0.25642E-09         0.00000E+00
   -0.11869E-10         0.25940E-09         0.00000E+00
   -0.15079E-10         0.26115E-09         0.00000E+00
   -0.18252E-10         0.26177E-09         0.00000E+00
   -0.21366E-10         0.26135E-09         0.00000E+00
   -0.24395E-10         0.25998E-09         0.00000E+00
   -0.27306E-10         0.25771E-09         0.00000E+00
   -0.30061E-10         0.25461E-09         0.00000E+00
   -0.32625E-10         0.25073E-09         0.00000E+00
   -0.34957E-10         0.24610E-09         0.00000E+00
   -0.37019E-10         0.24074E-09         0.00000E+00
   -0.38772E-10         0.23468E-09         0.00000E+00
   -0.40180E-10         0.22793E-09         0.00000E+00
   -0.41208E-10         0.22049E-09         0.00000E+00
   -0.41827E-10         0.21236E-09         0.00000E+00
   -0.42010E-10         0.20352E-09         0.00000E+00
   -0.41739E-10         0.19396E-09         0.00000E+00
   -0.41005E-10         0.18366E-09         0.00000E+00
   -0.39808E-10         0.17259E-09         0.00000E+00
   -0.38164E-10         0.16073E-09         0.00000E+00
   -0.36106E-10         0.14807E-09         0.00000E+00
   -0.33685E-10         0.13460E-09         0.00000E+00
   -0.30976E-10         0.12036E-09         0.00000E+00
   -0.28075E-10         0.10540E-09         0.00000E+00
   -0.25103E-10         0.89867E-10         0.00000E+00
   -0.22200E-10         0.73957E-10         0.00000E+00
   -0.19516E-10         0.57996E-10         0.00000E+00
   -0.17202E-10         0.42447E-10         0.00000E+00
   -0.15388E-10         0.27949E-10         0.00000E+00
   -0.14161E-10         0.15353E-10         0.00000E+00
   -0.13528E-10         0.57522E-11         0.00000E+00
   -0.13385E-10         0.18524E-11         0.00000E+00
    0.16600E-09        -0.25228E-11         0.00000E+00
    0.16184E-09        -0.20857E-11         0.00000E+00
    0.15134E-09         0.26324E-11         0.00000E+00
    0.13707E-09         0.14184E-10         0.00000E+00
    0.12102E-09         0.30856E-10         0.00000E+00
    0.10467E-09         0.50997E-10         0.00000E+00
    0.88962E-10         0.73135E-10         0.00000E+00
    0.74470E-10         0.96036E-10         0.00000E+00
    0.61453E-10         0.11873E-09         0.00000E+00
    0.49958E-10         0.14049E-09         0.00000E+00
    0.39899E-10         0.16081E-09         0.00000E+00
    0.31111E-10         0.17937E-09         0.00000E+00
    0.23398E-10         0.19601E-09         0.00000E+00
    0.16561E-10         0.21066E-09         0.00000E+00
    0.10416E-10         0.22333E-09         0.00000E+00
    0.48041E-11         0.23410E-09         0.00000E+00
   -0.40535E-12         0.24306E-09         0.00000E+00
   -0.53134E-11         0.25032E-09         0.00000E+00
   -0.99946E-11         0.25601E-09         0.00000E+00
   -0.14500E-10         0.26025E-09         0.00000E+00
   -0.18860E-10         0.26315E-09         0.00000E+00
   -0.23089E-10         0.26481E-09         0.00000E+00
   -0.27190E-10         0.26534E-09         0.00000E+00
   -0.31153E-10         0.26481E-09         0.00000E+00
   -0.34962E-10         0.26330E-09         0.00000E+00
   -0.38595E-10         0.26087E-09         0.00000E+00
   -0.42027E-10         0.25758E-09         0.00000E+00
   -0.45227E-10         0.25347E-09         0.00000E+00
   -0.48167E-10         0.24857E-09         0.00000E+00
   -0.50814E-10         0.24291E-09         0.00000E+00
   -0.53140E-10         0.23653E-09         0.00000E+00
   -0.55114E-10         0.22941E-09         0.00000E+00
   -0.56710E-10         0.22158E-09         0.00000E+00
   -0.57906E-10         0.21303E-09         0.00000E+00
   -0.58684E-10         0.20376E-09         0.00000E+00
   -0.59033E-10         0.19376E-09         0.00000E+00
   -0.58950E-10         0.18302E-09         0.00000E+00
   -0.58444E-10         0.17152E-09         0.00000E+00
   -0.57537E-10         0.15926E-09         0.00000E+00
   -0.56263E-10         0.14624E-09         0.00000E+00
   -0.54677E-10         0.13247E-09         0.00000E+00
   -0.52851E-10         0.11802E-09         0.00000E+00
   -0.50874E-10         0.10296E-09         0.00000E+00
   -0.48852E-10         0.87435E-10         0.00000E+00
   -0.46905E-10         0.71672E-10         0.00000E+00
   -0.45153E-10         0.55990E-10         0.00000E+00
   -0.43710E-10         0.40836E-10         0.00000E+00
   -0.42662E-10         0.26814E-10         0.00000E+00
   -0.42043E-10         0.14711E-10         0.00000E+00
   -0.41810E-10         0.55216E-11         0.00000E+00
   -0.41811E-10         0.17934E-11         0.00000E+00
    0.18459E-09         0.14833E-11         0.00000E+00
    0.18072E-09         0.50338E-11         0.00000E+00
    0.17075E-09         0.14797E-10         0.00000E+00
    0.15688E-09         0.29266E-10         0.00000E+00
    0.14089E-09         0.47205E-10         0.00000E+00
    0.12414E-09         0.67423E-10         0.00000E+00
    0.10759E-09         0.88855E-10         0.00000E+00
    0.91862E-10         0.11060E-09         0.00000E+00
    0.77292E-10         0.13192E-09         0.00000E+00
    0.64023E-10         0.15228E-09         0.00000E+00
    0.52057E-10         0.17128E-09         0.00000E+00
    0.41306E-10         0.18868E-09         0.00000E+00
    0.31637E-10         0.20431E-09         0.00000E+00
    0.22896E-10         0.21813E-09         0.00000E+00
    0.14932E-10         0.23013E-09         0.00000E+00
    0.76037E-11         0.24036E-09         0.00000E+00
    0.79243E-12         0.24890E-09         0.00000E+00
   -0.56007E-11         0.25583E-09         0.00000E+00
   -0.11652E-10         0.26126E-09         0.00000E+00
   -0.17420E-10         0.26528E-09         0.00000E+00
   -0.22941E-10         0.26799E-09         0.00000E+00
   -0.28240E-10         0.26948E-09         0.00000E+00
   -0.33328E-10         0.26983E-09         0.00000E+00
   -0.38207E-10         0.26912E-09         0.00000E+00
   -0.42868E-10         0.26742E-09         0.00000E+00
   -0.47300E-10         0.26478E-09         0.00000E+00
   -0.51484E-10         0.26125E-09         0.00000E+00
   -0.55401E-10         0.25687E-09         0.00000E+00
   -0.59026E-10         0.25168E-09         0.00000E+00
   -0.62337E-10         0.24571E-09         0.00000E+00
   -0.65311E-10         0.23898E-09         0.00000E+00
   -0.67925E-10         0.23150E-09         0.00000E+00
   -0.70159E-10         0.22328E-09         0.00000E+00
   -0.71998E-10         0.21433E-09         0.00000E+00
   -0.73430E-10         0.20465E-09         0.00000E+00
   -0.74449E-10         0.19423E-09         0.00000E+00
   -0.75058E-10         0.18307E-09         0.00000E+00
   -0.75271E-10         0.17118E-09         0.00000E+00
   -0.75111E-10         0.15855E-09         0.00000E+00
   -0.74616E-10         0.14521E-09         0.00000E+00
   -0.73837E-10         0.13119E-09         0.00000E+00
   -0.72841E-10         0.11655E-09         0.00000E+00
   -0.71709E-10         0.10140E-09         0.00000E+00
   -0.70533E-10         0.85898E-10         0.00000E+00
   -0.69411E-10         0.70258E-10         0.00000E+00
   -0.68441E-10         0.54802E-10         0.00000E+00
   -0.67706E-10         0.39955E-10         0.00000E+00
   -0.67259E-10         0.26281E-10         0.00000E+00
   -0.67101E-10         0.14502E-10         0.00000E+00
   -0.67160E-10         0.55203E-11         0.00000E+00
   -0.67260E-10         0.18534E-11         0.00000E+00
    0.20180E-09         0.52185E-11         0.00000E+00
    0.19818E-09         0.11755E-10         0.00000E+00
    0.18871E-09         0.26477E-10         0.00000E+00
    0.17527E-09         0.44048E-10         0.00000E+00
    0.15948E-09         0.63594E-10         0.00000E+00
    0.14257E-09         0.84292E-10         0.00000E+00
    0.12550E-09         0.10541E-09         0.00000E+00
    0.10888E-09         0.12634E-09         0.00000E+00
    0.93123E-10         0.14657E-09         0.00000E+00
    0.78437E-10         0.16572E-09         0.00000E+00
    0.64894E-10         0.18352E-09         0.00000E+00
    0.52473E-10         0.19979E-09         0.00000E+00
    0.41094E-10         0.21442E-09         0.00000E+00
    0.30651E-10         0.22737E-09         0.00000E+00
    0.21025E-10         0.23863E-09         0.00000E+00
    0.12100E-10         0.24824E-09         0.00000E+00
    0.37693E-11         0.25626E-09         0.00000E+00
   -0.40562E-11         0.26276E-09         0.00000E+00
   -0.11451E-10         0.26783E-09         0.00000E+00
   -0.18474E-10         0.27154E-09         0.00000E+00
   -0.25166E-10         0.27397E-09         0.00000E+00
   -0.31558E-10         0.27520E-09         0.00000E+00
   -0.37667E-10         0.27530E-09         0.00000E+00
   -0.43502E-10         0.27435E-09         0.00000E+00
   -0.49063E-10         0.27239E-09         0.00000E+00
   -0.54345E-10         0.26949E-09         0.00000E+00
   -0.59336E-10         0.26568E-09         0.00000E+00
   -0.64024E-10         0.26101E-09         0.00000E+00
   -0.68391E-10         0.25551E-09         0.00000E+00
   -0.72422E-10         0.24920E-09         0.00000E+00
   -0.76098E-10         0.24211E-09         0.00000E+00
   -0.79404E-10         0.23426E-09         0.00000E+00
   -0.82325E-10         0.22565E-09         0.00000E+00
   -0.84850E-10         0.21630E-09         0.00000E+00
   -0.86973E-10         0.20622E-09         0.00000E+00
   -0.88692E-10         0.19539E-09         0.00000E+00
   -0.90015E-10         0.18384E-09         0.00000E+00
   -0.90955E-10         0.17157E-09         0.00000E+00
   -0.91537E-10         0.15860E-09         0.00000E+00
   -0.91799E-10         0.14496E-09         0.00000E+00
   -0.91787E-10         0.13070E-09         0.00000E+00
   -0.91562E-10         0.11589E-09         0.00000E+00
   -0.91194E-10         0.10065E-09         0.00000E+00
   -0.90761E-10         0.85137E-10         0.00000E+00
   -0.90346E-10         0.69581E-10         0.00000E+00
   -0.90025E-10         0.54285E-10         0.00000E+00
   -0.89859E-10         0.39653E-10         0.00000E+00
   -0.89877E-10         0.26209E-10         0.00000E+00
   -0.90062E-10         0.14612E-10         0.00000E+00
   -0.90327E-10         0.56808E-11         0.00000E+00
   -0.90494E-10         0.19938E-11         0.00000E+00
    0.21782E-09         0.87266E-11         0.00000E+00
    0.21440E-09         0.18131E-10         0.00000E+00
    0.20534E-09         0.37705E-10         0.00000E+00
    0.19232E-09         0.58495E-10         0.00000E+00
    0.17675E-09         0.79904E-10         0.00000E+00
    0.15980E-09         0.10141E-09         0.00000E+00
    0.14237E-09         0.12255E-09         0.00000E+00
    0.12510E-09         0.14297E-09         0.00000E+00
    0.10841E-09         0.16236E-09         0.00000E+00
    0.92576E-10         0.18051E-09         0.00000E+00
    0.77713E-10         0.19725E-09         0.00000E+00
    0.63857E-10         0.21248E-09         0.00000E+00
    0.50981E-10         0.22613E-09         0.00000E+00
    0.39016E-10         0.23820E-09         0.00000E+00
    0.27876E-10         0.24868E-09         0.00000E+00
    0.17471E-10         0.25762E-09         0.00000E+00
    0.77108E-11         0.26506E-09         0.00000E+00
   -0.14829E-11         0.27106E-09         0.00000E+00
   -0.10179E-10         0.27568E-09         0.00000E+00
   -0.18432E-10         0.27900E-09         0.00000E+00
   -0.26288E-10         0.28108E-09         0.00000E+00
   -0.33777E-10         0.28198E-09         0.00000E+00
   -0.40922E-10         0.28178E-09         0.00000E+00
   -0.47736E-10         0.28052E-09         0.00000E+00
   -0.54224E-10         0.27826E-09         0.00000E+00
   -0.60388E-10         0.27505E-09         0.00000E+00
   -0.66223E-10         0.27092E-09         0.00000E+00
   -0.71719E-10         0.26592E-09         0.00000E+00
   -0.76868E-10         0.26008E-09         0.00000E+00
   -0.81657E-10         0.25342E-09         0.00000E+00
   -0.86074E-10         0.24596E-09         0.00000E+00
   -0.90107E-10         0.23773E-09         0.00000E+00
   -0.93748E-10         0.22873E-09         0.00000E+00
   -0.96989E-10         0.21898E-09         0.00000E+00
   -0.99826E-10         0.20849E-09         0.00000E+00
   -0.10226E-09         0.19727E-09         0.00000E+00
   -0.10430E-09         0.18533E-09         0.00000E+00
   -0.10597E-09         0.17270E-09         0.00000E+00
   -0.10728E-09         0.15939E-09         0.00000E+00
   -0.10827E-09         0.14546E-09         0.00000E+00
   -0.10898E-09         0.13095E-09         0.00000E+00
   -0.10947E-09         0.11596E-09         0.00000E+00
   -0.10979E-09         0.10060E-09         0.00000E+00
   -0.11001E-09         0.85051E-10         0.00000E+00
   -0.11020E-09         0.69522E-10         0.00000E+00
   -0.11041E-09         0.54314E-10         0.00000E+00
   -0.11070E-09         0.39807E-10         0.00000E+00
   -0.11108E-09         0.26485E-10         0.00000E+00
   -0.11152E-09         0.14952E-10         0.00000E+00
   -0.11192E-09         0.59515E-11         0.00000E+00
   -0.11213E-09         0.21856E-11         0.00000E+00
    0.23282E-09         0.12055E-10         0.00000E+00
    0.22956E-09         0.24228E-10         0.00000E+00
    0.22084E-09         0.48557E-10         0.00000E+00
    0.20815E-09         0.72641E-10         0.00000E+00
    0.19278E-09         0.96107E-10         0.00000E+00
    0.17582E-09         0.11867E-09         0.00000E+00
    0.15813E-09         0.14012E-09         0.00000E+00
    0.14033E-09         0.16030E-09         0.00000E+00
    0.12289E-09         0.17909E-09         0.00000E+00
    0.10608E-09         0.19642E-09         0.00000E+00
    0.90091E-10         0.21224E-09         0.00000E+00
    0.74989E-10         0.22652E-09         0.00000E+00
    0.60786E-10         0.23926E-09         0.00000E+00
    0.47452E-10         0.25047E-09         0.00000E+00
    0.34931E-10         0.26017E-09         0.00000E+00
    0.23155E-10         0.26840E-09         0.00000E+00
    0.12053E-10         0.27521E-09         0.00000E+00
    0.15594E-11         0.28065E-09         0.00000E+00
   -0.83878E-11         0.28478E-09         0.00000E+00
   -0.17839E-10         0.28764E-09         0.00000E+00
   -0.26838E-10         0.28931E-09         0.00000E+00
   -0.35415E-10         0.28983E-09         0.00000E+00
   -0.43597E-10         0.28926E-09         0.00000E+00
   -0.51398E-10         0.28765E-09         0.00000E+00
   -0.58829E-10         0.28504E-09         0.00000E+00
   -0.65895E-10         0.28149E-09         0.00000E+00
   -0.72595E-10         0.27701E-09         0.00000E+00
   -0.78927E-10         0.27165E-09         0.00000E+00
   -0.84883E-10         0.26544E-09         0.00000E+00
   -0.90457E-10         0.25841E-09         0.00000E+00
   -0.95641E-10         0.25056E-09         0.00000E+00
   -0.10043E-09         0.24193E-09         0.00000E+00
   -0.10481E-09         0.23254E-09         0.00000E+00
   -0.10878E-09         0.22238E-09         0.00000E+00
   -0.11235E-09         0.21149E-09         0.00000E+00
   -0.11551E-09         0.19987E-09         0.00000E+00
   -0.11827E-09         0.18755E-09         0.00000E+00
   -0.12065E-09         0.17455E-09         0.00000E+00
   -0.12267E-09         0.16090E-09         0.00000E+00
   -0.12435E-09         0.14666E-09         0.00000E+00
   -0.12575E-09         0.13190E-09         0.00000E+00
   -0.12689E-09         0.11670E-09         0.00000E+00
   -0.12784E-09         0.10119E-09         0.00000E+00
   -0.12864E-09         0.85549E-10         0.00000E+00
   -0.12935E-09         0.69987E-10         0.00000E+00
   -0.13001E-09         0.54790E-10         0.00000E+00
   -0.13067E-09         0.40319E-10         0.00000E+00
   -0.13132E-09         0.27022E-10         0.00000E+00
   -0.13194E-09         0.15455E-10         0.00000E+00
   -0.13244E-09         0.62946E-11         0.00000E+00
   -0.13267E-09         0.24081E-11         0.00000E+00
    0.24701E-09         0.15250E-10         0.00000E+00
    0.24386E-09         0.30114E-10         0.00000E+00
    0.23538E-09         0.59121E-10         0.00000E+00
    0.22292E-09         0.86555E-10         0.00000E+00
    0.20770E-09         0.11223E-09         0.00000E+00
    0.19071E-09         0.13606E-09         0.00000E+00
    0.17277E-09         0.15804E-09         0.00000E+00
    0.15452E-09         0.17821E-09         0.00000E+00
    0.13642E-09         0.19661E-09         0.00000E+00
    0.11878E-09         0.21330E-09         0.00000E+00
    0.10180E-09         0.22834E-09         0.00000E+00
    0.85585E-10         0.24178E-09         0.00000E+00
    0.70192E-10         0.25367E-09         0.00000E+00
    0.55615E-10         0.26405E-09         0.00000E+00
    0.41825E-10         0.27298E-09         0.00000E+00
    0.28776E-10         0.28050E-09         0.00000E+00
    0.16414E-10         0.28665E-09         0.00000E+00
    0.46854E-11         0.29150E-09         0.00000E+00
   -0.64618E-11         0.29508E-09         0.00000E+00
   -0.17073E-10         0.29745E-09         0.00000E+00
   -0.27188E-10         0.29865E-09         0.00000E+00
   -0.36838E-10         0.29874E-09         0.00000E+00
   -0.46048E-10         0.29776E-09         0.00000E+00
   -0.54836E-10         0.29575E-09         0.00000E+00
   -0.63215E-10         0.29276E-09         0.00000E+00
   -0.71193E-10         0.28881E-09         0.00000E+00
   -0.78772E-10         0.28396E-09         0.00000E+00
   -0.85953E-10         0.27821E-09         0.00000E+00
   -0.92734E-10         0.27161E-09         0.00000E+00
   -0.99111E-10         0.26418E-09         0.00000E+00
   -0.10508E-09         0.25593E-09         0.00000E+00
   -0.11063E-09         0.24690E-09         0.00000E+00
   -0.11577E-09         0.23709E-09         0.00000E+00
   -0.12049E-09         0.22652E-09         0.00000E+00
   -0.12479E-09         0.21521E-09         0.00000E+00
   -0.12867E-09         0.20319E-09         0.00000E+00
   -0.13215E-09         0.19048E-09         0.00000E+00
   -0.13523E-09         0.17710E-09         0.00000E+00
   -0.13794E-09         0.16310E-09         0.00000E+00
   -0.14030E-09         0.14854E-09         0.00000E+00
   -0.14234E-09         0.13349E-09         0.00000E+00
   -0.14410E-09         0.11805E-09         0.00000E+00
   -0.14561E-09         0.10235E-09         0.00000E+00
   -0.14693E-09         0.86561E-10         0.00000E+00
   -0.14809E-09         0.70899E-10         0.00000E+00
   -0.14914E-09         0.55637E-10         0.00000E+00
   -0.15010E-09         0.41116E-10         0.00000E+00
   -0.15097E-09         0.27757E-10         0.00000E+00
   -0.15173E-09         0.16074E-10         0.00000E+00
   -0.15230E-09         0.66842E-11         0.00000E+00
   -0.15254E-09         0.26473E-11         0.00000E+00
    0.26052E-09         0.18352E-10         0.00000E+00
    0.25744E-09         0.35857E-10         0.00000E+00
    0.24912E-09         0.69492E-10         0.00000E+00
    0.23680E-09         0.10032E-09         0.00000E+00
    0.22163E-09         0.12833E-09         0.00000E+00
    0.20456E-09         0.15359E-09         0.00000E+00
    0.18638E-09         0.17630E-09         0.00000E+00
    0.16770E-09         0.19665E-09         0.00000E+00
    0.14899E-09         0.21484E-09         0.00000E+00
    0.13059E-09         0.23105E-09         0.00000E+00
    0.11271E-09         0.24543E-09         0.00000E+00
    0.95492E-10         0.25813E-09         0.00000E+00
    0.79012E-10         0.26923E-09         0.00000E+00
    0.63292E-10         0.27884E-09         0.00000E+00
    0.48326E-10         0.28701E-09         0.00000E+00
    0.34087E-10         0.29381E-09         0.00000E+00
    0.20537E-10         0.29930E-09         0.00000E+00
    0.76341E-11         0.30353E-09         0.00000E+00
   -0.46635E-11         0.30654E-09         0.00000E+00
   -0.16396E-10         0.30837E-09         0.00000E+00
   -0.27598E-10         0.30908E-09         0.00000E+00
   -0.38299E-10         0.30869E-09         0.00000E+00
   -0.48525E-10         0.30726E-09         0.00000E+00
   -0.58293E-10         0.30482E-09         0.00000E+00
   -0.67618E-10         0.30140E-09         0.00000E+00
   -0.76510E-10         0.29704E-09         0.00000E+00
   -0.84974E-10         0.29177E-09         0.00000E+00
   -0.93014E-10         0.28561E-09         0.00000E+00
   -0.10063E-09         0.27860E-09         0.00000E+00
   -0.10782E-09         0.27075E-09         0.00000E+00
   -0.11458E-09         0.26209E-09         0.00000E+00
   -0.12092E-09         0.25263E-09         0.00000E+00
   -0.12682E-09         0.24239E-09         0.00000E+00
   -0.13229E-09         0.23140E-09         0.00000E+00
   -0.13732E-09         0.21967E-09         0.00000E+00
   -0.14193E-09         0.20723E-09         0.00000E+00
   -0.14612E-09         0.19411E-09         0.00000E+00
   -0.14990E-09         0.18034E-09         0.00000E+00
   -0.15328E-09         0.16597E-09         0.00000E+00
   -0.15629E-09         0.15106E-09         0.00000E+00
   -0.15894E-09         0.13569E-09         0.00000E+00
   -0.16127E-09         0.11997E-09         0.00000E+00
   -0.16332E-09         0.10403E-09         0.00000E+00
   -0.16511E-09         0.88033E-10         0.00000E+00
   -0.16669E-09         0.72202E-10         0.00000E+00
   -0.16807E-09         0.56799E-10         0.00000E+00
   -0.16929E-09         0.42149E-10         0.00000E+00
   -0.17034E-09         0.28649E-10         0.00000E+00
   -0.17120E-09         0.16776E-10         0.00000E+00
   -0.17181E-09         0.71034E-11         0.00000E+00
   -0.17206E-09         0.28944E-11         0.00000E+00
    0.27346E-09         0.21398E-10         0.00000E+00
    0.27043E-09         0.41515E-10         0.00000E+00
    0.26218E-09         0.79759E-10         0.00000E+00
    0.24992E-09         0.11404E-09         0.00000E+00
    0.23472E-09         0.14447E-09         0.00000E+00
    0.21750E-09         0.17132E-09         0.00000E+00
    0.19903E-09         0.19490E-09         0.00000E+00
    0.17991E-09         0.21559E-09         0.00000E+00
    0.16062E-09         0.23372E-09         0.00000E+00
    0.14150E-09         0.24959E-09         0.00000E+00
    0.12278E-09         0.26344E-09         0.00000E+00
    0.10463E-09         0.27548E-09         0.00000E+00
    0.87143E-10         0.28587E-09         0.00000E+00
    0.70357E-10         0.29474E-09         0.00000E+00
    0.54289E-10         0.30219E-09         0.00000E+00
    0.38929E-10         0.30829E-09         0.00000E+00
    0.24253E-10         0.31311E-09         0.00000E+00
    0.10231E-10         0.31670E-09         0.00000E+00
   -0.31714E-11         0.31911E-09         0.00000E+00
   -0.15987E-10         0.32038E-09         0.00000E+00
   -0.28246E-10         0.32056E-09         0.00000E+00
   -0.39976E-10         0.31967E-09         0.00000E+00
   -0.51200E-10         0.31775E-09         0.00000E+00
   -0.61938E-10         0.31485E-09         0.00000E+00
   -0.72203E-10         0.31097E-09         0.00000E+00
   -0.82007E-10         0.30617E-09         0.00000E+00
   -0.91358E-10         0.30046E-09         0.00000E+00
   -0.10026E-09         0.29387E-09         0.00000E+00
   -0.10872E-09         0.28642E-09         0.00000E+00
   -0.11673E-09         0.27813E-09         0.00000E+00
   -0.12429E-09         0.26903E-09         0.00000E+00
   -0.13141E-09         0.25913E-09         0.00000E+00
   -0.13808E-09         0.24846E-09         0.00000E+00
   -0.14430E-09         0.23703E-09         0.00000E+00
   -0.15008E-09         0.22486E-09         0.00000E+00
   -0.15541E-09         0.21199E-09         0.00000E+00
   -0.16031E-09         0.19844E-09         0.00000E+00
   -0.16477E-09         0.18426E-09         0.00000E+00
   -0.16881E-09         0.16949E-09         0.00000E+00
   -0.17245E-09         0.15420E-09         0.00000E+00
   -0.17570E-09         0.13848E-09         0.00000E+00
   -0.17858E-09         0.12243E-09         0.00000E+00
   -0.18113E-09         0.10619E-09         0.00000E+00
   -0.18337E-09         0.89927E-10         0.00000E+00
   -0.18532E-09         0.73858E-10         0.00000E+00
   -0.18701E-09         0.58239E-10         0.00000E+00
   -0.18846E-09         0.43384E-10         0.00000E+00
   -0.18967E-09         0.29669E-10         0.00000E+00
   -0.19062E-09         0.17545E-10         0.00000E+00
   -0.19126E-09         0.75431E-11         0.00000E+00
   -0.19151E-09         0.31451E-11         0.00000E+00
    0.28593E-09         0.24420E-10         0.00000E+00
    0.28291E-09         0.47140E-10         0.00000E+00
    0.27467E-09         0.90004E-10         0.00000E+00
    0.26237E-09         0.12779E-09         0.00000E+00
    0.24705E-09         0.16075E-09         0.00000E+00
    0.22962E-09         0.18928E-09         0.00000E+00
    0.21081E-09         0.21389E-09         0.00000E+00
    0.19123E-09         0.23505E-09         0.00000E+00
    0.17136E-09         0.25325E-09         0.00000E+00
    0.15154E-09         0.26889E-09         0.00000E+00
    0.13202E-09         0.28230E-09         0.00000E+00
    0.11298E-09         0.29377E-09         0.00000E+00
    0.94535E-10         0.30351E-09         0.00000E+00
    0.76741E-10         0.31169E-09         0.00000E+00
    0.59630E-10         0.31844E-09         0.00000E+00
    0.43205E-10         0.32385E-09         0.00000E+00
    0.27455E-10         0.32800E-09         0.00000E+00
    0.12360E-10         0.33095E-09         0.00000E+00
   -0.21054E-11         0.33275E-09         0.00000E+00
   -0.15969E-10         0.33344E-09         0.00000E+00
   -0.29256E-10         0.33306E-09         0.00000E+00
   -0.41991E-10         0.33165E-09         0.00000E+00
   -0.54197E-10         0.32922E-09         0.00000E+00
   -0.65890E-10         0.32582E-09         0.00000E+00
   -0.77087E-10         0.32147E-09         0.00000E+00
   -0.87798E-10         0.31620E-09         0.00000E+00
   -0.98032E-10         0.31002E-09         0.00000E+00
   -0.10780E-09         0.30297E-09         0.00000E+00
   -0.11709E-09         0.29507E-09         0.00000E+00
   -0.12593E-09         0.28633E-09         0.00000E+00
   -0.13430E-09         0.27677E-09         0.00000E+00
   -0.14221E-09         0.26642E-09         0.00000E+00
   -0.14965E-09         0.25529E-09         0.00000E+00
   -0.15663E-09         0.24340E-09         0.00000E+00
   -0.16315E-09         0.23078E-09         0.00000E+00
   -0.16921E-09         0.21746E-09         0.00000E+00
   -0.17480E-09         0.20346E-09         0.00000E+00
   -0.17994E-09         0.18884E-09         0.00000E+00
   -0.18464E-09         0.17365E-09         0.00000E+00
   -0.18890E-09         0.15795E-09         0.00000E+00
   -0.19273E-09         0.14183E-09         0.00000E+00
   -0.19615E-09         0.12540E-09         0.00000E+00
   -0.19918E-09         0.10881E-09         0.00000E+00
   -0.20185E-09         0.92220E-10         0.00000E+00
   -0.20416E-09         0.75844E-10         0.00000E+00
   -0.20614E-09         0.59938E-10         0.00000E+00
   -0.20781E-09         0.44804E-10         0.00000E+00
   -0.20916E-09         0.30806E-10         0.00000E+00
   -0.21020E-09         0.18371E-10         0.00000E+00
   -0.21088E-09         0.80001E-11         0.00000E+00
   -0.21113E-09         0.33982E-11         0.00000E+00
    0.29798E-09         0.27442E-10         0.00000E+00
    0.29495E-09         0.52778E-10         0.00000E+00
    0.28666E-09         0.10030E-09         0.00000E+00
    0.27424E-09         0.14166E-09         0.00000E+00
    0.25873E-09         0.17722E-09         0.00000E+00
    0.24101E-09         0.20756E-09         0.00000E+00
    0.22181E-09         0.23329E-09         0.00000E+00
    0.20174E-09         0.25505E-09         0.00000E+00
    0.18126E-09         0.27342E-09         0.00000E+00
    0.16074E-09         0.28893E-09         0.00000E+00
    0.14043E-09         0.30199E-09         0.00000E+00
    0.12054E-09         0.31296E-09         0.00000E+00
    0.10117E-09         0.32211E-09         0.00000E+00
    0.82411E-10         0.32964E-09         0.00000E+00
    0.64300E-10         0.33572E-09         0.00000E+00
    0.46855E-10         0.34046E-09         0.00000E+00
    0.30075E-10         0.34395E-09         0.00000E+00
    0.13947E-10         0.34626E-09         0.00000E+00
   -0.15457E-11         0.34744E-09         0.00000E+00
   -0.16425E-10         0.34753E-09         0.00000E+00
   -0.30713E-10         0.34658E-09         0.00000E+00
   -0.44431E-10         0.34461E-09         0.00000E+00
   -0.57600E-10         0.34165E-09         0.00000E+00
   -0.70235E-10         0.33774E-09         0.00000E+00
   -0.82351E-10         0.33288E-09         0.00000E+00
   -0.93962E-10         0.32712E-09         0.00000E+00
   -0.10508E-09         0.32046E-09         0.00000E+00
   -0.11570E-09         0.31293E-09         0.00000E+00
   -0.12584E-09         0.30455E-09         0.00000E+00
   -0.13550E-09         0.29534E-09         0.00000E+00
   -0.14468E-09         0.28531E-09         0.00000E+00
   -0.15338E-09         0.27448E-09         0.00000E+00
   -0.16160E-09         0.26288E-09         0.00000E+00
   -0.16934E-09         0.25052E-09         0.00000E+00
   -0.17660E-09         0.23743E-09         0.00000E+00
   -0.18338E-09         0.22364E-09         0.00000E+00
   -0.18967E-09         0.20918E-09         0.00000E+00
   -0.19549E-09         0.19409E-09         0.00000E+00
   -0.20084E-09         0.17844E-09         0.00000E+00
   -0.20571E-09         0.16229E-09         0.00000E+00
   -0.21012E-09         0.14573E-09         0.00000E+00
   -0.21408E-09         0.12888E-09         0.00000E+00
   -0.21759E-09         0.11188E-09         0.00000E+00
   -0.22067E-09         0.94902E-10         0.00000E+00
   -0.22334E-09         0.78153E-10         0.00000E+00
   -0.22562E-09         0.61888E-10         0.00000E+00
   -0.22750E-09         0.46406E-10         0.00000E+00
   -0.22901E-09         0.32059E-10         0.00000E+00
   -0.23013E-09         0.19256E-10         0.00000E+00
   -0.23085E-09         0.84760E-11         0.00000E+00
   -0.23111E-09         0.36550E-11         0.00000E+00
    0.30965E-09         0.30488E-10         0.00000E+00
    0.30658E-09         0.58467E-10         0.00000E+00
    0.29819E-09         0.11071E-09         0.00000E+00
    0.28559E-09         0.15571E-09         0.00000E+00
    0.26982E-09         0.19398E-09         0.00000E+00
    0.25174E-09         0.22621E-09         0.00000E+00
    0.23209E-09         0.25316E-09         0.00000E+00
    0.21148E-09         0.27561E-09         0.00000E+00
    0.19037E-09         0.29425E-09         0.00000E+00
    0.16914E-09         0.30971E-09         0.00000E+00
    0.14805E-09         0.32250E-09         0.00000E+00
    0.12731E-09         0.33303E-09         0.00000E+00
    0.10705E-09         0.34164E-09         0.00000E+00
    0.87353E-10         0.34856E-09         0.00000E+00
    0.68277E-10         0.35399E-09         0.00000E+00
    0.49846E-10         0.35808E-09         0.00000E+00
    0.32070E-10         0.36091E-09         0.00000E+00
    0.14943E-10         0.36257E-09         0.00000E+00
   -0.15457E-11         0.36313E-09         0.00000E+00
   -0.17413E-10         0.36261E-09         0.00000E+00
   -0.32677E-10         0.36107E-09         0.00000E+00
   -0.47356E-10         0.35853E-09         0.00000E+00
   -0.61469E-10         0.35503E-09         0.00000E+00
   -0.75031E-10         0.35057E-09         0.00000E+00
   -0.88056E-10         0.34520E-09         0.00000E+00
   -0.10056E-09         0.33892E-09         0.00000E+00
   -0.11254E-09         0.33176E-09         0.00000E+00
   -0.12402E-09         0.32374E-09         0.00000E+00
   -0.13500E-09         0.31486E-09         0.00000E+00
   -0.14548E-09         0.30516E-09         0.00000E+00
   -0.15547E-09         0.29465E-09         0.00000E+00
   -0.16496E-09         0.28334E-09         0.00000E+00
   -0.17396E-09         0.27125E-09         0.00000E+00
   -0.18247E-09         0.25840E-09         0.00000E+00
   -0.19047E-09         0.24482E-09         0.00000E+00
   -0.19798E-09         0.23054E-09         0.00000E+00
   -0.20498E-09         0.21558E-09         0.00000E+00
   -0.21148E-09         0.20001E-09         0.00000E+00
   -0.21748E-09         0.18386E-09         0.00000E+00
   -0.22297E-09         0.16723E-09         0.00000E+00
   -0.22796E-09         0.15019E-09         0.00000E+00
   -0.23245E-09         0.13287E-09         0.00000E+00
   -0.23645E-09         0.11541E-09         0.00000E+00
   -0.23996E-09         0.97974E-10         0.00000E+00
   -0.24300E-09         0.80786E-10         0.00000E+00
   -0.24557E-09         0.64095E-10         0.00000E+00
   -0.24768E-09         0.48196E-10         0.00000E+00
   -0.24935E-09         0.33434E-10         0.00000E+00
   -0.25057E-09         0.20209E-10         0.00000E+00
   -0.25133E-09         0.89760E-11         0.00000E+00
   -0.25160E-09         0.39191E-11         0.00000E+00
    0.32095E-09         0.33576E-10         0.00000E+00
    0.31783E-09         0.64241E-10         0.00000E+00
    0.30929E-09         0.12129E-09         0.00000E+00
    0.29646E-09         0.17002E-09         0.00000E+00
    0.28036E-09         0.21108E-09         0.00000E+00
    0.26186E-09         0.24529E-09         0.00000E+00
    0.24171E-09         0.27355E-09         0.00000E+00
    0.22051E-09         0.29677E-09         0.00000E+00
    0.19874E-09         0.31576E-09         0.00000E+00
    0.17678E-09         0.33124E-09         0.00000E+00
    0.15491E-09         0.34382E-09         0.00000E+00
    0.13332E-09         0.35397E-09         0.00000E+00
    0.11218E-09         0.36207E-09         0.00000E+00
    0.91566E-10         0.36842E-09         0.00000E+00
    0.71548E-10         0.37323E-09         0.00000E+00
    0.52159E-10         0.37667E-09         0.00000E+00
    0.33415E-10         0.37885E-09         0.00000E+00
    0.15317E-10         0.37987E-09         0.00000E+00
   -0.21412E-11         0.37979E-09         0.00000E+00
   -0.18971E-10         0.37866E-09         0.00000E+00
   -0.35188E-10         0.37652E-09         0.00000E+00
   -0.50808E-10         0.37340E-09         0.00000E+00
   -0.65848E-10         0.36933E-09         0.00000E+00
   -0.80321E-10         0.36432E-09         0.00000E+00
   -0.94243E-10         0.35841E-09         0.00000E+00
   -0.10763E-09         0.35160E-09         0.00000E+00
   -0.12048E-09         0.34392E-09         0.00000E+00
   -0.13281E-09         0.33539E-09         0.00000E+00
   -0.14462E-09         0.32601E-09         0.00000E+00
   -0.15593E-09         0.31581E-09         0.00000E+00
   -0.16672E-09         0.30479E-09         0.00000E+00
   -0.17701E-09         0.29298E-09         0.00000E+00
   -0.18679E-09         0.28038E-09         0.00000E+00
   -0.19606E-09         0.26703E-09         0.00000E+00
   -0.20482E-09         0.25295E-09         0.00000E+00
   -0.21305E-09         0.23815E-09         0.00000E+00
   -0.22077E-09         0.22268E-09         0.00000E+00
   -0.22796E-09         0.20659E-09         0.00000E+00
   -0.23462E-09         0.18993E-09         0.00000E+00
   -0.24074E-09         0.17277E-09         0.00000E+00
   -0.24632E-09         0.15521E-09         0.00000E+00
   -0.25135E-09         0.13737E-09         0.00000E+00
   -0.25585E-09         0.11939E-09         0.00000E+00
   -0.25980E-09         0.10145E-09         0.00000E+00
   -0.26322E-09         0.83758E-10         0.00000E+00
   -0.26610E-09         0.66574E-10         0.00000E+00
   -0.26847E-09         0.50190E-10         0.00000E+00
   -0.27032E-09         0.34949E-10         0.00000E+00
   -0.27166E-09         0.21240E-10         0.00000E+00
   -0.27248E-09         0.95083E-11         0.00000E+00
   -0.27277E-09         0.41952E-11         0.00000E+00
    0.33189E-09         0.36722E-10         0.00000E+00
    0.32871E-09         0.70127E-10         0.00000E+00
    0.31998E-09         0.13208E-09         0.00000E+00
    0.30686E-09         0.18465E-09         0.00000E+00
    0.29037E-09         0.22858E-09         0.00000E+00
    0.27140E-09         0.26485E-09         0.00000E+00
    0.25069E-09         0.29451E-09         0.00000E+00
    0.22886E-09         0.31857E-09         0.00000E+00
    0.20640E-09         0.33798E-09         0.00000E+00
    0.18369E-09         0.35354E-09         0.00000E+00
    0.16102E-09         0.36595E-09         0.00000E+00
    0.13860E-09         0.37576E-09         0.00000E+00
    0.11657E-09         0.38339E-09         0.00000E+00
    0.95055E-10         0.38919E-09         0.00000E+00
    0.74112E-10         0.39340E-09         0.00000E+00
    0.53785E-10         0.39621E-09         0.00000E+00
    0.34094E-10         0.39775E-09         0.00000E+00
    0.15048E-10         0.39813E-09         0.00000E+00
   -0.33564E-11         0.39741E-09         0.00000E+00
   -0.21127E-10         0.39566E-09         0.00000E+00
   -0.38277E-10         0.39291E-09         0.00000E+00
   -0.54819E-10         0.38919E-09         0.00000E+00
   -0.70768E-10         0.38454E-09         0.00000E+00
   -0.86139E-10         0.37897E-09         0.00000E+00
   -0.10094E-09         0.37250E-09         0.00000E+00
   -0.11520E-09         0.36516E-09         0.00000E+00
   -0.12891E-09         0.35694E-09         0.00000E+00
   -0.14208E-09         0.34788E-09         0.00000E+00
   -0.15473E-09         0.33798E-09         0.00000E+00
   -0.16686E-09         0.32726E-09         0.00000E+00
   -0.17846E-09         0.31573E-09         0.00000E+00
   -0.18954E-09         0.30340E-09         0.00000E+00
   -0.20011E-09         0.29030E-09         0.00000E+00
   -0.21015E-09         0.27643E-09         0.00000E+00
   -0.21966E-09         0.26181E-09         0.00000E+00
   -0.22864E-09         0.24649E-09         0.00000E+00
   -0.23708E-09         0.23049E-09         0.00000E+00
   -0.24496E-09         0.21385E-09         0.00000E+00
   -0.25229E-09         0.19664E-09         0.00000E+00
   -0.25906E-09         0.17893E-09         0.00000E+00
   -0.26524E-09         0.16081E-09         0.00000E+00
   -0.27085E-09         0.14240E-09         0.00000E+00
   -0.27586E-09         0.12385E-09         0.00000E+00
   -0.28028E-09         0.10534E-09         0.00000E+00
   -0.28410E-09         0.87090E-10         0.00000E+00
   -0.28733E-09         0.69346E-10         0.00000E+00
   -0.28997E-09         0.52411E-10         0.00000E+00
   -0.29203E-09         0.36623E-10         0.00000E+00
   -0.29351E-09         0.22370E-10         0.00000E+00
   -0.29440E-09         0.10084E-10         0.00000E+00
   -0.29471E-09         0.44898E-11         0.00000E+00
    0.34247E-09         0.39940E-10         0.00000E+00
    0.33921E-09         0.76150E-10         0.00000E+00
    0.33027E-09         0.14314E-09         0.00000E+00
    0.31681E-09         0.19964E-09         0.00000E+00
    0.29988E-09         0.24654E-09         0.00000E+00
    0.28038E-09         0.28496E-09         0.00000E+00
    0.25907E-09         0.31608E-09         0.00000E+00
    0.23657E-09         0.34106E-09         0.00000E+00
    0.21339E-09         0.36093E-09         0.00000E+00
    0.18990E-09         0.37663E-09         0.00000E+00
    0.16641E-09         0.38892E-09         0.00000E+00
    0.14314E-09         0.39841E-09         0.00000E+00
    0.12024E-09         0.40561E-09         0.00000E+00
    0.97822E-10         0.41088E-09         0.00000E+00
    0.75966E-10         0.41450E-09         0.00000E+00
    0.54716E-10         0.41669E-09         0.00000E+00
    0.34097E-10         0.41759E-09         0.00000E+00
    0.14122E-10         0.41732E-09         0.00000E+00
   -0.52087E-11         0.41597E-09         0.00000E+00
   -0.23901E-10         0.41358E-09         0.00000E+00
   -0.41963E-10         0.41021E-09         0.00000E+00
   -0.59410E-10         0.40589E-09         0.00000E+00
   -0.76253E-10         0.40065E-09         0.00000E+00
   -0.92506E-10         0.39450E-09         0.00000E+00
   -0.10818E-09         0.38747E-09         0.00000E+00
   -0.12330E-09         0.37957E-09         0.00000E+00
   -0.13786E-09         0.37081E-09         0.00000E+00
   -0.15187E-09         0.36121E-09         0.00000E+00
   -0.16535E-09         0.35078E-09         0.00000E+00
   -0.17829E-09         0.33953E-09         0.00000E+00
   -0.19070E-09         0.32748E-09         0.00000E+00
   -0.20258E-09         0.31462E-09         0.00000E+00
   -0.21394E-09         0.30099E-09         0.00000E+00
   -0.22475E-09         0.28659E-09         0.00000E+00
   -0.23503E-09         0.27144E-09         0.00000E+00
   -0.24476E-09         0.25557E-09         0.00000E+00
   -0.25393E-09         0.23901E-09         0.00000E+00
   -0.26253E-09         0.22181E-09         0.00000E+00
   -0.27055E-09         0.20402E-09         0.00000E+00
   -0.27798E-09         0.18572E-09         0.00000E+00
   -0.28479E-09         0.16700E-09         0.00000E+00
   -0.29098E-09         0.14799E-09         0.00000E+00
   -0.29654E-09         0.12882E-09         0.00000E+00
   -0.30146E-09         0.10969E-09         0.00000E+00
   -0.30572E-09         0.90811E-10         0.00000E+00
   -0.30932E-09         0.72444E-10         0.00000E+00
   -0.31227E-09         0.54888E-10         0.00000E+00
   -0.31457E-09         0.38485E-10         0.00000E+00
   -0.31622E-09         0.23618E-10         0.00000E+00
   -0.31721E-09         0.10715E-10         0.00000E+00
   -0.31755E-09         0.48101E-11         0.00000E+00
    0.35267E-09         0.43241E-10         0.00000E+00
    0.34932E-09         0.82331E-10         0.00000E+00
    0.34013E-09         0.15449E-09         0.00000E+00
    0.32630E-09         0.21504E-09         0.00000E+00
    0.30888E-09         0.26501E-09         0.00000E+00
    0.28881E-09         0.30566E-09         0.00000E+00
    0.26685E-09         0.33832E-09         0.00000E+00
    0.24365E-09         0.36425E-09         0.00000E+00
    0.21970E-09         0.38465E-09         0.00000E+00
    0.19542E-09         0.40052E-09         0.00000E+00
    0.17110E-09         0.41272E-09         0.00000E+00
    0.14696E-09         0.42193E-09         0.00000E+00
    0.12318E-09         0.42871E-09         0.00000E+00
    0.99872E-10         0.43346E-09         0.00000E+00
    0.77111E-10         0.43651E-09         0.00000E+00
    0.54949E-10         0.43808E-09         0.00000E+00
    0.33417E-10         0.43835E-09         0.00000E+00
    0.12529E-10         0.43744E-09         0.00000E+00
   -0.77111E-11         0.43544E-09         0.00000E+00
   -0.27306E-10         0.43241E-09         0.00000E+00
   -0.46265E-10         0.42842E-09         0.00000E+00
   -0.64599E-10         0.42348E-09         0.00000E+00
   -0.82320E-10         0.41764E-09         0.00000E+00
   -0.99442E-10         0.41090E-09         0.00000E+00
   -0.11598E-09         0.40329E-09         0.00000E+00
   -0.13194E-09         0.39483E-09         0.00000E+00
   -0.14734E-09         0.38552E-09         0.00000E+00
   -0.16218E-09         0.37537E-09         0.00000E+00
   -0.17648E-09         0.36440E-09         0.00000E+00
   -0.19024E-09         0.35262E-09         0.00000E+00
   -0.20346E-09         0.34003E-09         0.00000E+00
   -0.21615E-09         0.32664E-09         0.00000E+00
   -0.22829E-09         0.31246E-09         0.00000E+00
   -0.23989E-09         0.29752E-09         0.00000E+00
   -0.25094E-09         0.28182E-09         0.00000E+00
   -0.26144E-09         0.26539E-09         0.00000E+00
   -0.27136E-09         0.24826E-09         0.00000E+00
   -0.28069E-09         0.23047E-09         0.00000E+00
   -0.28942E-09         0.21209E-09         0.00000E+00
   -0.29753E-09         0.19317E-09         0.00000E+00
   -0.30500E-09         0.17382E-09         0.00000E+00
   -0.31182E-09         0.15415E-09         0.00000E+00
   -0.31796E-09         0.13432E-09         0.00000E+00
   -0.32340E-09         0.11452E-09         0.00000E+00
   -0.32814E-09         0.94957E-10         0.00000E+00
   -0.33216E-09         0.75903E-10         0.00000E+00
   -0.33546E-09         0.57658E-10         0.00000E+00
   -0.33804E-09         0.40566E-10         0.00000E+00
   -0.33988E-09         0.25011E-10         0.00000E+00
   -0.34099E-09         0.11416E-10         0.00000E+00
   -0.34137E-09         0.51644E-11         0.00000E+00
    0.36246E-09         0.46635E-10         0.00000E+00
    0.35902E-09         0.88687E-10         0.00000E+00
    0.34956E-09         0.16616E-09         0.00000E+00
    0.33531E-09         0.23089E-09         0.00000E+00
    0.31737E-09         0.28403E-09         0.00000E+00
    0.29668E-09         0.32700E-09         0.00000E+00
    0.27404E-09         0.36125E-09         0.00000E+00
    0.25009E-09         0.38820E-09         0.00000E+00
    0.22536E-09         0.40916E-09         0.00000E+00
    0.20025E-09         0.42524E-09         0.00000E+00
    0.17508E-09         0.43737E-09         0.00000E+00
    0.15007E-09         0.44633E-09         0.00000E+00
    0.12541E-09         0.45270E-09         0.00000E+00
    0.10120E-09         0.45695E-09         0.00000E+00
    0.77543E-10         0.45942E-09         0.00000E+00
    0.54479E-10         0.46038E-09         0.00000E+00
    0.32045E-10         0.46001E-09         0.00000E+00
    0.10259E-10         0.45845E-09         0.00000E+00
   -0.10875E-10         0.45580E-09         0.00000E+00
   -0.31357E-10         0.45214E-09         0.00000E+00
   -0.51195E-10         0.44751E-09         0.00000E+00
   -0.70399E-10         0.44195E-09         0.00000E+00
   -0.88983E-10         0.43549E-09         0.00000E+00
   -0.10696E-09         0.42816E-09         0.00000E+00
   -0.12434E-09         0.41997E-09         0.00000E+00
   -0.14114E-09         0.41093E-09         0.00000E+00
   -0.15737E-09         0.40106E-09         0.00000E+00
   -0.17304E-09         0.39036E-09         0.00000E+00
   -0.18816E-09         0.37884E-09         0.00000E+00
   -0.20273E-09         0.36651E-09         0.00000E+00
   -0.21676E-09         0.35338E-09         0.00000E+00
   -0.23024E-09         0.33945E-09         0.00000E+00
   -0.24319E-09         0.32473E-09         0.00000E+00
   -0.25558E-09         0.30924E-09         0.00000E+00
   -0.26742E-09         0.29298E-09         0.00000E+00
   -0.27869E-09         0.27598E-09         0.00000E+00
   -0.28937E-09         0.25826E-09         0.00000E+00
   -0.29946E-09         0.23987E-09         0.00000E+00
   -0.30893E-09         0.22086E-09         0.00000E+00
   -0.31776E-09         0.20130E-09         0.00000E+00
   -0.32592E-09         0.18129E-09         0.00000E+00
   -0.33339E-09         0.16094E-09         0.00000E+00
   -0.34015E-09         0.14040E-09         0.00000E+00
   -0.34617E-09         0.11987E-09         0.00000E+00
   -0.35143E-09         0.99573E-10         0.00000E+00
   -0.35592E-09         0.79765E-10         0.00000E+00
   -0.35961E-09         0.60759E-10         0.00000E+00
   -0.36250E-09         0.42901E-10         0.00000E+00
   -0.36458E-09         0.26576E-10         0.00000E+00
   -0.36583E-09         0.12204E-10         0.00000E+00
   -0.36626E-09         0.55619E-11         0.00000E+00
    0.37182E-09         0.50131E-10         0.00000E+00
    0.36827E-09         0.95235E-10         0.00000E+00
    0.35852E-09         0.17819E-09         0.00000E+00
    0.34383E-09         0.24722E-09         0.00000E+00
    0.32533E-09         0.30364E-09         0.00000E+00
    0.30399E-09         0.34900E-09         0.00000E+00
    0.28063E-09         0.38491E-09         0.00000E+00
    0.25590E-09         0.41293E-09         0.00000E+00
    0.23035E-09         0.43449E-09         0.00000E+00
    0.20440E-09         0.45080E-09         0.00000E+00
    0.17836E-09         0.46289E-09         0.00000E+00
    0.15247E-09         0.47160E-09         0.00000E+00
    0.12692E-09         0.47758E-09         0.00000E+00
    0.10182E-09         0.48133E-09         0.00000E+00
    0.77258E-10         0.48323E-09         0.00000E+00
    0.53300E-10         0.48358E-09         0.00000E+00
    0.29975E-10         0.48257E-09         0.00000E+00
    0.73028E-11         0.48036E-09         0.00000E+00
   -0.14709E-10         0.47705E-09         0.00000E+00
   -0.36063E-10         0.47273E-09         0.00000E+00
   -0.56764E-10         0.46746E-09         0.00000E+00
   -0.76824E-10         0.46127E-09         0.00000E+00
   -0.96254E-10         0.45420E-09         0.00000E+00
   -0.11507E-09         0.44626E-09         0.00000E+00
   -0.13328E-09         0.43747E-09         0.00000E+00
   -0.15091E-09         0.42786E-09         0.00000E+00
   -0.16796E-09         0.41742E-09         0.00000E+00
   -0.18444E-09         0.40616E-09         0.00000E+00
   -0.20037E-09         0.39409E-09         0.00000E+00
   -0.21576E-09         0.38122E-09         0.00000E+00
   -0.23059E-09         0.36754E-09         0.00000E+00
   -0.24488E-09         0.35307E-09         0.00000E+00
   -0.25863E-09         0.33780E-09         0.00000E+00
   -0.27183E-09         0.32175E-09         0.00000E+00
   -0.28446E-09         0.30493E-09         0.00000E+00
   -0.29652E-09         0.28735E-09         0.00000E+00
   -0.30800E-09         0.26903E-09         0.00000E+00
   -0.31886E-09         0.25003E-09         0.00000E+00
   -0.32910E-09         0.23038E-09         0.00000E+00
   -0.33867E-09         0.21016E-09         0.00000E+00
   -0.34756E-09         0.18945E-09         0.00000E+00
   -0.35574E-09         0.16838E-09         0.00000E+00
   -0.36316E-09         0.14711E-09         0.00000E+00
   -0.36981E-09         0.12580E-09         0.00000E+00
   -0.37564E-09         0.10470E-09         0.00000E+00
   -0.38064E-09         0.84080E-10         0.00000E+00
   -0.38477E-09         0.64239E-10         0.00000E+00
   -0.38802E-09         0.45531E-10         0.00000E+00
   -0.39037E-09         0.28344E-10         0.00000E+00
   -0.39180E-09         0.13097E-10         0.00000E+00
   -0.39228E-09         0.60123E-11         0.00000E+00
    0.38072E-09         0.53737E-10         0.00000E+00
    0.37705E-09         0.10199E-09         0.00000E+00
    0.36699E-09         0.19060E-09         0.00000E+00
    0.35184E-09         0.26407E-09         0.00000E+00
    0.33275E-09         0.32387E-09         0.00000E+00
    0.31072E-09         0.37170E-09         0.00000E+00
    0.28660E-09         0.40934E-09         0.00000E+00
    0.26106E-09         0.43848E-09         0.00000E+00
    0.23467E-09         0.46066E-09         0.00000E+00
    0.20785E-09         0.47723E-09         0.00000E+00
    0.18093E-09         0.48930E-09         0.00000E+00
    0.15415E-09         0.49777E-09         0.00000E+00
    0.12770E-09         0.50335E-09         0.00000E+00
    0.10170E-09         0.50660E-09         0.00000E+00
    0.76250E-10         0.50794E-09         0.00000E+00
    0.51403E-10         0.50766E-09         0.00000E+00
    0.27197E-10         0.50601E-09         0.00000E+00
    0.36513E-11         0.50314E-09         0.00000E+00
   -0.19226E-10         0.49917E-09         0.00000E+00
   -0.41435E-10         0.49419E-09         0.00000E+00
   -0.62983E-10         0.48827E-09         0.00000E+00
   -0.83881E-10         0.48144E-09         0.00000E+00
   -0.10414E-09         0.47374E-09         0.00000E+00
   -0.12378E-09         0.46519E-09         0.00000E+00
   -0.14281E-09         0.45580E-09         0.00000E+00
   -0.16125E-09         0.44560E-09         0.00000E+00
   -0.17911E-09         0.43459E-09         0.00000E+00
   -0.19640E-09         0.42277E-09         0.00000E+00
   -0.21314E-09         0.41015E-09         0.00000E+00
   -0.22932E-09         0.39673E-09         0.00000E+00
   -0.24497E-09         0.38251E-09         0.00000E+00
   -0.26007E-09         0.36749E-09         0.00000E+00
   -0.27462E-09         0.35168E-09         0.00000E+00
   -0.28863E-09         0.33507E-09         0.00000E+00
   -0.30208E-09         0.31768E-09         0.00000E+00
   -0.31495E-09         0.29951E-09         0.00000E+00
   -0.32724E-09         0.28060E-09         0.00000E+00
   -0.33891E-09         0.26097E-09         0.00000E+00
   -0.34994E-09         0.24067E-09         0.00000E+00
   -0.36030E-09         0.21977E-09         0.00000E+00
   -0.36996E-09         0.19835E-09         0.00000E+00
   -0.37888E-09         0.17654E-09         0.00000E+00
   -0.38702E-09         0.15447E-09         0.00000E+00
   -0.39435E-09         0.13235E-09         0.00000E+00
   -0.40081E-09         0.11041E-09         0.00000E+00
   -0.40638E-09         0.88898E-10         0.00000E+00
   -0.41101E-09         0.68145E-10         0.00000E+00
   -0.41467E-09         0.48499E-10         0.00000E+00
   -0.41733E-09         0.30348E-10         0.00000E+00
   -0.41895E-09         0.14112E-10         0.00000E+00
   -0.41950E-09         0.65264E-11         0.00000E+00
    0.38910E-09         0.57458E-10         0.00000E+00
    0.38532E-09         0.10896E-09         0.00000E+00
    0.37493E-09         0.20341E-09         0.00000E+00
    0.35929E-09         0.28147E-09         0.00000E+00
    0.33958E-09         0.34476E-09         0.00000E+00
    0.31684E-09         0.39515E-09         0.00000E+00
    0.29193E-09         0.43457E-09         0.00000E+00
    0.26557E-09         0.46486E-09         0.00000E+00
    0.23831E-09         0.48771E-09         0.00000E+00
    0.21060E-09         0.50455E-09         0.00000E+00
    0.18277E-09         0.51660E-09         0.00000E+00
    0.15509E-09         0.52483E-09         0.00000E+00
    0.12774E-09         0.53002E-09         0.00000E+00
    0.10085E-09         0.53277E-09         0.00000E+00
    0.74505E-10         0.53353E-09         0.00000E+00
    0.48777E-10         0.53263E-09         0.00000E+00
    0.23699E-10         0.53032E-09         0.00000E+00
   -0.70707E-12         0.52678E-09         0.00000E+00
   -0.24434E-10         0.52214E-09         0.00000E+00
   -0.47484E-10         0.51649E-09         0.00000E+00
   -0.69862E-10         0.50991E-09         0.00000E+00
   -0.91581E-10         0.50243E-09         0.00000E+00
   -0.11266E-09         0.49409E-09         0.00000E+00
   -0.13310E-09         0.48493E-09         0.00000E+00
   -0.15293E-09         0.47494E-09         0.00000E+00
   -0.17217E-09         0.46416E-09         0.00000E+00
   -0.19083E-09         0.45257E-09         0.00000E+00
   -0.20892E-09         0.44019E-09         0.00000E+00
   -0.22645E-09         0.42701E-09         0.00000E+00
   -0.24344E-09         0.41305E-09         0.00000E+00
   -0.25988E-09         0.39829E-09         0.00000E+00
   -0.27579E-09         0.38272E-09         0.00000E+00
   -0.29117E-09         0.36636E-09         0.00000E+00
   -0.30599E-09         0.34920E-09         0.00000E+00
   -0.32027E-09         0.33125E-09         0.00000E+00
   -0.33398E-09         0.31250E-09         0.00000E+00
   -0.34710E-09         0.29299E-09         0.00000E+00
   -0.35960E-09         0.27273E-09         0.00000E+00
   -0.37147E-09         0.25178E-09         0.00000E+00
   -0.38266E-09         0.23018E-09         0.00000E+00
   -0.39313E-09         0.20803E-09         0.00000E+00
   -0.40285E-09         0.18545E-09         0.00000E+00
   -0.41176E-09         0.16257E-09         0.00000E+00
   -0.41982E-09         0.13959E-09         0.00000E+00
   -0.42697E-09         0.11673E-09         0.00000E+00
   -0.43317E-09         0.94277E-10         0.00000E+00
   -0.43836E-09         0.72532E-10         0.00000E+00
   -0.44248E-09         0.51851E-10         0.00000E+00
   -0.44550E-09         0.32625E-10         0.00000E+00
   -0.44735E-09         0.15271E-10         0.00000E+00
   -0.44798E-09         0.71156E-11         0.00000E+00
    0.39694E-09         0.61302E-10         0.00000E+00
    0.39303E-09         0.11616E-09         0.00000E+00
    0.38231E-09         0.21663E-09         0.00000E+00
    0.36615E-09         0.29943E-09         0.00000E+00
    0.34580E-09         0.36632E-09         0.00000E+00
    0.32232E-09         0.41935E-09         0.00000E+00
    0.29660E-09         0.46061E-09         0.00000E+00
    0.26938E-09         0.49210E-09         0.00000E+00
    0.24123E-09         0.51563E-09         0.00000E+00
    0.21261E-09         0.53276E-09         0.00000E+00
    0.18388E-09         0.54480E-09         0.00000E+00
    0.15529E-09         0.55280E-09         0.00000E+00
    0.12703E-09         0.55760E-09         0.00000E+00
    0.99238E-10         0.55984E-09         0.00000E+00
    0.72010E-10         0.56001E-09         0.00000E+00
    0.45408E-10         0.55847E-09         0.00000E+00
    0.19469E-10         0.55549E-09         0.00000E+00
   -0.57849E-11         0.55127E-09         0.00000E+00
   -0.30347E-10         0.54595E-09         0.00000E+00
   -0.54220E-10         0.53962E-09         0.00000E+00
   -0.77410E-10         0.53236E-09         0.00000E+00
   -0.99932E-10         0.52423E-09         0.00000E+00
   -0.12180E-09         0.51526E-09         0.00000E+00
   -0.14304E-09         0.50546E-09         0.00000E+00
   -0.16365E-09         0.49487E-09         0.00000E+00
   -0.18367E-09         0.48350E-09         0.00000E+00
   -0.20311E-09         0.47134E-09         0.00000E+00
   -0.22198E-09         0.45840E-09         0.00000E+00
   -0.24031E-09         0.44467E-09         0.00000E+00
   -0.25809E-09         0.43017E-09         0.00000E+00
   -0.27534E-09         0.41487E-09         0.00000E+00
   -0.29206E-09         0.39877E-09         0.00000E+00
   -0.30825E-09         0.38188E-09         0.00000E+00
   -0.32391E-09         0.36417E-09         0.00000E+00
   -0.33903E-09         0.34566E-09         0.00000E+00
   -0.35359E-09         0.32634E-09         0.00000E+00
   -0.36757E-09         0.30623E-09         0.00000E+00
   -0.38095E-09         0.28535E-09         0.00000E+00
   -0.39368E-09         0.26373E-09         0.00000E+00
   -0.40574E-09         0.24144E-09         0.00000E+00
   -0.41708E-09         0.21854E-09         0.00000E+00
   -0.42765E-09         0.19517E-09         0.00000E+00
   -0.43740E-09         0.17144E-09         0.00000E+00
   -0.44625E-09         0.14756E-09         0.00000E+00
   -0.45416E-09         0.12375E-09         0.00000E+00
   -0.46105E-09         0.10028E-09         0.00000E+00
   -0.46685E-09         0.77457E-10         0.00000E+00
   -0.47150E-09         0.55639E-10         0.00000E+00
   -0.47492E-09         0.35213E-10         0.00000E+00
   -0.47703E-09         0.16595E-10         0.00000E+00
   -0.47776E-09         0.77922E-11         0.00000E+00
    0.40418E-09         0.65272E-10         0.00000E+00
    0.40015E-09         0.12359E-09         0.00000E+00
    0.38907E-09         0.23029E-09         0.00000E+00
    0.37238E-09         0.31798E-09         0.00000E+00
    0.35137E-09         0.38859E-09         0.00000E+00
    0.32712E-09         0.44435E-09         0.00000E+00
    0.30057E-09         0.48751E-09         0.00000E+00
    0.27247E-09         0.52023E-09         0.00000E+00
    0.24342E-09         0.54447E-09         0.00000E+00
    0.21388E-09         0.56190E-09         0.00000E+00
    0.18423E-09         0.57392E-09         0.00000E+00
    0.15471E-09         0.58168E-09         0.00000E+00
    0.12554E-09         0.58608E-09         0.00000E+00
    0.96857E-10         0.58779E-09         0.00000E+00
    0.68748E-10         0.58736E-09         0.00000E+00
    0.41279E-10         0.58517E-09         0.00000E+00
    0.14491E-10         0.58151E-09         0.00000E+00
   -0.11597E-10         0.57660E-09         0.00000E+00
   -0.36978E-10         0.57057E-09         0.00000E+00
   -0.61656E-10         0.56355E-09         0.00000E+00
   -0.85639E-10         0.55562E-09         0.00000E+00
   -0.10894E-09         0.54682E-09         0.00000E+00
   -0.13159E-09         0.53720E-09         0.00000E+00
   -0.15359E-09         0.52678E-09         0.00000E+00
   -0.17497E-09         0.51558E-09         0.00000E+00
   -0.19576E-09         0.50361E-09         0.00000E+00
   -0.21596E-09         0.49088E-09         0.00000E+00
   -0.23560E-09         0.47738E-09         0.00000E+00
   -0.25470E-09         0.46312E-09         0.00000E+00
   -0.27327E-09         0.44808E-09         0.00000E+00
   -0.29132E-09         0.43226E-09         0.00000E+00
   -0.30885E-09         0.41564E-09         0.00000E+00
   -0.32587E-09         0.39822E-09         0.00000E+00
   -0.34237E-09         0.37998E-09         0.00000E+00
   -0.35835E-09         0.36092E-09         0.00000E+00
   -0.37378E-09         0.34104E-09         0.00000E+00
   -0.38865E-09         0.32035E-09         0.00000E+00
   -0.40293E-09         0.29885E-09         0.00000E+00
   -0.41658E-09         0.27658E-09         0.00000E+00
   -0.42956E-09         0.25358E-09         0.00000E+00
   -0.44181E-09         0.22994E-09         0.00000E+00
   -0.45329E-09         0.20576E-09         0.00000E+00
   -0.46393E-09         0.18117E-09         0.00000E+00
   -0.47365E-09         0.15635E-09         0.00000E+00
   -0.48239E-09         0.13153E-09         0.00000E+00
   -0.49004E-09         0.10697E-09         0.00000E+00
   -0.49653E-09         0.82984E-10         0.00000E+00
   -0.50176E-09         0.59916E-10         0.00000E+00
   -0.50563E-09         0.38153E-10         0.00000E+00
   -0.50804E-09         0.18109E-10         0.00000E+00
   -0.50887E-09         0.85692E-11         0.00000E+00
    0.41078E-09         0.69374E-10         0.00000E+00
    0.40662E-09         0.13127E-09         0.00000E+00
    0.39517E-09         0.24440E-09         0.00000E+00
    0.37794E-09         0.33713E-09         0.00000E+00
    0.35624E-09         0.41158E-09         0.00000E+00
    0.33122E-09         0.47015E-09         0.00000E+00
    0.30381E-09         0.51527E-09         0.00000E+00
    0.27481E-09         0.54926E-09         0.00000E+00
    0.24484E-09         0.57422E-09         0.00000E+00
    0.21437E-09         0.59196E-09         0.00000E+00
    0.18378E-09         0.60397E-09         0.00000E+00
    0.15334E-09         0.61148E-09         0.00000E+00
    0.12326E-09         0.61546E-09         0.00000E+00
    0.93681E-10         0.61663E-09         0.00000E+00
    0.64695E-10         0.61558E-09         0.00000E+00
    0.36371E-10         0.61272E-09         0.00000E+00
    0.87457E-11         0.60837E-09         0.00000E+00
   -0.18161E-10         0.60274E-09         0.00000E+00
   -0.44342E-10         0.59600E-09         0.00000E+00
   -0.69804E-10         0.58828E-09         0.00000E+00
   -0.94559E-10         0.57965E-09         0.00000E+00
   -0.11862E-09         0.57018E-09         0.00000E+00
   -0.14202E-09         0.55990E-09         0.00000E+00
   -0.16477E-09         0.54885E-09         0.00000E+00
   -0.18689E-09         0.53704E-09         0.00000E+00
   -0.20842E-09         0.52449E-09         0.00000E+00
   -0.22937E-09         0.51119E-09         0.00000E+00
   -0.24977E-09         0.49714E-09         0.00000E+00
   -0.26963E-09         0.48234E-09         0.00000E+00
   -0.28898E-09         0.46678E-09         0.00000E+00
   -0.30782E-09         0.45045E-09         0.00000E+00
   -0.32616E-09         0.43332E-09         0.00000E+00
   -0.34401E-09         0.41540E-09         0.00000E+00
   -0.36136E-09         0.39665E-09         0.00000E+00
   -0.37821E-09         0.37707E-09         0.00000E+00
   -0.39454E-09         0.35664E-09         0.00000E+00
   -0.41032E-09         0.33538E-09         0.00000E+00
   -0.42554E-09         0.31327E-09         0.00000E+00
   -0.44014E-09         0.29036E-09         0.00000E+00
   -0.45409E-09         0.26667E-09         0.00000E+00
   -0.46732E-09         0.24228E-09         0.00000E+00
   -0.47977E-09         0.21728E-09         0.00000E+00
   -0.49137E-09         0.19180E-09         0.00000E+00
   -0.50203E-09         0.16602E-09         0.00000E+00
   -0.51166E-09         0.14014E-09         0.00000E+00
   -0.52016E-09         0.11443E-09         0.00000E+00
   -0.52740E-09         0.89178E-10         0.00000E+00
   -0.53328E-09         0.64741E-10         0.00000E+00
   -0.53766E-09         0.41491E-10         0.00000E+00
   -0.54040E-09         0.19837E-10         0.00000E+00
   -0.54136E-09         0.94604E-11         0.00000E+00
    0.41669E-09         0.73611E-10         0.00000E+00
    0.41238E-09         0.13921E-09         0.00000E+00
    0.40057E-09         0.25897E-09         0.00000E+00
    0.38277E-09         0.35690E-09         0.00000E+00
    0.36038E-09         0.43531E-09         0.00000E+00
    0.33455E-09         0.49678E-09         0.00000E+00
    0.30628E-09         0.54391E-09         0.00000E+00
    0.27636E-09         0.57921E-09         0.00000E+00
    0.24545E-09         0.60491E-09         0.00000E+00
    0.21404E-09         0.62295E-09         0.00000E+00
    0.18251E-09         0.63495E-09         0.00000E+00
    0.15114E-09         0.64220E-09         0.00000E+00
    0.12015E-09         0.64574E-09         0.00000E+00
    0.89681E-10         0.64636E-09         0.00000E+00
    0.59828E-10         0.64467E-09         0.00000E+00
    0.30659E-10         0.64112E-09         0.00000E+00
    0.22118E-11         0.63604E-09         0.00000E+00
   -0.25494E-10         0.62968E-09         0.00000E+00
   -0.52456E-10         0.62222E-09         0.00000E+00
   -0.78680E-10         0.61377E-09         0.00000E+00
   -0.10418E-09         0.60444E-09         0.00000E+00
   -0.12898E-09         0.59428E-09         0.00000E+00
   -0.15310E-09         0.58334E-09         0.00000E+00
   -0.17657E-09         0.57165E-09         0.00000E+00
   -0.19941E-09         0.55923E-09         0.00000E+00
   -0.22166E-09         0.54609E-09         0.00000E+00
   -0.24334E-09         0.53223E-09         0.00000E+00
   -0.26447E-09         0.51765E-09         0.00000E+00
   -0.28508E-09         0.50233E-09         0.00000E+00
   -0.30519E-09         0.48626E-09         0.00000E+00
   -0.32481E-09         0.46944E-09         0.00000E+00
   -0.34396E-09         0.45183E-09         0.00000E+00
   -0.36264E-09         0.43342E-09         0.00000E+00
   -0.38085E-09         0.41418E-09         0.00000E+00
   -0.39859E-09         0.39410E-09         0.00000E+00
   -0.41583E-09         0.37316E-09         0.00000E+00
   -0.43256E-09         0.35135E-09         0.00000E+00
   -0.44875E-09         0.32866E-09         0.00000E+00
   -0.46435E-09         0.30512E-09         0.00000E+00
   -0.47931E-09         0.28076E-09         0.00000E+00
   -0.49358E-09         0.25563E-09         0.00000E+00
   -0.50707E-09         0.22981E-09         0.00000E+00
   -0.51970E-09         0.20343E-09         0.00000E+00
   -0.53138E-09         0.17664E-09         0.00000E+00
   -0.54199E-09         0.14966E-09         0.00000E+00
   -0.55140E-09         0.12272E-09         0.00000E+00
   -0.55948E-09         0.96110E-10         0.00000E+00
   -0.56608E-09         0.70174E-10         0.00000E+00
   -0.57102E-09         0.45273E-10         0.00000E+00
   -0.57414E-09         0.21805E-10         0.00000E+00
   -0.57523E-09         0.10481E-10         0.00000E+00
    0.42185E-09         0.77986E-10         0.00000E+00
    0.41740E-09         0.14740E-09         0.00000E+00
    0.40520E-09         0.27401E-09         0.00000E+00
    0.38684E-09         0.37732E-09         0.00000E+00
    0.36372E-09         0.45981E-09         0.00000E+00
    0.33708E-09         0.52425E-09         0.00000E+00
    0.30792E-09         0.57345E-09         0.00000E+00
    0.27708E-09         0.61009E-09         0.00000E+00
    0.24522E-09         0.63655E-09         0.00000E+00
    0.21285E-09         0.65490E-09         0.00000E+00
    0.18038E-09         0.66686E-09         0.00000E+00
    0.14808E-09         0.67384E-09         0.00000E+00
    0.11618E-09         0.67692E-09         0.00000E+00
    0.84827E-10         0.67696E-09         0.00000E+00
    0.54116E-10         0.67461E-09         0.00000E+00
    0.24116E-10         0.67034E-09         0.00000E+00
   -0.51351E-11         0.66452E-09         0.00000E+00
   -0.33621E-10         0.65741E-09         0.00000E+00
   -0.61339E-10         0.64919E-09         0.00000E+00
   -0.88300E-10         0.64001E-09         0.00000E+00
   -0.11452E-09         0.62995E-09         0.00000E+00
   -0.14002E-09         0.61910E-09         0.00000E+00
   -0.16484E-09         0.60749E-09         0.00000E+00
   -0.18900E-09         0.59516E-09         0.00000E+00
   -0.21253E-09         0.58213E-09         0.00000E+00
   -0.23547E-09         0.56841E-09         0.00000E+00
   -0.25785E-09         0.55399E-09         0.00000E+00
   -0.27969E-09         0.53888E-09         0.00000E+00
   -0.30103E-09         0.52306E-09         0.00000E+00
   -0.32188E-09         0.50651E-09         0.00000E+00
   -0.34228E-09         0.48922E-09         0.00000E+00
   -0.36223E-09         0.47115E-09         0.00000E+00
   -0.38174E-09         0.45229E-09         0.00000E+00
   -0.40081E-09         0.43259E-09         0.00000E+00
   -0.41945E-09         0.41205E-09         0.00000E+00
   -0.43763E-09         0.39062E-09         0.00000E+00
   -0.45533E-09         0.36829E-09         0.00000E+00
   -0.47253E-09         0.34506E-09         0.00000E+00
   -0.48917E-09         0.32092E-09         0.00000E+00
   -0.50521E-09         0.29590E-09         0.00000E+00
   -0.52057E-09         0.27004E-09         0.00000E+00
   -0.53517E-09         0.24341E-09         0.00000E+00
   -0.54891E-09         0.21611E-09         0.00000E+00
   -0.56168E-09         0.18830E-09         0.00000E+00
   -0.57335E-09         0.16016E-09         0.00000E+00
   -0.58377E-09         0.13192E-09         0.00000E+00
   -0.59277E-09         0.10386E-09         0.00000E+00
   -0.60015E-09         0.76280E-10         0.00000E+00
   -0.60572E-09         0.49548E-10         0.00000E+00
   -0.60925E-09         0.24042E-10         0.00000E+00
   -0.61050E-09         0.11646E-10         0.00000E+00
    0.42620E-09         0.82504E-10         0.00000E+00
    0.42161E-09         0.15585E-09         0.00000E+00
    0.40902E-09         0.28953E-09         0.00000E+00
    0.39007E-09         0.39838E-09         0.00000E+00
    0.36623E-09         0.48507E-09         0.00000E+00
    0.33875E-09         0.55258E-09         0.00000E+00
    0.30869E-09         0.60391E-09         0.00000E+00
    0.27691E-09         0.64191E-09         0.00000E+00
    0.24410E-09         0.66914E-09         0.00000E+00
    0.21077E-09         0.68779E-09         0.00000E+00
    0.17735E-09         0.69972E-09         0.00000E+00
    0.14412E-09         0.70639E-09         0.00000E+00
    0.11132E-09         0.70899E-09         0.00000E+00
    0.79084E-10         0.70843E-09         0.00000E+00
    0.47527E-10         0.70538E-09         0.00000E+00
    0.16713E-10         0.70037E-09         0.00000E+00
   -0.13323E-10         0.69378E-09         0.00000E+00
   -0.42564E-10         0.68589E-09         0.00000E+00
   -0.71013E-10         0.67690E-09         0.00000E+00
   -0.98680E-10         0.66695E-09         0.00000E+00
   -0.12559E-09         0.65616E-09         0.00000E+00
   -0.15177E-09         0.64460E-09         0.00000E+00
   -0.17724E-09         0.63232E-09         0.00000E+00
   -0.20206E-09         0.61934E-09         0.00000E+00
   -0.22625E-09         0.60570E-09         0.00000E+00
   -0.24984E-09         0.59141E-09         0.00000E+00
   -0.27289E-09         0.57645E-09         0.00000E+00
   -0.29541E-09         0.56083E-09         0.00000E+00
   -0.31746E-09         0.54452E-09         0.00000E+00
   -0.33904E-09         0.52752E-09         0.00000E+00
   -0.36019E-09         0.50978E-09         0.00000E+00
   -0.38093E-09         0.49129E-09         0.00000E+00
   -0.40127E-09         0.47200E-09         0.00000E+00
   -0.42121E-09         0.45189E-09         0.00000E+00
   -0.44075E-09         0.43092E-09         0.00000E+00
   -0.45989E-09         0.40905E-09         0.00000E+00
   -0.47860E-09         0.38625E-09         0.00000E+00
   -0.49684E-09         0.36250E-09         0.00000E+00
   -0.51457E-09         0.33780E-09         0.00000E+00
   -0.53174E-09         0.31215E-09         0.00000E+00
   -0.54825E-09         0.28559E-09         0.00000E+00
   -0.56403E-09         0.25815E-09         0.00000E+00
   -0.57896E-09         0.22994E-09         0.00000E+00
   -0.59292E-09         0.20108E-09         0.00000E+00
   -0.60574E-09         0.17174E-09         0.00000E+00
   -0.61725E-09         0.14213E-09         0.00000E+00
   -0.62724E-09         0.11249E-09         0.00000E+00
   -0.63550E-09         0.83131E-10         0.00000E+00
   -0.64176E-09         0.54371E-10         0.00000E+00
   -0.64575E-09         0.26579E-10         0.00000E+00
   -0.64716E-09         0.12972E-10         0.00000E+00
    0.42969E-09         0.87167E-10         0.00000E+00
    0.42495E-09         0.16458E-09         0.00000E+00
    0.41196E-09         0.30555E-09         0.00000E+00
    0.39242E-09         0.42011E-09         0.00000E+00
    0.36784E-09         0.51112E-09         0.00000E+00
    0.33952E-09         0.58178E-09         0.00000E+00
    0.30855E-09         0.63529E-09         0.00000E+00
    0.27582E-09         0.67469E-09         0.00000E+00
    0.24203E-09         0.70269E-09         0.00000E+00
    0.20774E-09         0.72165E-09         0.00000E+00
    0.17337E-09         0.73351E-09         0.00000E+00
    0.13921E-09         0.73987E-09         0.00000E+00
    0.10551E-09         0.74196E-09         0.00000E+00
    0.72411E-10         0.74075E-09         0.00000E+00
    0.40025E-10         0.73698E-09         0.00000E+00
    0.84148E-11         0.73119E-09         0.00000E+00
   -0.22382E-10         0.72380E-09         0.00000E+00
   -0.52353E-10         0.71510E-09         0.00000E+00
   -0.81501E-10         0.70531E-09         0.00000E+00
   -0.10984E-09         0.69458E-09         0.00000E+00
   -0.13740E-09         0.68304E-09         0.00000E+00
   -0.16422E-09         0.67075E-09         0.00000E+00
   -0.19032E-09         0.65778E-09         0.00000E+00
   -0.21575E-09         0.64416E-09         0.00000E+00
   -0.24055E-09         0.62992E-09         0.00000E+00
   -0.26477E-09         0.61505E-09         0.00000E+00
   -0.28845E-09         0.59956E-09         0.00000E+00
   -0.31163E-09         0.58345E-09         0.00000E+00
   -0.33434E-09         0.56669E-09         0.00000E+00
   -0.35663E-09         0.54925E-09         0.00000E+00
   -0.37851E-09         0.53111E-09         0.00000E+00
   -0.40003E-09         0.51223E-09         0.00000E+00
   -0.42118E-09         0.49257E-09         0.00000E+00
   -0.44200E-09         0.47208E-09         0.00000E+00
   -0.46246E-09         0.45073E-09         0.00000E+00
   -0.48257E-09         0.42846E-09         0.00000E+00
   -0.50231E-09         0.40524E-09         0.00000E+00
   -0.52163E-09         0.38104E-09         0.00000E+00
   -0.54050E-09         0.35582E-09         0.00000E+00
   -0.55884E-09         0.32958E-09         0.00000E+00
   -0.57659E-09         0.30234E-09         0.00000E+00
   -0.59362E-09         0.27412E-09         0.00000E+00
   -0.60982E-09         0.24500E-09         0.00000E+00
   -0.62504E-09         0.21507E-09         0.00000E+00
   -0.63910E-09         0.18449E-09         0.00000E+00
   -0.65180E-09         0.15343E-09         0.00000E+00
   -0.66289E-09         0.12211E-09         0.00000E+00
   -0.67210E-09         0.90797E-10         0.00000E+00
   -0.67912E-09         0.59797E-10         0.00000E+00
   -0.68361E-09         0.29446E-10         0.00000E+00
   -0.68522E-09         0.14478E-10         0.00000E+00
    0.43226E-09         0.91977E-10         0.00000E+00
    0.42738E-09         0.17358E-09         0.00000E+00
    0.41398E-09         0.32206E-09         0.00000E+00
    0.39383E-09         0.44250E-09         0.00000E+00
    0.36850E-09         0.53797E-09         0.00000E+00
    0.33932E-09         0.61187E-09         0.00000E+00
    0.30743E-09         0.66761E-09         0.00000E+00
    0.27374E-09         0.70843E-09         0.00000E+00
    0.23898E-09         0.73721E-09         0.00000E+00
    0.20372E-09         0.75646E-09         0.00000E+00
    0.16839E-09         0.76825E-09         0.00000E+00
    0.13331E-09         0.77425E-09         0.00000E+00
    0.98718E-10         0.77580E-09         0.00000E+00
    0.64766E-10         0.77391E-09         0.00000E+00
    0.31566E-10         0.76938E-09         0.00000E+00
   -0.81675E-12         0.76278E-09         0.00000E+00
   -0.32348E-10         0.75455E-09         0.00000E+00
   -0.63017E-10         0.74501E-09         0.00000E+00
   -0.92830E-10         0.73439E-09         0.00000E+00
   -0.12181E-09         0.72286E-09         0.00000E+00
   -0.14998E-09         0.71054E-09         0.00000E+00
   -0.17739E-09         0.69751E-09         0.00000E+00
   -0.20407E-09         0.68385E-09         0.00000E+00
   -0.23007E-09         0.66958E-09         0.00000E+00
   -0.25545E-09         0.65473E-09         0.00000E+00
   -0.28025E-09         0.63930E-09         0.00000E+00
   -0.30451E-09         0.62330E-09         0.00000E+00
   -0.32830E-09         0.60672E-09         0.00000E+00
   -0.35165E-09         0.58952E-09         0.00000E+00
   -0.37461E-09         0.57169E-09         0.00000E+00
   -0.39721E-09         0.55318E-09         0.00000E+00
   -0.41948E-09         0.53396E-09         0.00000E+00
   -0.44144E-09         0.51397E-09         0.00000E+00
   -0.46312E-09         0.49317E-09         0.00000E+00
   -0.48451E-09         0.47149E-09         0.00000E+00
   -0.50561E-09         0.44889E-09         0.00000E+00
   -0.52640E-09         0.42531E-09         0.00000E+00
   -0.54684E-09         0.40070E-09         0.00000E+00
   -0.56689E-09         0.37502E-09         0.00000E+00
   -0.58647E-09         0.34824E-09         0.00000E+00
   -0.60550E-09         0.32036E-09         0.00000E+00
   -0.62387E-09         0.29139E-09         0.00000E+00
   -0.64143E-09         0.26137E-09         0.00000E+00
   -0.65801E-09         0.23037E-09         0.00000E+00
   -0.67341E-09         0.19850E-09         0.00000E+00
   -0.68739E-09         0.16591E-09         0.00000E+00
   -0.69967E-09         0.13279E-09         0.00000E+00
   -0.70992E-09         0.99359E-10         0.00000E+00
   -0.71777E-09         0.65886E-10         0.00000E+00
   -0.72282E-09         0.32678E-10         0.00000E+00
   -0.72463E-09         0.16182E-10         0.00000E+00
    0.43385E-09         0.96938E-10         0.00000E+00
    0.42882E-09         0.18286E-09         0.00000E+00
    0.41501E-09         0.33909E-09         0.00000E+00
    0.39425E-09         0.46558E-09         0.00000E+00
    0.36815E-09         0.56563E-09         0.00000E+00
    0.33811E-09         0.64285E-09         0.00000E+00
    0.30528E-09         0.70087E-09         0.00000E+00
    0.27062E-09         0.74314E-09         0.00000E+00
    0.23488E-09         0.77271E-09         0.00000E+00
    0.19864E-09         0.79224E-09         0.00000E+00
    0.16236E-09         0.80392E-09         0.00000E+00
    0.12636E-09         0.80954E-09         0.00000E+00
    0.90889E-10         0.81050E-09         0.00000E+00
    0.56100E-10         0.80790E-09         0.00000E+00
    0.22106E-10         0.80256E-09         0.00000E+00
   -0.11025E-10         0.79511E-09         0.00000E+00
   -0.43260E-10         0.78600E-09         0.00000E+00
   -0.74592E-10         0.77558E-09         0.00000E+00
   -0.10503E-09         0.76410E-09         0.00000E+00
   -0.13460E-09         0.75173E-09         0.00000E+00
   -0.16334E-09         0.73862E-09         0.00000E+00
   -0.19129E-09         0.72484E-09         0.00000E+00
   -0.21850E-09         0.71047E-09         0.00000E+00
   -0.24503E-09         0.69554E-09         0.00000E+00
   -0.27092E-09         0.68009E-09         0.00000E+00
   -0.29625E-09         0.66412E-09         0.00000E+00
   -0.32106E-09         0.64762E-09         0.00000E+00
   -0.34541E-09         0.63059E-09         0.00000E+00
   -0.36936E-09         0.61299E-09         0.00000E+00
   -0.39295E-09         0.59480E-09         0.00000E+00
   -0.41623E-09         0.57598E-09         0.00000E+00
   -0.43923E-09         0.55646E-09         0.00000E+00
   -0.46199E-09         0.53621E-09         0.00000E+00
   -0.48452E-09         0.51515E-09         0.00000E+00
   -0.50683E-09         0.49322E-09         0.00000E+00
   -0.52893E-09         0.47035E-09         0.00000E+00
   -0.55079E-09         0.44647E-09         0.00000E+00
   -0.57239E-09         0.42153E-09         0.00000E+00
   -0.59366E-09         0.39545E-09         0.00000E+00
   -0.61454E-09         0.36820E-09         0.00000E+00
   -0.63493E-09         0.33973E-09         0.00000E+00
   -0.65471E-09         0.31004E-09         0.00000E+00
   -0.67372E-09         0.27914E-09         0.00000E+00
   -0.69176E-09         0.24706E-09         0.00000E+00
   -0.70860E-09         0.21387E-09         0.00000E+00
   -0.72397E-09         0.17968E-09         0.00000E+00
   -0.73753E-09         0.14463E-09         0.00000E+00
   -0.74891E-09         0.10890E-09         0.00000E+00
   -0.75767E-09         0.72702E-10         0.00000E+00
   -0.76333E-09         0.36311E-10         0.00000E+00
   -0.76538E-09         0.18103E-10         0.00000E+00
    0.43441E-09         0.10205E-09         0.00000E+00
    0.42922E-09         0.19243E-09         0.00000E+00
    0.41499E-09         0.35663E-09         0.00000E+00
    0.39360E-09         0.48936E-09         0.00000E+00
    0.36673E-09         0.59411E-09         0.00000E+00
    0.33581E-09         0.67474E-09         0.00000E+00
    0.30204E-09         0.73510E-09         0.00000E+00
    0.26639E-09         0.77883E-09         0.00000E+00
    0.22967E-09         0.80919E-09         0.00000E+00
    0.19245E-09         0.82898E-09         0.00000E+00
    0.15522E-09         0.84053E-09         0.00000E+00
    0.11831E-09         0.84572E-09         0.00000E+00
    0.81966E-10         0.84606E-09         0.00000E+00
    0.46357E-10         0.84269E-09         0.00000E+00
    0.11593E-10         0.83650E-09         0.00000E+00
   -0.22257E-10         0.82814E-09         0.00000E+00
   -0.55163E-10         0.81812E-09         0.00000E+00
   -0.87118E-10         0.80678E-09         0.00000E+00
   -0.11814E-09         0.79440E-09         0.00000E+00
   -0.14825E-09         0.78116E-09         0.00000E+00
   -0.17751E-09         0.76722E-09         0.00000E+00
   -0.20594E-09         0.75268E-09         0.00000E+00
   -0.23363E-09         0.73759E-09         0.00000E+00
   -0.26061E-09         0.72200E-09         0.00000E+00
   -0.28697E-09         0.70595E-09         0.00000E+00
   -0.31277E-09         0.68944E-09         0.00000E+00
   -0.33806E-09         0.67247E-09         0.00000E+00
   -0.36293E-09         0.65502E-09         0.00000E+00
   -0.38742E-09         0.63706E-09         0.00000E+00
   -0.41160E-09         0.61856E-09         0.00000E+00
   -0.43552E-09         0.59946E-09         0.00000E+00
   -0.45922E-09         0.57972E-09         0.00000E+00
   -0.48274E-09         0.55926E-09         0.00000E+00
   -0.50612E-09         0.53802E-09         0.00000E+00
   -0.52936E-09         0.51591E-09         0.00000E+00
   -0.55246E-09         0.49285E-09         0.00000E+00
   -0.57541E-09         0.46876E-09         0.00000E+00
   -0.59819E-09         0.44356E-09         0.00000E+00
   -0.62073E-09         0.41717E-09         0.00000E+00
   -0.64297E-09         0.38951E-09         0.00000E+00
   -0.66479E-09         0.36053E-09         0.00000E+00
   -0.68606E-09         0.33017E-09         0.00000E+00
   -0.70660E-09         0.29841E-09         0.00000E+00
   -0.72620E-09         0.26525E-09         0.00000E+00
   -0.74459E-09         0.23071E-09         0.00000E+00
   -0.76146E-09         0.19484E-09         0.00000E+00
   -0.77642E-09         0.15773E-09         0.00000E+00
   -0.78902E-09         0.11950E-09         0.00000E+00
   -0.79877E-09         0.80310E-10         0.00000E+00
   -0.80510E-09         0.40383E-10         0.00000E+00
   -0.80740E-09         0.20264E-10         0.00000E+00
    0.43386E-09         0.10732E-09         0.00000E+00
    0.42851E-09         0.20228E-09         0.00000E+00
    0.41386E-09         0.37470E-09         0.00000E+00
    0.39184E-09         0.51384E-09         0.00000E+00
    0.36418E-09         0.62343E-09         0.00000E+00
    0.33237E-09         0.70755E-09         0.00000E+00
    0.29763E-09         0.77029E-09         0.00000E+00
    0.26100E-09         0.81551E-09         0.00000E+00
    0.22328E-09         0.84665E-09         0.00000E+00
    0.18509E-09         0.86668E-09         0.00000E+00
    0.14691E-09         0.87806E-09         0.00000E+00
    0.10909E-09         0.88280E-09         0.00000E+00
    0.71888E-10         0.88246E-09         0.00000E+00
    0.35477E-10         0.87827E-09         0.00000E+00
   -0.29985E-13         0.87117E-09         0.00000E+00
   -0.34567E-10         0.86186E-09         0.00000E+00
   -0.68104E-10         0.85086E-09         0.00000E+00
   -0.10064E-09         0.83856E-09         0.00000E+00
   -0.13219E-09         0.82523E-09         0.00000E+00
   -0.16279E-09         0.81110E-09         0.00000E+00
   -0.19250E-09         0.79631E-09         0.00000E+00
   -0.22136E-09         0.78096E-09         0.00000E+00
   -0.24945E-09         0.76514E-09         0.00000E+00
   -0.27684E-09         0.74889E-09         0.00000E+00
   -0.30359E-09         0.73224E-09         0.00000E+00
   -0.32978E-09         0.71521E-09         0.00000E+00
   -0.35550E-09         0.69778E-09         0.00000E+00
   -0.38081E-09         0.67994E-09         0.00000E+00
   -0.40579E-09         0.66166E-09         0.00000E+00
   -0.43051E-09         0.64290E-09         0.00000E+00
   -0.45502E-09         0.62360E-09         0.00000E+00
   -0.47938E-09         0.60369E-09         0.00000E+00
   -0.50364E-09         0.58311E-09         0.00000E+00
   -0.52784E-09         0.56176E-09         0.00000E+00
   -0.55199E-09         0.53956E-09         0.00000E+00
   -0.57610E-09         0.51641E-09         0.00000E+00
   -0.60016E-09         0.49220E-09         0.00000E+00
   -0.62415E-09         0.46685E-09         0.00000E+00
   -0.64800E-09         0.44023E-09         0.00000E+00
   -0.67165E-09         0.41225E-09         0.00000E+00
   -0.69496E-09         0.38282E-09         0.00000E+00
   -0.71781E-09         0.35186E-09         0.00000E+00
   -0.73998E-09         0.31928E-09         0.00000E+00
   -0.76125E-09         0.28505E-09         0.00000E+00
   -0.78130E-09         0.24913E-09         0.00000E+00
   -0.79977E-09         0.21150E-09         0.00000E+00
   -0.81623E-09         0.17219E-09         0.00000E+00
   -0.83017E-09         0.13125E-09         0.00000E+00
   -0.84100E-09         0.88783E-10         0.00000E+00
   -0.84806E-09         0.44933E-10         0.00000E+00
   -0.85062E-09         0.22687E-10         0.00000E+00
    0.43215E-09         0.11275E-09         0.00000E+00
    0.42665E-09         0.21243E-09         0.00000E+00
    0.41156E-09         0.39330E-09         0.00000E+00
    0.38889E-09         0.53904E-09         0.00000E+00
    0.36043E-09         0.65359E-09         0.00000E+00
    0.32771E-09         0.74128E-09         0.00000E+00
    0.29201E-09         0.80646E-09         0.00000E+00
    0.25438E-09         0.85318E-09         0.00000E+00
    0.21565E-09         0.88510E-09         0.00000E+00
    0.17647E-09         0.90535E-09         0.00000E+00
    0.13735E-09         0.91652E-09         0.00000E+00
    0.98629E-10         0.92074E-09         0.00000E+00
    0.60586E-10         0.91968E-09         0.00000E+00
    0.23395E-10         0.91461E-09         0.00000E+00
   -0.12828E-10         0.90655E-09         0.00000E+00
   -0.48015E-10         0.89622E-09         0.00000E+00
   -0.82140E-10         0.88419E-09         0.00000E+00
   -0.11520E-09         0.87086E-09         0.00000E+00
   -0.14723E-09         0.85655E-09         0.00000E+00
   -0.17826E-09         0.84147E-09         0.00000E+00
   -0.20835E-09         0.82579E-09         0.00000E+00
   -0.23757E-09         0.80963E-09         0.00000E+00
   -0.26599E-09         0.79306E-09         0.00000E+00
   -0.29369E-09         0.77614E-09         0.00000E+00
   -0.32076E-09         0.75890E-09         0.00000E+00
   -0.34728E-09         0.74135E-09         0.00000E+00
   -0.37334E-09         0.72350E-09         0.00000E+00
   -0.39903E-09         0.70531E-09         0.00000E+00
   -0.42443E-09         0.68675E-09         0.00000E+00
   -0.44961E-09         0.66778E-09         0.00000E+00
   -0.47466E-09         0.64834E-09         0.00000E+00
   -0.49964E-09         0.62834E-09         0.00000E+00
   -0.52460E-09         0.60772E-09         0.00000E+00
   -0.54958E-09         0.58636E-09         0.00000E+00
   -0.57462E-09         0.56417E-09         0.00000E+00
   -0.59974E-09         0.54103E-09         0.00000E+00
   -0.62492E-09         0.51681E-09         0.00000E+00
   -0.65014E-09         0.49141E-09         0.00000E+00
   -0.67535E-09         0.46467E-09         0.00000E+00
   -0.70045E-09         0.43647E-09         0.00000E+00
   -0.72534E-09         0.40669E-09         0.00000E+00
   -0.74984E-09         0.37519E-09         0.00000E+00
   -0.77374E-09         0.34185E-09         0.00000E+00
   -0.79678E-09         0.30657E-09         0.00000E+00
   -0.81860E-09         0.26924E-09         0.00000E+00
   -0.83881E-09         0.22978E-09         0.00000E+00
   -0.85689E-09         0.18813E-09         0.00000E+00
   -0.87226E-09         0.14426E-09         0.00000E+00
   -0.88426E-09         0.98194E-10         0.00000E+00
   -0.89211E-09         0.50005E-10         0.00000E+00
   -0.89497E-09         0.25395E-10         0.00000E+00
    0.42923E-09         0.11833E-09         0.00000E+00
    0.42356E-09         0.22288E-09         0.00000E+00
    0.40802E-09         0.41245E-09         0.00000E+00
    0.38470E-09         0.56496E-09         0.00000E+00
    0.35542E-09         0.68461E-09         0.00000E+00
    0.32178E-09         0.77597E-09         0.00000E+00
    0.28509E-09         0.84362E-09         0.00000E+00
    0.24644E-09         0.89187E-09         0.00000E+00
    0.20670E-09         0.92455E-09         0.00000E+00
    0.16653E-09         0.94498E-09         0.00000E+00
    0.12646E-09         0.95591E-09         0.00000E+00
    0.86852E-10         0.95956E-09         0.00000E+00
    0.47982E-10         0.95769E-09         0.00000E+00
    0.10035E-10         0.95169E-09         0.00000E+00
   -0.26871E-10         0.94258E-09         0.00000E+00
   -0.62669E-10         0.93117E-09         0.00000E+00
   -0.97333E-10         0.91805E-09         0.00000E+00
   -0.13087E-09         0.90364E-09         0.00000E+00
   -0.16331E-09         0.88829E-09         0.00000E+00
   -0.19469E-09         0.87222E-09         0.00000E+00
   -0.22509E-09         0.85562E-09         0.00000E+00
   -0.25459E-09         0.83860E-09         0.00000E+00
   -0.28325E-09         0.82126E-09         0.00000E+00
   -0.31119E-09         0.80366E-09         0.00000E+00
   -0.33848E-09         0.78583E-09         0.00000E+00
   -0.36524E-09         0.76779E-09         0.00000E+00
   -0.39156E-09         0.74953E-09         0.00000E+00
   -0.41754E-09         0.73103E-09         0.00000E+00
   -0.44327E-09         0.71225E-09         0.00000E+00
   -0.46885E-09         0.69314E-09         0.00000E+00
   -0.49437E-09         0.67362E-09         0.00000E+00
   -0.51990E-09         0.65363E-09         0.00000E+00
   -0.54550E-09         0.63305E-09         0.00000E+00
   -0.57124E-09         0.61179E-09         0.00000E+00
   -0.59716E-09         0.58972E-09         0.00000E+00
   -0.62326E-09         0.56670E-09         0.00000E+00
   -0.64956E-09         0.54261E-09         0.00000E+00
   -0.67604E-09         0.51727E-09         0.00000E+00
   -0.70263E-09         0.49054E-09         0.00000E+00
   -0.72925E-09         0.46224E-09         0.00000E+00
   -0.75577E-09         0.43221E-09         0.00000E+00
   -0.78201E-09         0.40026E-09         0.00000E+00
   -0.80774E-09         0.36622E-09         0.00000E+00
   -0.83266E-09         0.32991E-09         0.00000E+00
   -0.85638E-09         0.29116E-09         0.00000E+00
   -0.87843E-09         0.24979E-09         0.00000E+00
   -0.89826E-09         0.20565E-09         0.00000E+00
   -0.91519E-09         0.15862E-09         0.00000E+00
   -0.92844E-09         0.10862E-09         0.00000E+00
   -0.93714E-09         0.55644E-10         0.00000E+00
   -0.94033E-09         0.28414E-10         0.00000E+00
    0.42502E-09         0.12409E-09         0.00000E+00
    0.41918E-09         0.23363E-09         0.00000E+00
    0.40320E-09         0.43216E-09         0.00000E+00
    0.37920E-09         0.59164E-09         0.00000E+00
    0.34908E-09         0.71651E-09         0.00000E+00
    0.31449E-09         0.81162E-09         0.00000E+00
    0.27679E-09         0.88180E-09         0.00000E+00
    0.23711E-09         0.93158E-09         0.00000E+00
    0.19634E-09         0.96501E-09         0.00000E+00
    0.15518E-09         0.98559E-09         0.00000E+00
    0.11416E-09         0.99621E-09         0.00000E+00
    0.73672E-10         0.99922E-09         0.00000E+00
    0.33992E-10         0.99649E-09         0.00000E+00
   -0.46854E-11         0.98947E-09         0.00000E+00
   -0.42240E-10         0.97925E-09         0.00000E+00
   -0.78603E-10         0.96668E-09         0.00000E+00
   -0.11375E-09         0.95239E-09         0.00000E+00
   -0.14770E-09         0.93684E-09         0.00000E+00
   -0.18047E-09         0.92038E-09         0.00000E+00
   -0.21214E-09         0.90326E-09         0.00000E+00
   -0.24277E-09         0.88569E-09         0.00000E+00
   -0.27244E-09         0.86779E-09         0.00000E+00
   -0.30126E-09         0.84966E-09         0.00000E+00
   -0.32932E-09         0.83137E-09         0.00000E+00
   -0.35675E-09         0.81295E-09         0.00000E+00
   -0.38364E-09         0.79443E-09         0.00000E+00
   -0.41011E-09         0.77579E-09         0.00000E+00
   -0.43629E-09         0.75702E-09         0.00000E+00
   -0.46227E-09         0.73807E-09         0.00000E+00
   -0.48816E-09         0.71888E-09         0.00000E+00
   -0.51406E-09         0.69938E-09         0.00000E+00
   -0.54007E-09         0.67948E-09         0.00000E+00
   -0.56626E-09         0.65906E-09         0.00000E+00
   -0.59271E-09         0.63801E-09         0.00000E+00
   -0.61945E-09         0.61619E-09         0.00000E+00
   -0.64653E-09         0.59343E-09         0.00000E+00
   -0.67394E-09         0.56959E-09         0.00000E+00
   -0.70168E-09         0.54447E-09         0.00000E+00
   -0.72969E-09         0.51788E-09         0.00000E+00
   -0.75787E-09         0.48962E-09         0.00000E+00
   -0.78609E-09         0.45945E-09         0.00000E+00
   -0.81416E-09         0.42716E-09         0.00000E+00
   -0.84182E-09         0.39250E-09         0.00000E+00
   -0.86873E-09         0.35520E-09         0.00000E+00
   -0.89446E-09         0.31501E-09         0.00000E+00
   -0.91850E-09         0.27166E-09         0.00000E+00
   -0.94019E-09         0.22488E-09         0.00000E+00
   -0.95879E-09         0.17444E-09         0.00000E+00
   -0.97341E-09         0.12015E-09         0.00000E+00
   -0.98304E-09         0.61897E-10         0.00000E+00
   -0.98658E-09         0.31770E-10         0.00000E+00
    0.41947E-09         0.13001E-09         0.00000E+00
    0.41347E-09         0.24470E-09         0.00000E+00
    0.39701E-09         0.45243E-09         0.00000E+00
    0.37232E-09         0.61908E-09         0.00000E+00
    0.34135E-09         0.74932E-09         0.00000E+00
    0.30578E-09         0.84826E-09         0.00000E+00
    0.26705E-09         0.92100E-09         0.00000E+00
    0.22632E-09         0.97232E-09         0.00000E+00
    0.18450E-09         0.10065E-08         0.00000E+00
    0.14234E-09         0.10272E-08         0.00000E+00
    0.10036E-09         0.10374E-08         0.00000E+00
    0.58997E-10         0.10397E-08         0.00000E+00
    0.18523E-10         0.10361E-08         0.00000E+00
   -0.20859E-10         0.10279E-08         0.00000E+00
   -0.59023E-10         0.10165E-08         0.00000E+00
   -0.95904E-10         0.10027E-08         0.00000E+00
   -0.13148E-09         0.98714E-09         0.00000E+00
   -0.16576E-09         0.97037E-09         0.00000E+00
   -0.19880E-09         0.95273E-09         0.00000E+00
   -0.23065E-09         0.93451E-09         0.00000E+00
   -0.26141E-09         0.91592E-09         0.00000E+00
   -0.29116E-09         0.89709E-09         0.00000E+00
   -0.32002E-09         0.87814E-09         0.00000E+00
   -0.34811E-09         0.85915E-09         0.00000E+00
   -0.37554E-09         0.84015E-09         0.00000E+00
   -0.40246E-09         0.82116E-09         0.00000E+00
   -0.42897E-09         0.80218E-09         0.00000E+00
   -0.45523E-09         0.78318E-09         0.00000E+00
   -0.48134E-09         0.76412E-09         0.00000E+00
   -0.50744E-09         0.74493E-09         0.00000E+00
   -0.53364E-09         0.72554E-09         0.00000E+00
   -0.56004E-09         0.70583E-09         0.00000E+00
   -0.58675E-09         0.68569E-09         0.00000E+00
   -0.61384E-09         0.66498E-09         0.00000E+00
   -0.64137E-09         0.64354E-09         0.00000E+00
   -0.66938E-09         0.62120E-09         0.00000E+00
   -0.69790E-09         0.59776E-09         0.00000E+00
   -0.72691E-09         0.57301E-09         0.00000E+00
   -0.75635E-09         0.54673E-09         0.00000E+00
   -0.78614E-09         0.51865E-09         0.00000E+00
   -0.81613E-09         0.48850E-09         0.00000E+00
   -0.84610E-09         0.45599E-09         0.00000E+00
   -0.87579E-09         0.42079E-09         0.00000E+00
   -0.90480E-09         0.38256E-09         0.00000E+00
   -0.93268E-09         0.34093E-09         0.00000E+00
   -0.95883E-09         0.29552E-09         0.00000E+00
   -0.98253E-09         0.24595E-09         0.00000E+00
   -0.10029E-08         0.19184E-09         0.00000E+00
   -0.10190E-08         0.13287E-09         0.00000E+00
   -0.10296E-08         0.68815E-10         0.00000E+00
   -0.10336E-08         0.35492E-10         0.00000E+00
    0.41253E-09         0.13611E-09         0.00000E+00
    0.40635E-09         0.25609E-09         0.00000E+00
    0.38941E-09         0.47330E-09         0.00000E+00
    0.36400E-09         0.64730E-09         0.00000E+00
    0.33213E-09         0.78305E-09         0.00000E+00
    0.29557E-09         0.88591E-09         0.00000E+00
    0.25578E-09         0.96126E-09         0.00000E+00
    0.21396E-09         0.10141E-08         0.00000E+00
    0.17108E-09         0.10490E-08         0.00000E+00
    0.12789E-09         0.10697E-08         0.00000E+00
    0.84960E-10         0.10795E-08         0.00000E+00
    0.42719E-10         0.10811E-08         0.00000E+00
    0.14676E-11         0.10763E-08         0.00000E+00
   -0.38589E-10         0.10670E-08         0.00000E+00
   -0.77323E-10         0.10543E-08         0.00000E+00
   -0.11467E-09         0.10391E-08         0.00000E+00
   -0.15060E-09         0.10222E-08         0.00000E+00
   -0.18515E-09         0.10042E-08         0.00000E+00
   -0.21835E-09         0.98527E-09         0.00000E+00
   -0.25030E-09         0.96587E-09         0.00000E+00
   -0.28107E-09         0.94620E-09         0.00000E+00
   -0.31079E-09         0.92640E-09         0.00000E+00
   -0.33957E-09         0.90661E-09         0.00000E+00
   -0.36755E-09         0.88689E-09         0.00000E+00
   -0.39487E-09         0.86730E-09         0.00000E+00
   -0.42167E-09         0.84786E-09         0.00000E+00
   -0.44810E-09         0.82856E-09         0.00000E+00
   -0.47430E-09         0.80939E-09         0.00000E+00
   -0.50043E-09         0.79028E-09         0.00000E+00
   -0.52662E-09         0.77118E-09         0.00000E+00
   -0.55300E-09         0.75199E-09         0.00000E+00
   -0.57970E-09         0.73259E-09         0.00000E+00
   -0.60683E-09         0.71285E-09         0.00000E+00
   -0.63448E-09         0.69263E-09         0.00000E+00
   -0.66274E-09         0.67173E-09         0.00000E+00
   -0.69165E-09         0.64997E-09         0.00000E+00
   -0.72125E-09         0.62711E-09         0.00000E+00
   -0.75152E-09         0.60292E-09         0.00000E+00
   -0.78242E-09         0.57711E-09         0.00000E+00
   -0.81385E-09         0.54939E-09         0.00000E+00
   -0.84566E-09         0.51942E-09         0.00000E+00
   -0.87763E-09         0.48682E-09         0.00000E+00
   -0.90943E-09         0.45120E-09         0.00000E+00
   -0.94068E-09         0.41210E-09         0.00000E+00
   -0.97083E-09         0.36904E-09         0.00000E+00
   -0.99923E-09         0.32151E-09         0.00000E+00
   -0.10251E-08         0.26898E-09         0.00000E+00
   -0.10474E-08         0.21092E-09         0.00000E+00
   -0.10651E-08         0.14687E-09         0.00000E+00
   -0.10768E-08         0.76450E-10         0.00000E+00
   -0.10811E-08         0.39610E-10         0.00000E+00
    0.40414E-09         0.14238E-09         0.00000E+00
    0.39777E-09         0.26782E-09         0.00000E+00
    0.38033E-09         0.49479E-09         0.00000E+00
    0.35416E-09         0.67635E-09         0.00000E+00
    0.32138E-09         0.81774E-09         0.00000E+00
    0.28377E-09         0.92462E-09         0.00000E+00
    0.24288E-09         0.10026E-08         0.00000E+00
    0.19994E-09         0.10570E-08         0.00000E+00
    0.15596E-09         0.10926E-08         0.00000E+00
    0.11173E-09         0.11133E-08         0.00000E+00
    0.67835E-10         0.11226E-08         0.00000E+00
    0.24723E-10         0.11232E-08         0.00000E+00
   -0.17291E-10         0.11174E-08         0.00000E+00
   -0.57994E-10         0.11067E-08         0.00000E+00
   -0.97253E-10         0.10926E-08         0.00000E+00
   -0.13500E-09         0.10760E-08         0.00000E+00
   -0.17122E-09         0.10576E-08         0.00000E+00
   -0.20594E-09         0.10381E-08         0.00000E+00
   -0.23922E-09         0.10179E-08         0.00000E+00
   -0.27114E-09         0.99723E-09         0.00000E+00
   -0.30181E-09         0.97641E-09         0.00000E+00
   -0.33136E-09         0.95559E-09         0.00000E+00
   -0.35993E-09         0.93491E-09         0.00000E+00
   -0.38766E-09         0.91445E-09         0.00000E+00
   -0.41471E-09         0.89427E-09         0.00000E+00
   -0.44125E-09         0.87439E-09         0.00000E+00
   -0.46744E-09         0.85481E-09         0.00000E+00
   -0.49346E-09         0.83551E-09         0.00000E+00
   -0.51945E-09         0.81643E-09         0.00000E+00
   -0.54560E-09         0.79750E-09         0.00000E+00
   -0.57203E-09         0.77862E-09         0.00000E+00
   -0.59891E-09         0.75966E-09         0.00000E+00
   -0.62636E-09         0.74047E-09         0.00000E+00
   -0.65449E-09         0.72089E-09         0.00000E+00
   -0.68340E-09         0.70071E-09         0.00000E+00
   -0.71315E-09         0.67971E-09         0.00000E+00
   -0.74379E-09         0.65763E-09         0.00000E+00
   -0.77531E-09         0.63419E-09         0.00000E+00
   -0.80767E-09         0.60906E-09         0.00000E+00
   -0.84077E-09         0.58189E-09         0.00000E+00
   -0.87446E-09         0.55227E-09         0.00000E+00
   -0.90849E-09         0.51976E-09         0.00000E+00
   -0.94252E-09         0.48384E-09         0.00000E+00
   -0.97610E-09         0.44395E-09         0.00000E+00
   -0.10087E-08         0.39948E-09         0.00000E+00
   -0.10395E-08         0.34977E-09         0.00000E+00
   -0.10676E-08         0.29411E-09         0.00000E+00
   -0.10920E-08         0.23182E-09         0.00000E+00
   -0.11113E-08         0.16225E-09         0.00000E+00
   -0.11242E-08         0.84860E-10         0.00000E+00
   -0.11290E-08         0.44155E-10         0.00000E+00
    0.39424E-09         0.14885E-09         0.00000E+00
    0.38767E-09         0.27991E-09         0.00000E+00
    0.36970E-09         0.51691E-09         0.00000E+00
    0.34275E-09         0.70625E-09         0.00000E+00
    0.30899E-09         0.85344E-09         0.00000E+00
    0.27030E-09         0.96441E-09         0.00000E+00
    0.22825E-09         0.10451E-08         0.00000E+00
    0.18415E-09         0.11010E-08         0.00000E+00
    0.13904E-09         0.11372E-08         0.00000E+00
    0.93736E-10         0.11579E-08         0.00000E+00
    0.48860E-10         0.11666E-08         0.00000E+00
    0.48753E-11         0.11662E-08         0.00000E+00
   -0.37887E-10         0.11591E-08         0.00000E+00
   -0.79205E-10         0.11470E-08         0.00000E+00
   -0.11894E-09         0.11313E-08         0.00000E+00
   -0.15703E-09         0.11131E-08         0.00000E+00
   -0.19345E-09         0.10932E-08         0.00000E+00
   -0.22825E-09         0.10722E-08         0.00000E+00
   -0.26149E-09         0.10505E-08         0.00000E+00
   -0.29326E-09         0.10285E-08         0.00000E+00
   -0.32370E-09         0.10064E-08         0.00000E+00
   -0.35293E-09         0.98452E-09         0.00000E+00
   -0.38112E-09         0.96290E-09         0.00000E+00
   -0.40844E-09         0.94167E-09         0.00000E+00
   -0.43507E-09         0.92089E-09         0.00000E+00
   -0.46118E-09         0.90059E-09         0.00000E+00
   -0.48697E-09         0.88077E-09         0.00000E+00
   -0.51262E-09         0.86140E-09         0.00000E+00
   -0.53833E-09         0.84242E-09         0.00000E+00
   -0.56427E-09         0.82376E-09         0.00000E+00
   -0.59061E-09         0.80530E-09         0.00000E+00
   -0.61753E-09         0.78691E-09         0.00000E+00
   -0.64517E-09         0.76843E-09         0.00000E+00
   -0.67367E-09         0.74967E-09         0.00000E+00
   -0.70314E-09         0.73039E-09         0.00000E+00
   -0.73366E-09         0.71036E-09         0.00000E+00
   -0.76528E-09         0.68927E-09         0.00000E+00
   -0.79802E-09         0.66680E-09         0.00000E+00
   -0.83184E-09         0.64258E-09         0.00000E+00
   -0.86664E-09         0.61618E-09         0.00000E+00
   -0.90225E-09         0.58713E-09         0.00000E+00
   -0.93842E-09         0.55488E-09         0.00000E+00
   -0.97477E-09         0.51881E-09         0.00000E+00
   -0.10108E-08         0.47824E-09         0.00000E+00
   -0.10459E-08         0.43239E-09         0.00000E+00
   -0.10792E-08         0.38044E-09         0.00000E+00
   -0.11098E-08         0.32149E-09         0.00000E+00
   -0.11364E-08         0.25466E-09         0.00000E+00
   -0.11576E-08         0.17910E-09         0.00000E+00
   -0.11717E-08         0.94102E-10         0.00000E+00
   -0.11769E-08         0.49160E-10         0.00000E+00
    0.38278E-09         0.15552E-09         0.00000E+00
    0.37601E-09         0.29236E-09         0.00000E+00
    0.35747E-09         0.53970E-09         0.00000E+00
    0.32969E-09         0.73706E-09         0.00000E+00
    0.29491E-09         0.89020E-09         0.00000E+00
    0.25506E-09         0.10054E-08         0.00000E+00
    0.21180E-09         0.10888E-08         0.00000E+00
    0.16648E-09         0.11462E-08         0.00000E+00
    0.12019E-09         0.11830E-08         0.00000E+00
    0.73772E-10         0.12035E-08         0.00000E+00
    0.27891E-10         0.12114E-08         0.00000E+00
   -0.16972E-10         0.12100E-08         0.00000E+00
   -0.60470E-10         0.12014E-08         0.00000E+00
   -0.10237E-09         0.11878E-08         0.00000E+00
   -0.14253E-09         0.11704E-08         0.00000E+00
   -0.18089E-09         0.11505E-08         0.00000E+00
   -0.21743E-09         0.11288E-08         0.00000E+00
   -0.25220E-09         0.11062E-08         0.00000E+00
   -0.28527E-09         0.10829E-08         0.00000E+00
   -0.31676E-09         0.10594E-08         0.00000E+00
   -0.34680E-09         0.10361E-08         0.00000E+00
   -0.37556E-09         0.10130E-08         0.00000E+00
   -0.40321E-09         0.99042E-09         0.00000E+00
   -0.42993E-09         0.96839E-09         0.00000E+00
   -0.45594E-09         0.94700E-09         0.00000E+00
   -0.48144E-09         0.92629E-09         0.00000E+00
   -0.50663E-09         0.90625E-09         0.00000E+00
   -0.53173E-09         0.88687E-09         0.00000E+00
   -0.55696E-09         0.86808E-09         0.00000E+00
   -0.58252E-09         0.84979E-09         0.00000E+00
   -0.60860E-09         0.83188E-09         0.00000E+00
   -0.63540E-09         0.81422E-09         0.00000E+00
   -0.66309E-09         0.79661E-09         0.00000E+00
   -0.69183E-09         0.77885E-09         0.00000E+00
   -0.72175E-09         0.76069E-09         0.00000E+00
   -0.75294E-09         0.74185E-09         0.00000E+00
   -0.78548E-09         0.72199E-09         0.00000E+00
   -0.81940E-09         0.70074E-09         0.00000E+00
   -0.85466E-09         0.67768E-09         0.00000E+00
   -0.89117E-09         0.65230E-09         0.00000E+00
   -0.92874E-09         0.62405E-09         0.00000E+00
   -0.96711E-09         0.59227E-09         0.00000E+00
   -0.10059E-08         0.55623E-09         0.00000E+00
   -0.10445E-08         0.51509E-09         0.00000E+00
   -0.10823E-08         0.46791E-09         0.00000E+00
   -0.11183E-08         0.41367E-09         0.00000E+00
   -0.11514E-08         0.35126E-09         0.00000E+00
   -0.11804E-08         0.27958E-09         0.00000E+00
   -0.12035E-08         0.19755E-09         0.00000E+00
   -0.12190E-08         0.10424E-09         0.00000E+00
   -0.12247E-08         0.54662E-10         0.00000E+00
    0.36971E-09         0.16240E-09         0.00000E+00
    0.36271E-09         0.30521E-09         0.00000E+00
    0.34358E-09         0.56322E-09         0.00000E+00
    0.31491E-09         0.76882E-09         0.00000E+00
    0.27903E-09         0.92807E-09         0.00000E+00
    0.23795E-09         0.10475E-08         0.00000E+00
    0.19341E-09         0.11337E-08         0.00000E+00
    0.14679E-09         0.11927E-08         0.00000E+00
    0.99252E-10         0.12299E-08         0.00000E+00
    0.51681E-10         0.12501E-08         0.00000E+00
    0.47646E-11         0.12573E-08         0.00000E+00
   -0.40988E-10         0.12546E-08         0.00000E+00
   -0.85212E-10         0.12445E-08         0.00000E+00
   -0.12766E-09         0.12290E-08         0.00000E+00
   -0.16820E-09         0.12098E-08         0.00000E+00
   -0.20674E-09         0.11880E-08         0.00000E+00
   -0.24330E-09         0.11645E-08         0.00000E+00
   -0.27792E-09         0.11400E-08         0.00000E+00
   -0.31069E-09         0.11150E-08         0.00000E+00
   -0.34173E-09         0.10900E-08         0.00000E+00
   -0.37121E-09         0.10652E-08         0.00000E+00
   -0.39931E-09         0.10409E-08         0.00000E+00
   -0.42621E-09         0.10173E-08         0.00000E+00
   -0.45215E-09         0.99441E-09         0.00000E+00
   -0.47733E-09         0.97240E-09         0.00000E+00
   -0.50199E-09         0.95128E-09         0.00000E+00
   -0.52638E-09         0.93107E-09         0.00000E+00
   -0.55072E-09         0.91173E-09         0.00000E+00
   -0.57526E-09         0.89321E-09         0.00000E+00
   -0.60023E-09         0.87540E-09         0.00000E+00
   -0.62586E-09         0.85819E-09         0.00000E+00
   -0.65236E-09         0.84141E-09         0.00000E+00
   -0.67993E-09         0.82486E-09         0.00000E+00
   -0.70875E-09         0.80832E-09         0.00000E+00
   -0.73898E-09         0.79150E-09         0.00000E+00
   -0.77074E-09         0.77410E-09         0.00000E+00
   -0.80412E-09         0.75573E-09         0.00000E+00
   -0.83915E-09         0.73598E-09         0.00000E+00
   -0.87582E-09         0.71435E-09         0.00000E+00
   -0.91402E-09         0.69026E-09         0.00000E+00
   -0.95359E-09         0.66307E-09         0.00000E+00
   -0.99421E-09         0.63201E-09         0.00000E+00
   -0.10355E-08         0.59620E-09         0.00000E+00
   -0.10768E-08         0.55463E-09         0.00000E+00
   -0.11174E-08         0.50618E-09         0.00000E+00
   -0.11562E-08         0.44961E-09         0.00000E+00
   -0.11921E-08         0.38358E-09         0.00000E+00
   -0.12236E-08         0.30671E-09         0.00000E+00
   -0.12488E-08         0.21769E-09         0.00000E+00
   -0.12657E-08         0.11534E-09         0.00000E+00
   -0.12720E-08         0.60697E-10         0.00000E+00
    0.35497E-09         0.16951E-09         0.00000E+00
    0.34773E-09         0.31849E-09         0.00000E+00
    0.32795E-09         0.58751E-09         0.00000E+00
    0.29832E-09         0.80161E-09         0.00000E+00
    0.26126E-09         0.96715E-09         0.00000E+00
    0.21887E-09         0.10910E-08         0.00000E+00
    0.17293E-09         0.11799E-08         0.00000E+00
    0.12494E-09         0.12404E-08         0.00000E+00
    0.76078E-10         0.12781E-08         0.00000E+00
    0.27290E-10         0.12980E-08         0.00000E+00
   -0.20703E-10         0.13041E-08         0.00000E+00
   -0.67363E-10         0.12999E-08         0.00000E+00
   -0.11231E-09         0.12881E-08         0.00000E+00
   -0.15528E-09         0.12707E-08         0.00000E+00
   -0.19612E-09         0.12495E-08         0.00000E+00
   -0.23477E-09         0.12256E-08         0.00000E+00
   -0.27124E-09         0.12000E-08         0.00000E+00
   -0.30557E-09         0.11735E-08         0.00000E+00
   -0.33788E-09         0.11467E-08         0.00000E+00
   -0.36831E-09         0.11200E-08         0.00000E+00
   -0.39703E-09         0.10937E-08         0.00000E+00
   -0.42426E-09         0.10680E-08         0.00000E+00
   -0.45021E-09         0.10433E-08         0.00000E+00
   -0.47511E-09         0.10195E-08         0.00000E+00
   -0.49923E-09         0.99685E-09         0.00000E+00
   -0.52283E-09         0.97534E-09         0.00000E+00
   -0.54616E-09         0.95498E-09         0.00000E+00
   -0.56950E-09         0.93575E-09         0.00000E+00
   -0.59312E-09         0.91759E-09         0.00000E+00
   -0.61728E-09         0.90039E-09         0.00000E+00
   -0.64223E-09         0.88401E-09         0.00000E+00
   -0.66821E-09         0.86829E-09         0.00000E+00
   -0.69547E-09         0.85300E-09         0.00000E+00
   -0.72420E-09         0.83790E-09         0.00000E+00
   -0.75458E-09         0.82268E-09         0.00000E+00
   -0.78677E-09         0.80699E-09         0.00000E+00
   -0.82087E-09         0.79040E-09         0.00000E+00
   -0.85694E-09         0.77244E-09         0.00000E+00
   -0.89496E-09         0.75255E-09         0.00000E+00
   -0.93485E-09         0.73007E-09         0.00000E+00
   -0.97641E-09         0.70424E-09         0.00000E+00
   -0.10193E-08         0.67416E-09         0.00000E+00
   -0.10632E-08         0.63880E-09         0.00000E+00
   -0.11073E-08         0.59698E-09         0.00000E+00
   -0.11508E-08         0.54735E-09         0.00000E+00
   -0.11927E-08         0.48843E-09         0.00000E+00
   -0.12315E-08         0.41860E-09         0.00000E+00
   -0.12656E-08         0.33621E-09         0.00000E+00
   -0.12930E-08         0.23964E-09         0.00000E+00
   -0.13114E-08         0.12746E-09         0.00000E+00
   -0.13184E-08         0.67304E-10         0.00000E+00
    0.33851E-09         0.17686E-09         0.00000E+00
    0.33102E-09         0.33222E-09         0.00000E+00
    0.31053E-09         0.61263E-09         0.00000E+00
    0.27985E-09         0.83552E-09         0.00000E+00
    0.24150E-09         0.10075E-08         0.00000E+00
    0.19767E-09         0.11358E-08         0.00000E+00
    0.15024E-09         0.12276E-08         0.00000E+00
    0.10076E-09         0.12895E-08         0.00000E+00
    0.50480E-10         0.13276E-08         0.00000E+00
    0.39735E-12         0.13469E-08         0.00000E+00
   -0.48724E-10         0.13519E-08         0.00000E+00
   -0.96316E-10         0.13462E-08         0.00000E+00
   -0.14197E-09         0.13324E-08         0.00000E+00
   -0.18543E-09         0.13129E-08         0.00000E+00
   -0.22652E-09         0.12893E-08         0.00000E+00
   -0.26519E-09         0.12631E-08         0.00000E+00
   -0.30143E-09         0.12353E-08         0.00000E+00
   -0.33533E-09         0.12066E-08         0.00000E+00
   -0.36701E-09         0.11778E-08         0.00000E+00
   -0.39662E-09         0.11492E-08         0.00000E+00
   -0.42438E-09         0.11212E-08         0.00000E+00
   -0.45050E-09         0.10941E-08         0.00000E+00
   -0.47525E-09         0.10681E-08         0.00000E+00
   -0.49887E-09         0.10434E-08         0.00000E+00
   -0.52167E-09         0.10201E-08         0.00000E+00
   -0.54392E-09         0.99821E-09         0.00000E+00
   -0.56594E-09         0.97774E-09         0.00000E+00
   -0.58801E-09         0.95869E-09         0.00000E+00
   -0.61043E-09         0.94098E-09         0.00000E+00
   -0.63351E-09         0.92451E-09         0.00000E+00
   -0.65753E-09         0.90912E-09         0.00000E+00
   -0.68277E-09         0.89465E-09         0.00000E+00
   -0.70948E-09         0.88084E-09         0.00000E+00
   -0.73791E-09         0.86743E-09         0.00000E+00
   -0.76827E-09         0.85407E-09         0.00000E+00
   -0.80072E-09         0.84038E-09         0.00000E+00
   -0.83541E-09         0.82589E-09         0.00000E+00
   -0.87240E-09         0.81006E-09         0.00000E+00
   -0.91171E-09         0.79226E-09         0.00000E+00
   -0.95324E-09         0.77172E-09         0.00000E+00
   -0.99681E-09         0.74757E-09         0.00000E+00
   -0.10421E-08         0.71878E-09         0.00000E+00
   -0.10886E-08         0.68415E-09         0.00000E+00
   -0.11356E-08         0.64227E-09         0.00000E+00
   -0.11822E-08         0.59157E-09         0.00000E+00
   -0.12272E-08         0.53027E-09         0.00000E+00
   -0.12691E-08         0.45649E-09         0.00000E+00
   -0.13060E-08         0.36822E-09         0.00000E+00
   -0.13358E-08         0.26354E-09         0.00000E+00
   -0.13558E-08         0.14069E-09         0.00000E+00
   -0.13634E-08         0.74525E-10         0.00000E+00
    0.32028E-09         0.18449E-09         0.00000E+00
    0.31250E-09         0.34646E-09         0.00000E+00
    0.29124E-09         0.63867E-09         0.00000E+00
    0.25941E-09         0.87064E-09         0.00000E+00
    0.21964E-09         0.10493E-08         0.00000E+00
    0.17424E-09         0.11822E-08         0.00000E+00
    0.12516E-09         0.12768E-08         0.00000E+00
    0.74059E-10         0.13401E-08         0.00000E+00
    0.22245E-10         0.13784E-08         0.00000E+00
   -0.29224E-10         0.13972E-08         0.00000E+00
   -0.79540E-10         0.14008E-08         0.00000E+00
   -0.12810E-09         0.13932E-08         0.00000E+00
   -0.17447E-09         0.13772E-08         0.00000E+00
   -0.21837E-09         0.13553E-08         0.00000E+00
   -0.25964E-09         0.13292E-08         0.00000E+00
   -0.29821E-09         0.13005E-08         0.00000E+00
   -0.33411E-09         0.12702E-08         0.00000E+00
   -0.36741E-09         0.12391E-08         0.00000E+00
   -0.39825E-09         0.12080E-08         0.00000E+00
   -0.42684E-09         0.11773E-08         0.00000E+00
   -0.45338E-09         0.11475E-08         0.00000E+00
   -0.47815E-09         0.11189E-08         0.00000E+00
   -0.50141E-09         0.10916E-08         0.00000E+00
   -0.52347E-09         0.10659E-08         0.00000E+00
   -0.54465E-09         0.10419E-08         0.00000E+00
   -0.56526E-09         0.10196E-08         0.00000E+00
   -0.58565E-09         0.99906E-09         0.00000E+00
   -0.60614E-09         0.98025E-09         0.00000E+00
   -0.62708E-09         0.96309E-09         0.00000E+00
   -0.64879E-09         0.94749E-09         0.00000E+00
   -0.67159E-09         0.93327E-09         0.00000E+00
   -0.69581E-09         0.92024E-09         0.00000E+00
   -0.72172E-09         0.90815E-09         0.00000E+00
   -0.74961E-09         0.89669E-09         0.00000E+00
   -0.77972E-09         0.88549E-09         0.00000E+00
   -0.81225E-09         0.87413E-09         0.00000E+00
   -0.84736E-09         0.86208E-09         0.00000E+00
   -0.88515E-09         0.84874E-09         0.00000E+00
   -0.92564E-09         0.83339E-09         0.00000E+00
   -0.96875E-09         0.81517E-09         0.00000E+00
   -0.10143E-08         0.79308E-09         0.00000E+00
   -0.10619E-08         0.76593E-09         0.00000E+00
   -0.11111E-08         0.73231E-09         0.00000E+00
   -0.11611E-08         0.69060E-09         0.00000E+00
   -0.12109E-08         0.63896E-09         0.00000E+00
   -0.12592E-08         0.57531E-09         0.00000E+00
   -0.13044E-08         0.49740E-09         0.00000E+00
   -0.13443E-08         0.40290E-09         0.00000E+00
   -0.13766E-08         0.28950E-09         0.00000E+00
   -0.13984E-08         0.15510E-09         0.00000E+00
   -0.14066E-08         0.82403E-10         0.00000E+00
    0.30023E-09         0.19241E-09         0.00000E+00
    0.29213E-09         0.36126E-09         0.00000E+00
    0.27000E-09         0.66573E-09         0.00000E+00
    0.23689E-09         0.90712E-09         0.00000E+00
    0.19555E-09         0.10927E-08         0.00000E+00
    0.14840E-09         0.12303E-08         0.00000E+00
    0.97513E-10         0.13278E-08         0.00000E+00
    0.44622E-10         0.13924E-08         0.00000E+00
   -0.88676E-11         0.14308E-08         0.00000E+00
   -0.61839E-10         0.14487E-08         0.00000E+00
   -0.11343E-09         0.14508E-08         0.00000E+00
   -0.16300E-09         0.14411E-08         0.00000E+00
   -0.21009E-09         0.14227E-08         0.00000E+00
   -0.25440E-09         0.13980E-08         0.00000E+00
   -0.29577E-09         0.13692E-08         0.00000E+00
   -0.33413E-09         0.13376E-08         0.00000E+00
   -0.36951E-09         0.13045E-08         0.00000E+00
   -0.40202E-09         0.12708E-08         0.00000E+00
   -0.43182E-09         0.12372E-08         0.00000E+00
   -0.45912E-09         0.12043E-08         0.00000E+00
   -0.48419E-09         0.11725E-08         0.00000E+00
   -0.50730E-09         0.11421E-08         0.00000E+00
   -0.52878E-09         0.11135E-08         0.00000E+00
   -0.54896E-09         0.10867E-08         0.00000E+00
   -0.56818E-09         0.10619E-08         0.00000E+00
   -0.58682E-09         0.10392E-08         0.00000E+00
   -0.60525E-09         0.10186E-08         0.00000E+00
   -0.62383E-09         0.10001E-08         0.00000E+00
   -0.64294E-09         0.98362E-09         0.00000E+00
   -0.66295E-09         0.96902E-09         0.00000E+00
   -0.68422E-09         0.95614E-09         0.00000E+00
   -0.70710E-09         0.94478E-09         0.00000E+00
   -0.73193E-09         0.93465E-09         0.00000E+00
   -0.75900E-09         0.92542E-09         0.00000E+00
   -0.78860E-09         0.91671E-09         0.00000E+00
   -0.82098E-09         0.90802E-09         0.00000E+00
   -0.85631E-09         0.89879E-09         0.00000E+00
   -0.89473E-09         0.88834E-09         0.00000E+00
   -0.93628E-09         0.87586E-09         0.00000E+00
   -0.98089E-09         0.86038E-09         0.00000E+00
   -0.10284E-08         0.84075E-09         0.00000E+00
   -0.10784E-08         0.81561E-09         0.00000E+00
   -0.11303E-08         0.78335E-09         0.00000E+00
   -0.11834E-08         0.74209E-09         0.00000E+00
   -0.12365E-08         0.68967E-09         0.00000E+00
   -0.12883E-08         0.62369E-09         0.00000E+00
   -0.13368E-08         0.54152E-09         0.00000E+00
   -0.13799E-08         0.44041E-09         0.00000E+00
   -0.14148E-08         0.31765E-09         0.00000E+00
   -0.14385E-08         0.17076E-09         0.00000E+00
   -0.14475E-08         0.90984E-10         0.00000E+00
    0.27828E-09         0.20067E-09         0.00000E+00
    0.26983E-09         0.37669E-09         0.00000E+00
    0.24673E-09         0.69391E-09         0.00000E+00
    0.21218E-09         0.94510E-09         0.00000E+00
    0.16907E-09         0.11378E-08         0.00000E+00
    0.11997E-09         0.12803E-08         0.00000E+00
    0.67065E-10         0.13806E-08         0.00000E+00
    0.12196E-10         0.14465E-08         0.00000E+00
   -0.43141E-10         0.14849E-08         0.00000E+00
   -0.97751E-10         0.15017E-08         0.00000E+00
   -0.15071E-09         0.15020E-08         0.00000E+00
   -0.20135E-09         0.14899E-08         0.00000E+00
   -0.24916E-09         0.14686E-08         0.00000E+00
   -0.29384E-09         0.14410E-08         0.00000E+00
   -0.33522E-09         0.14090E-08         0.00000E+00
   -0.37323E-09         0.13742E-08         0.00000E+00
   -0.40793E-09         0.13381E-08         0.00000E+00
   -0.43944E-09         0.13014E-08         0.00000E+00
   -0.46794E-09         0.12651E-08         0.00000E+00
   -0.49369E-09         0.12297E-08         0.00000E+00
   -0.51697E-09         0.11957E-08         0.00000E+00
   -0.53811E-09         0.11635E-08         0.00000E+00
   -0.55746E-09         0.11333E-08         0.00000E+00
   -0.57539E-09         0.11053E-08         0.00000E+00
   -0.59230E-09         0.10798E-08         0.00000E+00
   -0.60860E-09         0.10567E-08         0.00000E+00
   -0.62468E-09         0.10361E-08         0.00000E+00
   -0.64097E-09         0.10179E-08         0.00000E+00
   -0.65788E-09         0.10022E-08         0.00000E+00
   -0.67583E-09         0.98877E-09         0.00000E+00
   -0.69520E-09         0.97742E-09         0.00000E+00
   -0.71640E-09         0.96794E-09         0.00000E+00
   -0.73980E-09         0.96004E-09         0.00000E+00
   -0.76575E-09         0.95336E-09         0.00000E+00
   -0.79456E-09         0.94747E-09         0.00000E+00
   -0.82651E-09         0.94184E-09         0.00000E+00
   -0.86184E-09         0.93583E-09         0.00000E+00
   -0.90069E-09         0.92871E-09         0.00000E+00
   -0.94313E-09         0.91955E-09         0.00000E+00
   -0.98911E-09         0.90726E-09         0.00000E+00
   -0.10384E-08         0.89055E-09         0.00000E+00
   -0.10908E-08         0.86786E-09         0.00000E+00
   -0.11455E-08         0.83733E-09         0.00000E+00
   -0.12017E-08         0.79682E-09         0.00000E+00
   -0.12583E-08         0.74383E-09         0.00000E+00
   -0.13136E-08         0.67558E-09         0.00000E+00
   -0.13657E-08         0.58901E-09         0.00000E+00
   -0.14121E-08         0.48092E-09         0.00000E+00
   -0.14499E-08         0.34814E-09         0.00000E+00
   -0.14756E-08         0.18775E-09         0.00000E+00
   -0.14853E-08         0.10032E-09         0.00000E+00
    0.25439E-09         0.20931E-09         0.00000E+00
    0.24553E-09         0.39281E-09         0.00000E+00
    0.22133E-09         0.72338E-09         0.00000E+00
    0.18515E-09         0.98478E-09         0.00000E+00
    0.14004E-09         0.11849E-08         0.00000E+00
    0.88740E-10         0.13323E-08         0.00000E+00
    0.33567E-10         0.14356E-08         0.00000E+00
   -0.23516E-10         0.15026E-08         0.00000E+00
   -0.80903E-10         0.15408E-08         0.00000E+00
   -0.13732E-09         0.15563E-08         0.00000E+00
   -0.19177E-09         0.15544E-08         0.00000E+00
   -0.24353E-09         0.15395E-08         0.00000E+00
   -0.29207E-09         0.15151E-08         0.00000E+00
   -0.33708E-09         0.14841E-08         0.00000E+00
   -0.37836E-09         0.14485E-08         0.00000E+00
   -0.41588E-09         0.14103E-08         0.00000E+00
   -0.44970E-09         0.13707E-08         0.00000E+00
   -0.47996E-09         0.13308E-08         0.00000E+00
   -0.50688E-09         0.12914E-08         0.00000E+00
   -0.53076E-09         0.12533E-08         0.00000E+00
   -0.55192E-09         0.12169E-08         0.00000E+00
   -0.57071E-09         0.11826E-08         0.00000E+00
   -0.58755E-09         0.11507E-08         0.00000E+00
   -0.60285E-09         0.11215E-08         0.00000E+00
   -0.61704E-09         0.10951E-08         0.00000E+00
   -0.63057E-09         0.10716E-08         0.00000E+00
   -0.64390E-09         0.10510E-08         0.00000E+00
   -0.65748E-09         0.10333E-08         0.00000E+00
   -0.67178E-09         0.10185E-08         0.00000E+00
   -0.68724E-09         0.10063E-08         0.00000E+00
   -0.70432E-09         0.99672E-09         0.00000E+00
   -0.72345E-09         0.98937E-09         0.00000E+00
   -0.74504E-09         0.98399E-09         0.00000E+00
   -0.76950E-09         0.98018E-09         0.00000E+00
   -0.79718E-09         0.97748E-09         0.00000E+00
   -0.82841E-09         0.97530E-09         0.00000E+00
   -0.86345E-09         0.97297E-09         0.00000E+00
   -0.90248E-09         0.96963E-09         0.00000E+00
   -0.94561E-09         0.96428E-09         0.00000E+00
   -0.99281E-09         0.95570E-09         0.00000E+00
   -0.10439E-08         0.94241E-09         0.00000E+00
   -0.10985E-08         0.92264E-09         0.00000E+00
   -0.11560E-08         0.89429E-09         0.00000E+00
   -0.12154E-08         0.85488E-09         0.00000E+00
   -0.12755E-08         0.80156E-09         0.00000E+00
   -0.13345E-08         0.73112E-09         0.00000E+00
   -0.13903E-08         0.64003E-09         0.00000E+00
   -0.14402E-08         0.52458E-09         0.00000E+00
   -0.14810E-08         0.38110E-09         0.00000E+00
   -0.15088E-08         0.20617E-09         0.00000E+00
   -0.15193E-08         0.11045E-09         0.00000E+00
    0.22845E-09         0.21839E-09         0.00000E+00
    0.21913E-09         0.40974E-09         0.00000E+00
    0.19367E-09         0.75430E-09         0.00000E+00
    0.15563E-09         0.10264E-08         0.00000E+00
    0.10826E-09         0.12342E-08         0.00000E+00
    0.54454E-10         0.13868E-08         0.00000E+00
   -0.32877E-11         0.14929E-08         0.00000E+00
   -0.62861E-10         0.15610E-08         0.00000E+00
   -0.12254E-09         0.15987E-08         0.00000E+00
   -0.18095E-09         0.16126E-08         0.00000E+00
   -0.23703E-09         0.16082E-08         0.00000E+00
   -0.28999E-09         0.15902E-08         0.00000E+00
   -0.33927E-09         0.15622E-08         0.00000E+00
   -0.38454E-09         0.15273E-08         0.00000E+00
   -0.42562E-09         0.14878E-08         0.00000E+00
   -0.46246E-09         0.14456E-08         0.00000E+00
   -0.49516E-09         0.14021E-08         0.00000E+00
   -0.52390E-09         0.13586E-08         0.00000E+00
   -0.54894E-09         0.13159E-08         0.00000E+00
   -0.57059E-09         0.12747E-08         0.00000E+00
   -0.58923E-09         0.12357E-08         0.00000E+00
   -0.60528E-09         0.11991E-08         0.00000E+00
   -0.61918E-09         0.11654E-08         0.00000E+00
   -0.63140E-09         0.11348E-08         0.00000E+00
   -0.64242E-09         0.11075E-08         0.00000E+00
   -0.65273E-09         0.10835E-08         0.00000E+00
   -0.66284E-09         0.10630E-08         0.00000E+00
   -0.67325E-09         0.10458E-08         0.00000E+00
   -0.68448E-09         0.10320E-08         0.00000E+00
   -0.69701E-09         0.10213E-08         0.00000E+00
   -0.71134E-09         0.10136E-08         0.00000E+00
   -0.72796E-09         0.10087E-08         0.00000E+00
   -0.74733E-09         0.10061E-08         0.00000E+00
   -0.76989E-09         0.10055E-08         0.00000E+00
   -0.79606E-09         0.10064E-08         0.00000E+00
   -0.82620E-09         0.10081E-08         0.00000E+00
   -0.86062E-09         0.10099E-08         0.00000E+00
   -0.89955E-09         0.10109E-08         0.00000E+00
   -0.94312E-09         0.10099E-08         0.00000E+00
   -0.99133E-09         0.10055E-08         0.00000E+00
   -0.10440E-08         0.99623E-09         0.00000E+00
   -0.11008E-08         0.97991E-09         0.00000E+00
   -0.11610E-08         0.95422E-09         0.00000E+00
   -0.12236E-08         0.91632E-09         0.00000E+00
   -0.12873E-08         0.86297E-09         0.00000E+00
   -0.13501E-08         0.79045E-09         0.00000E+00
   -0.14098E-08         0.69474E-09         0.00000E+00
   -0.14634E-08         0.57157E-09         0.00000E+00
   -0.15073E-08         0.41668E-09         0.00000E+00
   -0.15373E-08         0.22610E-09         0.00000E+00
   -0.15488E-08         0.12143E-09         0.00000E+00
    0.20038E-09         0.22795E-09         0.00000E+00
    0.19053E-09         0.42759E-09         0.00000E+00
    0.16362E-09         0.78689E-09         0.00000E+00
    0.12344E-09         0.10702E-08         0.00000E+00
    0.73468E-10         0.12861E-08         0.00000E+00
    0.16804E-10         0.14439E-08         0.00000E+00
   -0.43860E-10         0.15529E-08         0.00000E+00
   -0.10625E-09         0.16219E-08         0.00000E+00
   -0.16851E-09         0.16589E-08         0.00000E+00
   -0.22914E-09         0.16708E-08         0.00000E+00
   -0.28700E-09         0.16635E-08         0.00000E+00
   -0.34124E-09         0.16418E-08         0.00000E+00
   -0.39127E-09         0.16097E-08         0.00000E+00
   -0.43674E-09         0.15704E-08         0.00000E+00
   -0.47746E-09         0.15265E-08         0.00000E+00
   -0.51343E-09         0.14798E-08         0.00000E+00
   -0.54475E-09         0.14321E-08         0.00000E+00
   -0.57165E-09         0.13846E-08         0.00000E+00
   -0.59443E-09         0.13381E-08         0.00000E+00
   -0.61345E-09         0.12936E-08         0.00000E+00
   -0.62916E-09         0.12516E-08         0.00000E+00
   -0.64201E-09         0.12126E-08         0.00000E+00
   -0.65249E-09         0.11769E-08         0.00000E+00
   -0.66114E-09         0.11448E-08         0.00000E+00
   -0.66849E-09         0.11164E-08         0.00000E+00
   -0.67507E-09         0.10920E-08         0.00000E+00
   -0.68146E-09         0.10715E-08         0.00000E+00
   -0.68819E-09         0.10550E-08         0.00000E+00
   -0.69583E-09         0.10422E-08         0.00000E+00
   -0.70492E-09         0.10332E-08         0.00000E+00
   -0.71601E-09         0.10277E-08         0.00000E+00
   -0.72963E-09         0.10254E-08         0.00000E+00
   -0.74630E-09         0.10259E-08         0.00000E+00
   -0.76652E-09         0.10289E-08         0.00000E+00
   -0.79073E-09         0.10338E-08         0.00000E+00
   -0.81937E-09         0.10399E-08         0.00000E+00
   -0.85279E-09         0.10463E-08         0.00000E+00
   -0.89126E-09         0.10521E-08         0.00000E+00
   -0.93497E-09         0.10561E-08         0.00000E+00
   -0.98394E-09         0.10566E-08         0.00000E+00
   -0.10380E-08         0.10519E-08         0.00000E+00
   -0.10968E-08         0.10396E-08         0.00000E+00
   -0.11596E-08         0.10171E-08         0.00000E+00
   -0.12254E-08         0.98118E-09         0.00000E+00
   -0.12927E-08         0.92812E-09         0.00000E+00
   -0.13595E-08         0.85371E-09         0.00000E+00
   -0.14233E-08         0.75331E-09         0.00000E+00
   -0.14807E-08         0.62204E-09         0.00000E+00
   -0.15278E-08         0.45500E-09         0.00000E+00
   -0.15602E-08         0.24763E-09         0.00000E+00
   -0.15726E-08         0.13332E-09         0.00000E+00
    0.17005E-09         0.23809E-09         0.00000E+00
    0.15958E-09         0.44650E-09         0.00000E+00
    0.13099E-09         0.82139E-09         0.00000E+00
    0.88345E-10         0.11165E-08         0.00000E+00
    0.35371E-10         0.13409E-08         0.00000E+00
   -0.24577E-10         0.15041E-08         0.00000E+00
   -0.88584E-10         0.16159E-08         0.00000E+00
   -0.15418E-09         0.16856E-08         0.00000E+00
   -0.21935E-09         0.17216E-08         0.00000E+00
   -0.28246E-09         0.17311E-08         0.00000E+00
   -0.34228E-09         0.17203E-08         0.00000E+00
   -0.39789E-09         0.16944E-08         0.00000E+00
   -0.44866E-09         0.16577E-08         0.00000E+00
   -0.49424E-09         0.16135E-08         0.00000E+00
   -0.53444E-09         0.15645E-08         0.00000E+00
   -0.56928E-09         0.15129E-08         0.00000E+00
   -0.59892E-09         0.14604E-08         0.00000E+00
   -0.62361E-09         0.14083E-08         0.00000E+00
   -0.64371E-09         0.13577E-08         0.00000E+00
   -0.65966E-09         0.13095E-08         0.00000E+00
   -0.67194E-09         0.12642E-08         0.00000E+00
   -0.68107E-09         0.12224E-08         0.00000E+00
   -0.68762E-09         0.11845E-08         0.00000E+00
   -0.69216E-09         0.11508E-08         0.00000E+00
   -0.69528E-09         0.11214E-08         0.00000E+00
   -0.69759E-09         0.10965E-08         0.00000E+00
   -0.69968E-09         0.10761E-08         0.00000E+00
   -0.70217E-09         0.10602E-08         0.00000E+00
   -0.70567E-09         0.10487E-08         0.00000E+00
   -0.71077E-09         0.10415E-08         0.00000E+00
   -0.71807E-09         0.10383E-08         0.00000E+00
   -0.72816E-09         0.10390E-08         0.00000E+00
   -0.74160E-09         0.10430E-08         0.00000E+00
   -0.75894E-09         0.10499E-08         0.00000E+00
   -0.78071E-09         0.10592E-08         0.00000E+00
   -0.80737E-09         0.10702E-08         0.00000E+00
   -0.83934E-09         0.10818E-08         0.00000E+00
   -0.87696E-09         0.10931E-08         0.00000E+00
   -0.92043E-09         0.11026E-08         0.00000E+00
   -0.96984E-09         0.11086E-08         0.00000E+00
   -0.10250E-08         0.11091E-08         0.00000E+00
   -0.10857E-08         0.11015E-08         0.00000E+00
   -0.11510E-08         0.10829E-08         0.00000E+00
   -0.12199E-08         0.10494E-08         0.00000E+00
   -0.12909E-08         0.99708E-09         0.00000E+00
   -0.13617E-08         0.92098E-09         0.00000E+00
   -0.14295E-08         0.81587E-09         0.00000E+00
   -0.14909E-08         0.67615E-09         0.00000E+00
   -0.15415E-08         0.49622E-09         0.00000E+00
   -0.15763E-08         0.27084E-09         0.00000E+00
   -0.15897E-08         0.14616E-09         0.00000E+00
    0.13729E-09         0.24888E-09         0.00000E+00
    0.12611E-09         0.46664E-09         0.00000E+00
    0.95570E-10         0.85812E-09         0.00000E+00
    0.50050E-10         0.11658E-08         0.00000E+00
   -0.64002E-11         0.13990E-08         0.00000E+00
   -0.70139E-10         0.15678E-08         0.00000E+00
   -0.13799E-09         0.16825E-08         0.00000E+00
   -0.20725E-09         0.17527E-08         0.00000E+00
   -0.27570E-09         0.17872E-08         0.00000E+00
   -0.34159E-09         0.17937E-08         0.00000E+00
   -0.40355E-09         0.17789E-08         0.00000E+00
   -0.46062E-09         0.17482E-08         0.00000E+00
   -0.51212E-09         0.17061E-08         0.00000E+00
   -0.55769E-09         0.16562E-08         0.00000E+00
   -0.59716E-09         0.16015E-08         0.00000E+00
   -0.63059E-09         0.15443E-08         0.00000E+00
   -0.65817E-09         0.14865E-08         0.00000E+00
   -0.68023E-09         0.14294E-08         0.00000E+00
   -0.69719E-09         0.13742E-08         0.00000E+00
   -0.70954E-09         0.13218E-08         0.00000E+00
   -0.71785E-09         0.12730E-08         0.00000E+00
   -0.72270E-09         0.12282E-08         0.00000E+00
   -0.72472E-09         0.11879E-08         0.00000E+00
   -0.72454E-09         0.11524E-08         0.00000E+00
   -0.72284E-09         0.11219E-08         0.00000E+00
   -0.72025E-09         0.10964E-08         0.00000E+00
   -0.71744E-09         0.10761E-08         0.00000E+00
   -0.71509E-09         0.10609E-08         0.00000E+00
   -0.71383E-09         0.10508E-08         0.00000E+00
   -0.71433E-09         0.10456E-08         0.00000E+00
   -0.71724E-09         0.10451E-08         0.00000E+00
   -0.72319E-09         0.10489E-08         0.00000E+00
   -0.73282E-09         0.10567E-08         0.00000E+00
   -0.74672E-09         0.10680E-08         0.00000E+00
   -0.76547E-09         0.10822E-08         0.00000E+00
   -0.78961E-09         0.10985E-08         0.00000E+00
   -0.81963E-09         0.11159E-08         0.00000E+00
   -0.85589E-09         0.11332E-08         0.00000E+00
   -0.89869E-09         0.11489E-08         0.00000E+00
   -0.94814E-09         0.11612E-08         0.00000E+00
   -0.10041E-08         0.11677E-08         0.00000E+00
   -0.10663E-08         0.11655E-08         0.00000E+00
   -0.11339E-08         0.11514E-08         0.00000E+00
   -0.12059E-08         0.11210E-08         0.00000E+00
   -0.12804E-08         0.10699E-08         0.00000E+00
   -0.13552E-08         0.99235E-09         0.00000E+00
   -0.14273E-08         0.88253E-09         0.00000E+00
   -0.14927E-08         0.73404E-09         0.00000E+00
   -0.15469E-08         0.54047E-09         0.00000E+00
   -0.15844E-08         0.29583E-09         0.00000E+00
   -0.15988E-08         0.16002E-09         0.00000E+00
    0.10191E-09         0.26046E-09         0.00000E+00
    0.89880E-10         0.48822E-09         0.00000E+00
    0.57060E-10         0.89744E-09         0.00000E+00
    0.81914E-11         0.12185E-08         0.00000E+00
   -0.52304E-10         0.14611E-08         0.00000E+00
   -0.12043E-09         0.16357E-08         0.00000E+00
   -0.19270E-09         0.17530E-08         0.00000E+00
   -0.26615E-09         0.18234E-08         0.00000E+00
   -0.33833E-09         0.18559E-08         0.00000E+00
   -0.40732E-09         0.18589E-08         0.00000E+00
   -0.47164E-09         0.18393E-08         0.00000E+00
   -0.53025E-09         0.18030E-08         0.00000E+00
   -0.58244E-09         0.17547E-08         0.00000E+00
   -0.62784E-09         0.16985E-08         0.00000E+00
   -0.66633E-09         0.16374E-08         0.00000E+00
   -0.69799E-09         0.15739E-08         0.00000E+00
   -0.72308E-09         0.15100E-08         0.00000E+00
   -0.74201E-09         0.14473E-08         0.00000E+00
   -0.75527E-09         0.13870E-08         0.00000E+00
   -0.76344E-09         0.13301E-08         0.00000E+00
   -0.76716E-09         0.12774E-08         0.00000E+00
   -0.76709E-09         0.12293E-08         0.00000E+00
   -0.76392E-09         0.11864E-08         0.00000E+00
   -0.75838E-09         0.11489E-08         0.00000E+00
   -0.75118E-09         0.11171E-08         0.00000E+00
   -0.74303E-09         0.10911E-08         0.00000E+00
   -0.73467E-09         0.10709E-08         0.00000E+00
   -0.72679E-09         0.10566E-08         0.00000E+00
   -0.72012E-09         0.10480E-08         0.00000E+00
   -0.71537E-09         0.10449E-08         0.00000E+00
   -0.71322E-09         0.10472E-08         0.00000E+00
   -0.71439E-09         0.10545E-08         0.00000E+00
   -0.71954E-09         0.10665E-08         0.00000E+00
   -0.72935E-09         0.10826E-08         0.00000E+00
   -0.74446E-09         0.11021E-08         0.00000E+00
   -0.76547E-09         0.11243E-08         0.00000E+00
   -0.79293E-09         0.11481E-08         0.00000E+00
   -0.82728E-09         0.11721E-08         0.00000E+00
   -0.86888E-09         0.11948E-08         0.00000E+00
   -0.91789E-09         0.12140E-08         0.00000E+00
   -0.97426E-09         0.12273E-08         0.00000E+00
   -0.10376E-08         0.12313E-08         0.00000E+00
   -0.11073E-08         0.12224E-08         0.00000E+00
   -0.11820E-08         0.11959E-08         0.00000E+00
   -0.12600E-08         0.11464E-08         0.00000E+00
   -0.13388E-08         0.10678E-08         0.00000E+00
   -0.14151E-08         0.95338E-09         0.00000E+00
   -0.14847E-08         0.79582E-09         0.00000E+00
   -0.15426E-08         0.58787E-09         0.00000E+00
   -0.15828E-08         0.32267E-09         0.00000E+00
   -0.15983E-08         0.17495E-09         0.00000E+00
    0.63621E-10         0.27294E-09         0.00000E+00
    0.50601E-10         0.51149E-09         0.00000E+00
    0.15099E-10         0.93981E-09         0.00000E+00
   -0.37696E-10         0.12752E-08         0.00000E+00
   -0.10291E-09         0.15276E-08         0.00000E+00
   -0.17614E-09         0.17082E-08         0.00000E+00
   -0.25351E-09         0.18282E-08         0.00000E+00
   -0.33174E-09         0.18983E-08         0.00000E+00
   -0.40814E-09         0.19283E-08         0.00000E+00
   -0.48059E-09         0.19270E-08         0.00000E+00
   -0.54748E-09         0.19018E-08         0.00000E+00
   -0.60769E-09         0.18590E-08         0.00000E+00
   -0.66050E-09         0.18036E-08         0.00000E+00
   -0.70552E-09         0.17401E-08         0.00000E+00
   -0.74269E-09         0.16717E-08         0.00000E+00
   -0.77215E-09         0.16011E-08         0.00000E+00
   -0.79425E-09         0.15305E-08         0.00000E+00
   -0.80947E-09         0.14615E-08         0.00000E+00
   -0.81840E-09         0.13956E-08         0.00000E+00
   -0.82172E-09         0.13337E-08         0.00000E+00
   -0.82015E-09         0.12766E-08         0.00000E+00
   -0.81444E-09         0.12250E-08         0.00000E+00
   -0.80538E-09         0.11792E-08         0.00000E+00
   -0.79374E-09         0.11397E-08         0.00000E+00
   -0.78032E-09         0.11065E-08         0.00000E+00
   -0.76589E-09         0.10799E-08         0.00000E+00
   -0.75124E-09         0.10599E-08         0.00000E+00
   -0.73713E-09         0.10464E-08         0.00000E+00
   -0.72433E-09         0.10394E-08         0.00000E+00
   -0.71360E-09         0.10387E-08         0.00000E+00
   -0.70569E-09         0.10441E-08         0.00000E+00
   -0.70135E-09         0.10552E-08         0.00000E+00
   -0.70132E-09         0.10717E-08         0.00000E+00
   -0.70634E-09         0.10929E-08         0.00000E+00
   -0.71709E-09         0.11183E-08         0.00000E+00
   -0.73427E-09         0.11470E-08         0.00000E+00
   -0.75848E-09         0.11777E-08         0.00000E+00
   -0.79027E-09         0.12092E-08         0.00000E+00
   -0.83003E-09         0.12396E-08         0.00000E+00
   -0.87802E-09         0.12666E-08         0.00000E+00
   -0.93422E-09         0.12874E-08         0.00000E+00
   -0.99834E-09         0.12986E-08         0.00000E+00
   -0.10696E-08         0.12957E-08         0.00000E+00
   -0.11469E-08         0.12738E-08         0.00000E+00
   -0.12281E-08         0.12266E-08         0.00000E+00
   -0.13108E-08         0.11474E-08         0.00000E+00
   -0.13913E-08         0.10285E-08         0.00000E+00
   -0.14652E-08         0.86159E-09         0.00000E+00
   -0.15269E-08         0.63852E-09         0.00000E+00
   -0.15698E-08         0.35144E-09         0.00000E+00
   -0.15864E-08         0.19098E-09         0.00000E+00
    0.22069E-10         0.28649E-09         0.00000E+00
    0.78765E-11         0.53675E-09         0.00000E+00
   -0.30792E-10         0.98574E-09         0.00000E+00
   -0.88201E-10         0.13365E-08         0.00000E+00
   -0.15894E-09         0.15995E-08         0.00000E+00
   -0.23809E-09         0.17863E-08         0.00000E+00
   -0.32135E-09         0.19086E-08         0.00000E+00
   -0.40506E-09         0.19780E-08         0.00000E+00
   -0.48623E-09         0.20048E-08         0.00000E+00
   -0.56252E-09         0.19983E-08         0.00000E+00
   -0.63219E-09         0.19664E-08         0.00000E+00
   -0.69403E-09         0.19160E-08         0.00000E+00
   -0.74730E-09         0.18526E-08         0.00000E+00
   -0.79167E-09         0.17807E-08         0.00000E+00
   -0.82710E-09         0.17040E-08         0.00000E+00
   -0.85384E-09         0.16254E-08         0.00000E+00
   -0.87232E-09         0.15473E-08         0.00000E+00
   -0.88315E-09         0.14715E-08         0.00000E+00
   -0.88703E-09         0.13993E-08         0.00000E+00
   -0.88473E-09         0.13319E-08         0.00000E+00
   -0.87708E-09         0.12701E-08         0.00000E+00
   -0.86495E-09         0.12145E-08         0.00000E+00
   -0.84918E-09         0.11657E-08         0.00000E+00
   -0.83066E-09         0.11239E-08         0.00000E+00
   -0.81023E-09         0.10893E-08         0.00000E+00
   -0.78874E-09         0.10620E-08         0.00000E+00
   -0.76702E-09         0.10422E-08         0.00000E+00
   -0.74591E-09         0.10297E-08         0.00000E+00
   -0.72621E-09         0.10244E-08         0.00000E+00
   -0.70873E-09         0.10263E-08         0.00000E+00
   -0.69429E-09         0.10350E-08         0.00000E+00
   -0.68367E-09         0.10502E-08         0.00000E+00
   -0.67768E-09         0.10715E-08         0.00000E+00
   -0.67710E-09         0.10984E-08         0.00000E+00
   -0.68272E-09         0.11301E-08         0.00000E+00
   -0.69528E-09         0.11657E-08         0.00000E+00
   -0.71547E-09         0.12041E-08         0.00000E+00
   -0.74391E-09         0.12437E-08         0.00000E+00
   -0.78110E-09         0.12825E-08         0.00000E+00
   -0.82736E-09         0.13182E-08         0.00000E+00
   -0.88275E-09         0.13476E-08         0.00000E+00
   -0.94702E-09         0.13667E-08         0.00000E+00
   -0.10194E-08         0.13709E-08         0.00000E+00
   -0.10988E-08         0.13544E-08         0.00000E+00
   -0.11830E-08         0.13103E-08         0.00000E+00
   -0.12693E-08         0.12310E-08         0.00000E+00
   -0.13540E-08         0.11078E-08         0.00000E+00
   -0.14320E-08         0.93139E-09         0.00000E+00
   -0.14976E-08         0.69249E-09         0.00000E+00
   -0.15433E-08         0.38221E-09         0.00000E+00
   -0.15611E-08         0.20818E-09         0.00000E+00
   -0.23230E-10         0.30132E-09         0.00000E+00
   -0.38815E-10         0.56435E-09         0.00000E+00
   -0.81232E-10         0.10359E-08         0.00000E+00
   -0.14408E-09         0.14033E-08         0.00000E+00
   -0.22129E-09         0.16775E-08         0.00000E+00
   -0.30735E-09         0.18706E-08         0.00000E+00
   -0.39740E-09         0.19952E-08         0.00000E+00
   -0.48735E-09         0.20632E-08         0.00000E+00
   -0.57388E-09         0.20858E-08         0.00000E+00
   -0.65440E-09         0.20730E-08         0.00000E+00
   -0.72702E-09         0.20333E-08         0.00000E+00
   -0.79047E-09         0.19741E-08         0.00000E+00
   -0.84399E-09         0.19013E-08         0.00000E+00
   -0.88731E-09         0.18199E-08         0.00000E+00
   -0.92047E-09         0.17338E-08         0.00000E+00
   -0.94383E-09         0.16463E-08         0.00000E+00
   -0.95796E-09         0.15598E-08         0.00000E+00
   -0.96360E-09         0.14763E-08         0.00000E+00
   -0.96156E-09         0.13972E-08         0.00000E+00
   -0.95278E-09         0.13238E-08         0.00000E+00
   -0.93818E-09         0.12569E-08         0.00000E+00
   -0.91873E-09         0.11971E-08         0.00000E+00
   -0.89539E-09         0.11449E-08         0.00000E+00
   -0.86911E-09         0.11007E-08         0.00000E+00
   -0.84081E-09         0.10646E-08         0.00000E+00
   -0.81142E-09         0.10367E-08         0.00000E+00
   -0.78181E-09         0.10170E-08         0.00000E+00
   -0.75287E-09         0.10056E-08         0.00000E+00
   -0.72545E-09         0.10022E-08         0.00000E+00
   -0.70042E-09         0.10068E-08         0.00000E+00
   -0.67861E-09         0.10190E-08         0.00000E+00
   -0.66088E-09         0.10386E-08         0.00000E+00
   -0.64808E-09         0.10651E-08         0.00000E+00
   -0.64105E-09         0.10980E-08         0.00000E+00
   -0.64065E-09         0.11365E-08         0.00000E+00
   -0.64770E-09         0.11797E-08         0.00000E+00
   -0.66298E-09         0.12263E-08         0.00000E+00
   -0.68719E-09         0.12748E-08         0.00000E+00
   -0.72093E-09         0.13230E-08         0.00000E+00
   -0.76461E-09         0.13682E-08         0.00000E+00
   -0.81839E-09         0.14071E-08         0.00000E+00
   -0.88207E-09         0.14353E-08         0.00000E+00
   -0.95498E-09         0.14475E-08         0.00000E+00
   -0.10358E-08         0.14373E-08         0.00000E+00
   -0.11226E-08         0.13972E-08         0.00000E+00
   -0.12122E-08         0.13184E-08         0.00000E+00
   -0.13008E-08         0.11912E-08         0.00000E+00
   -0.13829E-08         0.10052E-08         0.00000E+00
   -0.14523E-08         0.74982E-09         0.00000E+00
   -0.15009E-08         0.41502E-09         0.00000E+00
   -0.15199E-08         0.22656E-09         0.00000E+00
   -0.72917E-10         0.31767E-09         0.00000E+00
   -0.90161E-10         0.59475E-09         0.00000E+00
   -0.13703E-09         0.10910E-08         0.00000E+00
   -0.20630E-09         0.14766E-08         0.00000E+00
   -0.29110E-09         0.17628E-08         0.00000E+00
   -0.38518E-09         0.19624E-08         0.00000E+00
   -0.48306E-09         0.20886E-08         0.00000E+00
   -0.58011E-09         0.21545E-08         0.00000E+00
   -0.67262E-09         0.21718E-08         0.00000E+00
   -0.75775E-09         0.21514E-08         0.00000E+00
   -0.83344E-09         0.21025E-08         0.00000E+00
   -0.89837E-09         0.20330E-08         0.00000E+00
   -0.95181E-09         0.19494E-08         0.00000E+00
   -0.99354E-09         0.18572E-08         0.00000E+00
   -0.10237E-08         0.17605E-08         0.00000E+00
   -0.10429E-08         0.16629E-08         0.00000E+00
   -0.10518E-08         0.15671E-08         0.00000E+00
   -0.10513E-08         0.14751E-08         0.00000E+00
   -0.10424E-08         0.13885E-08         0.00000E+00
   -0.10261E-08         0.13085E-08         0.00000E+00
   -0.10036E-08         0.12360E-08         0.00000E+00
   -0.97582E-09         0.11718E-08         0.00000E+00
   -0.94394E-09         0.11161E-08         0.00000E+00
   -0.90897E-09         0.10693E-08         0.00000E+00
   -0.87189E-09         0.10316E-08         0.00000E+00
   -0.83370E-09         0.10030E-08         0.00000E+00
   -0.79533E-09         0.98363E-09         0.00000E+00
   -0.75769E-09         0.97331E-09         0.00000E+00
   -0.72169E-09         0.97197E-09         0.00000E+00
   -0.68822E-09         0.97942E-09         0.00000E+00
   -0.65818E-09         0.99541E-09         0.00000E+00
   -0.63244E-09         0.10196E-08         0.00000E+00
   -0.61191E-09         0.10517E-08         0.00000E+00
   -0.59751E-09         0.10909E-08         0.00000E+00
   -0.59013E-09         0.11367E-08         0.00000E+00
   -0.59068E-09         0.11880E-08         0.00000E+00
   -0.60003E-09         0.12436E-08         0.00000E+00
   -0.61899E-09         0.13016E-08         0.00000E+00
   -0.64825E-09         0.13600E-08         0.00000E+00
   -0.68835E-09         0.14157E-08         0.00000E+00
   -0.73953E-09         0.14650E-08         0.00000E+00
   -0.80170E-09         0.15033E-08         0.00000E+00
   -0.87423E-09         0.15247E-08         0.00000E+00
   -0.95585E-09         0.15220E-08         0.00000E+00
   -0.10445E-08         0.14867E-08         0.00000E+00
   -0.11370E-08         0.14092E-08         0.00000E+00
   -0.12290E-08         0.12785E-08         0.00000E+00
   -0.13151E-08         0.10829E-08         0.00000E+00
   -0.13881E-08         0.81048E-09         0.00000E+00
   -0.14396E-08         0.44986E-09         0.00000E+00
   -0.14598E-08         0.24615E-09         0.00000E+00
   -0.12784E-09         0.33581E-09         0.00000E+00
   -0.14707E-09         0.62846E-09         0.00000E+00
   -0.19924E-09         0.11520E-08         0.00000E+00
   -0.27610E-09         0.15574E-08         0.00000E+00
   -0.36981E-09         0.18564E-08         0.00000E+00
   -0.47321E-09         0.20626E-08         0.00000E+00
   -0.58005E-09         0.21901E-08         0.00000E+00
   -0.68512E-09         0.22527E-08         0.00000E+00
   -0.78425E-09         0.22634E-08         0.00000E+00
   -0.87431E-09         0.22338E-08         0.00000E+00
   -0.95310E-09         0.21739E-08         0.00000E+00
   -0.10192E-08         0.20924E-08         0.00000E+00
   -0.10721E-08         0.19965E-08         0.00000E+00
   -0.11115E-08         0.18918E-08         0.00000E+00
   -0.11379E-08         0.17832E-08         0.00000E+00
   -0.11519E-08         0.16744E-08         0.00000E+00
   -0.11545E-08         0.15682E-08         0.00000E+00
   -0.11467E-08         0.14668E-08         0.00000E+00
   -0.11297E-08         0.13720E-08         0.00000E+00
   -0.11048E-08         0.12850E-08         0.00000E+00
   -0.10732E-08         0.12066E-08         0.00000E+00
   -0.10361E-08         0.11375E-08         0.00000E+00
   -0.99464E-09         0.10781E-08         0.00000E+00
   -0.94996E-09         0.10287E-08         0.00000E+00
   -0.90314E-09         0.98933E-09         0.00000E+00
   -0.85520E-09         0.96013E-09         0.00000E+00
   -0.80713E-09         0.94103E-09         0.00000E+00
   -0.75989E-09         0.93195E-09         0.00000E+00
   -0.71441E-09         0.93276E-09         0.00000E+00
   -0.67161E-09         0.94327E-09         0.00000E+00
   -0.63240E-09         0.96323E-09         0.00000E+00
   -0.59772E-09         0.99234E-09         0.00000E+00
   -0.56849E-09         0.10302E-08         0.00000E+00
   -0.54569E-09         0.10762E-08         0.00000E+00
   -0.53028E-09         0.11297E-08         0.00000E+00
   -0.52323E-09         0.11896E-08         0.00000E+00
   -0.52552E-09         0.12547E-08         0.00000E+00
   -0.53805E-09         0.13230E-08         0.00000E+00
   -0.56165E-09         0.13924E-08         0.00000E+00
   -0.59695E-09         0.14595E-08         0.00000E+00
   -0.64435E-09         0.15204E-08         0.00000E+00
   -0.70385E-09         0.15699E-08         0.00000E+00
   -0.77493E-09         0.16016E-08         0.00000E+00
   -0.85634E-09         0.16075E-08         0.00000E+00
   -0.94598E-09         0.15783E-08         0.00000E+00
   -0.10406E-08         0.15030E-08         0.00000E+00
   -0.11357E-08         0.13694E-08         0.00000E+00
   -0.12252E-08         0.11643E-08         0.00000E+00
   -0.13017E-08         0.87435E-09         0.00000E+00
   -0.13560E-08         0.48672E-09         0.00000E+00
   -0.13773E-08         0.26694E-09         0.00000E+00
   -0.18914E-09         0.35613E-09         0.00000E+00
   -0.21075E-09         0.66614E-09         0.00000E+00
   -0.26923E-09         0.12200E-08         0.00000E+00
   -0.35508E-09         0.16472E-08         0.00000E+00
   -0.45922E-09         0.19599E-08         0.00000E+00
   -0.57340E-09         0.21726E-08         0.00000E+00
   -0.69048E-09         0.23006E-08         0.00000E+00
   -0.80451E-09         0.23587E-08         0.00000E+00
   -0.91085E-09         0.23610E-08         0.00000E+00
   -0.10061E-08         0.23203E-08         0.00000E+00
   -0.10878E-08         0.22474E-08         0.00000E+00
   -0.11547E-08         0.21520E-08         0.00000E+00
   -0.12062E-08         0.20417E-08         0.00000E+00
   -0.12424E-08         0.19230E-08         0.00000E+00
   -0.12638E-08         0.18009E-08         0.00000E+00
   -0.12714E-08         0.16795E-08         0.00000E+00
   -0.12663E-08         0.15619E-08         0.00000E+00
   -0.12500E-08         0.14503E-08         0.00000E+00
   -0.12237E-08         0.13466E-08         0.00000E+00
   -0.11889E-08         0.12520E-08         0.00000E+00
   -0.11469E-08         0.11673E-08         0.00000E+00
   -0.10992E-08         0.10932E-08         0.00000E+00
   -0.10470E-08         0.10299E-08         0.00000E+00
   -0.99158E-09         0.97779E-09         0.00000E+00
   -0.93397E-09         0.93682E-09         0.00000E+00
   -0.87530E-09         0.90702E-09         0.00000E+00
   -0.81659E-09         0.88832E-09         0.00000E+00
   -0.75881E-09         0.88059E-09         0.00000E+00
   -0.70291E-09         0.88368E-09         0.00000E+00
   -0.64984E-09         0.89741E-09         0.00000E+00
   -0.60053E-09         0.92152E-09         0.00000E+00
   -0.55591E-09         0.95573E-09         0.00000E+00
   -0.51696E-09         0.99964E-09         0.00000E+00
   -0.48468E-09         0.10527E-08         0.00000E+00
   -0.46009E-09         0.11143E-08         0.00000E+00
   -0.44424E-09         0.11833E-08         0.00000E+00
   -0.43819E-09         0.12584E-08         0.00000E+00
   -0.44296E-09         0.13378E-08         0.00000E+00
   -0.45949E-09         0.14189E-08         0.00000E+00
   -0.48858E-09         0.14984E-08         0.00000E+00
   -0.53076E-09         0.15719E-08         0.00000E+00
   -0.58618E-09         0.16339E-08         0.00000E+00
   -0.65444E-09         0.16772E-08         0.00000E+00
   -0.73439E-09         0.16930E-08         0.00000E+00
   -0.82390E-09         0.16710E-08         0.00000E+00
   -0.91966E-09         0.15989E-08         0.00000E+00
   -0.10169E-08         0.14632E-08         0.00000E+00
   -0.11094E-08         0.12489E-08         0.00000E+00
   -0.11889E-08         0.94121E-09         0.00000E+00
   -0.12457E-08         0.52549E-09         0.00000E+00
   -0.12682E-08         0.28890E-09         0.00000E+00
   -0.25831E-09         0.37904E-09         0.00000E+00
   -0.28278E-09         0.70855E-09         0.00000E+00
   -0.34880E-09         0.12963E-08         0.00000E+00
   -0.44526E-09         0.17474E-08         0.00000E+00
   -0.56158E-09         0.20747E-08         0.00000E+00
   -0.68818E-09         0.22938E-08         0.00000E+00
   -0.81682E-09         0.24212E-08         0.00000E+00
   -0.94075E-09         0.24731E-08         0.00000E+00
   -0.10548E-08         0.24650E-08         0.00000E+00
   -0.11552E-08         0.24107E-08         0.00000E+00
   -0.12395E-08         0.23226E-08         0.00000E+00
   -0.13064E-08         0.22108E-08         0.00000E+00
   -0.13555E-08         0.20841E-08         0.00000E+00
   -0.13871E-08         0.19494E-08         0.00000E+00
   -0.14021E-08         0.18122E-08         0.00000E+00
   -0.14018E-08         0.16769E-08         0.00000E+00
   -0.13875E-08         0.15467E-08         0.00000E+00
   -0.13610E-08         0.14241E-08         0.00000E+00
   -0.13239E-08         0.13109E-08         0.00000E+00
   -0.12777E-08         0.12082E-08         0.00000E+00
   -0.12241E-08         0.11170E-08         0.00000E+00
   -0.11645E-08         0.10376E-08         0.00000E+00
   -0.11003E-08         0.97043E-09         0.00000E+00
   -0.10329E-08         0.91559E-09         0.00000E+00
   -0.96348E-09         0.87305E-09         0.00000E+00
   -0.89306E-09         0.84274E-09         0.00000E+00
   -0.82272E-09         0.82454E-09         0.00000E+00
   -0.75345E-09         0.81828E-09         0.00000E+00
   -0.68621E-09         0.82380E-09         0.00000E+00
   -0.62192E-09         0.84088E-09         0.00000E+00
   -0.56152E-09         0.86930E-09         0.00000E+00
   -0.50596E-09         0.90878E-09         0.00000E+00
   -0.45621E-09         0.95895E-09         0.00000E+00
   -0.41331E-09         0.10193E-08         0.00000E+00
   -0.37831E-09         0.10892E-08         0.00000E+00
   -0.35234E-09         0.11677E-08         0.00000E+00
   -0.33653E-09         0.12534E-08         0.00000E+00
   -0.33202E-09         0.13443E-08         0.00000E+00
   -0.33990E-09         0.14380E-08         0.00000E+00
   -0.36110E-09         0.15308E-08         0.00000E+00
   -0.39634E-09         0.16180E-08         0.00000E+00
   -0.44596E-09         0.16936E-08         0.00000E+00
   -0.50970E-09         0.17498E-08         0.00000E+00
   -0.58656E-09         0.17770E-08         0.00000E+00
   -0.67446E-09         0.17636E-08         0.00000E+00
   -0.77005E-09         0.16960E-08         0.00000E+00
   -0.86843E-09         0.15591E-08         0.00000E+00
   -0.96291E-09         0.13363E-08         0.00000E+00
   -0.10449E-08         0.10107E-08         0.00000E+00
   -0.11039E-08         0.56600E-09         0.00000E+00
   -0.11274E-08         0.31194E-09         0.00000E+00
   -0.33733E-09         0.40507E-09         0.00000E+00
   -0.36525E-09         0.75663E-09         0.00000E+00
   -0.44026E-09         0.13825E-08         0.00000E+00
   -0.54923E-09         0.18599E-08         0.00000E+00
   -0.67970E-09         0.22028E-08         0.00000E+00
   -0.82047E-09         0.24278E-08         0.00000E+00
   -0.96201E-09         0.25531E-08         0.00000E+00
   -0.10967E-08         0.25967E-08         0.00000E+00
   -0.12187E-08         0.25754E-08         0.00000E+00
   -0.13239E-08         0.25049E-08         0.00000E+00
   -0.14100E-08         0.23986E-08         0.00000E+00
   -0.14758E-08         0.22680E-08         0.00000E+00
   -0.15210E-08         0.21224E-08         0.00000E+00
   -0.15464E-08         0.19696E-08         0.00000E+00
   -0.15532E-08         0.18156E-08         0.00000E+00
   -0.15430E-08         0.16649E-08         0.00000E+00
   -0.15177E-08         0.15211E-08         0.00000E+00
   -0.14792E-08         0.13866E-08         0.00000E+00
   -0.14295E-08         0.12633E-08         0.00000E+00
   -0.13703E-08         0.11522E-08         0.00000E+00
   -0.13034E-08         0.10541E-08         0.00000E+00
   -0.12305E-08         0.96946E-09         0.00000E+00
   -0.11532E-08         0.89840E-09         0.00000E+00
   -0.10727E-08         0.84092E-09         0.00000E+00
   -0.99022E-09         0.79693E-09         0.00000E+00
   -0.90701E-09         0.76626E-09         0.00000E+00
   -0.82407E-09         0.74872E-09         0.00000E+00
   -0.74237E-09         0.74408E-09         0.00000E+00
   -0.66284E-09         0.75215E-09         0.00000E+00
   -0.58640E-09         0.77272E-09         0.00000E+00
   -0.51394E-09         0.80556E-09         0.00000E+00
   -0.44641E-09         0.85042E-09         0.00000E+00
   -0.38477E-09         0.90699E-09         0.00000E+00
   -0.33006E-09         0.97482E-09         0.00000E+00
   -0.28336E-09         0.10533E-08         0.00000E+00
   -0.24584E-09         0.11415E-08         0.00000E+00
   -0.21872E-09         0.12381E-08         0.00000E+00
   -0.20323E-09         0.13411E-08         0.00000E+00
   -0.20061E-09         0.14479E-08         0.00000E+00
   -0.21198E-09         0.15548E-08         0.00000E+00
   -0.23824E-09         0.16568E-08         0.00000E+00
   -0.27996E-09         0.17473E-08         0.00000E+00
   -0.33709E-09         0.18178E-08         0.00000E+00
   -0.40881E-09         0.18578E-08         0.00000E+00
   -0.49319E-09         0.18545E-08         0.00000E+00
   -0.58688E-09         0.17929E-08         0.00000E+00
   -0.68488E-09         0.16560E-08         0.00000E+00
   -0.78020E-09         0.14254E-08         0.00000E+00
   -0.86376E-09         0.10822E-08         0.00000E+00
   -0.92435E-09         0.60795E-09         0.00000E+00
   -0.94868E-09         0.33591E-09         0.00000E+00
   -0.42879E-09         0.43488E-09         0.00000E+00
   -0.46087E-09         0.81149E-09         0.00000E+00
   -0.54658E-09         0.14803E-08         0.00000E+00
   -0.67023E-09         0.19868E-08         0.00000E+00
   -0.81700E-09         0.23460E-08         0.00000E+00
   -0.97373E-09         0.25762E-08         0.00000E+00
   -0.11294E-08         0.26974E-08         0.00000E+00
   -0.12754E-08         0.27298E-08         0.00000E+00
   -0.14052E-08         0.26922E-08         0.00000E+00
   -0.15146E-08         0.26021E-08         0.00000E+00
   -0.16012E-08         0.24744E-08         0.00000E+00
   -0.16641E-08         0.23218E-08         0.00000E+00
   -0.17034E-08         0.21548E-08         0.00000E+00
   -0.17204E-08         0.19816E-08         0.00000E+00
   -0.17167E-08         0.18089E-08         0.00000E+00
   -0.16944E-08         0.16415E-08         0.00000E+00
   -0.16558E-08         0.14829E-08         0.00000E+00
   -0.16032E-08         0.13359E-08         0.00000E+00
   -0.15388E-08         0.12019E-08         0.00000E+00
   -0.14647E-08         0.10822E-08         0.00000E+00
   -0.13830E-08         0.97724E-09         0.00000E+00
   -0.12953E-08         0.88736E-09         0.00000E+00
   -0.12033E-08         0.81254E-09         0.00000E+00
   -0.11085E-08         0.75263E-09         0.00000E+00
   -0.10120E-08         0.70741E-09         0.00000E+00
   -0.91494E-09         0.67659E-09         0.00000E+00
   -0.81844E-09         0.65990E-09         0.00000E+00
   -0.72340E-09         0.65706E-09         0.00000E+00
   -0.63069E-09         0.66782E-09         0.00000E+00
   -0.54117E-09         0.69198E-09         0.00000E+00
   -0.45572E-09         0.72931E-09         0.00000E+00
   -0.37520E-09         0.77960E-09         0.00000E+00
   -0.30057E-09         0.84260E-09         0.00000E+00
   -0.23283E-09         0.91792E-09         0.00000E+00
   -0.17308E-09         0.10050E-08         0.00000E+00
   -0.12250E-09         0.11031E-08         0.00000E+00
   -0.82371E-10         0.12108E-08         0.00000E+00
   -0.54034E-10         0.13262E-08         0.00000E+00
   -0.38850E-10         0.14467E-08         0.00000E+00
   -0.38129E-10         0.15684E-08         0.00000E+00
   -0.53009E-10         0.16860E-08         0.00000E+00
   -0.84297E-10         0.17925E-08         0.00000E+00
   -0.13225E-09         0.18787E-08         0.00000E+00
   -0.19629E-09         0.19331E-08         0.00000E+00
   -0.27471E-09         0.19417E-08         0.00000E+00
   -0.36429E-09         0.18877E-08         0.00000E+00
   -0.45995E-09         0.17524E-08         0.00000E+00
   -0.55451E-09         0.15152E-08         0.00000E+00
   -0.63845E-09         0.11548E-08         0.00000E+00
   -0.69991E-09         0.65092E-09         0.00000E+00
   -0.72479E-09         0.36060E-09         0.00000E+00
   -0.53606E-09         0.46923E-09         0.00000E+00
   -0.57313E-09         0.87442E-09         0.00000E+00
   -0.67153E-09         0.15919E-08         0.00000E+00
   -0.81225E-09         0.21303E-08         0.00000E+00
   -0.97756E-09         0.25063E-08         0.00000E+00
   -0.11520E-08         0.27403E-08         0.00000E+00
   -0.13227E-08         0.28548E-08         0.00000E+00
   -0.14801E-08         0.28724E-08         0.00000E+00
   -0.16170E-08         0.28147E-08         0.00000E+00
   -0.17292E-08         0.27010E-08         0.00000E+00
   -0.18142E-08         0.25481E-08         0.00000E+00
   -0.18717E-08         0.23701E-08         0.00000E+00
   -0.19025E-08         0.21787E-08         0.00000E+00
   -0.19081E-08         0.19829E-08         0.00000E+00
   -0.18911E-08         0.17896E-08         0.00000E+00
   -0.18539E-08         0.16041E-08         0.00000E+00
   -0.17993E-08         0.14299E-08         0.00000E+00
   -0.17301E-08         0.12696E-08         0.00000E+00
   -0.16489E-08         0.11248E-08         0.00000E+00
   -0.15579E-08         0.99639E-09         0.00000E+00
   -0.14595E-08         0.88471E-09         0.00000E+00
   -0.13554E-08         0.78982E-09         0.00000E+00
   -0.12475E-08         0.71154E-09         0.00000E+00
   -0.11370E-08         0.64954E-09         0.00000E+00
   -0.10253E-08         0.60341E-09         0.00000E+00
   -0.91351E-09         0.57275E-09         0.00000E+00
   -0.80255E-09         0.55717E-09         0.00000E+00
   -0.69330E-09         0.55633E-09         0.00000E+00
   -0.58657E-09         0.56993E-09         0.00000E+00
   -0.48315E-09         0.59775E-09         0.00000E+00
   -0.38380E-09         0.63959E-09         0.00000E+00
   -0.28934E-09         0.69528E-09         0.00000E+00
   -0.20065E-09         0.76462E-09         0.00000E+00
   -0.11868E-09         0.84733E-09         0.00000E+00
   -0.44489E-10         0.94296E-09         0.00000E+00
    0.20728E-10         0.10508E-08         0.00000E+00
    0.75666E-10         0.11696E-08         0.00000E+00
    0.11891E-09         0.12976E-08         0.00000E+00
    0.14897E-09         0.14320E-08         0.00000E+00
    0.16434E-09         0.15690E-08         0.00000E+00
    0.16365E-09         0.17030E-08         0.00000E+00
    0.14578E-09         0.18265E-08         0.00000E+00
    0.11012E-09         0.19298E-08         0.00000E+00
    0.56888E-10         0.20002E-08         0.00000E+00
   -0.12539E-10         0.20225E-08         0.00000E+00
   -0.95172E-10         0.19781E-08         0.00000E+00
   -0.18602E-09         0.18462E-08         0.00000E+00
   -0.27775E-09         0.16039E-08         0.00000E+00
   -0.36049E-09         0.12276E-08         0.00000E+00
   -0.42179E-09         0.69429E-09         0.00000E+00
   -0.44685E-09         0.38568E-09         0.00000E+00
   -0.66345E-09         0.50902E-09         0.00000E+00
   -0.70650E-09         0.94695E-09         0.00000E+00
   -0.81980E-09         0.17194E-08         0.00000E+00
   -0.98012E-09         0.22929E-08         0.00000E+00
   -0.11661E-08         0.26857E-08         0.00000E+00
   -0.13596E-08         0.29213E-08         0.00000E+00
   -0.15458E-08         0.30255E-08         0.00000E+00
   -0.17138E-08         0.30240E-08         0.00000E+00
   -0.18562E-08         0.29413E-08         0.00000E+00
   -0.19686E-08         0.27993E-08         0.00000E+00
   -0.20492E-08         0.26170E-08         0.00000E+00
   -0.20979E-08         0.24100E-08         0.00000E+00
   -0.21164E-08         0.21912E-08         0.00000E+00
   -0.21072E-08         0.19702E-08         0.00000E+00
   -0.20732E-08         0.17546E-08         0.00000E+00
   -0.20177E-08         0.15497E-08         0.00000E+00
   -0.19441E-08         0.13592E-08         0.00000E+00
   -0.18555E-08         0.11854E-08         0.00000E+00
   -0.17549E-08         0.10297E-08         0.00000E+00
   -0.16449E-08         0.89281E-09         0.00000E+00
   -0.15279E-08         0.77476E-09         0.00000E+00
   -0.14058E-08         0.67533E-09         0.00000E+00
   -0.12804E-08         0.59409E-09         0.00000E+00
   -0.11531E-08         0.53048E-09         0.00000E+00
   -0.10252E-08         0.48392E-09         0.00000E+00
   -0.89773E-09         0.45382E-09         0.00000E+00
   -0.77149E-09         0.43969E-09         0.00000E+00
   -0.64729E-09         0.44108E-09         0.00000E+00
   -0.52582E-09         0.45767E-09         0.00000E+00
   -0.40774E-09         0.48920E-09         0.00000E+00
   -0.29372E-09         0.53550E-09         0.00000E+00
   -0.18444E-09         0.59645E-09         0.00000E+00
   -0.80684E-10         0.67193E-09         0.00000E+00
    0.16683E-10         0.76176E-09         0.00000E+00
    0.10667E-09         0.86562E-09         0.00000E+00
    0.18813E-09         0.98291E-09         0.00000E+00
    0.25976E-09         0.11126E-08         0.00000E+00
    0.32010E-09         0.12529E-08         0.00000E+00
    0.36756E-09         0.14013E-08         0.00000E+00
    0.40048E-09         0.15537E-08         0.00000E+00
    0.41719E-09         0.17046E-08         0.00000E+00
    0.41625E-09         0.18460E-08         0.00000E+00
    0.39661E-09         0.19676E-08         0.00000E+00
    0.35800E-09         0.20558E-08         0.00000E+00
    0.30130E-09         0.20937E-08         0.00000E+00
    0.22910E-09         0.20612E-08         0.00000E+00
    0.14616E-09         0.19350E-08         0.00000E+00
    0.59825E-10         0.16896E-08         0.00000E+00
   -0.19735E-10         0.12989E-08         0.00000E+00
   -0.79587E-10         0.73728E-09         0.00000E+00
   -0.10433E-09         0.41072E-09         0.00000E+00
   -0.81633E-09         0.55532E-09         0.00000E+00
   -0.86647E-09         0.10308E-08         0.00000E+00
   -0.99705E-09         0.18655E-08         0.00000E+00
   -0.11794E-08         0.24767E-08         0.00000E+00
   -0.13879E-08         0.28858E-08         0.00000E+00
   -0.16010E-08         0.31199E-08         0.00000E+00
   -0.18020E-08         0.32090E-08         0.00000E+00
   -0.19788E-08         0.31829E-08         0.00000E+00
   -0.21236E-08         0.30695E-08         0.00000E+00
   -0.22325E-08         0.28939E-08         0.00000E+00
   -0.23041E-08         0.26774E-08         0.00000E+00
   -0.23395E-08         0.24374E-08         0.00000E+00
   -0.23411E-08         0.21880E-08         0.00000E+00
   -0.23124E-08         0.19396E-08         0.00000E+00
   -0.22571E-08         0.17001E-08         0.00000E+00
   -0.21794E-08         0.14750E-08         0.00000E+00
   -0.20832E-08         0.12677E-08         0.00000E+00
   -0.19721E-08         0.10804E-08         0.00000E+00
   -0.18493E-08         0.91421E-09         0.00000E+00
   -0.17179E-08         0.76935E-09         0.00000E+00
   -0.15803E-08         0.64559E-09         0.00000E+00
   -0.14386E-08         0.54235E-09         0.00000E+00
   -0.12944E-08         0.45890E-09         0.00000E+00
   -0.11492E-08         0.39439E-09         0.00000E+00
   -0.10042E-08         0.34801E-09         0.00000E+00
   -0.86023E-09         0.31901E-09         0.00000E+00
   -0.71806E-09         0.30673E-09         0.00000E+00
   -0.57830E-09         0.31066E-09         0.00000E+00
   -0.44151E-09         0.33038E-09         0.00000E+00
   -0.30819E-09         0.36564E-09         0.00000E+00
   -0.17884E-09         0.41629E-09         0.00000E+00
   -0.54014E-10         0.48224E-09         0.00000E+00
    0.65678E-10         0.56349E-09         0.00000E+00
    0.17950E-09         0.65998E-09         0.00000E+00
    0.28656E-09         0.77152E-09         0.00000E+00
    0.38583E-09         0.89769E-09         0.00000E+00
    0.47605E-09         0.10376E-08         0.00000E+00
    0.55578E-09         0.11898E-08         0.00000E+00
    0.62335E-09         0.13517E-08         0.00000E+00
    0.67697E-09         0.15194E-08         0.00000E+00
    0.71473E-09         0.16872E-08         0.00000E+00
    0.73477E-09         0.18471E-08         0.00000E+00
    0.73553E-09         0.19880E-08         0.00000E+00
    0.71609E-09         0.20956E-08         0.00000E+00
    0.67665E-09         0.21514E-08         0.00000E+00
    0.61912E-09         0.21333E-08         0.00000E+00
    0.54781E-09         0.20155E-08         0.00000E+00
    0.46994E-09         0.17698E-08         0.00000E+00
    0.39586E-09         0.13670E-08         0.00000E+00
    0.33898E-09         0.77888E-09         0.00000E+00
    0.31516E-09         0.43517E-09         0.00000E+00
   -0.10012E-08         0.60928E-09         0.00000E+00
   -0.10596E-08         0.11277E-08         0.00000E+00
   -0.12098E-08         0.20324E-08         0.00000E+00
   -0.14163E-08         0.26837E-08         0.00000E+00
   -0.16481E-08         0.31073E-08         0.00000E+00
   -0.18801E-08         0.33354E-08         0.00000E+00
   -0.20935E-08         0.34032E-08         0.00000E+00
   -0.22752E-08         0.33457E-08         0.00000E+00
   -0.24177E-08         0.31951E-08         0.00000E+00
   -0.25174E-08         0.29798E-08         0.00000E+00
   -0.25741E-08         0.27240E-08         0.00000E+00
   -0.25899E-08         0.24470E-08         0.00000E+00
   -0.25687E-08         0.21640E-08         0.00000E+00
   -0.25148E-08         0.18862E-08         0.00000E+00
   -0.24331E-08         0.16217E-08         0.00000E+00
   -0.23286E-08         0.13758E-08         0.00000E+00
   -0.22057E-08         0.11518E-08         0.00000E+00
   -0.20686E-08         0.95157E-09         0.00000E+00
   -0.19208E-08         0.77562E-09         0.00000E+00
   -0.17656E-08         0.62379E-09         0.00000E+00
   -0.16054E-08         0.49538E-09         0.00000E+00
   -0.14424E-08         0.38941E-09         0.00000E+00
   -0.12783E-08         0.30476E-09         0.00000E+00
   -0.11142E-08         0.24029E-09         0.00000E+00
   -0.95129E-09         0.19491E-09         0.00000E+00
   -0.79026E-09         0.16767E-09         0.00000E+00
   -0.63168E-09         0.15776E-09         0.00000E+00
   -0.47599E-09         0.16454E-09         0.00000E+00
   -0.32352E-09         0.18756E-09         0.00000E+00
   -0.17458E-09         0.22653E-09         0.00000E+00
   -0.29474E-10         0.28133E-09         0.00000E+00
    0.11145E-09         0.35193E-09         0.00000E+00
    0.24776E-09         0.43842E-09         0.00000E+00
    0.37891E-09         0.54087E-09         0.00000E+00
    0.50419E-09         0.65928E-09         0.00000E+00
    0.62272E-09         0.79342E-09         0.00000E+00
    0.73336E-09         0.94263E-09         0.00000E+00
    0.83475E-09         0.11056E-08         0.00000E+00
    0.92524E-09         0.12801E-08         0.00000E+00
    0.10029E-08         0.14624E-08         0.00000E+00
    0.10657E-08         0.16468E-08         0.00000E+00
    0.11113E-08         0.18252E-08         0.00000E+00
    0.11375E-08         0.19862E-08         0.00000E+00
    0.11426E-08         0.21146E-08         0.00000E+00
    0.11259E-08         0.21907E-08         0.00000E+00
    0.10880E-08         0.21900E-08         0.00000E+00
    0.10327E-08         0.20842E-08         0.00000E+00
    0.96661E-09         0.18416E-08         0.00000E+00
    0.90046E-09         0.14298E-08         0.00000E+00
    0.84811E-09         0.81798E-09         0.00000E+00
    0.82584E-09         0.45837E-09         0.00000E+00
   -0.12256E-08         0.67214E-09         0.00000E+00
   -0.12934E-08         0.12394E-08         0.00000E+00
   -0.14651E-08         0.22222E-08         0.00000E+00
   -0.16966E-08         0.29150E-08         0.00000E+00
   -0.19509E-08         0.33496E-08         0.00000E+00
   -0.21989E-08         0.35653E-08         0.00000E+00
   -0.24198E-08         0.36041E-08         0.00000E+00
   -0.26001E-08         0.35071E-08         0.00000E+00
   -0.27327E-08         0.33116E-08         0.00000E+00
   -0.28151E-08         0.30503E-08         0.00000E+00
   -0.28487E-08         0.27499E-08         0.00000E+00
   -0.28371E-08         0.24320E-08         0.00000E+00
   -0.27855E-08         0.21128E-08         0.00000E+00
   -0.26997E-08         0.18041E-08         0.00000E+00
   -0.25857E-08         0.15139E-08         0.00000E+00
   -0.24491E-08         0.12475E-08         0.00000E+00
   -0.22951E-08         0.10077E-08         0.00000E+00
   -0.21283E-08         0.79558E-09         0.00000E+00
   -0.19525E-08         0.61126E-09         0.00000E+00
   -0.17711E-08         0.45396E-09         0.00000E+00
   -0.15865E-08         0.32242E-09         0.00000E+00
   -0.14008E-08         0.21517E-09         0.00000E+00
   -0.12156E-08         0.13067E-09         0.00000E+00
   -0.10320E-08         0.67423E-10         0.00000E+00
   -0.85066E-09         0.24061E-10         0.00000E+00
   -0.67227E-09        -0.60301E-12         0.00000E+00
   -0.49710E-09        -0.75433E-11         0.00000E+00
   -0.32535E-09         0.24899E-11         0.00000E+00
   -0.15712E-09         0.28973E-10         0.00000E+00
    0.75324E-11         0.71599E-10         0.00000E+00
    0.16854E-09         0.13026E-09         0.00000E+00
    0.32581E-09         0.20501E-09         0.00000E+00
    0.47915E-09         0.29603E-09         0.00000E+00
    0.62825E-09         0.40354E-09         0.00000E+00
    0.77265E-09         0.52771E-09         0.00000E+00
    0.91165E-09         0.66852E-09         0.00000E+00
    0.10444E-08         0.82560E-09         0.00000E+00
    0.11695E-08         0.99791E-09         0.00000E+00
    0.12857E-08         0.11835E-08         0.00000E+00
    0.13909E-08         0.13789E-08         0.00000E+00
    0.14828E-08         0.15788E-08         0.00000E+00
    0.15590E-08         0.17752E-08         0.00000E+00
    0.16164E-08         0.19567E-08         0.00000E+00
    0.16523E-08         0.21072E-08         0.00000E+00
    0.16644E-08         0.22060E-08         0.00000E+00
    0.16521E-08         0.22265E-08         0.00000E+00
    0.16175E-08         0.21369E-08         0.00000E+00
    0.15666E-08         0.19020E-08         0.00000E+00
    0.15104E-08         0.14855E-08         0.00000E+00
    0.14637E-08         0.85350E-09         0.00000E+00
    0.14434E-08         0.47971E-09         0.00000E+00
   -0.14972E-08         0.74497E-09         0.00000E+00
   -0.15754E-08         0.13672E-08         0.00000E+00
   -0.17694E-08         0.24356E-08         0.00000E+00
   -0.20249E-08         0.31695E-08         0.00000E+00
   -0.22979E-08         0.36095E-08         0.00000E+00
   -0.25555E-08         0.38043E-08         0.00000E+00
   -0.27754E-08         0.38045E-08         0.00000E+00
   -0.29443E-08         0.36586E-08         0.00000E+00
   -0.30561E-08         0.34100E-08         0.00000E+00
   -0.31103E-08         0.30959E-08         0.00000E+00
   -0.31101E-08         0.27460E-08         0.00000E+00
   -0.30611E-08         0.23839E-08         0.00000E+00
   -0.29702E-08         0.20266E-08         0.00000E+00
   -0.28445E-08         0.16863E-08         0.00000E+00
   -0.26912E-08         0.13710E-08         0.00000E+00
   -0.25168E-08         0.10851E-08         0.00000E+00
   -0.23270E-08         0.83102E-09         0.00000E+00
   -0.21268E-08         0.60904E-09         0.00000E+00
   -0.19201E-08         0.41845E-09         0.00000E+00
   -0.17102E-08         0.25778E-09         0.00000E+00
   -0.14996E-08         0.12515E-09         0.00000E+00
   -0.12902E-08         0.18519E-10         0.00000E+00
   -0.10832E-08        -0.64125E-10         0.00000E+00
   -0.87956E-09        -0.12467E-09         0.00000E+00
   -0.67975E-09        -0.16478E-09         0.00000E+00
   -0.48405E-09        -0.18590E-09         0.00000E+00
   -0.29247E-09        -0.18916E-09         0.00000E+00
   -0.10492E-09        -0.17544E-09         0.00000E+00
    0.78780E-10        -0.14532E-09         0.00000E+00
    0.25887E-09        -0.99127E-10         0.00000E+00
    0.43558E-09        -0.36954E-10         0.00000E+00
    0.60909E-09         0.41322E-10         0.00000E+00
    0.77950E-09         0.13598E-09         0.00000E+00
    0.94680E-09         0.24738E-09         0.00000E+00
    0.11108E-08         0.37588E-09         0.00000E+00
    0.12712E-08         0.52171E-09         0.00000E+00
    0.14272E-08         0.68474E-09         0.00000E+00
    0.15780E-08         0.86430E-09         0.00000E+00
    0.17223E-08         0.10588E-08         0.00000E+00
    0.18582E-08         0.12652E-08         0.00000E+00
    0.19835E-08         0.14787E-08         0.00000E+00
    0.20954E-08         0.16917E-08         0.00000E+00
    0.21901E-08         0.18929E-08         0.00000E+00
    0.22638E-08         0.20666E-08         0.00000E+00
    0.23121E-08         0.21908E-08         0.00000E+00
    0.23319E-08         0.22370E-08         0.00000E+00
    0.23229E-08         0.21697E-08         0.00000E+00
    0.22897E-08         0.19487E-08         0.00000E+00
    0.22438E-08         0.15327E-08         0.00000E+00
    0.22024E-08         0.88489E-09         0.00000E+00
    0.21841E-08         0.49883E-09         0.00000E+00
   -0.18227E-08         0.82851E-09         0.00000E+00
   -0.19115E-08         0.15116E-08         0.00000E+00
   -0.21266E-08         0.26717E-08         0.00000E+00
   -0.24015E-08         0.34435E-08         0.00000E+00
   -0.26849E-08         0.38802E-08         0.00000E+00
   -0.29408E-08         0.40428E-08         0.00000E+00
   -0.31462E-08         0.39929E-08         0.00000E+00
   -0.32889E-08         0.37878E-08         0.00000E+00
   -0.33650E-08         0.34777E-08         0.00000E+00
   -0.33765E-08         0.31043E-08         0.00000E+00
   -0.33290E-08         0.27008E-08         0.00000E+00
   -0.32305E-08         0.22921E-08         0.00000E+00
   -0.30896E-08         0.18962E-08         0.00000E+00
   -0.29151E-08         0.15251E-08         0.00000E+00
   -0.27151E-08         0.11862E-08         0.00000E+00
   -0.24969E-08         0.88330E-09         0.00000E+00
   -0.22665E-08         0.61762E-09         0.00000E+00
   -0.20292E-08         0.38865E-09         0.00000E+00
   -0.17890E-08         0.19471E-09         0.00000E+00
   -0.15488E-08         0.33496E-10         0.00000E+00
   -0.13111E-08        -0.97606E-10         0.00000E+00
   -0.10772E-08        -0.20125E-09         0.00000E+00
   -0.84828E-09        -0.27996E-09         0.00000E+00
   -0.62477E-09        -0.33603E-09         0.00000E+00
   -0.40682E-09        -0.37145E-09         0.00000E+00
   -0.19435E-09        -0.38789E-09         0.00000E+00
    0.12978E-10        -0.38667E-09         0.00000E+00
    0.21559E-09        -0.36876E-09         0.00000E+00
    0.41402E-09        -0.33482E-09         0.00000E+00
    0.60883E-09        -0.28520E-09         0.00000E+00
    0.80056E-09        -0.21995E-09         0.00000E+00
    0.98973E-09        -0.13891E-09         0.00000E+00
    0.11768E-08        -0.41679E-10         0.00000E+00
    0.13620E-08         0.72228E-10         0.00000E+00
    0.15457E-08         0.20335E-09         0.00000E+00
    0.17277E-08         0.35213E-09         0.00000E+00
    0.19078E-08         0.51875E-09         0.00000E+00
    0.20854E-08         0.70285E-09         0.00000E+00
    0.22597E-08         0.90328E-09         0.00000E+00
    0.24291E-08         0.11176E-08         0.00000E+00
    0.25915E-08         0.13417E-08         0.00000E+00
    0.27440E-08         0.15686E-08         0.00000E+00
    0.28824E-08         0.17882E-08         0.00000E+00
    0.30012E-08         0.19853E-08         0.00000E+00
    0.30938E-08         0.21379E-08         0.00000E+00
    0.31531E-08         0.22157E-08         0.00000E+00
    0.31744E-08         0.21792E-08         0.00000E+00
    0.31595E-08         0.19810E-08         0.00000E+00
    0.31206E-08         0.15727E-08         0.00000E+00
    0.30801E-08         0.91321E-09         0.00000E+00
    0.30621E-08         0.51627E-09         0.00000E+00
   -0.22049E-08         0.92258E-09         0.00000E+00
   -0.23034E-08         0.16710E-08         0.00000E+00
   -0.25345E-08         0.29256E-08         0.00000E+00
   -0.28186E-08         0.37279E-08         0.00000E+00
   -0.30977E-08         0.41489E-08         0.00000E+00
   -0.33337E-08         0.42655E-08         0.00000E+00
   -0.35044E-08         0.41525E-08         0.00000E+00
   -0.36004E-08         0.38774E-08         0.00000E+00
   -0.36209E-08         0.34976E-08         0.00000E+00
   -0.35713E-08         0.30599E-08         0.00000E+00
   -0.34602E-08         0.26001E-08         0.00000E+00
   -0.32979E-08         0.21445E-08         0.00000E+00
   -0.30952E-08         0.17112E-08         0.00000E+00
   -0.28621E-08         0.13118E-08         0.00000E+00
   -0.26077E-08         0.95273E-09         0.00000E+00
   -0.23397E-08         0.63659E-09         0.00000E+00
   -0.20645E-08         0.36340E-09         0.00000E+00
   -0.17870E-08         0.13147E-09         0.00000E+00
   -0.15112E-08        -0.61955E-10         0.00000E+00
   -0.12396E-08        -0.22013E-09         0.00000E+00
   -0.97418E-09        -0.34646E-09         0.00000E+00
   -0.71600E-09        -0.44426E-09         0.00000E+00
   -0.46559E-09        -0.51658E-09         0.00000E+00
   -0.22300E-09        -0.56613E-09         0.00000E+00
    0.12066E-10        -0.59520E-09         0.00000E+00
    0.24014E-09        -0.60570E-09         0.00000E+00
    0.46195E-09        -0.59910E-09         0.00000E+00
    0.67832E-09        -0.57648E-09         0.00000E+00
    0.89015E-09        -0.53855E-09         0.00000E+00
    0.10984E-08        -0.48566E-09         0.00000E+00
    0.13039E-08        -0.41786E-09         0.00000E+00
    0.15075E-08        -0.33490E-09         0.00000E+00
    0.17102E-08        -0.23632E-09         0.00000E+00
    0.19125E-08        -0.12150E-09         0.00000E+00
    0.21151E-08         0.10252E-10         0.00000E+00
    0.23183E-08         0.15960E-09         0.00000E+00
    0.25224E-08         0.32696E-09         0.00000E+00
    0.27273E-08         0.51236E-09         0.00000E+00
    0.29326E-08         0.71509E-09         0.00000E+00
    0.31372E-08         0.93335E-09         0.00000E+00
    0.33394E-08         0.11638E-08         0.00000E+00
    0.35364E-08         0.14008E-08         0.00000E+00
    0.37239E-08         0.16358E-08         0.00000E+00
    0.38951E-08         0.18552E-08         0.00000E+00
    0.40405E-08         0.20389E-08         0.00000E+00
    0.41477E-08         0.21563E-08         0.00000E+00
    0.42040E-08         0.21634E-08         0.00000E+00
    0.42041E-08         0.20025E-08         0.00000E+00
    0.41607E-08         0.16121E-08         0.00000E+00
    0.41077E-08         0.94341E-09         0.00000E+00
    0.40843E-08         0.53488E-09         0.00000E+00
   -0.26372E-08         0.10254E-08         0.00000E+00
   -0.27422E-08         0.18411E-08         0.00000E+00
   -0.29786E-08         0.31869E-08         0.00000E+00
   -0.32537E-08         0.40067E-08         0.00000E+00
   -0.35045E-08         0.43953E-08         0.00000E+00
   -0.36934E-08         0.44495E-08         0.00000E+00
   -0.38014E-08         0.42596E-08         0.00000E+00
   -0.38234E-08         0.39042E-08         0.00000E+00
   -0.37633E-08         0.34486E-08         0.00000E+00
   -0.36303E-08         0.29436E-08         0.00000E+00
   -0.34366E-08         0.24275E-08         0.00000E+00
   -0.31949E-08         0.19272E-08         0.00000E+00
   -0.29178E-08         0.14604E-08         0.00000E+00
   -0.26163E-08         0.10376E-08         0.00000E+00
   -0.23001E-08         0.66380E-09         0.00000E+00
   -0.19771E-08         0.34006E-09         0.00000E+00
   -0.16534E-08         0.64930E-10         0.00000E+00
   -0.13337E-08        -0.16469E-09         0.00000E+00
   -0.10212E-08        -0.35274E-09         0.00000E+00
   -0.71808E-09        -0.50349E-09         0.00000E+00
   -0.42556E-09        -0.62120E-09         0.00000E+00
   -0.14412E-09        -0.70983E-09         0.00000E+00
    0.12634E-09        -0.77296E-09         0.00000E+00
    0.38633E-09        -0.81369E-09         0.00000E+00
    0.63666E-09        -0.83459E-09         0.00000E+00
    0.87837E-09        -0.83777E-09         0.00000E+00
    0.11126E-08        -0.82484E-09         0.00000E+00
    0.13407E-08        -0.79696E-09         0.00000E+00
    0.15639E-08        -0.75487E-09         0.00000E+00
    0.17836E-08        -0.69892E-09         0.00000E+00
    0.20009E-08        -0.62914E-09         0.00000E+00
    0.22172E-08        -0.54522E-09         0.00000E+00
    0.24336E-08        -0.44664E-09         0.00000E+00
    0.26513E-08        -0.33266E-09         0.00000E+00
    0.28713E-08        -0.20247E-09         0.00000E+00
    0.30945E-08        -0.55225E-10         0.00000E+00
    0.33215E-08         0.10973E-09         0.00000E+00
    0.35528E-08         0.29271E-09         0.00000E+00
    0.37886E-08         0.49346E-09         0.00000E+00
    0.40285E-08         0.71083E-09         0.00000E+00
    0.42714E-08         0.94242E-09         0.00000E+00
    0.45150E-08         0.11842E-08         0.00000E+00
    0.47550E-08         0.14296E-08         0.00000E+00
    0.49842E-08         0.16686E-08         0.00000E+00
    0.51904E-08         0.18853E-08         0.00000E+00
    0.53545E-08         0.20522E-08         0.00000E+00
    0.54512E-08         0.21228E-08         0.00000E+00
    0.54587E-08         0.20243E-08         0.00000E+00
    0.53837E-08         0.16691E-08         0.00000E+00
    0.52839E-08         0.98955E-09         0.00000E+00
    0.52400E-08         0.56304E-09         0.00000E+00
   -0.30954E-08         0.11325E-08         0.00000E+00
   -0.32004E-08         0.20124E-08         0.00000E+00
   -0.34227E-08         0.34370E-08         0.00000E+00
   -0.36592E-08         0.42538E-08         0.00000E+00
   -0.38462E-08         0.45887E-08         0.00000E+00
   -0.39501E-08         0.45624E-08         0.00000E+00
   -0.39583E-08         0.42825E-08         0.00000E+00
   -0.38722E-08         0.38392E-08         0.00000E+00
   -0.37014E-08         0.33045E-08         0.00000E+00
   -0.34598E-08         0.27332E-08         0.00000E+00
   -0.31628E-08         0.21647E-08         0.00000E+00
   -0.28254E-08         0.16257E-08         0.00000E+00
   -0.24615E-08         0.11326E-08         0.00000E+00
   -0.20827E-08         0.69418E-09         0.00000E+00
   -0.16987E-08         0.31353E-09         0.00000E+00
   -0.13169E-08        -0.10122E-10         0.00000E+00
   -0.94280E-09        -0.28001E-09         0.00000E+00
   -0.58029E-09        -0.50075E-09         0.00000E+00
   -0.23177E-09        -0.67755E-09         0.00000E+00
    0.10149E-09        -0.81576E-09         0.00000E+00
    0.41913E-09        -0.92042E-09         0.00000E+00
    0.72146E-09        -0.99617E-09         0.00000E+00
    0.10093E-08        -0.10470E-08         0.00000E+00
    0.12839E-08        -0.10764E-08         0.00000E+00
    0.15465E-08        -0.10872E-08         0.00000E+00
    0.17989E-08        -0.10817E-08         0.00000E+00
    0.20427E-08        -0.10615E-08         0.00000E+00
    0.22796E-08        -0.10278E-08         0.00000E+00
    0.25112E-08        -0.98137E-09         0.00000E+00
    0.27394E-08        -0.92262E-09         0.00000E+00
    0.29658E-08        -0.85149E-09         0.00000E+00
    0.31920E-08        -0.76764E-09         0.00000E+00
    0.34196E-08        -0.67048E-09         0.00000E+00
    0.36500E-08        -0.55920E-09         0.00000E+00
    0.38849E-08        -0.43287E-09         0.00000E+00
    0.41254E-08        -0.29054E-09         0.00000E+00
    0.43729E-08        -0.13136E-09         0.00000E+00
    0.46283E-08         0.45240E-10         0.00000E+00
    0.48925E-08         0.23939E-09         0.00000E+00
    0.51657E-08         0.45055E-09         0.00000E+00
    0.54476E-08         0.67731E-09         0.00000E+00
    0.57365E-08         0.91720E-09         0.00000E+00
    0.60288E-08         0.11665E-08         0.00000E+00
    0.63173E-08         0.14199E-08         0.00000E+00
    0.65883E-08         0.16687E-08         0.00000E+00
    0.68174E-08         0.18955E-08         0.00000E+00
    0.69629E-08         0.20591E-08         0.00000E+00
    0.69694E-08         0.20701E-08         0.00000E+00
    0.68122E-08         0.17868E-08         0.00000E+00
    0.65830E-08         0.10870E-08         0.00000E+00
    0.64786E-08         0.62265E-09         0.00000E+00
   -0.35241E-08         0.12353E-08         0.00000E+00
   -0.36174E-08         0.21684E-08         0.00000E+00
   -0.37946E-08         0.36458E-08         0.00000E+00
   -0.39489E-08         0.44302E-08         0.00000E+00
   -0.40227E-08         0.46862E-08         0.00000E+00
   -0.39921E-08         0.45616E-08         0.00000E+00
   -0.38547E-08         0.41817E-08         0.00000E+00
   -0.36204E-08         0.36473E-08         0.00000E+00
   -0.33054E-08         0.30361E-08         0.00000E+00
   -0.29284E-08         0.24049E-08         0.00000E+00
   -0.25075E-08         0.17931E-08         0.00000E+00
   -0.20595E-08         0.12259E-08         0.00000E+00
   -0.15984E-08         0.71771E-09         0.00000E+00
   -0.11357E-08         0.27481E-09         0.00000E+00
   -0.68025E-09        -0.10205E-09         0.00000E+00
   -0.23842E-09        -0.41584E-09         0.00000E+00
    0.18547E-09        -0.67166E-09         0.00000E+00
    0.58888E-09        -0.87571E-09         0.00000E+00
    0.97061E-09        -0.10345E-08         0.00000E+00
    0.13306E-08        -0.11544E-08         0.00000E+00
    0.16695E-08        -0.12412E-08         0.00000E+00
    0.19886E-08        -0.13000E-08         0.00000E+00
    0.22896E-08        -0.13354E-08         0.00000E+00
    0.25744E-08        -0.13509E-08         0.00000E+00
    0.28452E-08        -0.13497E-08         0.00000E+00
    0.31041E-08        -0.13339E-08         0.00000E+00
    0.33533E-08        -0.13055E-08         0.00000E+00
    0.35949E-08        -0.12655E-08         0.00000E+00
    0.38311E-08        -0.12147E-08         0.00000E+00
    0.40640E-08        -0.11535E-08         0.00000E+00
    0.42956E-08        -0.10817E-08         0.00000E+00
    0.45279E-08        -0.99897E-09         0.00000E+00
    0.47629E-08        -0.90469E-09         0.00000E+00
    0.50024E-08        -0.79797E-09         0.00000E+00
    0.52482E-08        -0.67783E-09         0.00000E+00
    0.55023E-08        -0.54322E-09         0.00000E+00
    0.57663E-08        -0.39317E-09         0.00000E+00
    0.60418E-08        -0.22690E-09         0.00000E+00
    0.63301E-08        -0.43946E-10         0.00000E+00
    0.66321E-08         0.15571E-09         0.00000E+00
    0.69480E-08         0.37160E-09         0.00000E+00
    0.72769E-08         0.60290E-09         0.00000E+00
    0.76156E-08         0.84878E-09         0.00000E+00
    0.79572E-08         0.11091E-08         0.00000E+00
    0.82881E-08         0.13852E-08         0.00000E+00
    0.85813E-08         0.16777E-08         0.00000E+00
    0.87833E-08         0.19707E-08         0.00000E+00
    0.87909E-08         0.21750E-08         0.00000E+00
    0.84849E-08         0.20556E-08         0.00000E+00
    0.79509E-08         0.13231E-08         0.00000E+00
    0.76681E-08         0.77170E-09         0.00000E+00
   -0.38166E-08         0.13192E-08         0.00000E+00
   -0.38801E-08         0.22830E-08         0.00000E+00
   -0.39666E-08         0.37685E-08         0.00000E+00
   -0.39788E-08         0.44819E-08         0.00000E+00
   -0.38760E-08         0.46319E-08         0.00000E+00
   -0.36510E-08         0.43944E-08         0.00000E+00
   -0.33156E-08         0.39108E-08         0.00000E+00
   -0.28899E-08         0.32899E-08         0.00000E+00
   -0.23970E-08         0.26125E-08         0.00000E+00
   -0.18594E-08         0.19353E-08         0.00000E+00
   -0.12972E-08         0.12958E-08         0.00000E+00
   -0.72716E-09         0.71651E-09         0.00000E+00
   -0.16266E-09         0.20881E-09         0.00000E+00
    0.38626E-09        -0.22395E-09         0.00000E+00
    0.91254E-09        -0.58374E-09         0.00000E+00
    0.14117E-08        -0.87585E-09         0.00000E+00
    0.18812E-08        -0.11073E-08         0.00000E+00
    0.23203E-08        -0.12859E-08         0.00000E+00
    0.27294E-08        -0.14192E-08         0.00000E+00
    0.31099E-08        -0.15146E-08         0.00000E+00
    0.34637E-08        -0.15784E-08         0.00000E+00
    0.37933E-08        -0.16163E-08         0.00000E+00
    0.41013E-08        -0.16329E-08         0.00000E+00
    0.43904E-08        -0.16321E-08         0.00000E+00
    0.46635E-08        -0.16169E-08         0.00000E+00
    0.49232E-08        -0.15897E-08         0.00000E+00
    0.51723E-08        -0.15523E-08         0.00000E+00
    0.54134E-08        -0.15056E-08         0.00000E+00
    0.56490E-08        -0.14505E-08         0.00000E+00
    0.58815E-08        -0.13871E-08         0.00000E+00
    0.61134E-08        -0.13154E-08         0.00000E+00
    0.63468E-08        -0.12349E-08         0.00000E+00
    0.65842E-08        -0.11449E-08         0.00000E+00
    0.68277E-08        -0.10446E-08         0.00000E+00
    0.70795E-08        -0.93284E-09         0.00000E+00
    0.73417E-08        -0.80861E-09         0.00000E+00
    0.76166E-08        -0.67082E-09         0.00000E+00
    0.79061E-08        -0.51851E-09         0.00000E+00
    0.82119E-08        -0.35090E-09         0.00000E+00
    0.85354E-08        -0.16741E-09         0.00000E+00
    0.88771E-08         0.32484E-10         0.00000E+00
    0.92360E-08         0.24964E-09         0.00000E+00
    0.96090E-08         0.48619E-09         0.00000E+00
    0.99885E-08         0.74733E-09         0.00000E+00
    0.10360E-07         0.10445E-08         0.00000E+00
    0.10696E-07         0.14003E-08         0.00000E+00
    0.10937E-07         0.18496E-08         0.00000E+00
    0.10951E-07         0.23685E-08         0.00000E+00
    0.10426E-07         0.26268E-08         0.00000E+00
    0.93314E-08         0.19038E-08         0.00000E+00
    0.87177E-08         0.11883E-08         0.00000E+00
   -0.37889E-08         0.13622E-08         0.00000E+00
   -0.37963E-08         0.23184E-08         0.00000E+00
   -0.37307E-08         0.37445E-08         0.00000E+00
   -0.35257E-08         0.43396E-08         0.00000E+00
   -0.31716E-08         0.43584E-08         0.00000E+00
   -0.26865E-08         0.40012E-08         0.00000E+00
   -0.20993E-08         0.34205E-08         0.00000E+00
   -0.14415E-08         0.27287E-08         0.00000E+00
   -0.74183E-09         0.20057E-08         0.00000E+00
   -0.25048E-10         0.13051E-08         0.00000E+00
    0.68895E-09         0.66085E-09         0.00000E+00
    0.13850E-08         0.91380E-10         0.00000E+00
    0.20521E-08        -0.39571E-09         0.00000E+00
    0.26830E-08        -0.80039E-09         0.00000E+00
    0.32734E-08        -0.11275E-08         0.00000E+00
    0.38217E-08        -0.13845E-08         0.00000E+00
    0.43277E-08        -0.15803E-08         0.00000E+00
    0.47930E-08        -0.17239E-08         0.00000E+00
    0.52198E-08        -0.18241E-08         0.00000E+00
    0.56113E-08        -0.18887E-08         0.00000E+00
    0.59708E-08        -0.19246E-08         0.00000E+00
    0.63020E-08        -0.19376E-08         0.00000E+00
    0.66083E-08        -0.19325E-08         0.00000E+00
    0.68936E-08        -0.19131E-08         0.00000E+00
    0.71611E-08        -0.18824E-08         0.00000E+00
    0.74142E-08        -0.18428E-08         0.00000E+00
    0.76562E-08        -0.17957E-08         0.00000E+00
    0.78899E-08        -0.17422E-08         0.00000E+00
    0.81183E-08        -0.16829E-08         0.00000E+00
    0.83440E-08        -0.16179E-08         0.00000E+00
    0.85697E-08        -0.15470E-08         0.00000E+00
    0.87981E-08        -0.14698E-08         0.00000E+00
    0.90314E-08        -0.13855E-08         0.00000E+00
    0.92724E-08        -0.12932E-08         0.00000E+00
    0.95234E-08        -0.11919E-08         0.00000E+00
    0.97868E-08        -0.10804E-08         0.00000E+00
    0.10065E-07        -0.95753E-09         0.00000E+00
    0.10361E-07        -0.82222E-09         0.00000E+00
    0.10675E-07        -0.67330E-09         0.00000E+00
    0.11010E-07        -0.50948E-09         0.00000E+00
    0.11366E-07        -0.32902E-09         0.00000E+00
    0.11742E-07        -0.12897E-09         0.00000E+00
    0.12132E-07         0.96284E-10         0.00000E+00
    0.12528E-07         0.35791E-09         0.00000E+00
    0.12910E-07         0.67809E-09         0.00000E+00
    0.13244E-07         0.11008E-08         0.00000E+00
    0.13463E-07         0.17156E-08         0.00000E+00
    0.13417E-07         0.26861E-08         0.00000E+00
    0.12564E-07         0.36750E-08         0.00000E+00
    0.11286E-07         0.30315E-08         0.00000E+00
    0.10752E-07         0.19991E-08         0.00000E+00
   -0.31466E-08         0.13340E-08         0.00000E+00
   -0.30637E-08         0.22248E-08         0.00000E+00
   -0.27712E-08         0.34980E-08         0.00000E+00
   -0.22643E-08         0.39229E-08         0.00000E+00
   -0.15815E-08         0.37926E-08         0.00000E+00
   -0.77369E-09         0.33221E-08         0.00000E+00
    0.11053E-09         0.26658E-08         0.00000E+00
    0.10302E-08         0.19324E-08         0.00000E+00
    0.19530E-08         0.11961E-08         0.00000E+00
    0.28549E-08         0.50451E-09         0.00000E+00
    0.37188E-08        -0.11424E-09         0.00000E+00
    0.45333E-08        -0.64660E-09         0.00000E+00
    0.52918E-08        -0.10892E-08         0.00000E+00
    0.59912E-08        -0.14453E-08         0.00000E+00
    0.66310E-08        -0.17224E-08         0.00000E+00
    0.72131E-08        -0.19301E-08         0.00000E+00
    0.77403E-08        -0.20786E-08         0.00000E+00
    0.82168E-08        -0.21780E-08         0.00000E+00
    0.86471E-08        -0.22376E-08         0.00000E+00
    0.90359E-08        -0.22656E-08         0.00000E+00
    0.93883E-08        -0.22691E-08         0.00000E+00
    0.97089E-08        -0.22538E-08         0.00000E+00
    0.10002E-07        -0.22245E-08         0.00000E+00
    0.10273E-07        -0.21848E-08         0.00000E+00
    0.10525E-07        -0.21376E-08         0.00000E+00
    0.10762E-07        -0.20848E-08         0.00000E+00
    0.10988E-07        -0.20279E-08         0.00000E+00
    0.11206E-07        -0.19677E-08         0.00000E+00
    0.11419E-07        -0.19046E-08         0.00000E+00
    0.11629E-07        -0.18386E-08         0.00000E+00
    0.11841E-07        -0.17695E-08         0.00000E+00
    0.12056E-07        -0.16966E-08         0.00000E+00
    0.12278E-07        -0.16193E-08         0.00000E+00
    0.12508E-07        -0.15365E-08         0.00000E+00
    0.12750E-07        -0.14473E-08         0.00000E+00
    0.13006E-07        -0.13504E-08         0.00000E+00
    0.13279E-07        -0.12446E-08         0.00000E+00
    0.13570E-07        -0.11286E-08         0.00000E+00
    0.13882E-07        -0.10006E-08         0.00000E+00
    0.14217E-07        -0.85862E-09         0.00000E+00
    0.14574E-07        -0.69908E-09         0.00000E+00
    0.14951E-07        -0.51623E-09         0.00000E+00
    0.15340E-07        -0.29961E-09         0.00000E+00
    0.15729E-07        -0.30058E-10         0.00000E+00
    0.16093E-07         0.32855E-09         0.00000E+00
    0.16387E-07         0.84717E-09         0.00000E+00
    0.16529E-07         0.16760E-08         0.00000E+00
    0.16350E-07         0.32676E-08         0.00000E+00
    0.15512E-07         0.47581E-08         0.00000E+00
    0.14924E-07         0.37154E-08         0.00000E+00
    0.14853E-07         0.22561E-08         0.00000E+00
   -0.14519E-08         0.11965E-08         0.00000E+00
   -0.12390E-08         0.19430E-08         0.00000E+00
   -0.64010E-09         0.29451E-08         0.00000E+00
    0.24978E-09         0.31499E-08         0.00000E+00
    0.13261E-08         0.28678E-08         0.00000E+00
    0.25001E-08         0.23092E-08         0.00000E+00
    0.37049E-08         0.16167E-08         0.00000E+00
    0.48932E-08         0.88627E-09         0.00000E+00
    0.60335E-08         0.18092E-09         0.00000E+00
    0.71062E-08        -0.46068E-09         0.00000E+00
    0.80999E-08        -0.10176E-08         0.00000E+00
    0.90094E-08        -0.14816E-08         0.00000E+00
    0.98343E-08        -0.18535E-08         0.00000E+00
    0.10577E-07        -0.21396E-08         0.00000E+00
    0.11241E-07        -0.23493E-08         0.00000E+00
    0.11833E-07        -0.24938E-08         0.00000E+00
    0.12358E-07        -0.25840E-08         0.00000E+00
    0.12825E-07        -0.26307E-08         0.00000E+00
    0.13239E-07        -0.26433E-08         0.00000E+00
    0.13607E-07        -0.26299E-08         0.00000E+00
    0.13935E-07        -0.25975E-08         0.00000E+00
    0.14229E-07        -0.25516E-08         0.00000E+00
    0.14495E-07        -0.24966E-08         0.00000E+00
    0.14738E-07        -0.24358E-08         0.00000E+00
    0.14962E-07        -0.23716E-08         0.00000E+00
    0.15172E-07        -0.23057E-08         0.00000E+00
    0.15370E-07        -0.22392E-08         0.00000E+00
    0.15561E-07        -0.21728E-08         0.00000E+00
    0.15749E-07        -0.21066E-08         0.00000E+00
    0.15935E-07        -0.20405E-08         0.00000E+00
    0.16123E-07        -0.19740E-08         0.00000E+00
    0.16316E-07        -0.19066E-08         0.00000E+00
    0.16515E-07        -0.18373E-08         0.00000E+00
    0.16725E-07        -0.17654E-08         0.00000E+00
    0.16948E-07        -0.16896E-08         0.00000E+00
    0.17186E-07        -0.16088E-08         0.00000E+00
    0.17441E-07        -0.15215E-08         0.00000E+00
    0.17717E-07        -0.14261E-08         0.00000E+00
    0.18015E-07        -0.13205E-08         0.00000E+00
    0.18335E-07        -0.12011E-08         0.00000E+00
    0.18678E-07        -0.10625E-08         0.00000E+00
    0.19040E-07        -0.89521E-09         0.00000E+00
    0.19413E-07        -0.68246E-09         0.00000E+00
    0.19780E-07        -0.39486E-09         0.00000E+00
    0.20113E-07         0.20812E-10         0.00000E+00
    0.20364E-07         0.66518E-09         0.00000E+00
    0.20460E-07         0.17525E-08         0.00000E+00
    0.20308E-07         0.37031E-08         0.00000E+00
    0.20075E-07         0.51003E-08         0.00000E+00
    0.20154E-07         0.36902E-08         0.00000E+00
    0.20164E-07         0.21419E-08         0.00000E+00
    0.19004E-08         0.90824E-09         0.00000E+00
    0.22815E-08         0.14131E-08         0.00000E+00
    0.32533E-08         0.20092E-08         0.00000E+00
    0.45803E-08         0.19566E-08         0.00000E+00
    0.60791E-08         0.15423E-08         0.00000E+00
    0.76233E-08         0.94336E-09         0.00000E+00
    0.91328E-08         0.27278E-09         0.00000E+00
    0.10560E-07        -0.39623E-09         0.00000E+00
    0.11880E-07        -0.10169E-08         0.00000E+00
    0.13081E-07        -0.15618E-08         0.00000E+00
    0.14161E-07        -0.20175E-08         0.00000E+00
    0.15122E-07        -0.23810E-08         0.00000E+00
    0.15971E-07        -0.26564E-08         0.00000E+00
    0.16717E-07        -0.28519E-08         0.00000E+00
    0.17368E-07        -0.29785E-08         0.00000E+00
    0.17936E-07        -0.30477E-08         0.00000E+00
    0.18429E-07        -0.30708E-08         0.00000E+00
    0.18857E-07        -0.30583E-08         0.00000E+00
    0.19229E-07        -0.30194E-08         0.00000E+00
    0.19552E-07        -0.29617E-08         0.00000E+00
    0.19835E-07        -0.28917E-08         0.00000E+00
    0.20084E-07        -0.28143E-08         0.00000E+00
    0.20305E-07        -0.27333E-08         0.00000E+00
    0.20503E-07        -0.26516E-08         0.00000E+00
    0.20684E-07        -0.25710E-08         0.00000E+00
    0.20852E-07        -0.24929E-08         0.00000E+00
    0.21010E-07        -0.24178E-08         0.00000E+00
    0.21162E-07        -0.23462E-08         0.00000E+00
    0.21312E-07        -0.22780E-08         0.00000E+00
    0.21461E-07        -0.22128E-08         0.00000E+00
    0.21614E-07        -0.21501E-08         0.00000E+00
    0.21773E-07        -0.20892E-08         0.00000E+00
    0.21940E-07        -0.20291E-08         0.00000E+00
    0.22118E-07        -0.19690E-08         0.00000E+00
    0.22309E-07        -0.19077E-08         0.00000E+00
    0.22516E-07        -0.18438E-08         0.00000E+00
    0.22742E-07        -0.17758E-08         0.00000E+00
    0.22988E-07        -0.17017E-08         0.00000E+00
    0.23257E-07        -0.16187E-08         0.00000E+00
    0.23548E-07        -0.15220E-08         0.00000E+00
    0.23861E-07        -0.14039E-08         0.00000E+00
    0.24193E-07        -0.12508E-08         0.00000E+00
    0.24535E-07        -0.10394E-08         0.00000E+00
    0.24873E-07        -0.73008E-09         0.00000E+00
    0.25180E-07        -0.25564E-09         0.00000E+00
    0.25422E-07         0.50019E-09         0.00000E+00
    0.25570E-07         0.17321E-08         0.00000E+00
    0.25671E-07         0.36519E-08         0.00000E+00
    0.26038E-07         0.49122E-08         0.00000E+00
    0.26320E-07         0.36267E-08         0.00000E+00
    0.26290E-07         0.22356E-08         0.00000E+00
    0.76784E-08         0.43430E-09         0.00000E+00
    0.82518E-08         0.59019E-09         0.00000E+00
    0.96214E-08         0.64630E-09         0.00000E+00
    0.11381E-07         0.32408E-09         0.00000E+00
    0.13266E-07        -0.17518E-09         0.00000E+00
    0.15121E-07        -0.74451E-09         0.00000E+00
    0.16863E-07        -0.13204E-08         0.00000E+00
    0.18452E-07        -0.18613E-08         0.00000E+00
    0.19872E-07        -0.23401E-08         0.00000E+00
    0.21125E-07        -0.27411E-08         0.00000E+00
    0.22218E-07        -0.30580E-08         0.00000E+00
    0.23164E-07        -0.32918E-08         0.00000E+00
    0.23976E-07        -0.34485E-08         0.00000E+00
    0.24670E-07        -0.35372E-08         0.00000E+00
    0.25260E-07        -0.35688E-08         0.00000E+00
    0.25759E-07        -0.35546E-08         0.00000E+00
    0.26180E-07        -0.35052E-08         0.00000E+00
    0.26533E-07        -0.34304E-08         0.00000E+00
    0.26831E-07        -0.33384E-08         0.00000E+00
    0.27081E-07        -0.32361E-08         0.00000E+00
    0.27293E-07        -0.31291E-08         0.00000E+00
    0.27473E-07        -0.30213E-08         0.00000E+00
    0.27627E-07        -0.29160E-08         0.00000E+00
    0.27762E-07        -0.28151E-08         0.00000E+00
    0.27883E-07        -0.27200E-08         0.00000E+00
    0.27992E-07        -0.26314E-08         0.00000E+00
    0.28094E-07        -0.25496E-08         0.00000E+00
    0.28193E-07        -0.24746E-08         0.00000E+00
    0.28290E-07        -0.24058E-08         0.00000E+00
    0.28390E-07        -0.23430E-08         0.00000E+00
    0.28494E-07        -0.22853E-08         0.00000E+00
    0.28605E-07        -0.22320E-08         0.00000E+00
    0.28726E-07        -0.21822E-08         0.00000E+00
    0.28858E-07        -0.21347E-08         0.00000E+00
    0.29005E-07        -0.20885E-08         0.00000E+00
    0.29168E-07        -0.20420E-08         0.00000E+00
    0.29350E-07        -0.19935E-08         0.00000E+00
    0.29552E-07        -0.19407E-08         0.00000E+00
    0.29775E-07        -0.18799E-08         0.00000E+00
    0.30020E-07        -0.18054E-08         0.00000E+00
    0.30287E-07        -0.17076E-08         0.00000E+00
    0.30573E-07        -0.15694E-08         0.00000E+00
    0.30873E-07        -0.13622E-08         0.00000E+00
    0.31176E-07        -0.10396E-08         0.00000E+00
    0.31468E-07        -0.52900E-09         0.00000E+00
    0.31737E-07         0.27558E-09         0.00000E+00
    0.31999E-07         0.15039E-08         0.00000E+00
    0.32366E-07         0.32348E-08         0.00000E+00
    0.33063E-07         0.44511E-08         0.00000E+00
    0.33558E-07         0.34384E-08         0.00000E+00
    0.33681E-07         0.22033E-08         0.00000E+00
    0.16754E-07        -0.23841E-09         0.00000E+00
    0.17510E-07        -0.52994E-09         0.00000E+00
    0.19224E-07        -0.11198E-08         0.00000E+00
    0.21317E-07        -0.16879E-08         0.00000E+00
    0.23460E-07        -0.21983E-08         0.00000E+00
    0.25486E-07        -0.26540E-08         0.00000E+00
    0.27320E-07        -0.30577E-08         0.00000E+00
    0.28935E-07        -0.34054E-08         0.00000E+00
    0.30331E-07        -0.36902E-08         0.00000E+00
    0.31522E-07        -0.39074E-08         0.00000E+00
    0.32527E-07        -0.40560E-08         0.00000E+00
    0.33366E-07        -0.41392E-08         0.00000E+00
    0.34063E-07        -0.41631E-08         0.00000E+00
    0.34635E-07        -0.41358E-08         0.00000E+00
    0.35100E-07        -0.40672E-08         0.00000E+00
    0.35476E-07        -0.39671E-08         0.00000E+00
    0.35775E-07        -0.38452E-08         0.00000E+00
    0.36012E-07        -0.37096E-08         0.00000E+00
    0.36197E-07        -0.35672E-08         0.00000E+00
    0.36341E-07        -0.34237E-08         0.00000E+00
    0.36452E-07        -0.32832E-08         0.00000E+00
    0.36537E-07        -0.31490E-08         0.00000E+00
    0.36602E-07        -0.30230E-08         0.00000E+00
    0.36652E-07        -0.29067E-08         0.00000E+00
    0.36692E-07        -0.28004E-08         0.00000E+00
    0.36724E-07        -0.27045E-08         0.00000E+00
    0.36753E-07        -0.26186E-08         0.00000E+00
    0.36782E-07        -0.25425E-08         0.00000E+00
    0.36812E-07        -0.24753E-08         0.00000E+00
    0.36846E-07        -0.24166E-08         0.00000E+00
    0.36887E-07        -0.23654E-08         0.00000E+00
    0.36935E-07        -0.23209E-08         0.00000E+00
    0.36995E-07        -0.22822E-08         0.00000E+00
    0.37066E-07        -0.22481E-08         0.00000E+00
    0.37153E-07        -0.22173E-08         0.00000E+00
    0.37256E-07        -0.21884E-08         0.00000E+00
    0.37377E-07        -0.21593E-08         0.00000E+00
    0.37519E-07        -0.21270E-08         0.00000E+00
    0.37680E-07        -0.20875E-08         0.00000E+00
    0.37863E-07        -0.20344E-08         0.00000E+00
    0.38066E-07        -0.19569E-08         0.00000E+00
    0.38290E-07        -0.18366E-08         0.00000E+00
    0.38532E-07        -0.16421E-08         0.00000E+00
    0.38792E-07        -0.13250E-08         0.00000E+00
    0.39068E-07        -0.81614E-09         0.00000E+00
    0.39371E-07        -0.30477E-10         0.00000E+00
    0.39743E-07         0.11030E-08         0.00000E+00
    0.40288E-07         0.25871E-08         0.00000E+00
    0.41204E-07         0.37200E-08         0.00000E+00
    0.41951E-07         0.30087E-08         0.00000E+00
    0.42242E-07         0.19884E-08         0.00000E+00
    0.29953E-07        -0.10784E-08         0.00000E+00
    0.30829E-07        -0.18806E-08         0.00000E+00
    0.32719E-07        -0.31605E-08         0.00000E+00
    0.34929E-07        -0.39117E-08         0.00000E+00
    0.37100E-07        -0.43447E-08         0.00000E+00
    0.39071E-07        -0.46039E-08         0.00000E+00
    0.40786E-07        -0.47685E-08         0.00000E+00
    0.42238E-07        -0.48726E-08         0.00000E+00
    0.43443E-07        -0.49275E-08         0.00000E+00
    0.44425E-07        -0.49367E-08         0.00000E+00
    0.45213E-07        -0.49025E-08         0.00000E+00
    0.45836E-07        -0.48278E-08         0.00000E+00
    0.46319E-07        -0.47168E-08         0.00000E+00
    0.46686E-07        -0.45749E-08         0.00000E+00
    0.46954E-07        -0.44096E-08         0.00000E+00
    0.47142E-07        -0.42292E-08         0.00000E+00
    0.47265E-07        -0.40415E-08         0.00000E+00
    0.47336E-07        -0.38528E-08         0.00000E+00
    0.47368E-07        -0.36680E-08         0.00000E+00
    0.47369E-07        -0.34910E-08         0.00000E+00
    0.47348E-07        -0.33247E-08         0.00000E+00
    0.47309E-07        -0.31710E-08         0.00000E+00
    0.47259E-07        -0.30308E-08         0.00000E+00
    0.47202E-07        -0.29047E-08         0.00000E+00
    0.47140E-07        -0.27923E-08         0.00000E+00
    0.47077E-07        -0.26934E-08         0.00000E+00
    0.47015E-07        -0.26072E-08         0.00000E+00
    0.46956E-07        -0.25331E-08         0.00000E+00
    0.46901E-07        -0.24702E-08         0.00000E+00
    0.46854E-07        -0.24176E-08         0.00000E+00
    0.46814E-07        -0.23745E-08         0.00000E+00
    0.46784E-07        -0.23400E-08         0.00000E+00
    0.46766E-07        -0.23132E-08         0.00000E+00
    0.46760E-07        -0.22929E-08         0.00000E+00
    0.46769E-07        -0.22779E-08         0.00000E+00
    0.46795E-07        -0.22665E-08         0.00000E+00
    0.46839E-07        -0.22563E-08         0.00000E+00
    0.46902E-07        -0.22438E-08         0.00000E+00
    0.46985E-07        -0.22244E-08         0.00000E+00
    0.47088E-07        -0.21912E-08         0.00000E+00
    0.47209E-07        -0.21341E-08         0.00000E+00
    0.47351E-07        -0.20351E-08         0.00000E+00
    0.47517E-07        -0.18643E-08         0.00000E+00
    0.47715E-07        -0.15755E-08         0.00000E+00
    0.47957E-07        -0.11082E-08         0.00000E+00
    0.48269E-07        -0.39929E-09         0.00000E+00
    0.48706E-07         0.58717E-09         0.00000E+00
    0.49362E-07         0.17734E-08         0.00000E+00
    0.50373E-07         0.27877E-08         0.00000E+00
    0.51258E-07         0.24006E-08         0.00000E+00
    0.51679E-07         0.16212E-08         0.00000E+00
    0.47813E-07        -0.19901E-08         0.00000E+00
    0.48649E-07        -0.32961E-08         0.00000E+00
    0.50418E-07        -0.52197E-08         0.00000E+00
    0.52436E-07        -0.60686E-08         0.00000E+00
    0.54331E-07        -0.63408E-08         0.00000E+00
    0.55960E-07        -0.63405E-08         0.00000E+00
    0.57296E-07        -0.62249E-08         0.00000E+00
    0.58356E-07        -0.60624E-08         0.00000E+00
    0.59171E-07        -0.58773E-08         0.00000E+00
    0.59774E-07        -0.56776E-08         0.00000E+00
    0.60198E-07        -0.54666E-08         0.00000E+00
    0.60477E-07        -0.52452E-08         0.00000E+00
    0.60639E-07        -0.50129E-08         0.00000E+00
    0.60707E-07        -0.47707E-08         0.00000E+00
    0.60697E-07        -0.45232E-08         0.00000E+00
    0.60627E-07        -0.42774E-08         0.00000E+00
    0.60514E-07        -0.40395E-08         0.00000E+00
    0.60371E-07        -0.38132E-08         0.00000E+00
    0.60207E-07        -0.36005E-08         0.00000E+00
    0.60029E-07        -0.34034E-08         0.00000E+00
    0.59844E-07        -0.32232E-08         0.00000E+00
    0.59656E-07        -0.30605E-08         0.00000E+00
    0.59467E-07        -0.29154E-08         0.00000E+00
    0.59280E-07        -0.27873E-08         0.00000E+00
    0.59097E-07        -0.26755E-08         0.00000E+00
    0.58919E-07        -0.25792E-08         0.00000E+00
    0.58747E-07        -0.24974E-08         0.00000E+00
    0.58584E-07        -0.24291E-08         0.00000E+00
    0.58428E-07        -0.23734E-08         0.00000E+00
    0.58282E-07        -0.23293E-08         0.00000E+00
    0.58146E-07        -0.22959E-08         0.00000E+00
    0.58020E-07        -0.22725E-08         0.00000E+00
    0.57907E-07        -0.22580E-08         0.00000E+00
    0.57806E-07        -0.22516E-08         0.00000E+00
    0.57720E-07        -0.22522E-08         0.00000E+00
    0.57650E-07        -0.22580E-08         0.00000E+00
    0.57597E-07        -0.22664E-08         0.00000E+00
    0.57563E-07        -0.22734E-08         0.00000E+00
    0.57548E-07        -0.22732E-08         0.00000E+00
    0.57554E-07        -0.22586E-08         0.00000E+00
    0.57577E-07        -0.22204E-08         0.00000E+00
    0.57619E-07        -0.21445E-08         0.00000E+00
    0.57686E-07        -0.20060E-08         0.00000E+00
    0.57794E-07        -0.17645E-08         0.00000E+00
    0.57964E-07        -0.13699E-08         0.00000E+00
    0.58230E-07        -0.77976E-09         0.00000E+00
    0.58651E-07         0.10169E-10         0.00000E+00
    0.59308E-07         0.91963E-09         0.00000E+00
    0.60228E-07         0.18239E-08         0.00000E+00
    0.61168E-07         0.17035E-08         0.00000E+00
    0.61698E-07         0.11466E-08         0.00000E+00
    0.70106E-07        -0.27505E-08         0.00000E+00
    0.70740E-07        -0.44852E-08         0.00000E+00
    0.72023E-07        -0.69470E-08         0.00000E+00
    0.73534E-07        -0.78247E-08         0.00000E+00
    0.74863E-07        -0.78691E-08         0.00000E+00
    0.75837E-07        -0.75688E-08         0.00000E+00
    0.76515E-07        -0.71646E-08         0.00000E+00
    0.76942E-07        -0.67485E-08         0.00000E+00
    0.77158E-07        -0.63457E-08         0.00000E+00
    0.77206E-07        -0.59637E-08         0.00000E+00
    0.77115E-07        -0.56054E-08         0.00000E+00
    0.76916E-07        -0.52686E-08         0.00000E+00
    0.76640E-07        -0.49463E-08         0.00000E+00
    0.76307E-07        -0.46327E-08         0.00000E+00
    0.75935E-07        -0.43302E-08         0.00000E+00
    0.75540E-07        -0.40463E-08         0.00000E+00
    0.75138E-07        -0.37848E-08         0.00000E+00
    0.74736E-07        -0.35454E-08         0.00000E+00
    0.74340E-07        -0.33267E-08         0.00000E+00
    0.73953E-07        -0.31285E-08         0.00000E+00
    0.73579E-07        -0.29509E-08         0.00000E+00
    0.73218E-07        -0.27934E-08         0.00000E+00
    0.72871E-07        -0.26549E-08         0.00000E+00
    0.72536E-07        -0.25346E-08         0.00000E+00
    0.72215E-07        -0.24314E-08         0.00000E+00
    0.71906E-07        -0.23442E-08         0.00000E+00
    0.71610E-07        -0.22721E-08         0.00000E+00
    0.71326E-07        -0.22139E-08         0.00000E+00
    0.71055E-07        -0.21686E-08         0.00000E+00
    0.70795E-07        -0.21353E-08         0.00000E+00
    0.70547E-07        -0.21131E-08         0.00000E+00
    0.70310E-07        -0.21013E-08         0.00000E+00
    0.70085E-07        -0.20991E-08         0.00000E+00
    0.69873E-07        -0.21060E-08         0.00000E+00
    0.69672E-07        -0.21211E-08         0.00000E+00
    0.69486E-07        -0.21430E-08         0.00000E+00
    0.69314E-07        -0.21692E-08         0.00000E+00
    0.69160E-07        -0.21955E-08         0.00000E+00
    0.69026E-07        -0.22155E-08         0.00000E+00
    0.68913E-07        -0.22203E-08         0.00000E+00
    0.68823E-07        -0.21991E-08         0.00000E+00
    0.68754E-07        -0.21440E-08         0.00000E+00
    0.68700E-07        -0.20395E-08         0.00000E+00
    0.68688E-07        -0.18530E-08         0.00000E+00
    0.68734E-07        -0.15438E-08         0.00000E+00
    0.68877E-07        -0.10868E-08         0.00000E+00
    0.69175E-07        -0.49098E-09         0.00000E+00
    0.69681E-07         0.19611E-09         0.00000E+00
    0.70397E-07         0.92766E-09         0.00000E+00
    0.71296E-07         0.93078E-09         0.00000E+00
    0.71827E-07         0.56030E-09         0.00000E+00
    0.97475E-07        -0.32583E-08         0.00000E+00
    0.97580E-07        -0.52135E-08         0.00000E+00
    0.97635E-07        -0.80140E-08         0.00000E+00
    0.97698E-07        -0.89088E-08         0.00000E+00
    0.97832E-07        -0.86438E-08         0.00000E+00
    0.97878E-07        -0.79918E-08         0.00000E+00
    0.97674E-07        -0.73296E-08         0.00000E+00
    0.97225E-07        -0.67062E-08         0.00000E+00
    0.96643E-07        -0.61411E-08         0.00000E+00
    0.95979E-07        -0.56340E-08         0.00000E+00
    0.95250E-07        -0.51772E-08         0.00000E+00
    0.94450E-07        -0.47701E-08         0.00000E+00
    0.93591E-07        -0.44039E-08         0.00000E+00
    0.92729E-07        -0.40661E-08         0.00000E+00
    0.91918E-07        -0.37562E-08         0.00000E+00
    0.91162E-07        -0.34801E-08         0.00000E+00
    0.90446E-07        -0.32349E-08         0.00000E+00
    0.89765E-07        -0.30148E-08         0.00000E+00
    0.89118E-07        -0.28182E-08         0.00000E+00
    0.88507E-07        -0.26432E-08         0.00000E+00
    0.87930E-07        -0.24883E-08         0.00000E+00
    0.87383E-07        -0.23520E-08         0.00000E+00
    0.86864E-07        -0.22333E-08         0.00000E+00
    0.86370E-07        -0.21314E-08         0.00000E+00
    0.85898E-07        -0.20454E-08         0.00000E+00
    0.85447E-07        -0.19744E-08         0.00000E+00
    0.85015E-07        -0.19175E-08         0.00000E+00
    0.84599E-07        -0.18736E-08         0.00000E+00
    0.84199E-07        -0.18418E-08         0.00000E+00
    0.83814E-07        -0.18213E-08         0.00000E+00
    0.83441E-07        -0.18113E-08         0.00000E+00
    0.83080E-07        -0.18112E-08         0.00000E+00
    0.82731E-07        -0.18203E-08         0.00000E+00
    0.82391E-07        -0.18385E-08         0.00000E+00
    0.82060E-07        -0.18652E-08         0.00000E+00
    0.81738E-07        -0.19001E-08         0.00000E+00
    0.81426E-07        -0.19411E-08         0.00000E+00
    0.81126E-07        -0.19847E-08         0.00000E+00
    0.80840E-07        -0.20257E-08         0.00000E+00
    0.80573E-07        -0.20559E-08         0.00000E+00
    0.80337E-07        -0.20612E-08         0.00000E+00
    0.80145E-07        -0.20212E-08         0.00000E+00
    0.80009E-07        -0.19408E-08         0.00000E+00
    0.79836E-07        -0.17986E-08         0.00000E+00
    0.79690E-07        -0.15584E-08         0.00000E+00
    0.79629E-07        -0.12209E-08         0.00000E+00
    0.79705E-07        -0.79382E-09         0.00000E+00
    0.79959E-07        -0.30266E-09         0.00000E+00
    0.80408E-07         0.20854E-09         0.00000E+00
    0.81068E-07         0.27399E-09         0.00000E+00
    0.81409E-07         0.85736E-10         0.00000E+00
    0.12966E-06        -0.29612E-08         0.00000E+00
    0.12870E-06        -0.46452E-08         0.00000E+00
    0.12684E-06        -0.70648E-08         0.00000E+00
    0.12469E-06        -0.80218E-08         0.00000E+00
    0.12271E-06        -0.80485E-08         0.00000E+00
    0.12109E-06        -0.74104E-08         0.00000E+00
    0.11954E-06        -0.65119E-08         0.00000E+00
    0.11795E-06        -0.57174E-08         0.00000E+00
    0.11641E-06        -0.50994E-08         0.00000E+00
    0.11493E-06        -0.45708E-08         0.00000E+00
    0.11351E-06        -0.40767E-08         0.00000E+00
    0.11213E-06        -0.36093E-08         0.00000E+00
    0.11078E-06        -0.32251E-08         0.00000E+00
    0.10949E-06        -0.29597E-08         0.00000E+00
    0.10831E-06        -0.27638E-08         0.00000E+00
    0.10723E-06        -0.25749E-08         0.00000E+00
    0.10623E-06        -0.23870E-08         0.00000E+00
    0.10530E-06        -0.22170E-08         0.00000E+00
    0.10442E-06        -0.20690E-08         0.00000E+00
    0.10360E-06        -0.19403E-08         0.00000E+00
    0.10283E-06        -0.18270E-08         0.00000E+00
    0.10211E-06        -0.17275E-08         0.00000E+00
    0.10142E-06        -0.16415E-08         0.00000E+00
    0.10077E-06        -0.15688E-08         0.00000E+00
    0.10015E-06        -0.15088E-08         0.00000E+00
    0.99552E-07        -0.14609E-08         0.00000E+00
    0.98978E-07        -0.14243E-08         0.00000E+00
    0.98423E-07        -0.13985E-08         0.00000E+00
    0.97883E-07        -0.13830E-08         0.00000E+00
    0.97356E-07        -0.13769E-08         0.00000E+00
    0.96839E-07        -0.13797E-08         0.00000E+00
    0.96331E-07        -0.13909E-08         0.00000E+00
    0.95827E-07        -0.14096E-08         0.00000E+00
    0.95327E-07        -0.14353E-08         0.00000E+00
    0.94827E-07        -0.14683E-08         0.00000E+00
    0.94324E-07        -0.15093E-08         0.00000E+00
    0.93817E-07        -0.15577E-08         0.00000E+00
    0.93302E-07        -0.16096E-08         0.00000E+00
    0.92783E-07        -0.16624E-08         0.00000E+00
    0.92263E-07        -0.17169E-08         0.00000E+00
    0.91757E-07        -0.17704E-08         0.00000E+00
    0.91281E-07        -0.18160E-08         0.00000E+00
    0.90867E-07        -0.17310E-08         0.00000E+00
    0.90417E-07        -0.15343E-08         0.00000E+00
    0.90002E-07        -0.13365E-08         0.00000E+00
    0.89672E-07        -0.11016E-08         0.00000E+00
    0.89469E-07        -0.82105E-09         0.00000E+00
    0.89424E-07        -0.50690E-09         0.00000E+00
    0.89553E-07        -0.18144E-09         0.00000E+00
    0.89869E-07        -0.69584E-10         0.00000E+00
    0.89947E-07        -0.12076E-09         0.00000E+00
    0.16081E-06        -0.13479E-08         0.00000E+00
    0.15933E-06        -0.23965E-08         0.00000E+00
    0.15617E-06        -0.40007E-08         0.00000E+00
    0.15227E-06        -0.47733E-08         0.00000E+00
    0.14815E-06        -0.50417E-08         0.00000E+00
    0.14422E-06        -0.48241E-08         0.00000E+00
    0.14074E-06        -0.41944E-08         0.00000E+00
    0.13771E-06        -0.35741E-08         0.00000E+00
    0.13502E-06        -0.31123E-08         0.00000E+00
    0.13261E-06        -0.27338E-08         0.00000E+00
    0.13045E-06        -0.23820E-08         0.00000E+00
    0.12853E-06        -0.20431E-08         0.00000E+00
    0.12684E-06        -0.17654E-08         0.00000E+00
    0.12531E-06        -0.15960E-08         0.00000E+00
    0.12388E-06        -0.14985E-08         0.00000E+00
    0.12254E-06        -0.14019E-08         0.00000E+00
    0.12131E-06        -0.12964E-08         0.00000E+00
    0.12016E-06        -0.12021E-08         0.00000E+00
    0.11909E-06        -0.11225E-08         0.00000E+00
    0.11809E-06        -0.10547E-08         0.00000E+00
    0.11715E-06        -0.99491E-09         0.00000E+00
    0.11626E-06        -0.94204E-09         0.00000E+00
    0.11542E-06        -0.89647E-09         0.00000E+00
    0.11462E-06        -0.85845E-09         0.00000E+00
    0.11385E-06        -0.82797E-09         0.00000E+00
    0.11311E-06        -0.80478E-09         0.00000E+00
    0.11239E-06        -0.78837E-09         0.00000E+00
    0.11169E-06        -0.77855E-09         0.00000E+00
    0.11099E-06        -0.77522E-09         0.00000E+00
    0.11030E-06        -0.77771E-09         0.00000E+00
    0.10962E-06        -0.78570E-09         0.00000E+00
    0.10892E-06        -0.79890E-09         0.00000E+00
    0.10822E-06        -0.81650E-09         0.00000E+00
    0.10751E-06        -0.83799E-09         0.00000E+00
    0.10679E-06        -0.86291E-09         0.00000E+00
    0.10605E-06        -0.89069E-09         0.00000E+00
    0.10528E-06        -0.91899E-09         0.00000E+00
    0.10449E-06        -0.94994E-09         0.00000E+00
    0.10367E-06        -0.98686E-09         0.00000E+00
    0.10283E-06        -0.10301E-08         0.00000E+00
    0.10195E-06        -0.10782E-08         0.00000E+00
    0.10106E-06        -0.11314E-08         0.00000E+00
    0.10014E-06        -0.10778E-08         0.00000E+00
    0.99324E-07        -0.93370E-09         0.00000E+00
    0.98603E-07        -0.81288E-09         0.00000E+00
    0.97988E-07        -0.68808E-09         0.00000E+00
    0.97502E-07        -0.54601E-09         0.00000E+00
    0.97167E-07        -0.38626E-09         0.00000E+00
    0.96995E-07        -0.23595E-09         0.00000E+00
    0.96985E-07        -0.12023E-09         0.00000E+00
    0.96925E-07        -0.71240E-10         0.00000E+00
    0.17500E-06         0.00000E+00         0.00000E+00
    0.17365E-06         0.00000E+00         0.00000E+00
    0.17020E-06         0.00000E+00         0.00000E+00
    0.16565E-06         0.15646E-20         0.00000E+00
    0.16066E-06         0.15181E-20         0.00000E+00
    0.15557E-06         0.00000E+00         0.00000E+00
    0.15101E-06        -0.14249E-20         0.00000E+00
    0.14718E-06        -0.13877E-20         0.00000E+00
    0.14386E-06         0.00000E+00         0.00000E+00
    0.14095E-06         0.00000E+00         0.00000E+00
    0.13839E-06         0.00000E+00         0.00000E+00
    0.13619E-06         0.00000E+00         0.00000E+00
    0.13431E-06         0.00000E+00         0.00000E+00
    0.13266E-06         0.00000E+00         0.00000E+00
    0.13112E-06         0.00000E+00         0.00000E+00
    0.12966E-06         0.12200E-20         0.00000E+00
    0.12831E-06         0.12107E-20         0.00000E+00
    0.12707E-06         0.00000E+00         0.00000E+00
    0.12591E-06        -0.11921E-20         0.00000E+00
    0.12482E-06        -0.11828E-20         0.00000E+00
    0.12380E-06         0.00000E+00         0.00000E+00
    0.12283E-06         0.00000E+00         0.00000E+00
    0.12191E-06         0.00000E+00         0.00000E+00
    0.12104E-06         0.00000E+00         0.00000E+00
    0.12020E-06         0.00000E+00         0.00000E+00
    0.11938E-06         0.00000E+00         0.00000E+00
    0.11859E-06         0.00000E+00         0.00000E+00
    0.11781E-06         0.00000E+00         0.00000E+00
    0.11703E-06         0.00000E+00         0.00000E+00
    0.11626E-06         0.00000E+00         0.00000E+00
    0.11548E-06         0.00000E+00         0.00000E+00
    0.11468E-06         0.00000E+00         0.00000E+00
    0.11388E-06         0.10710E-20         0.00000E+00
    0.11305E-06         0.00000E+00         0.00000E+00
    0.11220E-06        -0.10617E-20         0.00000E+00
    0.11133E-06         0.10524E-20         0.00000E+00
    0.11042E-06         0.00000E+00         0.00000E+00
    0.10949E-06        -0.10338E-20         0.00000E+00
    0.10852E-06         0.00000E+00         0.00000E+00
    0.10751E-06         0.00000E+00         0.00000E+00
    0.10646E-06         0.00000E+00         0.00000E+00
    0.10536E-06         0.00000E+00         0.00000E+00
    0.10420E-06         0.00000E+00         0.00000E+00
    0.10320E-06         0.97789E-21         0.00000E+00
    0.10233E-06         0.96858E-21         0.00000E+00
    0.10158E-06         0.00000E+00         0.00000E+00
    0.10095E-06         0.00000E+00         0.00000E+00
    0.10048E-06         0.00000E+00         0.00000E+00
    0.10018E-06        -0.94064E-21         0.00000E+00
    0.10001E-06         0.00000E+00         0.00000E+00
    0.99941E-07         0.18813E-20         0.00000E+00
CELL_DATA       5000
TENSORS stressef double 
    0.31000E+07        -0.84789E+05         0.00000E+00
   -0.84789E+05        -0.29544E+06         0.00000E+00
    0.00000E+00         0.00000E+00         0.00000E+00
 
    0.27075E+07        -0.76401E+05         0.00000E+00
   -0.76401E+05        -0.41680E+06         0.00000E+00
    0.00000E+00         0.00000E+00         0.00000E+00
 
    0.25385E+07        -0.56817E+05         0.00000E+00
   -0.56817E+05        -0.53195E+06         0.00000E+00
    0.00000E+00         0.00000E+00         0.00000E+00
 
    0.24421E+07        -0.42445E+05         0.00000E+00
   -0.42445E+05        -0.62069E+06         0.00000E+00
    0.00000E+00         0.00000E+00         0.00000E+00
 
    0.23782E+07        -0.31525E+05         0.00000E+00
   -0.31525E+05        -0.68715E+06         0.00000E+00
    0.00000E+00         0.00000E+00         0.00000E+00
 
    0.23300E+07        -0.23178E+05         0.00000E+00
   -0.23178E+05        -0.73604E+06         0.00000E+00
    0.00000E+00         0.00000E+00         0.00000E+00
 
    0.22895E+07        -0.16662E+05         0.00000E+00
   -0.16662E+05        -0.77113E+06         0.00000E+00
    0.00000E+00         0.00000E+00         0.00000E+00
 
    0.22526E+07        -0.11476E+05         0.00000E+00
   -0.11476E+05        -0.79523E+06         0.00000E+00
    0.00000E+00         0.00000E+00         0.00000E+00
 
    0.22172E+07        -0.72738E+04         0.00000E+00
   -0.72738E+04        -0.81046E+06         0.00000E+00
    0.00000E+00         0.00000E+00         0.00000E+00
 
    0.21819E+07        -0.38182E+04         0.00000E+00
   -0.38182E+04        -0.81841E+06         0.00000E+00
    0.00000E+00         0.00000E+00         0.00000E+00
 
    0.21460E+07        -0.94168E+03         0.00000E+00
   -0.94168E+03        -0.82032E+06         0.00000E+00
    0.00000E+00         0.00000E+00         0.00000E+00
 
    0.21092E+07         0.14760E+04         0.00000E+00
    0.14760E+04        -0.81716E+06         0.00000E+00
    0.00000E+00         0.00000E+00         0.00000E+00
 
    0.20713E+07         0.35230E+04         0.00000E+00
    0.35230E+04        -0.80972E+06         0.00000E+00
    0.00000E+00         0.00000E+00         0.00000E+00
 
    0.20322E+07         0.52654E+04         0.00000E+00
    0.52654E+04        -0.79864E+06         0.00000E+00
    0.00000E+00         0.00000E+00         0.00000E+00
 
    0.19919E+07         0.67536E+04         0.00000E+00
    0.67536E+04        -0.78446E+06         0.00000E+00
    0.00000E+00         0.00000E+00         0.00000E+00
 
    0.19506E+07         0.80265E+04         0.00000E+00
    0.80265E+04        -0.76761E+06         0.00000E+00
    0.00000E+00         0.00000E+00         0.00000E+00
 
    0.19082E+07         0.91146E+04         0.00000E+00
    0.91146E+04        -0.74848E+06         0.00000E+00
    0.00000E+00         0.00000E+00         0.00000E+00
 
    0.18648E+07         0.10043E+05         0.00000E+00
    0.10043E+05        -0.72742E+06         0.00000E+00
    0.00000E+00         0.00000E+00         0.00000E+00
 
    0.18207E+07         0.10830E+05         0.00000E+00
    0.10830E+05        -0.70470E+06         0.00000E+00
    0.00000E+00         0.00000E+00         0.00000E+00
 
    0.17759E+07         0.11493E+05         0.00000E+00
    0.11493E+05        -0.68059E+06         0.00000E+00
    0.00000E+00         0.00000E+00         0.00000E+00
 
    0.17305E+07         0.12044E+05         0.00000E+00
    0.12044E+05        -0.65530E+06         0.00000E+00
    0.00000E+00         0.00000E+00         0.00000E+00
 
    0.16847E+07         0.12496E+05         0.00000E+00
    0.12496E+05        -0.62906E+06         0.00000E+00
    0.00000E+00         0.00000E+00         0.00000E+00
 
    0.16385E+07         0.12858E+05         0.00000E+00
    0.12858E+05        -0.60205E+06         0.00000E+00
    0.00000E+00         0.00000E+00         0.00000E+00
 
    0.15921E+07         0.13138E+05         0.00000E+00
    0.13138E+05        -0.57442E+06         0.00000E+00
    0.00000E+00         0.00000E+00         0.00000E+00
 
    0.15456E+07         0.13343E+05         0.00000E+00
    0.13343E+05        -0.54634E+06         0.00000E+00
    0.00000E+00         0.00000E+00         0.00000E+00
 
    0.14991E+07         0.13481E+05         0.00000E+00
    0.13481E+05        -0.51795E+06         0.00000E+00
    0.00000E+00         0.00000E+00         0.00000E+00
 
    0.14527E+07         0.13557E+05         0.00000E+00
    0.13557E+05        -0.48937E+06         0.00000E+00
    0.00000E+00         0.00000E+00         0.00000E+00
 
    0.14065E+07         0.13576E+05         0.00000E+00
    0.13576E+05        -0.46071E+06         0.00000E+00
    0.00000E+00         0.00000E+00         0.00000E+00
 
    0.13605E+07         0.13545E+05         0.00000E+00
    0.13545E+05        -0.43209E+06         0.00000E+00
    0.00000E+00         0.00000E+00         0.00000E+00
 
    0.13148E+07         0.13469E+05         0.00000E+00
    0.13469E+05        -0.40360E+06         0.00000E+00
    0.00000E+00         0.00000E+00         0.00000E+00
 
    0.12694E+07         0.13353E+05         0.00000E+00
    0.13353E+05        -0.37532E+06         0.00000E+00
    0.00000E+00         0.00000E+00         0.00000E+00
 
    0.12245E+07         0.13202E+05         0.00000E+00
    0.13202E+05        -0.34731E+06         0.00000E+00
    0.00000E+00         0.00000E+00         0.00000E+00
 
    0.11800E+07         0.13023E+05         0.00000E+00
    0.13023E+05        -0.31966E+06         0.00000E+00
    0.00000E+00         0.00000E+00         0.00000E+00
 
    0.11358E+07         0.12821E+05         0.00000E+00
    0.12821E+05        -0.29239E+06         0.00000E+00
    0.00000E+00         0.00000E+00         0.00000E+00
 
    0.10921E+07         0.12603E+05         0.00000E+00
    0.12603E+05        -0.26555E+06         0.00000E+00
    0.00000E+00         0.00000E+00         0.00000E+00
 
    0.10487E+07         0.12377E+05         0.00000E+00
    0.12377E+05        -0.23915E+06         0.00000E+00
    0.00000E+00         0.00000E+00         0.00000E+00
 
    0.10056E+07         0.12152E+05         0.00000E+00
    0.12152E+05        -0.21321E+06         0.00000E+00
    0.00000E+00         0.00000E+00         0.00000E+00
 
    0.96258E+06         0.11939E+05         0.00000E+00
    0.11939E+05        -0.18770E+06         0.00000E+00
    0.00000E+00         0.00000E+00         0.00000E+00
 
    0.91950E+06         0.11752E+05         0.00000E+00
    0.11752E+05        -0.16258E+06         0.00000E+00
    0.00000E+00         0.00000E+00         0.00000E+00
 
    0.87609E+06         0.11607E+05         0.00000E+00
    0.11607E+05        -0.13778E+06         0.00000E+00
    0.00000E+00         0.00000E+00         0.00000E+00
 
    0.83201E+06         0.11530E+05         0.00000E+00
    0.11530E+05        -0.11318E+06         0.00000E+00
    0.00000E+00         0.00000E+00         0.00000E+00
 
    0.78675E+06         0.11552E+05         0.00000E+00
    0.11552E+05        -0.88603E+05         0.00000E+00
    0.00000E+00         0.00000E+00         0.00000E+00
 
    0.73963E+06         0.11722E+05         0.00000E+00
    0.11722E+05        -0.63804E+05         0.00000E+00
    0.00000E+00         0.00000E+00         0.00000E+00
 
    0.68966E+06         0.12116E+05         0.00000E+00
    0.12116E+05        -0.38405E+05         0.00000E+00
    0.00000E+00         0.00000E+00         0.00000E+00
 
    0.63543E+06         0.12856E+05         0.00000E+00
    0.12856E+05        -0.11834E+05         0.00000E+00
    0.00000E+00         0.00000E+00         0.00000E+00
 
    0.57473E+06         0.14159E+05         0.00000E+00
    0.14159E+05         0.16812E+05         0.00000E+00
    0.00000E+00         0.00000E+00         0.00000E+00
 
    0.50400E+06         0.16439E+05         0.00000E+00
    0.16439E+05         0.49050E+05         0.00000E+00
    0.00000E+00         0.00000E+00         0.00000E+00
 
    0.41692E+06         0.20633E+05         0.00000E+00
    0.20633E+05         0.87695E+05         0.00000E+00
    0.00000E+00         0.00000E+00         0.00000E+00
 
    0.30082E+06         0.28955E+05         0.00000E+00
    0.28955E+05         0.13873E+06         0.00000E+00
    0.00000E+00         0.00000E+00         0.00000E+00
 
    0.11668E+06         0.55659E+05         0.00000E+00
    0.55659E+05         0.22102E+06         0.00000E+00
    0.00000E+00         0.00000E+00         0.00000E+00
 
    0.25914E+07        -0.11866E+06         0.00000E+00
   -0.11866E+06        -0.58127E+06         0.00000E+00
    0.00000E+00         0.00000E+00         0.00000E+00
 
    0.23540E+07        -0.17535E+06         0.00000E+00
   -0.17535E+06        -0.59306E+06         0.00000E+00
    0.00000E+00         0.00000E+00         0.00000E+00
 
    0.22005E+07        -0.15084E+06         0.00000E+00
   -0.15084E+06        -0.63932E+06         0.00000E+00
    0.00000E+00         0.00000E+00         0.00000E+00
 
    0.21112E+07        -0.11985E+06         0.00000E+00
   -0.11985E+06        -0.69066E+06         0.00000E+00
    0.00000E+00         0.00000E+00         0.00000E+00
 
    0.20528E+07        -0.92750E+05         0.00000E+00
   -0.92750E+05        -0.73511E+06         0.00000E+00
    0.00000E+00         0.00000E+00         0.00000E+00
 
    0.20101E+07        -0.70453E+05         0.00000E+00
   -0.70453E+05        -0.77029E+06         0.00000E+00
    0.00000E+00         0.00000E+00         0.00000E+00
 
    0.19754E+07        -0.52298E+05         0.00000E+00
   -0.52298E+05        -0.79641E+06         0.00000E+00
    0.00000E+00         0.00000E+00         0.00000E+00
 
    0.19443E+07        -0.37445E+05         0.00000E+00
   -0.37445E+05        -0.81441E+06         0.00000E+00
    0.00000E+00         0.00000E+00         0.00000E+00
 
    0.19146E+07        -0.25188E+05         0.00000E+00
   -0.25188E+05        -0.82535E+06         0.00000E+00
    0.00000E+00         0.00000E+00         0.00000E+00
 
    0.18850E+07        -0.14976E+05         0.00000E+00
   -0.14976E+05        -0.83019E+06         0.00000E+00
    0.00000E+00         0.00000E+00         0.00000E+00
 
    0.18546E+07        -0.63966E+04         0.00000E+00
   -0.63966E+04        -0.82978E+06         0.00000E+00
    0.00000E+00         0.00000E+00         0.00000E+00
 
    0.18232E+07         0.86435E+03         0.00000E+00
    0.86435E+03        -0.82487E+06         0.00000E+00
    0.00000E+00         0.00000E+00         0.00000E+00
 
    0.17905E+07         0.70444E+04         0.00000E+00
    0.70444E+04        -0.81606E+06         0.00000E+00
    0.00000E+00         0.00000E+00         0.00000E+00
 
    0.17565E+07         0.12326E+05         0.00000E+00
    0.12326E+05        -0.80391E+06         0.00000E+00
    0.00000E+00         0.00000E+00         0.00000E+00
 
    0.17212E+07         0.16852E+05         0.00000E+00
    0.16852E+05        -0.78886E+06         0.00000E+00
    0.00000E+00         0.00000E+00         0.00000E+00
 
    0.16847E+07         0.20735E+05         0.00000E+00
    0.20735E+05        -0.77131E+06         0.00000E+00
    0.00000E+00         0.00000E+00         0.00000E+00
 
    0.16470E+07         0.24062E+05         0.00000E+00
    0.24062E+05        -0.75161E+06         0.00000E+00
    0.00000E+00         0.00000E+00         0.00000E+00
 
    0.16083E+07         0.26906E+05         0.00000E+00
    0.26906E+05        -0.73006E+06         0.00000E+00
    0.00000E+00         0.00000E+00         0.00000E+00
 
    0.15687E+07         0.29325E+05         0.00000E+00
    0.29325E+05        -0.70693E+06         0.00000E+00
    0.00000E+00         0.00000E+00         0.00000E+00
 
    0.15284E+07         0.31368E+05         0.00000E+00
    0.31368E+05        -0.68247E+06         0.00000E+00
    0.00000E+00         0.00000E+00         0.00000E+00
 
    0.14874E+07         0.33074E+05         0.00000E+00
    0.33074E+05        -0.65689E+06         0.00000E+00
    0.00000E+00         0.00000E+00         0.00000E+00
 
    0.14458E+07         0.34478E+05         0.00000E+00
    0.34478E+05        -0.63038E+06         0.00000E+00
    0.00000E+00         0.00000E+00         0.00000E+00
 
    0.14039E+07         0.35609E+05         0.00000E+00
    0.35609E+05        -0.60313E+06         0.00000E+00
    0.00000E+00         0.00000E+00         0.00000E+00
 
    0.13617E+07         0.36492E+05         0.00000E+00
    0.36492E+05        -0.57530E+06         0.00000E+00
    0.00000E+00         0.00000E+00         0.00000E+00
 
    0.13193E+07         0.37149E+05         0.00000E+00
    0.37149E+05        -0.54704E+06         0.00000E+00
    0.00000E+00         0.00000E+00         0.00000E+00
 
    0.12769E+07         0.37600E+05         0.00000E+00
    0.37600E+05        -0.51848E+06         0.00000E+00
    0.00000E+00         0.00000E+00         0.00000E+00
 
    0.12345E+07         0.37864E+05         0.00000E+00
    0.37864E+05        -0.48975E+06         0.00000E+00
    0.00000E+00         0.00000E+00         0.00000E+00
 
    0.11922E+07         0.37957E+05         0.00000E+00
    0.37957E+05        -0.46096E+06         0.00000E+00
    0.00000E+00         0.00000E+00         0.00000E+00
 
    0.11501E+07         0.37897E+05         0.00000E+00
    0.37897E+05        -0.43221E+06         0.00000E+00
    0.00000E+00         0.00000E+00         0.00000E+00
 
    0.11083E+07         0.37698E+05         0.00000E+00
    0.37698E+05        -0.40359E+06         0.00000E+00
    0.00000E+00         0.00000E+00         0.00000E+00
 
    0.10668E+07         0.37376E+05         0.00000E+00
    0.37376E+05        -0.37519E+06         0.00000E+00
    0.00000E+00         0.00000E+00         0.00000E+00
 
    0.10256E+07         0.36948E+05         0.00000E+00
    0.36948E+05        -0.34708E+06         0.00000E+00
    0.00000E+00         0.00000E+00         0.00000E+00
 
    0.98489E+06         0.36430E+05         0.00000E+00
    0.36430E+05        -0.31932E+06         0.00000E+00
    0.00000E+00         0.00000E+00         0.00000E+00
 
    0.94455E+06         0.35840E+05         0.00000E+00
    0.35840E+05        -0.29195E+06         0.00000E+00
    0.00000E+00         0.00000E+00         0.00000E+00
 
    0.90458E+06         0.35199E+05         0.00000E+00
    0.35199E+05        -0.26501E+06         0.00000E+00
    0.00000E+00         0.00000E+00         0.00000E+00
 
    0.86496E+06         0.34528E+05         0.00000E+00
    0.34528E+05        -0.23851E+06         0.00000E+00
    0.00000E+00         0.00000E+00         0.00000E+00
 
    0.82560E+06         0.33855E+05         0.00000E+00
    0.33855E+05        -0.21246E+06         0.00000E+00
    0.00000E+00         0.00000E+00         0.00000E+00
 
    0.78638E+06         0.33211E+05         0.00000E+00
    0.33211E+05        -0.18684E+06         0.00000E+00
    0.00000E+00         0.00000E+00         0.00000E+00
 
    0.74714E+06         0.32639E+05         0.00000E+00
    0.32639E+05        -0.16160E+06         0.00000E+00
    0.00000E+00         0.00000E+00         0.00000E+00
 
    0.70764E+06         0.32189E+05         0.00000E+00
    0.32189E+05        -0.13666E+06         0.00000E+00
    0.00000E+00         0.00000E+00         0.00000E+00
 
    0.66755E+06         0.31935E+05         0.00000E+00
    0.31935E+05        -0.11191E+06         0.00000E+00
    0.00000E+00         0.00000E+00         0.00000E+00
 
    0.62640E+06         0.31978E+05         0.00000E+00
    0.31978E+05        -0.87154E+05         0.00000E+00
    0.00000E+00         0.00000E+00         0.00000E+00
 
    0.58355E+06         0.32468E+05         0.00000E+00
    0.32468E+05        -0.62144E+05         0.00000E+00
    0.00000E+00         0.00000E+00         0.00000E+00
 
    0.53811E+06         0.33635E+05         0.00000E+00
    0.33635E+05        -0.36493E+05         0.00000E+00
    0.00000E+00         0.00000E+00         0.00000E+00
 
    0.48873E+06         0.35861E+05         0.00000E+00
    0.35861E+05        -0.96246E+04         0.00000E+00
    0.00000E+00         0.00000E+00         0.00000E+00
 
    0.43347E+06         0.39805E+05         0.00000E+00
    0.39805E+05         0.19351E+05         0.00000E+00
    0.00000E+00         0.00000E+00         0.00000E+00
 
    0.36927E+06         0.46725E+05         0.00000E+00
    0.46725E+05         0.51881E+05         0.00000E+00
    0.00000E+00         0.00000E+00         0.00000E+00
 
    0.29127E+06         0.59275E+05         0.00000E+00
    0.59275E+05         0.90449E+05         0.00000E+00
    0.00000E+00         0.00000E+00         0.00000E+00
 
    0.19091E+06         0.84270E+05         0.00000E+00
    0.84270E+05         0.13972E+06         0.00000E+00
    0.00000E+00         0.00000E+00         0.00000E+00
 
    0.66878E+05         0.14429E+06         0.00000E+00
    0.14429E+06         0.20399E+06         0.00000E+00
    0.00000E+00         0.00000E+00         0.00000E+00
 
    0.21597E+07        -0.95129E+05         0.00000E+00
   -0.95129E+05        -0.84744E+06         0.00000E+00
    0.00000E+00         0.00000E+00         0.00000E+00
 
    0.20638E+07        -0.18679E+06         0.00000E+00
   -0.18679E+06        -0.81582E+06         0.00000E+00
    0.00000E+00         0.00000E+00         0.00000E+00
 
    0.19550E+07        -0.19282E+06         0.00000E+00
   -0.19282E+06        -0.80038E+06         0.00000E+00
    0.00000E+00         0.00000E+00         0.00000E+00
 
    0.18743E+07        -0.16821E+06         0.00000E+00
   -0.16821E+06        -0.80505E+06         0.00000E+00
    0.00000E+00         0.00000E+00         0.00000E+00
 
    0.18175E+07        -0.13797E+06         0.00000E+00
   -0.13797E+06        -0.81785E+06         0.00000E+00
    0.00000E+00         0.00000E+00         0.00000E+00
 
    0.17752E+07        -0.10929E+06         0.00000E+00
   -0.10929E+06        -0.83155E+06         0.00000E+00
    0.00000E+00         0.00000E+00         0.00000E+00
 
    0.17411E+07        -0.84006E+05         0.00000E+00
   -0.84006E+05        -0.84281E+06         0.00000E+00
    0.00000E+00         0.00000E+00         0.00000E+00
 
    0.17113E+07        -0.62251E+05         0.00000E+00
   -0.62251E+05        -0.85030E+06         0.00000E+00
    0.00000E+00         0.00000E+00         0.00000E+00
 
    0.16834E+07        -0.43671E+05         0.00000E+00
   -0.43671E+05        -0.85360E+06         0.00000E+00
    0.00000E+00         0.00000E+00         0.00000E+00
 
    0.16559E+07        -0.27811E+05         0.00000E+00
   -0.27811E+05        -0.85279E+06         0.00000E+00
    0.00000E+00         0.00000E+00         0.00000E+00
 
    0.16281E+07        -0.14245E+05         0.00000E+00
   -0.14245E+05        -0.84811E+06         0.00000E+00
    0.00000E+00         0.00000E+00         0.00000E+00
 
    0.15995E+07        -0.26086E+04         0.00000E+00
   -0.26086E+04        -0.83990E+06         0.00000E+00
    0.00000E+00         0.00000E+00         0.00000E+00
 
    0.15697E+07         0.73987E+04         0.00000E+00
    0.73987E+04        -0.82851E+06         0.00000E+00
    0.00000E+00         0.00000E+00         0.00000E+00
 
    0.15388E+07         0.16022E+05         0.00000E+00
    0.16022E+05        -0.81429E+06         0.00000E+00
    0.00000E+00         0.00000E+00         0.00000E+00
 
    0.15066E+07         0.23459E+05         0.00000E+00
    0.23459E+05        -0.79758E+06         0.00000E+00
    0.00000E+00         0.00000E+00         0.00000E+00
 
    0.14732E+07         0.29873E+05         0.00000E+00
    0.29873E+05        -0.77867E+06         0.00000E+00
    0.00000E+00         0.00000E+00         0.00000E+00
 
    0.14387E+07         0.35395E+05         0.00000E+00
    0.35395E+05        -0.75783E+06         0.00000E+00
    0.00000E+00         0.00000E+00         0.00000E+00
 
    0.14032E+07         0.40134E+05         0.00000E+00
    0.40134E+05        -0.73534E+06         0.00000E+00
    0.00000E+00         0.00000E+00         0.00000E+00
 
    0.13668E+07         0.44181E+05         0.00000E+00
    0.44181E+05        -0.71141E+06         0.00000E+00
    0.00000E+00         0.00000E+00         0.00000E+00
 
    0.13296E+07         0.47610E+05         0.00000E+00
    0.47610E+05        -0.68626E+06         0.00000E+00
    0.00000E+00         0.00000E+00         0.00000E+00
 
    0.12918E+07         0.50487E+05         0.00000E+00
    0.50487E+05        -0.66008E+06         0.00000E+00
    0.00000E+00         0.00000E+00         0.00000E+00
 
    0.12534E+07         0.52864E+05         0.00000E+00
    0.52864E+05        -0.63305E+06         0.00000E+00
    0.00000E+00         0.00000E+00         0.00000E+00
 
    0.12146E+07         0.54789E+05         0.00000E+00
    0.54789E+05        -0.60534E+06         0.00000E+00
    0.00000E+00         0.00000E+00         0.00000E+00
 
    0.11755E+07         0.56303E+05         0.00000E+00
    0.56303E+05        -0.57711E+06         0.00000E+00
    0.00000E+00         0.00000E+00         0.00000E+00
 
    0.11362E+07         0.57442E+05         0.00000E+00
    0.57442E+05        -0.54848E+06         0.00000E+00
    0.00000E+00         0.00000E+00         0.00000E+00
 
    0.10968E+07         0.58238E+05         0.00000E+00
    0.58238E+05        -0.51958E+06         0.00000E+00
    0.00000E+00         0.00000E+00         0.00000E+00
 
    0.10574E+07         0.58723E+05         0.00000E+00
    0.58723E+05        -0.49055E+06         0.00000E+00
    0.00000E+00         0.00000E+00         0.00000E+00
 
    0.10182E+07         0.58923E+05         0.00000E+00
    0.58923E+05        -0.46148E+06         0.00000E+00
    0.00000E+00         0.00000E+00         0.00000E+00
 
    0.97907E+06         0.58866E+05         0.00000E+00
    0.58866E+05        -0.43247E+06         0.00000E+00
    0.00000E+00         0.00000E+00         0.00000E+00
 
    0.94022E+06         0.58576E+05         0.00000E+00
    0.58576E+05        -0.40361E+06         0.00000E+00
    0.00000E+00         0.00000E+00         0.00000E+00
 
    0.90169E+06         0.58080E+05         0.00000E+00
    0.58080E+05        -0.37499E+06         0.00000E+00
    0.00000E+00         0.00000E+00         0.00000E+00
 
    0.86350E+06         0.57405E+05         0.00000E+00
    0.57405E+05        -0.34666E+06         0.00000E+00
    0.00000E+00         0.00000E+00         0.00000E+00
 
    0.82568E+06         0.56576E+05         0.00000E+00
    0.56576E+05        -0.31868E+06         0.00000E+00
    0.00000E+00         0.00000E+00         0.00000E+00
 
    0.78826E+06         0.55625E+05         0.00000E+00
    0.55625E+05        -0.29111E+06         0.00000E+00
    0.00000E+00         0.00000E+00         0.00000E+00
 
    0.75122E+06         0.54583E+05         0.00000E+00
    0.54583E+05        -0.26396E+06         0.00000E+00
    0.00000E+00         0.00000E+00         0.00000E+00
 
    0.71453E+06         0.53488E+05         0.00000E+00
    0.53488E+05        -0.23726E+06         0.00000E+00
    0.00000E+00         0.00000E+00         0.00000E+00
 
    0.67811E+06         0.52385E+05         0.00000E+00
    0.52385E+05        -0.21100E+06         0.00000E+00
    0.00000E+00         0.00000E+00         0.00000E+00
 
    0.64188E+06         0.51327E+05         0.00000E+00
    0.51327E+05        -0.18516E+06         0.00000E+00
    0.00000E+00         0.00000E+00         0.00000E+00
 
    0.60566E+06         0.50383E+05         0.00000E+00
    0.50383E+05        -0.15968E+06         0.00000E+00
    0.00000E+00         0.00000E+00         0.00000E+00
 
    0.56925E+06         0.49643E+05         0.00000E+00
    0.49643E+05        -0.13449E+06         0.00000E+00
    0.00000E+00         0.00000E+00         0.00000E+00
 
    0.53235E+06         0.49231E+05         0.00000E+00
    0.49231E+05        -0.10946E+06         0.00000E+00
    0.00000E+00         0.00000E+00         0.00000E+00
 
    0.49454E+06         0.49320E+05         0.00000E+00
    0.49320E+05        -0.84394E+05         0.00000E+00
    0.00000E+00         0.00000E+00         0.00000E+00
 
    0.45525E+06         0.50167E+05         0.00000E+00
    0.50167E+05        -0.59042E+05         0.00000E+00
    0.00000E+00         0.00000E+00         0.00000E+00
 
    0.41371E+06         0.52165E+05         0.00000E+00
    0.52165E+05        -0.33024E+05         0.00000E+00
    0.00000E+00         0.00000E+00         0.00000E+00
 
    0.36882E+06         0.55948E+05         0.00000E+00
    0.55948E+05        -0.57965E+04         0.00000E+00
    0.00000E+00         0.00000E+00         0.00000E+00
 
    0.31907E+06         0.62596E+05         0.00000E+00
    0.62596E+05         0.23424E+05         0.00000E+00
    0.00000E+00         0.00000E+00         0.00000E+00
 
    0.26241E+06         0.74061E+05         0.00000E+00
    0.74061E+05         0.55776E+05         0.00000E+00
    0.00000E+00         0.00000E+00         0.00000E+00
 
    0.19625E+06         0.94154E+05         0.00000E+00
    0.94154E+05         0.92814E+05         0.00000E+00
    0.00000E+00         0.00000E+00         0.00000E+00
 
    0.11968E+06         0.13099E+06         0.00000E+00
    0.13099E+06         0.13574E+06         0.00000E+00
    0.00000E+00         0.00000E+00         0.00000E+00
 
    0.39450E+05         0.19723E+06         0.00000E+00
    0.19723E+06         0.18021E+06         0.00000E+00
    0.00000E+00         0.00000E+00         0.00000E+00
 
    0.18353E+07        -0.69619E+05         0.00000E+00
   -0.69619E+05        -0.10349E+07         0.00000E+00
    0.00000E+00         0.00000E+00         0.00000E+00
 
    0.18261E+07        -0.15931E+06         0.00000E+00
   -0.15931E+06        -0.99753E+06         0.00000E+00
    0.00000E+00         0.00000E+00         0.00000E+00
 
    0.17674E+07        -0.18869E+06         0.00000E+00
   -0.18869E+06        -0.95716E+06         0.00000E+00
    0.00000E+00         0.00000E+00         0.00000E+00
 
    0.17047E+07        -0.18150E+06         0.00000E+00
   -0.18150E+06        -0.93018E+06         0.00000E+00
    0.00000E+00         0.00000E+00         0.00000E+00
 
    0.16519E+07        -0.15885E+06         0.00000E+00
   -0.15885E+06        -0.91549E+06         0.00000E+00
    0.00000E+00         0.00000E+00         0.00000E+00
 
    0.16092E+07        -0.13178E+06         0.00000E+00
   -0.13178E+06        -0.90775E+06         0.00000E+00
    0.00000E+00         0.00000E+00         0.00000E+00
 
    0.15736E+07        -0.10495E+06         0.00000E+00
   -0.10495E+06        -0.90278E+06         0.00000E+00
    0.00000E+00         0.00000E+00         0.00000E+00
 
    0.15425E+07        -0.80164E+05         0.00000E+00
   -0.80164E+05        -0.89801E+06         0.00000E+00
    0.00000E+00         0.00000E+00         0.00000E+00
 
    0.15137E+07        -0.57947E+05         0.00000E+00
   -0.57947E+05        -0.89201E+06         0.00000E+00
    0.00000E+00         0.00000E+00         0.00000E+00
 
    0.14860E+07        -0.38321E+05         0.00000E+00
   -0.38321E+05        -0.88405E+06         0.00000E+00
    0.00000E+00         0.00000E+00         0.00000E+00
 
    0.14585E+07        -0.21104E+05         0.00000E+00
   -0.21104E+05        -0.87380E+06         0.00000E+00
    0.00000E+00         0.00000E+00         0.00000E+00
 
    0.14305E+07        -0.60498E+04         0.00000E+00
   -0.60498E+04        -0.86120E+06         0.00000E+00
    0.00000E+00         0.00000E+00         0.00000E+00
 
    0.14018E+07         0.70908E+04         0.00000E+00
    0.70908E+04        -0.84631E+06         0.00000E+00
    0.00000E+00         0.00000E+00         0.00000E+00
 
    0.13722E+07         0.18547E+05         0.00000E+00
    0.18547E+05        -0.82926E+06         0.00000E+00
    0.00000E+00         0.00000E+00         0.00000E+00
 
    0.13415E+07         0.28522E+05         0.00000E+00
    0.28522E+05        -0.81023E+06         0.00000E+00
    0.00000E+00         0.00000E+00         0.00000E+00
 
    0.13098E+07         0.37191E+05         0.00000E+00
    0.37191E+05        -0.78940E+06         0.00000E+00
    0.00000E+00         0.00000E+00         0.00000E+00
 
    0.12771E+07         0.44702E+05         0.00000E+00
    0.44702E+05        -0.76696E+06         0.00000E+00
    0.00000E+00         0.00000E+00         0.00000E+00
 
    0.12435E+07         0.51184E+05         0.00000E+00
    0.51184E+05        -0.74311E+06         0.00000E+00
    0.00000E+00         0.00000E+00         0.00000E+00
 
    0.12091E+07         0.56745E+05         0.00000E+00
    0.56745E+05        -0.71802E+06         0.00000E+00
    0.00000E+00         0.00000E+00         0.00000E+00
 
    0.11740E+07         0.61479E+05         0.00000E+00
    0.61479E+05        -0.69188E+06         0.00000E+00
    0.00000E+00         0.00000E+00         0.00000E+00
 
    0.11383E+07         0.65465E+05         0.00000E+00
    0.65465E+05        -0.66483E+06         0.00000E+00
    0.00000E+00         0.00000E+00         0.00000E+00
 
    0.11020E+07         0.68774E+05         0.00000E+00
    0.68774E+05        -0.63704E+06         0.00000E+00
    0.00000E+00         0.00000E+00         0.00000E+00
 
    0.10654E+07         0.71465E+05         0.00000E+00
    0.71465E+05        -0.60866E+06         0.00000E+00
    0.00000E+00         0.00000E+00         0.00000E+00
 
    0.10284E+07         0.73594E+05         0.00000E+00
    0.73594E+05        -0.57982E+06         0.00000E+00
    0.00000E+00         0.00000E+00         0.00000E+00
 
    0.99131E+06         0.75207E+05         0.00000E+00
    0.75207E+05        -0.55065E+06         0.00000E+00
    0.00000E+00         0.00000E+00         0.00000E+00
 
    0.95411E+06         0.76349E+05         0.00000E+00
    0.76349E+05        -0.52127E+06         0.00000E+00
    0.00000E+00         0.00000E+00         0.00000E+00
 
    0.91693E+06         0.77061E+05         0.00000E+00
    0.77061E+05        -0.49179E+06         0.00000E+00
    0.00000E+00         0.00000E+00         0.00000E+00
 
    0.87985E+06         0.77378E+05         0.00000E+00
    0.77378E+05        -0.46230E+06         0.00000E+00
    0.00000E+00         0.00000E+00         0.00000E+00
 
    0.84294E+06         0.77339E+05         0.00000E+00
    0.77339E+05        -0.43291E+06         0.00000E+00
    0.00000E+00         0.00000E+00         0.00000E+00
 
    0.80628E+06         0.76977E+05         0.00000E+00
    0.76977E+05        -0.40370E+06         0.00000E+00
    0.00000E+00         0.00000E+00         0.00000E+00
 
    0.76992E+06         0.76328E+05         0.00000E+00
    0.76328E+05        -0.37473E+06         0.00000E+00
    0.00000E+00         0.00000E+00         0.00000E+00
 
    0.73391E+06         0.75428E+05         0.00000E+00
    0.75428E+05        -0.34608E+06         0.00000E+00
    0.00000E+00         0.00000E+00         0.00000E+00
 
    0.69827E+06         0.74315E+05         0.00000E+00
    0.74315E+05        -0.31779E+06         0.00000E+00
    0.00000E+00         0.00000E+00         0.00000E+00
 
    0.66303E+06         0.73030E+05         0.00000E+00
    0.73030E+05        -0.28991E+06         0.00000E+00
    0.00000E+00         0.00000E+00         0.00000E+00
 
    0.62818E+06         0.71618E+05         0.00000E+00
    0.71618E+05        -0.26247E+06         0.00000E+00
    0.00000E+00         0.00000E+00         0.00000E+00
 
    0.59368E+06         0.70131E+05         0.00000E+00
    0.70131E+05        -0.23547E+06         0.00000E+00
    0.00000E+00         0.00000E+00         0.00000E+00
 
    0.55949E+06         0.68633E+05         0.00000E+00
    0.68633E+05        -0.20891E+06         0.00000E+00
    0.00000E+00         0.00000E+00         0.00000E+00
 
    0.52550E+06         0.67201E+05         0.00000E+00
    0.67201E+05        -0.18276E+06         0.00000E+00
    0.00000E+00         0.00000E+00         0.00000E+00
 
    0.49160E+06         0.65932E+05         0.00000E+00
    0.65932E+05        -0.15696E+06         0.00000E+00
    0.00000E+00         0.00000E+00         0.00000E+00
 
    0.45758E+06         0.64956E+05         0.00000E+00
    0.64956E+05        -0.13144E+06         0.00000E+00
    0.00000E+00         0.00000E+00         0.00000E+00
 
    0.42318E+06         0.64448E+05         0.00000E+00
    0.64448E+05        -0.10606E+06         0.00000E+00
    0.00000E+00         0.00000E+00         0.00000E+00
 
    0.38807E+06         0.64655E+05         0.00000E+00
    0.64655E+05        -0.80645E+05         0.00000E+00
    0.00000E+00         0.00000E+00         0.00000E+00
 
    0.35176E+06         0.65938E+05         0.00000E+00
    0.65938E+05        -0.54953E+05         0.00000E+00
    0.00000E+00         0.00000E+00         0.00000E+00
 
    0.31367E+06         0.68836E+05         0.00000E+00
    0.68836E+05        -0.28653E+05         0.00000E+00
    0.00000E+00         0.00000E+00         0.00000E+00
 
    0.27302E+06         0.74193E+05         0.00000E+00
    0.74193E+05        -0.13095E+04         0.00000E+00
    0.00000E+00         0.00000E+00         0.00000E+00
 
    0.22891E+06         0.83374E+05         0.00000E+00
    0.83374E+05         0.27619E+05         0.00000E+00
    0.00000E+00         0.00000E+00         0.00000E+00
 
    0.18043E+06         0.98652E+05         0.00000E+00
    0.98652E+05         0.58709E+05         0.00000E+00
    0.00000E+00         0.00000E+00         0.00000E+00
 
    0.12742E+06         0.12390E+06         0.00000E+00
    0.12390E+06         0.92191E+05         0.00000E+00
    0.00000E+00         0.00000E+00         0.00000E+00
 
    0.72244E+05         0.16495E+06         0.00000E+00
    0.16495E+06         0.12656E+06         0.00000E+00
    0.00000E+00         0.00000E+00         0.00000E+00
 
    0.22325E+05         0.22841E+06         0.00000E+00
    0.22841E+06         0.15656E+06         0.00000E+00
    0.00000E+00         0.00000E+00         0.00000E+00
 
    0.16075E+07        -0.48106E+05         0.00000E+00
   -0.48106E+05        -0.11595E+07         0.00000E+00
    0.00000E+00         0.00000E+00         0.00000E+00
 
    0.16440E+07        -0.12301E+06         0.00000E+00
   -0.12301E+06        -0.11266E+07         0.00000E+00
    0.00000E+00         0.00000E+00         0.00000E+00
 
    0.16233E+07        -0.16114E+06         0.00000E+00
   -0.16114E+06        -0.10823E+07         0.00000E+00
    0.00000E+00         0.00000E+00         0.00000E+00
 
    0.15814E+07        -0.16849E+06         0.00000E+00
   -0.16849E+06        -0.10421E+07         0.00000E+00
    0.00000E+00         0.00000E+00         0.00000E+00
 
    0.15366E+07        -0.15703E+06         0.00000E+00
   -0.15703E+06        -0.10106E+07         0.00000E+00
    0.00000E+00         0.00000E+00         0.00000E+00
 
    0.14953E+07        -0.13642E+06         0.00000E+00
   -0.13642E+06        -0.98673E+06         0.00000E+00
    0.00000E+00         0.00000E+00         0.00000E+00
 
    0.14585E+07        -0.11246E+06         0.00000E+00
   -0.11246E+06        -0.96792E+06         0.00000E+00
    0.00000E+00         0.00000E+00         0.00000E+00
 
    0.14254E+07        -0.88196E+05         0.00000E+00
   -0.88196E+05        -0.95173E+06         0.00000E+00
    0.00000E+00         0.00000E+00         0.00000E+00
 
    0.13946E+07        -0.65095E+05         0.00000E+00
   -0.65095E+05        -0.93648E+06         0.00000E+00
    0.00000E+00         0.00000E+00         0.00000E+00
 
    0.13653E+07        -0.43801E+05         0.00000E+00
   -0.43801E+05        -0.92105E+06         0.00000E+00
    0.00000E+00         0.00000E+00         0.00000E+00
 
    0.13365E+07        -0.24524E+05         0.00000E+00
   -0.24524E+05        -0.90477E+06         0.00000E+00
    0.00000E+00         0.00000E+00         0.00000E+00
 
    0.13078E+07        -0.72594E+04         0.00000E+00
   -0.72594E+04        -0.88726E+06         0.00000E+00
    0.00000E+00         0.00000E+00         0.00000E+00
 
    0.12787E+07         0.80939E+04         0.00000E+00
    0.80939E+04        -0.86835E+06         0.00000E+00
    0.00000E+00         0.00000E+00         0.00000E+00
 
    0.12490E+07         0.21679E+05         0.00000E+00
    0.21679E+05        -0.84798E+06         0.00000E+00
    0.00000E+00         0.00000E+00         0.00000E+00
 
    0.12186E+07         0.33648E+05         0.00000E+00
    0.33648E+05        -0.82618E+06         0.00000E+00
    0.00000E+00         0.00000E+00         0.00000E+00
 
    0.11875E+07         0.44151E+05         0.00000E+00
    0.44151E+05        -0.80303E+06         0.00000E+00
    0.00000E+00         0.00000E+00         0.00000E+00
 
    0.11555E+07         0.53325E+05         0.00000E+00
    0.53325E+05        -0.77863E+06         0.00000E+00
    0.00000E+00         0.00000E+00         0.00000E+00
 
    0.11228E+07         0.61295E+05         0.00000E+00
    0.61295E+05        -0.75310E+06         0.00000E+00
    0.00000E+00         0.00000E+00         0.00000E+00
 
    0.10894E+07         0.68171E+05         0.00000E+00
    0.68171E+05        -0.72656E+06         0.00000E+00
    0.00000E+00         0.00000E+00         0.00000E+00
 
    0.10554E+07         0.74054E+05         0.00000E+00
    0.74054E+05        -0.69916E+06         0.00000E+00
    0.00000E+00         0.00000E+00         0.00000E+00
 
    0.10208E+07         0.79029E+05         0.00000E+00
    0.79029E+05        -0.67101E+06         0.00000E+00
    0.00000E+00         0.00000E+00         0.00000E+00
 
    0.98584E+06         0.83175E+05         0.00000E+00
    0.83175E+05        -0.64226E+06         0.00000E+00
    0.00000E+00         0.00000E+00         0.00000E+00
 
    0.95052E+06         0.86562E+05         0.00000E+00
    0.86562E+05        -0.61301E+06         0.00000E+00
    0.00000E+00         0.00000E+00         0.00000E+00
 
    0.91496E+06         0.89251E+05         0.00000E+00
    0.89251E+05        -0.58340E+06         0.00000E+00
    0.00000E+00         0.00000E+00         0.00000E+00
 
    0.87926E+06         0.91300E+05         0.00000E+00
    0.91300E+05        -0.55353E+06         0.00000E+00
    0.00000E+00         0.00000E+00         0.00000E+00
 
    0.84351E+06         0.92760E+05         0.00000E+00
    0.92760E+05        -0.52352E+06         0.00000E+00
    0.00000E+00         0.00000E+00         0.00000E+00
 
    0.80779E+06         0.93681E+05         0.00000E+00
    0.93681E+05        -0.49345E+06         0.00000E+00
    0.00000E+00         0.00000E+00         0.00000E+00
 
    0.77218E+06         0.94107E+05         0.00000E+00
    0.94107E+05        -0.46344E+06         0.00000E+00
    0.00000E+00         0.00000E+00         0.00000E+00
 
    0.73677E+06         0.94085E+05         0.00000E+00
    0.94085E+05        -0.43355E+06         0.00000E+00
    0.00000E+00         0.00000E+00         0.00000E+00
 
    0.70161E+06         0.93657E+05         0.00000E+00
    0.93657E+05        -0.40387E+06         0.00000E+00
    0.00000E+00         0.00000E+00         0.00000E+00
 
    0.66677E+06         0.92867E+05         0.00000E+00
    0.92867E+05        -0.37446E+06         0.00000E+00
    0.00000E+00         0.00000E+00         0.00000E+00
 
    0.63228E+06         0.91761E+05         0.00000E+00
    0.91761E+05        -0.34539E+06         0.00000E+00
    0.00000E+00         0.00000E+00         0.00000E+00
 
    0.59817E+06         0.90387E+05         0.00000E+00
    0.90387E+05        -0.31670E+06         0.00000E+00
    0.00000E+00         0.00000E+00         0.00000E+00
 
    0.56448E+06         0.88796E+05         0.00000E+00
    0.88796E+05        -0.28844E+06         0.00000E+00
    0.00000E+00         0.00000E+00         0.00000E+00
 
    0.53118E+06         0.87048E+05         0.00000E+00
    0.87048E+05        -0.26061E+06         0.00000E+00
    0.00000E+00         0.00000E+00         0.00000E+00
 
    0.49826E+06         0.85210E+05         0.00000E+00
    0.85210E+05        -0.23324E+06         0.00000E+00
    0.00000E+00         0.00000E+00         0.00000E+00
 
    0.46568E+06         0.83365E+05         0.00000E+00
    0.83365E+05        -0.20631E+06         0.00000E+00
    0.00000E+00         0.00000E+00         0.00000E+00
 
    0.43335E+06         0.81613E+05         0.00000E+00
    0.81613E+05        -0.17979E+06         0.00000E+00
    0.00000E+00         0.00000E+00         0.00000E+00
 
    0.40116E+06         0.80081E+05         0.00000E+00
    0.80081E+05        -0.15363E+06         0.00000E+00
    0.00000E+00         0.00000E+00         0.00000E+00
 
    0.36896E+06         0.78938E+05         0.00000E+00
    0.78938E+05        -0.12775E+06         0.00000E+00
    0.00000E+00         0.00000E+00         0.00000E+00
 
    0.33653E+06         0.78408E+05         0.00000E+00
    0.78408E+05        -0.10203E+06         0.00000E+00
    0.00000E+00         0.00000E+00         0.00000E+00
 
    0.30360E+06         0.78806E+05         0.00000E+00
    0.78806E+05        -0.76323E+05         0.00000E+00
    0.00000E+00         0.00000E+00         0.00000E+00
 
    0.26985E+06         0.80575E+05         0.00000E+00
    0.80575E+05        -0.50425E+05         0.00000E+00
    0.00000E+00         0.00000E+00         0.00000E+00
 
    0.23488E+06         0.84362E+05         0.00000E+00
    0.84362E+05        -0.24100E+05         0.00000E+00
    0.00000E+00         0.00000E+00         0.00000E+00
 
    0.19829E+06         0.91128E+05         0.00000E+00
    0.91128E+05         0.29147E+04         0.00000E+00
    0.00000E+00         0.00000E+00         0.00000E+00
 
    0.15978E+06         0.10232E+06         0.00000E+00
    0.10232E+06         0.30829E+05         0.00000E+00
    0.00000E+00         0.00000E+00         0.00000E+00
 
    0.11944E+06         0.12010E+06         0.00000E+00
    0.12010E+06         0.59605E+05         0.00000E+00
    0.00000E+00         0.00000E+00         0.00000E+00
 
    0.78487E+05         0.14755E+06         0.00000E+00
    0.14755E+06         0.88462E+05         0.00000E+00
    0.00000E+00         0.00000E+00         0.00000E+00
 
    0.40257E+05         0.18834E+06         0.00000E+00
    0.18834E+06         0.11504E+06         0.00000E+00
    0.00000E+00         0.00000E+00         0.00000E+00
 
    0.11206E+05         0.24569E+06         0.00000E+00
    0.24569E+06         0.13453E+06         0.00000E+00
    0.00000E+00         0.00000E+00         0.00000E+00
 
    0.14562E+07        -0.31227E+05         0.00000E+00
   -0.31227E+05        -0.12380E+07         0.00000E+00
    0.00000E+00         0.00000E+00         0.00000E+00
 
    0.15125E+07        -0.88245E+05         0.00000E+00
   -0.88245E+05        -0.12123E+07         0.00000E+00
    0.00000E+00         0.00000E+00         0.00000E+00
 
    0.15161E+07        -0.12572E+06         0.00000E+00
   -0.12572E+06        -0.11729E+07         0.00000E+00
    0.00000E+00         0.00000E+00         0.00000E+00
 
    0.14920E+07        -0.14105E+06         0.00000E+00
   -0.14105E+06        -0.11310E+07         0.00000E+00
    0.00000E+00         0.00000E+00         0.00000E+00
 
    0.14568E+07        -0.13907E+06         0.00000E+00
   -0.13907E+06        -0.10927E+07         0.00000E+00
    0.00000E+00         0.00000E+00         0.00000E+00
 
    0.14191E+07        -0.12609E+06         0.00000E+00
   -0.12609E+06        -0.10596E+07         0.00000E+00
    0.00000E+00         0.00000E+00         0.00000E+00
 
    0.13824E+07        -0.10723E+06         0.00000E+00
   -0.10723E+06        -0.10312E+07         0.00000E+00
    0.00000E+00         0.00000E+00         0.00000E+00
 
    0.13478E+07        -0.85862E+05         0.00000E+00
   -0.85862E+05        -0.10061E+07         0.00000E+00
    0.00000E+00         0.00000E+00         0.00000E+00
 
    0.13150E+07        -0.64040E+05         0.00000E+00
   -0.64040E+05        -0.98297E+06         0.00000E+00
    0.00000E+00         0.00000E+00         0.00000E+00
 
    0.12835E+07        -0.42912E+05         0.00000E+00
   -0.42912E+05        -0.96075E+06         0.00000E+00
    0.00000E+00         0.00000E+00         0.00000E+00
 
    0.12529E+07        -0.23079E+05         0.00000E+00
   -0.23079E+05        -0.93870E+06         0.00000E+00
    0.00000E+00         0.00000E+00         0.00000E+00
 
    0.12226E+07        -0.48205E+04         0.00000E+00
   -0.48205E+04        -0.91631E+06         0.00000E+00
    0.00000E+00         0.00000E+00         0.00000E+00
 
    0.11922E+07         0.11771E+05         0.00000E+00
    0.11771E+05        -0.89327E+06         0.00000E+00
    0.00000E+00         0.00000E+00         0.00000E+00
 
    0.11616E+07         0.26706E+05         0.00000E+00
    0.26706E+05        -0.86940E+06         0.00000E+00
    0.00000E+00         0.00000E+00         0.00000E+00
 
    0.11306E+07         0.40048E+05         0.00000E+00
    0.40048E+05        -0.84463E+06         0.00000E+00
    0.00000E+00         0.00000E+00         0.00000E+00
 
    0.10991E+07         0.51888E+05         0.00000E+00
    0.51888E+05        -0.81893E+06         0.00000E+00
    0.00000E+00         0.00000E+00         0.00000E+00
 
    0.10670E+07         0.62326E+05         0.00000E+00
    0.62326E+05        -0.79234E+06         0.00000E+00
    0.00000E+00         0.00000E+00         0.00000E+00
 
    0.10344E+07         0.71464E+05         0.00000E+00
    0.71464E+05        -0.76491E+06         0.00000E+00
    0.00000E+00         0.00000E+00         0.00000E+00
 
    0.10012E+07         0.79399E+05         0.00000E+00
    0.79399E+05        -0.73672E+06         0.00000E+00
    0.00000E+00         0.00000E+00         0.00000E+00
 
    0.96751E+06         0.86223E+05         0.00000E+00
    0.86223E+05        -0.70787E+06         0.00000E+00
    0.00000E+00         0.00000E+00         0.00000E+00
 
    0.93344E+06         0.92022E+05         0.00000E+00
    0.92022E+05        -0.67845E+06         0.00000E+00
    0.00000E+00         0.00000E+00         0.00000E+00
 
    0.89903E+06         0.96873E+05         0.00000E+00
    0.96873E+05        -0.64855E+06         0.00000E+00
    0.00000E+00         0.00000E+00         0.00000E+00
 
    0.86436E+06         0.10085E+06         0.00000E+00
    0.10085E+06        -0.61829E+06         0.00000E+00
    0.00000E+00         0.00000E+00         0.00000E+00
 
    0.82952E+06         0.10402E+06         0.00000E+00
    0.10402E+06        -0.58776E+06         0.00000E+00
    0.00000E+00         0.00000E+00         0.00000E+00
 
    0.79459E+06         0.10643E+06         0.00000E+00
    0.10643E+06        -0.55706E+06         0.00000E+00
    0.00000E+00         0.00000E+00         0.00000E+00
 
    0.75965E+06         0.10816E+06         0.00000E+00
    0.10816E+06        -0.52629E+06         0.00000E+00
    0.00000E+00         0.00000E+00         0.00000E+00
 
    0.72479E+06         0.10926E+06         0.00000E+00
    0.10926E+06        -0.49553E+06         0.00000E+00
    0.00000E+00         0.00000E+00         0.00000E+00
 
    0.69008E+06         0.10977E+06         0.00000E+00
    0.10977E+06        -0.46487E+06         0.00000E+00
    0.00000E+00         0.00000E+00         0.00000E+00
 
    0.65558E+06         0.10975E+06         0.00000E+00
    0.10975E+06        -0.43438E+06         0.00000E+00
    0.00000E+00         0.00000E+00         0.00000E+00
 
    0.62137E+06         0.10925E+06         0.00000E+00
    0.10925E+06        -0.40414E+06         0.00000E+00
    0.00000E+00         0.00000E+00         0.00000E+00
 
    0.58749E+06         0.10833E+06         0.00000E+00
    0.10833E+06        -0.37421E+06         0.00000E+00
    0.00000E+00         0.00000E+00         0.00000E+00
 
    0.55398E+06         0.10703E+06         0.00000E+00
    0.10703E+06        -0.34464E+06         0.00000E+00
    0.00000E+00         0.00000E+00         0.00000E+00
 
    0.52088E+06         0.10541E+06         0.00000E+00
    0.10541E+06        -0.31548E+06         0.00000E+00
    0.00000E+00         0.00000E+00         0.00000E+00
 
    0.48820E+06         0.10354E+06         0.00000E+00
    0.10354E+06        -0.28675E+06         0.00000E+00
    0.00000E+00         0.00000E+00         0.00000E+00
 
    0.45595E+06         0.10149E+06         0.00000E+00
    0.10149E+06        -0.25849E+06         0.00000E+00
    0.00000E+00         0.00000E+00         0.00000E+00
 
    0.42411E+06         0.99345E+05         0.00000E+00
    0.99345E+05        -0.23069E+06         0.00000E+00
    0.00000E+00         0.00000E+00         0.00000E+00
 
    0.39264E+06         0.97203E+05         0.00000E+00
    0.97203E+05        -0.20335E+06         0.00000E+00
    0.00000E+00         0.00000E+00         0.00000E+00
 
    0.36148E+06         0.95187E+05         0.00000E+00
    0.95187E+05        -0.17644E+06         0.00000E+00
    0.00000E+00         0.00000E+00         0.00000E+00
 
    0.33055E+06         0.93454E+05         0.00000E+00
    0.93454E+05        -0.14991E+06         0.00000E+00
    0.00000E+00         0.00000E+00         0.00000E+00
 
    0.29972E+06         0.92207E+05         0.00000E+00
    0.92207E+05        -0.12370E+06         0.00000E+00
    0.00000E+00         0.00000E+00         0.00000E+00
 
    0.26884E+06         0.91712E+05         0.00000E+00
    0.91712E+05        -0.97721E+05         0.00000E+00
    0.00000E+00         0.00000E+00         0.00000E+00
 
    0.23774E+06         0.92333E+05         0.00000E+00
    0.92333E+05        -0.71850E+05         0.00000E+00
    0.00000E+00         0.00000E+00         0.00000E+00
 
    0.20623E+06         0.94568E+05         0.00000E+00
    0.94568E+05        -0.45966E+05         0.00000E+00
    0.00000E+00         0.00000E+00         0.00000E+00
 
    0.17413E+06         0.99112E+05         0.00000E+00
    0.99112E+05        -0.19951E+05         0.00000E+00
    0.00000E+00         0.00000E+00         0.00000E+00
 
    0.14138E+06         0.10693E+06         0.00000E+00
    0.10693E+06         0.62545E+04         0.00000E+00
    0.00000E+00         0.00000E+00         0.00000E+00
 
    0.10815E+06         0.11938E+06         0.00000E+00
    0.11938E+06         0.32541E+05         0.00000E+00
    0.00000E+00         0.00000E+00         0.00000E+00
 
    0.75212E+05         0.13824E+06         0.00000E+00
    0.13824E+06         0.58409E+05         0.00000E+00
    0.00000E+00         0.00000E+00         0.00000E+00
 
    0.44325E+05         0.16566E+06         0.00000E+00
    0.16566E+06         0.82609E+05         0.00000E+00
    0.00000E+00         0.00000E+00         0.00000E+00
 
    0.18837E+05         0.20378E+06         0.00000E+00
    0.20378E+06         0.10268E+06         0.00000E+00
    0.00000E+00         0.00000E+00         0.00000E+00
 
    0.39877E+04         0.25386E+06         0.00000E+00
    0.25386E+06         0.11467E+06         0.00000E+00
    0.00000E+00         0.00000E+00         0.00000E+00
 
    0.13616E+07        -0.18484E+05         0.00000E+00
   -0.18484E+05        -0.12848E+07         0.00000E+00
    0.00000E+00         0.00000E+00         0.00000E+00
 
    0.14227E+07        -0.58420E+05         0.00000E+00
   -0.58420E+05        -0.12662E+07         0.00000E+00
    0.00000E+00         0.00000E+00         0.00000E+00
 
    0.14396E+07        -0.90263E+05         0.00000E+00
   -0.90263E+05        -0.12346E+07         0.00000E+00
    0.00000E+00         0.00000E+00         0.00000E+00
 
    0.14285E+07        -0.10796E+06         0.00000E+00
   -0.10796E+06        -0.11968E+07         0.00000E+00
    0.00000E+00         0.00000E+00         0.00000E+00
 
    0.14022E+07        -0.11193E+06         0.00000E+00
   -0.11193E+06        -0.11582E+07         0.00000E+00
    0.00000E+00         0.00000E+00         0.00000E+00
 
    0.13692E+07        -0.10536E+06         0.00000E+00
   -0.10536E+06        -0.11217E+07         0.00000E+00
    0.00000E+00         0.00000E+00         0.00000E+00
 
    0.13341E+07        -0.91864E+05         0.00000E+00
   -0.91864E+05        -0.10881E+07         0.00000E+00
    0.00000E+00         0.00000E+00         0.00000E+00
 
    0.12990E+07        -0.74418E+05         0.00000E+00
   -0.74418E+05        -0.10571E+07         0.00000E+00
    0.00000E+00         0.00000E+00         0.00000E+00
 
    0.12648E+07        -0.55155E+05         0.00000E+00
   -0.55155E+05        -0.10282E+07         0.00000E+00
    0.00000E+00         0.00000E+00         0.00000E+00
 
    0.12314E+07        -0.35483E+05         0.00000E+00
   -0.35483E+05        -0.10005E+07         0.00000E+00
    0.00000E+00         0.00000E+00         0.00000E+00
 
    0.11988E+07        -0.16279E+05         0.00000E+00
   -0.16279E+05        -0.97344E+06         0.00000E+00
    0.00000E+00         0.00000E+00         0.00000E+00
 
    0.11666E+07         0.19387E+04         0.00000E+00
    0.19387E+04        -0.94664E+06         0.00000E+00
    0.00000E+00         0.00000E+00         0.00000E+00
 
    0.11346E+07         0.18886E+05         0.00000E+00
    0.18886E+05        -0.91972E+06         0.00000E+00
    0.00000E+00         0.00000E+00         0.00000E+00
 
    0.11026E+07         0.34430E+05         0.00000E+00
    0.34430E+05        -0.89246E+06         0.00000E+00
    0.00000E+00         0.00000E+00         0.00000E+00
 
    0.10704E+07         0.48529E+05         0.00000E+00
    0.48529E+05        -0.86471E+06         0.00000E+00
    0.00000E+00         0.00000E+00         0.00000E+00
 
    0.10380E+07         0.61196E+05         0.00000E+00
    0.61196E+05        -0.83641E+06         0.00000E+00
    0.00000E+00         0.00000E+00         0.00000E+00
 
    0.10052E+07         0.72478E+05         0.00000E+00
    0.72478E+05        -0.80754E+06         0.00000E+00
    0.00000E+00         0.00000E+00         0.00000E+00
 
    0.97197E+06         0.82437E+05         0.00000E+00
    0.82437E+05        -0.77811E+06         0.00000E+00
    0.00000E+00         0.00000E+00         0.00000E+00
 
    0.93843E+06         0.91146E+05         0.00000E+00
    0.91146E+05        -0.74815E+06         0.00000E+00
    0.00000E+00         0.00000E+00         0.00000E+00
 
    0.90455E+06         0.98678E+05         0.00000E+00
    0.98678E+05        -0.71772E+06         0.00000E+00
    0.00000E+00         0.00000E+00         0.00000E+00
 
    0.87039E+06         0.10511E+06         0.00000E+00
    0.10511E+06        -0.68690E+06         0.00000E+00
    0.00000E+00         0.00000E+00         0.00000E+00
 
    0.83600E+06         0.11051E+06         0.00000E+00
    0.11051E+06        -0.65574E+06         0.00000E+00
    0.00000E+00         0.00000E+00         0.00000E+00
 
    0.80145E+06         0.11494E+06         0.00000E+00
    0.11494E+06        -0.62435E+06         0.00000E+00
    0.00000E+00         0.00000E+00         0.00000E+00
 
    0.76680E+06         0.11848E+06         0.00000E+00
    0.11848E+06        -0.59279E+06         0.00000E+00
    0.00000E+00         0.00000E+00         0.00000E+00
 
    0.73213E+06         0.12119E+06         0.00000E+00
    0.12119E+06        -0.56116E+06         0.00000E+00
    0.00000E+00         0.00000E+00         0.00000E+00
 
    0.69752E+06         0.12313E+06         0.00000E+00
    0.12313E+06        -0.52953E+06         0.00000E+00
    0.00000E+00         0.00000E+00         0.00000E+00
 
    0.66304E+06         0.12435E+06         0.00000E+00
    0.12435E+06        -0.49798E+06         0.00000E+00
    0.00000E+00         0.00000E+00         0.00000E+00
 
    0.62874E+06         0.12491E+06         0.00000E+00
    0.12491E+06        -0.46658E+06         0.00000E+00
    0.00000E+00         0.00000E+00         0.00000E+00
 
    0.59470E+06         0.12487E+06         0.00000E+00
    0.12487E+06        -0.43541E+06         0.00000E+00
    0.00000E+00         0.00000E+00         0.00000E+00
 
    0.56097E+06         0.12428E+06         0.00000E+00
    0.12428E+06        -0.40453E+06         0.00000E+00
    0.00000E+00         0.00000E+00         0.00000E+00
 
    0.52761E+06         0.12322E+06         0.00000E+00
    0.12322E+06        -0.37400E+06         0.00000E+00
    0.00000E+00         0.00000E+00         0.00000E+00
 
    0.49465E+06         0.12173E+06         0.00000E+00
    0.12173E+06        -0.34387E+06         0.00000E+00
    0.00000E+00         0.00000E+00         0.00000E+00
 
    0.46212E+06         0.11988E+06         0.00000E+00
    0.11988E+06        -0.31417E+06         0.00000E+00
    0.00000E+00         0.00000E+00         0.00000E+00
 
    0.43005E+06         0.11776E+06         0.00000E+00
    0.11776E+06        -0.28494E+06         0.00000E+00
    0.00000E+00         0.00000E+00         0.00000E+00
 
    0.39844E+06         0.11544E+06         0.00000E+00
    0.11544E+06        -0.25619E+06         0.00000E+00
    0.00000E+00         0.00000E+00         0.00000E+00
 
    0.36728E+06         0.11302E+06         0.00000E+00
    0.11302E+06        -0.22794E+06         0.00000E+00
    0.00000E+00         0.00000E+00         0.00000E+00
 
    0.33655E+06         0.11063E+06         0.00000E+00
    0.11063E+06        -0.20018E+06         0.00000E+00
    0.00000E+00         0.00000E+00         0.00000E+00
 
    0.30620E+06         0.10839E+06         0.00000E+00
    0.10839E+06        -0.17289E+06         0.00000E+00
    0.00000E+00         0.00000E+00         0.00000E+00
 
    0.27618E+06         0.10651E+06         0.00000E+00
    0.10651E+06        -0.14603E+06         0.00000E+00
    0.00000E+00         0.00000E+00         0.00000E+00
 
    0.24640E+06         0.10519E+06         0.00000E+00
    0.10519E+06        -0.11957E+06         0.00000E+00
    0.00000E+00         0.00000E+00         0.00000E+00
 
    0.21679E+06         0.10475E+06         0.00000E+00
    0.10475E+06        -0.93435E+05         0.00000E+00
    0.00000E+00         0.00000E+00         0.00000E+00
 
    0.18725E+06         0.10557E+06         0.00000E+00
    0.10557E+06        -0.67578E+05         0.00000E+00
    0.00000E+00         0.00000E+00         0.00000E+00
 
    0.15774E+06         0.10817E+06         0.00000E+00
    0.10817E+06        -0.41955E+05         0.00000E+00
    0.00000E+00         0.00000E+00         0.00000E+00
 
    0.12827E+06         0.11323E+06         0.00000E+00
    0.11323E+06        -0.16576E+05         0.00000E+00
    0.00000E+00         0.00000E+00         0.00000E+00
 
    0.99047E+05         0.12165E+06         0.00000E+00
    0.12165E+06         0.84337E+04         0.00000E+00
    0.00000E+00         0.00000E+00         0.00000E+00
 
    0.70583E+05         0.13456E+06         0.00000E+00
    0.13456E+06         0.32724E+05         0.00000E+00
    0.00000E+00         0.00000E+00         0.00000E+00
 
    0.43944E+05         0.15329E+06         0.00000E+00
    0.15329E+06         0.55542E+05         0.00000E+00
    0.00000E+00         0.00000E+00         0.00000E+00
 
    0.21028E+05         0.17923E+06         0.00000E+00
    0.17923E+06         0.75507E+05         0.00000E+00
    0.00000E+00         0.00000E+00         0.00000E+00
 
    0.48149E+04         0.21346E+06         0.00000E+00
    0.21346E+06         0.90400E+05         0.00000E+00
    0.00000E+00         0.00000E+00         0.00000E+00
 
   -0.58518E+03         0.25614E+06         0.00000E+00
    0.25614E+06         0.97114E+05         0.00000E+00
    0.00000E+00         0.00000E+00         0.00000E+00
 
    0.13071E+07        -0.91037E+04         0.00000E+00
   -0.91037E+04        -0.13111E+07         0.00000E+00
    0.00000E+00         0.00000E+00         0.00000E+00
 
    0.13648E+07        -0.34181E+05         0.00000E+00
   -0.34181E+05        -0.12985E+07         0.00000E+00
    0.00000E+00         0.00000E+00         0.00000E+00
 
    0.13875E+07        -0.58240E+05         0.00000E+00
   -0.58240E+05        -0.12746E+07         0.00000E+00
    0.00000E+00         0.00000E+00         0.00000E+00
 
    0.13847E+07        -0.74475E+05         0.00000E+00
   -0.74475E+05        -0.12431E+07         0.00000E+00
    0.00000E+00         0.00000E+00         0.00000E+00
 
    0.13658E+07        -0.80966E+05         0.00000E+00
   -0.80966E+05        -0.12079E+07         0.00000E+00
    0.00000E+00         0.00000E+00         0.00000E+00
 
    0.13376E+07        -0.78642E+05         0.00000E+00
   -0.78642E+05        -0.11718E+07         0.00000E+00
    0.00000E+00         0.00000E+00         0.00000E+00
 
    0.13049E+07        -0.69583E+05         0.00000E+00
   -0.69583E+05        -0.11365E+07         0.00000E+00
    0.00000E+00         0.00000E+00         0.00000E+00
 
    0.12704E+07        -0.55986E+05         0.00000E+00
   -0.55986E+05        -0.11025E+07         0.00000E+00
    0.00000E+00         0.00000E+00         0.00000E+00
 
    0.12356E+07        -0.39713E+05         0.00000E+00
   -0.39713E+05        -0.10698E+07         0.00000E+00
    0.00000E+00         0.00000E+00         0.00000E+00
 
    0.12009E+07        -0.22171E+05         0.00000E+00
   -0.22171E+05        -0.10381E+07         0.00000E+00
    0.00000E+00         0.00000E+00         0.00000E+00
 
    0.11666E+07        -0.43525E+04         0.00000E+00
   -0.43525E+04        -0.10072E+07         0.00000E+00
    0.00000E+00         0.00000E+00         0.00000E+00
 
    0.11327E+07         0.13075E+05         0.00000E+00
    0.13075E+05        -0.97678E+06         0.00000E+00
    0.00000E+00         0.00000E+00         0.00000E+00
 
    0.10990E+07         0.29684E+05         0.00000E+00
    0.29684E+05        -0.94647E+06         0.00000E+00
    0.00000E+00         0.00000E+00         0.00000E+00
 
    0.10654E+07         0.45216E+05         0.00000E+00
    0.45216E+05        -0.91612E+06         0.00000E+00
    0.00000E+00         0.00000E+00         0.00000E+00
 
    0.10317E+07         0.59528E+05         0.00000E+00
    0.59528E+05        -0.88559E+06         0.00000E+00
    0.00000E+00         0.00000E+00         0.00000E+00
 
    0.99802E+06         0.72555E+05         0.00000E+00
    0.72555E+05        -0.85480E+06         0.00000E+00
    0.00000E+00         0.00000E+00         0.00000E+00
 
    0.96412E+06         0.84282E+05         0.00000E+00
    0.84282E+05        -0.82368E+06         0.00000E+00
    0.00000E+00         0.00000E+00         0.00000E+00
 
    0.93002E+06         0.94724E+05         0.00000E+00
    0.94724E+05        -0.79223E+06         0.00000E+00
    0.00000E+00         0.00000E+00         0.00000E+00
 
    0.89571E+06         0.10392E+06         0.00000E+00
    0.10392E+06        -0.76046E+06         0.00000E+00
    0.00000E+00         0.00000E+00         0.00000E+00
 
    0.86121E+06         0.11192E+06         0.00000E+00
    0.11192E+06        -0.72841E+06         0.00000E+00
    0.00000E+00         0.00000E+00         0.00000E+00
 
    0.82655E+06         0.11878E+06         0.00000E+00
    0.11878E+06        -0.69611E+06         0.00000E+00
    0.00000E+00         0.00000E+00         0.00000E+00
 
    0.79177E+06         0.12456E+06         0.00000E+00
    0.12456E+06        -0.66363E+06         0.00000E+00
    0.00000E+00         0.00000E+00         0.00000E+00
 
    0.75693E+06         0.12932E+06         0.00000E+00
    0.12932E+06        -0.63102E+06         0.00000E+00
    0.00000E+00         0.00000E+00         0.00000E+00
 
    0.72208E+06         0.13312E+06         0.00000E+00
    0.13312E+06        -0.59836E+06         0.00000E+00
    0.00000E+00         0.00000E+00         0.00000E+00
 
    0.68729E+06         0.13602E+06         0.00000E+00
    0.13602E+06        -0.56571E+06         0.00000E+00
    0.00000E+00         0.00000E+00         0.00000E+00
 
    0.65261E+06         0.13809E+06         0.00000E+00
    0.13809E+06        -0.53315E+06         0.00000E+00
    0.00000E+00         0.00000E+00         0.00000E+00
 
    0.61812E+06         0.13937E+06         0.00000E+00
    0.13937E+06        -0.50073E+06         0.00000E+00
    0.00000E+00         0.00000E+00         0.00000E+00
 
    0.58387E+06         0.13994E+06         0.00000E+00
    0.13994E+06        -0.46854E+06         0.00000E+00
    0.00000E+00         0.00000E+00         0.00000E+00
 
    0.54993E+06         0.13985E+06         0.00000E+00
    0.13985E+06        -0.43663E+06         0.00000E+00
    0.00000E+00         0.00000E+00         0.00000E+00
 
    0.51634E+06         0.13916E+06         0.00000E+00
    0.13916E+06        -0.40505E+06         0.00000E+00
    0.00000E+00         0.00000E+00         0.00000E+00
 
    0.48314E+06         0.13794E+06         0.00000E+00
    0.13794E+06        -0.37387E+06         0.00000E+00
    0.00000E+00         0.00000E+00         0.00000E+00
 
    0.45040E+06         0.13626E+06         0.00000E+00
    0.13626E+06        -0.34312E+06         0.00000E+00
    0.00000E+00         0.00000E+00         0.00000E+00
 
    0.41812E+06         0.13420E+06         0.00000E+00
    0.13420E+06        -0.31285E+06         0.00000E+00
    0.00000E+00         0.00000E+00         0.00000E+00
 
    0.38633E+06         0.13183E+06         0.00000E+00
    0.13183E+06        -0.28308E+06         0.00000E+00
    0.00000E+00         0.00000E+00         0.00000E+00
 
    0.35506E+06         0.12926E+06         0.00000E+00
    0.12926E+06        -0.25384E+06         0.00000E+00
    0.00000E+00         0.00000E+00         0.00000E+00
 
    0.32428E+06         0.12660E+06         0.00000E+00
    0.12660E+06        -0.22513E+06         0.00000E+00
    0.00000E+00         0.00000E+00         0.00000E+00
 
    0.29401E+06         0.12398E+06         0.00000E+00
    0.12398E+06        -0.19696E+06         0.00000E+00
    0.00000E+00         0.00000E+00         0.00000E+00
 
    0.26420E+06         0.12156E+06         0.00000E+00
    0.12156E+06        -0.16932E+06         0.00000E+00
    0.00000E+00         0.00000E+00         0.00000E+00
 
    0.23484E+06         0.11954E+06         0.00000E+00
    0.11954E+06        -0.14219E+06         0.00000E+00
    0.00000E+00         0.00000E+00         0.00000E+00
 
    0.20590E+06         0.11817E+06         0.00000E+00
    0.11817E+06        -0.11557E+06         0.00000E+00
    0.00000E+00         0.00000E+00         0.00000E+00
 
    0.17734E+06         0.11776E+06         0.00000E+00
    0.11776E+06        -0.89420E+05         0.00000E+00
    0.00000E+00         0.00000E+00         0.00000E+00
 
    0.14917E+06         0.11870E+06         0.00000E+00
    0.11870E+06        -0.63758E+05         0.00000E+00
    0.00000E+00         0.00000E+00         0.00000E+00
 
    0.12146E+06         0.12149E+06         0.00000E+00
    0.12149E+06        -0.38622E+05         0.00000E+00
    0.00000E+00         0.00000E+00         0.00000E+00
 
    0.94381E+05         0.12677E+06         0.00000E+00
    0.12677E+06        -0.14136E+05         0.00000E+00
    0.00000E+00         0.00000E+00         0.00000E+00
 
    0.68316E+05         0.13530E+06         0.00000E+00
    0.13530E+06         0.94374E+04         0.00000E+00
    0.00000E+00         0.00000E+00         0.00000E+00
 
    0.43958E+05         0.14796E+06         0.00000E+00
    0.14796E+06         0.31601E+05         0.00000E+00
    0.00000E+00         0.00000E+00         0.00000E+00
 
    0.22472E+05         0.16568E+06         0.00000E+00
    0.16568E+06         0.51506E+05         0.00000E+00
    0.00000E+00         0.00000E+00         0.00000E+00
 
    0.56500E+04         0.18927E+06         0.00000E+00
    0.18927E+06         0.67833E+05         0.00000E+00
    0.00000E+00         0.00000E+00         0.00000E+00
 
   -0.40055E+04         0.21909E+06         0.00000E+00
    0.21909E+06         0.78719E+05         0.00000E+00
    0.00000E+00         0.00000E+00         0.00000E+00
 
   -0.33415E+04         0.25473E+06         0.00000E+00
    0.25473E+06         0.81819E+05         0.00000E+00
    0.00000E+00         0.00000E+00         0.00000E+00
 
    0.12799E+07        -0.22994E+04         0.00000E+00
   -0.22994E+04        -0.13253E+07         0.00000E+00
    0.00000E+00         0.00000E+00         0.00000E+00
 
    0.13304E+07        -0.15065E+05         0.00000E+00
   -0.15065E+05        -0.13171E+07         0.00000E+00
    0.00000E+00         0.00000E+00         0.00000E+00
 
    0.13541E+07        -0.30831E+05         0.00000E+00
   -0.30831E+05        -0.12999E+07         0.00000E+00
    0.00000E+00         0.00000E+00         0.00000E+00
 
    0.13561E+07        -0.43334E+05         0.00000E+00
   -0.43334E+05        -0.12747E+07         0.00000E+00
    0.00000E+00         0.00000E+00         0.00000E+00
 
    0.13424E+07        -0.49688E+05         0.00000E+00
   -0.49688E+05        -0.12442E+07         0.00000E+00
    0.00000E+00         0.00000E+00         0.00000E+00
 
    0.13186E+07        -0.49407E+05         0.00000E+00
   -0.49407E+05        -0.12107E+07         0.00000E+00
    0.00000E+00         0.00000E+00         0.00000E+00
 
    0.12887E+07        -0.43339E+05         0.00000E+00
   -0.43339E+05        -0.11760E+07         0.00000E+00
    0.00000E+00         0.00000E+00         0.00000E+00
 
    0.12555E+07        -0.32856E+05         0.00000E+00
   -0.32856E+05        -0.11411E+07         0.00000E+00
    0.00000E+00         0.00000E+00         0.00000E+00
 
    0.12208E+07        -0.19368E+05         0.00000E+00
   -0.19368E+05        -0.11065E+07         0.00000E+00
    0.00000E+00         0.00000E+00         0.00000E+00
 
    0.11855E+07        -0.40956E+04         0.00000E+00
   -0.40956E+04        -0.10725E+07         0.00000E+00
    0.00000E+00         0.00000E+00         0.00000E+00
 
    0.11500E+07         0.12000E+05         0.00000E+00
    0.12000E+05        -0.10389E+07         0.00000E+00
    0.00000E+00         0.00000E+00         0.00000E+00
 
    0.11147E+07         0.28204E+05         0.00000E+00
    0.28204E+05        -0.10056E+07         0.00000E+00
    0.00000E+00         0.00000E+00         0.00000E+00
 
    0.10794E+07         0.44010E+05         0.00000E+00
    0.44010E+05        -0.97253E+06         0.00000E+00
    0.00000E+00         0.00000E+00         0.00000E+00
 
    0.10443E+07         0.59075E+05         0.00000E+00
    0.59075E+05        -0.93954E+06         0.00000E+00
    0.00000E+00         0.00000E+00         0.00000E+00
 
    0.10092E+07         0.73174E+05         0.00000E+00
    0.73174E+05        -0.90654E+06         0.00000E+00
    0.00000E+00         0.00000E+00         0.00000E+00
 
    0.97404E+06         0.86173E+05         0.00000E+00
    0.86173E+05        -0.87345E+06         0.00000E+00
    0.00000E+00         0.00000E+00         0.00000E+00
 
    0.93888E+06         0.97999E+05         0.00000E+00
    0.97999E+05        -0.84022E+06         0.00000E+00
    0.00000E+00         0.00000E+00         0.00000E+00
 
    0.90364E+06         0.10862E+06         0.00000E+00
    0.10862E+06        -0.80684E+06         0.00000E+00
    0.00000E+00         0.00000E+00         0.00000E+00
 
    0.86833E+06         0.11804E+06         0.00000E+00
    0.11804E+06        -0.77330E+06         0.00000E+00
    0.00000E+00         0.00000E+00         0.00000E+00
 
    0.83294E+06         0.12629E+06         0.00000E+00
    0.12629E+06        -0.73963E+06         0.00000E+00
    0.00000E+00         0.00000E+00         0.00000E+00
 
    0.79750E+06         0.13338E+06         0.00000E+00
    0.13338E+06        -0.70585E+06         0.00000E+00
    0.00000E+00         0.00000E+00         0.00000E+00
 
    0.76205E+06         0.13938E+06         0.00000E+00
    0.13938E+06        -0.67200E+06         0.00000E+00
    0.00000E+00         0.00000E+00         0.00000E+00
 
    0.72663E+06         0.14432E+06         0.00000E+00
    0.14432E+06        -0.63815E+06         0.00000E+00
    0.00000E+00         0.00000E+00         0.00000E+00
 
    0.69129E+06         0.14826E+06         0.00000E+00
    0.14826E+06        -0.60433E+06         0.00000E+00
    0.00000E+00         0.00000E+00         0.00000E+00
 
    0.65608E+06         0.15126E+06         0.00000E+00
    0.15126E+06        -0.57062E+06         0.00000E+00
    0.00000E+00         0.00000E+00         0.00000E+00
 
    0.62105E+06         0.15338E+06         0.00000E+00
    0.15338E+06        -0.53708E+06         0.00000E+00
    0.00000E+00         0.00000E+00         0.00000E+00
 
    0.58627E+06         0.15466E+06         0.00000E+00
    0.15466E+06        -0.50375E+06         0.00000E+00
    0.00000E+00         0.00000E+00         0.00000E+00
 
    0.55179E+06         0.15518E+06         0.00000E+00
    0.15518E+06        -0.47071E+06         0.00000E+00
    0.00000E+00         0.00000E+00         0.00000E+00
 
    0.51767E+06         0.15500E+06         0.00000E+00
    0.15500E+06        -0.43800E+06         0.00000E+00
    0.00000E+00         0.00000E+00         0.00000E+00
 
    0.48394E+06         0.15418E+06         0.00000E+00
    0.15418E+06        -0.40569E+06         0.00000E+00
    0.00000E+00         0.00000E+00         0.00000E+00
 
    0.45066E+06         0.15280E+06         0.00000E+00
    0.15280E+06        -0.37382E+06         0.00000E+00
    0.00000E+00         0.00000E+00         0.00000E+00
 
    0.41787E+06         0.15092E+06         0.00000E+00
    0.15092E+06        -0.34243E+06         0.00000E+00
    0.00000E+00         0.00000E+00         0.00000E+00
 
    0.38560E+06         0.14863E+06         0.00000E+00
    0.14863E+06        -0.31156E+06         0.00000E+00
    0.00000E+00         0.00000E+00         0.00000E+00
 
    0.35387E+06         0.14604E+06         0.00000E+00
    0.14604E+06        -0.28124E+06         0.00000E+00
    0.00000E+00         0.00000E+00         0.00000E+00
 
    0.32270E+06         0.14323E+06         0.00000E+00
    0.14323E+06        -0.25150E+06         0.00000E+00
    0.00000E+00         0.00000E+00         0.00000E+00
 
    0.29210E+06         0.14034E+06         0.00000E+00
    0.14034E+06        -0.22235E+06         0.00000E+00
    0.00000E+00         0.00000E+00         0.00000E+00
 
    0.26208E+06         0.13750E+06         0.00000E+00
    0.13750E+06        -0.19380E+06         0.00000E+00
    0.00000E+00         0.00000E+00         0.00000E+00
 
    0.23264E+06         0.13490E+06         0.00000E+00
    0.13490E+06        -0.16587E+06         0.00000E+00
    0.00000E+00         0.00000E+00         0.00000E+00
 
    0.20378E+06         0.13274E+06         0.00000E+00
    0.13274E+06        -0.13855E+06         0.00000E+00
    0.00000E+00         0.00000E+00         0.00000E+00
 
    0.17551E+06         0.13128E+06         0.00000E+00
    0.13128E+06        -0.11187E+06         0.00000E+00
    0.00000E+00         0.00000E+00         0.00000E+00
 
    0.14786E+06         0.13083E+06         0.00000E+00
    0.13083E+06        -0.85841E+05         0.00000E+00
    0.00000E+00         0.00000E+00         0.00000E+00
 
    0.12091E+06         0.13176E+06         0.00000E+00
    0.13176E+06        -0.60534E+05         0.00000E+00
    0.00000E+00         0.00000E+00         0.00000E+00
 
    0.94829E+05         0.13455E+06         0.00000E+00
    0.13455E+06        -0.36061E+05         0.00000E+00
    0.00000E+00         0.00000E+00         0.00000E+00
 
    0.69890E+05         0.13973E+06         0.00000E+00
    0.13973E+06        -0.12631E+05         0.00000E+00
    0.00000E+00         0.00000E+00         0.00000E+00
 
    0.46576E+05         0.14793E+06         0.00000E+00
    0.14793E+06         0.94030E+04         0.00000E+00
    0.00000E+00         0.00000E+00         0.00000E+00
 
    0.25652E+05         0.15978E+06         0.00000E+00
    0.15978E+06         0.29480E+05         0.00000E+00
    0.00000E+00         0.00000E+00         0.00000E+00
 
    0.82539E+04         0.17589E+06         0.00000E+00
    0.17589E+06         0.46760E+05         0.00000E+00
    0.00000E+00         0.00000E+00         0.00000E+00
 
   -0.40393E+04         0.19663E+06         0.00000E+00
    0.19663E+06         0.60077E+05         0.00000E+00
    0.00000E+00         0.00000E+00         0.00000E+00
 
   -0.91995E+04         0.22196E+06         0.00000E+00
    0.22196E+06         0.67940E+05         0.00000E+00
    0.00000E+00         0.00000E+00         0.00000E+00
 
   -0.48580E+04         0.25113E+06         0.00000E+00
    0.25113E+06         0.68645E+05         0.00000E+00
    0.00000E+00         0.00000E+00         0.00000E+00
 
    0.12705E+07         0.26147E+04         0.00000E+00
    0.26147E+04        -0.13329E+07         0.00000E+00
    0.00000E+00         0.00000E+00         0.00000E+00
 
    0.13126E+07        -0.21853E+03         0.00000E+00
   -0.21853E+03        -0.13278E+07         0.00000E+00
    0.00000E+00         0.00000E+00         0.00000E+00
 
    0.13346E+07        -0.80576E+04         0.00000E+00
   -0.80576E+04        -0.13156E+07         0.00000E+00
    0.00000E+00         0.00000E+00         0.00000E+00
 
    0.13387E+07        -0.15704E+05         0.00000E+00
   -0.15704E+05        -0.12960E+07         0.00000E+00
    0.00000E+00         0.00000E+00         0.00000E+00
 
    0.13286E+07        -0.20106E+05         0.00000E+00
   -0.20106E+05        -0.12703E+07         0.00000E+00
    0.00000E+00         0.00000E+00         0.00000E+00
 
    0.13083E+07        -0.20027E+05         0.00000E+00
   -0.20027E+05        -0.12402E+07         0.00000E+00
    0.00000E+00         0.00000E+00         0.00000E+00
 
    0.12811E+07        -0.15460E+05         0.00000E+00
   -0.15460E+05        -0.12074E+07         0.00000E+00
    0.00000E+00         0.00000E+00         0.00000E+00
 
    0.12496E+07        -0.70684E+04         0.00000E+00
   -0.70684E+04        -0.11731E+07         0.00000E+00
    0.00000E+00         0.00000E+00         0.00000E+00
 
    0.12156E+07         0.42206E+04         0.00000E+00
    0.42206E+04        -0.11381E+07         0.00000E+00
    0.00000E+00         0.00000E+00         0.00000E+00
 
    0.11802E+07         0.17469E+05         0.00000E+00
    0.17469E+05        -0.11029E+07         0.00000E+00
    0.00000E+00         0.00000E+00         0.00000E+00
 
    0.11441E+07         0.31847E+05         0.00000E+00
    0.31847E+05        -0.10676E+07         0.00000E+00
    0.00000E+00         0.00000E+00         0.00000E+00
 
    0.11077E+07         0.46680E+05         0.00000E+00
    0.46680E+05        -0.10323E+07         0.00000E+00
    0.00000E+00         0.00000E+00         0.00000E+00
 
    0.10712E+07         0.61447E+05         0.00000E+00
    0.61447E+05        -0.99716E+06         0.00000E+00
    0.00000E+00         0.00000E+00         0.00000E+00
 
    0.10347E+07         0.75765E+05         0.00000E+00
    0.75765E+05        -0.96205E+06         0.00000E+00
    0.00000E+00         0.00000E+00         0.00000E+00
 
    0.99819E+06         0.89359E+05         0.00000E+00
    0.89359E+05        -0.92696E+06         0.00000E+00
    0.00000E+00         0.00000E+00         0.00000E+00
 
    0.96172E+06         0.10204E+06         0.00000E+00
    0.10204E+06        -0.89186E+06         0.00000E+00
    0.00000E+00         0.00000E+00         0.00000E+00
 
    0.92526E+06         0.11370E+06         0.00000E+00
    0.11370E+06        -0.85672E+06         0.00000E+00
    0.00000E+00         0.00000E+00         0.00000E+00
 
    0.88881E+06         0.12425E+06         0.00000E+00
    0.12425E+06        -0.82154E+06         0.00000E+00
    0.00000E+00         0.00000E+00         0.00000E+00
 
    0.85236E+06         0.13367E+06         0.00000E+00
    0.13367E+06        -0.78632E+06         0.00000E+00
    0.00000E+00         0.00000E+00         0.00000E+00
 
    0.81594E+06         0.14196E+06         0.00000E+00
    0.14196E+06        -0.75109E+06         0.00000E+00
    0.00000E+00         0.00000E+00         0.00000E+00
 
    0.77956E+06         0.14911E+06         0.00000E+00
    0.14911E+06        -0.71585E+06         0.00000E+00
    0.00000E+00         0.00000E+00         0.00000E+00
 
    0.74326E+06         0.15517E+06         0.00000E+00
    0.15517E+06        -0.68066E+06         0.00000E+00
    0.00000E+00         0.00000E+00         0.00000E+00
 
    0.70706E+06         0.16017E+06         0.00000E+00
    0.16017E+06        -0.64555E+06         0.00000E+00
    0.00000E+00         0.00000E+00         0.00000E+00
 
    0.67103E+06         0.16414E+06         0.00000E+00
    0.16414E+06        -0.61058E+06         0.00000E+00
    0.00000E+00         0.00000E+00         0.00000E+00
 
    0.63519E+06         0.16714E+06         0.00000E+00
    0.16714E+06        -0.57579E+06         0.00000E+00
    0.00000E+00         0.00000E+00         0.00000E+00
 
    0.59962E+06         0.16923E+06         0.00000E+00
    0.16923E+06        -0.54123E+06         0.00000E+00
    0.00000E+00         0.00000E+00         0.00000E+00
 
    0.56435E+06         0.17045E+06         0.00000E+00
    0.17045E+06        -0.50697E+06         0.00000E+00
    0.00000E+00         0.00000E+00         0.00000E+00
 
    0.52943E+06         0.17087E+06         0.00000E+00
    0.17087E+06        -0.47305E+06         0.00000E+00
    0.00000E+00         0.00000E+00         0.00000E+00
 
    0.49493E+06         0.17056E+06         0.00000E+00
    0.17056E+06        -0.43953E+06         0.00000E+00
    0.00000E+00         0.00000E+00         0.00000E+00
 
    0.46087E+06         0.16958E+06         0.00000E+00
    0.16958E+06        -0.40645E+06         0.00000E+00
    0.00000E+00         0.00000E+00         0.00000E+00
 
    0.42732E+06         0.16800E+06         0.00000E+00
    0.16800E+06        -0.37387E+06         0.00000E+00
    0.00000E+00         0.00000E+00         0.00000E+00
 
    0.39430E+06         0.16591E+06         0.00000E+00
    0.16591E+06        -0.34183E+06         0.00000E+00
    0.00000E+00         0.00000E+00         0.00000E+00
 
    0.36186E+06         0.16340E+06         0.00000E+00
    0.16340E+06        -0.31036E+06         0.00000E+00
    0.00000E+00         0.00000E+00         0.00000E+00
 
    0.33002E+06         0.16056E+06         0.00000E+00
    0.16056E+06        -0.27949E+06         0.00000E+00
    0.00000E+00         0.00000E+00         0.00000E+00
 
    0.29881E+06         0.15751E+06         0.00000E+00
    0.15751E+06        -0.24927E+06         0.00000E+00
    0.00000E+00         0.00000E+00         0.00000E+00
 
    0.26824E+06         0.15438E+06         0.00000E+00
    0.15438E+06        -0.21970E+06         0.00000E+00
    0.00000E+00         0.00000E+00         0.00000E+00
 
    0.23835E+06         0.15133E+06         0.00000E+00
    0.15133E+06        -0.19082E+06         0.00000E+00
    0.00000E+00         0.00000E+00         0.00000E+00
 
    0.20915E+06         0.14853E+06         0.00000E+00
    0.14853E+06        -0.16265E+06         0.00000E+00
    0.00000E+00         0.00000E+00         0.00000E+00
 
    0.18068E+06         0.14620E+06         0.00000E+00
    0.14620E+06        -0.13522E+06         0.00000E+00
    0.00000E+00         0.00000E+00         0.00000E+00
 
    0.15298E+06         0.14459E+06         0.00000E+00
    0.14459E+06        -0.10858E+06         0.00000E+00
    0.00000E+00         0.00000E+00         0.00000E+00
 
    0.12614E+06         0.14400E+06         0.00000E+00
    0.14400E+06        -0.82788E+05         0.00000E+00
    0.00000E+00         0.00000E+00         0.00000E+00
 
    0.10029E+06         0.14477E+06         0.00000E+00
    0.14477E+06        -0.57959E+05         0.00000E+00
    0.00000E+00         0.00000E+00         0.00000E+00
 
    0.75668E+05         0.14733E+06         0.00000E+00
    0.14733E+06        -0.34263E+05         0.00000E+00
    0.00000E+00         0.00000E+00         0.00000E+00
 
    0.52609E+05         0.15211E+06         0.00000E+00
    0.15211E+06        -0.11965E+05         0.00000E+00
    0.00000E+00         0.00000E+00         0.00000E+00
 
    0.31643E+05         0.15959E+06         0.00000E+00
    0.15959E+06         0.85370E+04         0.00000E+00
    0.00000E+00         0.00000E+00         0.00000E+00
 
    0.13526E+05         0.17022E+06         0.00000E+00
    0.17022E+06         0.26677E+05         0.00000E+00
    0.00000E+00         0.00000E+00         0.00000E+00
 
   -0.70613E+03         0.18433E+06         0.00000E+00
    0.18433E+06         0.41683E+05         0.00000E+00
    0.00000E+00         0.00000E+00         0.00000E+00
 
   -0.97181E+04         0.20203E+06         0.00000E+00
    0.20203E+06         0.52577E+05         0.00000E+00
    0.00000E+00         0.00000E+00         0.00000E+00
 
   -0.11912E+05         0.22300E+06         0.00000E+00
    0.22300E+06         0.58215E+05         0.00000E+00
    0.00000E+00         0.00000E+00         0.00000E+00
 
   -0.55450E+04         0.24639E+06         0.00000E+00
    0.24639E+06         0.57408E+05         0.00000E+00
    0.00000E+00         0.00000E+00         0.00000E+00
 
    0.12725E+07         0.61898E+04         0.00000E+00
    0.61898E+04        -0.13376E+07         0.00000E+00
    0.00000E+00         0.00000E+00         0.00000E+00
 
    0.13064E+07         0.11273E+05         0.00000E+00
    0.11273E+05        -0.13345E+07         0.00000E+00
    0.00000E+00         0.00000E+00         0.00000E+00
 
    0.13252E+07         0.10590E+05         0.00000E+00
    0.10590E+05        -0.13259E+07         0.00000E+00
    0.00000E+00         0.00000E+00         0.00000E+00
 
    0.13296E+07         0.81731E+04         0.00000E+00
    0.81731E+04        -0.13106E+07         0.00000E+00
    0.00000E+00         0.00000E+00         0.00000E+00
 
    0.13216E+07         0.68177E+04         0.00000E+00
    0.68177E+04        -0.12891E+07         0.00000E+00
    0.00000E+00         0.00000E+00         0.00000E+00
 
    0.13039E+07         0.80562E+04         0.00000E+00
    0.80562E+04        -0.12625E+07         0.00000E+00
    0.00000E+00         0.00000E+00         0.00000E+00
 
    0.12791E+07         0.12418E+05         0.00000E+00
    0.12418E+05        -0.12322E+07         0.00000E+00
    0.00000E+00         0.00000E+00         0.00000E+00
 
    0.12494E+07         0.19768E+05         0.00000E+00
    0.19768E+05        -0.11993E+07         0.00000E+00
    0.00000E+00         0.00000E+00         0.00000E+00
 
    0.12164E+07         0.29609E+05         0.00000E+00
    0.29609E+05        -0.11648E+07         0.00000E+00
    0.00000E+00         0.00000E+00         0.00000E+00
 
    0.11813E+07         0.41305E+05         0.00000E+00
    0.41305E+05        -0.11292E+07         0.00000E+00
    0.00000E+00         0.00000E+00         0.00000E+00
 
    0.11450E+07         0.54210E+05         0.00000E+00
    0.54210E+05        -0.10931E+07         0.00000E+00
    0.00000E+00         0.00000E+00         0.00000E+00
 
    0.11080E+07         0.67748E+05         0.00000E+00
    0.67748E+05        -0.10566E+07         0.00000E+00
    0.00000E+00         0.00000E+00         0.00000E+00
 
    0.10706E+07         0.81434E+05         0.00000E+00
    0.81434E+05        -0.10199E+07         0.00000E+00
    0.00000E+00         0.00000E+00         0.00000E+00
 
    0.10330E+07         0.94887E+05         0.00000E+00
    0.94887E+05        -0.98319E+06         0.00000E+00
    0.00000E+00         0.00000E+00         0.00000E+00
 
    0.99532E+06         0.10781E+06         0.00000E+00
    0.10781E+06        -0.94641E+06         0.00000E+00
    0.00000E+00         0.00000E+00         0.00000E+00
 
    0.95761E+06         0.12000E+06         0.00000E+00
    0.12000E+06        -0.90960E+06         0.00000E+00
    0.00000E+00         0.00000E+00         0.00000E+00
 
    0.91992E+06         0.13129E+06         0.00000E+00
    0.13129E+06        -0.87280E+06         0.00000E+00
    0.00000E+00         0.00000E+00         0.00000E+00
 
    0.88226E+06         0.14159E+06         0.00000E+00
    0.14159E+06        -0.83600E+06         0.00000E+00
    0.00000E+00         0.00000E+00         0.00000E+00
 
    0.84467E+06         0.15084E+06         0.00000E+00
    0.15084E+06        -0.79924E+06         0.00000E+00
    0.00000E+00         0.00000E+00         0.00000E+00
 
    0.80715E+06         0.15900E+06         0.00000E+00
    0.15900E+06        -0.76254E+06         0.00000E+00
    0.00000E+00         0.00000E+00         0.00000E+00
 
    0.76975E+06         0.16607E+06         0.00000E+00
    0.16607E+06        -0.72592E+06         0.00000E+00
    0.00000E+00         0.00000E+00         0.00000E+00
 
    0.73249E+06         0.17206E+06         0.00000E+00
    0.17206E+06        -0.68942E+06         0.00000E+00
    0.00000E+00         0.00000E+00         0.00000E+00
 
    0.69541E+06         0.17699E+06         0.00000E+00
    0.17699E+06        -0.65309E+06         0.00000E+00
    0.00000E+00         0.00000E+00         0.00000E+00
 
    0.65856E+06         0.18089E+06         0.00000E+00
    0.18089E+06        -0.61696E+06         0.00000E+00
    0.00000E+00         0.00000E+00         0.00000E+00
 
    0.62198E+06         0.18381E+06         0.00000E+00
    0.18381E+06        -0.58109E+06         0.00000E+00
    0.00000E+00         0.00000E+00         0.00000E+00
 
    0.58571E+06         0.18579E+06         0.00000E+00
    0.18579E+06        -0.54553E+06         0.00000E+00
    0.00000E+00         0.00000E+00         0.00000E+00
 
    0.54981E+06         0.18689E+06         0.00000E+00
    0.18689E+06        -0.51032E+06         0.00000E+00
    0.00000E+00         0.00000E+00         0.00000E+00
 
    0.51433E+06         0.18716E+06         0.00000E+00
    0.18716E+06        -0.47552E+06         0.00000E+00
    0.00000E+00         0.00000E+00         0.00000E+00
 
    0.47930E+06         0.18667E+06         0.00000E+00
    0.18667E+06        -0.44117E+06         0.00000E+00
    0.00000E+00         0.00000E+00         0.00000E+00
 
    0.44479E+06         0.18549E+06         0.00000E+00
    0.18549E+06        -0.40733E+06         0.00000E+00
    0.00000E+00         0.00000E+00         0.00000E+00
 
    0.41083E+06         0.18369E+06         0.00000E+00
    0.18369E+06        -0.37403E+06         0.00000E+00
    0.00000E+00         0.00000E+00         0.00000E+00
 
    0.37747E+06         0.18137E+06         0.00000E+00
    0.18137E+06        -0.34134E+06         0.00000E+00
    0.00000E+00         0.00000E+00         0.00000E+00
 
    0.34474E+06         0.17860E+06         0.00000E+00
    0.17860E+06        -0.30927E+06         0.00000E+00
    0.00000E+00         0.00000E+00         0.00000E+00
 
    0.31267E+06         0.17551E+06         0.00000E+00
    0.17551E+06        -0.27788E+06         0.00000E+00
    0.00000E+00         0.00000E+00         0.00000E+00
 
    0.28131E+06         0.17221E+06         0.00000E+00
    0.17221E+06        -0.24719E+06         0.00000E+00
    0.00000E+00         0.00000E+00         0.00000E+00
 
    0.25069E+06         0.16883E+06         0.00000E+00
    0.16883E+06        -0.21725E+06         0.00000E+00
    0.00000E+00         0.00000E+00         0.00000E+00
 
    0.22084E+06         0.16553E+06         0.00000E+00
    0.16553E+06        -0.18808E+06         0.00000E+00
    0.00000E+00         0.00000E+00         0.00000E+00
 
    0.19181E+06         0.16250E+06         0.00000E+00
    0.16250E+06        -0.15974E+06         0.00000E+00
    0.00000E+00         0.00000E+00         0.00000E+00
 
    0.16366E+06         0.15993E+06         0.00000E+00
    0.15993E+06        -0.13227E+06         0.00000E+00
    0.00000E+00         0.00000E+00         0.00000E+00
 
    0.13646E+06         0.15809E+06         0.00000E+00
    0.15809E+06        -0.10575E+06         0.00000E+00
    0.00000E+00         0.00000E+00         0.00000E+00
 
    0.11035E+06         0.15723E+06         0.00000E+00
    0.15723E+06        -0.80287E+05         0.00000E+00
    0.00000E+00         0.00000E+00         0.00000E+00
 
    0.85498E+05         0.15769E+06         0.00000E+00
    0.15769E+06        -0.56016E+05         0.00000E+00
    0.00000E+00         0.00000E+00         0.00000E+00
 
    0.62170E+05         0.15980E+06         0.00000E+00
    0.15980E+06        -0.33152E+05         0.00000E+00
    0.00000E+00         0.00000E+00         0.00000E+00
 
    0.40744E+05         0.16392E+06         0.00000E+00
    0.16392E+06        -0.11990E+05         0.00000E+00
    0.00000E+00         0.00000E+00         0.00000E+00
 
    0.21746E+05         0.17039E+06         0.00000E+00
    0.17039E+06         0.70632E+04         0.00000E+00
    0.00000E+00         0.00000E+00         0.00000E+00
 
    0.58818E+04         0.17951E+06         0.00000E+00
    0.17951E+06         0.23474E+05         0.00000E+00
    0.00000E+00         0.00000E+00         0.00000E+00
 
   -0.59450E+04         0.19141E+06         0.00000E+00
    0.19141E+06         0.36569E+05         0.00000E+00
    0.00000E+00         0.00000E+00         0.00000E+00
 
   -0.12640E+05         0.20601E+06         0.00000E+00
    0.20601E+06         0.45559E+05         0.00000E+00
    0.00000E+00         0.00000E+00         0.00000E+00
 
   -0.12974E+05         0.22290E+06         0.00000E+00
    0.22290E+06         0.49600E+05         0.00000E+00
    0.00000E+00         0.00000E+00         0.00000E+00
 
   -0.56956E+04         0.24118E+06         0.00000E+00
    0.24118E+06         0.47910E+05         0.00000E+00
    0.00000E+00         0.00000E+00         0.00000E+00
 
    0.12815E+07         0.88446E+04         0.00000E+00
    0.88446E+04        -0.13416E+07         0.00000E+00
    0.00000E+00         0.00000E+00         0.00000E+00
 
    0.13079E+07         0.20232E+05         0.00000E+00
    0.20232E+05        -0.13397E+07         0.00000E+00
    0.00000E+00         0.00000E+00         0.00000E+00
 
    0.13231E+07         0.25808E+05         0.00000E+00
    0.25808E+05        -0.13334E+07         0.00000E+00
    0.00000E+00         0.00000E+00         0.00000E+00
 
    0.13267E+07         0.28542E+05         0.00000E+00
    0.28542E+05        -0.13213E+07         0.00000E+00
    0.00000E+00         0.00000E+00         0.00000E+00
 
    0.13197E+07         0.30790E+05         0.00000E+00
    0.30790E+05        -0.13031E+07         0.00000E+00
    0.00000E+00         0.00000E+00         0.00000E+00
 
    0.13037E+07         0.34100E+05         0.00000E+00
    0.34100E+05        -0.12796E+07         0.00000E+00
    0.00000E+00         0.00000E+00         0.00000E+00
 
    0.12808E+07         0.39265E+05         0.00000E+00
    0.39265E+05        -0.12517E+07         0.00000E+00
    0.00000E+00         0.00000E+00         0.00000E+00
 
    0.12527E+07         0.46506E+05         0.00000E+00
    0.46506E+05        -0.12206E+07         0.00000E+00
    0.00000E+00         0.00000E+00         0.00000E+00
 
    0.12208E+07         0.55664E+05         0.00000E+00
    0.55664E+05        -0.11870E+07         0.00000E+00
    0.00000E+00         0.00000E+00         0.00000E+00
 
    0.11864E+07         0.66374E+05         0.00000E+00
    0.66374E+05        -0.11518E+07         0.00000E+00
    0.00000E+00         0.00000E+00         0.00000E+00
 
    0.11502E+07         0.78188E+05         0.00000E+00
    0.78188E+05        -0.11154E+07         0.00000E+00
    0.00000E+00         0.00000E+00         0.00000E+00
 
    0.11129E+07         0.90655E+05         0.00000E+00
    0.90655E+05        -0.10783E+07         0.00000E+00
    0.00000E+00         0.00000E+00         0.00000E+00
 
    0.10749E+07         0.10336E+06         0.00000E+00
    0.10336E+06        -0.10406E+07         0.00000E+00
    0.00000E+00         0.00000E+00         0.00000E+00
 
    0.10365E+07         0.11597E+06         0.00000E+00
    0.11597E+06        -0.10027E+07         0.00000E+00
    0.00000E+00         0.00000E+00         0.00000E+00
 
    0.99785E+06         0.12818E+06         0.00000E+00
    0.12818E+06        -0.96460E+06         0.00000E+00
    0.00000E+00         0.00000E+00         0.00000E+00
 
    0.95907E+06         0.13978E+06         0.00000E+00
    0.13978E+06        -0.92641E+06         0.00000E+00
    0.00000E+00         0.00000E+00         0.00000E+00
 
    0.92026E+06         0.15061E+06         0.00000E+00
    0.15061E+06        -0.88818E+06         0.00000E+00
    0.00000E+00         0.00000E+00         0.00000E+00
 
    0.88148E+06         0.16053E+06         0.00000E+00
    0.16053E+06        -0.84997E+06         0.00000E+00
    0.00000E+00         0.00000E+00         0.00000E+00
 
    0.84277E+06         0.16948E+06         0.00000E+00
    0.16948E+06        -0.81183E+06         0.00000E+00
    0.00000E+00         0.00000E+00         0.00000E+00
 
    0.80417E+06         0.17740E+06         0.00000E+00
    0.17740E+06        -0.77378E+06         0.00000E+00
    0.00000E+00         0.00000E+00         0.00000E+00
 
    0.76573E+06         0.18427E+06         0.00000E+00
    0.18427E+06        -0.73586E+06         0.00000E+00
    0.00000E+00         0.00000E+00         0.00000E+00
 
    0.72748E+06         0.19008E+06         0.00000E+00
    0.19008E+06        -0.69813E+06         0.00000E+00
    0.00000E+00         0.00000E+00         0.00000E+00
 
    0.68946E+06         0.19484E+06         0.00000E+00
    0.19484E+06        -0.66062E+06         0.00000E+00
    0.00000E+00         0.00000E+00         0.00000E+00
 
    0.65173E+06         0.19858E+06         0.00000E+00
    0.19858E+06        -0.62338E+06         0.00000E+00
    0.00000E+00         0.00000E+00         0.00000E+00
 
    0.61432E+06         0.20134E+06         0.00000E+00
    0.20134E+06        -0.58646E+06         0.00000E+00
    0.00000E+00         0.00000E+00         0.00000E+00
 
    0.57729E+06         0.20314E+06         0.00000E+00
    0.20314E+06        -0.54990E+06         0.00000E+00
    0.00000E+00         0.00000E+00         0.00000E+00
 
    0.54067E+06         0.20405E+06         0.00000E+00
    0.20405E+06        -0.51375E+06         0.00000E+00
    0.00000E+00         0.00000E+00         0.00000E+00
 
    0.50453E+06         0.20412E+06         0.00000E+00
    0.20412E+06        -0.47807E+06         0.00000E+00
    0.00000E+00         0.00000E+00         0.00000E+00
 
    0.46891E+06         0.20341E+06         0.00000E+00
    0.20341E+06        -0.44291E+06         0.00000E+00
    0.00000E+00         0.00000E+00         0.00000E+00
 
    0.43385E+06         0.20200E+06         0.00000E+00
    0.20200E+06        -0.40830E+06         0.00000E+00
    0.00000E+00         0.00000E+00         0.00000E+00
 
    0.39940E+06         0.19995E+06         0.00000E+00
    0.19995E+06        -0.37431E+06         0.00000E+00
    0.00000E+00         0.00000E+00         0.00000E+00
 
    0.36561E+06         0.19736E+06         0.00000E+00
    0.19736E+06        -0.34097E+06         0.00000E+00
    0.00000E+00         0.00000E+00         0.00000E+00
 
    0.33252E+06         0.19433E+06         0.00000E+00
    0.19433E+06        -0.30833E+06         0.00000E+00
    0.00000E+00         0.00000E+00         0.00000E+00
 
    0.30017E+06         0.19096E+06         0.00000E+00
    0.19096E+06        -0.27643E+06         0.00000E+00
    0.00000E+00         0.00000E+00         0.00000E+00
 
    0.26860E+06         0.18737E+06         0.00000E+00
    0.18737E+06        -0.24531E+06         0.00000E+00
    0.00000E+00         0.00000E+00         0.00000E+00
 
    0.23786E+06         0.18371E+06         0.00000E+00
    0.18371E+06        -0.21503E+06         0.00000E+00
    0.00000E+00         0.00000E+00         0.00000E+00
 
    0.20801E+06         0.18012E+06         0.00000E+00
    0.18012E+06        -0.18563E+06         0.00000E+00
    0.00000E+00         0.00000E+00         0.00000E+00
 
    0.17910E+06         0.17679E+06         0.00000E+00
    0.17679E+06        -0.15717E+06         0.00000E+00
    0.00000E+00         0.00000E+00         0.00000E+00
 
    0.15122E+06         0.17392E+06         0.00000E+00
    0.17392E+06        -0.12973E+06         0.00000E+00
    0.00000E+00         0.00000E+00         0.00000E+00
 
    0.12448E+06         0.17174E+06         0.00000E+00
    0.17174E+06        -0.10340E+06         0.00000E+00
    0.00000E+00         0.00000E+00         0.00000E+00
 
    0.99028E+05         0.17050E+06         0.00000E+00
    0.17050E+06        -0.78313E+05         0.00000E+00
    0.00000E+00         0.00000E+00         0.00000E+00
 
    0.75068E+05         0.17047E+06         0.00000E+00
    0.17047E+06        -0.54641E+05         0.00000E+00
    0.00000E+00         0.00000E+00         0.00000E+00
 
    0.52886E+05         0.17193E+06         0.00000E+00
    0.17193E+06        -0.32616E+05         0.00000E+00
    0.00000E+00         0.00000E+00         0.00000E+00
 
    0.32860E+05         0.17517E+06         0.00000E+00
    0.17517E+06        -0.12541E+05         0.00000E+00
    0.00000E+00         0.00000E+00         0.00000E+00
 
    0.15489E+05         0.18041E+06         0.00000E+00
    0.18041E+06         0.51942E+04         0.00000E+00
    0.00000E+00         0.00000E+00         0.00000E+00
 
    0.14062E+04         0.18782E+06         0.00000E+00
    0.18782E+06         0.20107E+05         0.00000E+00
    0.00000E+00         0.00000E+00         0.00000E+00
 
   -0.86251E+04         0.19741E+06         0.00000E+00
    0.19741E+06         0.31632E+05         0.00000E+00
    0.00000E+00         0.00000E+00         0.00000E+00
 
   -0.13731E+05         0.20901E+06         0.00000E+00
    0.20901E+06         0.39158E+05         0.00000E+00
    0.00000E+00         0.00000E+00         0.00000E+00
 
   -0.12986E+05         0.22213E+06         0.00000E+00
    0.22213E+06         0.42089E+05         0.00000E+00
    0.00000E+00         0.00000E+00         0.00000E+00
 
   -0.55172E+04         0.23594E+06         0.00000E+00
    0.23594E+06         0.39953E+05         0.00000E+00
    0.00000E+00         0.00000E+00         0.00000E+00
 
    0.12947E+07         0.10882E+05         0.00000E+00
    0.10882E+05        -0.13463E+07         0.00000E+00
    0.00000E+00         0.00000E+00         0.00000E+00
 
    0.13148E+07         0.27336E+05         0.00000E+00
    0.27336E+05        -0.13450E+07         0.00000E+00
    0.00000E+00         0.00000E+00         0.00000E+00
 
    0.13262E+07         0.38303E+05         0.00000E+00
    0.38303E+05        -0.13401E+07         0.00000E+00
    0.00000E+00         0.00000E+00         0.00000E+00
 
    0.13283E+07         0.45869E+05         0.00000E+00
    0.45869E+05        -0.13299E+07         0.00000E+00
    0.00000E+00         0.00000E+00         0.00000E+00
 
    0.13214E+07         0.51910E+05         0.00000E+00
    0.51910E+05        -0.13142E+07         0.00000E+00
    0.00000E+00         0.00000E+00         0.00000E+00
 
    0.13065E+07         0.57834E+05         0.00000E+00
    0.57834E+05        -0.12931E+07         0.00000E+00
    0.00000E+00         0.00000E+00         0.00000E+00
 
    0.12850E+07         0.64525E+05         0.00000E+00
    0.64525E+05        -0.12675E+07         0.00000E+00
    0.00000E+00         0.00000E+00         0.00000E+00
 
    0.12582E+07         0.72409E+05         0.00000E+00
    0.72409E+05        -0.12380E+07         0.00000E+00
    0.00000E+00         0.00000E+00         0.00000E+00
 
    0.12275E+07         0.81569E+05         0.00000E+00
    0.81569E+05        -0.12057E+07         0.00000E+00
    0.00000E+00         0.00000E+00         0.00000E+00
 
    0.11937E+07         0.91861E+05         0.00000E+00
    0.91861E+05        -0.11710E+07         0.00000E+00
    0.00000E+00         0.00000E+00         0.00000E+00
 
    0.11579E+07         0.10302E+06         0.00000E+00
    0.10302E+06        -0.11348E+07         0.00000E+00
    0.00000E+00         0.00000E+00         0.00000E+00
 
    0.11205E+07         0.11473E+06         0.00000E+00
    0.11473E+06        -0.10974E+07         0.00000E+00
    0.00000E+00         0.00000E+00         0.00000E+00
 
    0.10822E+07         0.12666E+06         0.00000E+00
    0.12666E+06        -0.10592E+07         0.00000E+00
    0.00000E+00         0.00000E+00         0.00000E+00
 
    0.10432E+07         0.13852E+06         0.00000E+00
    0.13852E+06        -0.10205E+07         0.00000E+00
    0.00000E+00         0.00000E+00         0.00000E+00
 
    0.10038E+07         0.15007E+06         0.00000E+00
    0.15007E+06        -0.98140E+06         0.00000E+00
    0.00000E+00         0.00000E+00         0.00000E+00
 
    0.96412E+06         0.16108E+06         0.00000E+00
    0.16108E+06        -0.94210E+06         0.00000E+00
    0.00000E+00         0.00000E+00         0.00000E+00
 
    0.92434E+06         0.17139E+06         0.00000E+00
    0.17139E+06        -0.90270E+06         0.00000E+00
    0.00000E+00         0.00000E+00         0.00000E+00
 
    0.88454E+06         0.18088E+06         0.00000E+00
    0.18088E+06        -0.86327E+06         0.00000E+00
    0.00000E+00         0.00000E+00         0.00000E+00
 
    0.84479E+06         0.18945E+06         0.00000E+00
    0.18945E+06        -0.82390E+06         0.00000E+00
    0.00000E+00         0.00000E+00         0.00000E+00
 
    0.80517E+06         0.19705E+06         0.00000E+00
    0.19705E+06        -0.78464E+06         0.00000E+00
    0.00000E+00         0.00000E+00         0.00000E+00
 
    0.76571E+06         0.20363E+06         0.00000E+00
    0.20363E+06        -0.74554E+06         0.00000E+00
    0.00000E+00         0.00000E+00         0.00000E+00
 
    0.72648E+06         0.20918E+06         0.00000E+00
    0.20918E+06        -0.70665E+06         0.00000E+00
    0.00000E+00         0.00000E+00         0.00000E+00
 
    0.68752E+06         0.21371E+06         0.00000E+00
    0.21371E+06        -0.66803E+06         0.00000E+00
    0.00000E+00         0.00000E+00         0.00000E+00
 
    0.64888E+06         0.21722E+06         0.00000E+00
    0.21722E+06        -0.62973E+06         0.00000E+00
    0.00000E+00         0.00000E+00         0.00000E+00
 
    0.61062E+06         0.21974E+06         0.00000E+00
    0.21974E+06        -0.59179E+06         0.00000E+00
    0.00000E+00         0.00000E+00         0.00000E+00
 
    0.57278E+06         0.22132E+06         0.00000E+00
    0.22132E+06        -0.55427E+06         0.00000E+00
    0.00000E+00         0.00000E+00         0.00000E+00
 
    0.53541E+06         0.22199E+06         0.00000E+00
    0.22199E+06        -0.51722E+06         0.00000E+00
    0.00000E+00         0.00000E+00         0.00000E+00
 
    0.49856E+06         0.22181E+06         0.00000E+00
    0.22181E+06        -0.48068E+06         0.00000E+00
    0.00000E+00         0.00000E+00         0.00000E+00
 
    0.46229E+06         0.22084E+06         0.00000E+00
    0.22084E+06        -0.44472E+06         0.00000E+00
    0.00000E+00         0.00000E+00         0.00000E+00
 
    0.42664E+06         0.21915E+06         0.00000E+00
    0.21915E+06        -0.40937E+06         0.00000E+00
    0.00000E+00         0.00000E+00         0.00000E+00
 
    0.39166E+06         0.21682E+06         0.00000E+00
    0.21682E+06        -0.37469E+06         0.00000E+00
    0.00000E+00         0.00000E+00         0.00000E+00
 
    0.35739E+06         0.21393E+06         0.00000E+00
    0.21393E+06        -0.34073E+06         0.00000E+00
    0.00000E+00         0.00000E+00         0.00000E+00
 
    0.32390E+06         0.21060E+06         0.00000E+00
    0.21060E+06        -0.30754E+06         0.00000E+00
    0.00000E+00         0.00000E+00         0.00000E+00
 
    0.29122E+06         0.20691E+06         0.00000E+00
    0.20691E+06        -0.27516E+06         0.00000E+00
    0.00000E+00         0.00000E+00         0.00000E+00
 
    0.25941E+06         0.20300E+06         0.00000E+00
    0.20300E+06        -0.24365E+06         0.00000E+00
    0.00000E+00         0.00000E+00         0.00000E+00
 
    0.22853E+06         0.19901E+06         0.00000E+00
    0.19901E+06        -0.21307E+06         0.00000E+00
    0.00000E+00         0.00000E+00         0.00000E+00
 
    0.19865E+06         0.19508E+06         0.00000E+00
    0.19508E+06        -0.18348E+06         0.00000E+00
    0.00000E+00         0.00000E+00         0.00000E+00
 
    0.16984E+06         0.19139E+06         0.00000E+00
    0.19139E+06        -0.15495E+06         0.00000E+00
    0.00000E+00         0.00000E+00         0.00000E+00
 
    0.14221E+06         0.18813E+06         0.00000E+00
    0.18813E+06        -0.12758E+06         0.00000E+00
    0.00000E+00         0.00000E+00         0.00000E+00
 
    0.11588E+06         0.18551E+06         0.00000E+00
    0.18551E+06        -0.10149E+06         0.00000E+00
    0.00000E+00         0.00000E+00         0.00000E+00
 
    0.91020E+05         0.18374E+06         0.00000E+00
    0.18374E+06        -0.76811E+05         0.00000E+00
    0.00000E+00         0.00000E+00         0.00000E+00
 
    0.67856E+05         0.18307E+06         0.00000E+00
    0.18307E+06        -0.53745E+05         0.00000E+00
    0.00000E+00         0.00000E+00         0.00000E+00
 
    0.46672E+05         0.18372E+06         0.00000E+00
    0.18372E+06        -0.32526E+05         0.00000E+00
    0.00000E+00         0.00000E+00         0.00000E+00
 
    0.27833E+05         0.18588E+06         0.00000E+00
    0.18588E+06        -0.13453E+05         0.00000E+00
    0.00000E+00         0.00000E+00         0.00000E+00
 
    0.11793E+05         0.18973E+06         0.00000E+00
    0.18973E+06         0.31167E+04         0.00000E+00
    0.00000E+00         0.00000E+00         0.00000E+00
 
   -0.89786E+03         0.19532E+06         0.00000E+00
    0.19532E+06         0.16763E+05         0.00000E+00
    0.00000E+00         0.00000E+00         0.00000E+00
 
   -0.96103E+04         0.20260E+06         0.00000E+00
    0.20260E+06         0.27027E+05         0.00000E+00
    0.00000E+00         0.00000E+00         0.00000E+00
 
   -0.13661E+05         0.21132E+06         0.00000E+00
    0.21132E+06         0.33450E+05         0.00000E+00
    0.00000E+00         0.00000E+00         0.00000E+00
 
   -0.12372E+05         0.22101E+06         0.00000E+00
    0.22101E+06         0.35636E+05         0.00000E+00
    0.00000E+00         0.00000E+00         0.00000E+00
 
   -0.51548E+04         0.23091E+06         0.00000E+00
    0.23091E+06         0.33347E+05         0.00000E+00
    0.00000E+00         0.00000E+00         0.00000E+00
 
    0.13107E+07         0.12516E+05         0.00000E+00
    0.12516E+05        -0.13523E+07         0.00000E+00
    0.00000E+00         0.00000E+00         0.00000E+00
 
    0.13252E+07         0.33115E+05         0.00000E+00
    0.33115E+05        -0.13511E+07         0.00000E+00
    0.00000E+00         0.00000E+00         0.00000E+00
 
    0.13331E+07         0.48704E+05         0.00000E+00
    0.48704E+05        -0.13468E+07         0.00000E+00
    0.00000E+00         0.00000E+00         0.00000E+00
 
    0.13334E+07         0.60682E+05         0.00000E+00
    0.60682E+05        -0.13379E+07         0.00000E+00
    0.00000E+00         0.00000E+00         0.00000E+00
 
    0.13260E+07         0.70476E+05         0.00000E+00
    0.70476E+05        -0.13238E+07         0.00000E+00
    0.00000E+00         0.00000E+00         0.00000E+00
 
    0.13116E+07         0.79285E+05         0.00000E+00
    0.79285E+05        -0.13046E+07         0.00000E+00
    0.00000E+00         0.00000E+00         0.00000E+00
 
    0.12909E+07         0.87973E+05         0.00000E+00
    0.87973E+05        -0.12806E+07         0.00000E+00
    0.00000E+00         0.00000E+00         0.00000E+00
 
    0.12652E+07         0.97062E+05         0.00000E+00
    0.97062E+05        -0.12527E+07         0.00000E+00
    0.00000E+00         0.00000E+00         0.00000E+00
 
    0.12353E+07         0.10679E+06         0.00000E+00
    0.10679E+06        -0.12215E+07         0.00000E+00
    0.00000E+00         0.00000E+00         0.00000E+00
 
    0.12023E+07         0.11718E+06         0.00000E+00
    0.11718E+06        -0.11876E+07         0.00000E+00
    0.00000E+00         0.00000E+00         0.00000E+00
 
    0.11668E+07         0.12811E+06         0.00000E+00
    0.12811E+06        -0.11517E+07         0.00000E+00
    0.00000E+00         0.00000E+00         0.00000E+00
 
    0.11296E+07         0.13939E+06         0.00000E+00
    0.13939E+06        -0.11144E+07         0.00000E+00
    0.00000E+00         0.00000E+00         0.00000E+00
 
    0.10911E+07         0.15080E+06         0.00000E+00
    0.15080E+06        -0.10759E+07         0.00000E+00
    0.00000E+00         0.00000E+00         0.00000E+00
 
    0.10517E+07         0.16210E+06         0.00000E+00
    0.16210E+06        -0.10366E+07         0.00000E+00
    0.00000E+00         0.00000E+00         0.00000E+00
 
    0.10117E+07         0.17308E+06         0.00000E+00
    0.17308E+06        -0.99679E+06         0.00000E+00
    0.00000E+00         0.00000E+00         0.00000E+00
 
    0.97133E+06         0.18356E+06         0.00000E+00
    0.18356E+06        -0.95662E+06         0.00000E+00
    0.00000E+00         0.00000E+00         0.00000E+00
 
    0.93072E+06         0.19338E+06         0.00000E+00
    0.19338E+06        -0.91625E+06         0.00000E+00
    0.00000E+00         0.00000E+00         0.00000E+00
 
    0.89003E+06         0.20242E+06         0.00000E+00
    0.20242E+06        -0.87580E+06         0.00000E+00
    0.00000E+00         0.00000E+00         0.00000E+00
 
    0.84935E+06         0.21059E+06         0.00000E+00
    0.21059E+06        -0.83536E+06         0.00000E+00
    0.00000E+00         0.00000E+00         0.00000E+00
 
    0.80876E+06         0.21782E+06         0.00000E+00
    0.21782E+06        -0.79502E+06         0.00000E+00
    0.00000E+00         0.00000E+00         0.00000E+00
 
    0.76835E+06         0.22406E+06         0.00000E+00
    0.22406E+06        -0.75484E+06         0.00000E+00
    0.00000E+00         0.00000E+00         0.00000E+00
 
    0.72818E+06         0.22930E+06         0.00000E+00
    0.22930E+06        -0.71490E+06         0.00000E+00
    0.00000E+00         0.00000E+00         0.00000E+00
 
    0.68830E+06         0.23353E+06         0.00000E+00
    0.23353E+06        -0.67524E+06         0.00000E+00
    0.00000E+00         0.00000E+00         0.00000E+00
 
    0.64877E+06         0.23676E+06         0.00000E+00
    0.23676E+06        -0.63594E+06         0.00000E+00
    0.00000E+00         0.00000E+00         0.00000E+00
 
    0.60965E+06         0.23900E+06         0.00000E+00
    0.23900E+06        -0.59704E+06         0.00000E+00
    0.00000E+00         0.00000E+00         0.00000E+00
 
    0.57100E+06         0.24029E+06         0.00000E+00
    0.24029E+06        -0.55860E+06         0.00000E+00
    0.00000E+00         0.00000E+00         0.00000E+00
 
    0.53287E+06         0.24068E+06         0.00000E+00
    0.24068E+06        -0.52067E+06         0.00000E+00
    0.00000E+00         0.00000E+00         0.00000E+00
 
    0.49530E+06         0.24020E+06         0.00000E+00
    0.24020E+06        -0.48331E+06         0.00000E+00
    0.00000E+00         0.00000E+00         0.00000E+00
 
    0.45836E+06         0.23893E+06         0.00000E+00
    0.23893E+06        -0.44658E+06         0.00000E+00
    0.00000E+00         0.00000E+00         0.00000E+00
 
    0.42209E+06         0.23693E+06         0.00000E+00
    0.23693E+06        -0.41051E+06         0.00000E+00
    0.00000E+00         0.00000E+00         0.00000E+00
 
    0.38656E+06         0.23428E+06         0.00000E+00
    0.23428E+06        -0.37518E+06         0.00000E+00
    0.00000E+00         0.00000E+00         0.00000E+00
 
    0.35180E+06         0.23107E+06         0.00000E+00
    0.23107E+06        -0.34062E+06         0.00000E+00
    0.00000E+00         0.00000E+00         0.00000E+00
 
    0.31789E+06         0.22739E+06         0.00000E+00
    0.22739E+06        -0.30691E+06         0.00000E+00
    0.00000E+00         0.00000E+00         0.00000E+00
 
    0.28487E+06         0.22335E+06         0.00000E+00
    0.22335E+06        -0.27408E+06         0.00000E+00
    0.00000E+00         0.00000E+00         0.00000E+00
 
    0.25281E+06         0.21907E+06         0.00000E+00
    0.21907E+06        -0.24222E+06         0.00000E+00
    0.00000E+00         0.00000E+00         0.00000E+00
 
    0.22177E+06         0.21470E+06         0.00000E+00
    0.21470E+06        -0.21137E+06         0.00000E+00
    0.00000E+00         0.00000E+00         0.00000E+00
 
    0.19185E+06         0.21036E+06         0.00000E+00
    0.21036E+06        -0.18163E+06         0.00000E+00
    0.00000E+00         0.00000E+00         0.00000E+00
 
    0.16312E+06         0.20624E+06         0.00000E+00
    0.20624E+06        -0.15307E+06         0.00000E+00
    0.00000E+00         0.00000E+00         0.00000E+00
 
    0.13571E+06         0.20249E+06         0.00000E+00
    0.20249E+06        -0.12580E+06         0.00000E+00
    0.00000E+00         0.00000E+00         0.00000E+00
 
    0.10975E+06         0.19932E+06         0.00000E+00
    0.19932E+06        -0.99964E+05         0.00000E+00
    0.00000E+00         0.00000E+00         0.00000E+00
 
    0.85431E+05         0.19691E+06         0.00000E+00
    0.19691E+06        -0.75706E+05         0.00000E+00
    0.00000E+00         0.00000E+00         0.00000E+00
 
    0.62971E+05         0.19546E+06         0.00000E+00
    0.19546E+06        -0.53225E+05         0.00000E+00
    0.00000E+00         0.00000E+00         0.00000E+00
 
    0.42650E+05         0.19514E+06         0.00000E+00
    0.19514E+06        -0.32755E+05         0.00000E+00
    0.00000E+00         0.00000E+00         0.00000E+00
 
    0.24805E+05         0.19611E+06         0.00000E+00
    0.19611E+06        -0.14578E+05         0.00000E+00
    0.00000E+00         0.00000E+00         0.00000E+00
 
    0.98431E+04         0.19845E+06         0.00000E+00
    0.19845E+06         0.98614E+03         0.00000E+00
    0.00000E+00         0.00000E+00         0.00000E+00
 
   -0.17721E+04         0.20217E+06         0.00000E+00
    0.20217E+06         0.13583E+05         0.00000E+00
    0.00000E+00         0.00000E+00         0.00000E+00
 
   -0.95310E+04         0.20717E+06         0.00000E+00
    0.20717E+06         0.22852E+05         0.00000E+00
    0.00000E+00         0.00000E+00         0.00000E+00
 
   -0.12911E+05         0.21317E+06         0.00000E+00
    0.21317E+06         0.28462E+05         0.00000E+00
    0.00000E+00         0.00000E+00         0.00000E+00
 
   -0.11428E+05         0.21975E+06         0.00000E+00
    0.21975E+06         0.30173E+05         0.00000E+00
    0.00000E+00         0.00000E+00         0.00000E+00
 
   -0.47073E+04         0.22626E+06         0.00000E+00
    0.22626E+06         0.27916E+05         0.00000E+00
    0.00000E+00         0.00000E+00         0.00000E+00
 
    0.13282E+07         0.13890E+05         0.00000E+00
    0.13890E+05        -0.13599E+07         0.00000E+00
    0.00000E+00         0.00000E+00         0.00000E+00
 
    0.13382E+07         0.37964E+05         0.00000E+00
    0.37964E+05        -0.13586E+07         0.00000E+00
    0.00000E+00         0.00000E+00         0.00000E+00
 
    0.13428E+07         0.57535E+05         0.00000E+00
    0.57535E+05        -0.13544E+07         0.00000E+00
    0.00000E+00         0.00000E+00         0.00000E+00
 
    0.13411E+07         0.73487E+05         0.00000E+00
    0.73487E+05        -0.13461E+07         0.00000E+00
    0.00000E+00         0.00000E+00         0.00000E+00
 
    0.13328E+07         0.86866E+05         0.00000E+00
    0.86866E+05        -0.13329E+07         0.00000E+00
    0.00000E+00         0.00000E+00         0.00000E+00
 
    0.13183E+07         0.98644E+05         0.00000E+00
    0.98644E+05        -0.13149E+07         0.00000E+00
    0.00000E+00         0.00000E+00         0.00000E+00
 
    0.12981E+07         0.10960E+06         0.00000E+00
    0.10960E+06        -0.12922E+07         0.00000E+00
    0.00000E+00         0.00000E+00         0.00000E+00
 
    0.12731E+07         0.12028E+06         0.00000E+00
    0.12028E+06        -0.12654E+07         0.00000E+00
    0.00000E+00         0.00000E+00         0.00000E+00
 
    0.12439E+07         0.13101E+06         0.00000E+00
    0.13101E+06        -0.12352E+07         0.00000E+00
    0.00000E+00         0.00000E+00         0.00000E+00
 
    0.12114E+07         0.14193E+06         0.00000E+00
    0.14193E+06        -0.12020E+07         0.00000E+00
    0.00000E+00         0.00000E+00         0.00000E+00
 
    0.11764E+07         0.15303E+06         0.00000E+00
    0.15303E+06        -0.11666E+07         0.00000E+00
    0.00000E+00         0.00000E+00         0.00000E+00
 
    0.11393E+07         0.16422E+06         0.00000E+00
    0.16422E+06        -0.11294E+07         0.00000E+00
    0.00000E+00         0.00000E+00         0.00000E+00
 
    0.11008E+07         0.17536E+06         0.00000E+00
    0.17536E+06        -0.10908E+07         0.00000E+00
    0.00000E+00         0.00000E+00         0.00000E+00
 
    0.10611E+07         0.18630E+06         0.00000E+00
    0.18630E+06        -0.10512E+07         0.00000E+00
    0.00000E+00         0.00000E+00         0.00000E+00
 
    0.10207E+07         0.19687E+06         0.00000E+00
    0.19687E+06        -0.10108E+07         0.00000E+00
    0.00000E+00         0.00000E+00         0.00000E+00
 
    0.97972E+06         0.20691E+06         0.00000E+00
    0.20691E+06        -0.96997E+06         0.00000E+00
    0.00000E+00         0.00000E+00         0.00000E+00
 
    0.93842E+06         0.21630E+06         0.00000E+00
    0.21630E+06        -0.92882E+06         0.00000E+00
    0.00000E+00         0.00000E+00         0.00000E+00
 
    0.89695E+06         0.22492E+06         0.00000E+00
    0.22492E+06        -0.88750E+06         0.00000E+00
    0.00000E+00         0.00000E+00         0.00000E+00
 
    0.85543E+06         0.23269E+06         0.00000E+00
    0.23269E+06        -0.84614E+06         0.00000E+00
    0.00000E+00         0.00000E+00         0.00000E+00
 
    0.81398E+06         0.23954E+06         0.00000E+00
    0.23954E+06        -0.80485E+06         0.00000E+00
    0.00000E+00         0.00000E+00         0.00000E+00
 
    0.77269E+06         0.24543E+06         0.00000E+00
    0.24543E+06        -0.76371E+06         0.00000E+00
    0.00000E+00         0.00000E+00         0.00000E+00
 
    0.73163E+06         0.25032E+06         0.00000E+00
    0.25032E+06        -0.72280E+06         0.00000E+00
    0.00000E+00         0.00000E+00         0.00000E+00
 
    0.69087E+06         0.25422E+06         0.00000E+00
    0.25422E+06        -0.68219E+06         0.00000E+00
    0.00000E+00         0.00000E+00         0.00000E+00
 
    0.65049E+06         0.25712E+06         0.00000E+00
    0.25712E+06        -0.64195E+06         0.00000E+00
    0.00000E+00         0.00000E+00         0.00000E+00
 
    0.61054E+06         0.25904E+06         0.00000E+00
    0.25904E+06        -0.60215E+06         0.00000E+00
    0.00000E+00         0.00000E+00         0.00000E+00
 
    0.57109E+06         0.26002E+06         0.00000E+00
    0.26002E+06        -0.56284E+06         0.00000E+00
    0.00000E+00         0.00000E+00         0.00000E+00
 
    0.53220E+06         0.26008E+06         0.00000E+00
    0.26008E+06        -0.52408E+06         0.00000E+00
    0.00000E+00         0.00000E+00         0.00000E+00
 
    0.49392E+06         0.25928E+06         0.00000E+00
    0.25928E+06        -0.48594E+06         0.00000E+00
    0.00000E+00         0.00000E+00         0.00000E+00
 
    0.45631E+06         0.25767E+06         0.00000E+00
    0.25767E+06        -0.44847E+06         0.00000E+00
    0.00000E+00         0.00000E+00         0.00000E+00
 
    0.41943E+06         0.25533E+06         0.00000E+00
    0.25533E+06        -0.41172E+06         0.00000E+00
    0.00000E+00         0.00000E+00         0.00000E+00
 
    0.38334E+06         0.25232E+06         0.00000E+00
    0.25232E+06        -0.37576E+06         0.00000E+00
    0.00000E+00         0.00000E+00         0.00000E+00
 
    0.34810E+06         0.24874E+06         0.00000E+00
    0.24874E+06        -0.34064E+06         0.00000E+00
    0.00000E+00         0.00000E+00         0.00000E+00
 
    0.31376E+06         0.24468E+06         0.00000E+00
    0.24468E+06        -0.30644E+06         0.00000E+00
    0.00000E+00         0.00000E+00         0.00000E+00
 
    0.28040E+06         0.24024E+06         0.00000E+00
    0.24024E+06        -0.27320E+06         0.00000E+00
    0.00000E+00         0.00000E+00         0.00000E+00
 
    0.24808E+06         0.23555E+06         0.00000E+00
    0.23555E+06        -0.24101E+06         0.00000E+00
    0.00000E+00         0.00000E+00         0.00000E+00
 
    0.21689E+06         0.23073E+06         0.00000E+00
    0.23073E+06        -0.20993E+06         0.00000E+00
    0.00000E+00         0.00000E+00         0.00000E+00
 
    0.18691E+06         0.22592E+06         0.00000E+00
    0.22592E+06        -0.18006E+06         0.00000E+00
    0.00000E+00         0.00000E+00         0.00000E+00
 
    0.15825E+06         0.22128E+06         0.00000E+00
    0.22128E+06        -0.15150E+06         0.00000E+00
    0.00000E+00         0.00000E+00         0.00000E+00
 
    0.13104E+06         0.21696E+06         0.00000E+00
    0.21696E+06        -0.12435E+06         0.00000E+00
    0.00000E+00         0.00000E+00         0.00000E+00
 
    0.10542E+06         0.21313E+06         0.00000E+00
    0.21313E+06        -0.98773E+05         0.00000E+00
    0.00000E+00         0.00000E+00         0.00000E+00
 
    0.81578E+05         0.20996E+06         0.00000E+00
    0.20996E+06        -0.74917E+05         0.00000E+00
    0.00000E+00         0.00000E+00         0.00000E+00
 
    0.59733E+05         0.20761E+06         0.00000E+00
    0.20761E+06        -0.52979E+05         0.00000E+00
    0.00000E+00         0.00000E+00         0.00000E+00
 
    0.40147E+05         0.20621E+06         0.00000E+00
    0.20621E+06        -0.33184E+05         0.00000E+00
    0.00000E+00         0.00000E+00         0.00000E+00
 
    0.23130E+05         0.20587E+06         0.00000E+00
    0.20587E+06        -0.15789E+05         0.00000E+00
    0.00000E+00         0.00000E+00         0.00000E+00
 
    0.90322E+04         0.20663E+06         0.00000E+00
    0.20663E+06        -0.10741E+04         0.00000E+00
    0.00000E+00         0.00000E+00         0.00000E+00
 
   -0.17584E+04         0.20847E+06         0.00000E+00
    0.20847E+06         0.10670E+05         0.00000E+00
    0.00000E+00         0.00000E+00         0.00000E+00
 
   -0.88379E+04         0.21126E+06         0.00000E+00
    0.21126E+06         0.19166E+05         0.00000E+00
    0.00000E+00         0.00000E+00         0.00000E+00
 
   -0.11815E+05         0.21473E+06         0.00000E+00
    0.21473E+06         0.24189E+05         0.00000E+00
    0.00000E+00         0.00000E+00         0.00000E+00
 
   -0.10356E+05         0.21850E+06         0.00000E+00
    0.21850E+06         0.25618E+05         0.00000E+00
    0.00000E+00         0.00000E+00         0.00000E+00
 
   -0.42403E+04         0.22202E+06         0.00000E+00
    0.22202E+06         0.23502E+05         0.00000E+00
    0.00000E+00         0.00000E+00         0.00000E+00
 
    0.13469E+07         0.15099E+05         0.00000E+00
    0.15099E+05        -0.13691E+07         0.00000E+00
    0.00000E+00         0.00000E+00         0.00000E+00
 
    0.13531E+07         0.42171E+05         0.00000E+00
    0.42171E+05        -0.13675E+07         0.00000E+00
    0.00000E+00         0.00000E+00         0.00000E+00
 
    0.13546E+07         0.65208E+05         0.00000E+00
    0.65208E+05        -0.13632E+07         0.00000E+00
    0.00000E+00         0.00000E+00         0.00000E+00
 
    0.13509E+07         0.84728E+05         0.00000E+00
    0.84728E+05        -0.13549E+07         0.00000E+00
    0.00000E+00         0.00000E+00         0.00000E+00
 
    0.13415E+07         0.10146E+06         0.00000E+00
    0.10146E+06        -0.13422E+07         0.00000E+00
    0.00000E+00         0.00000E+00         0.00000E+00
 
    0.13265E+07         0.11617E+06         0.00000E+00
    0.11617E+06        -0.13248E+07         0.00000E+00
    0.00000E+00         0.00000E+00         0.00000E+00
 
    0.13064E+07         0.12953E+06         0.00000E+00
    0.12953E+06        -0.13029E+07         0.00000E+00
    0.00000E+00         0.00000E+00         0.00000E+00
 
    0.12817E+07         0.14206E+06         0.00000E+00
    0.14206E+06        -0.12769E+07         0.00000E+00
    0.00000E+00         0.00000E+00         0.00000E+00
 
    0.12529E+07         0.15410E+06         0.00000E+00
    0.15410E+06        -0.12474E+07         0.00000E+00
    0.00000E+00         0.00000E+00         0.00000E+00
 
    0.12209E+07         0.16588E+06         0.00000E+00
    0.16588E+06        -0.12149E+07         0.00000E+00
    0.00000E+00         0.00000E+00         0.00000E+00
 
    0.11862E+07         0.17747E+06         0.00000E+00
    0.17747E+06        -0.11798E+07         0.00000E+00
    0.00000E+00         0.00000E+00         0.00000E+00
 
    0.11493E+07         0.18887E+06         0.00000E+00
    0.18887E+06        -0.11428E+07         0.00000E+00
    0.00000E+00         0.00000E+00         0.00000E+00
 
    0.11107E+07         0.20001E+06         0.00000E+00
    0.20001E+06        -0.11042E+07         0.00000E+00
    0.00000E+00         0.00000E+00         0.00000E+00
 
    0.10709E+07         0.21079E+06         0.00000E+00
    0.21079E+06        -0.10643E+07         0.00000E+00
    0.00000E+00         0.00000E+00         0.00000E+00
 
    0.10301E+07         0.22111E+06         0.00000E+00
    0.22111E+06        -0.10236E+07         0.00000E+00
    0.00000E+00         0.00000E+00         0.00000E+00
 
    0.98864E+06         0.23084E+06         0.00000E+00
    0.23084E+06        -0.98223E+06         0.00000E+00
    0.00000E+00         0.00000E+00         0.00000E+00
 
    0.94676E+06         0.23989E+06         0.00000E+00
    0.23989E+06        -0.94044E+06         0.00000E+00
    0.00000E+00         0.00000E+00         0.00000E+00
 
    0.90461E+06         0.24815E+06         0.00000E+00
    0.24815E+06        -0.89839E+06         0.00000E+00
    0.00000E+00         0.00000E+00         0.00000E+00
 
    0.86236E+06         0.25555E+06         0.00000E+00
    0.25555E+06        -0.85624E+06         0.00000E+00
    0.00000E+00         0.00000E+00         0.00000E+00
 
    0.82013E+06         0.26204E+06         0.00000E+00
    0.26204E+06        -0.81411E+06         0.00000E+00
    0.00000E+00         0.00000E+00         0.00000E+00
 
    0.77803E+06         0.26757E+06         0.00000E+00
    0.26757E+06        -0.77210E+06         0.00000E+00
    0.00000E+00         0.00000E+00         0.00000E+00
 
    0.73614E+06         0.27211E+06         0.00000E+00
    0.27211E+06        -0.73032E+06         0.00000E+00
    0.00000E+00         0.00000E+00         0.00000E+00
 
    0.69457E+06         0.27566E+06         0.00000E+00
    0.27566E+06        -0.68883E+06         0.00000E+00
    0.00000E+00         0.00000E+00         0.00000E+00
 
    0.65338E+06         0.27822E+06         0.00000E+00
    0.27822E+06        -0.64774E+06         0.00000E+00
    0.00000E+00         0.00000E+00         0.00000E+00
 
    0.61264E+06         0.27979E+06         0.00000E+00
    0.27979E+06        -0.60709E+06         0.00000E+00
    0.00000E+00         0.00000E+00         0.00000E+00
 
    0.57242E+06         0.28042E+06         0.00000E+00
    0.28042E+06        -0.56697E+06         0.00000E+00
    0.00000E+00         0.00000E+00         0.00000E+00
 
    0.53280E+06         0.28013E+06         0.00000E+00
    0.28013E+06        -0.52743E+06         0.00000E+00
    0.00000E+00         0.00000E+00         0.00000E+00
 
    0.49382E+06         0.27897E+06         0.00000E+00
    0.27897E+06        -0.48854E+06         0.00000E+00
    0.00000E+00         0.00000E+00         0.00000E+00
 
    0.45556E+06         0.27700E+06         0.00000E+00
    0.27700E+06        -0.45037E+06         0.00000E+00
    0.00000E+00         0.00000E+00         0.00000E+00
 
    0.41809E+06         0.27428E+06         0.00000E+00
    0.27428E+06        -0.41298E+06         0.00000E+00
    0.00000E+00         0.00000E+00         0.00000E+00
 
    0.38145E+06         0.27088E+06         0.00000E+00
    0.27088E+06        -0.37643E+06         0.00000E+00
    0.00000E+00         0.00000E+00         0.00000E+00
 
    0.34573E+06         0.26689E+06         0.00000E+00
    0.26689E+06        -0.34078E+06         0.00000E+00
    0.00000E+00         0.00000E+00         0.00000E+00
 
    0.31098E+06         0.26241E+06         0.00000E+00
    0.26241E+06        -0.30612E+06         0.00000E+00
    0.00000E+00         0.00000E+00         0.00000E+00
 
    0.27728E+06         0.25753E+06         0.00000E+00
    0.25753E+06        -0.27250E+06         0.00000E+00
    0.00000E+00         0.00000E+00         0.00000E+00
 
    0.24471E+06         0.25236E+06         0.00000E+00
    0.25236E+06        -0.24001E+06         0.00000E+00
    0.00000E+00         0.00000E+00         0.00000E+00
 
    0.21337E+06         0.24704E+06         0.00000E+00
    0.24704E+06        -0.20872E+06         0.00000E+00
    0.00000E+00         0.00000E+00         0.00000E+00
 
    0.18333E+06         0.24169E+06         0.00000E+00
    0.24169E+06        -0.17875E+06         0.00000E+00
    0.00000E+00         0.00000E+00         0.00000E+00
 
    0.15473E+06         0.23646E+06         0.00000E+00
    0.23646E+06        -0.15019E+06         0.00000E+00
    0.00000E+00         0.00000E+00         0.00000E+00
 
    0.12769E+06         0.23148E+06         0.00000E+00
    0.23148E+06        -0.12318E+06         0.00000E+00
    0.00000E+00         0.00000E+00         0.00000E+00
 
    0.10237E+06         0.22690E+06         0.00000E+00
    0.22690E+06        -0.97845E+05         0.00000E+00
    0.00000E+00         0.00000E+00         0.00000E+00
 
    0.78947E+05         0.22287E+06         0.00000E+00
    0.22287E+06        -0.74360E+05         0.00000E+00
    0.00000E+00         0.00000E+00         0.00000E+00
 
    0.57630E+05         0.21951E+06         0.00000E+00
    0.21951E+06        -0.52911E+05         0.00000E+00
    0.00000E+00         0.00000E+00         0.00000E+00
 
    0.38666E+05         0.21694E+06         0.00000E+00
    0.21694E+06        -0.33708E+05         0.00000E+00
    0.00000E+00         0.00000E+00         0.00000E+00
 
    0.22328E+05         0.21521E+06         0.00000E+00
    0.21521E+06        -0.16982E+05         0.00000E+00
    0.00000E+00         0.00000E+00         0.00000E+00
 
    0.89188E+04         0.21436E+06         0.00000E+00
    0.21436E+06        -0.29703E+04         0.00000E+00
    0.00000E+00         0.00000E+00         0.00000E+00
 
   -0.12447E+04         0.21433E+06         0.00000E+00
    0.21433E+06         0.80910E+04         0.00000E+00
    0.00000E+00         0.00000E+00         0.00000E+00
 
   -0.78466E+04         0.21499E+06         0.00000E+00
    0.21499E+06         0.15997E+05         0.00000E+00
    0.00000E+00         0.00000E+00         0.00000E+00
 
   -0.10601E+05         0.21609E+06         0.00000E+00
    0.21609E+06         0.20607E+05         0.00000E+00
    0.00000E+00         0.00000E+00         0.00000E+00
 
   -0.92869E+04         0.21731E+06         0.00000E+00
    0.21731E+06         0.21887E+05         0.00000E+00
    0.00000E+00         0.00000E+00         0.00000E+00
 
   -0.37954E+04         0.21820E+06         0.00000E+00
    0.21820E+06         0.19966E+05         0.00000E+00
    0.00000E+00         0.00000E+00         0.00000E+00
 
    0.13665E+07         0.16207E+05         0.00000E+00
    0.16207E+05        -0.13799E+07         0.00000E+00
    0.00000E+00         0.00000E+00         0.00000E+00
 
    0.13693E+07         0.45939E+05         0.00000E+00
    0.45939E+05        -0.13780E+07         0.00000E+00
    0.00000E+00         0.00000E+00         0.00000E+00
 
    0.13682E+07         0.72041E+05         0.00000E+00
    0.72041E+05        -0.13732E+07         0.00000E+00
    0.00000E+00         0.00000E+00         0.00000E+00
 
    0.13624E+07         0.94770E+05         0.00000E+00
    0.94770E+05        -0.13647E+07         0.00000E+00
    0.00000E+00         0.00000E+00         0.00000E+00
 
    0.13517E+07         0.11462E+06         0.00000E+00
    0.11462E+06        -0.13519E+07         0.00000E+00
    0.00000E+00         0.00000E+00         0.00000E+00
 
    0.13360E+07         0.13216E+06         0.00000E+00
    0.13216E+06        -0.13347E+07         0.00000E+00
    0.00000E+00         0.00000E+00         0.00000E+00
 
    0.13156E+07         0.14795E+06         0.00000E+00
    0.14795E+06        -0.13133E+07         0.00000E+00
    0.00000E+00         0.00000E+00         0.00000E+00
 
    0.12909E+07         0.16245E+06         0.00000E+00
    0.16245E+06        -0.12878E+07         0.00000E+00
    0.00000E+00         0.00000E+00         0.00000E+00
 
    0.12623E+07         0.17603E+06         0.00000E+00
    0.17603E+06        -0.12588E+07         0.00000E+00
    0.00000E+00         0.00000E+00         0.00000E+00
 
    0.12305E+07         0.18892E+06         0.00000E+00
    0.18892E+06        -0.12266E+07         0.00000E+00
    0.00000E+00         0.00000E+00         0.00000E+00
 
    0.11960E+07         0.20126E+06         0.00000E+00
    0.20126E+06        -0.11919E+07         0.00000E+00
    0.00000E+00         0.00000E+00         0.00000E+00
 
    0.11592E+07         0.21312E+06         0.00000E+00
    0.21312E+06        -0.11550E+07         0.00000E+00
    0.00000E+00         0.00000E+00         0.00000E+00
 
    0.11206E+07         0.22449E+06         0.00000E+00
    0.22449E+06        -0.11164E+07         0.00000E+00
    0.00000E+00         0.00000E+00         0.00000E+00
 
    0.10806E+07         0.23532E+06         0.00000E+00
    0.23532E+06        -0.10764E+07         0.00000E+00
    0.00000E+00         0.00000E+00         0.00000E+00
 
    0.10395E+07         0.24556E+06         0.00000E+00
    0.24556E+06        -0.10353E+07         0.00000E+00
    0.00000E+00         0.00000E+00         0.00000E+00
 
    0.99770E+06         0.25511E+06         0.00000E+00
    0.25511E+06        -0.99352E+06         0.00000E+00
    0.00000E+00         0.00000E+00         0.00000E+00
 
    0.95531E+06         0.26391E+06         0.00000E+00
    0.26391E+06        -0.95118E+06         0.00000E+00
    0.00000E+00         0.00000E+00         0.00000E+00
 
    0.91258E+06         0.27189E+06         0.00000E+00
    0.27189E+06        -0.90851E+06         0.00000E+00
    0.00000E+00         0.00000E+00         0.00000E+00
 
    0.86968E+06         0.27898E+06         0.00000E+00
    0.27898E+06        -0.86567E+06         0.00000E+00
    0.00000E+00         0.00000E+00         0.00000E+00
 
    0.82675E+06         0.28514E+06         0.00000E+00
    0.28514E+06        -0.82280E+06         0.00000E+00
    0.00000E+00         0.00000E+00         0.00000E+00
 
    0.78391E+06         0.29033E+06         0.00000E+00
    0.29033E+06        -0.78002E+06         0.00000E+00
    0.00000E+00         0.00000E+00         0.00000E+00
 
    0.74127E+06         0.29453E+06         0.00000E+00
    0.29453E+06        -0.73744E+06         0.00000E+00
    0.00000E+00         0.00000E+00         0.00000E+00
 
    0.69893E+06         0.29773E+06         0.00000E+00
    0.29773E+06        -0.69516E+06         0.00000E+00
    0.00000E+00         0.00000E+00         0.00000E+00
 
    0.65698E+06         0.29993E+06         0.00000E+00
    0.29993E+06        -0.65327E+06         0.00000E+00
    0.00000E+00         0.00000E+00         0.00000E+00
 
    0.61549E+06         0.30115E+06         0.00000E+00
    0.30115E+06        -0.61184E+06         0.00000E+00
    0.00000E+00         0.00000E+00         0.00000E+00
 
    0.57455E+06         0.30141E+06         0.00000E+00
    0.30141E+06        -0.57096E+06         0.00000E+00
    0.00000E+00         0.00000E+00         0.00000E+00
 
    0.53423E+06         0.30075E+06         0.00000E+00
    0.30075E+06        -0.53069E+06         0.00000E+00
    0.00000E+00         0.00000E+00         0.00000E+00
 
    0.49459E+06         0.29921E+06         0.00000E+00
    0.29921E+06        -0.49111E+06         0.00000E+00
    0.00000E+00         0.00000E+00         0.00000E+00
 
    0.45571E+06         0.29684E+06         0.00000E+00
    0.29684E+06        -0.45228E+06         0.00000E+00
    0.00000E+00         0.00000E+00         0.00000E+00
 
    0.41765E+06         0.29371E+06         0.00000E+00
    0.29371E+06        -0.41428E+06         0.00000E+00
    0.00000E+00         0.00000E+00         0.00000E+00
 
    0.38049E+06         0.28989E+06         0.00000E+00
    0.28989E+06        -0.37718E+06         0.00000E+00
    0.00000E+00         0.00000E+00         0.00000E+00
 
    0.34430E+06         0.28547E+06         0.00000E+00
    0.28547E+06        -0.34104E+06         0.00000E+00
    0.00000E+00         0.00000E+00         0.00000E+00
 
    0.30916E+06         0.28052E+06         0.00000E+00
    0.28052E+06        -0.30594E+06         0.00000E+00
    0.00000E+00         0.00000E+00         0.00000E+00
 
    0.27514E+06         0.27515E+06         0.00000E+00
    0.27515E+06        -0.27196E+06         0.00000E+00
    0.00000E+00         0.00000E+00         0.00000E+00
 
    0.24233E+06         0.26947E+06         0.00000E+00
    0.26947E+06        -0.23920E+06         0.00000E+00
    0.00000E+00         0.00000E+00         0.00000E+00
 
    0.21082E+06         0.26358E+06         0.00000E+00
    0.26358E+06        -0.20773E+06         0.00000E+00
    0.00000E+00         0.00000E+00         0.00000E+00
 
    0.18073E+06         0.25763E+06         0.00000E+00
    0.25763E+06        -0.17767E+06         0.00000E+00
    0.00000E+00         0.00000E+00         0.00000E+00
 
    0.15218E+06         0.25172E+06         0.00000E+00
    0.25172E+06        -0.14912E+06         0.00000E+00
    0.00000E+00         0.00000E+00         0.00000E+00
 
    0.12529E+06         0.24600E+06         0.00000E+00
    0.24600E+06        -0.12222E+06         0.00000E+00
    0.00000E+00         0.00000E+00         0.00000E+00
 
    0.10022E+06         0.24058E+06         0.00000E+00
    0.24058E+06        -0.97114E+05         0.00000E+00
    0.00000E+00         0.00000E+00         0.00000E+00
 
    0.77153E+05         0.23560E+06         0.00000E+00
    0.23560E+06        -0.73960E+05         0.00000E+00
    0.00000E+00         0.00000E+00         0.00000E+00
 
    0.56285E+05         0.23116E+06         0.00000E+00
    0.23116E+06        -0.52938E+05         0.00000E+00
    0.00000E+00         0.00000E+00         0.00000E+00
 
    0.37837E+05         0.22733E+06         0.00000E+00
    0.22733E+06        -0.34242E+05         0.00000E+00
    0.00000E+00         0.00000E+00         0.00000E+00
 
    0.22052E+05         0.22418E+06         0.00000E+00
    0.22418E+06        -0.18074E+05         0.00000E+00
    0.00000E+00         0.00000E+00         0.00000E+00
 
    0.91866E+04         0.22170E+06         0.00000E+00
    0.22170E+06        -0.46355E+04         0.00000E+00
    0.00000E+00         0.00000E+00         0.00000E+00
 
   -0.50249E+03         0.21983E+06         0.00000E+00
    0.21983E+06         0.58881E+04         0.00000E+00
    0.00000E+00         0.00000E+00         0.00000E+00
 
   -0.67721E+04         0.21844E+06         0.00000E+00
    0.21844E+06         0.13351E+05         0.00000E+00
    0.00000E+00         0.00000E+00         0.00000E+00
 
   -0.94179E+04         0.21733E+06         0.00000E+00
    0.21733E+06         0.17676E+05         0.00000E+00
    0.00000E+00         0.00000E+00         0.00000E+00
 
   -0.83042E+04         0.21623E+06         0.00000E+00
    0.21623E+06         0.18894E+05         0.00000E+00
    0.00000E+00         0.00000E+00         0.00000E+00
 
   -0.33979E+04         0.21478E+06         0.00000E+00
    0.21478E+06         0.17184E+05         0.00000E+00
    0.00000E+00         0.00000E+00         0.00000E+00
 
    0.13869E+07         0.17254E+05         0.00000E+00
    0.17254E+05        -0.13922E+07         0.00000E+00
    0.00000E+00         0.00000E+00         0.00000E+00
 
    0.13868E+07         0.49411E+05         0.00000E+00
    0.49411E+05        -0.13899E+07         0.00000E+00
    0.00000E+00         0.00000E+00         0.00000E+00
 
    0.13832E+07         0.78269E+05         0.00000E+00
    0.78269E+05        -0.13846E+07         0.00000E+00
    0.00000E+00         0.00000E+00         0.00000E+00
 
    0.13754E+07         0.10391E+06         0.00000E+00
    0.10391E+06        -0.13756E+07         0.00000E+00
    0.00000E+00         0.00000E+00         0.00000E+00
 
    0.13632E+07         0.12663E+06         0.00000E+00
    0.12663E+06        -0.13625E+07         0.00000E+00
    0.00000E+00         0.00000E+00         0.00000E+00
 
    0.13466E+07         0.14687E+06         0.00000E+00
    0.14687E+06        -0.13452E+07         0.00000E+00
    0.00000E+00         0.00000E+00         0.00000E+00
 
    0.13257E+07         0.16505E+06         0.00000E+00
    0.16505E+06        -0.13238E+07         0.00000E+00
    0.00000E+00         0.00000E+00         0.00000E+00
 
    0.13007E+07         0.18159E+06         0.00000E+00
    0.18159E+06        -0.12985E+07         0.00000E+00
    0.00000E+00         0.00000E+00         0.00000E+00
 
    0.12721E+07         0.19682E+06         0.00000E+00
    0.19682E+06        -0.12696E+07         0.00000E+00
    0.00000E+00         0.00000E+00         0.00000E+00
 
    0.12403E+07         0.21101E+06         0.00000E+00
    0.21101E+06        -0.12377E+07         0.00000E+00
    0.00000E+00         0.00000E+00         0.00000E+00
 
    0.12058E+07         0.22431E+06         0.00000E+00
    0.22431E+06        -0.12031E+07         0.00000E+00
    0.00000E+00         0.00000E+00         0.00000E+00
 
    0.11690E+07         0.23683E+06         0.00000E+00
    0.23683E+06        -0.11663E+07         0.00000E+00
    0.00000E+00         0.00000E+00         0.00000E+00
 
    0.11304E+07         0.24863E+06         0.00000E+00
    0.24863E+06        -0.11276E+07         0.00000E+00
    0.00000E+00         0.00000E+00         0.00000E+00
 
    0.10902E+07         0.25969E+06         0.00000E+00
    0.25969E+06        -0.10874E+07         0.00000E+00
    0.00000E+00         0.00000E+00         0.00000E+00
 
    0.10489E+07         0.26999E+06         0.00000E+00
    0.26999E+06        -0.10461E+07         0.00000E+00
    0.00000E+00         0.00000E+00         0.00000E+00
 
    0.10067E+07         0.27950E+06         0.00000E+00
    0.27950E+06        -0.10040E+07         0.00000E+00
    0.00000E+00         0.00000E+00         0.00000E+00
 
    0.96384E+06         0.28817E+06         0.00000E+00
    0.28817E+06        -0.96116E+06         0.00000E+00
    0.00000E+00         0.00000E+00         0.00000E+00
 
    0.92059E+06         0.29595E+06         0.00000E+00
    0.29595E+06        -0.91794E+06         0.00000E+00
    0.00000E+00         0.00000E+00         0.00000E+00
 
    0.87710E+06         0.30280E+06         0.00000E+00
    0.30280E+06        -0.87448E+06         0.00000E+00
    0.00000E+00         0.00000E+00         0.00000E+00
 
    0.83353E+06         0.30868E+06         0.00000E+00
    0.30868E+06        -0.83095E+06         0.00000E+00
    0.00000E+00         0.00000E+00         0.00000E+00
 
    0.79002E+06         0.31356E+06         0.00000E+00
    0.31356E+06        -0.78748E+06         0.00000E+00
    0.00000E+00         0.00000E+00         0.00000E+00
 
    0.74669E+06         0.31744E+06         0.00000E+00
    0.31744E+06        -0.74419E+06         0.00000E+00
    0.00000E+00         0.00000E+00         0.00000E+00
 
    0.70364E+06         0.32030E+06         0.00000E+00
    0.32030E+06        -0.70118E+06         0.00000E+00
    0.00000E+00         0.00000E+00         0.00000E+00
 
    0.66098E+06         0.32215E+06         0.00000E+00
    0.32215E+06        -0.65856E+06         0.00000E+00
    0.00000E+00         0.00000E+00         0.00000E+00
 
    0.61880E+06         0.32301E+06         0.00000E+00
    0.32301E+06        -0.61641E+06         0.00000E+00
    0.00000E+00         0.00000E+00         0.00000E+00
 
    0.57718E+06         0.32289E+06         0.00000E+00
    0.32289E+06        -0.57482E+06         0.00000E+00
    0.00000E+00         0.00000E+00         0.00000E+00
 
    0.53619E+06         0.32184E+06         0.00000E+00
    0.32184E+06        -0.53387E+06         0.00000E+00
    0.00000E+00         0.00000E+00         0.00000E+00
 
    0.49592E+06         0.31990E+06         0.00000E+00
    0.31990E+06        -0.49364E+06         0.00000E+00
    0.00000E+00         0.00000E+00         0.00000E+00
 
    0.45645E+06         0.31712E+06         0.00000E+00
    0.31712E+06        -0.45420E+06         0.00000E+00
    0.00000E+00         0.00000E+00         0.00000E+00
 
    0.41784E+06         0.31356E+06         0.00000E+00
    0.31356E+06        -0.41563E+06         0.00000E+00
    0.00000E+00         0.00000E+00         0.00000E+00
 
    0.38019E+06         0.30929E+06         0.00000E+00
    0.30929E+06        -0.37800E+06         0.00000E+00
    0.00000E+00         0.00000E+00         0.00000E+00
 
    0.34355E+06         0.30439E+06         0.00000E+00
    0.30439E+06        -0.34139E+06         0.00000E+00
    0.00000E+00         0.00000E+00         0.00000E+00
 
    0.30802E+06         0.29894E+06         0.00000E+00
    0.29894E+06        -0.30589E+06         0.00000E+00
    0.00000E+00         0.00000E+00         0.00000E+00
 
    0.27369E+06         0.29304E+06         0.00000E+00
    0.29304E+06        -0.27159E+06         0.00000E+00
    0.00000E+00         0.00000E+00         0.00000E+00
 
    0.24065E+06         0.28679E+06         0.00000E+00
    0.28679E+06        -0.23856E+06         0.00000E+00
    0.00000E+00         0.00000E+00         0.00000E+00
 
    0.20899E+06         0.28029E+06         0.00000E+00
    0.28029E+06        -0.20692E+06         0.00000E+00
    0.00000E+00         0.00000E+00         0.00000E+00
 
    0.17884E+06         0.27366E+06         0.00000E+00
    0.27366E+06        -0.17677E+06         0.00000E+00
    0.00000E+00         0.00000E+00         0.00000E+00
 
    0.15031E+06         0.26702E+06         0.00000E+00
    0.26702E+06        -0.14823E+06         0.00000E+00
    0.00000E+00         0.00000E+00         0.00000E+00
 
    0.12354E+06         0.26048E+06         0.00000E+00
    0.26048E+06        -0.12143E+06         0.00000E+00
    0.00000E+00         0.00000E+00         0.00000E+00
 
    0.98684E+05         0.25415E+06         0.00000E+00
    0.25415E+06        -0.96520E+05         0.00000E+00
    0.00000E+00         0.00000E+00         0.00000E+00
 
    0.75916E+05         0.24815E+06         0.00000E+00
    0.24815E+06        -0.73650E+05         0.00000E+00
    0.00000E+00         0.00000E+00         0.00000E+00
 
    0.55419E+05         0.24255E+06         0.00000E+00
    0.24255E+06        -0.52990E+05         0.00000E+00
    0.00000E+00         0.00000E+00         0.00000E+00
 
    0.37394E+05         0.23742E+06         0.00000E+00
    0.23742E+06        -0.34717E+05         0.00000E+00
    0.00000E+00         0.00000E+00         0.00000E+00
 
    0.22054E+05         0.23281E+06         0.00000E+00
    0.23281E+06        -0.19006E+05         0.00000E+00
    0.00000E+00         0.00000E+00         0.00000E+00
 
    0.96148E+04         0.22869E+06         0.00000E+00
    0.22869E+06        -0.60253E+04         0.00000E+00
    0.00000E+00         0.00000E+00         0.00000E+00
 
    0.28318E+03         0.22502E+06         0.00000E+00
    0.22502E+06         0.40815E+04         0.00000E+00
    0.00000E+00         0.00000E+00         0.00000E+00
 
   -0.57558E+04         0.22168E+06         0.00000E+00
    0.22168E+06         0.11216E+05         0.00000E+00
    0.00000E+00         0.00000E+00         0.00000E+00
 
   -0.83606E+04         0.21850E+06         0.00000E+00
    0.21850E+06         0.15350E+05         0.00000E+00
    0.00000E+00         0.00000E+00         0.00000E+00
 
   -0.74564E+04         0.21526E+06         0.00000E+00
    0.21526E+06         0.16558E+05         0.00000E+00
    0.00000E+00         0.00000E+00         0.00000E+00
 
   -0.30613E+04         0.21170E+06         0.00000E+00
    0.21170E+06         0.15050E+05         0.00000E+00
    0.00000E+00         0.00000E+00         0.00000E+00
 
    0.14080E+07         0.18263E+05         0.00000E+00
    0.18263E+05        -0.14059E+07         0.00000E+00
    0.00000E+00         0.00000E+00         0.00000E+00
 
    0.14054E+07         0.52683E+05         0.00000E+00
    0.52683E+05        -0.14032E+07         0.00000E+00
    0.00000E+00         0.00000E+00         0.00000E+00
 
    0.13994E+07         0.84064E+05         0.00000E+00
    0.84064E+05        -0.13972E+07         0.00000E+00
    0.00000E+00         0.00000E+00         0.00000E+00
 
    0.13897E+07         0.11236E+06         0.00000E+00
    0.11236E+06        -0.13876E+07         0.00000E+00
    0.00000E+00         0.00000E+00         0.00000E+00
 
    0.13760E+07         0.13776E+06         0.00000E+00
    0.13776E+06        -0.13739E+07         0.00000E+00
    0.00000E+00         0.00000E+00         0.00000E+00
 
    0.13583E+07         0.16053E+06         0.00000E+00
    0.16053E+06        -0.13563E+07         0.00000E+00
    0.00000E+00         0.00000E+00         0.00000E+00
 
    0.13366E+07         0.18104E+06         0.00000E+00
    0.18104E+06        -0.13346E+07         0.00000E+00
    0.00000E+00         0.00000E+00         0.00000E+00
 
    0.13112E+07         0.19962E+06         0.00000E+00
    0.19962E+06        -0.13092E+07         0.00000E+00
    0.00000E+00         0.00000E+00         0.00000E+00
 
    0.12823E+07         0.21658E+06         0.00000E+00
    0.21658E+06        -0.12804E+07         0.00000E+00
    0.00000E+00         0.00000E+00         0.00000E+00
 
    0.12503E+07         0.23217E+06         0.00000E+00
    0.23217E+06        -0.12484E+07         0.00000E+00
    0.00000E+00         0.00000E+00         0.00000E+00
 
    0.12157E+07         0.24657E+06         0.00000E+00
    0.24657E+06        -0.12138E+07         0.00000E+00
    0.00000E+00         0.00000E+00         0.00000E+00
 
    0.11788E+07         0.25992E+06         0.00000E+00
    0.25992E+06        -0.11769E+07         0.00000E+00
    0.00000E+00         0.00000E+00         0.00000E+00
 
    0.11400E+07         0.27230E+06         0.00000E+00
    0.27230E+06        -0.11382E+07         0.00000E+00
    0.00000E+00         0.00000E+00         0.00000E+00
 
    0.10996E+07         0.28374E+06         0.00000E+00
    0.28374E+06        -0.10978E+07         0.00000E+00
    0.00000E+00         0.00000E+00         0.00000E+00
 
    0.10580E+07         0.29426E+06         0.00000E+00
    0.29426E+06        -0.10562E+07         0.00000E+00
    0.00000E+00         0.00000E+00         0.00000E+00
 
    0.10155E+07         0.30385E+06         0.00000E+00
    0.30385E+06        -0.10137E+07         0.00000E+00
    0.00000E+00         0.00000E+00         0.00000E+00
 
    0.97222E+06         0.31249E+06         0.00000E+00
    0.31249E+06        -0.97048E+06         0.00000E+00
    0.00000E+00         0.00000E+00         0.00000E+00
 
    0.92848E+06         0.32016E+06         0.00000E+00
    0.32016E+06        -0.92677E+06         0.00000E+00
    0.00000E+00         0.00000E+00         0.00000E+00
 
    0.88445E+06         0.32684E+06         0.00000E+00
    0.32684E+06        -0.88276E+06         0.00000E+00
    0.00000E+00         0.00000E+00         0.00000E+00
 
    0.84030E+06         0.33249E+06         0.00000E+00
    0.33249E+06        -0.83863E+06         0.00000E+00
    0.00000E+00         0.00000E+00         0.00000E+00
 
    0.79618E+06         0.33711E+06         0.00000E+00
    0.33711E+06        -0.79453E+06         0.00000E+00
    0.00000E+00         0.00000E+00         0.00000E+00
 
    0.75221E+06         0.34070E+06         0.00000E+00
    0.34070E+06        -0.75058E+06         0.00000E+00
    0.00000E+00         0.00000E+00         0.00000E+00
 
    0.70851E+06         0.34324E+06         0.00000E+00
    0.34324E+06        -0.70691E+06         0.00000E+00
    0.00000E+00         0.00000E+00         0.00000E+00
 
    0.66520E+06         0.34475E+06         0.00000E+00
    0.34475E+06        -0.66362E+06         0.00000E+00
    0.00000E+00         0.00000E+00         0.00000E+00
 
    0.62237E+06         0.34525E+06         0.00000E+00
    0.34525E+06        -0.62081E+06         0.00000E+00
    0.00000E+00         0.00000E+00         0.00000E+00
 
    0.58010E+06         0.34476E+06         0.00000E+00
    0.34476E+06        -0.57856E+06         0.00000E+00
    0.00000E+00         0.00000E+00         0.00000E+00
 
    0.53850E+06         0.34332E+06         0.00000E+00
    0.34332E+06        -0.53698E+06         0.00000E+00
    0.00000E+00         0.00000E+00         0.00000E+00
 
    0.49764E+06         0.34097E+06         0.00000E+00
    0.34097E+06        -0.49614E+06         0.00000E+00
    0.00000E+00         0.00000E+00         0.00000E+00
 
    0.45760E+06         0.33776E+06         0.00000E+00
    0.33776E+06        -0.45612E+06         0.00000E+00
    0.00000E+00         0.00000E+00         0.00000E+00
 
    0.41848E+06         0.33374E+06         0.00000E+00
    0.33374E+06        -0.41701E+06         0.00000E+00
    0.00000E+00         0.00000E+00         0.00000E+00
 
    0.38034E+06         0.32900E+06         0.00000E+00
    0.32900E+06        -0.37890E+06         0.00000E+00
    0.00000E+00         0.00000E+00         0.00000E+00
 
    0.34328E+06         0.32359E+06         0.00000E+00
    0.32359E+06        -0.34185E+06         0.00000E+00
    0.00000E+00         0.00000E+00         0.00000E+00
 
    0.30739E+06         0.31761E+06         0.00000E+00
    0.31761E+06        -0.30598E+06         0.00000E+00
    0.00000E+00         0.00000E+00         0.00000E+00
 
    0.27276E+06         0.31114E+06         0.00000E+00
    0.31114E+06        -0.27135E+06         0.00000E+00
    0.00000E+00         0.00000E+00         0.00000E+00
 
    0.23948E+06         0.30427E+06         0.00000E+00
    0.30427E+06        -0.23808E+06         0.00000E+00
    0.00000E+00         0.00000E+00         0.00000E+00
 
    0.20767E+06         0.29711E+06         0.00000E+00
    0.29711E+06        -0.20627E+06         0.00000E+00
    0.00000E+00         0.00000E+00         0.00000E+00
 
    0.17744E+06         0.28976E+06         0.00000E+00
    0.28976E+06        -0.17603E+06         0.00000E+00
    0.00000E+00         0.00000E+00         0.00000E+00
 
    0.14892E+06         0.28232E+06         0.00000E+00
    0.28232E+06        -0.14749E+06         0.00000E+00
    0.00000E+00         0.00000E+00         0.00000E+00
 
    0.12224E+06         0.27490E+06         0.00000E+00
    0.27490E+06        -0.12077E+06         0.00000E+00
    0.00000E+00         0.00000E+00         0.00000E+00
 
    0.97558E+05         0.26759E+06         0.00000E+00
    0.26759E+06        -0.96013E+05         0.00000E+00
    0.00000E+00         0.00000E+00         0.00000E+00
 
    0.75031E+05         0.26050E+06         0.00000E+00
    0.26050E+06        -0.73376E+05         0.00000E+00
    0.00000E+00         0.00000E+00         0.00000E+00
 
    0.54834E+05         0.25370E+06         0.00000E+00
    0.25370E+06        -0.53013E+05         0.00000E+00
    0.00000E+00         0.00000E+00         0.00000E+00
 
    0.37149E+05         0.24723E+06         0.00000E+00
    0.24723E+06        -0.35082E+05         0.00000E+00
    0.00000E+00         0.00000E+00         0.00000E+00
 
    0.22162E+05         0.24113E+06         0.00000E+00
    0.24113E+06        -0.19736E+05         0.00000E+00
    0.00000E+00         0.00000E+00         0.00000E+00
 
    0.10053E+05         0.23539E+06         0.00000E+00
    0.23539E+06        -0.71142E+04         0.00000E+00
    0.00000E+00         0.00000E+00         0.00000E+00
 
    0.99094E+03         0.22995E+06         0.00000E+00
    0.22995E+06         0.26750E+04         0.00000E+00
    0.00000E+00         0.00000E+00         0.00000E+00
 
   -0.48863E+04         0.22474E+06         0.00000E+00
    0.22474E+06         0.95699E+04         0.00000E+00
    0.00000E+00         0.00000E+00         0.00000E+00
 
   -0.74834E+04         0.21961E+06         0.00000E+00
    0.21961E+06         0.13579E+05         0.00000E+00
    0.00000E+00         0.00000E+00         0.00000E+00
 
   -0.67684E+04         0.21440E+06         0.00000E+00
    0.21440E+06         0.14804E+05         0.00000E+00
    0.00000E+00         0.00000E+00         0.00000E+00
 
   -0.27917E+04         0.20890E+06         0.00000E+00
    0.20890E+06         0.13472E+05         0.00000E+00
    0.00000E+00         0.00000E+00         0.00000E+00
 
    0.14299E+07         0.19251E+05         0.00000E+00
    0.19251E+05        -0.14209E+07         0.00000E+00
    0.00000E+00         0.00000E+00         0.00000E+00
 
    0.14249E+07         0.55822E+05         0.00000E+00
    0.55822E+05        -0.14178E+07         0.00000E+00
    0.00000E+00         0.00000E+00         0.00000E+00
 
    0.14168E+07         0.89549E+05         0.00000E+00
    0.89549E+05        -0.14111E+07         0.00000E+00
    0.00000E+00         0.00000E+00         0.00000E+00
 
    0.14052E+07         0.12031E+06         0.00000E+00
    0.12031E+06        -0.14007E+07         0.00000E+00
    0.00000E+00         0.00000E+00         0.00000E+00
 
    0.13900E+07         0.14819E+06         0.00000E+00
    0.14819E+06        -0.13864E+07         0.00000E+00
    0.00000E+00         0.00000E+00         0.00000E+00
 
    0.13710E+07         0.17336E+06         0.00000E+00
    0.17336E+06        -0.13681E+07         0.00000E+00
    0.00000E+00         0.00000E+00         0.00000E+00
 
    0.13484E+07         0.19610E+06         0.00000E+00
    0.19610E+06        -0.13460E+07         0.00000E+00
    0.00000E+00         0.00000E+00         0.00000E+00
 
    0.13222E+07         0.21669E+06         0.00000E+00
    0.21669E+06        -0.13203E+07         0.00000E+00
    0.00000E+00         0.00000E+00         0.00000E+00
 
    0.12929E+07         0.23539E+06         0.00000E+00
    0.23539E+06        -0.12912E+07         0.00000E+00
    0.00000E+00         0.00000E+00         0.00000E+00
 
    0.12606E+07         0.25245E+06         0.00000E+00
    0.25245E+06        -0.12591E+07         0.00000E+00
    0.00000E+00         0.00000E+00         0.00000E+00
 
    0.12257E+07         0.26805E+06         0.00000E+00
    0.26805E+06        -0.12243E+07         0.00000E+00
    0.00000E+00         0.00000E+00         0.00000E+00
 
    0.11885E+07         0.28234E+06         0.00000E+00
    0.28234E+06        -0.11872E+07         0.00000E+00
    0.00000E+00         0.00000E+00         0.00000E+00
 
    0.11495E+07         0.29542E+06         0.00000E+00
    0.29542E+06        -0.11483E+07         0.00000E+00
    0.00000E+00         0.00000E+00         0.00000E+00
 
    0.11089E+07         0.30738E+06         0.00000E+00
    0.30738E+06        -0.11077E+07         0.00000E+00
    0.00000E+00         0.00000E+00         0.00000E+00
 
    0.10670E+07         0.31823E+06         0.00000E+00
    0.31823E+06        -0.10658E+07         0.00000E+00
    0.00000E+00         0.00000E+00         0.00000E+00
 
    0.10241E+07         0.32802E+06         0.00000E+00
    0.32802E+06        -0.10229E+07         0.00000E+00
    0.00000E+00         0.00000E+00         0.00000E+00
 
    0.98040E+06         0.33673E+06         0.00000E+00
    0.33673E+06        -0.97927E+06         0.00000E+00
    0.00000E+00         0.00000E+00         0.00000E+00
 
    0.93620E+06         0.34438E+06         0.00000E+00
    0.34438E+06        -0.93510E+06         0.00000E+00
    0.00000E+00         0.00000E+00         0.00000E+00
 
    0.89167E+06         0.35095E+06         0.00000E+00
    0.35095E+06        -0.89058E+06         0.00000E+00
    0.00000E+00         0.00000E+00         0.00000E+00
 
    0.84698E+06         0.35644E+06         0.00000E+00
    0.35644E+06        -0.84591E+06         0.00000E+00
    0.00000E+00         0.00000E+00         0.00000E+00
 
    0.80229E+06         0.36084E+06         0.00000E+00
    0.36084E+06        -0.80122E+06         0.00000E+00
    0.00000E+00         0.00000E+00         0.00000E+00
 
    0.75773E+06         0.36417E+06         0.00000E+00
    0.36417E+06        -0.75668E+06         0.00000E+00
    0.00000E+00         0.00000E+00         0.00000E+00
 
    0.71343E+06         0.36642E+06         0.00000E+00
    0.36642E+06        -0.71239E+06         0.00000E+00
    0.00000E+00         0.00000E+00         0.00000E+00
 
    0.66951E+06         0.36761E+06         0.00000E+00
    0.36761E+06        -0.66848E+06         0.00000E+00
    0.00000E+00         0.00000E+00         0.00000E+00
 
    0.62606E+06         0.36776E+06         0.00000E+00
    0.36776E+06        -0.62505E+06         0.00000E+00
    0.00000E+00         0.00000E+00         0.00000E+00
 
    0.58320E+06         0.36690E+06         0.00000E+00
    0.36690E+06        -0.58220E+06         0.00000E+00
    0.00000E+00         0.00000E+00         0.00000E+00
 
    0.54102E+06         0.36507E+06         0.00000E+00
    0.36507E+06        -0.54002E+06         0.00000E+00
    0.00000E+00         0.00000E+00         0.00000E+00
 
    0.49960E+06         0.36230E+06         0.00000E+00
    0.36230E+06        -0.49861E+06         0.00000E+00
    0.00000E+00         0.00000E+00         0.00000E+00
 
    0.45904E+06         0.35865E+06         0.00000E+00
    0.35865E+06        -0.45806E+06         0.00000E+00
    0.00000E+00         0.00000E+00         0.00000E+00
 
    0.41942E+06         0.35418E+06         0.00000E+00
    0.35418E+06        -0.41845E+06         0.00000E+00
    0.00000E+00         0.00000E+00         0.00000E+00
 
    0.38083E+06         0.34894E+06         0.00000E+00
    0.34894E+06        -0.37987E+06         0.00000E+00
    0.00000E+00         0.00000E+00         0.00000E+00
 
    0.34337E+06         0.34300E+06         0.00000E+00
    0.34300E+06        -0.34242E+06         0.00000E+00
    0.00000E+00         0.00000E+00         0.00000E+00
 
    0.30713E+06         0.33646E+06         0.00000E+00
    0.33646E+06        -0.30618E+06         0.00000E+00
    0.00000E+00         0.00000E+00         0.00000E+00
 
    0.27220E+06         0.32938E+06         0.00000E+00
    0.32938E+06        -0.27125E+06         0.00000E+00
    0.00000E+00         0.00000E+00         0.00000E+00
 
    0.23870E+06         0.32186E+06         0.00000E+00
    0.32186E+06        -0.23775E+06         0.00000E+00
    0.00000E+00         0.00000E+00         0.00000E+00
 
    0.20673E+06         0.31399E+06         0.00000E+00
    0.31399E+06        -0.20577E+06         0.00000E+00
    0.00000E+00         0.00000E+00         0.00000E+00
 
    0.17641E+06         0.30586E+06         0.00000E+00
    0.30586E+06        -0.17543E+06         0.00000E+00
    0.00000E+00         0.00000E+00         0.00000E+00
 
    0.14787E+06         0.29757E+06         0.00000E+00
    0.29757E+06        -0.14686E+06         0.00000E+00
    0.00000E+00         0.00000E+00         0.00000E+00
 
    0.12125E+06         0.28922E+06         0.00000E+00
    0.28922E+06        -0.12019E+06         0.00000E+00
    0.00000E+00         0.00000E+00         0.00000E+00
 
    0.96695E+05         0.28089E+06         0.00000E+00
    0.28089E+06        -0.95553E+05         0.00000E+00
    0.00000E+00         0.00000E+00         0.00000E+00
 
    0.74354E+05         0.27266E+06         0.00000E+00
    0.27266E+06        -0.73097E+05         0.00000E+00
    0.00000E+00         0.00000E+00         0.00000E+00
 
    0.54392E+05         0.26461E+06         0.00000E+00
    0.26461E+06        -0.52966E+05         0.00000E+00
    0.00000E+00         0.00000E+00         0.00000E+00
 
    0.36973E+05         0.25678E+06         0.00000E+00
    0.25678E+06        -0.35303E+05         0.00000E+00
    0.00000E+00         0.00000E+00         0.00000E+00
 
    0.22259E+05         0.24918E+06         0.00000E+00
    0.24918E+06        -0.20240E+05         0.00000E+00
    0.00000E+00         0.00000E+00         0.00000E+00
 
    0.10405E+05         0.24183E+06         0.00000E+00
    0.24183E+06        -0.78925E+04         0.00000E+00
    0.00000E+00         0.00000E+00         0.00000E+00
 
    0.15458E+04         0.23468E+06         0.00000E+00
    0.23468E+06         0.16595E+04         0.00000E+00
    0.00000E+00         0.00000E+00         0.00000E+00
 
   -0.42144E+04         0.22766E+06         0.00000E+00
    0.22766E+06         0.83825E+04         0.00000E+00
    0.00000E+00         0.00000E+00         0.00000E+00
 
   -0.68139E+04         0.22068E+06         0.00000E+00
    0.22068E+06         0.12310E+05         0.00000E+00
    0.00000E+00         0.00000E+00         0.00000E+00
 
   -0.62495E+04         0.21361E+06         0.00000E+00
    0.21361E+06         0.13563E+05         0.00000E+00
    0.00000E+00         0.00000E+00         0.00000E+00
 
   -0.25899E+04         0.20632E+06         0.00000E+00
    0.20632E+06         0.12373E+05         0.00000E+00
    0.00000E+00         0.00000E+00         0.00000E+00
 
    0.14526E+07         0.20227E+05         0.00000E+00
    0.20227E+05        -0.14371E+07         0.00000E+00
    0.00000E+00         0.00000E+00         0.00000E+00
 
    0.14455E+07         0.58870E+05         0.00000E+00
    0.58870E+05        -0.14335E+07         0.00000E+00
    0.00000E+00         0.00000E+00         0.00000E+00
 
    0.14353E+07         0.94812E+05         0.00000E+00
    0.94812E+05        -0.14262E+07         0.00000E+00
    0.00000E+00         0.00000E+00         0.00000E+00
 
    0.14219E+07         0.12788E+06         0.00000E+00
    0.12788E+06        -0.14150E+07         0.00000E+00
    0.00000E+00         0.00000E+00         0.00000E+00
 
    0.14050E+07         0.15808E+06         0.00000E+00
    0.15808E+06        -0.13999E+07         0.00000E+00
    0.00000E+00         0.00000E+00         0.00000E+00
 
    0.13847E+07         0.18552E+06         0.00000E+00
    0.18552E+06        -0.13809E+07         0.00000E+00
    0.00000E+00         0.00000E+00         0.00000E+00
 
    0.13610E+07         0.21039E+06         0.00000E+00
    0.21039E+06        -0.13581E+07         0.00000E+00
    0.00000E+00         0.00000E+00         0.00000E+00
 
    0.13340E+07         0.23293E+06         0.00000E+00
    0.23293E+06        -0.13318E+07         0.00000E+00
    0.00000E+00         0.00000E+00         0.00000E+00
 
    0.13040E+07         0.25337E+06         0.00000E+00
    0.25337E+06        -0.13023E+07         0.00000E+00
    0.00000E+00         0.00000E+00         0.00000E+00
 
    0.12712E+07         0.27192E+06         0.00000E+00
    0.27192E+06        -0.12698E+07         0.00000E+00
    0.00000E+00         0.00000E+00         0.00000E+00
 
    0.12359E+07         0.28877E+06         0.00000E+00
    0.28877E+06        -0.12347E+07         0.00000E+00
    0.00000E+00         0.00000E+00         0.00000E+00
 
    0.11984E+07         0.30408E+06         0.00000E+00
    0.30408E+06        -0.11974E+07         0.00000E+00
    0.00000E+00         0.00000E+00         0.00000E+00
 
    0.11590E+07         0.31797E+06         0.00000E+00
    0.31797E+06        -0.11581E+07         0.00000E+00
    0.00000E+00         0.00000E+00         0.00000E+00
 
    0.11180E+07         0.33053E+06         0.00000E+00
    0.33053E+06        -0.11172E+07         0.00000E+00
    0.00000E+00         0.00000E+00         0.00000E+00
 
    0.10758E+07         0.34182E+06         0.00000E+00
    0.34182E+06        -0.10750E+07         0.00000E+00
    0.00000E+00         0.00000E+00         0.00000E+00
 
    0.10325E+07         0.35189E+06         0.00000E+00
    0.35189E+06        -0.10317E+07         0.00000E+00
    0.00000E+00         0.00000E+00         0.00000E+00
 
    0.98839E+06         0.36076E+06         0.00000E+00
    0.36076E+06        -0.98767E+06         0.00000E+00
    0.00000E+00         0.00000E+00         0.00000E+00
 
    0.94375E+06         0.36846E+06         0.00000E+00
    0.36846E+06        -0.94304E+06         0.00000E+00
    0.00000E+00         0.00000E+00         0.00000E+00
 
    0.89874E+06         0.37500E+06         0.00000E+00
    0.37500E+06        -0.89804E+06         0.00000E+00
    0.00000E+00         0.00000E+00         0.00000E+00
 
    0.85354E+06         0.38038E+06         0.00000E+00
    0.38038E+06        -0.85284E+06         0.00000E+00
    0.00000E+00         0.00000E+00         0.00000E+00
 
    0.80831E+06         0.38462E+06         0.00000E+00
    0.38462E+06        -0.80762E+06         0.00000E+00
    0.00000E+00         0.00000E+00         0.00000E+00
 
    0.76320E+06         0.38773E+06         0.00000E+00
    0.38773E+06        -0.76251E+06         0.00000E+00
    0.00000E+00         0.00000E+00         0.00000E+00
 
    0.71833E+06         0.38972E+06         0.00000E+00
    0.38972E+06        -0.71766E+06         0.00000E+00
    0.00000E+00         0.00000E+00         0.00000E+00
 
    0.67384E+06         0.39062E+06         0.00000E+00
    0.39062E+06        -0.67317E+06         0.00000E+00
    0.00000E+00         0.00000E+00         0.00000E+00
 
    0.62983E+06         0.39044E+06         0.00000E+00
    0.39044E+06        -0.62917E+06         0.00000E+00
    0.00000E+00         0.00000E+00         0.00000E+00
 
    0.58641E+06         0.38922E+06         0.00000E+00
    0.38922E+06        -0.58575E+06         0.00000E+00
    0.00000E+00         0.00000E+00         0.00000E+00
 
    0.54368E+06         0.38700E+06         0.00000E+00
    0.38700E+06        -0.54303E+06         0.00000E+00
    0.00000E+00         0.00000E+00         0.00000E+00
 
    0.50174E+06         0.38382E+06         0.00000E+00
    0.38382E+06        -0.50109E+06         0.00000E+00
    0.00000E+00         0.00000E+00         0.00000E+00
 
    0.46068E+06         0.37972E+06         0.00000E+00
    0.37972E+06        -0.46003E+06         0.00000E+00
    0.00000E+00         0.00000E+00         0.00000E+00
 
    0.42059E+06         0.37477E+06         0.00000E+00
    0.37477E+06        -0.41995E+06         0.00000E+00
    0.00000E+00         0.00000E+00         0.00000E+00
 
    0.38158E+06         0.36902E+06         0.00000E+00
    0.36902E+06        -0.38093E+06         0.00000E+00
    0.00000E+00         0.00000E+00         0.00000E+00
 
    0.34373E+06         0.36255E+06         0.00000E+00
    0.36255E+06        -0.34308E+06         0.00000E+00
    0.00000E+00         0.00000E+00         0.00000E+00
 
    0.30715E+06         0.35541E+06         0.00000E+00
    0.35541E+06        -0.30650E+06         0.00000E+00
    0.00000E+00         0.00000E+00         0.00000E+00
 
    0.27194E+06         0.34770E+06         0.00000E+00
    0.34770E+06        -0.27129E+06         0.00000E+00
    0.00000E+00         0.00000E+00         0.00000E+00
 
    0.23821E+06         0.33949E+06         0.00000E+00
    0.33949E+06        -0.23755E+06         0.00000E+00
    0.00000E+00         0.00000E+00         0.00000E+00
 
    0.20607E+06         0.33087E+06         0.00000E+00
    0.33087E+06        -0.20539E+06         0.00000E+00
    0.00000E+00         0.00000E+00         0.00000E+00
 
    0.17565E+06         0.32193E+06         0.00000E+00
    0.32193E+06        -0.17494E+06         0.00000E+00
    0.00000E+00         0.00000E+00         0.00000E+00
 
    0.14707E+06         0.31275E+06         0.00000E+00
    0.31275E+06        -0.14633E+06         0.00000E+00
    0.00000E+00         0.00000E+00         0.00000E+00
 
    0.12047E+06         0.30343E+06         0.00000E+00
    0.30343E+06        -0.11967E+06         0.00000E+00
    0.00000E+00         0.00000E+00         0.00000E+00
 
    0.95997E+05         0.29403E+06         0.00000E+00
    0.29403E+06        -0.95113E+05         0.00000E+00
    0.00000E+00         0.00000E+00         0.00000E+00
 
    0.73788E+05         0.28464E+06         0.00000E+00
    0.28464E+06        -0.72785E+05         0.00000E+00
    0.00000E+00         0.00000E+00         0.00000E+00
 
    0.53999E+05         0.27531E+06         0.00000E+00
    0.27531E+06        -0.52824E+05         0.00000E+00
    0.00000E+00         0.00000E+00         0.00000E+00
 
    0.36780E+05         0.26609E+06         0.00000E+00
    0.26609E+06        -0.35360E+05         0.00000E+00
    0.00000E+00         0.00000E+00         0.00000E+00
 
    0.22273E+05         0.25700E+06         0.00000E+00
    0.25700E+06        -0.20509E+05         0.00000E+00
    0.00000E+00         0.00000E+00         0.00000E+00
 
    0.10612E+05         0.24805E+06         0.00000E+00
    0.24805E+06        -0.83631E+04         0.00000E+00
    0.00000E+00         0.00000E+00         0.00000E+00
 
    0.19060E+04         0.23922E+06         0.00000E+00
    0.23922E+06         0.10167E+04         0.00000E+00
    0.00000E+00         0.00000E+00         0.00000E+00
 
   -0.37645E+04         0.23046E+06         0.00000E+00
    0.23046E+06         0.76184E+04         0.00000E+00
    0.00000E+00         0.00000E+00         0.00000E+00
 
   -0.63612E+04         0.22170E+06         0.00000E+00
    0.22170E+06         0.11493E+05         0.00000E+00
    0.00000E+00         0.00000E+00         0.00000E+00
 
   -0.58985E+04         0.21288E+06         0.00000E+00
    0.21288E+06         0.12771E+05         0.00000E+00
    0.00000E+00         0.00000E+00         0.00000E+00
 
   -0.24539E+04         0.20390E+06         0.00000E+00
    0.20390E+06         0.11682E+05         0.00000E+00
    0.00000E+00         0.00000E+00         0.00000E+00
 
    0.14761E+07         0.21196E+05         0.00000E+00
    0.21196E+05        -0.14545E+07         0.00000E+00
    0.00000E+00         0.00000E+00         0.00000E+00
 
    0.14670E+07         0.61855E+05         0.00000E+00
    0.61855E+05        -0.14505E+07         0.00000E+00
    0.00000E+00         0.00000E+00         0.00000E+00
 
    0.14548E+07         0.99912E+05         0.00000E+00
    0.99912E+05        -0.14424E+07         0.00000E+00
    0.00000E+00         0.00000E+00         0.00000E+00
 
    0.14396E+07         0.13516E+06         0.00000E+00
    0.13516E+06        -0.14304E+07         0.00000E+00
    0.00000E+00         0.00000E+00         0.00000E+00
 
    0.14211E+07         0.16754E+06         0.00000E+00
    0.16754E+06        -0.14143E+07         0.00000E+00
    0.00000E+00         0.00000E+00         0.00000E+00
 
    0.13994E+07         0.19712E+06         0.00000E+00
    0.19712E+06        -0.13944E+07         0.00000E+00
    0.00000E+00         0.00000E+00         0.00000E+00
 
    0.13745E+07         0.22403E+06         0.00000E+00
    0.22403E+06        -0.13709E+07         0.00000E+00
    0.00000E+00         0.00000E+00         0.00000E+00
 
    0.13465E+07         0.24846E+06         0.00000E+00
    0.24846E+06        -0.13439E+07         0.00000E+00
    0.00000E+00         0.00000E+00         0.00000E+00
 
    0.13157E+07         0.27059E+06         0.00000E+00
    0.27059E+06        -0.13138E+07         0.00000E+00
    0.00000E+00         0.00000E+00         0.00000E+00
 
    0.12822E+07         0.29064E+06         0.00000E+00
    0.29064E+06        -0.12808E+07         0.00000E+00
    0.00000E+00         0.00000E+00         0.00000E+00
 
    0.12463E+07         0.30877E+06         0.00000E+00
    0.30877E+06        -0.12453E+07         0.00000E+00
    0.00000E+00         0.00000E+00         0.00000E+00
 
    0.12083E+07         0.32515E+06         0.00000E+00
    0.32515E+06        -0.12075E+07         0.00000E+00
    0.00000E+00         0.00000E+00         0.00000E+00
 
    0.11685E+07         0.33990E+06         0.00000E+00
    0.33990E+06        -0.11678E+07         0.00000E+00
    0.00000E+00         0.00000E+00         0.00000E+00
 
    0.11271E+07         0.35314E+06         0.00000E+00
    0.35314E+06        -0.11265E+07         0.00000E+00
    0.00000E+00         0.00000E+00         0.00000E+00
 
    0.10845E+07         0.36495E+06         0.00000E+00
    0.36495E+06        -0.10839E+07         0.00000E+00
    0.00000E+00         0.00000E+00         0.00000E+00
 
    0.10408E+07         0.37538E+06         0.00000E+00
    0.37538E+06        -0.10403E+07         0.00000E+00
    0.00000E+00         0.00000E+00         0.00000E+00
 
    0.99626E+06         0.38449E+06         0.00000E+00
    0.38449E+06        -0.99578E+06         0.00000E+00
    0.00000E+00         0.00000E+00         0.00000E+00
 
    0.95116E+06         0.39231E+06         0.00000E+00
    0.39231E+06        -0.95070E+06         0.00000E+00
    0.00000E+00         0.00000E+00         0.00000E+00
 
    0.90567E+06         0.39888E+06         0.00000E+00
    0.39888E+06        -0.90522E+06         0.00000E+00
    0.00000E+00         0.00000E+00         0.00000E+00
 
    0.85998E+06         0.40421E+06         0.00000E+00
    0.40421E+06        -0.85953E+06         0.00000E+00
    0.00000E+00         0.00000E+00         0.00000E+00
 
    0.81424E+06         0.40833E+06         0.00000E+00
    0.40833E+06        -0.81380E+06         0.00000E+00
    0.00000E+00         0.00000E+00         0.00000E+00
 
    0.76860E+06         0.41126E+06         0.00000E+00
    0.41126E+06        -0.76816E+06         0.00000E+00
    0.00000E+00         0.00000E+00         0.00000E+00
 
    0.72321E+06         0.41303E+06         0.00000E+00
    0.41303E+06        -0.72277E+06         0.00000E+00
    0.00000E+00         0.00000E+00         0.00000E+00
 
    0.67818E+06         0.41366E+06         0.00000E+00
    0.41366E+06        -0.67775E+06         0.00000E+00
    0.00000E+00         0.00000E+00         0.00000E+00
 
    0.63364E+06         0.41317E+06         0.00000E+00
    0.41317E+06        -0.63321E+06         0.00000E+00
    0.00000E+00         0.00000E+00         0.00000E+00
 
    0.58970E+06         0.41161E+06         0.00000E+00
    0.41161E+06        -0.58926E+06         0.00000E+00
    0.00000E+00         0.00000E+00         0.00000E+00
 
    0.54646E+06         0.40901E+06         0.00000E+00
    0.40901E+06        -0.54602E+06         0.00000E+00
    0.00000E+00         0.00000E+00         0.00000E+00
 
    0.50402E+06         0.40542E+06         0.00000E+00
    0.40542E+06        -0.50358E+06         0.00000E+00
    0.00000E+00         0.00000E+00         0.00000E+00
 
    0.46249E+06         0.40088E+06         0.00000E+00
    0.40088E+06        -0.46205E+06         0.00000E+00
    0.00000E+00         0.00000E+00         0.00000E+00
 
    0.42196E+06         0.39545E+06         0.00000E+00
    0.39545E+06        -0.42152E+06         0.00000E+00
    0.00000E+00         0.00000E+00         0.00000E+00
 
    0.38254E+06         0.38919E+06         0.00000E+00
    0.38919E+06        -0.38210E+06         0.00000E+00
    0.00000E+00         0.00000E+00         0.00000E+00
 
    0.34432E+06         0.38215E+06         0.00000E+00
    0.38215E+06        -0.34387E+06         0.00000E+00
    0.00000E+00         0.00000E+00         0.00000E+00
 
    0.30741E+06         0.37441E+06         0.00000E+00
    0.37441E+06        -0.30696E+06         0.00000E+00
    0.00000E+00         0.00000E+00         0.00000E+00
 
    0.27192E+06         0.36605E+06         0.00000E+00
    0.36605E+06        -0.27145E+06         0.00000E+00
    0.00000E+00         0.00000E+00         0.00000E+00
 
    0.23796E+06         0.35712E+06         0.00000E+00
    0.35712E+06        -0.23748E+06         0.00000E+00
    0.00000E+00         0.00000E+00         0.00000E+00
 
    0.20564E+06         0.34773E+06         0.00000E+00
    0.34773E+06        -0.20514E+06         0.00000E+00
    0.00000E+00         0.00000E+00         0.00000E+00
 
    0.17510E+06         0.33794E+06         0.00000E+00
    0.33794E+06        -0.17457E+06         0.00000E+00
    0.00000E+00         0.00000E+00         0.00000E+00
 
    0.14645E+06         0.32784E+06         0.00000E+00
    0.32784E+06        -0.14588E+06         0.00000E+00
    0.00000E+00         0.00000E+00         0.00000E+00
 
    0.11984E+06         0.31751E+06         0.00000E+00
    0.31751E+06        -0.11920E+06         0.00000E+00
    0.00000E+00         0.00000E+00         0.00000E+00
 
    0.95398E+05         0.30701E+06         0.00000E+00
    0.30701E+06        -0.94675E+05         0.00000E+00
    0.00000E+00         0.00000E+00         0.00000E+00
 
    0.73271E+05         0.29642E+06         0.00000E+00
    0.29642E+06        -0.72424E+05         0.00000E+00
    0.00000E+00         0.00000E+00         0.00000E+00
 
    0.53598E+05         0.28580E+06         0.00000E+00
    0.28580E+06        -0.52575E+05         0.00000E+00
    0.00000E+00         0.00000E+00         0.00000E+00
 
    0.36519E+05         0.27518E+06         0.00000E+00
    0.27518E+06        -0.35248E+05         0.00000E+00
    0.00000E+00         0.00000E+00         0.00000E+00
 
    0.22163E+05         0.26460E+06         0.00000E+00
    0.26460E+06        -0.20543E+05         0.00000E+00
    0.00000E+00         0.00000E+00         0.00000E+00
 
    0.10643E+05         0.25407E+06         0.00000E+00
    0.25407E+06        -0.85393E+04         0.00000E+00
    0.00000E+00         0.00000E+00         0.00000E+00
 
    0.20541E+04         0.24359E+06         0.00000E+00
    0.24359E+06         0.72090E+03         0.00000E+00
    0.00000E+00         0.00000E+00         0.00000E+00
 
   -0.35421E+04         0.23314E+06         0.00000E+00
    0.23314E+06         0.72395E+04         0.00000E+00
    0.00000E+00         0.00000E+00         0.00000E+00
 
   -0.61214E+04         0.22267E+06         0.00000E+00
    0.22267E+06         0.11078E+05         0.00000E+00
    0.00000E+00         0.00000E+00         0.00000E+00
 
   -0.57076E+04         0.21216E+06         0.00000E+00
    0.21216E+06         0.12372E+05         0.00000E+00
    0.00000E+00         0.00000E+00         0.00000E+00
 
   -0.23793E+04         0.20156E+06         0.00000E+00
    0.20156E+06         0.11344E+05         0.00000E+00
    0.00000E+00         0.00000E+00         0.00000E+00
 
    0.15005E+07         0.22160E+05         0.00000E+00
    0.22160E+05        -0.14729E+07         0.00000E+00
    0.00000E+00         0.00000E+00         0.00000E+00
 
    0.14894E+07         0.64796E+05         0.00000E+00
    0.64796E+05        -0.14685E+07         0.00000E+00
    0.00000E+00         0.00000E+00         0.00000E+00
 
    0.14753E+07         0.10489E+06         0.00000E+00
    0.10489E+06        -0.14597E+07         0.00000E+00
    0.00000E+00         0.00000E+00         0.00000E+00
 
    0.14583E+07         0.14221E+06         0.00000E+00
    0.14221E+06        -0.14468E+07         0.00000E+00
    0.00000E+00         0.00000E+00         0.00000E+00
 
    0.14381E+07         0.17667E+06         0.00000E+00
    0.17667E+06        -0.14298E+07         0.00000E+00
    0.00000E+00         0.00000E+00         0.00000E+00
 
    0.14149E+07         0.20828E+06         0.00000E+00
    0.20828E+06        -0.14089E+07         0.00000E+00
    0.00000E+00         0.00000E+00         0.00000E+00
 
    0.13888E+07         0.23713E+06         0.00000E+00
    0.23713E+06        -0.13845E+07         0.00000E+00
    0.00000E+00         0.00000E+00         0.00000E+00
 
    0.13597E+07         0.26336E+06         0.00000E+00
    0.26336E+06        -0.13567E+07         0.00000E+00
    0.00000E+00         0.00000E+00         0.00000E+00
 
    0.13280E+07         0.28715E+06         0.00000E+00
    0.28715E+06        -0.13258E+07         0.00000E+00
    0.00000E+00         0.00000E+00         0.00000E+00
 
    0.12937E+07         0.30867E+06         0.00000E+00
    0.30867E+06        -0.12922E+07         0.00000E+00
    0.00000E+00         0.00000E+00         0.00000E+00
 
    0.12571E+07         0.32809E+06         0.00000E+00
    0.32809E+06        -0.12560E+07         0.00000E+00
    0.00000E+00         0.00000E+00         0.00000E+00
 
    0.12186E+07         0.34556E+06         0.00000E+00
    0.34556E+06        -0.12178E+07         0.00000E+00
    0.00000E+00         0.00000E+00         0.00000E+00
 
    0.11782E+07         0.36122E+06         0.00000E+00
    0.36122E+06        -0.11776E+07         0.00000E+00
    0.00000E+00         0.00000E+00         0.00000E+00
 
    0.11363E+07         0.37519E+06         0.00000E+00
    0.37519E+06        -0.11358E+07         0.00000E+00
    0.00000E+00         0.00000E+00         0.00000E+00
 
    0.10932E+07         0.38757E+06         0.00000E+00
    0.38757E+06        -0.10928E+07         0.00000E+00
    0.00000E+00         0.00000E+00         0.00000E+00
 
    0.10490E+07         0.39843E+06         0.00000E+00
    0.39843E+06        -0.10487E+07         0.00000E+00
    0.00000E+00         0.00000E+00         0.00000E+00
 
    0.10040E+07         0.40783E+06         0.00000E+00
    0.40783E+06        -0.10037E+07         0.00000E+00
    0.00000E+00         0.00000E+00         0.00000E+00
 
    0.95848E+06         0.41584E+06         0.00000E+00
    0.41584E+06        -0.95818E+06         0.00000E+00
    0.00000E+00         0.00000E+00         0.00000E+00
 
    0.91252E+06         0.42249E+06         0.00000E+00
    0.42249E+06        -0.91223E+06         0.00000E+00
    0.00000E+00         0.00000E+00         0.00000E+00
 
    0.86634E+06         0.42782E+06         0.00000E+00
    0.42782E+06        -0.86606E+06         0.00000E+00
    0.00000E+00         0.00000E+00         0.00000E+00
 
    0.82011E+06         0.43187E+06         0.00000E+00
    0.43187E+06        -0.81982E+06         0.00000E+00
    0.00000E+00         0.00000E+00         0.00000E+00
 
    0.77397E+06         0.43466E+06         0.00000E+00
    0.43466E+06        -0.77369E+06         0.00000E+00
    0.00000E+00         0.00000E+00         0.00000E+00
 
    0.72808E+06         0.43624E+06         0.00000E+00
    0.43624E+06        -0.72779E+06         0.00000E+00
    0.00000E+00         0.00000E+00         0.00000E+00
 
    0.68255E+06         0.43662E+06         0.00000E+00
    0.43662E+06        -0.68226E+06         0.00000E+00
    0.00000E+00         0.00000E+00         0.00000E+00
 
    0.63750E+06         0.43586E+06         0.00000E+00
    0.43586E+06        -0.63721E+06         0.00000E+00
    0.00000E+00         0.00000E+00         0.00000E+00
 
    0.59307E+06         0.43397E+06         0.00000E+00
    0.43397E+06        -0.59277E+06         0.00000E+00
    0.00000E+00         0.00000E+00         0.00000E+00
 
    0.54934E+06         0.43101E+06         0.00000E+00
    0.43101E+06        -0.54905E+06         0.00000E+00
    0.00000E+00         0.00000E+00         0.00000E+00
 
    0.50644E+06         0.42702E+06         0.00000E+00
    0.42702E+06        -0.50614E+06         0.00000E+00
    0.00000E+00         0.00000E+00         0.00000E+00
 
    0.46446E+06         0.42204E+06         0.00000E+00
    0.42204E+06        -0.46416E+06         0.00000E+00
    0.00000E+00         0.00000E+00         0.00000E+00
 
    0.42351E+06         0.41613E+06         0.00000E+00
    0.41613E+06        -0.42321E+06         0.00000E+00
    0.00000E+00         0.00000E+00         0.00000E+00
 
    0.38370E+06         0.40935E+06         0.00000E+00
    0.40935E+06        -0.38338E+06         0.00000E+00
    0.00000E+00         0.00000E+00         0.00000E+00
 
    0.34512E+06         0.40175E+06         0.00000E+00
    0.40175E+06        -0.34480E+06         0.00000E+00
    0.00000E+00         0.00000E+00         0.00000E+00
 
    0.30789E+06         0.39339E+06         0.00000E+00
    0.39339E+06        -0.30756E+06         0.00000E+00
    0.00000E+00         0.00000E+00         0.00000E+00
 
    0.27211E+06         0.38436E+06         0.00000E+00
    0.38436E+06        -0.27177E+06         0.00000E+00
    0.00000E+00         0.00000E+00         0.00000E+00
 
    0.23791E+06         0.37471E+06         0.00000E+00
    0.37471E+06        -0.23755E+06         0.00000E+00
    0.00000E+00         0.00000E+00         0.00000E+00
 
    0.20540E+06         0.36452E+06         0.00000E+00
    0.36452E+06        -0.20502E+06         0.00000E+00
    0.00000E+00         0.00000E+00         0.00000E+00
 
    0.17471E+06         0.35386E+06         0.00000E+00
    0.35386E+06        -0.17429E+06         0.00000E+00
    0.00000E+00         0.00000E+00         0.00000E+00
 
    0.14597E+06         0.34281E+06         0.00000E+00
    0.34281E+06        -0.14550E+06         0.00000E+00
    0.00000E+00         0.00000E+00         0.00000E+00
 
    0.11931E+06         0.33145E+06         0.00000E+00
    0.33145E+06        -0.11878E+06         0.00000E+00
    0.00000E+00         0.00000E+00         0.00000E+00
 
    0.94862E+05         0.31983E+06         0.00000E+00
    0.31983E+06        -0.94236E+05         0.00000E+00
    0.00000E+00         0.00000E+00         0.00000E+00
 
    0.72767E+05         0.30803E+06         0.00000E+00
    0.30803E+06        -0.72012E+05         0.00000E+00
    0.00000E+00         0.00000E+00         0.00000E+00
 
    0.53159E+05         0.29609E+06         0.00000E+00
    0.29609E+06        -0.52221E+05         0.00000E+00
    0.00000E+00         0.00000E+00         0.00000E+00
 
    0.36167E+05         0.28408E+06         0.00000E+00
    0.28408E+06        -0.34973E+05         0.00000E+00
    0.00000E+00         0.00000E+00         0.00000E+00
 
    0.21910E+05         0.27201E+06         0.00000E+00
    0.27201E+06        -0.20358E+05         0.00000E+00
    0.00000E+00         0.00000E+00         0.00000E+00
 
    0.10490E+05         0.25993E+06         0.00000E+00
    0.25993E+06        -0.84427E+04         0.00000E+00
    0.00000E+00         0.00000E+00         0.00000E+00
 
    0.19896E+04         0.24782E+06         0.00000E+00
    0.24782E+06         0.74086E+03         0.00000E+00
    0.00000E+00         0.00000E+00         0.00000E+00
 
   -0.35402E+04         0.23571E+06         0.00000E+00
    0.23571E+06         0.72050E+04         0.00000E+00
    0.00000E+00         0.00000E+00         0.00000E+00
 
   -0.60828E+04         0.22358E+06         0.00000E+00
    0.22358E+06         0.11017E+05         0.00000E+00
    0.00000E+00         0.00000E+00         0.00000E+00
 
   -0.56650E+04         0.21143E+06         0.00000E+00
    0.21143E+06         0.12313E+05         0.00000E+00
    0.00000E+00         0.00000E+00         0.00000E+00
 
   -0.23610E+04         0.19926E+06         0.00000E+00
    0.19926E+06         0.11305E+05         0.00000E+00
    0.00000E+00         0.00000E+00         0.00000E+00
 
    0.15258E+07         0.23121E+05         0.00000E+00
    0.23121E+05        -0.14923E+07         0.00000E+00
    0.00000E+00         0.00000E+00         0.00000E+00
 
    0.15128E+07         0.67703E+05         0.00000E+00
    0.67703E+05        -0.14875E+07         0.00000E+00
    0.00000E+00         0.00000E+00         0.00000E+00
 
    0.14968E+07         0.10977E+06         0.00000E+00
    0.10977E+06        -0.14780E+07         0.00000E+00
    0.00000E+00         0.00000E+00         0.00000E+00
 
    0.14780E+07         0.14908E+06         0.00000E+00
    0.14908E+06        -0.14642E+07         0.00000E+00
    0.00000E+00         0.00000E+00         0.00000E+00
 
    0.14562E+07         0.18552E+06         0.00000E+00
    0.18552E+06        -0.14462E+07         0.00000E+00
    0.00000E+00         0.00000E+00         0.00000E+00
 
    0.14315E+07         0.21906E+06         0.00000E+00
    0.21906E+06        -0.14243E+07         0.00000E+00
    0.00000E+00         0.00000E+00         0.00000E+00
 
    0.14039E+07         0.24976E+06         0.00000E+00
    0.24976E+06        -0.13989E+07         0.00000E+00
    0.00000E+00         0.00000E+00         0.00000E+00
 
    0.13737E+07         0.27773E+06         0.00000E+00
    0.27773E+06        -0.13701E+07         0.00000E+00
    0.00000E+00         0.00000E+00         0.00000E+00
 
    0.13409E+07         0.30312E+06         0.00000E+00
    0.30312E+06        -0.13384E+07         0.00000E+00
    0.00000E+00         0.00000E+00         0.00000E+00
 
    0.13057E+07         0.32608E+06         0.00000E+00
    0.32608E+06        -0.13040E+07         0.00000E+00
    0.00000E+00         0.00000E+00         0.00000E+00
 
    0.12683E+07         0.34676E+06         0.00000E+00
    0.34676E+06        -0.12672E+07         0.00000E+00
    0.00000E+00         0.00000E+00         0.00000E+00
 
    0.12291E+07         0.36533E+06         0.00000E+00
    0.36533E+06        -0.12283E+07         0.00000E+00
    0.00000E+00         0.00000E+00         0.00000E+00
 
    0.11881E+07         0.38192E+06         0.00000E+00
    0.38192E+06        -0.11875E+07         0.00000E+00
    0.00000E+00         0.00000E+00         0.00000E+00
 
    0.11456E+07         0.39666E+06         0.00000E+00
    0.39666E+06        -0.11452E+07         0.00000E+00
    0.00000E+00         0.00000E+00         0.00000E+00
 
    0.11020E+07         0.40964E+06         0.00000E+00
    0.40964E+06        -0.11016E+07         0.00000E+00
    0.00000E+00         0.00000E+00         0.00000E+00
 
    0.10573E+07         0.42097E+06         0.00000E+00
    0.42097E+06        -0.10570E+07         0.00000E+00
    0.00000E+00         0.00000E+00         0.00000E+00
 
    0.10118E+07         0.43072E+06         0.00000E+00
    0.43072E+06        -0.10116E+07         0.00000E+00
    0.00000E+00         0.00000E+00         0.00000E+00
 
    0.96578E+06         0.43896E+06         0.00000E+00
    0.43896E+06        -0.96558E+06         0.00000E+00
    0.00000E+00         0.00000E+00         0.00000E+00
 
    0.91934E+06         0.44574E+06         0.00000E+00
    0.44574E+06        -0.91915E+06         0.00000E+00
    0.00000E+00         0.00000E+00         0.00000E+00
 
    0.87268E+06         0.45112E+06         0.00000E+00
    0.45112E+06        -0.87249E+06         0.00000E+00
    0.00000E+00         0.00000E+00         0.00000E+00
 
    0.82596E+06         0.45513E+06         0.00000E+00
    0.45513E+06        -0.82578E+06         0.00000E+00
    0.00000E+00         0.00000E+00         0.00000E+00
 
    0.77934E+06         0.45783E+06         0.00000E+00
    0.45783E+06        -0.77916E+06         0.00000E+00
    0.00000E+00         0.00000E+00         0.00000E+00
 
    0.73296E+06         0.45925E+06         0.00000E+00
    0.45925E+06        -0.73278E+06         0.00000E+00
    0.00000E+00         0.00000E+00         0.00000E+00
 
    0.68695E+06         0.45942E+06         0.00000E+00
    0.45942E+06        -0.68676E+06         0.00000E+00
    0.00000E+00         0.00000E+00         0.00000E+00
 
    0.64144E+06         0.45840E+06         0.00000E+00
    0.45840E+06        -0.64124E+06         0.00000E+00
    0.00000E+00         0.00000E+00         0.00000E+00
 
    0.59653E+06         0.45621E+06         0.00000E+00
    0.45621E+06        -0.59633E+06         0.00000E+00
    0.00000E+00         0.00000E+00         0.00000E+00
 
    0.55235E+06         0.45290E+06         0.00000E+00
    0.45290E+06        -0.55215E+06         0.00000E+00
    0.00000E+00         0.00000E+00         0.00000E+00
 
    0.50901E+06         0.44852E+06         0.00000E+00
    0.44852E+06        -0.50880E+06         0.00000E+00
    0.00000E+00         0.00000E+00         0.00000E+00
 
    0.46660E+06         0.44312E+06         0.00000E+00
    0.44312E+06        -0.46639E+06         0.00000E+00
    0.00000E+00         0.00000E+00         0.00000E+00
 
    0.42525E+06         0.43674E+06         0.00000E+00
    0.43674E+06        -0.42503E+06         0.00000E+00
    0.00000E+00         0.00000E+00         0.00000E+00
 
    0.38506E+06         0.42944E+06         0.00000E+00
    0.42944E+06        -0.38482E+06         0.00000E+00
    0.00000E+00         0.00000E+00         0.00000E+00
 
    0.34613E+06         0.42127E+06         0.00000E+00
    0.42127E+06        -0.34589E+06         0.00000E+00
    0.00000E+00         0.00000E+00         0.00000E+00
 
    0.30858E+06         0.41230E+06         0.00000E+00
    0.41230E+06        -0.30832E+06         0.00000E+00
    0.00000E+00         0.00000E+00         0.00000E+00
 
    0.27252E+06         0.40258E+06         0.00000E+00
    0.40258E+06        -0.27225E+06         0.00000E+00
    0.00000E+00         0.00000E+00         0.00000E+00
 
    0.23807E+06         0.39220E+06         0.00000E+00
    0.39220E+06        -0.23778E+06         0.00000E+00
    0.00000E+00         0.00000E+00         0.00000E+00
 
    0.20535E+06         0.38120E+06         0.00000E+00
    0.38120E+06        -0.20504E+06         0.00000E+00
    0.00000E+00         0.00000E+00         0.00000E+00
 
    0.17449E+06         0.36966E+06         0.00000E+00
    0.36966E+06        -0.17414E+06         0.00000E+00
    0.00000E+00         0.00000E+00         0.00000E+00
 
    0.14562E+06         0.35765E+06         0.00000E+00
    0.35765E+06        -0.14522E+06         0.00000E+00
    0.00000E+00         0.00000E+00         0.00000E+00
 
    0.11887E+06         0.34524E+06         0.00000E+00
    0.34524E+06        -0.11840E+06         0.00000E+00
    0.00000E+00         0.00000E+00         0.00000E+00
 
    0.94375E+05         0.33249E+06         0.00000E+00
    0.33249E+06        -0.93805E+05         0.00000E+00
    0.00000E+00         0.00000E+00         0.00000E+00
 
    0.72266E+05         0.31946E+06         0.00000E+00
    0.31946E+06        -0.71558E+05         0.00000E+00
    0.00000E+00         0.00000E+00         0.00000E+00
 
    0.52672E+05         0.30621E+06         0.00000E+00
    0.30621E+06        -0.51772E+05         0.00000E+00
    0.00000E+00         0.00000E+00         0.00000E+00
 
    0.35719E+05         0.29280E+06         0.00000E+00
    0.29280E+06        -0.34550E+05         0.00000E+00
    0.00000E+00         0.00000E+00         0.00000E+00
 
    0.21516E+05         0.27926E+06         0.00000E+00
    0.27926E+06        -0.19974E+05         0.00000E+00
    0.00000E+00         0.00000E+00         0.00000E+00
 
    0.10160E+05         0.26562E+06         0.00000E+00
    0.26562E+06        -0.81023E+04         0.00000E+00
    0.00000E+00         0.00000E+00         0.00000E+00
 
    0.17247E+04         0.25192E+06         0.00000E+00
    0.25192E+06         0.10410E+04         0.00000E+00
    0.00000E+00         0.00000E+00         0.00000E+00
 
   -0.37424E+04         0.23818E+06         0.00000E+00
    0.23818E+06         0.74734E+04         0.00000E+00
    0.00000E+00         0.00000E+00         0.00000E+00
 
   -0.62279E+04         0.22442E+06         0.00000E+00
    0.22442E+06         0.11265E+05         0.00000E+00
    0.00000E+00         0.00000E+00         0.00000E+00
 
   -0.57559E+04         0.21066E+06         0.00000E+00
    0.21066E+06         0.12546E+05         0.00000E+00
    0.00000E+00         0.00000E+00         0.00000E+00
 
   -0.23931E+04         0.19694E+06         0.00000E+00
    0.19694E+06         0.11521E+05         0.00000E+00
    0.00000E+00         0.00000E+00         0.00000E+00
 
    0.15521E+07         0.24079E+05         0.00000E+00
    0.24079E+05        -0.15127E+07         0.00000E+00
    0.00000E+00         0.00000E+00         0.00000E+00
 
    0.15372E+07         0.70579E+05         0.00000E+00
    0.70579E+05        -0.15075E+07         0.00000E+00
    0.00000E+00         0.00000E+00         0.00000E+00
 
    0.15193E+07         0.11457E+06         0.00000E+00
    0.11457E+06        -0.14973E+07         0.00000E+00
    0.00000E+00         0.00000E+00         0.00000E+00
 
    0.14986E+07         0.15580E+06         0.00000E+00
    0.15580E+06        -0.14825E+07         0.00000E+00
    0.00000E+00         0.00000E+00         0.00000E+00
 
    0.14751E+07         0.19413E+06         0.00000E+00
    0.19413E+06        -0.14635E+07         0.00000E+00
    0.00000E+00         0.00000E+00         0.00000E+00
 
    0.14489E+07         0.22951E+06         0.00000E+00
    0.22951E+06        -0.14406E+07         0.00000E+00
    0.00000E+00         0.00000E+00         0.00000E+00
 
    0.14199E+07         0.26198E+06         0.00000E+00
    0.26198E+06        -0.14141E+07         0.00000E+00
    0.00000E+00         0.00000E+00         0.00000E+00
 
    0.13884E+07         0.29161E+06         0.00000E+00
    0.29161E+06        -0.13843E+07         0.00000E+00
    0.00000E+00         0.00000E+00         0.00000E+00
 
    0.13544E+07         0.31854E+06         0.00000E+00
    0.31854E+06        -0.13516E+07         0.00000E+00
    0.00000E+00         0.00000E+00         0.00000E+00
 
    0.13182E+07         0.34289E+06         0.00000E+00
    0.34289E+06        -0.13163E+07         0.00000E+00
    0.00000E+00         0.00000E+00         0.00000E+00
 
    0.12800E+07         0.36482E+06         0.00000E+00
    0.36482E+06        -0.12787E+07         0.00000E+00
    0.00000E+00         0.00000E+00         0.00000E+00
 
    0.12399E+07         0.38448E+06         0.00000E+00
    0.38448E+06        -0.12391E+07         0.00000E+00
    0.00000E+00         0.00000E+00         0.00000E+00
 
    0.11982E+07         0.40200E+06         0.00000E+00
    0.40200E+06        -0.11977E+07         0.00000E+00
    0.00000E+00         0.00000E+00         0.00000E+00
 
    0.11552E+07         0.41751E+06         0.00000E+00
    0.41751E+06        -0.11548E+07         0.00000E+00
    0.00000E+00         0.00000E+00         0.00000E+00
 
    0.11109E+07         0.43114E+06         0.00000E+00
    0.43114E+06        -0.11106E+07         0.00000E+00
    0.00000E+00         0.00000E+00         0.00000E+00
 
    0.10657E+07         0.44297E+06         0.00000E+00
    0.44297E+06        -0.10655E+07         0.00000E+00
    0.00000E+00         0.00000E+00         0.00000E+00
 
    0.10197E+07         0.45310E+06         0.00000E+00
    0.45310E+06        -0.10195E+07         0.00000E+00
    0.00000E+00         0.00000E+00         0.00000E+00
 
    0.97313E+06         0.46160E+06         0.00000E+00
    0.46160E+06        -0.97299E+06         0.00000E+00
    0.00000E+00         0.00000E+00         0.00000E+00
 
    0.92619E+06         0.46856E+06         0.00000E+00
    0.46856E+06        -0.92607E+06         0.00000E+00
    0.00000E+00         0.00000E+00         0.00000E+00
 
    0.87905E+06         0.47401E+06         0.00000E+00
    0.47401E+06        -0.87893E+06         0.00000E+00
    0.00000E+00         0.00000E+00         0.00000E+00
 
    0.83186E+06         0.47804E+06         0.00000E+00
    0.47804E+06        -0.83174E+06         0.00000E+00
    0.00000E+00         0.00000E+00         0.00000E+00
 
    0.78477E+06         0.48067E+06         0.00000E+00
    0.48067E+06        -0.78464E+06         0.00000E+00
    0.00000E+00         0.00000E+00         0.00000E+00
 
    0.73792E+06         0.48196E+06         0.00000E+00
    0.48196E+06        -0.73779E+06         0.00000E+00
    0.00000E+00         0.00000E+00         0.00000E+00
 
    0.69145E+06         0.48195E+06         0.00000E+00
    0.48195E+06        -0.69132E+06         0.00000E+00
    0.00000E+00         0.00000E+00         0.00000E+00
 
    0.64548E+06         0.48070E+06         0.00000E+00
    0.48070E+06        -0.64534E+06         0.00000E+00
    0.00000E+00         0.00000E+00         0.00000E+00
 
    0.60013E+06         0.47823E+06         0.00000E+00
    0.47823E+06        -0.59999E+06         0.00000E+00
    0.00000E+00         0.00000E+00         0.00000E+00
 
    0.55552E+06         0.47460E+06         0.00000E+00
    0.47460E+06        -0.55537E+06         0.00000E+00
    0.00000E+00         0.00000E+00         0.00000E+00
 
    0.51175E+06         0.46985E+06         0.00000E+00
    0.46985E+06        -0.51159E+06         0.00000E+00
    0.00000E+00         0.00000E+00         0.00000E+00
 
    0.46894E+06         0.46404E+06         0.00000E+00
    0.46404E+06        -0.46878E+06         0.00000E+00
    0.00000E+00         0.00000E+00         0.00000E+00
 
    0.42720E+06         0.45720E+06         0.00000E+00
    0.45720E+06        -0.42703E+06         0.00000E+00
    0.00000E+00         0.00000E+00         0.00000E+00
 
    0.38664E+06         0.44938E+06         0.00000E+00
    0.44938E+06        -0.38646E+06         0.00000E+00
    0.00000E+00         0.00000E+00         0.00000E+00
 
    0.34736E+06         0.44066E+06         0.00000E+00
    0.44066E+06        -0.34717E+06         0.00000E+00
    0.00000E+00         0.00000E+00         0.00000E+00
 
    0.30949E+06         0.43107E+06         0.00000E+00
    0.43107E+06        -0.30929E+06         0.00000E+00
    0.00000E+00         0.00000E+00         0.00000E+00
 
    0.27314E+06         0.42068E+06         0.00000E+00
    0.42068E+06        -0.27292E+06         0.00000E+00
    0.00000E+00         0.00000E+00         0.00000E+00
 
    0.23843E+06         0.40955E+06         0.00000E+00
    0.40955E+06        -0.23819E+06         0.00000E+00
    0.00000E+00         0.00000E+00         0.00000E+00
 
    0.20549E+06         0.39774E+06         0.00000E+00
    0.39774E+06        -0.20522E+06         0.00000E+00
    0.00000E+00         0.00000E+00         0.00000E+00
 
    0.17444E+06         0.38531E+06         0.00000E+00
    0.38531E+06        -0.17413E+06         0.00000E+00
    0.00000E+00         0.00000E+00         0.00000E+00
 
    0.14541E+06         0.37234E+06         0.00000E+00
    0.37234E+06        -0.14504E+06         0.00000E+00
    0.00000E+00         0.00000E+00         0.00000E+00
 
    0.11853E+06         0.35887E+06         0.00000E+00
    0.35887E+06        -0.11809E+06         0.00000E+00
    0.00000E+00         0.00000E+00         0.00000E+00
 
    0.93943E+05         0.34498E+06         0.00000E+00
    0.34498E+06        -0.93399E+05         0.00000E+00
    0.00000E+00         0.00000E+00         0.00000E+00
 
    0.71772E+05         0.33073E+06         0.00000E+00
    0.33073E+06        -0.71082E+05         0.00000E+00
    0.00000E+00         0.00000E+00         0.00000E+00
 
    0.52146E+05         0.31617E+06         0.00000E+00
    0.31617E+06        -0.51252E+05         0.00000E+00
    0.00000E+00         0.00000E+00         0.00000E+00
 
    0.35185E+05         0.30136E+06         0.00000E+00
    0.30136E+06        -0.34006E+05         0.00000E+00
    0.00000E+00         0.00000E+00         0.00000E+00
 
    0.20995E+05         0.28635E+06         0.00000E+00
    0.28635E+06        -0.19422E+05         0.00000E+00
    0.00000E+00         0.00000E+00         0.00000E+00
 
    0.96701E+04         0.27118E+06         0.00000E+00
    0.27118E+06        -0.75526E+04         0.00000E+00
    0.00000E+00         0.00000E+00         0.00000E+00
 
    0.12808E+04         0.25589E+06         0.00000E+00
    0.25589E+06         0.15820E+04         0.00000E+00
    0.00000E+00         0.00000E+00         0.00000E+00
 
   -0.41263E+04         0.24054E+06         0.00000E+00
    0.24054E+06         0.80017E+04         0.00000E+00
    0.00000E+00         0.00000E+00         0.00000E+00
 
   -0.65353E+04         0.22516E+06         0.00000E+00
    0.22516E+06         0.11775E+05         0.00000E+00
    0.00000E+00         0.00000E+00         0.00000E+00
 
   -0.59645E+04         0.20981E+06         0.00000E+00
    0.20981E+06         0.13029E+05         0.00000E+00
    0.00000E+00         0.00000E+00         0.00000E+00
 
   -0.24693E+04         0.19456E+06         0.00000E+00
    0.19456E+06         0.11953E+05         0.00000E+00
    0.00000E+00         0.00000E+00         0.00000E+00
 
    0.15794E+07         0.25033E+05         0.00000E+00
    0.25033E+05        -0.15340E+07         0.00000E+00
    0.00000E+00         0.00000E+00         0.00000E+00
 
    0.15625E+07         0.73428E+05         0.00000E+00
    0.73428E+05        -0.15284E+07         0.00000E+00
    0.00000E+00         0.00000E+00         0.00000E+00
 
    0.15428E+07         0.11930E+06         0.00000E+00
    0.11930E+06        -0.15175E+07         0.00000E+00
    0.00000E+00         0.00000E+00         0.00000E+00
 
    0.15203E+07         0.16239E+06         0.00000E+00
    0.16239E+06        -0.15018E+07         0.00000E+00
    0.00000E+00         0.00000E+00         0.00000E+00
 
    0.14950E+07         0.20253E+06         0.00000E+00
    0.20253E+06        -0.14817E+07         0.00000E+00
    0.00000E+00         0.00000E+00         0.00000E+00
 
    0.14671E+07         0.23968E+06         0.00000E+00
    0.23968E+06        -0.14576E+07         0.00000E+00
    0.00000E+00         0.00000E+00         0.00000E+00
 
    0.14367E+07         0.27383E+06         0.00000E+00
    0.27383E+06        -0.14300E+07         0.00000E+00
    0.00000E+00         0.00000E+00         0.00000E+00
 
    0.14038E+07         0.30506E+06         0.00000E+00
    0.30506E+06        -0.13992E+07         0.00000E+00
    0.00000E+00         0.00000E+00         0.00000E+00
 
    0.13686E+07         0.33345E+06         0.00000E+00
    0.33345E+06        -0.13655E+07         0.00000E+00
    0.00000E+00         0.00000E+00         0.00000E+00
 
    0.13314E+07         0.35915E+06         0.00000E+00
    0.35915E+06        -0.13292E+07         0.00000E+00
    0.00000E+00         0.00000E+00         0.00000E+00
 
    0.12922E+07         0.38229E+06         0.00000E+00
    0.38229E+06        -0.12907E+07         0.00000E+00
    0.00000E+00         0.00000E+00         0.00000E+00
 
    0.12512E+07         0.40301E+06         0.00000E+00
    0.40301E+06        -0.12503E+07         0.00000E+00
    0.00000E+00         0.00000E+00         0.00000E+00
 
    0.12088E+07         0.42145E+06         0.00000E+00
    0.42145E+06        -0.12081E+07         0.00000E+00
    0.00000E+00         0.00000E+00         0.00000E+00
 
    0.11650E+07         0.43775E+06         0.00000E+00
    0.43775E+06        -0.11645E+07         0.00000E+00
    0.00000E+00         0.00000E+00         0.00000E+00
 
    0.11200E+07         0.45202E+06         0.00000E+00
    0.45202E+06        -0.11198E+07         0.00000E+00
    0.00000E+00         0.00000E+00         0.00000E+00
 
    0.10742E+07         0.46437E+06         0.00000E+00
    0.46437E+06        -0.10740E+07         0.00000E+00
    0.00000E+00         0.00000E+00         0.00000E+00
 
    0.10277E+07         0.47490E+06         0.00000E+00
    0.47490E+06        -0.10275E+07         0.00000E+00
    0.00000E+00         0.00000E+00         0.00000E+00
 
    0.98059E+06         0.48370E+06         0.00000E+00
    0.48370E+06        -0.98048E+06         0.00000E+00
    0.00000E+00         0.00000E+00         0.00000E+00
 
    0.93314E+06         0.49086E+06         0.00000E+00
    0.49086E+06        -0.93306E+06         0.00000E+00
    0.00000E+00         0.00000E+00         0.00000E+00
 
    0.88551E+06         0.49643E+06         0.00000E+00
    0.49643E+06        -0.88543E+06         0.00000E+00
    0.00000E+00         0.00000E+00         0.00000E+00
 
    0.83785E+06         0.50049E+06         0.00000E+00
    0.50049E+06        -0.83777E+06         0.00000E+00
    0.00000E+00         0.00000E+00         0.00000E+00
 
    0.79030E+06         0.50309E+06         0.00000E+00
    0.50309E+06        -0.79021E+06         0.00000E+00
    0.00000E+00         0.00000E+00         0.00000E+00
 
    0.74300E+06         0.50429E+06         0.00000E+00
    0.50429E+06        -0.74291E+06         0.00000E+00
    0.00000E+00         0.00000E+00         0.00000E+00
 
    0.69608E+06         0.50413E+06         0.00000E+00
    0.50413E+06        -0.69599E+06         0.00000E+00
    0.00000E+00         0.00000E+00         0.00000E+00
 
    0.64968E+06         0.50267E+06         0.00000E+00
    0.50267E+06        -0.64958E+06         0.00000E+00
    0.00000E+00         0.00000E+00         0.00000E+00
 
    0.60390E+06         0.49995E+06         0.00000E+00
    0.49995E+06        -0.60380E+06         0.00000E+00
    0.00000E+00         0.00000E+00         0.00000E+00
 
    0.55888E+06         0.49602E+06         0.00000E+00
    0.49602E+06        -0.55877E+06         0.00000E+00
    0.00000E+00         0.00000E+00         0.00000E+00
 
    0.51471E+06         0.49092E+06         0.00000E+00
    0.49092E+06        -0.51459E+06         0.00000E+00
    0.00000E+00         0.00000E+00         0.00000E+00
 
    0.47151E+06         0.48471E+06         0.00000E+00
    0.48471E+06        -0.47138E+06         0.00000E+00
    0.00000E+00         0.00000E+00         0.00000E+00
 
    0.42939E+06         0.47743E+06         0.00000E+00
    0.47743E+06        -0.42926E+06         0.00000E+00
    0.00000E+00         0.00000E+00         0.00000E+00
 
    0.38847E+06         0.46912E+06         0.00000E+00
    0.46912E+06        -0.38832E+06         0.00000E+00
    0.00000E+00         0.00000E+00         0.00000E+00
 
    0.34885E+06         0.45985E+06         0.00000E+00
    0.45985E+06        -0.34870E+06         0.00000E+00
    0.00000E+00         0.00000E+00         0.00000E+00
 
    0.31066E+06         0.44966E+06         0.00000E+00
    0.44966E+06        -0.31049E+06         0.00000E+00
    0.00000E+00         0.00000E+00         0.00000E+00
 
    0.27401E+06         0.43860E+06         0.00000E+00
    0.43860E+06        -0.27382E+06         0.00000E+00
    0.00000E+00         0.00000E+00         0.00000E+00
 
    0.23903E+06         0.42673E+06         0.00000E+00
    0.42673E+06        -0.23882E+06         0.00000E+00
    0.00000E+00         0.00000E+00         0.00000E+00
 
    0.20584E+06         0.41411E+06         0.00000E+00
    0.41411E+06        -0.20560E+06         0.00000E+00
    0.00000E+00         0.00000E+00         0.00000E+00
 
    0.17457E+06         0.40080E+06         0.00000E+00
    0.40080E+06        -0.17428E+06         0.00000E+00
    0.00000E+00         0.00000E+00         0.00000E+00
 
    0.14534E+06         0.38686E+06         0.00000E+00
    0.38686E+06        -0.14500E+06         0.00000E+00
    0.00000E+00         0.00000E+00         0.00000E+00
 
    0.11831E+06         0.37235E+06         0.00000E+00
    0.37235E+06        -0.11788E+06         0.00000E+00
    0.00000E+00         0.00000E+00         0.00000E+00
 
    0.93584E+05         0.35732E+06         0.00000E+00
    0.35732E+06        -0.93048E+05         0.00000E+00
    0.00000E+00         0.00000E+00         0.00000E+00
 
    0.71307E+05         0.34184E+06         0.00000E+00
    0.34184E+06        -0.70615E+05         0.00000E+00
    0.00000E+00         0.00000E+00         0.00000E+00
 
    0.51603E+05         0.32598E+06         0.00000E+00
    0.32598E+06        -0.50693E+05         0.00000E+00
    0.00000E+00         0.00000E+00         0.00000E+00
 
    0.34590E+05         0.30977E+06         0.00000E+00
    0.30977E+06        -0.33376E+05         0.00000E+00
    0.00000E+00         0.00000E+00         0.00000E+00
 
    0.20374E+05         0.29330E+06         0.00000E+00
    0.29330E+06        -0.18739E+05         0.00000E+00
    0.00000E+00         0.00000E+00         0.00000E+00
 
    0.90490E+04         0.27660E+06         0.00000E+00
    0.27660E+06        -0.68336E+04         0.00000E+00
    0.00000E+00         0.00000E+00         0.00000E+00
 
    0.68624E+03         0.25975E+06         0.00000E+00
    0.25975E+06         0.23217E+04         0.00000E+00
    0.00000E+00         0.00000E+00         0.00000E+00
 
   -0.46645E+04         0.24280E+06         0.00000E+00
    0.24280E+06         0.87463E+04         0.00000E+00
    0.00000E+00         0.00000E+00         0.00000E+00
 
   -0.69813E+04         0.22581E+06         0.00000E+00
    0.22581E+06         0.12506E+05         0.00000E+00
    0.00000E+00         0.00000E+00         0.00000E+00
 
   -0.62735E+04         0.20888E+06         0.00000E+00
    0.20888E+06         0.13718E+05         0.00000E+00
    0.00000E+00         0.00000E+00         0.00000E+00
 
   -0.25833E+04         0.19207E+06         0.00000E+00
    0.19207E+06         0.12563E+05         0.00000E+00
    0.00000E+00         0.00000E+00         0.00000E+00
 
    0.16076E+07         0.25981E+05         0.00000E+00
    0.25981E+05        -0.15563E+07         0.00000E+00
    0.00000E+00         0.00000E+00         0.00000E+00
 
    0.15888E+07         0.76247E+05         0.00000E+00
    0.76247E+05        -0.15502E+07         0.00000E+00
    0.00000E+00         0.00000E+00         0.00000E+00
 
    0.15672E+07         0.12396E+06         0.00000E+00
    0.12396E+06        -0.15386E+07         0.00000E+00
    0.00000E+00         0.00000E+00         0.00000E+00
 
    0.15428E+07         0.16884E+06         0.00000E+00
    0.16884E+06        -0.15219E+07         0.00000E+00
    0.00000E+00         0.00000E+00         0.00000E+00
 
    0.15158E+07         0.21074E+06         0.00000E+00
    0.21074E+06        -0.15008E+07         0.00000E+00
    0.00000E+00         0.00000E+00         0.00000E+00
 
    0.14862E+07         0.24958E+06         0.00000E+00
    0.24958E+06        -0.14755E+07         0.00000E+00
    0.00000E+00         0.00000E+00         0.00000E+00
 
    0.14543E+07         0.28534E+06         0.00000E+00
    0.28534E+06        -0.14468E+07         0.00000E+00
    0.00000E+00         0.00000E+00         0.00000E+00
 
    0.14200E+07         0.31808E+06         0.00000E+00
    0.31808E+06        -0.14148E+07         0.00000E+00
    0.00000E+00         0.00000E+00         0.00000E+00
 
    0.13835E+07         0.34789E+06         0.00000E+00
    0.34789E+06        -0.13800E+07         0.00000E+00
    0.00000E+00         0.00000E+00         0.00000E+00
 
    0.13451E+07         0.37488E+06         0.00000E+00
    0.37488E+06        -0.13427E+07         0.00000E+00
    0.00000E+00         0.00000E+00         0.00000E+00
 
    0.13048E+07         0.39918E+06         0.00000E+00
    0.39918E+06        -0.13032E+07         0.00000E+00
    0.00000E+00         0.00000E+00         0.00000E+00
 
    0.12630E+07         0.42093E+06         0.00000E+00
    0.42093E+06        -0.12619E+07         0.00000E+00
    0.00000E+00         0.00000E+00         0.00000E+00
 
    0.12196E+07         0.44028E+06         0.00000E+00
    0.44028E+06        -0.12189E+07         0.00000E+00
    0.00000E+00         0.00000E+00         0.00000E+00
 
    0.11751E+07         0.45734E+06         0.00000E+00
    0.45734E+06        -0.11746E+07         0.00000E+00
    0.00000E+00         0.00000E+00         0.00000E+00
 
    0.11295E+07         0.47225E+06         0.00000E+00
    0.47225E+06        -0.11292E+07         0.00000E+00
    0.00000E+00         0.00000E+00         0.00000E+00
 
    0.10830E+07         0.48513E+06         0.00000E+00
    0.48513E+06        -0.10828E+07         0.00000E+00
    0.00000E+00         0.00000E+00         0.00000E+00
 
    0.10359E+07         0.49608E+06         0.00000E+00
    0.49608E+06        -0.10357E+07         0.00000E+00
    0.00000E+00         0.00000E+00         0.00000E+00
 
    0.98822E+06         0.50520E+06         0.00000E+00
    0.50520E+06        -0.98814E+06         0.00000E+00
    0.00000E+00         0.00000E+00         0.00000E+00
 
    0.94026E+06         0.51258E+06         0.00000E+00
    0.51258E+06        -0.94020E+06         0.00000E+00
    0.00000E+00         0.00000E+00         0.00000E+00
 
    0.89214E+06         0.51829E+06         0.00000E+00
    0.51829E+06        -0.89208E+06         0.00000E+00
    0.00000E+00         0.00000E+00         0.00000E+00
 
    0.84400E+06         0.52242E+06         0.00000E+00
    0.52242E+06        -0.84395E+06         0.00000E+00
    0.00000E+00         0.00000E+00         0.00000E+00
 
    0.79599E+06         0.52501E+06         0.00000E+00
    0.52501E+06        -0.79594E+06         0.00000E+00
    0.00000E+00         0.00000E+00         0.00000E+00
 
    0.74826E+06         0.52614E+06         0.00000E+00
    0.52614E+06        -0.74820E+06         0.00000E+00
    0.00000E+00         0.00000E+00         0.00000E+00
 
    0.70091E+06         0.52586E+06         0.00000E+00
    0.52586E+06        -0.70085E+06         0.00000E+00
    0.00000E+00         0.00000E+00         0.00000E+00
 
    0.65409E+06         0.52422E+06         0.00000E+00
    0.52422E+06        -0.65402E+06         0.00000E+00
    0.00000E+00         0.00000E+00         0.00000E+00
 
    0.60791E+06         0.52128E+06         0.00000E+00
    0.52128E+06        -0.60784E+06         0.00000E+00
    0.00000E+00         0.00000E+00         0.00000E+00
 
    0.56249E+06         0.51707E+06         0.00000E+00
    0.51707E+06        -0.56240E+06         0.00000E+00
    0.00000E+00         0.00000E+00         0.00000E+00
 
    0.51793E+06         0.51166E+06         0.00000E+00
    0.51166E+06        -0.51784E+06         0.00000E+00
    0.00000E+00         0.00000E+00         0.00000E+00
 
    0.47435E+06         0.50507E+06         0.00000E+00
    0.50507E+06        -0.47425E+06         0.00000E+00
    0.00000E+00         0.00000E+00         0.00000E+00
 
    0.43187E+06         0.49737E+06         0.00000E+00
    0.49737E+06        -0.43176E+06         0.00000E+00
    0.00000E+00         0.00000E+00         0.00000E+00
 
    0.39060E+06         0.48859E+06         0.00000E+00
    0.48859E+06        -0.39048E+06         0.00000E+00
    0.00000E+00         0.00000E+00         0.00000E+00
 
    0.35064E+06         0.47879E+06         0.00000E+00
    0.47879E+06        -0.35051E+06         0.00000E+00
    0.00000E+00         0.00000E+00         0.00000E+00
 
    0.31213E+06         0.46800E+06         0.00000E+00
    0.46800E+06        -0.31198E+06         0.00000E+00
    0.00000E+00         0.00000E+00         0.00000E+00
 
    0.27517E+06         0.45629E+06         0.00000E+00
    0.45629E+06        -0.27500E+06         0.00000E+00
    0.00000E+00         0.00000E+00         0.00000E+00
 
    0.23990E+06         0.44370E+06         0.00000E+00
    0.44370E+06        -0.23971E+06         0.00000E+00
    0.00000E+00         0.00000E+00         0.00000E+00
 
    0.20644E+06         0.43029E+06         0.00000E+00
    0.43029E+06        -0.20621E+06         0.00000E+00
    0.00000E+00         0.00000E+00         0.00000E+00
 
    0.17492E+06         0.41611E+06         0.00000E+00
    0.41611E+06        -0.17465E+06         0.00000E+00
    0.00000E+00         0.00000E+00         0.00000E+00
 
    0.14547E+06         0.40121E+06         0.00000E+00
    0.40121E+06        -0.14514E+06         0.00000E+00
    0.00000E+00         0.00000E+00         0.00000E+00
 
    0.11823E+06         0.38565E+06         0.00000E+00
    0.38565E+06        -0.11781E+06         0.00000E+00
    0.00000E+00         0.00000E+00         0.00000E+00
 
    0.93331E+05         0.36950E+06         0.00000E+00
    0.36950E+06        -0.92792E+05         0.00000E+00
    0.00000E+00         0.00000E+00         0.00000E+00
 
    0.70905E+05         0.35281E+06         0.00000E+00
    0.35281E+06        -0.70197E+05         0.00000E+00
    0.00000E+00         0.00000E+00         0.00000E+00
 
    0.51077E+05         0.33564E+06         0.00000E+00
    0.33564E+06        -0.50136E+05         0.00000E+00
    0.00000E+00         0.00000E+00         0.00000E+00
 
    0.33969E+05         0.31806E+06         0.00000E+00
    0.31806E+06        -0.32701E+05         0.00000E+00
    0.00000E+00         0.00000E+00         0.00000E+00
 
    0.19688E+05         0.30013E+06         0.00000E+00
    0.30013E+06        -0.17969E+05         0.00000E+00
    0.00000E+00         0.00000E+00         0.00000E+00
 
    0.83315E+04         0.28192E+06         0.00000E+00
    0.28192E+06        -0.59901E+04         0.00000E+00
    0.00000E+00         0.00000E+00         0.00000E+00
 
   -0.25205E+02         0.26350E+06         0.00000E+00
    0.26350E+06         0.32148E+04         0.00000E+00
    0.00000E+00         0.00000E+00         0.00000E+00
 
   -0.53260E+04         0.24495E+06         0.00000E+00
    0.24495E+06         0.96623E+04         0.00000E+00
    0.00000E+00         0.00000E+00         0.00000E+00
 
   -0.75402E+04         0.22636E+06         0.00000E+00
    0.22636E+06         0.13412E+05         0.00000E+00
    0.00000E+00         0.00000E+00         0.00000E+00
 
   -0.66653E+04         0.20782E+06         0.00000E+00
    0.20782E+06         0.14575E+05         0.00000E+00
    0.00000E+00         0.00000E+00         0.00000E+00
 
   -0.27285E+04         0.18945E+06         0.00000E+00
    0.18945E+06         0.13317E+05         0.00000E+00
    0.00000E+00         0.00000E+00         0.00000E+00
 
    0.16369E+07         0.26921E+05         0.00000E+00
    0.26921E+05        -0.15794E+07         0.00000E+00
    0.00000E+00         0.00000E+00         0.00000E+00
 
    0.16161E+07         0.79033E+05         0.00000E+00
    0.79033E+05        -0.15729E+07         0.00000E+00
    0.00000E+00         0.00000E+00         0.00000E+00
 
    0.15925E+07         0.12854E+06         0.00000E+00
    0.12854E+06        -0.15606E+07         0.00000E+00
    0.00000E+00         0.00000E+00         0.00000E+00
 
    0.15662E+07         0.17517E+06         0.00000E+00
    0.17517E+06        -0.15429E+07         0.00000E+00
    0.00000E+00         0.00000E+00         0.00000E+00
 
    0.15374E+07         0.21876E+06         0.00000E+00
    0.21876E+06        -0.15207E+07         0.00000E+00
    0.00000E+00         0.00000E+00         0.00000E+00
 
    0.15062E+07         0.25922E+06         0.00000E+00
    0.25922E+06        -0.14943E+07         0.00000E+00
    0.00000E+00         0.00000E+00         0.00000E+00
 
    0.14726E+07         0.29652E+06         0.00000E+00
    0.29652E+06        -0.14642E+07         0.00000E+00
    0.00000E+00         0.00000E+00         0.00000E+00
 
    0.14369E+07         0.33071E+06         0.00000E+00
    0.33071E+06        -0.14311E+07         0.00000E+00
    0.00000E+00         0.00000E+00         0.00000E+00
 
    0.13991E+07         0.36186E+06         0.00000E+00
    0.36186E+06        -0.13951E+07         0.00000E+00
    0.00000E+00         0.00000E+00         0.00000E+00
 
    0.13594E+07         0.39008E+06         0.00000E+00
    0.39008E+06        -0.13567E+07         0.00000E+00
    0.00000E+00         0.00000E+00         0.00000E+00
 
    0.13180E+07         0.41549E+06         0.00000E+00
    0.41549E+06        -0.13163E+07         0.00000E+00
    0.00000E+00         0.00000E+00         0.00000E+00
 
    0.12752E+07         0.43824E+06         0.00000E+00
    0.43824E+06        -0.12740E+07         0.00000E+00
    0.00000E+00         0.00000E+00         0.00000E+00
 
    0.12309E+07         0.45845E+06         0.00000E+00
    0.45845E+06        -0.12302E+07         0.00000E+00
    0.00000E+00         0.00000E+00         0.00000E+00
 
    0.11856E+07         0.47627E+06         0.00000E+00
    0.47627E+06        -0.11851E+07         0.00000E+00
    0.00000E+00         0.00000E+00         0.00000E+00
 
    0.11392E+07         0.49182E+06         0.00000E+00
    0.49182E+06        -0.11389E+07         0.00000E+00
    0.00000E+00         0.00000E+00         0.00000E+00
 
    0.10921E+07         0.50522E+06         0.00000E+00
    0.50522E+06        -0.10919E+07         0.00000E+00
    0.00000E+00         0.00000E+00         0.00000E+00
 
    0.10443E+07         0.51659E+06         0.00000E+00
    0.51659E+06        -0.10442E+07         0.00000E+00
    0.00000E+00         0.00000E+00         0.00000E+00
 
    0.99610E+06         0.52604E+06         0.00000E+00
    0.52604E+06        -0.99602E+06         0.00000E+00
    0.00000E+00         0.00000E+00         0.00000E+00
 
    0.94761E+06         0.53365E+06         0.00000E+00
    0.53365E+06        -0.94755E+06         0.00000E+00
    0.00000E+00         0.00000E+00         0.00000E+00
 
    0.89898E+06         0.53953E+06         0.00000E+00
    0.53953E+06        -0.89894E+06         0.00000E+00
    0.00000E+00         0.00000E+00         0.00000E+00
 
    0.85038E+06         0.54373E+06         0.00000E+00
    0.54373E+06        -0.85034E+06         0.00000E+00
    0.00000E+00         0.00000E+00         0.00000E+00
 
    0.80192E+06         0.54635E+06         0.00000E+00
    0.54635E+06        -0.80189E+06         0.00000E+00
    0.00000E+00         0.00000E+00         0.00000E+00
 
    0.75376E+06         0.54744E+06         0.00000E+00
    0.54744E+06        -0.75372E+06         0.00000E+00
    0.00000E+00         0.00000E+00         0.00000E+00
 
    0.70600E+06         0.54706E+06         0.00000E+00
    0.54706E+06        -0.70596E+06         0.00000E+00
    0.00000E+00         0.00000E+00         0.00000E+00
 
    0.65878E+06         0.54528E+06         0.00000E+00
    0.54528E+06        -0.65873E+06         0.00000E+00
    0.00000E+00         0.00000E+00         0.00000E+00
 
    0.61221E+06         0.54213E+06         0.00000E+00
    0.54213E+06        -0.61215E+06         0.00000E+00
    0.00000E+00         0.00000E+00         0.00000E+00
 
    0.56640E+06         0.53768E+06         0.00000E+00
    0.53768E+06        -0.56634E+06         0.00000E+00
    0.00000E+00         0.00000E+00         0.00000E+00
 
    0.52148E+06         0.53197E+06         0.00000E+00
    0.53197E+06        -0.52140E+06         0.00000E+00
    0.00000E+00         0.00000E+00         0.00000E+00
 
    0.47754E+06         0.52504E+06         0.00000E+00
    0.52504E+06        -0.47746E+06         0.00000E+00
    0.00000E+00         0.00000E+00         0.00000E+00
 
    0.43470E+06         0.51694E+06         0.00000E+00
    0.51694E+06        -0.43461E+06         0.00000E+00
    0.00000E+00         0.00000E+00         0.00000E+00
 
    0.39308E+06         0.50772E+06         0.00000E+00
    0.50772E+06        -0.39297E+06         0.00000E+00
    0.00000E+00         0.00000E+00         0.00000E+00
 
    0.35278E+06         0.49741E+06         0.00000E+00
    0.49741E+06        -0.35267E+06         0.00000E+00
    0.00000E+00         0.00000E+00         0.00000E+00
 
    0.31394E+06         0.48606E+06         0.00000E+00
    0.48606E+06        -0.31381E+06         0.00000E+00
    0.00000E+00         0.00000E+00         0.00000E+00
 
    0.27667E+06         0.47372E+06         0.00000E+00
    0.47372E+06        -0.27651E+06         0.00000E+00
    0.00000E+00         0.00000E+00         0.00000E+00
 
    0.24109E+06         0.46043E+06         0.00000E+00
    0.46043E+06        -0.24091E+06         0.00000E+00
    0.00000E+00         0.00000E+00         0.00000E+00
 
    0.20733E+06         0.44624E+06         0.00000E+00
    0.44624E+06        -0.20712E+06         0.00000E+00
    0.00000E+00         0.00000E+00         0.00000E+00
 
    0.17554E+06         0.43120E+06         0.00000E+00
    0.43120E+06        -0.17527E+06         0.00000E+00
    0.00000E+00         0.00000E+00         0.00000E+00
 
    0.14583E+06         0.41537E+06         0.00000E+00
    0.41537E+06        -0.14550E+06         0.00000E+00
    0.00000E+00         0.00000E+00         0.00000E+00
 
    0.11835E+06         0.39879E+06         0.00000E+00
    0.39879E+06        -0.11793E+06         0.00000E+00
    0.00000E+00         0.00000E+00         0.00000E+00
 
    0.93232E+05         0.38152E+06         0.00000E+00
    0.38152E+06        -0.92680E+05         0.00000E+00
    0.00000E+00         0.00000E+00         0.00000E+00
 
    0.70609E+05         0.36363E+06         0.00000E+00
    0.36363E+06        -0.69878E+05         0.00000E+00
    0.00000E+00         0.00000E+00         0.00000E+00
 
    0.50613E+05         0.34517E+06         0.00000E+00
    0.34517E+06        -0.49630E+05         0.00000E+00
    0.00000E+00         0.00000E+00         0.00000E+00
 
    0.33365E+05         0.32622E+06         0.00000E+00
    0.32622E+06        -0.32031E+05         0.00000E+00
    0.00000E+00         0.00000E+00         0.00000E+00
 
    0.18980E+05         0.30685E+06         0.00000E+00
    0.30685E+06        -0.17161E+05         0.00000E+00
    0.00000E+00         0.00000E+00         0.00000E+00
 
    0.75589E+04         0.28713E+06         0.00000E+00
    0.28713E+06        -0.50710E+04         0.00000E+00
    0.00000E+00         0.00000E+00         0.00000E+00
 
   -0.81512E+03         0.26715E+06         0.00000E+00
    0.26715E+06         0.42133E+04         0.00000E+00
    0.00000E+00         0.00000E+00         0.00000E+00
 
   -0.60770E+04         0.24700E+06         0.00000E+00
    0.24700E+06         0.10704E+05         0.00000E+00
    0.00000E+00         0.00000E+00         0.00000E+00
 
   -0.81847E+04         0.22679E+06         0.00000E+00
    0.22679E+06         0.14453E+05         0.00000E+00
    0.00000E+00         0.00000E+00         0.00000E+00
 
   -0.71216E+04         0.20663E+06         0.00000E+00
    0.20663E+06         0.15562E+05         0.00000E+00
    0.00000E+00         0.00000E+00         0.00000E+00
 
   -0.28985E+04         0.18666E+06         0.00000E+00
    0.18666E+06         0.14184E+05         0.00000E+00
    0.00000E+00         0.00000E+00         0.00000E+00
 
    0.16672E+07         0.27852E+05         0.00000E+00
    0.27852E+05        -0.16033E+07         0.00000E+00
    0.00000E+00         0.00000E+00         0.00000E+00
 
    0.16443E+07         0.81781E+05         0.00000E+00
    0.81781E+05        -0.15965E+07         0.00000E+00
    0.00000E+00         0.00000E+00         0.00000E+00
 
    0.16187E+07         0.13305E+06         0.00000E+00
    0.13305E+06        -0.15834E+07         0.00000E+00
    0.00000E+00         0.00000E+00         0.00000E+00
 
    0.15906E+07         0.18137E+06         0.00000E+00
    0.18137E+06        -0.15648E+07         0.00000E+00
    0.00000E+00         0.00000E+00         0.00000E+00
 
    0.15599E+07         0.22659E+06         0.00000E+00
    0.22659E+06        -0.15414E+07         0.00000E+00
    0.00000E+00         0.00000E+00         0.00000E+00
 
    0.15269E+07         0.26860E+06         0.00000E+00
    0.26860E+06        -0.15137E+07         0.00000E+00
    0.00000E+00         0.00000E+00         0.00000E+00
 
    0.14917E+07         0.30737E+06         0.00000E+00
    0.30737E+06        -0.14825E+07         0.00000E+00
    0.00000E+00         0.00000E+00         0.00000E+00
 
    0.14545E+07         0.34293E+06         0.00000E+00
    0.34293E+06        -0.14480E+07         0.00000E+00
    0.00000E+00         0.00000E+00         0.00000E+00
 
    0.14153E+07         0.37536E+06         0.00000E+00
    0.37536E+06        -0.14109E+07         0.00000E+00
    0.00000E+00         0.00000E+00         0.00000E+00
 
    0.13743E+07         0.40475E+06         0.00000E+00
    0.40475E+06        -0.13714E+07         0.00000E+00
    0.00000E+00         0.00000E+00         0.00000E+00
 
    0.13318E+07         0.43122E+06         0.00000E+00
    0.43122E+06        -0.13298E+07         0.00000E+00
    0.00000E+00         0.00000E+00         0.00000E+00
 
    0.12879E+07         0.45492E+06         0.00000E+00
    0.45492E+06        -0.12866E+07         0.00000E+00
    0.00000E+00         0.00000E+00         0.00000E+00
 
    0.12427E+07         0.47596E+06         0.00000E+00
    0.47596E+06        -0.12418E+07         0.00000E+00
    0.00000E+00         0.00000E+00         0.00000E+00
 
    0.11964E+07         0.49450E+06         0.00000E+00
    0.49450E+06        -0.11959E+07         0.00000E+00
    0.00000E+00         0.00000E+00         0.00000E+00
 
    0.11493E+07         0.51067E+06         0.00000E+00
    0.51067E+06        -0.11490E+07         0.00000E+00
    0.00000E+00         0.00000E+00         0.00000E+00
 
    0.11015E+07         0.52458E+06         0.00000E+00
    0.52458E+06        -0.11012E+07         0.00000E+00
    0.00000E+00         0.00000E+00         0.00000E+00
 
    0.10531E+07         0.53638E+06         0.00000E+00
    0.53638E+06        -0.10529E+07         0.00000E+00
    0.00000E+00         0.00000E+00         0.00000E+00
 
    0.10043E+07         0.54615E+06         0.00000E+00
    0.54615E+06        -0.10042E+07         0.00000E+00
    0.00000E+00         0.00000E+00         0.00000E+00
 
    0.95523E+06         0.55402E+06         0.00000E+00
    0.55402E+06        -0.95518E+06         0.00000E+00
    0.00000E+00         0.00000E+00         0.00000E+00
 
    0.90611E+06         0.56006E+06         0.00000E+00
    0.56006E+06        -0.90608E+06         0.00000E+00
    0.00000E+00         0.00000E+00         0.00000E+00
 
    0.85704E+06         0.56437E+06         0.00000E+00
    0.56437E+06        -0.85701E+06         0.00000E+00
    0.00000E+00         0.00000E+00         0.00000E+00
 
    0.80815E+06         0.56703E+06         0.00000E+00
    0.56703E+06        -0.80812E+06         0.00000E+00
    0.00000E+00         0.00000E+00         0.00000E+00
 
    0.75956E+06         0.56810E+06         0.00000E+00
    0.56810E+06        -0.75953E+06         0.00000E+00
    0.00000E+00         0.00000E+00         0.00000E+00
 
    0.71141E+06         0.56765E+06         0.00000E+00
    0.56765E+06        -0.71138E+06         0.00000E+00
    0.00000E+00         0.00000E+00         0.00000E+00
 
    0.66380E+06         0.56575E+06         0.00000E+00
    0.56575E+06        -0.66377E+06         0.00000E+00
    0.00000E+00         0.00000E+00         0.00000E+00
 
    0.61686E+06         0.56243E+06         0.00000E+00
    0.56243E+06        -0.61682E+06         0.00000E+00
    0.00000E+00         0.00000E+00         0.00000E+00
 
    0.57069E+06         0.55777E+06         0.00000E+00
    0.55777E+06        -0.57064E+06         0.00000E+00
    0.00000E+00         0.00000E+00         0.00000E+00
 
    0.52541E+06         0.55179E+06         0.00000E+00
    0.55179E+06        -0.52535E+06         0.00000E+00
    0.00000E+00         0.00000E+00         0.00000E+00
 
    0.48112E+06         0.54455E+06         0.00000E+00
    0.54455E+06        -0.48105E+06         0.00000E+00
    0.00000E+00         0.00000E+00         0.00000E+00
 
    0.43793E+06         0.53609E+06         0.00000E+00
    0.53609E+06        -0.43786E+06         0.00000E+00
    0.00000E+00         0.00000E+00         0.00000E+00
 
    0.39597E+06         0.52645E+06         0.00000E+00
    0.52645E+06        -0.39588E+06         0.00000E+00
    0.00000E+00         0.00000E+00         0.00000E+00
 
    0.35534E+06         0.51567E+06         0.00000E+00
    0.51567E+06        -0.35523E+06         0.00000E+00
    0.00000E+00         0.00000E+00         0.00000E+00
 
    0.31616E+06         0.50378E+06         0.00000E+00
    0.50378E+06        -0.31604E+06         0.00000E+00
    0.00000E+00         0.00000E+00         0.00000E+00
 
    0.27856E+06         0.49084E+06         0.00000E+00
    0.49084E+06        -0.27841E+06         0.00000E+00
    0.00000E+00         0.00000E+00         0.00000E+00
 
    0.24266E+06         0.47688E+06         0.00000E+00
    0.47688E+06        -0.24249E+06         0.00000E+00
    0.00000E+00         0.00000E+00         0.00000E+00
 
    0.20859E+06         0.46194E+06         0.00000E+00
    0.46194E+06        -0.20838E+06         0.00000E+00
    0.00000E+00         0.00000E+00         0.00000E+00
 
    0.17648E+06         0.44607E+06         0.00000E+00
    0.44607E+06        -0.17622E+06         0.00000E+00
    0.00000E+00         0.00000E+00         0.00000E+00
 
    0.14648E+06         0.42932E+06         0.00000E+00
    0.42932E+06        -0.14615E+06         0.00000E+00
    0.00000E+00         0.00000E+00         0.00000E+00
 
    0.11872E+06         0.41174E+06         0.00000E+00
    0.41174E+06        -0.11829E+06         0.00000E+00
    0.00000E+00         0.00000E+00         0.00000E+00
 
    0.93339E+05         0.39339E+06         0.00000E+00
    0.39339E+06        -0.92772E+05         0.00000E+00
    0.00000E+00         0.00000E+00         0.00000E+00
 
    0.70475E+05         0.37431E+06         0.00000E+00
    0.37431E+06        -0.69715E+05         0.00000E+00
    0.00000E+00         0.00000E+00         0.00000E+00
 
    0.50263E+05         0.35459E+06         0.00000E+00
    0.35459E+06        -0.49232E+05         0.00000E+00
    0.00000E+00         0.00000E+00         0.00000E+00
 
    0.32831E+05         0.33428E+06         0.00000E+00
    0.33428E+06        -0.31423E+05         0.00000E+00
    0.00000E+00         0.00000E+00         0.00000E+00
 
    0.18300E+05         0.31347E+06         0.00000E+00
    0.31347E+06        -0.16370E+05         0.00000E+00
    0.00000E+00         0.00000E+00         0.00000E+00
 
    0.67780E+04         0.29225E+06         0.00000E+00
    0.29225E+06        -0.41299E+04         0.00000E+00
    0.00000E+00         0.00000E+00         0.00000E+00
 
   -0.16411E+04         0.27071E+06         0.00000E+00
    0.27071E+06         0.52663E+04         0.00000E+00
    0.00000E+00         0.00000E+00         0.00000E+00
 
   -0.68809E+04         0.24895E+06         0.00000E+00
    0.24895E+06         0.11823E+05         0.00000E+00
    0.00000E+00         0.00000E+00         0.00000E+00
 
   -0.88859E+04         0.22710E+06         0.00000E+00
    0.22710E+06         0.15585E+05         0.00000E+00
    0.00000E+00         0.00000E+00         0.00000E+00
 
   -0.76236E+04         0.20529E+06         0.00000E+00
    0.20529E+06         0.16641E+05         0.00000E+00
    0.00000E+00         0.00000E+00         0.00000E+00
 
   -0.30865E+04         0.18368E+06         0.00000E+00
    0.18368E+06         0.15132E+05         0.00000E+00
    0.00000E+00         0.00000E+00         0.00000E+00
 
    0.16984E+07         0.28770E+05         0.00000E+00
    0.28770E+05        -0.16281E+07         0.00000E+00
    0.00000E+00         0.00000E+00         0.00000E+00
 
    0.16735E+07         0.84484E+05         0.00000E+00
    0.84484E+05        -0.16208E+07         0.00000E+00
    0.00000E+00         0.00000E+00         0.00000E+00
 
    0.16459E+07         0.13746E+06         0.00000E+00
    0.13746E+06        -0.16070E+07         0.00000E+00
    0.00000E+00         0.00000E+00         0.00000E+00
 
    0.16158E+07         0.18744E+06         0.00000E+00
    0.18744E+06        -0.15874E+07         0.00000E+00
    0.00000E+00         0.00000E+00         0.00000E+00
 
    0.15833E+07         0.23422E+06         0.00000E+00
    0.23422E+06        -0.15628E+07         0.00000E+00
    0.00000E+00         0.00000E+00         0.00000E+00
 
    0.15485E+07         0.27771E+06         0.00000E+00
    0.27771E+06        -0.15339E+07         0.00000E+00
    0.00000E+00         0.00000E+00         0.00000E+00
 
    0.15116E+07         0.31788E+06         0.00000E+00
    0.31788E+06        -0.15014E+07         0.00000E+00
    0.00000E+00         0.00000E+00         0.00000E+00
 
    0.14727E+07         0.35475E+06         0.00000E+00
    0.35475E+06        -0.14657E+07         0.00000E+00
    0.00000E+00         0.00000E+00         0.00000E+00
 
    0.14321E+07         0.38838E+06         0.00000E+00
    0.38838E+06        -0.14273E+07         0.00000E+00
    0.00000E+00         0.00000E+00         0.00000E+00
 
    0.13898E+07         0.41888E+06         0.00000E+00
    0.41888E+06        -0.13866E+07         0.00000E+00
    0.00000E+00         0.00000E+00         0.00000E+00
 
    0.13461E+07         0.44636E+06         0.00000E+00
    0.44636E+06        -0.13439E+07         0.00000E+00
    0.00000E+00         0.00000E+00         0.00000E+00
 
    0.13011E+07         0.47095E+06         0.00000E+00
    0.47095E+06        -0.12996E+07         0.00000E+00
    0.00000E+00         0.00000E+00         0.00000E+00
 
    0.12549E+07         0.49278E+06         0.00000E+00
    0.49278E+06        -0.12540E+07         0.00000E+00
    0.00000E+00         0.00000E+00         0.00000E+00
 
    0.12077E+07         0.51201E+06         0.00000E+00
    0.51201E+06        -0.12071E+07         0.00000E+00
    0.00000E+00         0.00000E+00         0.00000E+00
 
    0.11598E+07         0.52877E+06         0.00000E+00
    0.52877E+06        -0.11594E+07         0.00000E+00
    0.00000E+00         0.00000E+00         0.00000E+00
 
    0.11112E+07         0.54318E+06         0.00000E+00
    0.54318E+06        -0.11110E+07         0.00000E+00
    0.00000E+00         0.00000E+00         0.00000E+00
 
    0.10622E+07         0.55538E+06         0.00000E+00
    0.55538E+06        -0.10620E+07         0.00000E+00
    0.00000E+00         0.00000E+00         0.00000E+00
 
    0.10128E+07         0.56548E+06         0.00000E+00
    0.56548E+06        -0.10127E+07         0.00000E+00
    0.00000E+00         0.00000E+00         0.00000E+00
 
    0.96320E+06         0.57359E+06         0.00000E+00
    0.57359E+06        -0.96315E+06         0.00000E+00
    0.00000E+00         0.00000E+00         0.00000E+00
 
    0.91358E+06         0.57982E+06         0.00000E+00
    0.57982E+06        -0.91355E+06         0.00000E+00
    0.00000E+00         0.00000E+00         0.00000E+00
 
    0.86404E+06         0.58425E+06         0.00000E+00
    0.58425E+06        -0.86402E+06         0.00000E+00
    0.00000E+00         0.00000E+00         0.00000E+00
 
    0.81472E+06         0.58696E+06         0.00000E+00
    0.58696E+06        -0.81470E+06         0.00000E+00
    0.00000E+00         0.00000E+00         0.00000E+00
 
    0.76574E+06         0.58804E+06         0.00000E+00
    0.58804E+06        -0.76572E+06         0.00000E+00
    0.00000E+00         0.00000E+00         0.00000E+00
 
    0.71720E+06         0.58754E+06         0.00000E+00
    0.58754E+06        -0.71718E+06         0.00000E+00
    0.00000E+00         0.00000E+00         0.00000E+00
 
    0.66923E+06         0.58554E+06         0.00000E+00
    0.58554E+06        -0.66921E+06         0.00000E+00
    0.00000E+00         0.00000E+00         0.00000E+00
 
    0.62194E+06         0.58209E+06         0.00000E+00
    0.58209E+06        -0.62190E+06         0.00000E+00
    0.00000E+00         0.00000E+00         0.00000E+00
 
    0.57542E+06         0.57724E+06         0.00000E+00
    0.57724E+06        -0.57538E+06         0.00000E+00
    0.00000E+00         0.00000E+00         0.00000E+00
 
    0.52980E+06         0.57104E+06         0.00000E+00
    0.57104E+06        -0.52975E+06         0.00000E+00
    0.00000E+00         0.00000E+00         0.00000E+00
 
    0.48517E+06         0.56352E+06         0.00000E+00
    0.56352E+06        -0.48511E+06         0.00000E+00
    0.00000E+00         0.00000E+00         0.00000E+00
 
    0.44165E+06         0.55473E+06         0.00000E+00
    0.55473E+06        -0.44158E+06         0.00000E+00
    0.00000E+00         0.00000E+00         0.00000E+00
 
    0.39935E+06         0.54471E+06         0.00000E+00
    0.54471E+06        -0.39927E+06         0.00000E+00
    0.00000E+00         0.00000E+00         0.00000E+00
 
    0.35838E+06         0.53350E+06         0.00000E+00
    0.53350E+06        -0.35829E+06         0.00000E+00
    0.00000E+00         0.00000E+00         0.00000E+00
 
    0.31886E+06         0.52112E+06         0.00000E+00
    0.52112E+06        -0.31875E+06         0.00000E+00
    0.00000E+00         0.00000E+00         0.00000E+00
 
    0.28092E+06         0.50761E+06         0.00000E+00
    0.50761E+06        -0.28078E+06         0.00000E+00
    0.00000E+00         0.00000E+00         0.00000E+00
 
    0.24467E+06         0.49301E+06         0.00000E+00
    0.49301E+06        -0.24451E+06         0.00000E+00
    0.00000E+00         0.00000E+00         0.00000E+00
 
    0.21027E+06         0.47736E+06         0.00000E+00
    0.47736E+06        -0.21006E+06         0.00000E+00
    0.00000E+00         0.00000E+00         0.00000E+00
 
    0.17782E+06         0.46070E+06         0.00000E+00
    0.46070E+06        -0.17757E+06         0.00000E+00
    0.00000E+00         0.00000E+00         0.00000E+00
 
    0.14749E+06         0.44307E+06         0.00000E+00
    0.44307E+06        -0.14716E+06         0.00000E+00
    0.00000E+00         0.00000E+00         0.00000E+00
 
    0.11941E+06         0.42452E+06         0.00000E+00
    0.42452E+06        -0.11897E+06         0.00000E+00
    0.00000E+00         0.00000E+00         0.00000E+00
 
    0.93721E+05         0.40510E+06         0.00000E+00
    0.40510E+06        -0.93135E+05         0.00000E+00
    0.00000E+00         0.00000E+00         0.00000E+00
 
    0.70567E+05         0.38487E+06         0.00000E+00
    0.38487E+06        -0.69775E+05         0.00000E+00
    0.00000E+00         0.00000E+00         0.00000E+00
 
    0.50091E+05         0.36389E+06         0.00000E+00
    0.36389E+06        -0.49008E+05         0.00000E+00
    0.00000E+00         0.00000E+00         0.00000E+00
 
    0.32426E+05         0.34225E+06         0.00000E+00
    0.34225E+06        -0.30940E+05         0.00000E+00
    0.00000E+00         0.00000E+00         0.00000E+00
 
    0.17703E+05         0.32002E+06         0.00000E+00
    0.32002E+06        -0.15657E+05         0.00000E+00
    0.00000E+00         0.00000E+00         0.00000E+00
 
    0.60404E+04         0.29729E+06         0.00000E+00
    0.29729E+06        -0.32244E+04         0.00000E+00
    0.00000E+00         0.00000E+00         0.00000E+00
 
   -0.24569E+04         0.27418E+06         0.00000E+00
    0.27418E+06         0.63198E+04         0.00000E+00
    0.00000E+00         0.00000E+00         0.00000E+00
 
   -0.76987E+04         0.25080E+06         0.00000E+00
    0.25080E+06         0.12971E+05         0.00000E+00
    0.00000E+00         0.00000E+00         0.00000E+00
 
   -0.96137E+04         0.22729E+06         0.00000E+00
    0.22729E+06         0.16764E+05         0.00000E+00
    0.00000E+00         0.00000E+00         0.00000E+00
 
   -0.81516E+04         0.20380E+06         0.00000E+00
    0.20380E+06         0.17775E+05         0.00000E+00
    0.00000E+00         0.00000E+00         0.00000E+00
 
   -0.32858E+04         0.18051E+06         0.00000E+00
    0.18051E+06         0.16131E+05         0.00000E+00
    0.00000E+00         0.00000E+00         0.00000E+00
 
    0.17307E+07         0.29673E+05         0.00000E+00
    0.29673E+05        -0.16537E+07         0.00000E+00
    0.00000E+00         0.00000E+00         0.00000E+00
 
    0.17037E+07         0.87136E+05         0.00000E+00
    0.87136E+05        -0.16460E+07         0.00000E+00
    0.00000E+00         0.00000E+00         0.00000E+00
 
    0.16740E+07         0.14179E+06         0.00000E+00
    0.14179E+06        -0.16314E+07         0.00000E+00
    0.00000E+00         0.00000E+00         0.00000E+00
 
    0.16418E+07         0.19335E+06         0.00000E+00
    0.19335E+06        -0.16108E+07         0.00000E+00
    0.00000E+00         0.00000E+00         0.00000E+00
 
    0.16074E+07         0.24163E+06         0.00000E+00
    0.24163E+06        -0.15850E+07         0.00000E+00
    0.00000E+00         0.00000E+00         0.00000E+00
 
    0.15708E+07         0.28654E+06         0.00000E+00
    0.28654E+06        -0.15549E+07         0.00000E+00
    0.00000E+00         0.00000E+00         0.00000E+00
 
    0.15322E+07         0.32804E+06         0.00000E+00
    0.32804E+06        -0.15210E+07         0.00000E+00
    0.00000E+00         0.00000E+00         0.00000E+00
 
    0.14917E+07         0.36615E+06         0.00000E+00
    0.36615E+06        -0.14840E+07         0.00000E+00
    0.00000E+00         0.00000E+00         0.00000E+00
 
    0.14496E+07         0.40092E+06         0.00000E+00
    0.40092E+06        -0.14443E+07         0.00000E+00
    0.00000E+00         0.00000E+00         0.00000E+00
 
    0.14059E+07         0.43245E+06         0.00000E+00
    0.43245E+06        -0.14024E+07         0.00000E+00
    0.00000E+00         0.00000E+00         0.00000E+00
 
    0.13610E+07         0.46087E+06         0.00000E+00
    0.46087E+06        -0.13586E+07         0.00000E+00
    0.00000E+00         0.00000E+00         0.00000E+00
 
    0.13148E+07         0.48630E+06         0.00000E+00
    0.48630E+06        -0.13132E+07         0.00000E+00
    0.00000E+00         0.00000E+00         0.00000E+00
 
    0.12676E+07         0.50888E+06         0.00000E+00
    0.50888E+06        -0.12665E+07         0.00000E+00
    0.00000E+00         0.00000E+00         0.00000E+00
 
    0.12195E+07         0.52876E+06         0.00000E+00
    0.52876E+06        -0.12188E+07         0.00000E+00
    0.00000E+00         0.00000E+00         0.00000E+00
 
    0.11707E+07         0.54607E+06         0.00000E+00
    0.54607E+06        -0.11703E+07         0.00000E+00
    0.00000E+00         0.00000E+00         0.00000E+00
 
    0.11214E+07         0.56095E+06         0.00000E+00
    0.56095E+06        -0.11211E+07         0.00000E+00
    0.00000E+00         0.00000E+00         0.00000E+00
 
    0.10717E+07         0.57354E+06         0.00000E+00
    0.57354E+06        -0.10715E+07         0.00000E+00
    0.00000E+00         0.00000E+00         0.00000E+00
 
    0.10217E+07         0.58396E+06         0.00000E+00
    0.58396E+06        -0.10216E+07         0.00000E+00
    0.00000E+00         0.00000E+00         0.00000E+00
 
    0.97155E+06         0.59232E+06         0.00000E+00
    0.59232E+06        -0.97150E+06         0.00000E+00
    0.00000E+00         0.00000E+00         0.00000E+00
 
    0.92144E+06         0.59873E+06         0.00000E+00
    0.59873E+06        -0.92141E+06         0.00000E+00
    0.00000E+00         0.00000E+00         0.00000E+00
 
    0.87146E+06         0.60328E+06         0.00000E+00
    0.60328E+06        -0.87143E+06         0.00000E+00
    0.00000E+00         0.00000E+00         0.00000E+00
 
    0.82172E+06         0.60607E+06         0.00000E+00
    0.60607E+06        -0.82170E+06         0.00000E+00
    0.00000E+00         0.00000E+00         0.00000E+00
 
    0.77235E+06         0.60717E+06         0.00000E+00
    0.60717E+06        -0.77233E+06         0.00000E+00
    0.00000E+00         0.00000E+00         0.00000E+00
 
    0.72345E+06         0.60666E+06         0.00000E+00
    0.60666E+06        -0.72344E+06         0.00000E+00
    0.00000E+00         0.00000E+00         0.00000E+00
 
    0.67514E+06         0.60459E+06         0.00000E+00
    0.60459E+06        -0.67512E+06         0.00000E+00
    0.00000E+00         0.00000E+00         0.00000E+00
 
    0.62751E+06         0.60103E+06         0.00000E+00
    0.60103E+06        -0.62748E+06         0.00000E+00
    0.00000E+00         0.00000E+00         0.00000E+00
 
    0.58067E+06         0.59603E+06         0.00000E+00
    0.59603E+06        -0.58064E+06         0.00000E+00
    0.00000E+00         0.00000E+00         0.00000E+00
 
    0.53472E+06         0.58964E+06         0.00000E+00
    0.58964E+06        -0.53468E+06         0.00000E+00
    0.00000E+00         0.00000E+00         0.00000E+00
 
    0.48977E+06         0.58188E+06         0.00000E+00
    0.58188E+06        -0.48972E+06         0.00000E+00
    0.00000E+00         0.00000E+00         0.00000E+00
 
    0.44592E+06         0.57281E+06         0.00000E+00
    0.57281E+06        -0.44587E+06         0.00000E+00
    0.00000E+00         0.00000E+00         0.00000E+00
 
    0.40329E+06         0.56246E+06         0.00000E+00
    0.56246E+06        -0.40322E+06         0.00000E+00
    0.00000E+00         0.00000E+00         0.00000E+00
 
    0.36198E+06         0.55085E+06         0.00000E+00
    0.55085E+06        -0.36190E+06         0.00000E+00
    0.00000E+00         0.00000E+00         0.00000E+00
 
    0.32212E+06         0.53801E+06         0.00000E+00
    0.53801E+06        -0.32202E+06         0.00000E+00
    0.00000E+00         0.00000E+00         0.00000E+00
 
    0.28382E+06         0.52399E+06         0.00000E+00
    0.52399E+06        -0.28370E+06         0.00000E+00
    0.00000E+00         0.00000E+00         0.00000E+00
 
    0.24722E+06         0.50880E+06         0.00000E+00
    0.50880E+06        -0.24707E+06         0.00000E+00
    0.00000E+00         0.00000E+00         0.00000E+00
 
    0.21245E+06         0.49248E+06         0.00000E+00
    0.49248E+06        -0.21225E+06         0.00000E+00
    0.00000E+00         0.00000E+00         0.00000E+00
 
    0.17964E+06         0.47507E+06         0.00000E+00
    0.47507E+06        -0.17938E+06         0.00000E+00
    0.00000E+00         0.00000E+00         0.00000E+00
 
    0.14894E+06         0.45660E+06         0.00000E+00
    0.45660E+06        -0.14860E+06         0.00000E+00
    0.00000E+00         0.00000E+00         0.00000E+00
 
    0.12049E+06         0.43711E+06         0.00000E+00
    0.43711E+06        -0.12005E+06         0.00000E+00
    0.00000E+00         0.00000E+00         0.00000E+00
 
    0.94450E+05         0.41666E+06         0.00000E+00
    0.41666E+06        -0.93845E+05         0.00000E+00
    0.00000E+00         0.00000E+00         0.00000E+00
 
    0.70958E+05         0.39530E+06         0.00000E+00
    0.39530E+06        -0.70133E+05         0.00000E+00
    0.00000E+00         0.00000E+00         0.00000E+00
 
    0.50165E+05         0.37310E+06         0.00000E+00
    0.37310E+06        -0.49031E+05         0.00000E+00
    0.00000E+00         0.00000E+00         0.00000E+00
 
    0.32217E+05         0.35014E+06         0.00000E+00
    0.35014E+06        -0.30651E+05         0.00000E+00
    0.00000E+00         0.00000E+00         0.00000E+00
 
    0.17253E+05         0.32650E+06         0.00000E+00
    0.32650E+06        -0.15088E+05         0.00000E+00
    0.00000E+00         0.00000E+00         0.00000E+00
 
    0.54029E+04         0.30228E+06         0.00000E+00
    0.30228E+06        -0.24166E+04         0.00000E+00
    0.00000E+00         0.00000E+00         0.00000E+00
 
   -0.32129E+04         0.27759E+06         0.00000E+00
    0.27759E+06         0.73167E+04         0.00000E+00
    0.00000E+00         0.00000E+00         0.00000E+00
 
   -0.84889E+04         0.25258E+06         0.00000E+00
    0.25258E+06         0.14096E+05         0.00000E+00
    0.00000E+00         0.00000E+00         0.00000E+00
 
   -0.10336E+05         0.22738E+06         0.00000E+00
    0.22738E+06         0.17944E+05         0.00000E+00
    0.00000E+00         0.00000E+00         0.00000E+00
 
   -0.86857E+04         0.20216E+06         0.00000E+00
    0.20216E+06         0.18925E+05         0.00000E+00
    0.00000E+00         0.00000E+00         0.00000E+00
 
   -0.34892E+04         0.17712E+06         0.00000E+00
    0.17712E+06         0.17150E+05         0.00000E+00
    0.00000E+00         0.00000E+00         0.00000E+00
 
    0.17640E+07         0.30558E+05         0.00000E+00
    0.30558E+05        -0.16800E+07         0.00000E+00
    0.00000E+00         0.00000E+00         0.00000E+00
 
    0.17348E+07         0.89727E+05         0.00000E+00
    0.89727E+05        -0.16719E+07         0.00000E+00
    0.00000E+00         0.00000E+00         0.00000E+00
 
    0.17029E+07         0.14600E+06         0.00000E+00
    0.14600E+06        -0.16565E+07         0.00000E+00
    0.00000E+00         0.00000E+00         0.00000E+00
 
    0.16687E+07         0.19909E+06         0.00000E+00
    0.19909E+06        -0.16349E+07         0.00000E+00
    0.00000E+00         0.00000E+00         0.00000E+00
 
    0.16323E+07         0.24882E+06         0.00000E+00
    0.24882E+06        -0.16079E+07         0.00000E+00
    0.00000E+00         0.00000E+00         0.00000E+00
 
    0.15938E+07         0.29508E+06         0.00000E+00
    0.29508E+06        -0.15765E+07         0.00000E+00
    0.00000E+00         0.00000E+00         0.00000E+00
 
    0.15534E+07         0.33783E+06         0.00000E+00
    0.33783E+06        -0.15413E+07         0.00000E+00
    0.00000E+00         0.00000E+00         0.00000E+00
 
    0.15113E+07         0.37710E+06         0.00000E+00
    0.37710E+06        -0.15029E+07         0.00000E+00
    0.00000E+00         0.00000E+00         0.00000E+00
 
    0.14677E+07         0.41294E+06         0.00000E+00
    0.41294E+06        -0.14619E+07         0.00000E+00
    0.00000E+00         0.00000E+00         0.00000E+00
 
    0.14226E+07         0.44544E+06         0.00000E+00
    0.44544E+06        -0.14187E+07         0.00000E+00
    0.00000E+00         0.00000E+00         0.00000E+00
 
    0.13763E+07         0.47473E+06         0.00000E+00
    0.47473E+06        -0.13737E+07         0.00000E+00
    0.00000E+00         0.00000E+00         0.00000E+00
 
    0.13290E+07         0.50094E+06         0.00000E+00
    0.50094E+06        -0.13273E+07         0.00000E+00
    0.00000E+00         0.00000E+00         0.00000E+00
 
    0.12807E+07         0.52421E+06         0.00000E+00
    0.52421E+06        -0.12796E+07         0.00000E+00
    0.00000E+00         0.00000E+00         0.00000E+00
 
    0.12317E+07         0.54469E+06         0.00000E+00
    0.54469E+06        -0.12310E+07         0.00000E+00
    0.00000E+00         0.00000E+00         0.00000E+00
 
    0.11821E+07         0.56252E+06         0.00000E+00
    0.56252E+06        -0.11816E+07         0.00000E+00
    0.00000E+00         0.00000E+00         0.00000E+00
 
    0.11320E+07         0.57785E+06         0.00000E+00
    0.57785E+06        -0.11317E+07         0.00000E+00
    0.00000E+00         0.00000E+00         0.00000E+00
 
    0.10816E+07         0.59080E+06         0.00000E+00
    0.59080E+06        -0.10814E+07         0.00000E+00
    0.00000E+00         0.00000E+00         0.00000E+00
 
    0.10310E+07         0.60152E+06         0.00000E+00
    0.60152E+06        -0.10309E+07         0.00000E+00
    0.00000E+00         0.00000E+00         0.00000E+00
 
    0.98034E+06         0.61012E+06         0.00000E+00
    0.61012E+06        -0.98028E+06         0.00000E+00
    0.00000E+00         0.00000E+00         0.00000E+00
 
    0.92974E+06         0.61671E+06         0.00000E+00
    0.61671E+06        -0.92971E+06         0.00000E+00
    0.00000E+00         0.00000E+00         0.00000E+00
 
    0.87932E+06         0.62140E+06         0.00000E+00
    0.62140E+06        -0.87930E+06         0.00000E+00
    0.00000E+00         0.00000E+00         0.00000E+00
 
    0.82919E+06         0.62427E+06         0.00000E+00
    0.62427E+06        -0.82918E+06         0.00000E+00
    0.00000E+00         0.00000E+00         0.00000E+00
 
    0.77946E+06         0.62541E+06         0.00000E+00
    0.62541E+06        -0.77945E+06         0.00000E+00
    0.00000E+00         0.00000E+00         0.00000E+00
 
    0.73022E+06         0.62490E+06         0.00000E+00
    0.62490E+06        -0.73021E+06         0.00000E+00
    0.00000E+00         0.00000E+00         0.00000E+00
 
    0.68159E+06         0.62280E+06         0.00000E+00
    0.62280E+06        -0.68157E+06         0.00000E+00
    0.00000E+00         0.00000E+00         0.00000E+00
 
    0.63365E+06         0.61917E+06         0.00000E+00
    0.61917E+06        -0.63363E+06         0.00000E+00
    0.00000E+00         0.00000E+00         0.00000E+00
 
    0.58650E+06         0.61405E+06         0.00000E+00
    0.61405E+06        -0.58648E+06         0.00000E+00
    0.00000E+00         0.00000E+00         0.00000E+00
 
    0.54025E+06         0.60751E+06         0.00000E+00
    0.60751E+06        -0.54022E+06         0.00000E+00
    0.00000E+00         0.00000E+00         0.00000E+00
 
    0.49500E+06         0.59956E+06         0.00000E+00
    0.59956E+06        -0.49496E+06         0.00000E+00
    0.00000E+00         0.00000E+00         0.00000E+00
 
    0.45084E+06         0.59025E+06         0.00000E+00
    0.59025E+06        -0.45079E+06         0.00000E+00
    0.00000E+00         0.00000E+00         0.00000E+00
 
    0.40788E+06         0.57961E+06         0.00000E+00
    0.57961E+06        -0.40782E+06         0.00000E+00
    0.00000E+00         0.00000E+00         0.00000E+00
 
    0.36624E+06         0.56766E+06         0.00000E+00
    0.56766E+06        -0.36616E+06         0.00000E+00
    0.00000E+00         0.00000E+00         0.00000E+00
 
    0.32603E+06         0.55442E+06         0.00000E+00
    0.55442E+06        -0.32593E+06         0.00000E+00
    0.00000E+00         0.00000E+00         0.00000E+00
 
    0.28737E+06         0.53993E+06         0.00000E+00
    0.53993E+06        -0.28725E+06         0.00000E+00
    0.00000E+00         0.00000E+00         0.00000E+00
 
    0.25039E+06         0.52421E+06         0.00000E+00
    0.52421E+06        -0.25024E+06         0.00000E+00
    0.00000E+00         0.00000E+00         0.00000E+00
 
    0.21523E+06         0.50727E+06         0.00000E+00
    0.50727E+06        -0.21503E+06         0.00000E+00
    0.00000E+00         0.00000E+00         0.00000E+00
 
    0.18202E+06         0.48915E+06         0.00000E+00
    0.48915E+06        -0.18176E+06         0.00000E+00
    0.00000E+00         0.00000E+00         0.00000E+00
 
    0.15091E+06         0.46988E+06         0.00000E+00
    0.46988E+06        -0.15057E+06         0.00000E+00
    0.00000E+00         0.00000E+00         0.00000E+00
 
    0.12206E+06         0.44951E+06         0.00000E+00
    0.44951E+06        -0.12160E+06         0.00000E+00
    0.00000E+00         0.00000E+00         0.00000E+00
 
    0.95611E+05         0.42807E+06         0.00000E+00
    0.42807E+06        -0.94989E+05         0.00000E+00
    0.00000E+00         0.00000E+00         0.00000E+00
 
    0.71728E+05         0.40562E+06         0.00000E+00
    0.40562E+06        -0.70871E+05         0.00000E+00
    0.00000E+00         0.00000E+00         0.00000E+00
 
    0.50565E+05         0.38223E+06         0.00000E+00
    0.38223E+06        -0.49379E+05         0.00000E+00
    0.00000E+00         0.00000E+00         0.00000E+00
 
    0.32277E+05         0.35796E+06         0.00000E+00
    0.35796E+06        -0.30632E+05         0.00000E+00
    0.00000E+00         0.00000E+00         0.00000E+00
 
    0.17016E+05         0.33292E+06         0.00000E+00
    0.33292E+06        -0.14736E+05         0.00000E+00
    0.00000E+00         0.00000E+00         0.00000E+00
 
    0.49266E+04         0.30721E+06         0.00000E+00
    0.30721E+06        -0.17733E+04         0.00000E+00
    0.00000E+00         0.00000E+00         0.00000E+00
 
   -0.38555E+04         0.28095E+06         0.00000E+00
    0.28095E+06         0.81960E+04         0.00000E+00
    0.00000E+00         0.00000E+00         0.00000E+00
 
   -0.92073E+04         0.25428E+06         0.00000E+00
    0.25428E+06         0.15144E+05         0.00000E+00
    0.00000E+00         0.00000E+00         0.00000E+00
 
   -0.11020E+05         0.22736E+06         0.00000E+00
    0.22736E+06         0.19080E+05         0.00000E+00
    0.00000E+00         0.00000E+00         0.00000E+00
 
   -0.92045E+04         0.20037E+06         0.00000E+00
    0.20037E+06         0.20052E+05         0.00000E+00
    0.00000E+00         0.00000E+00         0.00000E+00
 
   -0.36896E+04         0.17352E+06         0.00000E+00
    0.17352E+06         0.18158E+05         0.00000E+00
    0.00000E+00         0.00000E+00         0.00000E+00
 
    0.17983E+07         0.31421E+05         0.00000E+00
    0.31421E+05        -0.17071E+07         0.00000E+00
    0.00000E+00         0.00000E+00         0.00000E+00
 
    0.17668E+07         0.92248E+05         0.00000E+00
    0.92248E+05        -0.16985E+07         0.00000E+00
    0.00000E+00         0.00000E+00         0.00000E+00
 
    0.17327E+07         0.15008E+06         0.00000E+00
    0.15008E+06        -0.16824E+07         0.00000E+00
    0.00000E+00         0.00000E+00         0.00000E+00
 
    0.16964E+07         0.20465E+06         0.00000E+00
    0.20465E+06        -0.16597E+07         0.00000E+00
    0.00000E+00         0.00000E+00         0.00000E+00
 
    0.16579E+07         0.25575E+06         0.00000E+00
    0.25575E+06        -0.16315E+07         0.00000E+00
    0.00000E+00         0.00000E+00         0.00000E+00
 
    0.16175E+07         0.30329E+06         0.00000E+00
    0.30329E+06        -0.15987E+07         0.00000E+00
    0.00000E+00         0.00000E+00         0.00000E+00
 
    0.15753E+07         0.34723E+06         0.00000E+00
    0.34723E+06        -0.15622E+07         0.00000E+00
    0.00000E+00         0.00000E+00         0.00000E+00
 
    0.15316E+07         0.38758E+06         0.00000E+00
    0.38758E+06        -0.15224E+07         0.00000E+00
    0.00000E+00         0.00000E+00         0.00000E+00
 
    0.14863E+07         0.42440E+06         0.00000E+00
    0.42440E+06        -0.14801E+07         0.00000E+00
    0.00000E+00         0.00000E+00         0.00000E+00
 
    0.14399E+07         0.45781E+06         0.00000E+00
    0.45781E+06        -0.14356E+07         0.00000E+00
    0.00000E+00         0.00000E+00         0.00000E+00
 
    0.13923E+07         0.48790E+06         0.00000E+00
    0.48790E+06        -0.13894E+07         0.00000E+00
    0.00000E+00         0.00000E+00         0.00000E+00
 
    0.13437E+07         0.51483E+06         0.00000E+00
    0.51483E+06        -0.13418E+07         0.00000E+00
    0.00000E+00         0.00000E+00         0.00000E+00
 
    0.12944E+07         0.53873E+06         0.00000E+00
    0.53873E+06        -0.12931E+07         0.00000E+00
    0.00000E+00         0.00000E+00         0.00000E+00
 
    0.12444E+07         0.55976E+06         0.00000E+00
    0.55976E+06        -0.12436E+07         0.00000E+00
    0.00000E+00         0.00000E+00         0.00000E+00
 
    0.11939E+07         0.57807E+06         0.00000E+00
    0.57807E+06        -0.11934E+07         0.00000E+00
    0.00000E+00         0.00000E+00         0.00000E+00
 
    0.11431E+07         0.59380E+06         0.00000E+00
    0.59380E+06        -0.11428E+07         0.00000E+00
    0.00000E+00         0.00000E+00         0.00000E+00
 
    0.10920E+07         0.60709E+06         0.00000E+00
    0.60709E+06        -0.10918E+07         0.00000E+00
    0.00000E+00         0.00000E+00         0.00000E+00
 
    0.10408E+07         0.61809E+06         0.00000E+00
    0.61809E+06        -0.10407E+07         0.00000E+00
    0.00000E+00         0.00000E+00         0.00000E+00
 
    0.98961E+06         0.62692E+06         0.00000E+00
    0.62692E+06        -0.98954E+06         0.00000E+00
    0.00000E+00         0.00000E+00         0.00000E+00
 
    0.93854E+06         0.63368E+06         0.00000E+00
    0.63368E+06        -0.93850E+06         0.00000E+00
    0.00000E+00         0.00000E+00         0.00000E+00
 
    0.88771E+06         0.63850E+06         0.00000E+00
    0.63850E+06        -0.88769E+06         0.00000E+00
    0.00000E+00         0.00000E+00         0.00000E+00
 
    0.83720E+06         0.64147E+06         0.00000E+00
    0.64147E+06        -0.83719E+06         0.00000E+00
    0.00000E+00         0.00000E+00         0.00000E+00
 
    0.78713E+06         0.64267E+06         0.00000E+00
    0.64267E+06        -0.78712E+06         0.00000E+00
    0.00000E+00         0.00000E+00         0.00000E+00
 
    0.73759E+06         0.64219E+06         0.00000E+00
    0.64219E+06        -0.73758E+06         0.00000E+00
    0.00000E+00         0.00000E+00         0.00000E+00
 
    0.68865E+06         0.64008E+06         0.00000E+00
    0.64008E+06        -0.68865E+06         0.00000E+00
    0.00000E+00         0.00000E+00         0.00000E+00
 
    0.64043E+06         0.63640E+06         0.00000E+00
    0.63640E+06        -0.64042E+06         0.00000E+00
    0.00000E+00         0.00000E+00         0.00000E+00
 
    0.59301E+06         0.63122E+06         0.00000E+00
    0.63122E+06        -0.59300E+06         0.00000E+00
    0.00000E+00         0.00000E+00         0.00000E+00
 
    0.54648E+06         0.62456E+06         0.00000E+00
    0.62456E+06        -0.54646E+06         0.00000E+00
    0.00000E+00         0.00000E+00         0.00000E+00
 
    0.50094E+06         0.61648E+06         0.00000E+00
    0.61648E+06        -0.50091E+06         0.00000E+00
    0.00000E+00         0.00000E+00         0.00000E+00
 
    0.45648E+06         0.60698E+06         0.00000E+00
    0.60698E+06        -0.45644E+06         0.00000E+00
    0.00000E+00         0.00000E+00         0.00000E+00
 
    0.41321E+06         0.59611E+06         0.00000E+00
    0.59611E+06        -0.41316E+06         0.00000E+00
    0.00000E+00         0.00000E+00         0.00000E+00
 
    0.37124E+06         0.58387E+06         0.00000E+00
    0.58387E+06        -0.37117E+06         0.00000E+00
    0.00000E+00         0.00000E+00         0.00000E+00
 
    0.33067E+06         0.57030E+06         0.00000E+00
    0.57030E+06        -0.33059E+06         0.00000E+00
    0.00000E+00         0.00000E+00         0.00000E+00
 
    0.29164E+06         0.55540E+06         0.00000E+00
    0.55540E+06        -0.29153E+06         0.00000E+00
    0.00000E+00         0.00000E+00         0.00000E+00
 
    0.25427E+06         0.53919E+06         0.00000E+00
    0.53919E+06        -0.25413E+06         0.00000E+00
    0.00000E+00         0.00000E+00         0.00000E+00
 
    0.21869E+06         0.52169E+06         0.00000E+00
    0.52169E+06        -0.21851E+06         0.00000E+00
    0.00000E+00         0.00000E+00         0.00000E+00
 
    0.18506E+06         0.50293E+06         0.00000E+00
    0.50293E+06        -0.18480E+06         0.00000E+00
    0.00000E+00         0.00000E+00         0.00000E+00
 
    0.15350E+06         0.48292E+06         0.00000E+00
    0.48292E+06        -0.15317E+06         0.00000E+00
    0.00000E+00         0.00000E+00         0.00000E+00
 
    0.12420E+06         0.46171E+06         0.00000E+00
    0.46171E+06        -0.12373E+06         0.00000E+00
    0.00000E+00         0.00000E+00         0.00000E+00
 
    0.97298E+05         0.43933E+06         0.00000E+00
    0.43933E+06        -0.96658E+05         0.00000E+00
    0.00000E+00         0.00000E+00         0.00000E+00
 
    0.72967E+05         0.41583E+06         0.00000E+00
    0.41583E+06        -0.72081E+05         0.00000E+00
    0.00000E+00         0.00000E+00         0.00000E+00
 
    0.51374E+05         0.39128E+06         0.00000E+00
    0.39128E+06        -0.50141E+05         0.00000E+00
    0.00000E+00         0.00000E+00         0.00000E+00
 
    0.32685E+05         0.36574E+06         0.00000E+00
    0.36574E+06        -0.30967E+05         0.00000E+00
    0.00000E+00         0.00000E+00         0.00000E+00
 
    0.17066E+05         0.33932E+06         0.00000E+00
    0.33932E+06        -0.14677E+05         0.00000E+00
    0.00000E+00         0.00000E+00         0.00000E+00
 
    0.46778E+04         0.31212E+06         0.00000E+00
    0.31212E+06        -0.13660E+04         0.00000E+00
    0.00000E+00         0.00000E+00         0.00000E+00
 
   -0.43275E+04         0.28428E+06         0.00000E+00
    0.28428E+06         0.88932E+04         0.00000E+00
    0.00000E+00         0.00000E+00         0.00000E+00
 
   -0.98068E+04         0.25593E+06         0.00000E+00
    0.25593E+06         0.16058E+05         0.00000E+00
    0.00000E+00         0.00000E+00         0.00000E+00
 
   -0.11631E+05         0.22725E+06         0.00000E+00
    0.22725E+06         0.20121E+05         0.00000E+00
    0.00000E+00         0.00000E+00         0.00000E+00
 
   -0.96861E+04         0.19844E+06         0.00000E+00
    0.19844E+06         0.21116E+05         0.00000E+00
    0.00000E+00         0.00000E+00         0.00000E+00
 
   -0.38794E+04         0.16972E+06         0.00000E+00
    0.16972E+06         0.19123E+05         0.00000E+00
    0.00000E+00         0.00000E+00         0.00000E+00
 
    0.18336E+07         0.32259E+05         0.00000E+00
    0.32259E+05        -0.17348E+07         0.00000E+00
    0.00000E+00         0.00000E+00         0.00000E+00
 
    0.17997E+07         0.94690E+05         0.00000E+00
    0.94690E+05        -0.17258E+07         0.00000E+00
    0.00000E+00         0.00000E+00         0.00000E+00
 
    0.17634E+07         0.15403E+06         0.00000E+00
    0.15403E+06        -0.17089E+07         0.00000E+00
    0.00000E+00         0.00000E+00         0.00000E+00
 
    0.17248E+07         0.21000E+06         0.00000E+00
    0.21000E+06        -0.16851E+07         0.00000E+00
    0.00000E+00         0.00000E+00         0.00000E+00
 
    0.16843E+07         0.26241E+06         0.00000E+00
    0.26241E+06        -0.16557E+07         0.00000E+00
    0.00000E+00         0.00000E+00         0.00000E+00
 
    0.16419E+07         0.31115E+06         0.00000E+00
    0.31115E+06        -0.16216E+07         0.00000E+00
    0.00000E+00         0.00000E+00         0.00000E+00
 
    0.15979E+07         0.35619E+06         0.00000E+00
    0.35619E+06        -0.15836E+07         0.00000E+00
    0.00000E+00         0.00000E+00         0.00000E+00
 
    0.15524E+07         0.39755E+06         0.00000E+00
    0.39755E+06        -0.15425E+07         0.00000E+00
    0.00000E+00         0.00000E+00         0.00000E+00
 
    0.15056E+07         0.43529E+06         0.00000E+00
    0.43529E+06        -0.14988E+07         0.00000E+00
    0.00000E+00         0.00000E+00         0.00000E+00
 
    0.14576E+07         0.46951E+06         0.00000E+00
    0.46951E+06        -0.14530E+07         0.00000E+00
    0.00000E+00         0.00000E+00         0.00000E+00
 
    0.14087E+07         0.50034E+06         0.00000E+00
    0.50034E+06        -0.14056E+07         0.00000E+00
    0.00000E+00         0.00000E+00         0.00000E+00
 
    0.13589E+07         0.52791E+06         0.00000E+00
    0.52791E+06        -0.13569E+07         0.00000E+00
    0.00000E+00         0.00000E+00         0.00000E+00
 
    0.13085E+07         0.55238E+06         0.00000E+00
    0.55238E+06        -0.13072E+07         0.00000E+00
    0.00000E+00         0.00000E+00         0.00000E+00
 
    0.12576E+07         0.57391E+06         0.00000E+00
    0.57391E+06        -0.12567E+07         0.00000E+00
    0.00000E+00         0.00000E+00         0.00000E+00
 
    0.12062E+07         0.59264E+06         0.00000E+00
    0.59264E+06        -0.12057E+07         0.00000E+00
    0.00000E+00         0.00000E+00         0.00000E+00
 
    0.11546E+07         0.60873E+06         0.00000E+00
    0.60873E+06        -0.11543E+07         0.00000E+00
    0.00000E+00         0.00000E+00         0.00000E+00
 
    0.11029E+07         0.62233E+06         0.00000E+00
    0.62233E+06        -0.11026E+07         0.00000E+00
    0.00000E+00         0.00000E+00         0.00000E+00
 
    0.10511E+07         0.63359E+06         0.00000E+00
    0.63359E+06        -0.10509E+07         0.00000E+00
    0.00000E+00         0.00000E+00         0.00000E+00
 
    0.99938E+06         0.64262E+06         0.00000E+00
    0.64262E+06        -0.99931E+06         0.00000E+00
    0.00000E+00         0.00000E+00         0.00000E+00
 
    0.94788E+06         0.64956E+06         0.00000E+00
    0.64956E+06        -0.94783E+06         0.00000E+00
    0.00000E+00         0.00000E+00         0.00000E+00
 
    0.89666E+06         0.65451E+06         0.00000E+00
    0.65451E+06        -0.89663E+06         0.00000E+00
    0.00000E+00         0.00000E+00         0.00000E+00
 
    0.84581E+06         0.65758E+06         0.00000E+00
    0.65758E+06        -0.84580E+06         0.00000E+00
    0.00000E+00         0.00000E+00         0.00000E+00
 
    0.79543E+06         0.65886E+06         0.00000E+00
    0.65886E+06        -0.79543E+06         0.00000E+00
    0.00000E+00         0.00000E+00         0.00000E+00
 
    0.74561E+06         0.65842E+06         0.00000E+00
    0.65842E+06        -0.74560E+06         0.00000E+00
    0.00000E+00         0.00000E+00         0.00000E+00
 
    0.69642E+06         0.65633E+06         0.00000E+00
    0.65633E+06        -0.69641E+06         0.00000E+00
    0.00000E+00         0.00000E+00         0.00000E+00
 
    0.64795E+06         0.65266E+06         0.00000E+00
    0.65266E+06        -0.64794E+06         0.00000E+00
    0.00000E+00         0.00000E+00         0.00000E+00
 
    0.60028E+06         0.64744E+06         0.00000E+00
    0.64744E+06        -0.60027E+06         0.00000E+00
    0.00000E+00         0.00000E+00         0.00000E+00
 
    0.55350E+06         0.64073E+06         0.00000E+00
    0.64073E+06        -0.55348E+06         0.00000E+00
    0.00000E+00         0.00000E+00         0.00000E+00
 
    0.50769E+06         0.63255E+06         0.00000E+00
    0.63255E+06        -0.50767E+06         0.00000E+00
    0.00000E+00         0.00000E+00         0.00000E+00
 
    0.46296E+06         0.62292E+06         0.00000E+00
    0.62292E+06        -0.46293E+06         0.00000E+00
    0.00000E+00         0.00000E+00         0.00000E+00
 
    0.41939E+06         0.61188E+06         0.00000E+00
    0.61188E+06        -0.41935E+06         0.00000E+00
    0.00000E+00         0.00000E+00         0.00000E+00
 
    0.37709E+06         0.59942E+06         0.00000E+00
    0.59942E+06        -0.37703E+06         0.00000E+00
    0.00000E+00         0.00000E+00         0.00000E+00
 
    0.33617E+06         0.58557E+06         0.00000E+00
    0.58557E+06        -0.33610E+06         0.00000E+00
    0.00000E+00         0.00000E+00         0.00000E+00
 
    0.29676E+06         0.57033E+06         0.00000E+00
    0.57033E+06        -0.29666E+06         0.00000E+00
    0.00000E+00         0.00000E+00         0.00000E+00
 
    0.25898E+06         0.55371E+06         0.00000E+00
    0.55371E+06        -0.25884E+06         0.00000E+00
    0.00000E+00         0.00000E+00         0.00000E+00
 
    0.22296E+06         0.53573E+06         0.00000E+00
    0.53573E+06        -0.22278E+06         0.00000E+00
    0.00000E+00         0.00000E+00         0.00000E+00
 
    0.18886E+06         0.51638E+06         0.00000E+00
    0.51638E+06        -0.18861E+06         0.00000E+00
    0.00000E+00         0.00000E+00         0.00000E+00
 
    0.15682E+06         0.49570E+06         0.00000E+00
    0.49570E+06        -0.15649E+06         0.00000E+00
    0.00000E+00         0.00000E+00         0.00000E+00
 
    0.12702E+06         0.47371E+06         0.00000E+00
    0.47371E+06        -0.12655E+06         0.00000E+00
    0.00000E+00         0.00000E+00         0.00000E+00
 
    0.99610E+05         0.45044E+06         0.00000E+00
    0.45044E+06        -0.98957E+05         0.00000E+00
    0.00000E+00         0.00000E+00         0.00000E+00
 
    0.74772E+05         0.42594E+06         0.00000E+00
    0.42594E+06        -0.73861E+05         0.00000E+00
    0.00000E+00         0.00000E+00         0.00000E+00
 
    0.52685E+05         0.40027E+06         0.00000E+00
    0.40027E+06        -0.51410E+05         0.00000E+00
    0.00000E+00         0.00000E+00         0.00000E+00
 
    0.33529E+05         0.37349E+06         0.00000E+00
    0.37349E+06        -0.31746E+05         0.00000E+00
    0.00000E+00         0.00000E+00         0.00000E+00
 
    0.17484E+05         0.34571E+06         0.00000E+00
    0.34571E+06        -0.14995E+05         0.00000E+00
    0.00000E+00         0.00000E+00         0.00000E+00
 
    0.47275E+04         0.31703E+06         0.00000E+00
    0.31703E+06        -0.12711E+04         0.00000E+00
    0.00000E+00         0.00000E+00         0.00000E+00
 
   -0.45676E+04         0.28760E+06         0.00000E+00
    0.28760E+06         0.93396E+04         0.00000E+00
    0.00000E+00         0.00000E+00         0.00000E+00
 
   -0.10237E+05         0.25755E+06         0.00000E+00
    0.25755E+06         0.16777E+05         0.00000E+00
    0.00000E+00         0.00000E+00         0.00000E+00
 
   -0.12130E+05         0.22708E+06         0.00000E+00
    0.22708E+06         0.21017E+05         0.00000E+00
    0.00000E+00         0.00000E+00         0.00000E+00
 
   -0.10107E+05         0.19640E+06         0.00000E+00
    0.19640E+06         0.22075E+05         0.00000E+00
    0.00000E+00         0.00000E+00         0.00000E+00
 
   -0.40505E+04         0.16574E+06         0.00000E+00
    0.16574E+06         0.20010E+05         0.00000E+00
    0.00000E+00         0.00000E+00         0.00000E+00
 
    0.18699E+07         0.33068E+05         0.00000E+00
    0.33068E+05        -0.17633E+07         0.00000E+00
    0.00000E+00         0.00000E+00         0.00000E+00
 
    0.18335E+07         0.97041E+05         0.00000E+00
    0.97041E+05        -0.17538E+07         0.00000E+00
    0.00000E+00         0.00000E+00         0.00000E+00
 
    0.17948E+07         0.15782E+06         0.00000E+00
    0.15782E+06        -0.17360E+07         0.00000E+00
    0.00000E+00         0.00000E+00         0.00000E+00
 
    0.17540E+07         0.21512E+06         0.00000E+00
    0.21512E+06        -0.17112E+07         0.00000E+00
    0.00000E+00         0.00000E+00         0.00000E+00
 
    0.17113E+07         0.26876E+06         0.00000E+00
    0.26876E+06        -0.16806E+07         0.00000E+00
    0.00000E+00         0.00000E+00         0.00000E+00
 
    0.16669E+07         0.31862E+06         0.00000E+00
    0.31862E+06        -0.16451E+07         0.00000E+00
    0.00000E+00         0.00000E+00         0.00000E+00
 
    0.16210E+07         0.36469E+06         0.00000E+00
    0.36469E+06        -0.16057E+07         0.00000E+00
    0.00000E+00         0.00000E+00         0.00000E+00
 
    0.15738E+07         0.40697E+06         0.00000E+00
    0.40697E+06        -0.15631E+07         0.00000E+00
    0.00000E+00         0.00000E+00         0.00000E+00
 
    0.15253E+07         0.44554E+06         0.00000E+00
    0.44554E+06        -0.15180E+07         0.00000E+00
    0.00000E+00         0.00000E+00         0.00000E+00
 
    0.14759E+07         0.48050E+06         0.00000E+00
    0.48050E+06        -0.14709E+07         0.00000E+00
    0.00000E+00         0.00000E+00         0.00000E+00
 
    0.14256E+07         0.51198E+06         0.00000E+00
    0.51198E+06        -0.14223E+07         0.00000E+00
    0.00000E+00         0.00000E+00         0.00000E+00
 
    0.13746E+07         0.54013E+06         0.00000E+00
    0.54013E+06        -0.13724E+07         0.00000E+00
    0.00000E+00         0.00000E+00         0.00000E+00
 
    0.13231E+07         0.56510E+06         0.00000E+00
    0.56510E+06        -0.13217E+07         0.00000E+00
    0.00000E+00         0.00000E+00         0.00000E+00
 
    0.12712E+07         0.58706E+06         0.00000E+00
    0.58706E+06        -0.12702E+07         0.00000E+00
    0.00000E+00         0.00000E+00         0.00000E+00
 
    0.12190E+07         0.60616E+06         0.00000E+00
    0.60616E+06        -0.12184E+07         0.00000E+00
    0.00000E+00         0.00000E+00         0.00000E+00
 
    0.11666E+07         0.62258E+06         0.00000E+00
    0.62258E+06        -0.11662E+07         0.00000E+00
    0.00000E+00         0.00000E+00         0.00000E+00
 
    0.11142E+07         0.63645E+06         0.00000E+00
    0.63645E+06        -0.11140E+07         0.00000E+00
    0.00000E+00         0.00000E+00         0.00000E+00
 
    0.10619E+07         0.64793E+06         0.00000E+00
    0.64793E+06        -0.10617E+07         0.00000E+00
    0.00000E+00         0.00000E+00         0.00000E+00
 
    0.10097E+07         0.65715E+06         0.00000E+00
    0.65715E+06        -0.10096E+07         0.00000E+00
    0.00000E+00         0.00000E+00         0.00000E+00
 
    0.95780E+06         0.66425E+06         0.00000E+00
    0.66425E+06        -0.95775E+06         0.00000E+00
    0.00000E+00         0.00000E+00         0.00000E+00
 
    0.90622E+06         0.66933E+06         0.00000E+00
    0.66933E+06        -0.90619E+06         0.00000E+00
    0.00000E+00         0.00000E+00         0.00000E+00
 
    0.85507E+06         0.67251E+06         0.00000E+00
    0.67251E+06        -0.85506E+06         0.00000E+00
    0.00000E+00         0.00000E+00         0.00000E+00
 
    0.80443E+06         0.67387E+06         0.00000E+00
    0.67387E+06        -0.80442E+06         0.00000E+00
    0.00000E+00         0.00000E+00         0.00000E+00
 
    0.75436E+06         0.67350E+06         0.00000E+00
    0.67350E+06        -0.75436E+06         0.00000E+00
    0.00000E+00         0.00000E+00         0.00000E+00
 
    0.70495E+06         0.67147E+06         0.00000E+00
    0.67147E+06        -0.70495E+06         0.00000E+00
    0.00000E+00         0.00000E+00         0.00000E+00
 
    0.65627E+06         0.66783E+06         0.00000E+00
    0.66783E+06        -0.65627E+06         0.00000E+00
    0.00000E+00         0.00000E+00         0.00000E+00
 
    0.60839E+06         0.66263E+06         0.00000E+00
    0.66263E+06        -0.60839E+06         0.00000E+00
    0.00000E+00         0.00000E+00         0.00000E+00
 
    0.56139E+06         0.65590E+06         0.00000E+00
    0.65590E+06        -0.56139E+06         0.00000E+00
    0.00000E+00         0.00000E+00         0.00000E+00
 
    0.51535E+06         0.64769E+06         0.00000E+00
    0.64769E+06        -0.51534E+06         0.00000E+00
    0.00000E+00         0.00000E+00         0.00000E+00
 
    0.47036E+06         0.63800E+06         0.00000E+00
    0.63800E+06        -0.47034E+06         0.00000E+00
    0.00000E+00         0.00000E+00         0.00000E+00
 
    0.42651E+06         0.62685E+06         0.00000E+00
    0.62685E+06        -0.42648E+06         0.00000E+00
    0.00000E+00         0.00000E+00         0.00000E+00
 
    0.38390E+06         0.61425E+06         0.00000E+00
    0.61425E+06        -0.38385E+06         0.00000E+00
    0.00000E+00         0.00000E+00         0.00000E+00
 
    0.34263E+06         0.60019E+06         0.00000E+00
    0.60019E+06        -0.34257E+06         0.00000E+00
    0.00000E+00         0.00000E+00         0.00000E+00
 
    0.30283E+06         0.58469E+06         0.00000E+00
    0.58469E+06        -0.30274E+06         0.00000E+00
    0.00000E+00         0.00000E+00         0.00000E+00
 
    0.26462E+06         0.56774E+06         0.00000E+00
    0.56774E+06        -0.26450E+06         0.00000E+00
    0.00000E+00         0.00000E+00         0.00000E+00
 
    0.22815E+06         0.54934E+06         0.00000E+00
    0.54934E+06        -0.22797E+06         0.00000E+00
    0.00000E+00         0.00000E+00         0.00000E+00
 
    0.19355E+06         0.52949E+06         0.00000E+00
    0.52949E+06        -0.19331E+06         0.00000E+00
    0.00000E+00         0.00000E+00         0.00000E+00
 
    0.16099E+06         0.50821E+06         0.00000E+00
    0.50821E+06        -0.16065E+06         0.00000E+00
    0.00000E+00         0.00000E+00         0.00000E+00
 
    0.13063E+06         0.48550E+06         0.00000E+00
    0.48550E+06        -0.13016E+06         0.00000E+00
    0.00000E+00         0.00000E+00         0.00000E+00
 
    0.10266E+06         0.46141E+06         0.00000E+00
    0.46141E+06        -0.10200E+06         0.00000E+00
    0.00000E+00         0.00000E+00         0.00000E+00
 
    0.77250E+05         0.43596E+06         0.00000E+00
    0.43596E+06        -0.76320E+05         0.00000E+00
    0.00000E+00         0.00000E+00         0.00000E+00
 
    0.54600E+05         0.40921E+06         0.00000E+00
    0.40921E+06        -0.53291E+05         0.00000E+00
    0.00000E+00         0.00000E+00         0.00000E+00
 
    0.34902E+05         0.38123E+06         0.00000E+00
    0.38123E+06        -0.33063E+05         0.00000E+00
    0.00000E+00         0.00000E+00         0.00000E+00
 
    0.18354E+05         0.35211E+06         0.00000E+00
    0.35211E+06        -0.15781E+05         0.00000E+00
    0.00000E+00         0.00000E+00         0.00000E+00
 
    0.51522E+04         0.32197E+06         0.00000E+00
    0.32197E+06        -0.15707E+04         0.00000E+00
    0.00000E+00         0.00000E+00         0.00000E+00
 
   -0.45101E+04         0.29094E+06         0.00000E+00
    0.29094E+06         0.94617E+04         0.00000E+00
    0.00000E+00         0.00000E+00         0.00000E+00
 
   -0.10446E+05         0.25917E+06         0.00000E+00
    0.25917E+06         0.17238E+05         0.00000E+00
    0.00000E+00         0.00000E+00         0.00000E+00
 
   -0.12478E+05         0.22688E+06         0.00000E+00
    0.22688E+06         0.21714E+05         0.00000E+00
    0.00000E+00         0.00000E+00         0.00000E+00
 
   -0.10443E+05         0.19426E+06         0.00000E+00
    0.19426E+06         0.22884E+05         0.00000E+00
    0.00000E+00         0.00000E+00         0.00000E+00
 
   -0.41946E+04         0.16158E+06         0.00000E+00
    0.16158E+06         0.20786E+05         0.00000E+00
    0.00000E+00         0.00000E+00         0.00000E+00
 
    0.19070E+07         0.33844E+05         0.00000E+00
    0.33844E+05        -0.17923E+07         0.00000E+00
    0.00000E+00         0.00000E+00         0.00000E+00
 
    0.18681E+07         0.99291E+05         0.00000E+00
    0.99291E+05        -0.17824E+07         0.00000E+00
    0.00000E+00         0.00000E+00         0.00000E+00
 
    0.18270E+07         0.16144E+06         0.00000E+00
    0.16144E+06        -0.17638E+07         0.00000E+00
    0.00000E+00         0.00000E+00         0.00000E+00
 
    0.17839E+07         0.21999E+06         0.00000E+00
    0.21999E+06        -0.17379E+07         0.00000E+00
    0.00000E+00         0.00000E+00         0.00000E+00
 
    0.17390E+07         0.27478E+06         0.00000E+00
    0.27478E+06        -0.17059E+07         0.00000E+00
    0.00000E+00         0.00000E+00         0.00000E+00
 
    0.16926E+07         0.32568E+06         0.00000E+00
    0.32568E+06        -0.16691E+07         0.00000E+00
    0.00000E+00         0.00000E+00         0.00000E+00
 
    0.16447E+07         0.37268E+06         0.00000E+00
    0.37268E+06        -0.16282E+07         0.00000E+00
    0.00000E+00         0.00000E+00         0.00000E+00
 
    0.15957E+07         0.41580E+06         0.00000E+00
    0.41580E+06        -0.15842E+07         0.00000E+00
    0.00000E+00         0.00000E+00         0.00000E+00
 
    0.15456E+07         0.45511E+06         0.00000E+00
    0.45511E+06        -0.15377E+07         0.00000E+00
    0.00000E+00         0.00000E+00         0.00000E+00
 
    0.14947E+07         0.49073E+06         0.00000E+00
    0.49073E+06        -0.14893E+07         0.00000E+00
    0.00000E+00         0.00000E+00         0.00000E+00
 
    0.14430E+07         0.52278E+06         0.00000E+00
    0.52278E+06        -0.14394E+07         0.00000E+00
    0.00000E+00         0.00000E+00         0.00000E+00
 
    0.13908E+07         0.55143E+06         0.00000E+00
    0.55143E+06        -0.13884E+07         0.00000E+00
    0.00000E+00         0.00000E+00         0.00000E+00
 
    0.13382E+07         0.57683E+06         0.00000E+00
    0.57683E+06        -0.13366E+07         0.00000E+00
    0.00000E+00         0.00000E+00         0.00000E+00
 
    0.12853E+07         0.59915E+06         0.00000E+00
    0.59915E+06        -0.12843E+07         0.00000E+00
    0.00000E+00         0.00000E+00         0.00000E+00
 
    0.12323E+07         0.61857E+06         0.00000E+00
    0.61857E+06        -0.12316E+07         0.00000E+00
    0.00000E+00         0.00000E+00         0.00000E+00
 
    0.11792E+07         0.63525E+06         0.00000E+00
    0.63525E+06        -0.11787E+07         0.00000E+00
    0.00000E+00         0.00000E+00         0.00000E+00
 
    0.11261E+07         0.64934E+06         0.00000E+00
    0.64934E+06        -0.11259E+07         0.00000E+00
    0.00000E+00         0.00000E+00         0.00000E+00
 
    0.10733E+07         0.66101E+06         0.00000E+00
    0.66101E+06        -0.10731E+07         0.00000E+00
    0.00000E+00         0.00000E+00         0.00000E+00
 
    0.10206E+07         0.67040E+06         0.00000E+00
    0.67040E+06        -0.10205E+07         0.00000E+00
    0.00000E+00         0.00000E+00         0.00000E+00
 
    0.96834E+06         0.67764E+06         0.00000E+00
    0.67764E+06        -0.96828E+06         0.00000E+00
    0.00000E+00         0.00000E+00         0.00000E+00
 
    0.91645E+06         0.68285E+06         0.00000E+00
    0.68285E+06        -0.91642E+06         0.00000E+00
    0.00000E+00         0.00000E+00         0.00000E+00
 
    0.86504E+06         0.68614E+06         0.00000E+00
    0.68614E+06        -0.86503E+06         0.00000E+00
    0.00000E+00         0.00000E+00         0.00000E+00
 
    0.81418E+06         0.68761E+06         0.00000E+00
    0.68761E+06        -0.81417E+06         0.00000E+00
    0.00000E+00         0.00000E+00         0.00000E+00
 
    0.76392E+06         0.68733E+06         0.00000E+00
    0.68733E+06        -0.76392E+06         0.00000E+00
    0.00000E+00         0.00000E+00         0.00000E+00
 
    0.71434E+06         0.68538E+06         0.00000E+00
    0.68538E+06        -0.71434E+06         0.00000E+00
    0.00000E+00         0.00000E+00         0.00000E+00
 
    0.66549E+06         0.68181E+06         0.00000E+00
    0.68181E+06        -0.66550E+06         0.00000E+00
    0.00000E+00         0.00000E+00         0.00000E+00
 
    0.61744E+06         0.67668E+06         0.00000E+00
    0.67668E+06        -0.61745E+06         0.00000E+00
    0.00000E+00         0.00000E+00         0.00000E+00
 
    0.57026E+06         0.67000E+06         0.00000E+00
    0.67000E+06        -0.57027E+06         0.00000E+00
    0.00000E+00         0.00000E+00         0.00000E+00
 
    0.52403E+06         0.66182E+06         0.00000E+00
    0.66182E+06        -0.52403E+06         0.00000E+00
    0.00000E+00         0.00000E+00         0.00000E+00
 
    0.47881E+06         0.65213E+06         0.00000E+00
    0.65213E+06        -0.47880E+06         0.00000E+00
    0.00000E+00         0.00000E+00         0.00000E+00
 
    0.43469E+06         0.64095E+06         0.00000E+00
    0.64095E+06        -0.43468E+06         0.00000E+00
    0.00000E+00         0.00000E+00         0.00000E+00
 
    0.39178E+06         0.62828E+06         0.00000E+00
    0.62828E+06        -0.39175E+06         0.00000E+00
    0.00000E+00         0.00000E+00         0.00000E+00
 
    0.35017E+06         0.61410E+06         0.00000E+00
    0.61410E+06        -0.35012E+06         0.00000E+00
    0.00000E+00         0.00000E+00         0.00000E+00
 
    0.30998E+06         0.59842E+06         0.00000E+00
    0.59842E+06        -0.30990E+06         0.00000E+00
    0.00000E+00         0.00000E+00         0.00000E+00
 
    0.27133E+06         0.58122E+06         0.00000E+00
    0.58122E+06        -0.27122E+06         0.00000E+00
    0.00000E+00         0.00000E+00         0.00000E+00
 
    0.23437E+06         0.56249E+06         0.00000E+00
    0.56249E+06        -0.23421E+06         0.00000E+00
    0.00000E+00         0.00000E+00         0.00000E+00
 
    0.19925E+06         0.54222E+06         0.00000E+00
    0.54222E+06        -0.19902E+06         0.00000E+00
    0.00000E+00         0.00000E+00         0.00000E+00
 
    0.16612E+06         0.52042E+06         0.00000E+00
    0.52042E+06        -0.16579E+06         0.00000E+00
    0.00000E+00         0.00000E+00         0.00000E+00
 
    0.13516E+06         0.49708E+06         0.00000E+00
    0.49708E+06        -0.13469E+06         0.00000E+00
    0.00000E+00         0.00000E+00         0.00000E+00
 
    0.10656E+06         0.47223E+06         0.00000E+00
    0.47223E+06        -0.10590E+06         0.00000E+00
    0.00000E+00         0.00000E+00         0.00000E+00
 
    0.80515E+05         0.44590E+06         0.00000E+00
    0.44590E+06        -0.79572E+05         0.00000E+00
    0.00000E+00         0.00000E+00         0.00000E+00
 
    0.57226E+05         0.41813E+06         0.00000E+00
    0.41813E+06        -0.55892E+05         0.00000E+00
    0.00000E+00         0.00000E+00         0.00000E+00
 
    0.36906E+05         0.38899E+06         0.00000E+00
    0.38899E+06        -0.35024E+05         0.00000E+00
    0.00000E+00         0.00000E+00         0.00000E+00
 
    0.19769E+05         0.35856E+06         0.00000E+00
    0.35856E+06        -0.17130E+05         0.00000E+00
    0.00000E+00         0.00000E+00         0.00000E+00
 
    0.60335E+04         0.32696E+06         0.00000E+00
    0.32696E+06        -0.23525E+04         0.00000E+00
    0.00000E+00         0.00000E+00         0.00000E+00
 
   -0.40852E+04         0.29433E+06         0.00000E+00
    0.29433E+06         0.91813E+04         0.00000E+00
    0.00000E+00         0.00000E+00         0.00000E+00
 
   -0.10375E+05         0.26083E+06         0.00000E+00
    0.26083E+06         0.17372E+05         0.00000E+00
    0.00000E+00         0.00000E+00         0.00000E+00
 
   -0.12633E+05         0.22667E+06         0.00000E+00
    0.22667E+06         0.22153E+05         0.00000E+00
    0.00000E+00         0.00000E+00         0.00000E+00
 
   -0.10667E+05         0.19206E+06         0.00000E+00
    0.19206E+06         0.23495E+05         0.00000E+00
    0.00000E+00         0.00000E+00         0.00000E+00
 
   -0.43027E+04         0.15729E+06         0.00000E+00
    0.15729E+06         0.21413E+05         0.00000E+00
    0.00000E+00         0.00000E+00         0.00000E+00
 
    0.19451E+07         0.34584E+05         0.00000E+00
    0.34584E+05        -0.18220E+07         0.00000E+00
    0.00000E+00         0.00000E+00         0.00000E+00
 
    0.19036E+07         0.10143E+06         0.00000E+00
    0.10143E+06        -0.18116E+07         0.00000E+00
    0.00000E+00         0.00000E+00         0.00000E+00
 
    0.18599E+07         0.16486E+06         0.00000E+00
    0.16486E+06        -0.17921E+07         0.00000E+00
    0.00000E+00         0.00000E+00         0.00000E+00
 
    0.18145E+07         0.22459E+06         0.00000E+00
    0.22459E+06        -0.17651E+07         0.00000E+00
    0.00000E+00         0.00000E+00         0.00000E+00
 
    0.17673E+07         0.28043E+06         0.00000E+00
    0.28043E+06        -0.17318E+07         0.00000E+00
    0.00000E+00         0.00000E+00         0.00000E+00
 
    0.17188E+07         0.33228E+06         0.00000E+00
    0.33228E+06        -0.16935E+07         0.00000E+00
    0.00000E+00         0.00000E+00         0.00000E+00
 
    0.16690E+07         0.38012E+06         0.00000E+00
    0.38012E+06        -0.16512E+07         0.00000E+00
    0.00000E+00         0.00000E+00         0.00000E+00
 
    0.16181E+07         0.42399E+06         0.00000E+00
    0.42399E+06        -0.16058E+07         0.00000E+00
    0.00000E+00         0.00000E+00         0.00000E+00
 
    0.15663E+07         0.46395E+06         0.00000E+00
    0.46395E+06        -0.15579E+07         0.00000E+00
    0.00000E+00         0.00000E+00         0.00000E+00
 
    0.15139E+07         0.50013E+06         0.00000E+00
    0.50013E+06        -0.15081E+07         0.00000E+00
    0.00000E+00         0.00000E+00         0.00000E+00
 
    0.14608E+07         0.53267E+06         0.00000E+00
    0.53267E+06        -0.14570E+07         0.00000E+00
    0.00000E+00         0.00000E+00         0.00000E+00
 
    0.14074E+07         0.56173E+06         0.00000E+00
    0.56173E+06        -0.14048E+07         0.00000E+00
    0.00000E+00         0.00000E+00         0.00000E+00
 
    0.13537E+07         0.58748E+06         0.00000E+00
    0.58748E+06        -0.13520E+07         0.00000E+00
    0.00000E+00         0.00000E+00         0.00000E+00
 
    0.12999E+07         0.61010E+06         0.00000E+00
    0.61010E+06        -0.12987E+07         0.00000E+00
    0.00000E+00         0.00000E+00         0.00000E+00
 
    0.12460E+07         0.62977E+06         0.00000E+00
    0.62977E+06        -0.12453E+07         0.00000E+00
    0.00000E+00         0.00000E+00         0.00000E+00
 
    0.11922E+07         0.64665E+06         0.00000E+00
    0.64665E+06        -0.11917E+07         0.00000E+00
    0.00000E+00         0.00000E+00         0.00000E+00
 
    0.11386E+07         0.66093E+06         0.00000E+00
    0.66093E+06        -0.11383E+07         0.00000E+00
    0.00000E+00         0.00000E+00         0.00000E+00
 
    0.10852E+07         0.67275E+06         0.00000E+00
    0.67275E+06        -0.10850E+07         0.00000E+00
    0.00000E+00         0.00000E+00         0.00000E+00
 
    0.10322E+07         0.68228E+06         0.00000E+00
    0.68228E+06        -0.10321E+07         0.00000E+00
    0.00000E+00         0.00000E+00         0.00000E+00
 
    0.97954E+06         0.68964E+06         0.00000E+00
    0.68964E+06        -0.97948E+06         0.00000E+00
    0.00000E+00         0.00000E+00         0.00000E+00
 
    0.92739E+06         0.69497E+06         0.00000E+00
    0.69497E+06        -0.92736E+06         0.00000E+00
    0.00000E+00         0.00000E+00         0.00000E+00
 
    0.87578E+06         0.69838E+06         0.00000E+00
    0.69838E+06        -0.87576E+06         0.00000E+00
    0.00000E+00         0.00000E+00         0.00000E+00
 
    0.82475E+06         0.69995E+06         0.00000E+00
    0.69995E+06        -0.82475E+06         0.00000E+00
    0.00000E+00         0.00000E+00         0.00000E+00
 
    0.77435E+06         0.69979E+06         0.00000E+00
    0.69979E+06        -0.77436E+06         0.00000E+00
    0.00000E+00         0.00000E+00         0.00000E+00
 
    0.72465E+06         0.69796E+06         0.00000E+00
    0.69796E+06        -0.72467E+06         0.00000E+00
    0.00000E+00         0.00000E+00         0.00000E+00
 
    0.67569E+06         0.69451E+06         0.00000E+00
    0.69451E+06        -0.67571E+06         0.00000E+00
    0.00000E+00         0.00000E+00         0.00000E+00
 
    0.62753E+06         0.68949E+06         0.00000E+00
    0.68949E+06        -0.62755E+06         0.00000E+00
    0.00000E+00         0.00000E+00         0.00000E+00
 
    0.58022E+06         0.68292E+06         0.00000E+00
    0.68292E+06        -0.58023E+06         0.00000E+00
    0.00000E+00         0.00000E+00         0.00000E+00
 
    0.53382E+06         0.67483E+06         0.00000E+00
    0.67483E+06        -0.53383E+06         0.00000E+00
    0.00000E+00         0.00000E+00         0.00000E+00
 
    0.48841E+06         0.66522E+06         0.00000E+00
    0.66522E+06        -0.48842E+06         0.00000E+00
    0.00000E+00         0.00000E+00         0.00000E+00
 
    0.44406E+06         0.65409E+06         0.00000E+00
    0.65409E+06        -0.44406E+06         0.00000E+00
    0.00000E+00         0.00000E+00         0.00000E+00
 
    0.40086E+06         0.64144E+06         0.00000E+00
    0.64144E+06        -0.40085E+06         0.00000E+00
    0.00000E+00         0.00000E+00         0.00000E+00
 
    0.35892E+06         0.62724E+06         0.00000E+00
    0.62724E+06        -0.35889E+06         0.00000E+00
    0.00000E+00         0.00000E+00         0.00000E+00
 
    0.31834E+06         0.61147E+06         0.00000E+00
    0.61147E+06        -0.31828E+06         0.00000E+00
    0.00000E+00         0.00000E+00         0.00000E+00
 
    0.27924E+06         0.59411E+06         0.00000E+00
    0.59411E+06        -0.27915E+06         0.00000E+00
    0.00000E+00         0.00000E+00         0.00000E+00
 
    0.24178E+06         0.57515E+06         0.00000E+00
    0.57515E+06        -0.24163E+06         0.00000E+00
    0.00000E+00         0.00000E+00         0.00000E+00
 
    0.20609E+06         0.55455E+06         0.00000E+00
    0.55455E+06        -0.20587E+06         0.00000E+00
    0.00000E+00         0.00000E+00         0.00000E+00
 
    0.17235E+06         0.53232E+06         0.00000E+00
    0.53232E+06        -0.17203E+06         0.00000E+00
    0.00000E+00         0.00000E+00         0.00000E+00
 
    0.14074E+06         0.50843E+06         0.00000E+00
    0.50843E+06        -0.14027E+06         0.00000E+00
    0.00000E+00         0.00000E+00         0.00000E+00
 
    0.11145E+06         0.48291E+06         0.00000E+00
    0.48291E+06        -0.11078E+06         0.00000E+00
    0.00000E+00         0.00000E+00         0.00000E+00
 
    0.84688E+05         0.45576E+06         0.00000E+00
    0.45576E+06        -0.83742E+05         0.00000E+00
    0.00000E+00         0.00000E+00         0.00000E+00
 
    0.60680E+05         0.42703E+06         0.00000E+00
    0.42703E+06        -0.59332E+05         0.00000E+00
    0.00000E+00         0.00000E+00         0.00000E+00
 
    0.39648E+05         0.39678E+06         0.00000E+00
    0.39678E+06        -0.37741E+05         0.00000E+00
    0.00000E+00         0.00000E+00         0.00000E+00
 
    0.21828E+05         0.36508E+06         0.00000E+00
    0.36508E+06        -0.19145E+05         0.00000E+00
    0.00000E+00         0.00000E+00         0.00000E+00
 
    0.74593E+04         0.33205E+06         0.00000E+00
    0.33205E+06        -0.37103E+04         0.00000E+00
    0.00000E+00         0.00000E+00         0.00000E+00
 
   -0.32178E+04         0.29782E+06         0.00000E+00
    0.29782E+06         0.84149E+04         0.00000E+00
    0.00000E+00         0.00000E+00         0.00000E+00
 
   -0.99650E+04         0.26257E+06         0.00000E+00
    0.26257E+06         0.17107E+05         0.00000E+00
    0.00000E+00         0.00000E+00         0.00000E+00
 
   -0.12550E+05         0.22650E+06         0.00000E+00
    0.22650E+06         0.22274E+05         0.00000E+00
    0.00000E+00         0.00000E+00         0.00000E+00
 
   -0.10753E+05         0.18985E+06         0.00000E+00
    0.18985E+06         0.23859E+05         0.00000E+00
    0.00000E+00         0.00000E+00         0.00000E+00
 
   -0.43655E+04         0.15290E+06         0.00000E+00
    0.15290E+06         0.21851E+05         0.00000E+00
    0.00000E+00         0.00000E+00         0.00000E+00
 
    0.19841E+07         0.35282E+05         0.00000E+00
    0.35282E+05        -0.18522E+07         0.00000E+00
    0.00000E+00         0.00000E+00         0.00000E+00
 
    0.19398E+07         0.10344E+06         0.00000E+00
    0.10344E+06        -0.18413E+07         0.00000E+00
    0.00000E+00         0.00000E+00         0.00000E+00
 
    0.18936E+07         0.16806E+06         0.00000E+00
    0.16806E+06        -0.18210E+07         0.00000E+00
    0.00000E+00         0.00000E+00         0.00000E+00
 
    0.18457E+07         0.22887E+06         0.00000E+00
    0.22887E+06        -0.17928E+07         0.00000E+00
    0.00000E+00         0.00000E+00         0.00000E+00
 
    0.17962E+07         0.28568E+06         0.00000E+00
    0.28568E+06        -0.17582E+07         0.00000E+00
    0.00000E+00         0.00000E+00         0.00000E+00
 
    0.17455E+07         0.33839E+06         0.00000E+00
    0.33839E+06        -0.17185E+07         0.00000E+00
    0.00000E+00         0.00000E+00         0.00000E+00
 
    0.16937E+07         0.38697E+06         0.00000E+00
    0.38697E+06        -0.16747E+07         0.00000E+00
    0.00000E+00         0.00000E+00         0.00000E+00
 
    0.16409E+07         0.43148E+06         0.00000E+00
    0.43148E+06        -0.16277E+07         0.00000E+00
    0.00000E+00         0.00000E+00         0.00000E+00
 
    0.15875E+07         0.47200E+06         0.00000E+00
    0.47200E+06        -0.15784E+07         0.00000E+00
    0.00000E+00         0.00000E+00         0.00000E+00
 
    0.15335E+07         0.50865E+06         0.00000E+00
    0.50865E+06        -0.15273E+07         0.00000E+00
    0.00000E+00         0.00000E+00         0.00000E+00
 
    0.14791E+07         0.54158E+06         0.00000E+00
    0.54158E+06        -0.14749E+07         0.00000E+00
    0.00000E+00         0.00000E+00         0.00000E+00
 
    0.14244E+07         0.57096E+06         0.00000E+00
    0.57096E+06        -0.14216E+07         0.00000E+00
    0.00000E+00         0.00000E+00         0.00000E+00
 
    0.13697E+07         0.59698E+06         0.00000E+00
    0.59698E+06        -0.13678E+07         0.00000E+00
    0.00000E+00         0.00000E+00         0.00000E+00
 
    0.13149E+07         0.61982E+06         0.00000E+00
    0.61982E+06        -0.13137E+07         0.00000E+00
    0.00000E+00         0.00000E+00         0.00000E+00
 
    0.12602E+07         0.63966E+06         0.00000E+00
    0.63966E+06        -0.12594E+07         0.00000E+00
    0.00000E+00         0.00000E+00         0.00000E+00
 
    0.12057E+07         0.65670E+06         0.00000E+00
    0.65670E+06        -0.12052E+07         0.00000E+00
    0.00000E+00         0.00000E+00         0.00000E+00
 
    0.11515E+07         0.67110E+06         0.00000E+00
    0.67110E+06        -0.11512E+07         0.00000E+00
    0.00000E+00         0.00000E+00         0.00000E+00
 
    0.10977E+07         0.68304E+06         0.00000E+00
    0.68304E+06        -0.10975E+07         0.00000E+00
    0.00000E+00         0.00000E+00         0.00000E+00
 
    0.10443E+07         0.69267E+06         0.00000E+00
    0.69267E+06        -0.10442E+07         0.00000E+00
    0.00000E+00         0.00000E+00         0.00000E+00
 
    0.99145E+06         0.70013E+06         0.00000E+00
    0.70013E+06        -0.99138E+06         0.00000E+00
    0.00000E+00         0.00000E+00         0.00000E+00
 
    0.93910E+06         0.70557E+06         0.00000E+00
    0.70557E+06        -0.93906E+06         0.00000E+00
    0.00000E+00         0.00000E+00         0.00000E+00
 
    0.88734E+06         0.70909E+06         0.00000E+00
    0.70909E+06        -0.88732E+06         0.00000E+00
    0.00000E+00         0.00000E+00         0.00000E+00
 
    0.83620E+06         0.71079E+06         0.00000E+00
    0.71079E+06        -0.83620E+06         0.00000E+00
    0.00000E+00         0.00000E+00         0.00000E+00
 
    0.78574E+06         0.71077E+06         0.00000E+00
    0.71077E+06        -0.78575E+06         0.00000E+00
    0.00000E+00         0.00000E+00         0.00000E+00
 
    0.73598E+06         0.70909E+06         0.00000E+00
    0.70909E+06        -0.73600E+06         0.00000E+00
    0.00000E+00         0.00000E+00         0.00000E+00
 
    0.68697E+06         0.70580E+06         0.00000E+00
    0.70580E+06        -0.68700E+06         0.00000E+00
    0.00000E+00         0.00000E+00         0.00000E+00
 
    0.63875E+06         0.70095E+06         0.00000E+00
    0.70095E+06        -0.63878E+06         0.00000E+00
    0.00000E+00         0.00000E+00         0.00000E+00
 
    0.59136E+06         0.69455E+06         0.00000E+00
    0.69455E+06        -0.59138E+06         0.00000E+00
    0.00000E+00         0.00000E+00         0.00000E+00
 
    0.54485E+06         0.68663E+06         0.00000E+00
    0.68663E+06        -0.54488E+06         0.00000E+00
    0.00000E+00         0.00000E+00         0.00000E+00
 
    0.49929E+06         0.67718E+06         0.00000E+00
    0.67718E+06        -0.49931E+06         0.00000E+00
    0.00000E+00         0.00000E+00         0.00000E+00
 
    0.45474E+06         0.66620E+06         0.00000E+00
    0.66620E+06        -0.45475E+06         0.00000E+00
    0.00000E+00         0.00000E+00         0.00000E+00
 
    0.41128E+06         0.65365E+06         0.00000E+00
    0.65365E+06        -0.41128E+06         0.00000E+00
    0.00000E+00         0.00000E+00         0.00000E+00
 
    0.36902E+06         0.63952E+06         0.00000E+00
    0.63952E+06        -0.36900E+06         0.00000E+00
    0.00000E+00         0.00000E+00         0.00000E+00
 
    0.32805E+06         0.62377E+06         0.00000E+00
    0.62377E+06        -0.32800E+06         0.00000E+00
    0.00000E+00         0.00000E+00         0.00000E+00
 
    0.28850E+06         0.60637E+06         0.00000E+00
    0.60637E+06        -0.28842E+06         0.00000E+00
    0.00000E+00         0.00000E+00         0.00000E+00
 
    0.25050E+06         0.58727E+06         0.00000E+00
    0.58727E+06        -0.25037E+06         0.00000E+00
    0.00000E+00         0.00000E+00         0.00000E+00
 
    0.21422E+06         0.56646E+06         0.00000E+00
    0.56646E+06        -0.21402E+06         0.00000E+00
    0.00000E+00         0.00000E+00         0.00000E+00
 
    0.17982E+06         0.54389E+06         0.00000E+00
    0.54389E+06        -0.17952E+06         0.00000E+00
    0.00000E+00         0.00000E+00         0.00000E+00
 
    0.14750E+06         0.51956E+06         0.00000E+00
    0.51956E+06        -0.14705E+06         0.00000E+00
    0.00000E+00         0.00000E+00         0.00000E+00
 
    0.11745E+06         0.49345E+06         0.00000E+00
    0.49345E+06        -0.11680E+06         0.00000E+00
    0.00000E+00         0.00000E+00         0.00000E+00
 
    0.89904E+05         0.46557E+06         0.00000E+00
    0.46557E+06        -0.88963E+05         0.00000E+00
    0.00000E+00         0.00000E+00         0.00000E+00
 
    0.65086E+05         0.43595E+06         0.00000E+00
    0.43595E+06        -0.63740E+05         0.00000E+00
    0.00000E+00         0.00000E+00         0.00000E+00
 
    0.43245E+05         0.40464E+06         0.00000E+00
    0.40464E+06        -0.41331E+05         0.00000E+00
    0.00000E+00         0.00000E+00         0.00000E+00
 
    0.24636E+05         0.37171E+06         0.00000E+00
    0.37171E+06        -0.21937E+05         0.00000E+00
    0.00000E+00         0.00000E+00         0.00000E+00
 
    0.95232E+04         0.33727E+06         0.00000E+00
    0.33727E+06        -0.57443E+04         0.00000E+00
    0.00000E+00         0.00000E+00         0.00000E+00
 
   -0.18279E+04         0.30145E+06         0.00000E+00
    0.30145E+06         0.70732E+04         0.00000E+00
    0.00000E+00         0.00000E+00         0.00000E+00
 
   -0.91503E+04         0.26443E+06         0.00000E+00
    0.26443E+06         0.16365E+05         0.00000E+00
    0.00000E+00         0.00000E+00         0.00000E+00
 
   -0.12182E+05         0.22642E+06         0.00000E+00
    0.22642E+06         0.22010E+05         0.00000E+00
    0.00000E+00         0.00000E+00         0.00000E+00
 
   -0.10669E+05         0.18767E+06         0.00000E+00
    0.18767E+06         0.23922E+05         0.00000E+00
    0.00000E+00         0.00000E+00         0.00000E+00
 
   -0.43727E+04         0.14847E+06         0.00000E+00
    0.14847E+06         0.22059E+05         0.00000E+00
    0.00000E+00         0.00000E+00         0.00000E+00
 
    0.20239E+07         0.35935E+05         0.00000E+00
    0.35935E+05        -0.18828E+07         0.00000E+00
    0.00000E+00         0.00000E+00         0.00000E+00
 
    0.19768E+07         0.10531E+06         0.00000E+00
    0.10531E+06        -0.18715E+07         0.00000E+00
    0.00000E+00         0.00000E+00         0.00000E+00
 
    0.19279E+07         0.17104E+06         0.00000E+00
    0.17104E+06        -0.18503E+07         0.00000E+00
    0.00000E+00         0.00000E+00         0.00000E+00
 
    0.18774E+07         0.23283E+06         0.00000E+00
    0.23283E+06        -0.18209E+07         0.00000E+00
    0.00000E+00         0.00000E+00         0.00000E+00
 
    0.18256E+07         0.29049E+06         0.00000E+00
    0.29049E+06        -0.17850E+07         0.00000E+00
    0.00000E+00         0.00000E+00         0.00000E+00
 
    0.17727E+07         0.34395E+06         0.00000E+00
    0.34395E+06        -0.17438E+07         0.00000E+00
    0.00000E+00         0.00000E+00         0.00000E+00
 
    0.17188E+07         0.39318E+06         0.00000E+00
    0.39318E+06        -0.16985E+07         0.00000E+00
    0.00000E+00         0.00000E+00         0.00000E+00
 
    0.16642E+07         0.43823E+06         0.00000E+00
    0.43823E+06        -0.16501E+07         0.00000E+00
    0.00000E+00         0.00000E+00         0.00000E+00
 
    0.16090E+07         0.47919E+06         0.00000E+00
    0.47919E+06        -0.15993E+07         0.00000E+00
    0.00000E+00         0.00000E+00         0.00000E+00
 
    0.15535E+07         0.51620E+06         0.00000E+00
    0.51620E+06        -0.15469E+07         0.00000E+00
    0.00000E+00         0.00000E+00         0.00000E+00
 
    0.14977E+07         0.54943E+06         0.00000E+00
    0.54943E+06        -0.14932E+07         0.00000E+00
    0.00000E+00         0.00000E+00         0.00000E+00
 
    0.14418E+07         0.57904E+06         0.00000E+00
    0.57904E+06        -0.14388E+07         0.00000E+00
    0.00000E+00         0.00000E+00         0.00000E+00
 
    0.13860E+07         0.60524E+06         0.00000E+00
    0.60524E+06        -0.13840E+07         0.00000E+00
    0.00000E+00         0.00000E+00         0.00000E+00
 
    0.13303E+07         0.62821E+06         0.00000E+00
    0.62821E+06        -0.13290E+07         0.00000E+00
    0.00000E+00         0.00000E+00         0.00000E+00
 
    0.12749E+07         0.64816E+06         0.00000E+00
    0.64816E+06        -0.12740E+07         0.00000E+00
    0.00000E+00         0.00000E+00         0.00000E+00
 
    0.12198E+07         0.66527E+06         0.00000E+00
    0.66527E+06        -0.12192E+07         0.00000E+00
    0.00000E+00         0.00000E+00         0.00000E+00
 
    0.11651E+07         0.67975E+06         0.00000E+00
    0.67975E+06        -0.11647E+07         0.00000E+00
    0.00000E+00         0.00000E+00         0.00000E+00
 
    0.11109E+07         0.69175E+06         0.00000E+00
    0.69175E+06        -0.11106E+07         0.00000E+00
    0.00000E+00         0.00000E+00         0.00000E+00
 
    0.10572E+07         0.70145E+06         0.00000E+00
    0.70145E+06        -0.10570E+07         0.00000E+00
    0.00000E+00         0.00000E+00         0.00000E+00
 
    0.10041E+07         0.70899E+06         0.00000E+00
    0.70899E+06        -0.10040E+07         0.00000E+00
    0.00000E+00         0.00000E+00         0.00000E+00
 
    0.95161E+06         0.71452E+06         0.00000E+00
    0.71452E+06        -0.95156E+06         0.00000E+00
    0.00000E+00         0.00000E+00         0.00000E+00
 
    0.89977E+06         0.71816E+06         0.00000E+00
    0.71816E+06        -0.89976E+06         0.00000E+00
    0.00000E+00         0.00000E+00         0.00000E+00
 
    0.84861E+06         0.72000E+06         0.00000E+00
    0.72000E+06        -0.84861E+06         0.00000E+00
    0.00000E+00         0.00000E+00         0.00000E+00
 
    0.79815E+06         0.72014E+06         0.00000E+00
    0.72014E+06        -0.79817E+06         0.00000E+00
    0.00000E+00         0.00000E+00         0.00000E+00
 
    0.74841E+06         0.71864E+06         0.00000E+00
    0.71864E+06        -0.74844E+06         0.00000E+00
    0.00000E+00         0.00000E+00         0.00000E+00
 
    0.69942E+06         0.71556E+06         0.00000E+00
    0.71556E+06        -0.69946E+06         0.00000E+00
    0.00000E+00         0.00000E+00         0.00000E+00
 
    0.65121E+06         0.71094E+06         0.00000E+00
    0.71094E+06        -0.65124E+06         0.00000E+00
    0.00000E+00         0.00000E+00         0.00000E+00
 
    0.60380E+06         0.70479E+06         0.00000E+00
    0.70479E+06        -0.60384E+06         0.00000E+00
    0.00000E+00         0.00000E+00         0.00000E+00
 
    0.55724E+06         0.69712E+06         0.00000E+00
    0.69712E+06        -0.55728E+06         0.00000E+00
    0.00000E+00         0.00000E+00         0.00000E+00
 
    0.51157E+06         0.68791E+06         0.00000E+00
    0.68791E+06        -0.51161E+06         0.00000E+00
    0.00000E+00         0.00000E+00         0.00000E+00
 
    0.46686E+06         0.67716E+06         0.00000E+00
    0.67716E+06        -0.46689E+06         0.00000E+00
    0.00000E+00         0.00000E+00         0.00000E+00
 
    0.42318E+06         0.66483E+06         0.00000E+00
    0.66483E+06        -0.42320E+06         0.00000E+00
    0.00000E+00         0.00000E+00         0.00000E+00
 
    0.38061E+06         0.65088E+06         0.00000E+00
    0.65088E+06        -0.38061E+06         0.00000E+00
    0.00000E+00         0.00000E+00         0.00000E+00
 
    0.33926E+06         0.63526E+06         0.00000E+00
    0.63526E+06        -0.33923E+06         0.00000E+00
    0.00000E+00         0.00000E+00         0.00000E+00
 
    0.29924E+06         0.61793E+06         0.00000E+00
    0.61793E+06        -0.29918E+06         0.00000E+00
    0.00000E+00         0.00000E+00         0.00000E+00
 
    0.26070E+06         0.59882E+06         0.00000E+00
    0.59882E+06        -0.26059E+06         0.00000E+00
    0.00000E+00         0.00000E+00         0.00000E+00
 
    0.22380E+06         0.57790E+06         0.00000E+00
    0.57790E+06        -0.22361E+06         0.00000E+00
    0.00000E+00         0.00000E+00         0.00000E+00
 
    0.18870E+06         0.55512E+06         0.00000E+00
    0.55512E+06        -0.18841E+06         0.00000E+00
    0.00000E+00         0.00000E+00         0.00000E+00
 
    0.15560E+06         0.53044E+06         0.00000E+00
    0.53044E+06        -0.15517E+06         0.00000E+00
    0.00000E+00         0.00000E+00         0.00000E+00
 
    0.12473E+06         0.50385E+06         0.00000E+00
    0.50385E+06        -0.12409E+06         0.00000E+00
    0.00000E+00         0.00000E+00         0.00000E+00
 
    0.96302E+05         0.47533E+06         0.00000E+00
    0.47533E+06        -0.95380E+05         0.00000E+00
    0.00000E+00         0.00000E+00         0.00000E+00
 
    0.70578E+05         0.44490E+06         0.00000E+00
    0.44490E+06        -0.69250E+05         0.00000E+00
    0.00000E+00         0.00000E+00         0.00000E+00
 
    0.47821E+05         0.41260E+06         0.00000E+00
    0.41260E+06        -0.45924E+05         0.00000E+00
    0.00000E+00         0.00000E+00         0.00000E+00
 
    0.28307E+05         0.37849E+06         0.00000E+00
    0.37849E+06        -0.25624E+05         0.00000E+00
    0.00000E+00         0.00000E+00         0.00000E+00
 
    0.12326E+05         0.34267E+06         0.00000E+00
    0.34267E+06        -0.85621E+04         0.00000E+00
    0.00000E+00         0.00000E+00         0.00000E+00
 
    0.17017E+03         0.30528E+06         0.00000E+00
    0.30528E+06         0.50608E+04         0.00000E+00
    0.00000E+00         0.00000E+00         0.00000E+00
 
   -0.78619E+04         0.26648E+06         0.00000E+00
    0.26648E+06         0.15064E+05         0.00000E+00
    0.00000E+00         0.00000E+00         0.00000E+00
 
   -0.11476E+05         0.22649E+06         0.00000E+00
    0.22649E+06         0.21293E+05         0.00000E+00
    0.00000E+00         0.00000E+00         0.00000E+00
 
   -0.10385E+05         0.18558E+06         0.00000E+00
    0.18558E+06         0.23628E+05         0.00000E+00
    0.00000E+00         0.00000E+00         0.00000E+00
 
   -0.43136E+04         0.14405E+06         0.00000E+00
    0.14405E+06         0.21992E+05         0.00000E+00
    0.00000E+00         0.00000E+00         0.00000E+00
 
    0.20644E+07         0.36538E+05         0.00000E+00
    0.36538E+05        -0.19139E+07         0.00000E+00
    0.00000E+00         0.00000E+00         0.00000E+00
 
    0.20144E+07         0.10703E+06         0.00000E+00
    0.10703E+06        -0.19021E+07         0.00000E+00
    0.00000E+00         0.00000E+00         0.00000E+00
 
    0.19628E+07         0.17375E+06         0.00000E+00
    0.17375E+06        -0.18800E+07         0.00000E+00
    0.00000E+00         0.00000E+00         0.00000E+00
 
    0.19097E+07         0.23641E+06         0.00000E+00
    0.23641E+06        -0.18495E+07         0.00000E+00
    0.00000E+00         0.00000E+00         0.00000E+00
 
    0.18555E+07         0.29483E+06         0.00000E+00
    0.29483E+06        -0.18122E+07         0.00000E+00
    0.00000E+00         0.00000E+00         0.00000E+00
 
    0.18003E+07         0.34893E+06         0.00000E+00
    0.34893E+06        -0.17695E+07         0.00000E+00
    0.00000E+00         0.00000E+00         0.00000E+00
 
    0.17443E+07         0.39868E+06         0.00000E+00
    0.39868E+06        -0.17227E+07         0.00000E+00
    0.00000E+00         0.00000E+00         0.00000E+00
 
    0.16878E+07         0.44416E+06         0.00000E+00
    0.44416E+06        -0.16728E+07         0.00000E+00
    0.00000E+00         0.00000E+00         0.00000E+00
 
    0.16309E+07         0.48546E+06         0.00000E+00
    0.48546E+06        -0.16206E+07         0.00000E+00
    0.00000E+00         0.00000E+00         0.00000E+00
 
    0.15738E+07         0.52273E+06         0.00000E+00
    0.52273E+06        -0.15668E+07         0.00000E+00
    0.00000E+00         0.00000E+00         0.00000E+00
 
    0.15167E+07         0.55614E+06         0.00000E+00
    0.55614E+06        -0.15119E+07         0.00000E+00
    0.00000E+00         0.00000E+00         0.00000E+00
 
    0.14596E+07         0.58588E+06         0.00000E+00
    0.58588E+06        -0.14564E+07         0.00000E+00
    0.00000E+00         0.00000E+00         0.00000E+00
 
    0.14027E+07         0.61216E+06         0.00000E+00
    0.61216E+06        -0.14006E+07         0.00000E+00
    0.00000E+00         0.00000E+00         0.00000E+00
 
    0.13462E+07         0.63517E+06         0.00000E+00
    0.63517E+06        -0.13447E+07         0.00000E+00
    0.00000E+00         0.00000E+00         0.00000E+00
 
    0.12900E+07         0.65515E+06         0.00000E+00
    0.65515E+06        -0.12891E+07         0.00000E+00
    0.00000E+00         0.00000E+00         0.00000E+00
 
    0.12343E+07         0.67227E+06         0.00000E+00
    0.67227E+06        -0.12337E+07         0.00000E+00
    0.00000E+00         0.00000E+00         0.00000E+00
 
    0.11792E+07         0.68675E+06         0.00000E+00
    0.68675E+06        -0.11788E+07         0.00000E+00
    0.00000E+00         0.00000E+00         0.00000E+00
 
    0.11246E+07         0.69877E+06         0.00000E+00
    0.69877E+06        -0.11244E+07         0.00000E+00
    0.00000E+00         0.00000E+00         0.00000E+00
 
    0.10707E+07         0.70849E+06         0.00000E+00
    0.70849E+06        -0.10706E+07         0.00000E+00
    0.00000E+00         0.00000E+00         0.00000E+00
 
    0.10175E+07         0.71609E+06         0.00000E+00
    0.71609E+06        -0.10174E+07         0.00000E+00
    0.00000E+00         0.00000E+00         0.00000E+00
 
    0.96496E+06         0.72170E+06         0.00000E+00
    0.72170E+06        -0.96492E+06         0.00000E+00
    0.00000E+00         0.00000E+00         0.00000E+00
 
    0.91314E+06         0.72545E+06         0.00000E+00
    0.72545E+06        -0.91312E+06         0.00000E+00
    0.00000E+00         0.00000E+00         0.00000E+00
 
    0.86204E+06         0.72744E+06         0.00000E+00
    0.72744E+06        -0.86204E+06         0.00000E+00
    0.00000E+00         0.00000E+00         0.00000E+00
 
    0.81166E+06         0.72776E+06         0.00000E+00
    0.72776E+06        -0.81168E+06         0.00000E+00
    0.00000E+00         0.00000E+00         0.00000E+00
 
    0.76203E+06         0.72649E+06         0.00000E+00
    0.72649E+06        -0.76206E+06         0.00000E+00
    0.00000E+00         0.00000E+00         0.00000E+00
 
    0.71314E+06         0.72367E+06         0.00000E+00
    0.72367E+06        -0.71318E+06         0.00000E+00
    0.00000E+00         0.00000E+00         0.00000E+00
 
    0.66501E+06         0.71933E+06         0.00000E+00
    0.71933E+06        -0.66506E+06         0.00000E+00
    0.00000E+00         0.00000E+00         0.00000E+00
 
    0.61766E+06         0.71350E+06         0.00000E+00
    0.71350E+06        -0.61771E+06         0.00000E+00
    0.00000E+00         0.00000E+00         0.00000E+00
 
    0.57111E+06         0.70616E+06         0.00000E+00
    0.70616E+06        -0.57116E+06         0.00000E+00
    0.00000E+00         0.00000E+00         0.00000E+00
 
    0.52540E+06         0.69731E+06         0.00000E+00
    0.69731E+06        -0.52545E+06         0.00000E+00
    0.00000E+00         0.00000E+00         0.00000E+00
 
    0.48057E+06         0.68690E+06         0.00000E+00
    0.68690E+06        -0.48062E+06         0.00000E+00
    0.00000E+00         0.00000E+00         0.00000E+00
 
    0.43670E+06         0.67489E+06         0.00000E+00
    0.67489E+06        -0.43673E+06         0.00000E+00
    0.00000E+00         0.00000E+00         0.00000E+00
 
    0.39385E+06         0.66124E+06         0.00000E+00
    0.66124E+06        -0.39387E+06         0.00000E+00
    0.00000E+00         0.00000E+00         0.00000E+00
 
    0.35213E+06         0.64588E+06         0.00000E+00
    0.64588E+06        -0.35212E+06         0.00000E+00
    0.00000E+00         0.00000E+00         0.00000E+00
 
    0.31165E+06         0.62874E+06         0.00000E+00
    0.62874E+06        -0.31161E+06         0.00000E+00
    0.00000E+00         0.00000E+00         0.00000E+00
 
    0.27255E+06         0.60975E+06         0.00000E+00
    0.60975E+06        -0.27246E+06         0.00000E+00
    0.00000E+00         0.00000E+00         0.00000E+00
 
    0.23498E+06         0.58885E+06         0.00000E+00
    0.58885E+06        -0.23482E+06         0.00000E+00
    0.00000E+00         0.00000E+00         0.00000E+00
 
    0.19913E+06         0.56598E+06         0.00000E+00
    0.56598E+06        -0.19888E+06         0.00000E+00
    0.00000E+00         0.00000E+00         0.00000E+00
 
    0.16521E+06         0.54108E+06         0.00000E+00
    0.54108E+06        -0.16481E+06         0.00000E+00
    0.00000E+00         0.00000E+00         0.00000E+00
 
    0.13342E+06         0.51412E+06         0.00000E+00
    0.51412E+06        -0.13282E+06         0.00000E+00
    0.00000E+00         0.00000E+00         0.00000E+00
 
    0.10403E+06         0.48506E+06         0.00000E+00
    0.48506E+06        -0.10314E+06         0.00000E+00
    0.00000E+00         0.00000E+00         0.00000E+00
 
    0.77299E+05         0.45391E+06         0.00000E+00
    0.45391E+06        -0.76008E+05         0.00000E+00
    0.00000E+00         0.00000E+00         0.00000E+00
 
    0.53508E+05         0.42070E+06         0.00000E+00
    0.42070E+06        -0.51656E+05         0.00000E+00
    0.00000E+00         0.00000E+00         0.00000E+00
 
    0.32962E+05         0.38546E+06         0.00000E+00
    0.38546E+06        -0.30333E+05         0.00000E+00
    0.00000E+00         0.00000E+00         0.00000E+00
 
    0.15974E+05         0.34831E+06         0.00000E+00
    0.34831E+06        -0.12278E+05         0.00000E+00
    0.00000E+00         0.00000E+00         0.00000E+00
 
    0.28680E+04         0.30935E+06         0.00000E+00
    0.30935E+06         0.22757E+04         0.00000E+00
    0.00000E+00         0.00000E+00         0.00000E+00
 
   -0.60258E+04         0.26877E+06         0.00000E+00
    0.26877E+06         0.13114E+05         0.00000E+00
    0.00000E+00         0.00000E+00         0.00000E+00
 
   -0.10378E+05         0.22679E+06         0.00000E+00
    0.22679E+06         0.20047E+05         0.00000E+00
    0.00000E+00         0.00000E+00         0.00000E+00
 
   -0.98659E+04         0.18366E+06         0.00000E+00
    0.18366E+06         0.22915E+05         0.00000E+00
    0.00000E+00         0.00000E+00         0.00000E+00
 
   -0.41768E+04         0.13972E+06         0.00000E+00
    0.13972E+06         0.21602E+05         0.00000E+00
    0.00000E+00         0.00000E+00         0.00000E+00
 
    0.21058E+07         0.37087E+05         0.00000E+00
    0.37087E+05        -0.19454E+07         0.00000E+00
    0.00000E+00         0.00000E+00         0.00000E+00
 
    0.20527E+07         0.10859E+06         0.00000E+00
    0.10859E+06        -0.19331E+07         0.00000E+00
    0.00000E+00         0.00000E+00         0.00000E+00
 
    0.19982E+07         0.17619E+06         0.00000E+00
    0.17619E+06        -0.19101E+07         0.00000E+00
    0.00000E+00         0.00000E+00         0.00000E+00
 
    0.19425E+07         0.23961E+06         0.00000E+00
    0.23961E+06        -0.18783E+07         0.00000E+00
    0.00000E+00         0.00000E+00         0.00000E+00
 
    0.18858E+07         0.29866E+06         0.00000E+00
    0.29866E+06        -0.18396E+07         0.00000E+00
    0.00000E+00         0.00000E+00         0.00000E+00
 
    0.18283E+07         0.35327E+06         0.00000E+00
    0.35327E+06        -0.17955E+07         0.00000E+00
    0.00000E+00         0.00000E+00         0.00000E+00
 
    0.17702E+07         0.40344E+06         0.00000E+00
    0.40344E+06        -0.17471E+07         0.00000E+00
    0.00000E+00         0.00000E+00         0.00000E+00
 
    0.17117E+07         0.44922E+06         0.00000E+00
    0.44922E+06        -0.16957E+07         0.00000E+00
    0.00000E+00         0.00000E+00         0.00000E+00
 
    0.16531E+07         0.49074E+06         0.00000E+00
    0.49074E+06        -0.16420E+07         0.00000E+00
    0.00000E+00         0.00000E+00         0.00000E+00
 
    0.15945E+07         0.52814E+06         0.00000E+00
    0.52814E+06        -0.15869E+07         0.00000E+00
    0.00000E+00         0.00000E+00         0.00000E+00
 
    0.15359E+07         0.56163E+06         0.00000E+00
    0.56163E+06        -0.15308E+07         0.00000E+00
    0.00000E+00         0.00000E+00         0.00000E+00
 
    0.14777E+07         0.59139E+06         0.00000E+00
    0.59139E+06        -0.14742E+07         0.00000E+00
    0.00000E+00         0.00000E+00         0.00000E+00
 
    0.14198E+07         0.61764E+06         0.00000E+00
    0.61764E+06        -0.14175E+07         0.00000E+00
    0.00000E+00         0.00000E+00         0.00000E+00
 
    0.13624E+07         0.64061E+06         0.00000E+00
    0.64061E+06        -0.13609E+07         0.00000E+00
    0.00000E+00         0.00000E+00         0.00000E+00
 
    0.13055E+07         0.66051E+06         0.00000E+00
    0.66051E+06        -0.13045E+07         0.00000E+00
    0.00000E+00         0.00000E+00         0.00000E+00
 
    0.12493E+07         0.67757E+06         0.00000E+00
    0.67757E+06        -0.12487E+07         0.00000E+00
    0.00000E+00         0.00000E+00         0.00000E+00
 
    0.11938E+07         0.69199E+06         0.00000E+00
    0.69199E+06        -0.11934E+07         0.00000E+00
    0.00000E+00         0.00000E+00         0.00000E+00
 
    0.11390E+07         0.70396E+06         0.00000E+00
    0.70396E+06        -0.11387E+07         0.00000E+00
    0.00000E+00         0.00000E+00         0.00000E+00
 
    0.10850E+07         0.71367E+06         0.00000E+00
    0.71367E+06        -0.10848E+07         0.00000E+00
    0.00000E+00         0.00000E+00         0.00000E+00
 
    0.10317E+07         0.72129E+06         0.00000E+00
    0.72129E+06        -0.10316E+07         0.00000E+00
    0.00000E+00         0.00000E+00         0.00000E+00
 
    0.97921E+06         0.72696E+06         0.00000E+00
    0.72696E+06        -0.97916E+06         0.00000E+00
    0.00000E+00         0.00000E+00         0.00000E+00
 
    0.92749E+06         0.73081E+06         0.00000E+00
    0.73081E+06        -0.92747E+06         0.00000E+00
    0.00000E+00         0.00000E+00         0.00000E+00
 
    0.87654E+06         0.73296E+06         0.00000E+00
    0.73296E+06        -0.87655E+06         0.00000E+00
    0.00000E+00         0.00000E+00         0.00000E+00
 
    0.82636E+06         0.73350E+06         0.00000E+00
    0.73350E+06        -0.82638E+06         0.00000E+00
    0.00000E+00         0.00000E+00         0.00000E+00
 
    0.77692E+06         0.73249E+06         0.00000E+00
    0.73249E+06        -0.77696E+06         0.00000E+00
    0.00000E+00         0.00000E+00         0.00000E+00
 
    0.72823E+06         0.72998E+06         0.00000E+00
    0.72998E+06        -0.72828E+06         0.00000E+00
    0.00000E+00         0.00000E+00         0.00000E+00
 
    0.68027E+06         0.72600E+06         0.00000E+00
    0.72600E+06        -0.68033E+06         0.00000E+00
    0.00000E+00         0.00000E+00         0.00000E+00
 
    0.63306E+06         0.72056E+06         0.00000E+00
    0.72056E+06        -0.63312E+06         0.00000E+00
    0.00000E+00         0.00000E+00         0.00000E+00
 
    0.58659E+06         0.71365E+06         0.00000E+00
    0.71365E+06        -0.58666E+06         0.00000E+00
    0.00000E+00         0.00000E+00         0.00000E+00
 
    0.54090E+06         0.70524E+06         0.00000E+00
    0.70524E+06        -0.54097E+06         0.00000E+00
    0.00000E+00         0.00000E+00         0.00000E+00
 
    0.49602E+06         0.69529E+06         0.00000E+00
    0.69529E+06        -0.49608E+06         0.00000E+00
    0.00000E+00         0.00000E+00         0.00000E+00
 
    0.45199E+06         0.68374E+06         0.00000E+00
    0.68374E+06        -0.45205E+06         0.00000E+00
    0.00000E+00         0.00000E+00         0.00000E+00
 
    0.40890E+06         0.67051E+06         0.00000E+00
    0.67051E+06        -0.40894E+06         0.00000E+00
    0.00000E+00         0.00000E+00         0.00000E+00
 
    0.36682E+06         0.65554E+06         0.00000E+00
    0.65554E+06        -0.36685E+06         0.00000E+00
    0.00000E+00         0.00000E+00         0.00000E+00
 
    0.32588E+06         0.63874E+06         0.00000E+00
    0.63874E+06        -0.32587E+06         0.00000E+00
    0.00000E+00         0.00000E+00         0.00000E+00
 
    0.28620E+06         0.62001E+06         0.00000E+00
    0.62001E+06        -0.28614E+06         0.00000E+00
    0.00000E+00         0.00000E+00         0.00000E+00
 
    0.24795E+06         0.59928E+06         0.00000E+00
    0.59928E+06        -0.24782E+06         0.00000E+00
    0.00000E+00         0.00000E+00         0.00000E+00
 
    0.21131E+06         0.57645E+06         0.00000E+00
    0.57645E+06        -0.21108E+06         0.00000E+00
    0.00000E+00         0.00000E+00         0.00000E+00
 
    0.17648E+06         0.55146E+06         0.00000E+00
    0.55146E+06        -0.17612E+06         0.00000E+00
    0.00000E+00         0.00000E+00         0.00000E+00
 
    0.14371E+06         0.52425E+06         0.00000E+00
    0.52425E+06        -0.14315E+06         0.00000E+00
    0.00000E+00         0.00000E+00         0.00000E+00
 
    0.11326E+06         0.49478E+06         0.00000E+00
    0.49478E+06        -0.11242E+06         0.00000E+00
    0.00000E+00         0.00000E+00         0.00000E+00
 
    0.85402E+05         0.46301E+06         0.00000E+00
    0.46301E+06        -0.84170E+05         0.00000E+00
    0.00000E+00         0.00000E+00         0.00000E+00
 
    0.60450E+05         0.42897E+06         0.00000E+00
    0.42897E+06        -0.58673E+05         0.00000E+00
    0.00000E+00         0.00000E+00         0.00000E+00
 
    0.38729E+05         0.39268E+06         0.00000E+00
    0.39268E+06        -0.36198E+05         0.00000E+00
    0.00000E+00         0.00000E+00         0.00000E+00
 
    0.20582E+05         0.35424E+06         0.00000E+00
    0.35424E+06        -0.17015E+05         0.00000E+00
    0.00000E+00         0.00000E+00         0.00000E+00
 
    0.63634E+04         0.31375E+06         0.00000E+00
    0.31375E+06        -0.13913E+04         0.00000E+00
    0.00000E+00         0.00000E+00         0.00000E+00
 
   -0.35627E+04         0.27139E+06         0.00000E+00
    0.27139E+06         0.10422E+05         0.00000E+00
    0.00000E+00         0.00000E+00         0.00000E+00
 
   -0.88302E+04         0.22738E+06         0.00000E+00
    0.22738E+06         0.18192E+05         0.00000E+00
    0.00000E+00         0.00000E+00         0.00000E+00
 
   -0.90766E+04         0.18199E+06         0.00000E+00
    0.18199E+06         0.21719E+05         0.00000E+00
    0.00000E+00         0.00000E+00         0.00000E+00
 
   -0.39498E+04         0.13556E+06         0.00000E+00
    0.13556E+06         0.20838E+05         0.00000E+00
    0.00000E+00         0.00000E+00         0.00000E+00
 
    0.21478E+07         0.37576E+05         0.00000E+00
    0.37576E+05        -0.19773E+07         0.00000E+00
    0.00000E+00         0.00000E+00         0.00000E+00
 
    0.20916E+07         0.10996E+06         0.00000E+00
    0.10996E+06        -0.19644E+07         0.00000E+00
    0.00000E+00         0.00000E+00         0.00000E+00
 
    0.20342E+07         0.17832E+06         0.00000E+00
    0.17832E+06        -0.19404E+07         0.00000E+00
    0.00000E+00         0.00000E+00         0.00000E+00
 
    0.19757E+07         0.24238E+06         0.00000E+00
    0.24238E+06        -0.19075E+07         0.00000E+00
    0.00000E+00         0.00000E+00         0.00000E+00
 
    0.19164E+07         0.30194E+06         0.00000E+00
    0.30194E+06        -0.18674E+07         0.00000E+00
    0.00000E+00         0.00000E+00         0.00000E+00
 
    0.18565E+07         0.35694E+06         0.00000E+00
    0.35694E+06        -0.18217E+07         0.00000E+00
    0.00000E+00         0.00000E+00         0.00000E+00
 
    0.17963E+07         0.40738E+06         0.00000E+00
    0.40738E+06        -0.17718E+07         0.00000E+00
    0.00000E+00         0.00000E+00         0.00000E+00
 
    0.17359E+07         0.45334E+06         0.00000E+00
    0.45334E+06        -0.17188E+07         0.00000E+00
    0.00000E+00         0.00000E+00         0.00000E+00
 
    0.16755E+07         0.49495E+06         0.00000E+00
    0.49495E+06        -0.16637E+07         0.00000E+00
    0.00000E+00         0.00000E+00         0.00000E+00
 
    0.16153E+07         0.53237E+06         0.00000E+00
    0.53237E+06        -0.16073E+07         0.00000E+00
    0.00000E+00         0.00000E+00         0.00000E+00
 
    0.15554E+07         0.56580E+06         0.00000E+00
    0.56580E+06        -0.15500E+07         0.00000E+00
    0.00000E+00         0.00000E+00         0.00000E+00
 
    0.14960E+07         0.59546E+06         0.00000E+00
    0.59546E+06        -0.14923E+07         0.00000E+00
    0.00000E+00         0.00000E+00         0.00000E+00
 
    0.14372E+07         0.62158E+06         0.00000E+00
    0.62158E+06        -0.14347E+07         0.00000E+00
    0.00000E+00         0.00000E+00         0.00000E+00
 
    0.13790E+07         0.64440E+06         0.00000E+00
    0.64440E+06        -0.13773E+07         0.00000E+00
    0.00000E+00         0.00000E+00         0.00000E+00
 
    0.13215E+07         0.66414E+06         0.00000E+00
    0.66414E+06        -0.13204E+07         0.00000E+00
    0.00000E+00         0.00000E+00         0.00000E+00
 
    0.12648E+07         0.68104E+06         0.00000E+00
    0.68104E+06        -0.12641E+07         0.00000E+00
    0.00000E+00         0.00000E+00         0.00000E+00
 
    0.12090E+07         0.69532E+06         0.00000E+00
    0.69532E+06        -0.12086E+07         0.00000E+00
    0.00000E+00         0.00000E+00         0.00000E+00
 
    0.11541E+07         0.70719E+06         0.00000E+00
    0.70719E+06        -0.11538E+07         0.00000E+00
    0.00000E+00         0.00000E+00         0.00000E+00
 
    0.11000E+07         0.71683E+06         0.00000E+00
    0.71683E+06        -0.10998E+07         0.00000E+00
    0.00000E+00         0.00000E+00         0.00000E+00
 
    0.10467E+07         0.72443E+06         0.00000E+00
    0.72443E+06        -0.10466E+07         0.00000E+00
    0.00000E+00         0.00000E+00         0.00000E+00
 
    0.99439E+06         0.73014E+06         0.00000E+00
    0.73014E+06        -0.99433E+06         0.00000E+00
    0.00000E+00         0.00000E+00         0.00000E+00
 
    0.94289E+06         0.73410E+06         0.00000E+00
    0.73410E+06        -0.94286E+06         0.00000E+00
    0.00000E+00         0.00000E+00         0.00000E+00
 
    0.89220E+06         0.73642E+06         0.00000E+00
    0.73642E+06        -0.89221E+06         0.00000E+00
    0.00000E+00         0.00000E+00         0.00000E+00
 
    0.84231E+06         0.73719E+06         0.00000E+00
    0.73719E+06        -0.84233E+06         0.00000E+00
    0.00000E+00         0.00000E+00         0.00000E+00
 
    0.79318E+06         0.73648E+06         0.00000E+00
    0.73648E+06        -0.79322E+06         0.00000E+00
    0.00000E+00         0.00000E+00         0.00000E+00
 
    0.74478E+06         0.73434E+06         0.00000E+00
    0.73434E+06        -0.74484E+06         0.00000E+00
    0.00000E+00         0.00000E+00         0.00000E+00
 
    0.69710E+06         0.73079E+06         0.00000E+00
    0.73079E+06        -0.69717E+06         0.00000E+00
    0.00000E+00         0.00000E+00         0.00000E+00
 
    0.65012E+06         0.72584E+06         0.00000E+00
    0.72584E+06        -0.65020E+06         0.00000E+00
    0.00000E+00         0.00000E+00         0.00000E+00
 
    0.60383E+06         0.71945E+06         0.00000E+00
    0.71945E+06        -0.60391E+06         0.00000E+00
    0.00000E+00         0.00000E+00         0.00000E+00
 
    0.55823E+06         0.71160E+06         0.00000E+00
    0.71160E+06        -0.55832E+06         0.00000E+00
    0.00000E+00         0.00000E+00         0.00000E+00
 
    0.51335E+06         0.70223E+06         0.00000E+00
    0.70223E+06        -0.51344E+06         0.00000E+00
    0.00000E+00         0.00000E+00         0.00000E+00
 
    0.46923E+06         0.69126E+06         0.00000E+00
    0.69126E+06        -0.46932E+06         0.00000E+00
    0.00000E+00         0.00000E+00         0.00000E+00
 
    0.42593E+06         0.67861E+06         0.00000E+00
    0.67861E+06        -0.42600E+06         0.00000E+00
    0.00000E+00         0.00000E+00         0.00000E+00
 
    0.38353E+06         0.66417E+06         0.00000E+00
    0.66417E+06        -0.38358E+06         0.00000E+00
    0.00000E+00         0.00000E+00         0.00000E+00
 
    0.34213E+06         0.64785E+06         0.00000E+00
    0.64785E+06        -0.34214E+06         0.00000E+00
    0.00000E+00         0.00000E+00         0.00000E+00
 
    0.30186E+06         0.62954E+06         0.00000E+00
    0.62954E+06        -0.30183E+06         0.00000E+00
    0.00000E+00         0.00000E+00         0.00000E+00
 
    0.26289E+06         0.60913E+06         0.00000E+00
    0.60913E+06        -0.26280E+06         0.00000E+00
    0.00000E+00         0.00000E+00         0.00000E+00
 
    0.22540E+06         0.58651E+06         0.00000E+00
    0.58651E+06        -0.22522E+06         0.00000E+00
    0.00000E+00         0.00000E+00         0.00000E+00
 
    0.18962E+06         0.56158E+06         0.00000E+00
    0.56158E+06        -0.18930E+06         0.00000E+00
    0.00000E+00         0.00000E+00         0.00000E+00
 
    0.15577E+06         0.53426E+06         0.00000E+00
    0.53426E+06        -0.15526E+06         0.00000E+00
    0.00000E+00         0.00000E+00         0.00000E+00
 
    0.12415E+06         0.50450E+06         0.00000E+00
    0.50450E+06        -0.12338E+06         0.00000E+00
    0.00000E+00         0.00000E+00         0.00000E+00
 
    0.95049E+05         0.47223E+06         0.00000E+00
    0.47223E+06        -0.93901E+05         0.00000E+00
    0.00000E+00         0.00000E+00         0.00000E+00
 
    0.68797E+05         0.43746E+06         0.00000E+00
    0.43746E+06        -0.67131E+05         0.00000E+00
    0.00000E+00         0.00000E+00         0.00000E+00
 
    0.45748E+05         0.40020E+06         0.00000E+00
    0.40020E+06        -0.43364E+05         0.00000E+00
    0.00000E+00         0.00000E+00         0.00000E+00
 
    0.26273E+05         0.36053E+06         0.00000E+00
    0.36053E+06        -0.22905E+05         0.00000E+00
    0.00000E+00         0.00000E+00         0.00000E+00
 
    0.10761E+05         0.31854E+06         0.00000E+00
    0.31854E+06        -0.60568E+04         0.00000E+00
    0.00000E+00         0.00000E+00         0.00000E+00
 
   -0.38805E+03         0.27441E+06         0.00000E+00
    0.27441E+06         0.68850E+04         0.00000E+00
    0.00000E+00         0.00000E+00         0.00000E+00
 
   -0.67690E+04         0.22835E+06         0.00000E+00
    0.22835E+06         0.15644E+05         0.00000E+00
    0.00000E+00         0.00000E+00         0.00000E+00
 
   -0.79777E+04         0.18065E+06         0.00000E+00
    0.18065E+06         0.19969E+05         0.00000E+00
    0.00000E+00         0.00000E+00         0.00000E+00
 
   -0.36194E+04         0.13166E+06         0.00000E+00
    0.13166E+06         0.19645E+05         0.00000E+00
    0.00000E+00         0.00000E+00         0.00000E+00
 
    0.21904E+07         0.38001E+05         0.00000E+00
    0.38001E+05        -0.20093E+07         0.00000E+00
    0.00000E+00         0.00000E+00         0.00000E+00
 
    0.21310E+07         0.11114E+06         0.00000E+00
    0.11114E+06        -0.19959E+07         0.00000E+00
    0.00000E+00         0.00000E+00         0.00000E+00
 
    0.20705E+07         0.18013E+06         0.00000E+00
    0.18013E+06        -0.19710E+07         0.00000E+00
    0.00000E+00         0.00000E+00         0.00000E+00
 
    0.20092E+07         0.24469E+06         0.00000E+00
    0.24469E+06        -0.19368E+07         0.00000E+00
    0.00000E+00         0.00000E+00         0.00000E+00
 
    0.19473E+07         0.30462E+06         0.00000E+00
    0.30462E+06        -0.18953E+07         0.00000E+00
    0.00000E+00         0.00000E+00         0.00000E+00
 
    0.18851E+07         0.35988E+06         0.00000E+00
    0.35988E+06        -0.18480E+07         0.00000E+00
    0.00000E+00         0.00000E+00         0.00000E+00
 
    0.18226E+07         0.41046E+06         0.00000E+00
    0.41046E+06        -0.17966E+07         0.00000E+00
    0.00000E+00         0.00000E+00         0.00000E+00
 
    0.17602E+07         0.45646E+06         0.00000E+00
    0.45646E+06        -0.17421E+07         0.00000E+00
    0.00000E+00         0.00000E+00         0.00000E+00
 
    0.16981E+07         0.49802E+06         0.00000E+00
    0.49802E+06        -0.16856E+07         0.00000E+00
    0.00000E+00         0.00000E+00         0.00000E+00
 
    0.16363E+07         0.53532E+06         0.00000E+00
    0.53532E+06        -0.16278E+07         0.00000E+00
    0.00000E+00         0.00000E+00         0.00000E+00
 
    0.15751E+07         0.56857E+06         0.00000E+00
    0.56857E+06        -0.15693E+07         0.00000E+00
    0.00000E+00         0.00000E+00         0.00000E+00
 
    0.15146E+07         0.59800E+06         0.00000E+00
    0.59800E+06        -0.15107E+07         0.00000E+00
    0.00000E+00         0.00000E+00         0.00000E+00
 
    0.14548E+07         0.62387E+06         0.00000E+00
    0.62387E+06        -0.14522E+07         0.00000E+00
    0.00000E+00         0.00000E+00         0.00000E+00
 
    0.13959E+07         0.64641E+06         0.00000E+00
    0.64641E+06        -0.13941E+07         0.00000E+00
    0.00000E+00         0.00000E+00         0.00000E+00
 
    0.13379E+07         0.66589E+06         0.00000E+00
    0.66589E+06        -0.13367E+07         0.00000E+00
    0.00000E+00         0.00000E+00         0.00000E+00
 
    0.12808E+07         0.68255E+06         0.00000E+00
    0.68255E+06        -0.12800E+07         0.00000E+00
    0.00000E+00         0.00000E+00         0.00000E+00
 
    0.12248E+07         0.69661E+06         0.00000E+00
    0.69661E+06        -0.12243E+07         0.00000E+00
    0.00000E+00         0.00000E+00         0.00000E+00
 
    0.11697E+07         0.70830E+06         0.00000E+00
    0.70830E+06        -0.11694E+07         0.00000E+00
    0.00000E+00         0.00000E+00         0.00000E+00
 
    0.11157E+07         0.71783E+06         0.00000E+00
    0.71783E+06        -0.11155E+07         0.00000E+00
    0.00000E+00         0.00000E+00         0.00000E+00
 
    0.10626E+07         0.72537E+06         0.00000E+00
    0.72537E+06        -0.10625E+07         0.00000E+00
    0.00000E+00         0.00000E+00         0.00000E+00
 
    0.10105E+07         0.73110E+06         0.00000E+00
    0.73110E+06        -0.10105E+07         0.00000E+00
    0.00000E+00         0.00000E+00         0.00000E+00
 
    0.95937E+06         0.73515E+06         0.00000E+00
    0.73515E+06        -0.95935E+06         0.00000E+00
    0.00000E+00         0.00000E+00         0.00000E+00
 
    0.90907E+06         0.73765E+06         0.00000E+00
    0.73765E+06        -0.90908E+06         0.00000E+00
    0.00000E+00         0.00000E+00         0.00000E+00
 
    0.85959E+06         0.73868E+06         0.00000E+00
    0.73868E+06        -0.85962E+06         0.00000E+00
    0.00000E+00         0.00000E+00         0.00000E+00
 
    0.81089E+06         0.73832E+06         0.00000E+00
    0.73832E+06        -0.81094E+06         0.00000E+00
    0.00000E+00         0.00000E+00         0.00000E+00
 
    0.76291E+06         0.73660E+06         0.00000E+00
    0.73660E+06        -0.76298E+06         0.00000E+00
    0.00000E+00         0.00000E+00         0.00000E+00
 
    0.71562E+06         0.73356E+06         0.00000E+00
    0.73356E+06        -0.71571E+06         0.00000E+00
    0.00000E+00         0.00000E+00         0.00000E+00
 
    0.66898E+06         0.72917E+06         0.00000E+00
    0.72917E+06        -0.66907E+06         0.00000E+00
    0.00000E+00         0.00000E+00         0.00000E+00
 
    0.62295E+06         0.72342E+06         0.00000E+00
    0.72342E+06        -0.62306E+06         0.00000E+00
    0.00000E+00         0.00000E+00         0.00000E+00
 
    0.57754E+06         0.71625E+06         0.00000E+00
    0.71625E+06        -0.57765E+06         0.00000E+00
    0.00000E+00         0.00000E+00         0.00000E+00
 
    0.53275E+06         0.70759E+06         0.00000E+00
    0.70759E+06        -0.53286E+06         0.00000E+00
    0.00000E+00         0.00000E+00         0.00000E+00
 
    0.48859E+06         0.69734E+06         0.00000E+00
    0.69734E+06        -0.48870E+06         0.00000E+00
    0.00000E+00         0.00000E+00         0.00000E+00
 
    0.44513E+06         0.68542E+06         0.00000E+00
    0.68542E+06        -0.44522E+06         0.00000E+00
    0.00000E+00         0.00000E+00         0.00000E+00
 
    0.40242E+06         0.67168E+06         0.00000E+00
    0.67168E+06        -0.40250E+06         0.00000E+00
    0.00000E+00         0.00000E+00         0.00000E+00
 
    0.36057E+06         0.65602E+06         0.00000E+00
    0.65602E+06        -0.36062E+06         0.00000E+00
    0.00000E+00         0.00000E+00         0.00000E+00
 
    0.31971E+06         0.63829E+06         0.00000E+00
    0.63829E+06        -0.31972E+06         0.00000E+00
    0.00000E+00         0.00000E+00         0.00000E+00
 
    0.28000E+06         0.61837E+06         0.00000E+00
    0.61837E+06        -0.27995E+06         0.00000E+00
    0.00000E+00         0.00000E+00         0.00000E+00
 
    0.24162E+06         0.59612E+06         0.00000E+00
    0.59612E+06        -0.24148E+06         0.00000E+00
    0.00000E+00         0.00000E+00         0.00000E+00
 
    0.20480E+06         0.57142E+06         0.00000E+00
    0.57142E+06        -0.20453E+06         0.00000E+00
    0.00000E+00         0.00000E+00         0.00000E+00
 
    0.16979E+06         0.54415E+06         0.00000E+00
    0.54415E+06        -0.16935E+06         0.00000E+00
    0.00000E+00         0.00000E+00         0.00000E+00
 
    0.13689E+06         0.51424E+06         0.00000E+00
    0.51424E+06        -0.13620E+06         0.00000E+00
    0.00000E+00         0.00000E+00         0.00000E+00
 
    0.10641E+06         0.48160E+06         0.00000E+00
    0.48160E+06        -0.10538E+06         0.00000E+00
    0.00000E+00         0.00000E+00         0.00000E+00
 
    0.78712E+05         0.44622E+06         0.00000E+00
    0.44622E+06        -0.77196E+05         0.00000E+00
    0.00000E+00         0.00000E+00         0.00000E+00
 
    0.54166E+05         0.40809E+06         0.00000E+00
    0.40809E+06        -0.51984E+05         0.00000E+00
    0.00000E+00         0.00000E+00         0.00000E+00
 
    0.33178E+05         0.36725E+06         0.00000E+00
    0.36725E+06        -0.30086E+05         0.00000E+00
    0.00000E+00         0.00000E+00         0.00000E+00
 
    0.16173E+05         0.32382E+06         0.00000E+00
    0.32382E+06        -0.11845E+05         0.00000E+00
    0.00000E+00         0.00000E+00         0.00000E+00
 
    0.35888E+04         0.27793E+06         0.00000E+00
    0.27793E+06         0.23959E+04         0.00000E+00
    0.00000E+00         0.00000E+00         0.00000E+00
 
   -0.41275E+04         0.22982E+06         0.00000E+00
    0.22982E+06         0.12310E+05         0.00000E+00
    0.00000E+00         0.00000E+00         0.00000E+00
 
   -0.65279E+04         0.17977E+06         0.00000E+00
    0.17977E+06         0.17590E+05         0.00000E+00
    0.00000E+00         0.00000E+00         0.00000E+00
 
   -0.31716E+04         0.12813E+06         0.00000E+00
    0.12813E+06         0.17965E+05         0.00000E+00
    0.00000E+00         0.00000E+00         0.00000E+00
 
    0.22336E+07         0.38357E+05         0.00000E+00
    0.38357E+05        -0.20416E+07         0.00000E+00
    0.00000E+00         0.00000E+00         0.00000E+00
 
    0.21709E+07         0.11212E+06         0.00000E+00
    0.11212E+06        -0.20277E+07         0.00000E+00
    0.00000E+00         0.00000E+00         0.00000E+00
 
    0.21073E+07         0.18160E+06         0.00000E+00
    0.18160E+06        -0.20018E+07         0.00000E+00
    0.00000E+00         0.00000E+00         0.00000E+00
 
    0.20431E+07         0.24650E+06         0.00000E+00
    0.24650E+06        -0.19663E+07         0.00000E+00
    0.00000E+00         0.00000E+00         0.00000E+00
 
    0.19785E+07         0.30667E+06         0.00000E+00
    0.30667E+06        -0.19233E+07         0.00000E+00
    0.00000E+00         0.00000E+00         0.00000E+00
 
    0.19137E+07         0.36203E+06         0.00000E+00
    0.36203E+06        -0.18745E+07         0.00000E+00
    0.00000E+00         0.00000E+00         0.00000E+00
 
    0.18491E+07         0.41261E+06         0.00000E+00
    0.41261E+06        -0.18215E+07         0.00000E+00
    0.00000E+00         0.00000E+00         0.00000E+00
 
    0.17847E+07         0.45850E+06         0.00000E+00
    0.45850E+06        -0.17655E+07         0.00000E+00
    0.00000E+00         0.00000E+00         0.00000E+00
 
    0.17208E+07         0.49986E+06         0.00000E+00
    0.49986E+06        -0.17075E+07         0.00000E+00
    0.00000E+00         0.00000E+00         0.00000E+00
 
    0.16575E+07         0.53690E+06         0.00000E+00
    0.53690E+06        -0.16484E+07         0.00000E+00
    0.00000E+00         0.00000E+00         0.00000E+00
 
    0.15949E+07         0.56982E+06         0.00000E+00
    0.56982E+06        -0.15888E+07         0.00000E+00
    0.00000E+00         0.00000E+00         0.00000E+00
 
    0.15333E+07         0.59890E+06         0.00000E+00
    0.59890E+06        -0.15291E+07         0.00000E+00
    0.00000E+00         0.00000E+00         0.00000E+00
 
    0.14726E+07         0.62438E+06         0.00000E+00
    0.62438E+06        -0.14698E+07         0.00000E+00
    0.00000E+00         0.00000E+00         0.00000E+00
 
    0.14130E+07         0.64654E+06         0.00000E+00
    0.64654E+06        -0.14112E+07         0.00000E+00
    0.00000E+00         0.00000E+00         0.00000E+00
 
    0.13546E+07         0.66564E+06         0.00000E+00
    0.66564E+06        -0.13533E+07         0.00000E+00
    0.00000E+00         0.00000E+00         0.00000E+00
 
    0.12972E+07         0.68195E+06         0.00000E+00
    0.68195E+06        -0.12964E+07         0.00000E+00
    0.00000E+00         0.00000E+00         0.00000E+00
 
    0.12411E+07         0.69570E+06         0.00000E+00
    0.69570E+06        -0.12405E+07         0.00000E+00
    0.00000E+00         0.00000E+00         0.00000E+00
 
    0.11860E+07         0.70715E+06         0.00000E+00
    0.70715E+06        -0.11857E+07         0.00000E+00
    0.00000E+00         0.00000E+00         0.00000E+00
 
    0.11322E+07         0.71649E+06         0.00000E+00
    0.71649E+06        -0.11320E+07         0.00000E+00
    0.00000E+00         0.00000E+00         0.00000E+00
 
    0.10794E+07         0.72394E+06         0.00000E+00
    0.72394E+06        -0.10793E+07         0.00000E+00
    0.00000E+00         0.00000E+00         0.00000E+00
 
    0.10277E+07         0.72965E+06         0.00000E+00
    0.72965E+06        -0.10276E+07         0.00000E+00
    0.00000E+00         0.00000E+00         0.00000E+00
 
    0.97700E+06         0.73379E+06         0.00000E+00
    0.73379E+06        -0.97698E+06         0.00000E+00
    0.00000E+00         0.00000E+00         0.00000E+00
 
    0.92722E+06         0.73647E+06         0.00000E+00
    0.73647E+06        -0.92723E+06         0.00000E+00
    0.00000E+00         0.00000E+00         0.00000E+00
 
    0.87829E+06         0.73779E+06         0.00000E+00
    0.73779E+06        -0.87833E+06         0.00000E+00
    0.00000E+00         0.00000E+00         0.00000E+00
 
    0.83015E+06         0.73782E+06         0.00000E+00
    0.73782E+06        -0.83022E+06         0.00000E+00
    0.00000E+00         0.00000E+00         0.00000E+00
 
    0.78273E+06         0.73659E+06         0.00000E+00
    0.73659E+06        -0.78281E+06         0.00000E+00
    0.00000E+00         0.00000E+00         0.00000E+00
 
    0.73595E+06         0.73413E+06         0.00000E+00
    0.73413E+06        -0.73605E+06         0.00000E+00
    0.00000E+00         0.00000E+00         0.00000E+00
 
    0.68976E+06         0.73042E+06         0.00000E+00
    0.73042E+06        -0.68988E+06         0.00000E+00
    0.00000E+00         0.00000E+00         0.00000E+00
 
    0.64412E+06         0.72541E+06         0.00000E+00
    0.72541E+06        -0.64425E+06         0.00000E+00
    0.00000E+00         0.00000E+00         0.00000E+00
 
    0.59899E+06         0.71905E+06         0.00000E+00
    0.71905E+06        -0.59912E+06         0.00000E+00
    0.00000E+00         0.00000E+00         0.00000E+00
 
    0.55437E+06         0.71124E+06         0.00000E+00
    0.71124E+06        -0.55450E+06         0.00000E+00
    0.00000E+00         0.00000E+00         0.00000E+00
 
    0.51025E+06         0.70188E+06         0.00000E+00
    0.70188E+06        -0.51038E+06         0.00000E+00
    0.00000E+00         0.00000E+00         0.00000E+00
 
    0.46667E+06         0.69084E+06         0.00000E+00
    0.69084E+06        -0.46680E+06         0.00000E+00
    0.00000E+00         0.00000E+00         0.00000E+00
 
    0.42370E+06         0.67798E+06         0.00000E+00
    0.67798E+06        -0.42382E+06         0.00000E+00
    0.00000E+00         0.00000E+00         0.00000E+00
 
    0.38143E+06         0.66316E+06         0.00000E+00
    0.66316E+06        -0.38152E+06         0.00000E+00
    0.00000E+00         0.00000E+00         0.00000E+00
 
    0.33997E+06         0.64620E+06         0.00000E+00
    0.64620E+06        -0.34002E+06         0.00000E+00
    0.00000E+00         0.00000E+00         0.00000E+00
 
    0.29948E+06         0.62695E+06         0.00000E+00
    0.62695E+06        -0.29948E+06         0.00000E+00
    0.00000E+00         0.00000E+00         0.00000E+00
 
    0.26016E+06         0.60526E+06         0.00000E+00
    0.60526E+06        -0.26008E+06         0.00000E+00
    0.00000E+00         0.00000E+00         0.00000E+00
 
    0.22224E+06         0.58096E+06         0.00000E+00
    0.58096E+06        -0.22204E+06         0.00000E+00
    0.00000E+00         0.00000E+00         0.00000E+00
 
    0.18597E+06         0.55392E+06         0.00000E+00
    0.55392E+06        -0.18562E+06         0.00000E+00
    0.00000E+00         0.00000E+00         0.00000E+00
 
    0.15167E+06         0.52402E+06         0.00000E+00
    0.52402E+06        -0.15109E+06         0.00000E+00
    0.00000E+00         0.00000E+00         0.00000E+00
 
    0.11968E+06         0.49117E+06         0.00000E+00
    0.49117E+06        -0.11879E+06         0.00000E+00
    0.00000E+00         0.00000E+00         0.00000E+00
 
    0.90365E+05         0.45530E+06         0.00000E+00
    0.45530E+06        -0.89044E+05         0.00000E+00
    0.00000E+00         0.00000E+00         0.00000E+00
 
    0.64139E+05         0.41640E+06         0.00000E+00
    0.41640E+06        -0.62224E+05         0.00000E+00
    0.00000E+00         0.00000E+00         0.00000E+00
 
    0.41436E+05         0.37450E+06         0.00000E+00
    0.37450E+06        -0.38709E+05         0.00000E+00
    0.00000E+00         0.00000E+00         0.00000E+00
 
    0.22719E+05         0.32967E+06         0.00000E+00
    0.32967E+06        -0.18891E+05         0.00000E+00
    0.00000E+00         0.00000E+00         0.00000E+00
 
    0.84647E+04         0.28206E+06         0.00000E+00
    0.28206E+06        -0.31619E+04         0.00000E+00
    0.00000E+00         0.00000E+00         0.00000E+00
 
   -0.83394E+03         0.23189E+06         0.00000E+00
    0.23189E+06         0.80922E+04         0.00000E+00
    0.00000E+00         0.00000E+00         0.00000E+00
 
   -0.46824E+04         0.17944E+06         0.00000E+00
    0.17944E+06         0.14504E+05         0.00000E+00
    0.00000E+00         0.00000E+00         0.00000E+00
 
   -0.25911E+04         0.12511E+06         0.00000E+00
    0.12511E+06         0.15734E+05         0.00000E+00
    0.00000E+00         0.00000E+00         0.00000E+00
 
    0.22773E+07         0.38640E+05         0.00000E+00
    0.38640E+05        -0.20740E+07         0.00000E+00
    0.00000E+00         0.00000E+00         0.00000E+00
 
    0.22111E+07         0.11287E+06         0.00000E+00
    0.11287E+06        -0.20595E+07         0.00000E+00
    0.00000E+00         0.00000E+00         0.00000E+00
 
    0.21443E+07         0.18268E+06         0.00000E+00
    0.18268E+06        -0.20326E+07         0.00000E+00
    0.00000E+00         0.00000E+00         0.00000E+00
 
    0.20771E+07         0.24780E+06         0.00000E+00
    0.24780E+06        -0.19959E+07         0.00000E+00
    0.00000E+00         0.00000E+00         0.00000E+00
 
    0.20098E+07         0.30803E+06         0.00000E+00
    0.30803E+06        -0.19514E+07         0.00000E+00
    0.00000E+00         0.00000E+00         0.00000E+00
 
    0.19425E+07         0.36334E+06         0.00000E+00
    0.36334E+06        -0.19010E+07         0.00000E+00
    0.00000E+00         0.00000E+00         0.00000E+00
 
    0.18756E+07         0.41376E+06         0.00000E+00
    0.41376E+06        -0.18464E+07         0.00000E+00
    0.00000E+00         0.00000E+00         0.00000E+00
 
    0.18092E+07         0.45939E+06         0.00000E+00
    0.45939E+06        -0.17888E+07         0.00000E+00
    0.00000E+00         0.00000E+00         0.00000E+00
 
    0.17435E+07         0.50040E+06         0.00000E+00
    0.50040E+06        -0.17295E+07         0.00000E+00
    0.00000E+00         0.00000E+00         0.00000E+00
 
    0.16787E+07         0.53701E+06         0.00000E+00
    0.53701E+06        -0.16691E+07         0.00000E+00
    0.00000E+00         0.00000E+00         0.00000E+00
 
    0.16148E+07         0.56947E+06         0.00000E+00
    0.56947E+06        -0.16083E+07         0.00000E+00
    0.00000E+00         0.00000E+00         0.00000E+00
 
    0.15521E+07         0.59804E+06         0.00000E+00
    0.59804E+06        -0.15477E+07         0.00000E+00
    0.00000E+00         0.00000E+00         0.00000E+00
 
    0.14906E+07         0.62300E+06         0.00000E+00
    0.62300E+06        -0.14877E+07         0.00000E+00
    0.00000E+00         0.00000E+00         0.00000E+00
 
    0.14304E+07         0.64464E+06         0.00000E+00
    0.64464E+06        -0.14285E+07         0.00000E+00
    0.00000E+00         0.00000E+00         0.00000E+00
 
    0.13716E+07         0.66324E+06         0.00000E+00
    0.66324E+06        -0.13702E+07         0.00000E+00
    0.00000E+00         0.00000E+00         0.00000E+00
 
    0.13140E+07         0.67909E+06         0.00000E+00
    0.67909E+06        -0.13132E+07         0.00000E+00
    0.00000E+00         0.00000E+00         0.00000E+00
 
    0.12579E+07         0.69244E+06         0.00000E+00
    0.69244E+06        -0.12573E+07         0.00000E+00
    0.00000E+00         0.00000E+00         0.00000E+00
 
    0.12030E+07         0.70356E+06         0.00000E+00
    0.70356E+06        -0.12026E+07         0.00000E+00
    0.00000E+00         0.00000E+00         0.00000E+00
 
    0.11494E+07         0.71266E+06         0.00000E+00
    0.71266E+06        -0.11492E+07         0.00000E+00
    0.00000E+00         0.00000E+00         0.00000E+00
 
    0.10971E+07         0.71995E+06         0.00000E+00
    0.71995E+06        -0.10970E+07         0.00000E+00
    0.00000E+00         0.00000E+00         0.00000E+00
 
    0.10459E+07         0.72562E+06         0.00000E+00
    0.72562E+06        -0.10458E+07         0.00000E+00
    0.00000E+00         0.00000E+00         0.00000E+00
 
    0.99583E+06         0.72983E+06         0.00000E+00
    0.72983E+06        -0.99580E+06         0.00000E+00
    0.00000E+00         0.00000E+00         0.00000E+00
 
    0.94672E+06         0.73270E+06         0.00000E+00
    0.73270E+06        -0.94673E+06         0.00000E+00
    0.00000E+00         0.00000E+00         0.00000E+00
 
    0.89850E+06         0.73434E+06         0.00000E+00
    0.73434E+06        -0.89854E+06         0.00000E+00
    0.00000E+00         0.00000E+00         0.00000E+00
 
    0.85107E+06         0.73480E+06         0.00000E+00
    0.73480E+06        -0.85114E+06         0.00000E+00
    0.00000E+00         0.00000E+00         0.00000E+00
 
    0.80434E+06         0.73413E+06         0.00000E+00
    0.73413E+06        -0.80443E+06         0.00000E+00
    0.00000E+00         0.00000E+00         0.00000E+00
 
    0.75822E+06         0.73234E+06         0.00000E+00
    0.73234E+06        -0.75833E+06         0.00000E+00
    0.00000E+00         0.00000E+00         0.00000E+00
 
    0.71262E+06         0.72940E+06         0.00000E+00
    0.72940E+06        -0.71275E+06         0.00000E+00
    0.00000E+00         0.00000E+00         0.00000E+00
 
    0.66748E+06         0.72526E+06         0.00000E+00
    0.72526E+06        -0.66763E+06         0.00000E+00
    0.00000E+00         0.00000E+00         0.00000E+00
 
    0.62275E+06         0.71984E+06         0.00000E+00
    0.71984E+06        -0.62291E+06         0.00000E+00
    0.00000E+00         0.00000E+00         0.00000E+00
 
    0.57839E+06         0.71304E+06         0.00000E+00
    0.71304E+06        -0.57855E+06         0.00000E+00
    0.00000E+00         0.00000E+00         0.00000E+00
 
    0.53439E+06         0.70473E+06         0.00000E+00
    0.70473E+06        -0.53456E+06         0.00000E+00
    0.00000E+00         0.00000E+00         0.00000E+00
 
    0.49077E+06         0.69476E+06         0.00000E+00
    0.69476E+06        -0.49093E+06         0.00000E+00
    0.00000E+00         0.00000E+00         0.00000E+00
 
    0.44758E+06         0.68297E+06         0.00000E+00
    0.68297E+06        -0.44773E+06         0.00000E+00
    0.00000E+00         0.00000E+00         0.00000E+00
 
    0.40490E+06         0.66917E+06         0.00000E+00
    0.66917E+06        -0.40503E+06         0.00000E+00
    0.00000E+00         0.00000E+00         0.00000E+00
 
    0.36284E+06         0.65319E+06         0.00000E+00
    0.65319E+06        -0.36294E+06         0.00000E+00
    0.00000E+00         0.00000E+00         0.00000E+00
 
    0.32156E+06         0.63483E+06         0.00000E+00
    0.63483E+06        -0.32161E+06         0.00000E+00
    0.00000E+00         0.00000E+00         0.00000E+00
 
    0.28125E+06         0.61389E+06         0.00000E+00
    0.61389E+06        -0.28123E+06         0.00000E+00
    0.00000E+00         0.00000E+00         0.00000E+00
 
    0.24215E+06         0.59020E+06         0.00000E+00
    0.59020E+06        -0.24203E+06         0.00000E+00
    0.00000E+00         0.00000E+00         0.00000E+00
 
    0.20453E+06         0.56358E+06         0.00000E+00
    0.56358E+06        -0.20427E+06         0.00000E+00
    0.00000E+00         0.00000E+00         0.00000E+00
 
    0.16870E+06         0.53388E+06         0.00000E+00
    0.53388E+06        -0.16826E+06         0.00000E+00
    0.00000E+00         0.00000E+00         0.00000E+00
 
    0.13504E+06         0.50097E+06         0.00000E+00
    0.50097E+06        -0.13433E+06         0.00000E+00
    0.00000E+00         0.00000E+00         0.00000E+00
 
    0.10394E+06         0.46477E+06         0.00000E+00
    0.46477E+06        -0.10287E+06         0.00000E+00
    0.00000E+00         0.00000E+00         0.00000E+00
 
    0.75836E+05         0.42523E+06         0.00000E+00
    0.42523E+06        -0.74257E+05         0.00000E+00
    0.00000E+00         0.00000E+00         0.00000E+00
 
    0.51197E+05         0.38235E+06         0.00000E+00
    0.38235E+06        -0.48933E+05         0.00000E+00
    0.00000E+00         0.00000E+00         0.00000E+00
 
    0.30526E+05         0.33619E+06         0.00000E+00
    0.33619E+06        -0.27335E+05         0.00000E+00
    0.00000E+00         0.00000E+00         0.00000E+00
 
    0.14343E+05         0.28690E+06         0.00000E+00
    0.28690E+06        -0.99124E+04         0.00000E+00
    0.00000E+00         0.00000E+00         0.00000E+00
 
    0.31886E+04         0.23468E+06         0.00000E+00
    0.23468E+06         0.28858E+04         0.00000E+00
    0.00000E+00         0.00000E+00         0.00000E+00
 
   -0.23937E+04         0.17982E+06         0.00000E+00
    0.17982E+06         0.10622E+05         0.00000E+00
    0.00000E+00         0.00000E+00         0.00000E+00
 
   -0.18617E+04         0.12272E+06         0.00000E+00
    0.12272E+06         0.12885E+05         0.00000E+00
    0.00000E+00         0.00000E+00         0.00000E+00
 
    0.23214E+07         0.38844E+05         0.00000E+00
    0.38844E+05        -0.21064E+07         0.00000E+00
    0.00000E+00         0.00000E+00         0.00000E+00
 
    0.22517E+07         0.11338E+06         0.00000E+00
    0.11338E+06        -0.20913E+07         0.00000E+00
    0.00000E+00         0.00000E+00         0.00000E+00
 
    0.21815E+07         0.18338E+06         0.00000E+00
    0.18338E+06        -0.20635E+07         0.00000E+00
    0.00000E+00         0.00000E+00         0.00000E+00
 
    0.21113E+07         0.24853E+06         0.00000E+00
    0.24853E+06        -0.20254E+07         0.00000E+00
    0.00000E+00         0.00000E+00         0.00000E+00
 
    0.20411E+07         0.30868E+06         0.00000E+00
    0.30868E+06        -0.19794E+07         0.00000E+00
    0.00000E+00         0.00000E+00         0.00000E+00
 
    0.19713E+07         0.36377E+06         0.00000E+00
    0.36377E+06        -0.19274E+07         0.00000E+00
    0.00000E+00         0.00000E+00         0.00000E+00
 
    0.19021E+07         0.41386E+06         0.00000E+00
    0.41386E+06        -0.18712E+07         0.00000E+00
    0.00000E+00         0.00000E+00         0.00000E+00
 
    0.18337E+07         0.45906E+06         0.00000E+00
    0.45906E+06        -0.18121E+07         0.00000E+00
    0.00000E+00         0.00000E+00         0.00000E+00
 
    0.17662E+07         0.49955E+06         0.00000E+00
    0.49955E+06        -0.17513E+07         0.00000E+00
    0.00000E+00         0.00000E+00         0.00000E+00
 
    0.16998E+07         0.53558E+06         0.00000E+00
    0.53558E+06        -0.16896E+07         0.00000E+00
    0.00000E+00         0.00000E+00         0.00000E+00
 
    0.16347E+07         0.56740E+06         0.00000E+00
    0.56740E+06        -0.16278E+07         0.00000E+00
    0.00000E+00         0.00000E+00         0.00000E+00
 
    0.15710E+07         0.59530E+06         0.00000E+00
    0.59530E+06        -0.15663E+07         0.00000E+00
    0.00000E+00         0.00000E+00         0.00000E+00
 
    0.15088E+07         0.61959E+06         0.00000E+00
    0.61959E+06        -0.15056E+07         0.00000E+00
    0.00000E+00         0.00000E+00         0.00000E+00
 
    0.14480E+07         0.64057E+06         0.00000E+00
    0.64057E+06        -0.14459E+07         0.00000E+00
    0.00000E+00         0.00000E+00         0.00000E+00
 
    0.13888E+07         0.65854E+06         0.00000E+00
    0.65854E+06        -0.13874E+07         0.00000E+00
    0.00000E+00         0.00000E+00         0.00000E+00
 
    0.13312E+07         0.67381E+06         0.00000E+00
    0.67381E+06        -0.13303E+07         0.00000E+00
    0.00000E+00         0.00000E+00         0.00000E+00
 
    0.12752E+07         0.68666E+06         0.00000E+00
    0.68666E+06        -0.12745E+07         0.00000E+00
    0.00000E+00         0.00000E+00         0.00000E+00
 
    0.12206E+07         0.69735E+06         0.00000E+00
    0.69735E+06        -0.12202E+07         0.00000E+00
    0.00000E+00         0.00000E+00         0.00000E+00
 
    0.11675E+07         0.70613E+06         0.00000E+00
    0.70613E+06        -0.11672E+07         0.00000E+00
    0.00000E+00         0.00000E+00         0.00000E+00
 
    0.11157E+07         0.71322E+06         0.00000E+00
    0.71322E+06        -0.11155E+07         0.00000E+00
    0.00000E+00         0.00000E+00         0.00000E+00
 
    0.10652E+07         0.71882E+06         0.00000E+00
    0.71882E+06        -0.10651E+07         0.00000E+00
    0.00000E+00         0.00000E+00         0.00000E+00
 
    0.10159E+07         0.72308E+06         0.00000E+00
    0.72308E+06        -0.10159E+07         0.00000E+00
    0.00000E+00         0.00000E+00         0.00000E+00
 
    0.96762E+06         0.72615E+06         0.00000E+00
    0.72615E+06        -0.96763E+06         0.00000E+00
    0.00000E+00         0.00000E+00         0.00000E+00
 
    0.92028E+06         0.72812E+06         0.00000E+00
    0.72812E+06        -0.92032E+06         0.00000E+00
    0.00000E+00         0.00000E+00         0.00000E+00
 
    0.87373E+06         0.72907E+06         0.00000E+00
    0.72907E+06        -0.87381E+06         0.00000E+00
    0.00000E+00         0.00000E+00         0.00000E+00
 
    0.82786E+06         0.72902E+06         0.00000E+00
    0.72902E+06        -0.82797E+06         0.00000E+00
    0.00000E+00         0.00000E+00         0.00000E+00
 
    0.78255E+06         0.72799E+06         0.00000E+00
    0.72799E+06        -0.78268E+06         0.00000E+00
    0.00000E+00         0.00000E+00         0.00000E+00
 
    0.73770E+06         0.72593E+06         0.00000E+00
    0.72593E+06        -0.73785E+06         0.00000E+00
    0.00000E+00         0.00000E+00         0.00000E+00
 
    0.69320E+06         0.72279E+06         0.00000E+00
    0.72279E+06        -0.69337E+06         0.00000E+00
    0.00000E+00         0.00000E+00         0.00000E+00
 
    0.64899E+06         0.71846E+06         0.00000E+00
    0.71846E+06        -0.64917E+06         0.00000E+00
    0.00000E+00         0.00000E+00         0.00000E+00
 
    0.60501E+06         0.71283E+06         0.00000E+00
    0.71283E+06        -0.60520E+06         0.00000E+00
    0.00000E+00         0.00000E+00         0.00000E+00
 
    0.56122E+06         0.70575E+06         0.00000E+00
    0.70575E+06        -0.56142E+06         0.00000E+00
    0.00000E+00         0.00000E+00         0.00000E+00
 
    0.51763E+06         0.69705E+06         0.00000E+00
    0.69705E+06        -0.51783E+06         0.00000E+00
    0.00000E+00         0.00000E+00         0.00000E+00
 
    0.47428E+06         0.68653E+06         0.00000E+00
    0.68653E+06        -0.47447E+06         0.00000E+00
    0.00000E+00         0.00000E+00         0.00000E+00
 
    0.43122E+06         0.67399E+06         0.00000E+00
    0.67399E+06        -0.43139E+06         0.00000E+00
    0.00000E+00         0.00000E+00         0.00000E+00
 
    0.38857E+06         0.65920E+06         0.00000E+00
    0.65920E+06        -0.38872E+06         0.00000E+00
    0.00000E+00         0.00000E+00         0.00000E+00
 
    0.34647E+06         0.64194E+06         0.00000E+00
    0.64194E+06        -0.34658E+06         0.00000E+00
    0.00000E+00         0.00000E+00         0.00000E+00
 
    0.30512E+06         0.62198E+06         0.00000E+00
    0.62198E+06        -0.30518E+06         0.00000E+00
    0.00000E+00         0.00000E+00         0.00000E+00
 
    0.26476E+06         0.59912E+06         0.00000E+00
    0.59912E+06        -0.26474E+06         0.00000E+00
    0.00000E+00         0.00000E+00         0.00000E+00
 
    0.22568E+06         0.57312E+06         0.00000E+00
    0.57312E+06        -0.22555E+06         0.00000E+00
    0.00000E+00         0.00000E+00         0.00000E+00
 
    0.18820E+06         0.54382E+06         0.00000E+00
    0.54382E+06        -0.18792E+06         0.00000E+00
    0.00000E+00         0.00000E+00         0.00000E+00
 
    0.15271E+06         0.51105E+06         0.00000E+00
    0.51105E+06        -0.15222E+06         0.00000E+00
    0.00000E+00         0.00000E+00         0.00000E+00
 
    0.11963E+06         0.47468E+06         0.00000E+00
    0.47468E+06        -0.11886E+06         0.00000E+00
    0.00000E+00         0.00000E+00         0.00000E+00
 
    0.89434E+05         0.43464E+06         0.00000E+00
    0.43464E+06        -0.88272E+05         0.00000E+00
    0.00000E+00         0.00000E+00         0.00000E+00
 
    0.62619E+05         0.39090E+06         0.00000E+00
    0.39090E+06        -0.60930E+05         0.00000E+00
    0.00000E+00         0.00000E+00         0.00000E+00
 
    0.39730E+05         0.34351E+06         0.00000E+00
    0.34351E+06        -0.37331E+05         0.00000E+00
    0.00000E+00         0.00000E+00         0.00000E+00
 
    0.21335E+05         0.29259E+06         0.00000E+00
    0.29259E+06        -0.17988E+05         0.00000E+00
    0.00000E+00         0.00000E+00         0.00000E+00
 
    0.80224E+04         0.23834E+06         0.00000E+00
    0.23834E+06        -0.34219E+04         0.00000E+00
    0.00000E+00         0.00000E+00         0.00000E+00
 
    0.38944E+03         0.18105E+06         0.00000E+00
    0.18105E+06         0.58542E+04         0.00000E+00
    0.00000E+00         0.00000E+00         0.00000E+00
 
   -0.96597E+03         0.12112E+06         0.00000E+00
    0.12112E+06         0.93443E+04         0.00000E+00
    0.00000E+00         0.00000E+00         0.00000E+00
 
    0.23659E+07         0.38965E+05         0.00000E+00
    0.38965E+05        -0.21388E+07         0.00000E+00
    0.00000E+00         0.00000E+00         0.00000E+00
 
    0.22925E+07         0.11365E+06         0.00000E+00
    0.11365E+06        -0.21231E+07         0.00000E+00
    0.00000E+00         0.00000E+00         0.00000E+00
 
    0.22189E+07         0.18365E+06         0.00000E+00
    0.18365E+06        -0.20942E+07         0.00000E+00
    0.00000E+00         0.00000E+00         0.00000E+00
 
    0.21455E+07         0.24867E+06         0.00000E+00
    0.24867E+06        -0.20548E+07         0.00000E+00
    0.00000E+00         0.00000E+00         0.00000E+00
 
    0.20725E+07         0.30856E+06         0.00000E+00
    0.30856E+06        -0.20073E+07         0.00000E+00
    0.00000E+00         0.00000E+00         0.00000E+00
 
    0.20001E+07         0.36326E+06         0.00000E+00
    0.36326E+06        -0.19537E+07         0.00000E+00
    0.00000E+00         0.00000E+00         0.00000E+00
 
    0.19285E+07         0.41283E+06         0.00000E+00
    0.41283E+06        -0.18959E+07         0.00000E+00
    0.00000E+00         0.00000E+00         0.00000E+00
 
    0.18580E+07         0.45742E+06         0.00000E+00
    0.45742E+06        -0.18353E+07         0.00000E+00
    0.00000E+00         0.00000E+00         0.00000E+00
 
    0.17887E+07         0.49722E+06         0.00000E+00
    0.49722E+06        -0.17730E+07         0.00000E+00
    0.00000E+00         0.00000E+00         0.00000E+00
 
    0.17209E+07         0.53248E+06         0.00000E+00
    0.53248E+06        -0.17101E+07         0.00000E+00
    0.00000E+00         0.00000E+00         0.00000E+00
 
    0.16545E+07         0.56349E+06         0.00000E+00
    0.56349E+06        -0.16472E+07         0.00000E+00
    0.00000E+00         0.00000E+00         0.00000E+00
 
    0.15899E+07         0.59056E+06         0.00000E+00
    0.59056E+06        -0.15849E+07         0.00000E+00
    0.00000E+00         0.00000E+00         0.00000E+00
 
    0.15269E+07         0.61401E+06         0.00000E+00
    0.61401E+06        -0.15236E+07         0.00000E+00
    0.00000E+00         0.00000E+00         0.00000E+00
 
    0.14657E+07         0.63418E+06         0.00000E+00
    0.63418E+06        -0.14635E+07         0.00000E+00
    0.00000E+00         0.00000E+00         0.00000E+00
 
    0.14064E+07         0.65138E+06         0.00000E+00
    0.65138E+06        -0.14049E+07         0.00000E+00
    0.00000E+00         0.00000E+00         0.00000E+00
 
    0.13488E+07         0.66595E+06         0.00000E+00
    0.66595E+06        -0.13478E+07         0.00000E+00
    0.00000E+00         0.00000E+00         0.00000E+00
 
    0.12929E+07         0.67817E+06         0.00000E+00
    0.67817E+06        -0.12923E+07         0.00000E+00
    0.00000E+00         0.00000E+00         0.00000E+00
 
    0.12388E+07         0.68835E+06         0.00000E+00
    0.68835E+06        -0.12383E+07         0.00000E+00
    0.00000E+00         0.00000E+00         0.00000E+00
 
    0.11863E+07         0.69673E+06         0.00000E+00
    0.69673E+06        -0.11860E+07         0.00000E+00
    0.00000E+00         0.00000E+00         0.00000E+00
 
    0.11353E+07         0.70355E+06         0.00000E+00
    0.70355E+06        -0.11351E+07         0.00000E+00
    0.00000E+00         0.00000E+00         0.00000E+00
 
    0.10856E+07         0.70903E+06         0.00000E+00
    0.70903E+06        -0.10855E+07         0.00000E+00
    0.00000E+00         0.00000E+00         0.00000E+00
 
    0.10373E+07         0.71333E+06         0.00000E+00
    0.71333E+06        -0.10372E+07         0.00000E+00
    0.00000E+00         0.00000E+00         0.00000E+00
 
    0.99001E+06         0.71660E+06         0.00000E+00
    0.71660E+06        -0.99002E+06         0.00000E+00
    0.00000E+00         0.00000E+00         0.00000E+00
 
    0.94372E+06         0.71894E+06         0.00000E+00
    0.71894E+06        -0.94377E+06         0.00000E+00
    0.00000E+00         0.00000E+00         0.00000E+00
 
    0.89823E+06         0.72042E+06         0.00000E+00
    0.72042E+06        -0.89832E+06         0.00000E+00
    0.00000E+00         0.00000E+00         0.00000E+00
 
    0.85340E+06         0.72107E+06         0.00000E+00
    0.72107E+06        -0.85352E+06         0.00000E+00
    0.00000E+00         0.00000E+00         0.00000E+00
 
    0.80908E+06         0.72089E+06         0.00000E+00
    0.72089E+06        -0.80923E+06         0.00000E+00
    0.00000E+00         0.00000E+00         0.00000E+00
 
    0.76514E+06         0.71983E+06         0.00000E+00
    0.71983E+06        -0.76531E+06         0.00000E+00
    0.00000E+00         0.00000E+00         0.00000E+00
 
    0.72144E+06         0.71782E+06         0.00000E+00
    0.71782E+06        -0.72163E+06         0.00000E+00
    0.00000E+00         0.00000E+00         0.00000E+00
 
    0.67789E+06         0.71475E+06         0.00000E+00
    0.71475E+06        -0.67810E+06         0.00000E+00
    0.00000E+00         0.00000E+00         0.00000E+00
 
    0.63441E+06         0.71047E+06         0.00000E+00
    0.71047E+06        -0.63463E+06         0.00000E+00
    0.00000E+00         0.00000E+00         0.00000E+00
 
    0.59094E+06         0.70481E+06         0.00000E+00
    0.70481E+06        -0.59118E+06         0.00000E+00
    0.00000E+00         0.00000E+00         0.00000E+00
 
    0.54747E+06         0.69758E+06         0.00000E+00
    0.69758E+06        -0.54771E+06         0.00000E+00
    0.00000E+00         0.00000E+00         0.00000E+00
 
    0.50401E+06         0.68856E+06         0.00000E+00
    0.68856E+06        -0.50424E+06         0.00000E+00
    0.00000E+00         0.00000E+00         0.00000E+00
 
    0.46061E+06         0.67749E+06         0.00000E+00
    0.67749E+06        -0.46084E+06         0.00000E+00
    0.00000E+00         0.00000E+00         0.00000E+00
 
    0.41738E+06         0.66413E+06         0.00000E+00
    0.66413E+06        -0.41759E+06         0.00000E+00
    0.00000E+00         0.00000E+00         0.00000E+00
 
    0.37445E+06         0.64823E+06         0.00000E+00
    0.64823E+06        -0.37463E+06         0.00000E+00
    0.00000E+00         0.00000E+00         0.00000E+00
 
    0.33202E+06         0.62950E+06         0.00000E+00
    0.62950E+06        -0.33216E+06         0.00000E+00
    0.00000E+00         0.00000E+00         0.00000E+00
 
    0.29033E+06         0.60770E+06         0.00000E+00
    0.60770E+06        -0.29042E+06         0.00000E+00
    0.00000E+00         0.00000E+00         0.00000E+00
 
    0.24968E+06         0.58257E+06         0.00000E+00
    0.58257E+06        -0.24969E+06         0.00000E+00
    0.00000E+00         0.00000E+00         0.00000E+00
 
    0.21040E+06         0.55388E+06         0.00000E+00
    0.55388E+06        -0.21031E+06         0.00000E+00
    0.00000E+00         0.00000E+00         0.00000E+00
 
    0.17291E+06         0.52145E+06         0.00000E+00
    0.52145E+06        -0.17269E+06         0.00000E+00
    0.00000E+00         0.00000E+00         0.00000E+00
 
    0.13765E+06         0.48510E+06         0.00000E+00
    0.48510E+06        -0.13724E+06         0.00000E+00
    0.00000E+00         0.00000E+00         0.00000E+00
 
    0.10513E+06         0.44473E+06         0.00000E+00
    0.44473E+06        -0.10447E+06         0.00000E+00
    0.00000E+00         0.00000E+00         0.00000E+00
 
    0.75873E+05         0.40027E+06         0.00000E+00
    0.40027E+06        -0.74880E+05         0.00000E+00
    0.00000E+00         0.00000E+00         0.00000E+00
 
    0.50479E+05         0.35175E+06         0.00000E+00
    0.35175E+06        -0.49041E+05         0.00000E+00
    0.00000E+00         0.00000E+00         0.00000E+00
 
    0.29559E+05         0.29927E+06         0.00000E+00
    0.29927E+06        -0.27532E+05         0.00000E+00
    0.00000E+00         0.00000E+00         0.00000E+00
 
    0.13756E+05         0.24302E+06         0.00000E+00
    0.24302E+06        -0.10952E+05         0.00000E+00
    0.00000E+00         0.00000E+00         0.00000E+00
 
    0.37217E+04         0.18329E+06         0.00000E+00
    0.18329E+06         0.10034E+03         0.00000E+00
    0.00000E+00         0.00000E+00         0.00000E+00
 
    0.11485E+03         0.12049E+06         0.00000E+00
    0.12049E+06         0.50350E+04         0.00000E+00
    0.00000E+00         0.00000E+00         0.00000E+00
 
    0.24106E+07         0.38999E+05         0.00000E+00
    0.38999E+05        -0.21710E+07         0.00000E+00
    0.00000E+00         0.00000E+00         0.00000E+00
 
    0.23334E+07         0.11365E+06         0.00000E+00
    0.11365E+06        -0.21548E+07         0.00000E+00
    0.00000E+00         0.00000E+00         0.00000E+00
 
    0.22563E+07         0.18348E+06         0.00000E+00
    0.18348E+06        -0.21248E+07         0.00000E+00
    0.00000E+00         0.00000E+00         0.00000E+00
 
    0.21797E+07         0.24819E+06         0.00000E+00
    0.24819E+06        -0.20840E+07         0.00000E+00
    0.00000E+00         0.00000E+00         0.00000E+00
 
    0.21037E+07         0.30763E+06         0.00000E+00
    0.30763E+06        -0.20349E+07         0.00000E+00
    0.00000E+00         0.00000E+00         0.00000E+00
 
    0.20286E+07         0.36175E+06         0.00000E+00
    0.36175E+06        -0.19797E+07         0.00000E+00
    0.00000E+00         0.00000E+00         0.00000E+00
 
    0.19547E+07         0.41062E+06         0.00000E+00
    0.41062E+06        -0.19203E+07         0.00000E+00
    0.00000E+00         0.00000E+00         0.00000E+00
 
    0.18821E+07         0.45441E+06         0.00000E+00
    0.45441E+06        -0.18581E+07         0.00000E+00
    0.00000E+00         0.00000E+00         0.00000E+00
 
    0.18111E+07         0.49332E+06         0.00000E+00
    0.49332E+06        -0.17945E+07         0.00000E+00
    0.00000E+00         0.00000E+00         0.00000E+00
 
    0.17417E+07         0.52762E+06         0.00000E+00
    0.52762E+06        -0.17303E+07         0.00000E+00
    0.00000E+00         0.00000E+00         0.00000E+00
 
    0.16742E+07         0.55764E+06         0.00000E+00
    0.55764E+06        -0.16664E+07         0.00000E+00
    0.00000E+00         0.00000E+00         0.00000E+00
 
    0.16086E+07         0.58369E+06         0.00000E+00
    0.58369E+06        -0.16034E+07         0.00000E+00
    0.00000E+00         0.00000E+00         0.00000E+00
 
    0.15450E+07         0.60614E+06         0.00000E+00
    0.60614E+06        -0.15415E+07         0.00000E+00
    0.00000E+00         0.00000E+00         0.00000E+00
 
    0.14835E+07         0.62532E+06         0.00000E+00
    0.62532E+06        -0.14811E+07         0.00000E+00
    0.00000E+00         0.00000E+00         0.00000E+00
 
    0.14240E+07         0.64160E+06         0.00000E+00
    0.64160E+06        -0.14224E+07         0.00000E+00
    0.00000E+00         0.00000E+00         0.00000E+00
 
    0.13666E+07         0.65532E+06         0.00000E+00
    0.65532E+06        -0.13655E+07         0.00000E+00
    0.00000E+00         0.00000E+00         0.00000E+00
 
    0.13112E+07         0.66680E+06         0.00000E+00
    0.66680E+06        -0.13104E+07         0.00000E+00
    0.00000E+00         0.00000E+00         0.00000E+00
 
    0.12576E+07         0.67634E+06         0.00000E+00
    0.67634E+06        -0.12571E+07         0.00000E+00
    0.00000E+00         0.00000E+00         0.00000E+00
 
    0.12058E+07         0.68424E+06         0.00000E+00
    0.68424E+06        -0.12055E+07         0.00000E+00
    0.00000E+00         0.00000E+00         0.00000E+00
 
    0.11558E+07         0.69073E+06         0.00000E+00
    0.69073E+06        -0.11556E+07         0.00000E+00
    0.00000E+00         0.00000E+00         0.00000E+00
 
    0.11072E+07         0.69605E+06         0.00000E+00
    0.69605E+06        -0.11071E+07         0.00000E+00
    0.00000E+00         0.00000E+00         0.00000E+00
 
    0.10600E+07         0.70037E+06         0.00000E+00
    0.70037E+06        -0.10599E+07         0.00000E+00
    0.00000E+00         0.00000E+00         0.00000E+00
 
    0.10139E+07         0.70384E+06         0.00000E+00
    0.70384E+06        -0.10139E+07         0.00000E+00
    0.00000E+00         0.00000E+00         0.00000E+00
 
    0.96890E+06         0.70657E+06         0.00000E+00
    0.70657E+06        -0.96896E+06         0.00000E+00
    0.00000E+00         0.00000E+00         0.00000E+00
 
    0.92469E+06         0.70863E+06         0.00000E+00
    0.70863E+06        -0.92478E+06         0.00000E+00
    0.00000E+00         0.00000E+00         0.00000E+00
 
    0.88109E+06         0.71005E+06         0.00000E+00
    0.71005E+06        -0.88123E+06         0.00000E+00
    0.00000E+00         0.00000E+00         0.00000E+00
 
    0.83795E+06         0.71082E+06         0.00000E+00
    0.71082E+06        -0.83812E+06         0.00000E+00
    0.00000E+00         0.00000E+00         0.00000E+00
 
    0.79510E+06         0.71089E+06         0.00000E+00
    0.71089E+06        -0.79529E+06         0.00000E+00
    0.00000E+00         0.00000E+00         0.00000E+00
 
    0.75237E+06         0.71016E+06         0.00000E+00
    0.71016E+06        -0.75259E+06         0.00000E+00
    0.00000E+00         0.00000E+00         0.00000E+00
 
    0.70964E+06         0.70851E+06         0.00000E+00
    0.70851E+06        -0.70988E+06         0.00000E+00
    0.00000E+00         0.00000E+00         0.00000E+00
 
    0.66680E+06         0.70577E+06         0.00000E+00
    0.70577E+06        -0.66706E+06         0.00000E+00
    0.00000E+00         0.00000E+00         0.00000E+00
 
    0.62377E+06         0.70175E+06         0.00000E+00
    0.70175E+06        -0.62404E+06         0.00000E+00
    0.00000E+00         0.00000E+00         0.00000E+00
 
    0.58051E+06         0.69622E+06         0.00000E+00
    0.69622E+06        -0.58079E+06         0.00000E+00
    0.00000E+00         0.00000E+00         0.00000E+00
 
    0.53702E+06         0.68892E+06         0.00000E+00
    0.68892E+06        -0.53730E+06         0.00000E+00
    0.00000E+00         0.00000E+00         0.00000E+00
 
    0.49333E+06         0.67959E+06         0.00000E+00
    0.67959E+06        -0.49361E+06         0.00000E+00
    0.00000E+00         0.00000E+00         0.00000E+00
 
    0.44953E+06         0.66792E+06         0.00000E+00
    0.66792E+06        -0.44981E+06         0.00000E+00
    0.00000E+00         0.00000E+00         0.00000E+00
 
    0.40576E+06         0.65363E+06         0.00000E+00
    0.65363E+06        -0.40602E+06         0.00000E+00
    0.00000E+00         0.00000E+00         0.00000E+00
 
    0.36220E+06         0.63639E+06         0.00000E+00
    0.63639E+06        -0.36244E+06         0.00000E+00
    0.00000E+00         0.00000E+00         0.00000E+00
 
    0.31910E+06         0.61592E+06         0.00000E+00
    0.61592E+06        -0.31932E+06         0.00000E+00
    0.00000E+00         0.00000E+00         0.00000E+00
 
    0.27676E+06         0.59191E+06         0.00000E+00
    0.59191E+06        -0.27695E+06         0.00000E+00
    0.00000E+00         0.00000E+00         0.00000E+00
 
    0.23555E+06         0.56409E+06         0.00000E+00
    0.56409E+06        -0.23569E+06         0.00000E+00
    0.00000E+00         0.00000E+00         0.00000E+00
 
    0.19587E+06         0.53223E+06         0.00000E+00
    0.53223E+06        -0.19596E+06         0.00000E+00
    0.00000E+00         0.00000E+00         0.00000E+00
 
    0.15822E+06         0.49611E+06         0.00000E+00
    0.49611E+06        -0.15824E+06         0.00000E+00
    0.00000E+00         0.00000E+00         0.00000E+00
 
    0.12311E+06         0.45559E+06         0.00000E+00
    0.45559E+06        -0.12305E+06         0.00000E+00
    0.00000E+00         0.00000E+00         0.00000E+00
 
    0.91137E+05         0.41057E+06         0.00000E+00
    0.41057E+06        -0.90977E+05         0.00000E+00
    0.00000E+00         0.00000E+00         0.00000E+00
 
    0.62926E+05         0.36105E+06         0.00000E+00
    0.36105E+06        -0.62639E+05         0.00000E+00
    0.00000E+00         0.00000E+00         0.00000E+00
 
    0.39142E+05         0.30710E+06         0.00000E+00
    0.30710E+06        -0.38696E+05         0.00000E+00
    0.00000E+00         0.00000E+00         0.00000E+00
 
    0.20482E+05         0.24890E+06         0.00000E+00
    0.24890E+06        -0.19832E+05         0.00000E+00
    0.00000E+00         0.00000E+00         0.00000E+00
 
    0.76619E+04         0.18673E+06         0.00000E+00
    0.18673E+06        -0.67453E+04         0.00000E+00
    0.00000E+00         0.00000E+00         0.00000E+00
 
    0.14008E+04         0.12103E+06         0.00000E+00
    0.12103E+06        -0.12700E+03         0.00000E+00
    0.00000E+00         0.00000E+00         0.00000E+00
 
    0.24555E+07         0.38940E+05         0.00000E+00
    0.38940E+05        -0.22031E+07         0.00000E+00
    0.00000E+00         0.00000E+00         0.00000E+00
 
    0.23744E+07         0.11337E+06         0.00000E+00
    0.11337E+06        -0.21862E+07         0.00000E+00
    0.00000E+00         0.00000E+00         0.00000E+00
 
    0.22937E+07         0.18284E+06         0.00000E+00
    0.18284E+06        -0.21552E+07         0.00000E+00
    0.00000E+00         0.00000E+00         0.00000E+00
 
    0.22138E+07         0.24705E+06         0.00000E+00
    0.24705E+06        -0.21130E+07         0.00000E+00
    0.00000E+00         0.00000E+00         0.00000E+00
 
    0.21348E+07         0.30584E+06         0.00000E+00
    0.30584E+06        -0.20623E+07         0.00000E+00
    0.00000E+00         0.00000E+00         0.00000E+00
 
    0.20570E+07         0.35918E+06         0.00000E+00
    0.35918E+06        -0.20054E+07         0.00000E+00
    0.00000E+00         0.00000E+00         0.00000E+00
 
    0.19806E+07         0.40716E+06         0.00000E+00
    0.40716E+06        -0.19443E+07         0.00000E+00
    0.00000E+00         0.00000E+00         0.00000E+00
 
    0.19059E+07         0.44993E+06         0.00000E+00
    0.44993E+06        -0.18806E+07         0.00000E+00
    0.00000E+00         0.00000E+00         0.00000E+00
 
    0.18331E+07         0.48775E+06         0.00000E+00
    0.48775E+06        -0.18156E+07         0.00000E+00
    0.00000E+00         0.00000E+00         0.00000E+00
 
    0.17623E+07         0.52090E+06         0.00000E+00
    0.52090E+06        -0.17503E+07         0.00000E+00
    0.00000E+00         0.00000E+00         0.00000E+00
 
    0.16936E+07         0.54972E+06         0.00000E+00
    0.54972E+06        -0.16854E+07         0.00000E+00
    0.00000E+00         0.00000E+00         0.00000E+00
 
    0.16272E+07         0.57456E+06         0.00000E+00
    0.57456E+06        -0.16216E+07         0.00000E+00
    0.00000E+00         0.00000E+00         0.00000E+00
 
    0.15630E+07         0.59580E+06         0.00000E+00
    0.59580E+06        -0.15593E+07         0.00000E+00
    0.00000E+00         0.00000E+00         0.00000E+00
 
    0.15013E+07         0.61383E+06         0.00000E+00
    0.61383E+06        -0.14987E+07         0.00000E+00
    0.00000E+00         0.00000E+00         0.00000E+00
 
    0.14418E+07         0.62902E+06         0.00000E+00
    0.62902E+06        -0.14401E+07         0.00000E+00
    0.00000E+00         0.00000E+00         0.00000E+00
 
    0.13847E+07         0.64174E+06         0.00000E+00
    0.64174E+06        -0.13835E+07         0.00000E+00
    0.00000E+00         0.00000E+00         0.00000E+00
 
    0.13298E+07         0.65234E+06         0.00000E+00
    0.65234E+06        -0.13290E+07         0.00000E+00
    0.00000E+00         0.00000E+00         0.00000E+00
 
    0.12770E+07         0.66114E+06         0.00000E+00
    0.66114E+06        -0.12765E+07         0.00000E+00
    0.00000E+00         0.00000E+00         0.00000E+00
 
    0.12262E+07         0.66845E+06         0.00000E+00
    0.66845E+06        -0.12258E+07         0.00000E+00
    0.00000E+00         0.00000E+00         0.00000E+00
 
    0.11772E+07         0.67454E+06         0.00000E+00
    0.67454E+06        -0.11770E+07         0.00000E+00
    0.00000E+00         0.00000E+00         0.00000E+00
 
    0.11299E+07         0.67964E+06         0.00000E+00
    0.67964E+06        -0.11298E+07         0.00000E+00
    0.00000E+00         0.00000E+00         0.00000E+00
 
    0.10841E+07         0.68395E+06         0.00000E+00
    0.68395E+06        -0.10840E+07         0.00000E+00
    0.00000E+00         0.00000E+00         0.00000E+00
 
    0.10395E+07         0.68762E+06         0.00000E+00
    0.68762E+06        -0.10395E+07         0.00000E+00
    0.00000E+00         0.00000E+00         0.00000E+00
 
    0.99592E+06         0.69077E+06         0.00000E+00
    0.69077E+06        -0.99598E+06         0.00000E+00
    0.00000E+00         0.00000E+00         0.00000E+00
 
    0.95319E+06         0.69347E+06         0.00000E+00
    0.69347E+06        -0.95329E+06         0.00000E+00
    0.00000E+00         0.00000E+00         0.00000E+00
 
    0.91105E+06         0.69574E+06         0.00000E+00
    0.69574E+06        -0.91120E+06         0.00000E+00
    0.00000E+00         0.00000E+00         0.00000E+00
 
    0.86930E+06         0.69757E+06         0.00000E+00
    0.69757E+06        -0.86949E+06         0.00000E+00
    0.00000E+00         0.00000E+00         0.00000E+00
 
    0.82773E+06         0.69889E+06         0.00000E+00
    0.69889E+06        -0.82795E+06         0.00000E+00
    0.00000E+00         0.00000E+00         0.00000E+00
 
    0.78616E+06         0.69960E+06         0.00000E+00
    0.69960E+06        -0.78641E+06         0.00000E+00
    0.00000E+00         0.00000E+00         0.00000E+00
 
    0.74442E+06         0.69955E+06         0.00000E+00
    0.69955E+06        -0.74470E+06         0.00000E+00
    0.00000E+00         0.00000E+00         0.00000E+00
 
    0.70238E+06         0.69856E+06         0.00000E+00
    0.69856E+06        -0.70268E+06         0.00000E+00
    0.00000E+00         0.00000E+00         0.00000E+00
 
    0.65992E+06         0.69639E+06         0.00000E+00
    0.69639E+06        -0.66024E+06         0.00000E+00
    0.00000E+00         0.00000E+00         0.00000E+00
 
    0.61699E+06         0.69280E+06         0.00000E+00
    0.69280E+06        -0.61732E+06         0.00000E+00
    0.00000E+00         0.00000E+00         0.00000E+00
 
    0.57355E+06         0.68749E+06         0.00000E+00
    0.68749E+06        -0.57389E+06         0.00000E+00
    0.00000E+00         0.00000E+00         0.00000E+00
 
    0.52963E+06         0.68016E+06         0.00000E+00
    0.68016E+06        -0.52998E+06         0.00000E+00
    0.00000E+00         0.00000E+00         0.00000E+00
 
    0.48529E+06         0.67047E+06         0.00000E+00
    0.67047E+06        -0.48565E+06         0.00000E+00
    0.00000E+00         0.00000E+00         0.00000E+00
 
    0.44067E+06         0.65807E+06         0.00000E+00
    0.65807E+06        -0.44102E+06         0.00000E+00
    0.00000E+00         0.00000E+00         0.00000E+00
 
    0.39594E+06         0.64262E+06         0.00000E+00
    0.64262E+06        -0.39630E+06         0.00000E+00
    0.00000E+00         0.00000E+00         0.00000E+00
 
    0.35135E+06         0.62376E+06         0.00000E+00
    0.62376E+06        -0.35171E+06         0.00000E+00
    0.00000E+00         0.00000E+00         0.00000E+00
 
    0.30721E+06         0.60116E+06         0.00000E+00
    0.60116E+06        -0.30759E+06         0.00000E+00
    0.00000E+00         0.00000E+00         0.00000E+00
 
    0.26389E+06         0.57448E+06         0.00000E+00
    0.57448E+06        -0.26430E+06         0.00000E+00
    0.00000E+00         0.00000E+00         0.00000E+00
 
    0.22184E+06         0.54344E+06         0.00000E+00
    0.54344E+06        -0.22230E+06         0.00000E+00
    0.00000E+00         0.00000E+00         0.00000E+00
 
    0.18156E+06         0.50779E+06         0.00000E+00
    0.50779E+06        -0.18209E+06         0.00000E+00
    0.00000E+00         0.00000E+00         0.00000E+00
 
    0.14361E+06         0.46733E+06         0.00000E+00
    0.46733E+06        -0.14425E+06         0.00000E+00
    0.00000E+00         0.00000E+00         0.00000E+00
 
    0.10861E+06         0.42194E+06         0.00000E+00
    0.42194E+06        -0.10943E+06         0.00000E+00
    0.00000E+00         0.00000E+00         0.00000E+00
 
    0.77237E+05         0.37156E+06         0.00000E+00
    0.37156E+06        -0.78310E+05         0.00000E+00
    0.00000E+00         0.00000E+00         0.00000E+00
 
    0.50218E+05         0.31624E+06         0.00000E+00
    0.31624E+06        -0.51642E+05         0.00000E+00
    0.00000E+00         0.00000E+00         0.00000E+00
 
    0.28304E+05         0.25615E+06         0.00000E+00
    0.25615E+06        -0.30203E+05         0.00000E+00
    0.00000E+00         0.00000E+00         0.00000E+00
 
    0.12273E+05         0.19158E+06         0.00000E+00
    0.19158E+06        -0.14796E+05         0.00000E+00
    0.00000E+00         0.00000E+00         0.00000E+00
 
    0.29133E+04         0.12294E+06         0.00000E+00
    0.12294E+06        -0.62315E+04         0.00000E+00
    0.00000E+00         0.00000E+00         0.00000E+00
 
    0.25004E+07         0.38785E+05         0.00000E+00
    0.38785E+05        -0.22348E+07         0.00000E+00
    0.00000E+00         0.00000E+00         0.00000E+00
 
    0.24153E+07         0.11281E+06         0.00000E+00
    0.11281E+06        -0.22173E+07         0.00000E+00
    0.00000E+00         0.00000E+00         0.00000E+00
 
    0.23310E+07         0.18172E+06         0.00000E+00
    0.18172E+06        -0.21852E+07         0.00000E+00
    0.00000E+00         0.00000E+00         0.00000E+00
 
    0.22476E+07         0.24522E+06         0.00000E+00
    0.24522E+06        -0.21415E+07         0.00000E+00
    0.00000E+00         0.00000E+00         0.00000E+00
 
    0.21655E+07         0.30316E+06         0.00000E+00
    0.30316E+06        -0.20892E+07         0.00000E+00
    0.00000E+00         0.00000E+00         0.00000E+00
 
    0.20849E+07         0.35552E+06         0.00000E+00
    0.35552E+06        -0.20307E+07         0.00000E+00
    0.00000E+00         0.00000E+00         0.00000E+00
 
    0.20061E+07         0.40237E+06         0.00000E+00
    0.40237E+06        -0.19679E+07         0.00000E+00
    0.00000E+00         0.00000E+00         0.00000E+00
 
    0.19293E+07         0.44392E+06         0.00000E+00
    0.44392E+06        -0.19027E+07         0.00000E+00
    0.00000E+00         0.00000E+00         0.00000E+00
 
    0.18547E+07         0.48043E+06         0.00000E+00
    0.48043E+06        -0.18362E+07         0.00000E+00
    0.00000E+00         0.00000E+00         0.00000E+00
 
    0.17824E+07         0.51220E+06         0.00000E+00
    0.51220E+06        -0.17698E+07         0.00000E+00
    0.00000E+00         0.00000E+00         0.00000E+00
 
    0.17126E+07         0.53960E+06         0.00000E+00
    0.53960E+06        -0.17040E+07         0.00000E+00
    0.00000E+00         0.00000E+00         0.00000E+00
 
    0.16454E+07         0.56302E+06         0.00000E+00
    0.56302E+06        -0.16395E+07         0.00000E+00
    0.00000E+00         0.00000E+00         0.00000E+00
 
    0.15808E+07         0.58287E+06         0.00000E+00
    0.58287E+06        -0.15769E+07         0.00000E+00
    0.00000E+00         0.00000E+00         0.00000E+00
 
    0.15189E+07         0.59954E+06         0.00000E+00
    0.59954E+06        -0.15162E+07         0.00000E+00
    0.00000E+00         0.00000E+00         0.00000E+00
 
    0.14597E+07         0.61346E+06         0.00000E+00
    0.61346E+06        -0.14578E+07         0.00000E+00
    0.00000E+00         0.00000E+00         0.00000E+00
 
    0.14030E+07         0.62501E+06         0.00000E+00
    0.62501E+06        -0.14017E+07         0.00000E+00
    0.00000E+00         0.00000E+00         0.00000E+00
 
    0.13488E+07         0.63458E+06         0.00000E+00
    0.63458E+06        -0.13479E+07         0.00000E+00
    0.00000E+00         0.00000E+00         0.00000E+00
 
    0.12969E+07         0.64252E+06         0.00000E+00
    0.64252E+06        -0.12964E+07         0.00000E+00
    0.00000E+00         0.00000E+00         0.00000E+00
 
    0.12473E+07         0.64914E+06         0.00000E+00
    0.64914E+06        -0.12469E+07         0.00000E+00
    0.00000E+00         0.00000E+00         0.00000E+00
 
    0.11996E+07         0.65474E+06         0.00000E+00
    0.65474E+06        -0.11994E+07         0.00000E+00
    0.00000E+00         0.00000E+00         0.00000E+00
 
    0.11538E+07         0.65957E+06         0.00000E+00
    0.65957E+06        -0.11537E+07         0.00000E+00
    0.00000E+00         0.00000E+00         0.00000E+00
 
    0.11096E+07         0.66384E+06         0.00000E+00
    0.66384E+06        -0.11095E+07         0.00000E+00
    0.00000E+00         0.00000E+00         0.00000E+00
 
    0.10667E+07         0.66772E+06         0.00000E+00
    0.66772E+06        -0.10667E+07         0.00000E+00
    0.00000E+00         0.00000E+00         0.00000E+00
 
    0.10248E+07         0.67131E+06         0.00000E+00
    0.67131E+06        -0.10249E+07         0.00000E+00
    0.00000E+00         0.00000E+00         0.00000E+00
 
    0.98384E+06         0.67470E+06         0.00000E+00
    0.67470E+06        -0.98396E+06         0.00000E+00
    0.00000E+00         0.00000E+00         0.00000E+00
 
    0.94340E+06         0.67791E+06         0.00000E+00
    0.67791E+06        -0.94356E+06         0.00000E+00
    0.00000E+00         0.00000E+00         0.00000E+00
 
    0.90327E+06         0.68090E+06         0.00000E+00
    0.68090E+06        -0.90347E+06         0.00000E+00
    0.00000E+00         0.00000E+00         0.00000E+00
 
    0.86321E+06         0.68362E+06         0.00000E+00
    0.68362E+06        -0.86345E+06         0.00000E+00
    0.00000E+00         0.00000E+00         0.00000E+00
 
    0.82300E+06         0.68593E+06         0.00000E+00
    0.68593E+06        -0.82328E+06         0.00000E+00
    0.00000E+00         0.00000E+00         0.00000E+00
 
    0.78245E+06         0.68767E+06         0.00000E+00
    0.68767E+06        -0.78276E+06         0.00000E+00
    0.00000E+00         0.00000E+00         0.00000E+00
 
    0.74137E+06         0.68863E+06         0.00000E+00
    0.68863E+06        -0.74171E+06         0.00000E+00
    0.00000E+00         0.00000E+00         0.00000E+00
 
    0.69964E+06         0.68856E+06         0.00000E+00
    0.68856E+06        -0.70000E+06         0.00000E+00
    0.00000E+00         0.00000E+00         0.00000E+00
 
    0.65716E+06         0.68717E+06         0.00000E+00
    0.68717E+06        -0.65754E+06         0.00000E+00
    0.00000E+00         0.00000E+00         0.00000E+00
 
    0.61387E+06         0.68412E+06         0.00000E+00
    0.68412E+06        -0.61427E+06         0.00000E+00
    0.00000E+00         0.00000E+00         0.00000E+00
 
    0.56978E+06         0.67908E+06         0.00000E+00
    0.67908E+06        -0.57020E+06         0.00000E+00
    0.00000E+00         0.00000E+00         0.00000E+00
 
    0.52494E+06         0.67167E+06         0.00000E+00
    0.67167E+06        -0.52537E+06         0.00000E+00
    0.00000E+00         0.00000E+00         0.00000E+00
 
    0.47946E+06         0.66148E+06         0.00000E+00
    0.66148E+06        -0.47991E+06         0.00000E+00
    0.00000E+00         0.00000E+00         0.00000E+00
 
    0.43351E+06         0.64813E+06         0.00000E+00
    0.64813E+06        -0.43400E+06         0.00000E+00
    0.00000E+00         0.00000E+00         0.00000E+00
 
    0.38736E+06         0.63121E+06         0.00000E+00
    0.63121E+06        -0.38789E+06         0.00000E+00
    0.00000E+00         0.00000E+00         0.00000E+00
 
    0.34130E+06         0.61031E+06         0.00000E+00
    0.61031E+06        -0.34190E+06         0.00000E+00
    0.00000E+00         0.00000E+00         0.00000E+00
 
    0.29572E+06         0.58508E+06         0.00000E+00
    0.58508E+06        -0.29644E+06         0.00000E+00
    0.00000E+00         0.00000E+00         0.00000E+00
 
    0.25109E+06         0.55515E+06         0.00000E+00
    0.55515E+06        -0.25197E+06         0.00000E+00
    0.00000E+00         0.00000E+00         0.00000E+00
 
    0.20793E+06         0.52023E+06         0.00000E+00
    0.52023E+06        -0.20905E+06         0.00000E+00
    0.00000E+00         0.00000E+00         0.00000E+00
 
    0.16684E+06         0.48007E+06         0.00000E+00
    0.48007E+06        -0.16831E+06         0.00000E+00
    0.00000E+00         0.00000E+00         0.00000E+00
 
    0.12848E+06         0.43450E+06         0.00000E+00
    0.43450E+06        -0.13045E+06         0.00000E+00
    0.00000E+00         0.00000E+00         0.00000E+00
 
    0.93590E+05         0.38343E+06         0.00000E+00
    0.38343E+06        -0.96252E+05         0.00000E+00
    0.00000E+00         0.00000E+00         0.00000E+00
 
    0.62932E+05         0.32688E+06         0.00000E+00
    0.32688E+06        -0.66543E+05         0.00000E+00
    0.00000E+00         0.00000E+00         0.00000E+00
 
    0.37327E+05         0.26499E+06         0.00000E+00
    0.26499E+06        -0.42210E+05         0.00000E+00
    0.00000E+00         0.00000E+00         0.00000E+00
 
    0.17622E+05         0.19804E+06         0.00000E+00
    0.19804E+06        -0.24175E+05         0.00000E+00
    0.00000E+00         0.00000E+00         0.00000E+00
 
    0.46754E+04         0.12646E+06         0.00000E+00
    0.12646E+06        -0.13375E+05         0.00000E+00
    0.00000E+00         0.00000E+00         0.00000E+00
 
    0.25454E+07         0.38531E+05         0.00000E+00
    0.38531E+05        -0.22661E+07         0.00000E+00
    0.00000E+00         0.00000E+00         0.00000E+00
 
    0.24561E+07         0.11194E+06         0.00000E+00
    0.11194E+06        -0.22479E+07         0.00000E+00
    0.00000E+00         0.00000E+00         0.00000E+00
 
    0.23679E+07         0.18009E+06         0.00000E+00
    0.18009E+06        -0.22147E+07         0.00000E+00
    0.00000E+00         0.00000E+00         0.00000E+00
 
    0.22811E+07         0.24268E+06         0.00000E+00
    0.24268E+06        -0.21696E+07         0.00000E+00
    0.00000E+00         0.00000E+00         0.00000E+00
 
    0.21958E+07         0.29955E+06         0.00000E+00
    0.29955E+06        -0.21156E+07         0.00000E+00
    0.00000E+00         0.00000E+00         0.00000E+00
 
    0.21124E+07         0.35069E+06         0.00000E+00
    0.35069E+06        -0.20554E+07         0.00000E+00
    0.00000E+00         0.00000E+00         0.00000E+00
 
    0.20311E+07         0.39620E+06         0.00000E+00
    0.39620E+06        -0.19909E+07         0.00000E+00
    0.00000E+00         0.00000E+00         0.00000E+00
 
    0.19521E+07         0.43630E+06         0.00000E+00
    0.43630E+06        -0.19241E+07         0.00000E+00
    0.00000E+00         0.00000E+00         0.00000E+00
 
    0.18757E+07         0.47125E+06         0.00000E+00
    0.47125E+06        -0.18563E+07         0.00000E+00
    0.00000E+00         0.00000E+00         0.00000E+00
 
    0.18020E+07         0.50141E+06         0.00000E+00
    0.50141E+06        -0.17887E+07         0.00000E+00
    0.00000E+00         0.00000E+00         0.00000E+00
 
    0.17312E+07         0.52717E+06         0.00000E+00
    0.52717E+06        -0.17221E+07         0.00000E+00
    0.00000E+00         0.00000E+00         0.00000E+00
 
    0.16632E+07         0.54894E+06         0.00000E+00
    0.54894E+06        -0.16571E+07         0.00000E+00
    0.00000E+00         0.00000E+00         0.00000E+00
 
    0.15983E+07         0.56716E+06         0.00000E+00
    0.56716E+06        -0.15941E+07         0.00000E+00
    0.00000E+00         0.00000E+00         0.00000E+00
 
    0.15364E+07         0.58228E+06         0.00000E+00
    0.58228E+06        -0.15336E+07         0.00000E+00
    0.00000E+00         0.00000E+00         0.00000E+00
 
    0.14774E+07         0.59473E+06         0.00000E+00
    0.59473E+06        -0.14755E+07         0.00000E+00
    0.00000E+00         0.00000E+00         0.00000E+00
 
    0.14214E+07         0.60494E+06         0.00000E+00
    0.60494E+06        -0.14201E+07         0.00000E+00
    0.00000E+00         0.00000E+00         0.00000E+00
 
    0.13681E+07         0.61332E+06         0.00000E+00
    0.61332E+06        -0.13672E+07         0.00000E+00
    0.00000E+00         0.00000E+00         0.00000E+00
 
    0.13174E+07         0.62024E+06         0.00000E+00
    0.62024E+06        -0.13168E+07         0.00000E+00
    0.00000E+00         0.00000E+00         0.00000E+00
 
    0.12691E+07         0.62607E+06         0.00000E+00
    0.62607E+06        -0.12687E+07         0.00000E+00
    0.00000E+00         0.00000E+00         0.00000E+00
 
    0.12231E+07         0.63109E+06         0.00000E+00
    0.63109E+06        -0.12228E+07         0.00000E+00
    0.00000E+00         0.00000E+00         0.00000E+00
 
    0.11790E+07         0.63559E+06         0.00000E+00
    0.63559E+06        -0.11788E+07         0.00000E+00
    0.00000E+00         0.00000E+00         0.00000E+00
 
    0.11366E+07         0.63979E+06         0.00000E+00
    0.63979E+06        -0.11365E+07         0.00000E+00
    0.00000E+00         0.00000E+00         0.00000E+00
 
    0.10956E+07         0.64386E+06         0.00000E+00
    0.64386E+06        -0.10956E+07         0.00000E+00
    0.00000E+00         0.00000E+00         0.00000E+00
 
    0.10558E+07         0.64792E+06         0.00000E+00
    0.64792E+06        -0.10558E+07         0.00000E+00
    0.00000E+00         0.00000E+00         0.00000E+00
 
    0.10168E+07         0.65206E+06         0.00000E+00
    0.65206E+06        -0.10169E+07         0.00000E+00
    0.00000E+00         0.00000E+00         0.00000E+00
 
    0.97826E+06         0.65628E+06         0.00000E+00
    0.65628E+06        -0.97844E+06         0.00000E+00
    0.00000E+00         0.00000E+00         0.00000E+00
 
    0.94000E+06         0.66057E+06         0.00000E+00
    0.66057E+06        -0.94023E+06         0.00000E+00
    0.00000E+00         0.00000E+00         0.00000E+00
 
    0.90169E+06         0.66482E+06         0.00000E+00
    0.66482E+06        -0.90196E+06         0.00000E+00
    0.00000E+00         0.00000E+00         0.00000E+00
 
    0.86308E+06         0.66891E+06         0.00000E+00
    0.66891E+06        -0.86339E+06         0.00000E+00
    0.00000E+00         0.00000E+00         0.00000E+00
 
    0.82392E+06         0.67265E+06         0.00000E+00
    0.67265E+06        -0.82426E+06         0.00000E+00
    0.00000E+00         0.00000E+00         0.00000E+00
 
    0.78400E+06         0.67580E+06         0.00000E+00
    0.67580E+06        -0.78438E+06         0.00000E+00
    0.00000E+00         0.00000E+00         0.00000E+00
 
    0.74316E+06         0.67807E+06         0.00000E+00
    0.67807E+06        -0.74357E+06         0.00000E+00
    0.00000E+00         0.00000E+00         0.00000E+00
 
    0.70127E+06         0.67915E+06         0.00000E+00
    0.67915E+06        -0.70171E+06         0.00000E+00
    0.00000E+00         0.00000E+00         0.00000E+00
 
    0.65824E+06         0.67867E+06         0.00000E+00
    0.67867E+06        -0.65871E+06         0.00000E+00
    0.00000E+00         0.00000E+00         0.00000E+00
 
    0.61406E+06         0.67623E+06         0.00000E+00
    0.67623E+06        -0.61456E+06         0.00000E+00
    0.00000E+00         0.00000E+00         0.00000E+00
 
    0.56875E+06         0.67142E+06         0.00000E+00
    0.67142E+06        -0.56928E+06         0.00000E+00
    0.00000E+00         0.00000E+00         0.00000E+00
 
    0.52242E+06         0.66379E+06         0.00000E+00
    0.66379E+06        -0.52299E+06         0.00000E+00
    0.00000E+00         0.00000E+00         0.00000E+00
 
    0.47523E+06         0.65287E+06         0.00000E+00
    0.65287E+06        -0.47587E+06         0.00000E+00
    0.00000E+00         0.00000E+00         0.00000E+00
 
    0.42742E+06         0.63822E+06         0.00000E+00
    0.63822E+06        -0.42815E+06         0.00000E+00
    0.00000E+00         0.00000E+00         0.00000E+00
 
    0.37932E+06         0.61938E+06         0.00000E+00
    0.61938E+06        -0.38019E+06         0.00000E+00
    0.00000E+00         0.00000E+00         0.00000E+00
 
    0.33132E+06         0.59591E+06         0.00000E+00
    0.59591E+06        -0.33238E+06         0.00000E+00
    0.00000E+00         0.00000E+00         0.00000E+00
 
    0.28389E+06         0.56741E+06         0.00000E+00
    0.56741E+06        -0.28525E+06         0.00000E+00
    0.00000E+00         0.00000E+00         0.00000E+00
 
    0.23759E+06         0.53352E+06         0.00000E+00
    0.53352E+06        -0.23939E+06         0.00000E+00
    0.00000E+00         0.00000E+00         0.00000E+00
 
    0.19305E+06         0.49393E+06         0.00000E+00
    0.49393E+06        -0.19547E+06         0.00000E+00
    0.00000E+00         0.00000E+00         0.00000E+00
 
    0.15099E+06         0.44842E+06         0.00000E+00
    0.44842E+06        -0.15428E+06         0.00000E+00
    0.00000E+00         0.00000E+00         0.00000E+00
 
    0.11217E+06         0.39686E+06         0.00000E+00
    0.39686E+06        -0.11668E+06         0.00000E+00
    0.00000E+00         0.00000E+00         0.00000E+00
 
    0.77438E+05         0.33923E+06         0.00000E+00
    0.33923E+06        -0.83587E+05         0.00000E+00
    0.00000E+00         0.00000E+00         0.00000E+00
 
    0.47668E+05         0.27565E+06         0.00000E+00
    0.27565E+06        -0.56014E+05         0.00000E+00
    0.00000E+00         0.00000E+00         0.00000E+00
 
    0.23781E+05         0.20638E+06         0.00000E+00
    0.20638E+06        -0.35012E+05         0.00000E+00
    0.00000E+00         0.00000E+00         0.00000E+00
 
    0.67119E+04         0.13185E+06         0.00000E+00
    0.13185E+06        -0.21661E+05         0.00000E+00
    0.00000E+00         0.00000E+00         0.00000E+00
 
    0.25902E+07         0.38172E+05         0.00000E+00
    0.38172E+05        -0.22968E+07         0.00000E+00
    0.00000E+00         0.00000E+00         0.00000E+00
 
    0.24967E+07         0.11076E+06         0.00000E+00
    0.11076E+06        -0.22780E+07         0.00000E+00
    0.00000E+00         0.00000E+00         0.00000E+00
 
    0.24046E+07         0.17793E+06         0.00000E+00
    0.17793E+06        -0.22436E+07         0.00000E+00
    0.00000E+00         0.00000E+00         0.00000E+00
 
    0.23141E+07         0.23938E+06         0.00000E+00
    0.23938E+06        -0.21970E+07         0.00000E+00
    0.00000E+00         0.00000E+00         0.00000E+00
 
    0.22256E+07         0.29496E+06         0.00000E+00
    0.29496E+06        -0.21414E+07         0.00000E+00
    0.00000E+00         0.00000E+00         0.00000E+00
 
    0.21393E+07         0.34465E+06         0.00000E+00
    0.34465E+06        -0.20794E+07         0.00000E+00
    0.00000E+00         0.00000E+00         0.00000E+00
 
    0.20554E+07         0.38858E+06         0.00000E+00
    0.38858E+06        -0.20132E+07         0.00000E+00
    0.00000E+00         0.00000E+00         0.00000E+00
 
    0.19743E+07         0.42697E+06         0.00000E+00
    0.42697E+06        -0.19449E+07         0.00000E+00
    0.00000E+00         0.00000E+00         0.00000E+00
 
    0.18961E+07         0.46012E+06         0.00000E+00
    0.46012E+06        -0.18757E+07         0.00000E+00
    0.00000E+00         0.00000E+00         0.00000E+00
 
    0.18210E+07         0.48842E+06         0.00000E+00
    0.48842E+06        -0.18070E+07         0.00000E+00
    0.00000E+00         0.00000E+00         0.00000E+00
 
    0.17491E+07         0.51228E+06         0.00000E+00
    0.51228E+06        -0.17396E+07         0.00000E+00
    0.00000E+00         0.00000E+00         0.00000E+00
 
    0.16806E+07         0.53216E+06         0.00000E+00
    0.53216E+06        -0.16741E+07         0.00000E+00
    0.00000E+00         0.00000E+00         0.00000E+00
 
    0.16154E+07         0.54852E+06         0.00000E+00
    0.54852E+06        -0.16110E+07         0.00000E+00
    0.00000E+00         0.00000E+00         0.00000E+00
 
    0.15536E+07         0.56185E+06         0.00000E+00
    0.56185E+06        -0.15506E+07         0.00000E+00
    0.00000E+00         0.00000E+00         0.00000E+00
 
    0.14951E+07         0.57263E+06         0.00000E+00
    0.57263E+06        -0.14931E+07         0.00000E+00
    0.00000E+00         0.00000E+00         0.00000E+00
 
    0.14398E+07         0.58130E+06         0.00000E+00
    0.58130E+06        -0.14384E+07         0.00000E+00
    0.00000E+00         0.00000E+00         0.00000E+00
 
    0.13876E+07         0.58832E+06         0.00000E+00
    0.58832E+06        -0.13867E+07         0.00000E+00
    0.00000E+00         0.00000E+00         0.00000E+00
 
    0.13383E+07         0.59409E+06         0.00000E+00
    0.59409E+06        -0.13377E+07         0.00000E+00
    0.00000E+00         0.00000E+00         0.00000E+00
 
    0.12917E+07         0.59898E+06         0.00000E+00
    0.59898E+06        -0.12912E+07         0.00000E+00
    0.00000E+00         0.00000E+00         0.00000E+00
 
    0.12474E+07         0.60333E+06         0.00000E+00
    0.60333E+06        -0.12472E+07         0.00000E+00
    0.00000E+00         0.00000E+00         0.00000E+00
 
    0.12054E+07         0.60743E+06         0.00000E+00
    0.60743E+06        -0.12052E+07         0.00000E+00
    0.00000E+00         0.00000E+00         0.00000E+00
 
    0.11651E+07         0.61152E+06         0.00000E+00
    0.61152E+06        -0.11650E+07         0.00000E+00
    0.00000E+00         0.00000E+00         0.00000E+00
 
    0.11264E+07         0.61578E+06         0.00000E+00
    0.61578E+06        -0.11264E+07         0.00000E+00
    0.00000E+00         0.00000E+00         0.00000E+00
 
    0.10888E+07         0.62034E+06         0.00000E+00
    0.62034E+06        -0.10889E+07         0.00000E+00
    0.00000E+00         0.00000E+00         0.00000E+00
 
    0.10520E+07         0.62528E+06         0.00000E+00
    0.62528E+06        -0.10522E+07         0.00000E+00
    0.00000E+00         0.00000E+00         0.00000E+00
 
    0.10158E+07         0.63061E+06         0.00000E+00
    0.63061E+06        -0.10160E+07         0.00000E+00
    0.00000E+00         0.00000E+00         0.00000E+00
 
    0.97965E+06         0.63631E+06         0.00000E+00
    0.63631E+06        -0.97990E+06         0.00000E+00
    0.00000E+00         0.00000E+00         0.00000E+00
 
    0.94336E+06         0.64226E+06         0.00000E+00
    0.64226E+06        -0.94365E+06         0.00000E+00
    0.00000E+00         0.00000E+00         0.00000E+00
 
    0.90658E+06         0.64831E+06         0.00000E+00
    0.64831E+06        -0.90692E+06         0.00000E+00
    0.00000E+00         0.00000E+00         0.00000E+00
 
    0.86904E+06         0.65426E+06         0.00000E+00
    0.65426E+06        -0.86943E+06         0.00000E+00
    0.00000E+00         0.00000E+00         0.00000E+00
 
    0.83049E+06         0.65983E+06         0.00000E+00
    0.65983E+06        -0.83092E+06         0.00000E+00
    0.00000E+00         0.00000E+00         0.00000E+00
 
    0.79073E+06         0.66473E+06         0.00000E+00
    0.66473E+06        -0.79119E+06         0.00000E+00
    0.00000E+00         0.00000E+00         0.00000E+00
 
    0.74958E+06         0.66857E+06         0.00000E+00
    0.66857E+06        -0.75008E+06         0.00000E+00
    0.00000E+00         0.00000E+00         0.00000E+00
 
    0.70694E+06         0.67097E+06         0.00000E+00
    0.67097E+06        -0.70748E+06         0.00000E+00
    0.00000E+00         0.00000E+00         0.00000E+00
 
    0.66276E+06         0.67148E+06         0.00000E+00
    0.67148E+06        -0.66334E+06         0.00000E+00
    0.00000E+00         0.00000E+00         0.00000E+00
 
    0.61704E+06         0.66962E+06         0.00000E+00
    0.66962E+06        -0.61767E+06         0.00000E+00
    0.00000E+00         0.00000E+00         0.00000E+00
 
    0.56987E+06         0.66489E+06         0.00000E+00
    0.66489E+06        -0.57057E+06         0.00000E+00
    0.00000E+00         0.00000E+00         0.00000E+00
 
    0.52140E+06         0.65679E+06         0.00000E+00
    0.65679E+06        -0.52220E+06         0.00000E+00
    0.00000E+00         0.00000E+00         0.00000E+00
 
    0.47187E+06         0.64479E+06         0.00000E+00
    0.64479E+06        -0.47281E+06         0.00000E+00
    0.00000E+00         0.00000E+00         0.00000E+00
 
    0.42159E+06         0.62837E+06         0.00000E+00
    0.62837E+06        -0.42275E+06         0.00000E+00
    0.00000E+00         0.00000E+00         0.00000E+00
 
    0.37098E+06         0.60703E+06         0.00000E+00
    0.60703E+06        -0.37245E+06         0.00000E+00
    0.00000E+00         0.00000E+00         0.00000E+00
 
    0.32053E+06         0.58030E+06         0.00000E+00
    0.58030E+06        -0.32245E+06         0.00000E+00
    0.00000E+00         0.00000E+00         0.00000E+00
 
    0.27081E+06         0.54776E+06         0.00000E+00
    0.54776E+06        -0.27340E+06         0.00000E+00
    0.00000E+00         0.00000E+00         0.00000E+00
 
    0.22250E+06         0.50903E+06         0.00000E+00
    0.50903E+06        -0.22602E+06         0.00000E+00
    0.00000E+00         0.00000E+00         0.00000E+00
 
    0.17635E+06         0.46385E+06         0.00000E+00
    0.46385E+06        -0.18117E+06         0.00000E+00
    0.00000E+00         0.00000E+00         0.00000E+00
 
    0.13318E+06         0.41202E+06         0.00000E+00
    0.41202E+06        -0.13981E+06         0.00000E+00
    0.00000E+00         0.00000E+00         0.00000E+00
 
    0.93901E+05         0.35350E+06         0.00000E+00
    0.35350E+06        -0.10297E+06         0.00000E+00
    0.00000E+00         0.00000E+00         0.00000E+00
 
    0.59450E+05         0.28835E+06         0.00000E+00
    0.28835E+06        -0.71784E+05         0.00000E+00
    0.00000E+00         0.00000E+00         0.00000E+00
 
    0.30827E+05         0.21685E+06         0.00000E+00
    0.21685E+06        -0.47448E+05         0.00000E+00
    0.00000E+00         0.00000E+00         0.00000E+00
 
    0.90493E+04         0.13941E+06         0.00000E+00
    0.13941E+06        -0.31200E+05         0.00000E+00
    0.00000E+00         0.00000E+00         0.00000E+00
 
    0.26348E+07         0.37708E+05         0.00000E+00
    0.37708E+05        -0.23269E+07         0.00000E+00
    0.00000E+00         0.00000E+00         0.00000E+00
 
    0.25369E+07         0.10925E+06         0.00000E+00
    0.10925E+06        -0.23075E+07         0.00000E+00
    0.00000E+00         0.00000E+00         0.00000E+00
 
    0.24408E+07         0.17523E+06         0.00000E+00
    0.17523E+06        -0.22719E+07         0.00000E+00
    0.00000E+00         0.00000E+00         0.00000E+00
 
    0.23466E+07         0.23531E+06         0.00000E+00
    0.23531E+06        -0.22237E+07         0.00000E+00
    0.00000E+00         0.00000E+00         0.00000E+00
 
    0.22547E+07         0.28935E+06         0.00000E+00
    0.28935E+06        -0.21664E+07         0.00000E+00
    0.00000E+00         0.00000E+00         0.00000E+00
 
    0.21654E+07         0.33735E+06         0.00000E+00
    0.33735E+06        -0.21026E+07         0.00000E+00
    0.00000E+00         0.00000E+00         0.00000E+00
 
    0.20790E+07         0.37943E+06         0.00000E+00
    0.37943E+06        -0.20347E+07         0.00000E+00
    0.00000E+00         0.00000E+00         0.00000E+00
 
    0.19957E+07         0.41585E+06         0.00000E+00
    0.41585E+06        -0.19648E+07         0.00000E+00
    0.00000E+00         0.00000E+00         0.00000E+00
 
    0.19157E+07         0.44694E+06         0.00000E+00
    0.44694E+06        -0.18943E+07         0.00000E+00
    0.00000E+00         0.00000E+00         0.00000E+00
 
    0.18392E+07         0.47311E+06         0.00000E+00
    0.47311E+06        -0.18245E+07         0.00000E+00
    0.00000E+00         0.00000E+00         0.00000E+00
 
    0.17664E+07         0.49480E+06         0.00000E+00
    0.49480E+06        -0.17563E+07         0.00000E+00
    0.00000E+00         0.00000E+00         0.00000E+00
 
    0.16973E+07         0.51252E+06         0.00000E+00
    0.51252E+06        -0.16904E+07         0.00000E+00
    0.00000E+00         0.00000E+00         0.00000E+00
 
    0.16320E+07         0.52677E+06         0.00000E+00
    0.52677E+06        -0.16273E+07         0.00000E+00
    0.00000E+00         0.00000E+00         0.00000E+00
 
    0.15704E+07         0.53807E+06         0.00000E+00
    0.53807E+06        -0.15673E+07         0.00000E+00
    0.00000E+00         0.00000E+00         0.00000E+00
 
    0.15126E+07         0.54694E+06         0.00000E+00
    0.54694E+06        -0.15104E+07         0.00000E+00
    0.00000E+00         0.00000E+00         0.00000E+00
 
    0.14583E+07         0.55387E+06         0.00000E+00
    0.55387E+06        -0.14568E+07         0.00000E+00
    0.00000E+00         0.00000E+00         0.00000E+00
 
    0.14074E+07         0.55934E+06         0.00000E+00
    0.55934E+06        -0.14064E+07         0.00000E+00
    0.00000E+00         0.00000E+00         0.00000E+00
 
    0.13597E+07         0.56379E+06         0.00000E+00
    0.56379E+06        -0.13590E+07         0.00000E+00
    0.00000E+00         0.00000E+00         0.00000E+00
 
    0.13149E+07         0.56762E+06         0.00000E+00
    0.56762E+06        -0.13145E+07         0.00000E+00
    0.00000E+00         0.00000E+00         0.00000E+00
 
    0.12728E+07         0.57120E+06         0.00000E+00
    0.57120E+06        -0.12725E+07         0.00000E+00
    0.00000E+00         0.00000E+00         0.00000E+00
 
    0.12330E+07         0.57482E+06         0.00000E+00
    0.57482E+06        -0.12328E+07         0.00000E+00
    0.00000E+00         0.00000E+00         0.00000E+00
 
    0.11952E+07         0.57876E+06         0.00000E+00
    0.57876E+06        -0.11951E+07         0.00000E+00
    0.00000E+00         0.00000E+00         0.00000E+00
 
    0.11590E+07         0.58320E+06         0.00000E+00
    0.58320E+06        -0.11590E+07         0.00000E+00
    0.00000E+00         0.00000E+00         0.00000E+00
 
    0.11240E+07         0.58828E+06         0.00000E+00
    0.58828E+06        -0.11240E+07         0.00000E+00
    0.00000E+00         0.00000E+00         0.00000E+00
 
    0.10898E+07         0.59408E+06         0.00000E+00
    0.59408E+06        -0.10899E+07         0.00000E+00
    0.00000E+00         0.00000E+00         0.00000E+00
 
    0.10561E+07         0.60062E+06         0.00000E+00
    0.60062E+06        -0.10563E+07         0.00000E+00
    0.00000E+00         0.00000E+00         0.00000E+00
 
    0.10224E+07         0.60785E+06         0.00000E+00
    0.60785E+06        -0.10226E+07         0.00000E+00
    0.00000E+00         0.00000E+00         0.00000E+00
 
    0.98837E+06         0.61566E+06         0.00000E+00
    0.61566E+06        -0.98870E+06         0.00000E+00
    0.00000E+00         0.00000E+00         0.00000E+00
 
    0.95370E+06         0.62387E+06         0.00000E+00
    0.62387E+06        -0.95408E+06         0.00000E+00
    0.00000E+00         0.00000E+00         0.00000E+00
 
    0.91803E+06         0.63225E+06         0.00000E+00
    0.63225E+06        -0.91846E+06         0.00000E+00
    0.00000E+00         0.00000E+00         0.00000E+00
 
    0.88108E+06         0.64052E+06         0.00000E+00
    0.64052E+06        -0.88156E+06         0.00000E+00
    0.00000E+00         0.00000E+00         0.00000E+00
 
    0.84259E+06         0.64831E+06         0.00000E+00
    0.64831E+06        -0.84311E+06         0.00000E+00
    0.00000E+00         0.00000E+00         0.00000E+00
 
    0.80237E+06         0.65524E+06         0.00000E+00
    0.65524E+06        -0.80293E+06         0.00000E+00
    0.00000E+00         0.00000E+00         0.00000E+00
 
    0.76025E+06         0.66085E+06         0.00000E+00
    0.66085E+06        -0.76087E+06         0.00000E+00
    0.00000E+00         0.00000E+00         0.00000E+00
 
    0.71618E+06         0.66466E+06         0.00000E+00
    0.66466E+06        -0.71685E+06         0.00000E+00
    0.00000E+00         0.00000E+00         0.00000E+00
 
    0.67011E+06         0.66613E+06         0.00000E+00
    0.66613E+06        -0.67086E+06         0.00000E+00
    0.00000E+00         0.00000E+00         0.00000E+00
 
    0.62212E+06         0.66471E+06         0.00000E+00
    0.66471E+06        -0.62297E+06         0.00000E+00
    0.00000E+00         0.00000E+00         0.00000E+00
 
    0.57235E+06         0.65981E+06         0.00000E+00
    0.65981E+06        -0.57333E+06         0.00000E+00
    0.00000E+00         0.00000E+00         0.00000E+00
 
    0.52101E+06         0.65086E+06         0.00000E+00
    0.65086E+06        -0.52220E+06         0.00000E+00
    0.00000E+00         0.00000E+00         0.00000E+00
 
    0.46844E+06         0.63727E+06         0.00000E+00
    0.63727E+06        -0.46993E+06         0.00000E+00
    0.00000E+00         0.00000E+00         0.00000E+00
 
    0.41504E+06         0.61846E+06         0.00000E+00
    0.61846E+06        -0.41697E+06         0.00000E+00
    0.00000E+00         0.00000E+00         0.00000E+00
 
    0.36132E+06         0.59388E+06         0.00000E+00
    0.59388E+06        -0.36389E+06         0.00000E+00
    0.00000E+00         0.00000E+00         0.00000E+00
 
    0.30790E+06         0.56305E+06         0.00000E+00
    0.56305E+06        -0.31137E+06         0.00000E+00
    0.00000E+00         0.00000E+00         0.00000E+00
 
    0.25546E+06         0.52553E+06         0.00000E+00
    0.52553E+06        -0.26023E+06         0.00000E+00
    0.00000E+00         0.00000E+00         0.00000E+00
 
    0.20482E+06         0.48097E+06         0.00000E+00
    0.48097E+06        -0.21138E+06         0.00000E+00
    0.00000E+00         0.00000E+00         0.00000E+00
 
    0.15684E+06         0.42914E+06         0.00000E+00
    0.42914E+06        -0.16589E+06         0.00000E+00
    0.00000E+00         0.00000E+00         0.00000E+00
 
    0.11250E+06         0.36993E+06         0.00000E+00
    0.36993E+06        -0.12490E+06         0.00000E+00
    0.00000E+00         0.00000E+00         0.00000E+00
 
    0.72805E+05         0.30339E+06         0.00000E+00
    0.30339E+06        -0.89702E+05         0.00000E+00
    0.00000E+00         0.00000E+00         0.00000E+00
 
    0.38843E+05         0.22974E+06         0.00000E+00
    0.22974E+06        -0.61633E+05         0.00000E+00
    0.00000E+00         0.00000E+00         0.00000E+00
 
    0.11716E+05         0.14943E+06         0.00000E+00
    0.14943E+06        -0.42113E+05         0.00000E+00
    0.00000E+00         0.00000E+00         0.00000E+00
 
    0.26790E+07         0.37134E+05         0.00000E+00
    0.37134E+05        -0.23563E+07         0.00000E+00
    0.00000E+00         0.00000E+00         0.00000E+00
 
    0.25767E+07         0.10742E+06         0.00000E+00
    0.10742E+06        -0.23362E+07         0.00000E+00
    0.00000E+00         0.00000E+00         0.00000E+00
 
    0.24764E+07         0.17196E+06         0.00000E+00
    0.17196E+06        -0.22993E+07         0.00000E+00
    0.00000E+00         0.00000E+00         0.00000E+00
 
    0.23784E+07         0.23044E+06         0.00000E+00
    0.23044E+06        -0.22496E+07         0.00000E+00
    0.00000E+00         0.00000E+00         0.00000E+00
 
    0.22831E+07         0.28269E+06         0.00000E+00
    0.28269E+06        -0.21904E+07         0.00000E+00
    0.00000E+00         0.00000E+00         0.00000E+00
 
    0.21907E+07         0.32873E+06         0.00000E+00
    0.32873E+06        -0.21248E+07         0.00000E+00
    0.00000E+00         0.00000E+00         0.00000E+00
 
    0.21016E+07         0.36870E+06         0.00000E+00
    0.36870E+06        -0.20552E+07         0.00000E+00
    0.00000E+00         0.00000E+00         0.00000E+00
 
    0.20161E+07         0.40287E+06         0.00000E+00
    0.40287E+06        -0.19837E+07         0.00000E+00
    0.00000E+00         0.00000E+00         0.00000E+00
 
    0.19343E+07         0.43161E+06         0.00000E+00
    0.43161E+06        -0.19119E+07         0.00000E+00
    0.00000E+00         0.00000E+00         0.00000E+00
 
    0.18565E+07         0.45535E+06         0.00000E+00
    0.45535E+06        -0.18411E+07         0.00000E+00
    0.00000E+00         0.00000E+00         0.00000E+00
 
    0.17828E+07         0.47459E+06         0.00000E+00
    0.47459E+06        -0.17722E+07         0.00000E+00
    0.00000E+00         0.00000E+00         0.00000E+00
 
    0.17132E+07         0.48987E+06         0.00000E+00
    0.48987E+06        -0.17060E+07         0.00000E+00
    0.00000E+00         0.00000E+00         0.00000E+00
 
    0.16479E+07         0.50173E+06         0.00000E+00
    0.50173E+06        -0.16430E+07         0.00000E+00
    0.00000E+00         0.00000E+00         0.00000E+00
 
    0.15868E+07         0.51074E+06         0.00000E+00
    0.51074E+06        -0.15834E+07         0.00000E+00
    0.00000E+00         0.00000E+00         0.00000E+00
 
    0.15297E+07         0.51746E+06         0.00000E+00
    0.51746E+06        -0.15274E+07         0.00000E+00
    0.00000E+00         0.00000E+00         0.00000E+00
 
    0.14766E+07         0.52242E+06         0.00000E+00
    0.52242E+06        -0.14751E+07         0.00000E+00
    0.00000E+00         0.00000E+00         0.00000E+00
 
    0.14273E+07         0.52614E+06         0.00000E+00
    0.52614E+06        -0.14262E+07         0.00000E+00
    0.00000E+00         0.00000E+00         0.00000E+00
 
    0.13815E+07         0.52910E+06         0.00000E+00
    0.52910E+06        -0.13807E+07         0.00000E+00
    0.00000E+00         0.00000E+00         0.00000E+00
 
    0.13389E+07         0.53172E+06         0.00000E+00
    0.53172E+06        -0.13384E+07         0.00000E+00
    0.00000E+00         0.00000E+00         0.00000E+00
 
    0.12991E+07         0.53441E+06         0.00000E+00
    0.53441E+06        -0.12988E+07         0.00000E+00
    0.00000E+00         0.00000E+00         0.00000E+00
 
    0.12619E+07         0.53748E+06         0.00000E+00
    0.53748E+06        -0.12618E+07         0.00000E+00
    0.00000E+00         0.00000E+00         0.00000E+00
 
    0.12269E+07         0.54121E+06         0.00000E+00
    0.54121E+06        -0.12268E+07         0.00000E+00
    0.00000E+00         0.00000E+00         0.00000E+00
 
    0.11935E+07         0.54582E+06         0.00000E+00
    0.54582E+06        -0.11935E+07         0.00000E+00
    0.00000E+00         0.00000E+00         0.00000E+00
 
    0.11614E+07         0.55145E+06         0.00000E+00
    0.55145E+06        -0.11615E+07         0.00000E+00
    0.00000E+00         0.00000E+00         0.00000E+00
 
    0.11301E+07         0.55818E+06         0.00000E+00
    0.55818E+06        -0.11303E+07         0.00000E+00
    0.00000E+00         0.00000E+00         0.00000E+00
 
    0.10992E+07         0.56602E+06         0.00000E+00
    0.56602E+06        -0.10995E+07         0.00000E+00
    0.00000E+00         0.00000E+00         0.00000E+00
 
    0.10683E+07         0.57492E+06         0.00000E+00
    0.57492E+06        -0.10686E+07         0.00000E+00
    0.00000E+00         0.00000E+00         0.00000E+00
 
    0.10369E+07         0.58475E+06         0.00000E+00
    0.58475E+06        -0.10373E+07         0.00000E+00
    0.00000E+00         0.00000E+00         0.00000E+00
 
    0.10046E+07         0.59533E+06         0.00000E+00
    0.59533E+06        -0.10051E+07         0.00000E+00
    0.00000E+00         0.00000E+00         0.00000E+00
 
    0.97112E+06         0.60639E+06         0.00000E+00
    0.60639E+06        -0.97159E+06         0.00000E+00
    0.00000E+00         0.00000E+00         0.00000E+00
 
    0.93601E+06         0.61761E+06         0.00000E+00
    0.61761E+06        -0.93654E+06         0.00000E+00
    0.00000E+00         0.00000E+00         0.00000E+00
 
    0.89902E+06         0.62862E+06         0.00000E+00
    0.62862E+06        -0.89960E+06         0.00000E+00
    0.00000E+00         0.00000E+00         0.00000E+00
 
    0.85990E+06         0.63896E+06         0.00000E+00
    0.63896E+06        -0.86054E+06         0.00000E+00
    0.00000E+00         0.00000E+00         0.00000E+00
 
    0.81848E+06         0.64815E+06         0.00000E+00
    0.64815E+06        -0.81918E+06         0.00000E+00
    0.00000E+00         0.00000E+00         0.00000E+00
 
    0.77462E+06         0.65563E+06         0.00000E+00
    0.65563E+06        -0.77539E+06         0.00000E+00
    0.00000E+00         0.00000E+00         0.00000E+00
 
    0.72829E+06         0.66083E+06         0.00000E+00
    0.66083E+06        -0.72916E+06         0.00000E+00
    0.00000E+00         0.00000E+00         0.00000E+00
 
    0.67951E+06         0.66313E+06         0.00000E+00
    0.66313E+06        -0.68051E+06         0.00000E+00
    0.00000E+00         0.00000E+00         0.00000E+00
 
    0.62841E+06         0.66188E+06         0.00000E+00
    0.66188E+06        -0.62960E+06         0.00000E+00
    0.00000E+00         0.00000E+00         0.00000E+00
 
    0.57520E+06         0.65642E+06         0.00000E+00
    0.65642E+06        -0.57667E+06         0.00000E+00
    0.00000E+00         0.00000E+00         0.00000E+00
 
    0.52020E+06         0.64608E+06         0.00000E+00
    0.64608E+06        -0.52207E+06         0.00000E+00
    0.00000E+00         0.00000E+00         0.00000E+00
 
    0.46383E+06         0.63023E+06         0.00000E+00
    0.63023E+06        -0.46627E+06         0.00000E+00
    0.00000E+00         0.00000E+00         0.00000E+00
 
    0.40660E+06         0.60823E+06         0.00000E+00
    0.60823E+06        -0.40989E+06         0.00000E+00
    0.00000E+00         0.00000E+00         0.00000E+00
 
    0.34915E+06         0.57951E+06         0.00000E+00
    0.57951E+06        -0.35364E+06         0.00000E+00
    0.00000E+00         0.00000E+00         0.00000E+00
 
    0.29222E+06         0.54356E+06         0.00000E+00
    0.54356E+06        -0.29841E+06         0.00000E+00
    0.00000E+00         0.00000E+00         0.00000E+00
 
    0.23665E+06         0.49997E+06         0.00000E+00
    0.49997E+06        -0.24520E+06         0.00000E+00
    0.00000E+00         0.00000E+00         0.00000E+00
 
    0.18337E+06         0.44843E+06         0.00000E+00
    0.44843E+06        -0.19517E+06         0.00000E+00
    0.00000E+00         0.00000E+00         0.00000E+00
 
    0.13341E+06         0.38878E+06         0.00000E+00
    0.38878E+06        -0.14962E+06         0.00000E+00
    0.00000E+00         0.00000E+00         0.00000E+00
 
    0.87873E+05         0.32103E+06         0.00000E+00
    0.32103E+06        -0.10996E+06         0.00000E+00
    0.00000E+00         0.00000E+00         0.00000E+00
 
    0.47918E+05         0.24538E+06         0.00000E+00
    0.24538E+06        -0.77728E+05         0.00000E+00
    0.00000E+00         0.00000E+00         0.00000E+00
 
    0.14742E+05         0.16227E+06         0.00000E+00
    0.16227E+06        -0.54526E+05         0.00000E+00
    0.00000E+00         0.00000E+00         0.00000E+00
 
    0.27229E+07         0.36449E+05         0.00000E+00
    0.36449E+05        -0.23848E+07         0.00000E+00
    0.00000E+00         0.00000E+00         0.00000E+00
 
    0.26159E+07         0.10524E+06         0.00000E+00
    0.10524E+06        -0.23639E+07         0.00000E+00
    0.00000E+00         0.00000E+00         0.00000E+00
 
    0.25113E+07         0.16813E+06         0.00000E+00
    0.16813E+06        -0.23258E+07         0.00000E+00
    0.00000E+00         0.00000E+00         0.00000E+00
 
    0.24094E+07         0.22475E+06         0.00000E+00
    0.22475E+06        -0.22745E+07         0.00000E+00
    0.00000E+00         0.00000E+00         0.00000E+00
 
    0.23105E+07         0.27495E+06         0.00000E+00
    0.27495E+06        -0.22135E+07         0.00000E+00
    0.00000E+00         0.00000E+00         0.00000E+00
 
    0.22150E+07         0.31875E+06         0.00000E+00
    0.31875E+06        -0.21460E+07         0.00000E+00
    0.00000E+00         0.00000E+00         0.00000E+00
 
    0.21233E+07         0.35631E+06         0.00000E+00
    0.35631E+06        -0.20746E+07         0.00000E+00
    0.00000E+00         0.00000E+00         0.00000E+00
 
    0.20355E+07         0.38794E+06         0.00000E+00
    0.38794E+06        -0.20015E+07         0.00000E+00
    0.00000E+00         0.00000E+00         0.00000E+00
 
    0.19519E+07         0.41401E+06         0.00000E+00
    0.41401E+06        -0.19283E+07         0.00000E+00
    0.00000E+00         0.00000E+00         0.00000E+00
 
    0.18727E+07         0.43502E+06         0.00000E+00
    0.43502E+06        -0.18565E+07         0.00000E+00
    0.00000E+00         0.00000E+00         0.00000E+00
 
    0.17982E+07         0.45150E+06         0.00000E+00
    0.45150E+06        -0.17871E+07         0.00000E+00
    0.00000E+00         0.00000E+00         0.00000E+00
 
    0.17283E+07         0.46403E+06         0.00000E+00
    0.46403E+06        -0.17207E+07         0.00000E+00
    0.00000E+00         0.00000E+00         0.00000E+00
 
    0.16631E+07         0.47321E+06         0.00000E+00
    0.47321E+06        -0.16579E+07         0.00000E+00
    0.00000E+00         0.00000E+00         0.00000E+00
 
    0.16025E+07         0.47965E+06         0.00000E+00
    0.47965E+06        -0.15990E+07         0.00000E+00
    0.00000E+00         0.00000E+00         0.00000E+00
 
    0.15465E+07         0.48395E+06         0.00000E+00
    0.48395E+06        -0.15440E+07         0.00000E+00
    0.00000E+00         0.00000E+00         0.00000E+00
 
    0.14948E+07         0.48670E+06         0.00000E+00
    0.48670E+06        -0.14931E+07         0.00000E+00
    0.00000E+00         0.00000E+00         0.00000E+00
 
    0.14473E+07         0.48846E+06         0.00000E+00
    0.48846E+06        -0.14461E+07         0.00000E+00
    0.00000E+00         0.00000E+00         0.00000E+00
 
    0.14036E+07         0.48973E+06         0.00000E+00
    0.48973E+06        -0.14028E+07         0.00000E+00
    0.00000E+00         0.00000E+00         0.00000E+00
 
    0.13634E+07         0.49100E+06         0.00000E+00
    0.49100E+06        -0.13629E+07         0.00000E+00
    0.00000E+00         0.00000E+00         0.00000E+00
 
    0.13264E+07         0.49266E+06         0.00000E+00
    0.49266E+06        -0.13261E+07         0.00000E+00
    0.00000E+00         0.00000E+00         0.00000E+00
 
    0.12922E+07         0.49509E+06         0.00000E+00
    0.49509E+06        -0.12920E+07         0.00000E+00
    0.00000E+00         0.00000E+00         0.00000E+00
 
    0.12602E+07         0.49858E+06         0.00000E+00
    0.49858E+06        -0.12601E+07         0.00000E+00
    0.00000E+00         0.00000E+00         0.00000E+00
 
    0.12300E+07         0.50334E+06         0.00000E+00
    0.50334E+06        -0.12300E+07         0.00000E+00
    0.00000E+00         0.00000E+00         0.00000E+00
 
    0.12012E+07         0.50954E+06         0.00000E+00
    0.50954E+06        -0.12013E+07         0.00000E+00
    0.00000E+00         0.00000E+00         0.00000E+00
 
    0.11732E+07         0.51726E+06         0.00000E+00
    0.51726E+06        -0.11733E+07         0.00000E+00
    0.00000E+00         0.00000E+00         0.00000E+00
 
    0.11455E+07         0.52651E+06         0.00000E+00
    0.52651E+06        -0.11457E+07         0.00000E+00
    0.00000E+00         0.00000E+00         0.00000E+00
 
    0.11176E+07         0.53722E+06         0.00000E+00
    0.53722E+06        -0.11180E+07         0.00000E+00
    0.00000E+00         0.00000E+00         0.00000E+00
 
    0.10892E+07         0.54926E+06         0.00000E+00
    0.54926E+06        -0.10896E+07         0.00000E+00
    0.00000E+00         0.00000E+00         0.00000E+00
 
    0.10596E+07         0.56242E+06         0.00000E+00
    0.56242E+06        -0.10601E+07         0.00000E+00
    0.00000E+00         0.00000E+00         0.00000E+00
 
    0.10285E+07         0.57641E+06         0.00000E+00
    0.57641E+06        -0.10290E+07         0.00000E+00
    0.00000E+00         0.00000E+00         0.00000E+00
 
    0.99552E+06         0.59088E+06         0.00000E+00
    0.59088E+06        -0.99611E+06         0.00000E+00
    0.00000E+00         0.00000E+00         0.00000E+00
 
    0.96027E+06         0.60541E+06         0.00000E+00
    0.60541E+06        -0.96092E+06         0.00000E+00
    0.00000E+00         0.00000E+00         0.00000E+00
 
    0.92248E+06         0.61952E+06         0.00000E+00
    0.61952E+06        -0.92319E+06         0.00000E+00
    0.00000E+00         0.00000E+00         0.00000E+00
 
    0.88191E+06         0.63266E+06         0.00000E+00
    0.63266E+06        -0.88270E+06         0.00000E+00
    0.00000E+00         0.00000E+00         0.00000E+00
 
    0.83841E+06         0.64423E+06         0.00000E+00
    0.64423E+06        -0.83929E+06         0.00000E+00
    0.00000E+00         0.00000E+00         0.00000E+00
 
    0.79190E+06         0.65359E+06         0.00000E+00
    0.65359E+06        -0.79290E+06         0.00000E+00
    0.00000E+00         0.00000E+00         0.00000E+00
 
    0.74237E+06         0.66006E+06         0.00000E+00
    0.66006E+06        -0.74355E+06         0.00000E+00
    0.00000E+00         0.00000E+00         0.00000E+00
 
    0.68994E+06         0.66291E+06         0.00000E+00
    0.66291E+06        -0.69136E+06         0.00000E+00
    0.00000E+00         0.00000E+00         0.00000E+00
 
    0.63479E+06         0.66141E+06         0.00000E+00
    0.66141E+06        -0.63656E+06         0.00000E+00
    0.00000E+00         0.00000E+00         0.00000E+00
 
    0.57724E+06         0.65481E+06         0.00000E+00
    0.65481E+06        -0.57952E+06         0.00000E+00
    0.00000E+00         0.00000E+00         0.00000E+00
 
    0.51769E+06         0.64239E+06         0.00000E+00
    0.64239E+06        -0.52072E+06         0.00000E+00
    0.00000E+00         0.00000E+00         0.00000E+00
 
    0.45670E+06         0.62342E+06         0.00000E+00
    0.62342E+06        -0.46080E+06         0.00000E+00
    0.00000E+00         0.00000E+00         0.00000E+00
 
    0.39491E+06         0.59726E+06         0.00000E+00
    0.59726E+06        -0.40054E+06         0.00000E+00
    0.00000E+00         0.00000E+00         0.00000E+00
 
    0.33308E+06         0.56330E+06         0.00000E+00
    0.56330E+06        -0.34087E+06         0.00000E+00
    0.00000E+00         0.00000E+00         0.00000E+00
 
    0.27212E+06         0.52105E+06         0.00000E+00
    0.52105E+06        -0.28291E+06         0.00000E+00
    0.00000E+00         0.00000E+00         0.00000E+00
 
    0.21301E+06         0.47014E+06         0.00000E+00
    0.47014E+06        -0.22793E+06         0.00000E+00
    0.00000E+00         0.00000E+00         0.00000E+00
 
    0.15684E+06         0.41033E+06         0.00000E+00
    0.41033E+06        -0.17735E+06         0.00000E+00
    0.00000E+00         0.00000E+00         0.00000E+00
 
    0.10481E+06         0.34160E+06         0.00000E+00
    0.34160E+06        -0.13277E+06         0.00000E+00
    0.00000E+00         0.00000E+00         0.00000E+00
 
    0.58146E+05         0.26412E+06         0.00000E+00
    0.26412E+06        -0.95907E+05         0.00000E+00
    0.00000E+00         0.00000E+00         0.00000E+00
 
    0.18160E+05         0.17829E+06         0.00000E+00
    0.17829E+06        -0.68578E+05         0.00000E+00
    0.00000E+00         0.00000E+00         0.00000E+00
 
    0.27662E+07         0.35652E+05         0.00000E+00
    0.35652E+05        -0.24123E+07         0.00000E+00
    0.00000E+00         0.00000E+00         0.00000E+00
 
    0.26544E+07         0.10273E+06         0.00000E+00
    0.10273E+06        -0.23907E+07         0.00000E+00
    0.00000E+00         0.00000E+00         0.00000E+00
 
    0.25454E+07         0.16370E+06         0.00000E+00
    0.16370E+06        -0.23513E+07         0.00000E+00
    0.00000E+00         0.00000E+00         0.00000E+00
 
    0.24394E+07         0.21821E+06         0.00000E+00
    0.21821E+06        -0.22982E+07         0.00000E+00
    0.00000E+00         0.00000E+00         0.00000E+00
 
    0.23369E+07         0.26608E+06         0.00000E+00
    0.26608E+06        -0.22353E+07         0.00000E+00
    0.00000E+00         0.00000E+00         0.00000E+00
 
    0.22382E+07         0.30736E+06         0.00000E+00
    0.30736E+06        -0.21659E+07         0.00000E+00
    0.00000E+00         0.00000E+00         0.00000E+00
 
    0.21437E+07         0.34221E+06         0.00000E+00
    0.34221E+06        -0.20927E+07         0.00000E+00
    0.00000E+00         0.00000E+00         0.00000E+00
 
    0.20536E+07         0.37096E+06         0.00000E+00
    0.37096E+06        -0.20180E+07         0.00000E+00
    0.00000E+00         0.00000E+00         0.00000E+00
 
    0.19682E+07         0.39405E+06         0.00000E+00
    0.39405E+06        -0.19435E+07         0.00000E+00
    0.00000E+00         0.00000E+00         0.00000E+00
 
    0.18878E+07         0.41200E+06         0.00000E+00
    0.41200E+06        -0.18708E+07         0.00000E+00
    0.00000E+00         0.00000E+00         0.00000E+00
 
    0.18124E+07         0.42538E+06         0.00000E+00
    0.42538E+06        -0.18008E+07         0.00000E+00
    0.00000E+00         0.00000E+00         0.00000E+00
 
    0.17423E+07         0.43483E+06         0.00000E+00
    0.43483E+06        -0.17343E+07         0.00000E+00
    0.00000E+00         0.00000E+00         0.00000E+00
 
    0.16773E+07         0.44101E+06         0.00000E+00
    0.44101E+06        -0.16719E+07         0.00000E+00
    0.00000E+00         0.00000E+00         0.00000E+00
 
    0.16175E+07         0.44457E+06         0.00000E+00
    0.44457E+06        -0.16138E+07         0.00000E+00
    0.00000E+00         0.00000E+00         0.00000E+00
 
    0.15627E+07         0.44618E+06         0.00000E+00
    0.44618E+06        -0.15601E+07         0.00000E+00
    0.00000E+00         0.00000E+00         0.00000E+00
 
    0.15127E+07         0.44646E+06         0.00000E+00
    0.44646E+06        -0.15109E+07         0.00000E+00
    0.00000E+00         0.00000E+00         0.00000E+00
 
    0.14672E+07         0.44602E+06         0.00000E+00
    0.44602E+06        -0.14660E+07         0.00000E+00
    0.00000E+00         0.00000E+00         0.00000E+00
 
    0.14260E+07         0.44541E+06         0.00000E+00
    0.44541E+06        -0.14252E+07         0.00000E+00
    0.00000E+00         0.00000E+00         0.00000E+00
 
    0.13886E+07         0.44515E+06         0.00000E+00
    0.44515E+06        -0.13881E+07         0.00000E+00
    0.00000E+00         0.00000E+00         0.00000E+00
 
    0.13547E+07         0.44567E+06         0.00000E+00
    0.44567E+06        -0.13543E+07         0.00000E+00
    0.00000E+00         0.00000E+00         0.00000E+00
 
    0.13237E+07         0.44737E+06         0.00000E+00
    0.44737E+06        -0.13235E+07         0.00000E+00
    0.00000E+00         0.00000E+00         0.00000E+00
 
    0.12952E+07         0.45055E+06         0.00000E+00
    0.45055E+06        -0.12951E+07         0.00000E+00
    0.00000E+00         0.00000E+00         0.00000E+00
 
    0.12686E+07         0.45546E+06         0.00000E+00
    0.45546E+06        -0.12686E+07         0.00000E+00
    0.00000E+00         0.00000E+00         0.00000E+00
 
    0.12434E+07         0.46226E+06         0.00000E+00
    0.46226E+06        -0.12435E+07         0.00000E+00
    0.00000E+00         0.00000E+00         0.00000E+00
 
    0.12190E+07         0.47104E+06         0.00000E+00
    0.47104E+06        -0.12192E+07         0.00000E+00
    0.00000E+00         0.00000E+00         0.00000E+00
 
    0.11949E+07         0.48180E+06         0.00000E+00
    0.48180E+06        -0.11952E+07         0.00000E+00
    0.00000E+00         0.00000E+00         0.00000E+00
 
    0.11705E+07         0.49447E+06         0.00000E+00
    0.49447E+06        -0.11709E+07         0.00000E+00
    0.00000E+00         0.00000E+00         0.00000E+00
 
    0.11453E+07         0.50890E+06         0.00000E+00
    0.50890E+06        -0.11458E+07         0.00000E+00
    0.00000E+00         0.00000E+00         0.00000E+00
 
    0.11188E+07         0.52486E+06         0.00000E+00
    0.52486E+06        -0.11193E+07         0.00000E+00
    0.00000E+00         0.00000E+00         0.00000E+00
 
    0.10905E+07         0.54205E+06         0.00000E+00
    0.54205E+06        -0.10910E+07         0.00000E+00
    0.00000E+00         0.00000E+00         0.00000E+00
 
    0.10599E+07         0.56006E+06         0.00000E+00
    0.56006E+06        -0.10605E+07         0.00000E+00
    0.00000E+00         0.00000E+00         0.00000E+00
 
    0.10266E+07         0.57846E+06         0.00000E+00
    0.57846E+06        -0.10273E+07         0.00000E+00
    0.00000E+00         0.00000E+00         0.00000E+00
 
    0.99038E+06         0.59670E+06         0.00000E+00
    0.59670E+06        -0.99117E+06         0.00000E+00
    0.00000E+00         0.00000E+00         0.00000E+00
 
    0.95086E+06         0.61419E+06         0.00000E+00
    0.61419E+06        -0.95175E+06         0.00000E+00
    0.00000E+00         0.00000E+00         0.00000E+00
 
    0.90787E+06         0.63028E+06         0.00000E+00
    0.63028E+06        -0.90887E+06         0.00000E+00
    0.00000E+00         0.00000E+00         0.00000E+00
 
    0.86128E+06         0.64427E+06         0.00000E+00
    0.64427E+06        -0.86244E+06         0.00000E+00
    0.00000E+00         0.00000E+00         0.00000E+00
 
    0.81106E+06         0.65538E+06         0.00000E+00
    0.65538E+06        -0.81243E+06         0.00000E+00
    0.00000E+00         0.00000E+00         0.00000E+00
 
    0.75729E+06         0.66283E+06         0.00000E+00
    0.66283E+06        -0.75896E+06         0.00000E+00
    0.00000E+00         0.00000E+00         0.00000E+00
 
    0.70014E+06         0.66579E+06         0.00000E+00
    0.66579E+06        -0.70225E+06         0.00000E+00
    0.00000E+00         0.00000E+00         0.00000E+00
 
    0.63991E+06         0.66345E+06         0.00000E+00
    0.66345E+06        -0.64266E+06         0.00000E+00
    0.00000E+00         0.00000E+00         0.00000E+00
 
    0.57701E+06         0.65496E+06         0.00000E+00
    0.65496E+06        -0.58068E+06         0.00000E+00
    0.00000E+00         0.00000E+00         0.00000E+00
 
    0.51198E+06         0.63954E+06         0.00000E+00
    0.63954E+06        -0.51699E+06         0.00000E+00
    0.00000E+00         0.00000E+00         0.00000E+00
 
    0.44550E+06         0.61641E+06         0.00000E+00
    0.61641E+06        -0.45241E+06         0.00000E+00
    0.00000E+00         0.00000E+00         0.00000E+00
 
    0.37837E+06         0.58490E+06         0.00000E+00
    0.58490E+06        -0.38796E+06         0.00000E+00
    0.00000E+00         0.00000E+00         0.00000E+00
 
    0.31153E+06         0.54442E+06         0.00000E+00
    0.54442E+06        -0.32484E+06         0.00000E+00
    0.00000E+00         0.00000E+00         0.00000E+00
 
    0.24602E+06         0.49451E+06         0.00000E+00
    0.49451E+06        -0.26445E+06         0.00000E+00
    0.00000E+00         0.00000E+00         0.00000E+00
 
    0.18301E+06         0.43488E+06         0.00000E+00
    0.43488E+06        -0.20836E+06         0.00000E+00
    0.00000E+00         0.00000E+00         0.00000E+00
 
    0.12376E+06         0.36544E+06         0.00000E+00
    0.36544E+06        -0.15836E+06         0.00000E+00
    0.00000E+00         0.00000E+00         0.00000E+00
 
    0.69629E+05         0.28631E+06         0.00000E+00
    0.28631E+06        -0.11636E+06         0.00000E+00
    0.00000E+00         0.00000E+00         0.00000E+00
 
    0.22006E+05         0.19791E+06         0.00000E+00
    0.19791E+06        -0.84417E+05         0.00000E+00
    0.00000E+00         0.00000E+00         0.00000E+00
 
    0.28089E+07         0.34742E+05         0.00000E+00
    0.34742E+05        -0.24387E+07         0.00000E+00
    0.00000E+00         0.00000E+00         0.00000E+00
 
    0.26922E+07         0.99862E+05         0.00000E+00
    0.99862E+05        -0.24163E+07         0.00000E+00
    0.00000E+00         0.00000E+00         0.00000E+00
 
    0.25786E+07         0.15868E+06         0.00000E+00
    0.15868E+06        -0.23755E+07         0.00000E+00
    0.00000E+00         0.00000E+00         0.00000E+00
 
    0.24684E+07         0.21080E+06         0.00000E+00
    0.21080E+06        -0.23207E+07         0.00000E+00
    0.00000E+00         0.00000E+00         0.00000E+00
 
    0.23621E+07         0.25607E+06         0.00000E+00
    0.25607E+06        -0.22558E+07         0.00000E+00
    0.00000E+00         0.00000E+00         0.00000E+00
 
    0.22601E+07         0.29451E+06         0.00000E+00
    0.29451E+06        -0.21844E+07         0.00000E+00
    0.00000E+00         0.00000E+00         0.00000E+00
 
    0.21627E+07         0.32632E+06         0.00000E+00
    0.32632E+06        -0.21094E+07         0.00000E+00
    0.00000E+00         0.00000E+00         0.00000E+00
 
    0.20702E+07         0.35187E+06         0.00000E+00
    0.35187E+06        -0.20330E+07         0.00000E+00
    0.00000E+00         0.00000E+00         0.00000E+00
 
    0.19831E+07         0.37161E+06         0.00000E+00
    0.37161E+06        -0.19572E+07         0.00000E+00
    0.00000E+00         0.00000E+00         0.00000E+00
 
    0.19014E+07         0.38613E+06         0.00000E+00
    0.38613E+06        -0.18836E+07         0.00000E+00
    0.00000E+00         0.00000E+00         0.00000E+00
 
    0.18253E+07         0.39606E+06         0.00000E+00
    0.39606E+06        -0.18131E+07         0.00000E+00
    0.00000E+00         0.00000E+00         0.00000E+00
 
    0.17550E+07         0.40208E+06         0.00000E+00
    0.40208E+06        -0.17467E+07         0.00000E+00
    0.00000E+00         0.00000E+00         0.00000E+00
 
    0.16905E+07         0.40492E+06         0.00000E+00
    0.40492E+06        -0.16848E+07         0.00000E+00
    0.00000E+00         0.00000E+00         0.00000E+00
 
    0.16316E+07         0.40528E+06         0.00000E+00
    0.40528E+06        -0.16277E+07         0.00000E+00
    0.00000E+00         0.00000E+00         0.00000E+00
 
    0.15782E+07         0.40388E+06         0.00000E+00
    0.40388E+06        -0.15755E+07         0.00000E+00
    0.00000E+00         0.00000E+00         0.00000E+00
 
    0.15302E+07         0.40142E+06         0.00000E+00
    0.40142E+06        -0.15283E+07         0.00000E+00
    0.00000E+00         0.00000E+00         0.00000E+00
 
    0.14871E+07         0.39853E+06         0.00000E+00
    0.39853E+06        -0.14858E+07         0.00000E+00
    0.00000E+00         0.00000E+00         0.00000E+00
 
    0.14487E+07         0.39583E+06         0.00000E+00
    0.39583E+06        -0.14478E+07         0.00000E+00
    0.00000E+00         0.00000E+00         0.00000E+00
 
    0.14145E+07         0.39386E+06         0.00000E+00
    0.39386E+06        -0.14138E+07         0.00000E+00
    0.00000E+00         0.00000E+00         0.00000E+00
 
    0.13839E+07         0.39311E+06         0.00000E+00
    0.39311E+06        -0.13835E+07         0.00000E+00
    0.00000E+00         0.00000E+00         0.00000E+00
 
    0.13566E+07         0.39398E+06         0.00000E+00
    0.39398E+06        -0.13564E+07         0.00000E+00
    0.00000E+00         0.00000E+00         0.00000E+00
 
    0.13320E+07         0.39680E+06         0.00000E+00
    0.39680E+06        -0.13319E+07         0.00000E+00
    0.00000E+00         0.00000E+00         0.00000E+00
 
    0.13093E+07         0.40184E+06         0.00000E+00
    0.40184E+06        -0.13094E+07         0.00000E+00
    0.00000E+00         0.00000E+00         0.00000E+00
 
    0.12882E+07         0.40927E+06         0.00000E+00
    0.40927E+06        -0.12883E+07         0.00000E+00
    0.00000E+00         0.00000E+00         0.00000E+00
 
    0.12678E+07         0.41918E+06         0.00000E+00
    0.41918E+06        -0.12680E+07         0.00000E+00
    0.00000E+00         0.00000E+00         0.00000E+00
 
    0.12477E+07         0.43156E+06         0.00000E+00
    0.43156E+06        -0.12480E+07         0.00000E+00
    0.00000E+00         0.00000E+00         0.00000E+00
 
    0.12271E+07         0.44635E+06         0.00000E+00
    0.44635E+06        -0.12275E+07         0.00000E+00
    0.00000E+00         0.00000E+00         0.00000E+00
 
    0.12056E+07         0.46337E+06         0.00000E+00
    0.46337E+06        -0.12060E+07         0.00000E+00
    0.00000E+00         0.00000E+00         0.00000E+00
 
    0.11824E+07         0.48238E+06         0.00000E+00
    0.48238E+06        -0.11830E+07         0.00000E+00
    0.00000E+00         0.00000E+00         0.00000E+00
 
    0.11572E+07         0.50303E+06         0.00000E+00
    0.50303E+06        -0.11578E+07         0.00000E+00
    0.00000E+00         0.00000E+00         0.00000E+00
 
    0.11293E+07         0.52490E+06         0.00000E+00
    0.52490E+06        -0.11300E+07         0.00000E+00
    0.00000E+00         0.00000E+00         0.00000E+00
 
    0.10983E+07         0.54751E+06         0.00000E+00
    0.54751E+06        -0.10991E+07         0.00000E+00
    0.00000E+00         0.00000E+00         0.00000E+00
 
    0.10639E+07         0.57028E+06         0.00000E+00
    0.57028E+06        -0.10648E+07         0.00000E+00
    0.00000E+00         0.00000E+00         0.00000E+00
 
    0.10256E+07         0.59255E+06         0.00000E+00
    0.59255E+06        -0.10266E+07         0.00000E+00
    0.00000E+00         0.00000E+00         0.00000E+00
 
    0.98333E+06         0.61362E+06         0.00000E+00
    0.61362E+06        -0.98446E+06         0.00000E+00
    0.00000E+00         0.00000E+00         0.00000E+00
 
    0.93679E+06         0.63270E+06         0.00000E+00
    0.63270E+06        -0.93811E+06         0.00000E+00
    0.00000E+00         0.00000E+00         0.00000E+00
 
    0.88595E+06         0.64897E+06         0.00000E+00
    0.64897E+06        -0.88753E+06         0.00000E+00
    0.00000E+00         0.00000E+00         0.00000E+00
 
    0.83085E+06         0.66154E+06         0.00000E+00
    0.66154E+06        -0.83280E+06         0.00000E+00
    0.00000E+00         0.00000E+00         0.00000E+00
 
    0.77164E+06         0.66952E+06         0.00000E+00
    0.66952E+06        -0.77413E+06         0.00000E+00
    0.00000E+00         0.00000E+00         0.00000E+00
 
    0.70860E+06         0.67198E+06         0.00000E+00
    0.67198E+06        -0.71188E+06         0.00000E+00
    0.00000E+00         0.00000E+00         0.00000E+00
 
    0.64215E+06         0.66800E+06         0.00000E+00
    0.66800E+06        -0.64655E+06         0.00000E+00
    0.00000E+00         0.00000E+00         0.00000E+00
 
    0.57281E+06         0.65666E+06         0.00000E+00
    0.65666E+06        -0.57885E+06         0.00000E+00
    0.00000E+00         0.00000E+00         0.00000E+00
 
    0.50129E+06         0.63711E+06         0.00000E+00
    0.63711E+06        -0.50965E+06         0.00000E+00
    0.00000E+00         0.00000E+00         0.00000E+00
 
    0.42842E+06         0.60855E+06         0.00000E+00
    0.60855E+06        -0.44004E+06         0.00000E+00
    0.00000E+00         0.00000E+00         0.00000E+00
 
    0.35518E+06         0.57031E+06         0.00000E+00
    0.57031E+06        -0.37133E+06         0.00000E+00
    0.00000E+00         0.00000E+00         0.00000E+00
 
    0.28267E+06         0.52184E+06         0.00000E+00
    0.52184E+06        -0.30504E+06         0.00000E+00
    0.00000E+00         0.00000E+00         0.00000E+00
 
    0.21213E+06         0.46276E+06         0.00000E+00
    0.46276E+06        -0.24293E+06         0.00000E+00
    0.00000E+00         0.00000E+00         0.00000E+00
 
    0.14492E+06         0.39291E+06         0.00000E+00
    0.39291E+06        -0.18695E+06         0.00000E+00
    0.00000E+00         0.00000E+00         0.00000E+00
 
    0.82476E+05         0.31239E+06         0.00000E+00
    0.31239E+06        -0.13927E+06         0.00000E+00
    0.00000E+00         0.00000E+00         0.00000E+00
 
    0.26317E+05         0.22156E+06         0.00000E+00
    0.22156E+06        -0.10220E+06         0.00000E+00
    0.00000E+00         0.00000E+00         0.00000E+00
 
    0.28508E+07         0.33719E+05         0.00000E+00
    0.33719E+05        -0.24639E+07         0.00000E+00
    0.00000E+00         0.00000E+00         0.00000E+00
 
    0.27291E+07         0.96650E+05         0.00000E+00
    0.96650E+05        -0.24407E+07         0.00000E+00
    0.00000E+00         0.00000E+00         0.00000E+00
 
    0.26107E+07         0.15305E+06         0.00000E+00
    0.15305E+06        -0.23984E+07         0.00000E+00
    0.00000E+00         0.00000E+00         0.00000E+00
 
    0.24962E+07         0.20252E+06         0.00000E+00
    0.20252E+06        -0.23417E+07         0.00000E+00
    0.00000E+00         0.00000E+00         0.00000E+00
 
    0.23860E+07         0.24487E+06         0.00000E+00
    0.24487E+06        -0.22749E+07         0.00000E+00
    0.00000E+00         0.00000E+00         0.00000E+00
 
    0.22805E+07         0.28015E+06         0.00000E+00
    0.28015E+06        -0.22014E+07         0.00000E+00
    0.00000E+00         0.00000E+00         0.00000E+00
 
    0.21802E+07         0.30858E+06         0.00000E+00
    0.30858E+06        -0.21244E+07         0.00000E+00
    0.00000E+00         0.00000E+00         0.00000E+00
 
    0.20853E+07         0.33055E+06         0.00000E+00
    0.33055E+06        -0.20463E+07         0.00000E+00
    0.00000E+00         0.00000E+00         0.00000E+00
 
    0.19963E+07         0.34658E+06         0.00000E+00
    0.34658E+06        -0.19693E+07         0.00000E+00
    0.00000E+00         0.00000E+00         0.00000E+00
 
    0.19134E+07         0.35729E+06         0.00000E+00
    0.35729E+06        -0.18947E+07         0.00000E+00
    0.00000E+00         0.00000E+00         0.00000E+00
 
    0.18367E+07         0.36338E+06         0.00000E+00
    0.36338E+06        -0.18239E+07         0.00000E+00
    0.00000E+00         0.00000E+00         0.00000E+00
 
    0.17664E+07         0.36559E+06         0.00000E+00
    0.36559E+06        -0.17576E+07         0.00000E+00
    0.00000E+00         0.00000E+00         0.00000E+00
 
    0.17024E+07         0.36471E+06         0.00000E+00
    0.36471E+06        -0.16964E+07         0.00000E+00
    0.00000E+00         0.00000E+00         0.00000E+00
 
    0.16447E+07         0.36152E+06         0.00000E+00
    0.36152E+06        -0.16406E+07         0.00000E+00
    0.00000E+00         0.00000E+00         0.00000E+00
 
    0.15931E+07         0.35680E+06         0.00000E+00
    0.35680E+06        -0.15902E+07         0.00000E+00
    0.00000E+00         0.00000E+00         0.00000E+00
 
    0.15472E+07         0.35130E+06         0.00000E+00
    0.35130E+06        -0.15453E+07         0.00000E+00
    0.00000E+00         0.00000E+00         0.00000E+00
 
    0.15069E+07         0.34571E+06         0.00000E+00
    0.34571E+06        -0.15055E+07         0.00000E+00
    0.00000E+00         0.00000E+00         0.00000E+00
 
    0.14716E+07         0.34069E+06         0.00000E+00
    0.34069E+06        -0.14706E+07         0.00000E+00
    0.00000E+00         0.00000E+00         0.00000E+00
 
    0.14408E+07         0.33684E+06         0.00000E+00
    0.33684E+06        -0.14402E+07         0.00000E+00
    0.00000E+00         0.00000E+00         0.00000E+00
 
    0.14141E+07         0.33466E+06         0.00000E+00
    0.33466E+06        -0.14137E+07         0.00000E+00
    0.00000E+00         0.00000E+00         0.00000E+00
 
    0.13909E+07         0.33460E+06         0.00000E+00
    0.33460E+06        -0.13907E+07         0.00000E+00
    0.00000E+00         0.00000E+00         0.00000E+00
 
    0.13705E+07         0.33701E+06         0.00000E+00
    0.33701E+06        -0.13704E+07         0.00000E+00
    0.00000E+00         0.00000E+00         0.00000E+00
 
    0.13523E+07         0.34217E+06         0.00000E+00
    0.34217E+06        -0.13523E+07         0.00000E+00
    0.00000E+00         0.00000E+00         0.00000E+00
 
    0.13356E+07         0.35026E+06         0.00000E+00
    0.35026E+06        -0.13357E+07         0.00000E+00
    0.00000E+00         0.00000E+00         0.00000E+00
 
    0.13197E+07         0.36137E+06         0.00000E+00
    0.36137E+06        -0.13199E+07         0.00000E+00
    0.00000E+00         0.00000E+00         0.00000E+00
 
    0.13039E+07         0.37550E+06         0.00000E+00
    0.37550E+06        -0.13042E+07         0.00000E+00
    0.00000E+00         0.00000E+00         0.00000E+00
 
    0.12876E+07         0.39257E+06         0.00000E+00
    0.39257E+06        -0.12880E+07         0.00000E+00
    0.00000E+00         0.00000E+00         0.00000E+00
 
    0.12701E+07         0.41238E+06         0.00000E+00
    0.41238E+06        -0.12706E+07         0.00000E+00
    0.00000E+00         0.00000E+00         0.00000E+00
 
    0.12507E+07         0.43467E+06         0.00000E+00
    0.43467E+06        -0.12513E+07         0.00000E+00
    0.00000E+00         0.00000E+00         0.00000E+00
 
    0.12289E+07         0.45908E+06         0.00000E+00
    0.45908E+06        -0.12296E+07         0.00000E+00
    0.00000E+00         0.00000E+00         0.00000E+00
 
    0.12041E+07         0.48514E+06         0.00000E+00
    0.48514E+06        -0.12048E+07         0.00000E+00
    0.00000E+00         0.00000E+00         0.00000E+00
 
    0.11757E+07         0.51233E+06         0.00000E+00
    0.51233E+06        -0.11766E+07         0.00000E+00
    0.00000E+00         0.00000E+00         0.00000E+00
 
    0.11433E+07         0.54003E+06         0.00000E+00
    0.54003E+06        -0.11443E+07         0.00000E+00
    0.00000E+00         0.00000E+00         0.00000E+00
 
    0.11066E+07         0.56752E+06         0.00000E+00
    0.56752E+06        -0.11077E+07         0.00000E+00
    0.00000E+00         0.00000E+00         0.00000E+00
 
    0.10651E+07         0.59404E+06         0.00000E+00
    0.59404E+06        -0.10664E+07         0.00000E+00
    0.00000E+00         0.00000E+00         0.00000E+00
 
    0.10188E+07         0.61873E+06         0.00000E+00
    0.61873E+06        -0.10203E+07         0.00000E+00
    0.00000E+00         0.00000E+00         0.00000E+00
 
    0.96738E+06         0.64070E+06         0.00000E+00
    0.64070E+06        -0.96919E+06         0.00000E+00
    0.00000E+00         0.00000E+00         0.00000E+00
 
    0.91098E+06         0.65897E+06         0.00000E+00
    0.65897E+06        -0.91324E+06         0.00000E+00
    0.00000E+00         0.00000E+00         0.00000E+00
 
    0.84967E+06         0.67254E+06         0.00000E+00
    0.67254E+06        -0.85258E+06         0.00000E+00
    0.00000E+00         0.00000E+00         0.00000E+00
 
    0.78372E+06         0.68040E+06         0.00000E+00
    0.68040E+06        -0.78757E+06         0.00000E+00
    0.00000E+00         0.00000E+00         0.00000E+00
 
    0.71351E+06         0.68151E+06         0.00000E+00
    0.68151E+06        -0.71873E+06         0.00000E+00
    0.00000E+00         0.00000E+00         0.00000E+00
 
    0.63959E+06         0.67486E+06         0.00000E+00
    0.67486E+06        -0.64677E+06         0.00000E+00
    0.00000E+00         0.00000E+00         0.00000E+00
 
    0.56267E+06         0.65947E+06         0.00000E+00
    0.65947E+06        -0.57263E+06         0.00000E+00
    0.00000E+00         0.00000E+00         0.00000E+00
 
    0.48360E+06         0.63444E+06         0.00000E+00
    0.63444E+06        -0.49748E+06         0.00000E+00
    0.00000E+00         0.00000E+00         0.00000E+00
 
    0.40340E+06         0.59897E+06         0.00000E+00
    0.59897E+06        -0.42272E+06         0.00000E+00
    0.00000E+00         0.00000E+00         0.00000E+00
 
    0.32325E+06         0.55241E+06         0.00000E+00
    0.55241E+06        -0.35004E+06         0.00000E+00
    0.00000E+00         0.00000E+00         0.00000E+00
 
    0.24445E+06         0.49431E+06         0.00000E+00
    0.49431E+06        -0.28134E+06         0.00000E+00
    0.00000E+00         0.00000E+00         0.00000E+00
 
    0.16845E+06         0.42441E+06         0.00000E+00
    0.42441E+06        -0.21882E+06         0.00000E+00
    0.00000E+00         0.00000E+00         0.00000E+00
 
    0.96804E+05         0.34277E+06         0.00000E+00
    0.34277E+06        -0.16488E+06         0.00000E+00
    0.00000E+00         0.00000E+00         0.00000E+00
 
    0.31133E+05         0.24974E+06         0.00000E+00
    0.24974E+06        -0.12211E+06         0.00000E+00
    0.00000E+00         0.00000E+00         0.00000E+00
 
    0.28919E+07         0.32586E+05         0.00000E+00
    0.32586E+05        -0.24877E+07         0.00000E+00
    0.00000E+00         0.00000E+00         0.00000E+00
 
    0.27649E+07         0.93091E+05         0.00000E+00
    0.93091E+05        -0.24636E+07         0.00000E+00
    0.00000E+00         0.00000E+00         0.00000E+00
 
    0.26417E+07         0.14682E+06         0.00000E+00
    0.14682E+06        -0.24198E+07         0.00000E+00
    0.00000E+00         0.00000E+00         0.00000E+00
 
    0.25226E+07         0.19334E+06         0.00000E+00
    0.19334E+06        -0.23612E+07         0.00000E+00
    0.00000E+00         0.00000E+00         0.00000E+00
 
    0.24084E+07         0.23247E+06         0.00000E+00
    0.23247E+06        -0.22922E+07         0.00000E+00
    0.00000E+00         0.00000E+00         0.00000E+00
 
    0.22993E+07         0.26424E+06         0.00000E+00
    0.26424E+06        -0.22166E+07         0.00000E+00
    0.00000E+00         0.00000E+00         0.00000E+00
 
    0.21959E+07         0.28892E+06         0.00000E+00
    0.28892E+06        -0.21376E+07         0.00000E+00
    0.00000E+00         0.00000E+00         0.00000E+00
 
    0.20986E+07         0.30692E+06         0.00000E+00
    0.30692E+06        -0.20578E+07         0.00000E+00
    0.00000E+00         0.00000E+00         0.00000E+00
 
    0.20078E+07         0.31883E+06         0.00000E+00
    0.31883E+06        -0.19795E+07         0.00000E+00
    0.00000E+00         0.00000E+00         0.00000E+00
 
    0.19237E+07         0.32531E+06         0.00000E+00
    0.32531E+06        -0.19041E+07         0.00000E+00
    0.00000E+00         0.00000E+00         0.00000E+00
 
    0.18464E+07         0.32714E+06         0.00000E+00
    0.32714E+06        -0.18330E+07         0.00000E+00
    0.00000E+00         0.00000E+00         0.00000E+00
 
    0.17762E+07         0.32514E+06         0.00000E+00
    0.32514E+06        -0.17670E+07         0.00000E+00
    0.00000E+00         0.00000E+00         0.00000E+00
 
    0.17130E+07         0.32015E+06         0.00000E+00
    0.32015E+06        -0.17067E+07         0.00000E+00
    0.00000E+00         0.00000E+00         0.00000E+00
 
    0.16567E+07         0.31305E+06         0.00000E+00
    0.31305E+06        -0.16523E+07         0.00000E+00
    0.00000E+00         0.00000E+00         0.00000E+00
 
    0.16070E+07         0.30466E+06         0.00000E+00
    0.30466E+06        -0.16040E+07         0.00000E+00
    0.00000E+00         0.00000E+00         0.00000E+00
 
    0.15637E+07         0.29580E+06         0.00000E+00
    0.29580E+06        -0.15616E+07         0.00000E+00
    0.00000E+00         0.00000E+00         0.00000E+00
 
    0.15264E+07         0.28723E+06         0.00000E+00
    0.28723E+06        -0.15250E+07         0.00000E+00
    0.00000E+00         0.00000E+00         0.00000E+00
 
    0.14946E+07         0.27966E+06         0.00000E+00
    0.27966E+06        -0.14936E+07         0.00000E+00
    0.00000E+00         0.00000E+00         0.00000E+00
 
    0.14678E+07         0.27373E+06         0.00000E+00
    0.27373E+06        -0.14671E+07         0.00000E+00
    0.00000E+00         0.00000E+00         0.00000E+00
 
    0.14453E+07         0.26998E+06         0.00000E+00
    0.26998E+06        -0.14449E+07         0.00000E+00
    0.00000E+00         0.00000E+00         0.00000E+00
 
    0.14266E+07         0.26889E+06         0.00000E+00
    0.26889E+06        -0.14263E+07         0.00000E+00
    0.00000E+00         0.00000E+00         0.00000E+00
 
    0.14109E+07         0.27084E+06         0.00000E+00
    0.27084E+06        -0.14108E+07         0.00000E+00
    0.00000E+00         0.00000E+00         0.00000E+00
 
    0.13975E+07         0.27611E+06         0.00000E+00
    0.27611E+06        -0.13975E+07         0.00000E+00
    0.00000E+00         0.00000E+00         0.00000E+00
 
    0.13857E+07         0.28490E+06         0.00000E+00
    0.28490E+06        -0.13858E+07         0.00000E+00
    0.00000E+00         0.00000E+00         0.00000E+00
 
    0.13747E+07         0.29729E+06         0.00000E+00
    0.29729E+06        -0.13749E+07         0.00000E+00
    0.00000E+00         0.00000E+00         0.00000E+00
 
    0.13637E+07         0.31330E+06         0.00000E+00
    0.31330E+06        -0.13641E+07         0.00000E+00
    0.00000E+00         0.00000E+00         0.00000E+00
 
    0.13521E+07         0.33281E+06         0.00000E+00
    0.33281E+06        -0.13526E+07         0.00000E+00
    0.00000E+00         0.00000E+00         0.00000E+00
 
    0.13391E+07         0.35563E+06         0.00000E+00
    0.35563E+06        -0.13396E+07         0.00000E+00
    0.00000E+00         0.00000E+00         0.00000E+00
 
    0.13239E+07         0.38146E+06         0.00000E+00
    0.38146E+06        -0.13245E+07         0.00000E+00
    0.00000E+00         0.00000E+00         0.00000E+00
 
    0.13059E+07         0.40992E+06         0.00000E+00
    0.40992E+06        -0.13066E+07         0.00000E+00
    0.00000E+00         0.00000E+00         0.00000E+00
 
    0.12844E+07         0.44052E+06         0.00000E+00
    0.44052E+06        -0.12853E+07         0.00000E+00
    0.00000E+00         0.00000E+00         0.00000E+00
 
    0.12590E+07         0.47267E+06         0.00000E+00
    0.47267E+06        -0.12599E+07         0.00000E+00
    0.00000E+00         0.00000E+00         0.00000E+00
 
    0.12290E+07         0.50572E+06         0.00000E+00
    0.50572E+06        -0.12300E+07         0.00000E+00
    0.00000E+00         0.00000E+00         0.00000E+00
 
    0.11939E+07         0.53890E+06         0.00000E+00
    0.53890E+06        -0.11952E+07         0.00000E+00
    0.00000E+00         0.00000E+00         0.00000E+00
 
    0.11536E+07         0.57136E+06         0.00000E+00
    0.57136E+06        -0.11550E+07         0.00000E+00
    0.00000E+00         0.00000E+00         0.00000E+00
 
    0.11076E+07         0.60221E+06         0.00000E+00
    0.60221E+06        -0.11092E+07         0.00000E+00
    0.00000E+00         0.00000E+00         0.00000E+00
 
    0.10557E+07         0.63043E+06         0.00000E+00
    0.63043E+06        -0.10578E+07         0.00000E+00
    0.00000E+00         0.00000E+00         0.00000E+00
 
    0.99808E+06         0.65499E+06         0.00000E+00
    0.65499E+06        -0.10007E+07         0.00000E+00
    0.00000E+00         0.00000E+00         0.00000E+00
 
    0.93464E+06         0.67479E+06         0.00000E+00
    0.67479E+06        -0.93801E+06         0.00000E+00
    0.00000E+00         0.00000E+00         0.00000E+00
 
    0.86566E+06         0.68869E+06         0.00000E+00
    0.68869E+06        -0.87015E+06         0.00000E+00
    0.00000E+00         0.00000E+00         0.00000E+00
 
    0.79150E+06         0.69555E+06         0.00000E+00
    0.69555E+06        -0.79762E+06         0.00000E+00
    0.00000E+00         0.00000E+00         0.00000E+00
 
    0.71272E+06         0.69423E+06         0.00000E+00
    0.69423E+06        -0.72117E+06         0.00000E+00
    0.00000E+00         0.00000E+00         0.00000E+00
 
    0.63002E+06         0.68364E+06         0.00000E+00
    0.68364E+06        -0.64177E+06         0.00000E+00
    0.00000E+00         0.00000E+00         0.00000E+00
 
    0.54427E+06         0.66274E+06         0.00000E+00
    0.66274E+06        -0.56067E+06         0.00000E+00
    0.00000E+00         0.00000E+00         0.00000E+00
 
    0.45655E+06         0.63063E+06         0.00000E+00
    0.63063E+06        -0.47940E+06         0.00000E+00
    0.00000E+00         0.00000E+00         0.00000E+00
 
    0.36807E+06         0.58654E+06         0.00000E+00
    0.58654E+06        -0.39978E+06         0.00000E+00
    0.00000E+00         0.00000E+00         0.00000E+00
 
    0.28023E+06         0.52989E+06         0.00000E+00
    0.52989E+06        -0.32392E+06         0.00000E+00
    0.00000E+00         0.00000E+00         0.00000E+00
 
    0.19457E+06         0.46037E+06         0.00000E+00
    0.46037E+06        -0.25423E+06         0.00000E+00
    0.00000E+00         0.00000E+00         0.00000E+00
 
    0.11274E+06         0.37795E+06         0.00000E+00
    0.37795E+06        -0.19340E+06         0.00000E+00
    0.00000E+00         0.00000E+00         0.00000E+00
 
    0.36498E+05         0.28295E+06         0.00000E+00
    0.28295E+06        -0.14432E+06         0.00000E+00
    0.00000E+00         0.00000E+00         0.00000E+00
 
    0.29321E+07         0.31343E+05         0.00000E+00
    0.31343E+05        -0.25099E+07         0.00000E+00
    0.00000E+00         0.00000E+00         0.00000E+00
 
    0.27997E+07         0.89189E+05         0.00000E+00
    0.89189E+05        -0.24849E+07         0.00000E+00
    0.00000E+00         0.00000E+00         0.00000E+00
 
    0.26713E+07         0.13999E+06         0.00000E+00
    0.13999E+06        -0.24395E+07         0.00000E+00
    0.00000E+00         0.00000E+00         0.00000E+00
 
    0.25476E+07         0.18327E+06         0.00000E+00
    0.18327E+06        -0.23789E+07         0.00000E+00
    0.00000E+00         0.00000E+00         0.00000E+00
 
    0.24291E+07         0.21883E+06         0.00000E+00
    0.21883E+06        -0.23077E+07         0.00000E+00
    0.00000E+00         0.00000E+00         0.00000E+00
 
    0.23163E+07         0.24674E+06         0.00000E+00
    0.24674E+06        -0.22298E+07         0.00000E+00
    0.00000E+00         0.00000E+00         0.00000E+00
 
    0.22097E+07         0.26726E+06         0.00000E+00
    0.26726E+06        -0.21487E+07         0.00000E+00
    0.00000E+00         0.00000E+00         0.00000E+00
 
    0.21099E+07         0.28088E+06         0.00000E+00
    0.28088E+06        -0.20673E+07         0.00000E+00
    0.00000E+00         0.00000E+00         0.00000E+00
 
    0.20172E+07         0.28822E+06         0.00000E+00
    0.28822E+06        -0.19876E+07         0.00000E+00
    0.00000E+00         0.00000E+00         0.00000E+00
 
    0.19319E+07         0.29004E+06         0.00000E+00
    0.29004E+06        -0.19115E+07         0.00000E+00
    0.00000E+00         0.00000E+00         0.00000E+00
 
    0.18543E+07         0.28716E+06         0.00000E+00
    0.28716E+06        -0.18402E+07         0.00000E+00
    0.00000E+00         0.00000E+00         0.00000E+00
 
    0.17843E+07         0.28051E+06         0.00000E+00
    0.28051E+06        -0.17747E+07         0.00000E+00
    0.00000E+00         0.00000E+00         0.00000E+00
 
    0.17221E+07         0.27100E+06         0.00000E+00
    0.27100E+06        -0.17154E+07         0.00000E+00
    0.00000E+00         0.00000E+00         0.00000E+00
 
    0.16674E+07         0.25957E+06         0.00000E+00
    0.25957E+06        -0.16628E+07         0.00000E+00
    0.00000E+00         0.00000E+00         0.00000E+00
 
    0.16200E+07         0.24714E+06         0.00000E+00
    0.24714E+06        -0.16168E+07         0.00000E+00
    0.00000E+00         0.00000E+00         0.00000E+00
 
    0.15796E+07         0.23460E+06         0.00000E+00
    0.23460E+06        -0.15774E+07         0.00000E+00
    0.00000E+00         0.00000E+00         0.00000E+00
 
    0.15457E+07         0.22278E+06         0.00000E+00
    0.22278E+06        -0.15441E+07         0.00000E+00
    0.00000E+00         0.00000E+00         0.00000E+00
 
    0.15178E+07         0.21242E+06         0.00000E+00
    0.21242E+06        -0.15167E+07         0.00000E+00
    0.00000E+00         0.00000E+00         0.00000E+00
 
    0.14953E+07         0.20421E+06         0.00000E+00
    0.20421E+06        -0.14945E+07         0.00000E+00
    0.00000E+00         0.00000E+00         0.00000E+00
 
    0.14775E+07         0.19874E+06         0.00000E+00
    0.19874E+06        -0.14770E+07         0.00000E+00
    0.00000E+00         0.00000E+00         0.00000E+00
 
    0.14637E+07         0.19653E+06         0.00000E+00
    0.19653E+06        -0.14635E+07         0.00000E+00
    0.00000E+00         0.00000E+00         0.00000E+00
 
    0.14532E+07         0.19795E+06         0.00000E+00
    0.19795E+06        -0.14531E+07         0.00000E+00
    0.00000E+00         0.00000E+00         0.00000E+00
 
    0.14451E+07         0.20333E+06         0.00000E+00
    0.20333E+06        -0.14452E+07         0.00000E+00
    0.00000E+00         0.00000E+00         0.00000E+00
 
    0.14387E+07         0.21286E+06         0.00000E+00
    0.21286E+06        -0.14389E+07         0.00000E+00
    0.00000E+00         0.00000E+00         0.00000E+00
 
    0.14331E+07         0.22663E+06         0.00000E+00
    0.22663E+06        -0.14333E+07         0.00000E+00
    0.00000E+00         0.00000E+00         0.00000E+00
 
    0.14274E+07         0.24464E+06         0.00000E+00
    0.24464E+06        -0.14278E+07         0.00000E+00
    0.00000E+00         0.00000E+00         0.00000E+00
 
    0.14209E+07         0.26678E+06         0.00000E+00
    0.26678E+06        -0.14214E+07         0.00000E+00
    0.00000E+00         0.00000E+00         0.00000E+00
 
    0.14127E+07         0.29283E+06         0.00000E+00
    0.29283E+06        -0.14133E+07         0.00000E+00
    0.00000E+00         0.00000E+00         0.00000E+00
 
    0.14021E+07         0.32247E+06         0.00000E+00
    0.32247E+06        -0.14028E+07         0.00000E+00
    0.00000E+00         0.00000E+00         0.00000E+00
 
    0.13883E+07         0.35529E+06         0.00000E+00
    0.35529E+06        -0.13891E+07         0.00000E+00
    0.00000E+00         0.00000E+00         0.00000E+00
 
    0.13706E+07         0.39077E+06         0.00000E+00
    0.39077E+06        -0.13715E+07         0.00000E+00
    0.00000E+00         0.00000E+00         0.00000E+00
 
    0.13484E+07         0.42828E+06         0.00000E+00
    0.42828E+06        -0.13495E+07         0.00000E+00
    0.00000E+00         0.00000E+00         0.00000E+00
 
    0.13211E+07         0.46711E+06         0.00000E+00
    0.46711E+06        -0.13223E+07         0.00000E+00
    0.00000E+00         0.00000E+00         0.00000E+00
 
    0.12881E+07         0.50645E+06         0.00000E+00
    0.50645E+06        -0.12894E+07         0.00000E+00
    0.00000E+00         0.00000E+00         0.00000E+00
 
    0.12490E+07         0.54539E+06         0.00000E+00
    0.54539E+06        -0.12506E+07         0.00000E+00
    0.00000E+00         0.00000E+00         0.00000E+00
 
    0.12035E+07         0.58294E+06         0.00000E+00
    0.58294E+06        -0.12054E+07         0.00000E+00
    0.00000E+00         0.00000E+00         0.00000E+00
 
    0.11514E+07         0.61803E+06         0.00000E+00
    0.61803E+06        -0.11537E+07         0.00000E+00
    0.00000E+00         0.00000E+00         0.00000E+00
 
    0.10925E+07         0.64952E+06         0.00000E+00
    0.64952E+06        -0.10955E+07         0.00000E+00
    0.00000E+00         0.00000E+00         0.00000E+00
 
    0.10269E+07         0.67619E+06         0.00000E+00
    0.67619E+06        -0.10308E+07         0.00000E+00
    0.00000E+00         0.00000E+00         0.00000E+00
 
    0.95484E+06         0.69682E+06         0.00000E+00
    0.69682E+06        -0.96004E+06         0.00000E+00
    0.00000E+00         0.00000E+00         0.00000E+00
 
    0.87655E+06         0.71012E+06         0.00000E+00
    0.71012E+06        -0.88367E+06         0.00000E+00
    0.00000E+00         0.00000E+00         0.00000E+00
 
    0.79262E+06         0.71484E+06         0.00000E+00
    0.71484E+06        -0.80248E+06         0.00000E+00
    0.00000E+00         0.00000E+00         0.00000E+00
 
    0.70375E+06         0.70975E+06         0.00000E+00
    0.70975E+06        -0.71749E+06         0.00000E+00
    0.00000E+00         0.00000E+00         0.00000E+00
 
    0.61084E+06         0.69368E+06         0.00000E+00
    0.69368E+06        -0.63004E+06         0.00000E+00
    0.00000E+00         0.00000E+00         0.00000E+00
 
    0.51498E+06         0.66558E+06         0.00000E+00
    0.66558E+06        -0.54177E+06         0.00000E+00
    0.00000E+00         0.00000E+00         0.00000E+00
 
    0.41746E+06         0.62455E+06         0.00000E+00
    0.62455E+06        -0.45465E+06         0.00000E+00
    0.00000E+00         0.00000E+00         0.00000E+00
 
    0.31975E+06         0.56991E+06         0.00000E+00
    0.56991E+06        -0.37100E+06         0.00000E+00
    0.00000E+00         0.00000E+00         0.00000E+00
 
    0.22347E+06         0.50125E+06         0.00000E+00
    0.50125E+06        -0.29349E+06         0.00000E+00
    0.00000E+00         0.00000E+00         0.00000E+00
 
    0.13041E+06         0.41844E+06         0.00000E+00
    0.41844E+06        -0.22508E+06         0.00000E+00
    0.00000E+00         0.00000E+00         0.00000E+00
 
    0.42458E+05         0.32178E+06         0.00000E+00
    0.32178E+06        -0.16903E+06         0.00000E+00
    0.00000E+00         0.00000E+00         0.00000E+00
 
    0.29714E+07         0.29994E+05         0.00000E+00
    0.29994E+05        -0.25305E+07         0.00000E+00
    0.00000E+00         0.00000E+00         0.00000E+00
 
    0.28332E+07         0.84948E+05         0.00000E+00
    0.84948E+05        -0.25046E+07         0.00000E+00
    0.00000E+00         0.00000E+00         0.00000E+00
 
    0.26995E+07         0.13255E+06         0.00000E+00
    0.13255E+06        -0.24575E+07         0.00000E+00
    0.00000E+00         0.00000E+00         0.00000E+00
 
    0.25709E+07         0.17228E+06         0.00000E+00
    0.17228E+06        -0.23947E+07         0.00000E+00
    0.00000E+00         0.00000E+00         0.00000E+00
 
    0.24479E+07         0.20393E+06         0.00000E+00
    0.20393E+06        -0.23211E+07         0.00000E+00
    0.00000E+00         0.00000E+00         0.00000E+00
 
    0.23312E+07         0.22758E+06         0.00000E+00
    0.22758E+06        -0.22409E+07         0.00000E+00
    0.00000E+00         0.00000E+00         0.00000E+00
 
    0.22214E+07         0.24354E+06         0.00000E+00
    0.24354E+06        -0.21577E+07         0.00000E+00
    0.00000E+00         0.00000E+00         0.00000E+00
 
    0.21190E+07         0.25232E+06         0.00000E+00
    0.25232E+06        -0.20744E+07         0.00000E+00
    0.00000E+00         0.00000E+00         0.00000E+00
 
    0.20244E+07         0.25463E+06         0.00000E+00
    0.25463E+06        -0.19934E+07         0.00000E+00
    0.00000E+00         0.00000E+00         0.00000E+00
 
    0.19380E+07         0.25129E+06         0.00000E+00
    0.25129E+06        -0.19166E+07         0.00000E+00
    0.00000E+00         0.00000E+00         0.00000E+00
 
    0.18600E+07         0.24323E+06         0.00000E+00
    0.24323E+06        -0.18453E+07         0.00000E+00
    0.00000E+00         0.00000E+00         0.00000E+00
 
    0.17905E+07         0.23145E+06         0.00000E+00
    0.23145E+06        -0.17803E+07         0.00000E+00
    0.00000E+00         0.00000E+00         0.00000E+00
 
    0.17294E+07         0.21696E+06         0.00000E+00
    0.21696E+06        -0.17224E+07         0.00000E+00
    0.00000E+00         0.00000E+00         0.00000E+00
 
    0.16766E+07         0.20080E+06         0.00000E+00
    0.20080E+06        -0.16718E+07         0.00000E+00
    0.00000E+00         0.00000E+00         0.00000E+00
 
    0.16318E+07         0.18395E+06         0.00000E+00
    0.18395E+06        -0.16285E+07         0.00000E+00
    0.00000E+00         0.00000E+00         0.00000E+00
 
    0.15947E+07         0.16739E+06         0.00000E+00
    0.16739E+06        -0.15923E+07         0.00000E+00
    0.00000E+00         0.00000E+00         0.00000E+00
 
    0.15646E+07         0.15200E+06         0.00000E+00
    0.15200E+06        -0.15630E+07         0.00000E+00
    0.00000E+00         0.00000E+00         0.00000E+00
 
    0.15410E+07         0.13860E+06         0.00000E+00
    0.13860E+06        -0.15399E+07         0.00000E+00
    0.00000E+00         0.00000E+00         0.00000E+00
 
    0.15233E+07         0.12792E+06         0.00000E+00
    0.12792E+06        -0.15226E+07         0.00000E+00
    0.00000E+00         0.00000E+00         0.00000E+00
 
    0.15107E+07         0.12060E+06         0.00000E+00
    0.12060E+06        -0.15102E+07         0.00000E+00
    0.00000E+00         0.00000E+00         0.00000E+00
 
    0.15024E+07         0.11716E+06         0.00000E+00
    0.11716E+06        -0.15021E+07         0.00000E+00
    0.00000E+00         0.00000E+00         0.00000E+00
 
    0.14976E+07         0.11802E+06         0.00000E+00
    0.11802E+06        -0.14974E+07         0.00000E+00
    0.00000E+00         0.00000E+00         0.00000E+00
 
    0.14953E+07         0.12352E+06         0.00000E+00
    0.12352E+06        -0.14953E+07         0.00000E+00
    0.00000E+00         0.00000E+00         0.00000E+00
 
    0.14947E+07         0.13384E+06         0.00000E+00
    0.13384E+06        -0.14949E+07         0.00000E+00
    0.00000E+00         0.00000E+00         0.00000E+00
 
    0.14949E+07         0.14908E+06         0.00000E+00
    0.14908E+06        -0.14952E+07         0.00000E+00
    0.00000E+00         0.00000E+00         0.00000E+00
 
    0.14950E+07         0.16924E+06         0.00000E+00
    0.16924E+06        -0.14954E+07         0.00000E+00
    0.00000E+00         0.00000E+00         0.00000E+00
 
    0.14940E+07         0.19419E+06         0.00000E+00
    0.19419E+06        -0.14946E+07         0.00000E+00
    0.00000E+00         0.00000E+00         0.00000E+00
 
    0.14912E+07         0.22370E+06         0.00000E+00
    0.22370E+06        -0.14918E+07         0.00000E+00
    0.00000E+00         0.00000E+00         0.00000E+00
 
    0.14856E+07         0.25742E+06         0.00000E+00
    0.25742E+06        -0.14863E+07         0.00000E+00
    0.00000E+00         0.00000E+00         0.00000E+00
 
    0.14764E+07         0.29492E+06         0.00000E+00
    0.29492E+06        -0.14773E+07         0.00000E+00
    0.00000E+00         0.00000E+00         0.00000E+00
 
    0.14629E+07         0.33563E+06         0.00000E+00
    0.33563E+06        -0.14639E+07         0.00000E+00
    0.00000E+00         0.00000E+00         0.00000E+00
 
    0.14443E+07         0.37891E+06         0.00000E+00
    0.37891E+06        -0.14454E+07         0.00000E+00
    0.00000E+00         0.00000E+00         0.00000E+00
 
    0.14200E+07         0.42398E+06         0.00000E+00
    0.42398E+06        -0.14213E+07         0.00000E+00
    0.00000E+00         0.00000E+00         0.00000E+00
 
    0.13893E+07         0.46997E+06         0.00000E+00
    0.46997E+06        -0.13908E+07         0.00000E+00
    0.00000E+00         0.00000E+00         0.00000E+00
 
    0.13518E+07         0.51593E+06         0.00000E+00
    0.51593E+06        -0.13535E+07         0.00000E+00
    0.00000E+00         0.00000E+00         0.00000E+00
 
    0.13070E+07         0.56077E+06         0.00000E+00
    0.56077E+06        -0.13091E+07         0.00000E+00
    0.00000E+00         0.00000E+00         0.00000E+00
 
    0.12547E+07         0.60334E+06         0.00000E+00
    0.60334E+06        -0.12574E+07         0.00000E+00
    0.00000E+00         0.00000E+00         0.00000E+00
 
    0.11947E+07         0.64241E+06         0.00000E+00
    0.64241E+06        -0.11981E+07         0.00000E+00
    0.00000E+00         0.00000E+00         0.00000E+00
 
    0.11270E+07         0.67667E+06         0.00000E+00
    0.67667E+06        -0.11314E+07         0.00000E+00
    0.00000E+00         0.00000E+00         0.00000E+00
 
    0.10517E+07         0.70475E+06         0.00000E+00
    0.70475E+06        -0.10577E+07         0.00000E+00
    0.00000E+00         0.00000E+00         0.00000E+00
 
    0.96909E+06         0.72525E+06         0.00000E+00
    0.72525E+06        -0.97731E+06         0.00000E+00
    0.00000E+00         0.00000E+00         0.00000E+00
 
    0.87973E+06         0.73677E+06         0.00000E+00
    0.73677E+06        -0.89115E+06         0.00000E+00
    0.00000E+00         0.00000E+00         0.00000E+00
 
    0.78430E+06         0.73794E+06         0.00000E+00
    0.73794E+06        -0.80025E+06         0.00000E+00
    0.00000E+00         0.00000E+00         0.00000E+00
 
    0.68371E+06         0.72745E+06         0.00000E+00
    0.72745E+06        -0.70603E+06         0.00000E+00
    0.00000E+00         0.00000E+00         0.00000E+00
 
    0.57908E+06         0.70408E+06         0.00000E+00
    0.70408E+06        -0.61024E+06         0.00000E+00
    0.00000E+00         0.00000E+00         0.00000E+00
 
    0.47176E+06         0.66680E+06         0.00000E+00
    0.66680E+06        -0.51504E+06         0.00000E+00
    0.00000E+00         0.00000E+00         0.00000E+00
 
    0.36329E+06         0.61479E+06         0.00000E+00
    0.61479E+06        -0.42295E+06         0.00000E+00
    0.00000E+00         0.00000E+00         0.00000E+00
 
    0.25539E+06         0.54752E+06         0.00000E+00
    0.54752E+06        -0.33691E+06         0.00000E+00
    0.00000E+00         0.00000E+00         0.00000E+00
 
    0.14997E+06         0.46480E+06         0.00000E+00
    0.46480E+06        -0.26021E+06         0.00000E+00
    0.00000E+00         0.00000E+00         0.00000E+00
 
    0.49065E+05         0.36683E+06         0.00000E+00
    0.36683E+06        -0.19647E+06         0.00000E+00
    0.00000E+00         0.00000E+00         0.00000E+00
 
    0.30095E+07         0.28544E+05         0.00000E+00
    0.28544E+05        -0.25493E+07         0.00000E+00
    0.00000E+00         0.00000E+00         0.00000E+00
 
    0.28655E+07         0.80378E+05         0.00000E+00
    0.80378E+05        -0.25223E+07         0.00000E+00
    0.00000E+00         0.00000E+00         0.00000E+00
 
    0.27262E+07         0.12450E+06         0.00000E+00
    0.12450E+06        -0.24734E+07         0.00000E+00
    0.00000E+00         0.00000E+00         0.00000E+00
 
    0.25924E+07         0.16037E+06         0.00000E+00
    0.16037E+06        -0.24084E+07         0.00000E+00
    0.00000E+00         0.00000E+00         0.00000E+00
 
    0.24647E+07         0.18775E+06         0.00000E+00
    0.18775E+06        -0.23323E+07         0.00000E+00
    0.00000E+00         0.00000E+00         0.00000E+00
 
    0.23440E+07         0.20673E+06         0.00000E+00
    0.20673E+06        -0.22496E+07         0.00000E+00
    0.00000E+00         0.00000E+00         0.00000E+00
 
    0.22307E+07         0.21766E+06         0.00000E+00
    0.21766E+06        -0.21641E+07         0.00000E+00
    0.00000E+00         0.00000E+00         0.00000E+00
 
    0.21256E+07         0.22111E+06         0.00000E+00
    0.22111E+06        -0.20790E+07         0.00000E+00
    0.00000E+00         0.00000E+00         0.00000E+00
 
    0.20292E+07         0.21787E+06         0.00000E+00
    0.21787E+06        -0.19967E+07         0.00000E+00
    0.00000E+00         0.00000E+00         0.00000E+00
 
    0.19417E+07         0.20886E+06         0.00000E+00
    0.20886E+06        -0.19193E+07         0.00000E+00
    0.00000E+00         0.00000E+00         0.00000E+00
 
    0.18634E+07         0.19510E+06         0.00000E+00
    0.19510E+06        -0.18480E+07         0.00000E+00
    0.00000E+00         0.00000E+00         0.00000E+00
 
    0.17945E+07         0.17769E+06         0.00000E+00
    0.17769E+06        -0.17839E+07         0.00000E+00
    0.00000E+00         0.00000E+00         0.00000E+00
 
    0.17349E+07         0.15775E+06         0.00000E+00
    0.15775E+06        -0.17276E+07         0.00000E+00
    0.00000E+00         0.00000E+00         0.00000E+00
 
    0.16843E+07         0.13640E+06         0.00000E+00
    0.13640E+06        -0.16792E+07         0.00000E+00
    0.00000E+00         0.00000E+00         0.00000E+00
 
    0.16425E+07         0.11474E+06         0.00000E+00
    0.11474E+06        -0.16390E+07         0.00000E+00
    0.00000E+00         0.00000E+00         0.00000E+00
 
    0.16090E+07         0.93801E+05         0.00000E+00
    0.93801E+05        -0.16065E+07         0.00000E+00
    0.00000E+00         0.00000E+00         0.00000E+00
 
    0.15832E+07         0.74548E+05         0.00000E+00
    0.74548E+05        -0.15815E+07         0.00000E+00
    0.00000E+00         0.00000E+00         0.00000E+00
 
    0.15644E+07         0.57862E+05         0.00000E+00
    0.57862E+05        -0.15632E+07         0.00000E+00
    0.00000E+00         0.00000E+00         0.00000E+00
 
    0.15520E+07         0.44520E+05         0.00000E+00
    0.44520E+05        -0.15512E+07         0.00000E+00
    0.00000E+00         0.00000E+00         0.00000E+00
 
    0.15451E+07         0.35195E+05         0.00000E+00
    0.35195E+05        -0.15445E+07         0.00000E+00
    0.00000E+00         0.00000E+00         0.00000E+00
 
    0.15427E+07         0.30447E+05         0.00000E+00
    0.30447E+05        -0.15424E+07         0.00000E+00
    0.00000E+00         0.00000E+00         0.00000E+00
 
    0.15440E+07         0.30719E+05         0.00000E+00
    0.30719E+05        -0.15439E+07         0.00000E+00
    0.00000E+00         0.00000E+00         0.00000E+00
 
    0.15481E+07         0.36339E+05         0.00000E+00
    0.36339E+05        -0.15481E+07         0.00000E+00
    0.00000E+00         0.00000E+00         0.00000E+00
 
    0.15538E+07         0.47517E+05         0.00000E+00
    0.47517E+05        -0.15540E+07         0.00000E+00
    0.00000E+00         0.00000E+00         0.00000E+00
 
    0.15604E+07         0.64348E+05         0.00000E+00
    0.64348E+05        -0.15607E+07         0.00000E+00
    0.00000E+00         0.00000E+00         0.00000E+00
 
    0.15667E+07         0.86810E+05         0.00000E+00
    0.86810E+05        -0.15671E+07         0.00000E+00
    0.00000E+00         0.00000E+00         0.00000E+00
 
    0.15718E+07         0.11477E+06         0.00000E+00
    0.11477E+06        -0.15723E+07         0.00000E+00
    0.00000E+00         0.00000E+00         0.00000E+00
 
    0.15747E+07         0.14797E+06         0.00000E+00
    0.14797E+06        -0.15754E+07         0.00000E+00
    0.00000E+00         0.00000E+00         0.00000E+00
 
    0.15746E+07         0.18606E+06         0.00000E+00
    0.18606E+06        -0.15754E+07         0.00000E+00
    0.00000E+00         0.00000E+00         0.00000E+00
 
    0.15704E+07         0.22856E+06         0.00000E+00
    0.22856E+06        -0.15714E+07         0.00000E+00
    0.00000E+00         0.00000E+00         0.00000E+00
 
    0.15615E+07         0.27488E+06         0.00000E+00
    0.27488E+06        -0.15626E+07         0.00000E+00
    0.00000E+00         0.00000E+00         0.00000E+00
 
    0.15469E+07         0.32433E+06         0.00000E+00
    0.32433E+06        -0.15481E+07         0.00000E+00
    0.00000E+00         0.00000E+00         0.00000E+00
 
    0.15259E+07         0.37609E+06         0.00000E+00
    0.37609E+06        -0.15273E+07         0.00000E+00
    0.00000E+00         0.00000E+00         0.00000E+00
 
    0.14978E+07         0.42924E+06         0.00000E+00
    0.42924E+06        -0.14995E+07         0.00000E+00
    0.00000E+00         0.00000E+00         0.00000E+00
 
    0.14621E+07         0.48276E+06         0.00000E+00
    0.48276E+06        -0.14641E+07         0.00000E+00
    0.00000E+00         0.00000E+00         0.00000E+00
 
    0.14183E+07         0.53549E+06         0.00000E+00
    0.53549E+06        -0.14207E+07         0.00000E+00
    0.00000E+00         0.00000E+00         0.00000E+00
 
    0.13660E+07         0.58621E+06         0.00000E+00
    0.58621E+06        -0.13690E+07         0.00000E+00
    0.00000E+00         0.00000E+00         0.00000E+00
 
    0.13050E+07         0.63356E+06         0.00000E+00
    0.63356E+06        -0.13088E+07         0.00000E+00
    0.00000E+00         0.00000E+00         0.00000E+00
 
    0.12352E+07         0.67613E+06         0.00000E+00
    0.67613E+06        -0.12402E+07         0.00000E+00
    0.00000E+00         0.00000E+00         0.00000E+00
 
    0.11566E+07         0.71244E+06         0.00000E+00
    0.71244E+06        -0.11635E+07         0.00000E+00
    0.00000E+00         0.00000E+00         0.00000E+00
 
    0.10695E+07         0.74094E+06         0.00000E+00
    0.74094E+06        -0.10790E+07         0.00000E+00
    0.00000E+00         0.00000E+00         0.00000E+00
 
    0.97448E+06         0.76009E+06         0.00000E+00
    0.76009E+06        -0.98763E+06         0.00000E+00
    0.00000E+00         0.00000E+00         0.00000E+00
 
    0.87210E+06         0.76836E+06         0.00000E+00
    0.76836E+06        -0.89050E+06         0.00000E+00
    0.00000E+00         0.00000E+00         0.00000E+00
 
    0.76331E+06         0.76425E+06         0.00000E+00
    0.76425E+06        -0.78908E+06         0.00000E+00
    0.00000E+00         0.00000E+00         0.00000E+00
 
    0.64926E+06         0.74642E+06         0.00000E+00
    0.74642E+06        -0.68527E+06         0.00000E+00
    0.00000E+00         0.00000E+00         0.00000E+00
 
    0.53134E+06         0.71365E+06         0.00000E+00
    0.71365E+06        -0.58136E+06         0.00000E+00
    0.00000E+00         0.00000E+00         0.00000E+00
 
    0.41117E+06         0.66498E+06         0.00000E+00
    0.66498E+06        -0.48015E+06         0.00000E+00
    0.00000E+00         0.00000E+00         0.00000E+00
 
    0.29057E+06         0.59973E+06         0.00000E+00
    0.59973E+06        -0.38483E+06         0.00000E+00
    0.00000E+00         0.00000E+00         0.00000E+00
 
    0.17158E+06         0.51762E+06         0.00000E+00
    0.51762E+06        -0.29907E+06         0.00000E+00
    0.00000E+00         0.00000E+00         0.00000E+00
 
    0.56373E+05         0.41877E+06         0.00000E+00
    0.41877E+06        -0.22688E+06         0.00000E+00
    0.00000E+00         0.00000E+00         0.00000E+00
 
    0.30466E+07         0.26997E+05         0.00000E+00
    0.26997E+05        -0.25661E+07         0.00000E+00
    0.00000E+00         0.00000E+00         0.00000E+00
 
    0.28963E+07         0.75488E+05         0.00000E+00
    0.75488E+05        -0.25381E+07         0.00000E+00
    0.00000E+00         0.00000E+00         0.00000E+00
 
    0.27512E+07         0.11587E+06         0.00000E+00
    0.11587E+06        -0.24872E+07         0.00000E+00
    0.00000E+00         0.00000E+00         0.00000E+00
 
    0.26119E+07         0.14754E+06         0.00000E+00
    0.14754E+06        -0.24197E+07         0.00000E+00
    0.00000E+00         0.00000E+00         0.00000E+00
 
    0.24793E+07         0.17026E+06         0.00000E+00
    0.17026E+06        -0.23409E+07         0.00000E+00
    0.00000E+00         0.00000E+00         0.00000E+00
 
    0.23543E+07         0.18412E+06         0.00000E+00
    0.18412E+06        -0.22556E+07         0.00000E+00
    0.00000E+00         0.00000E+00         0.00000E+00
 
    0.22375E+07         0.18952E+06         0.00000E+00
    0.18952E+06        -0.21678E+07         0.00000E+00
    0.00000E+00         0.00000E+00         0.00000E+00
 
    0.21296E+07         0.18712E+06         0.00000E+00
    0.18712E+06        -0.20808E+07         0.00000E+00
    0.00000E+00         0.00000E+00         0.00000E+00
 
    0.20312E+07         0.17779E+06         0.00000E+00
    0.17779E+06        -0.19973E+07         0.00000E+00
    0.00000E+00         0.00000E+00         0.00000E+00
 
    0.19427E+07         0.16254E+06         0.00000E+00
    0.16254E+06        -0.19192E+07         0.00000E+00
    0.00000E+00         0.00000E+00         0.00000E+00
 
    0.18643E+07         0.14253E+06         0.00000E+00
    0.14253E+06        -0.18482E+07         0.00000E+00
    0.00000E+00         0.00000E+00         0.00000E+00
 
    0.17962E+07         0.11895E+06         0.00000E+00
    0.11895E+06        -0.17851E+07         0.00000E+00
    0.00000E+00         0.00000E+00         0.00000E+00
 
    0.17383E+07         0.93048E+05         0.00000E+00
    0.93048E+05        -0.17306E+07         0.00000E+00
    0.00000E+00         0.00000E+00         0.00000E+00
 
    0.16903E+07         0.66052E+05         0.00000E+00
    0.66052E+05        -0.16850E+07         0.00000E+00
    0.00000E+00         0.00000E+00         0.00000E+00
 
    0.16518E+07         0.39150E+05         0.00000E+00
    0.39150E+05        -0.16482E+07         0.00000E+00
    0.00000E+00         0.00000E+00         0.00000E+00
 
    0.16224E+07         0.13469E+05         0.00000E+00
    0.13469E+05        -0.16198E+07         0.00000E+00
    0.00000E+00         0.00000E+00         0.00000E+00
 
    0.16014E+07        -0.99512E+04         0.00000E+00
   -0.99512E+04        -0.15996E+07         0.00000E+00
    0.00000E+00         0.00000E+00         0.00000E+00
 
    0.15879E+07        -0.30171E+05         0.00000E+00
   -0.30171E+05        -0.15867E+07         0.00000E+00
    0.00000E+00         0.00000E+00         0.00000E+00
 
    0.15813E+07        -0.46361E+05         0.00000E+00
   -0.46361E+05        -0.15805E+07         0.00000E+00
    0.00000E+00         0.00000E+00         0.00000E+00
 
    0.15806E+07        -0.57812E+05         0.00000E+00
   -0.57812E+05        -0.15800E+07         0.00000E+00
    0.00000E+00         0.00000E+00         0.00000E+00
 
    0.15847E+07        -0.63939E+05         0.00000E+00
   -0.63939E+05        -0.15844E+07         0.00000E+00
    0.00000E+00         0.00000E+00         0.00000E+00
 
    0.15927E+07        -0.64279E+05         0.00000E+00
   -0.64279E+05        -0.15926E+07         0.00000E+00
    0.00000E+00         0.00000E+00         0.00000E+00
 
    0.16036E+07        -0.58497E+05         0.00000E+00
   -0.58497E+05        -0.16037E+07         0.00000E+00
    0.00000E+00         0.00000E+00         0.00000E+00
 
    0.16163E+07        -0.46381E+05         0.00000E+00
   -0.46381E+05        -0.16165E+07         0.00000E+00
    0.00000E+00         0.00000E+00         0.00000E+00
 
    0.16296E+07        -0.27842E+05         0.00000E+00
   -0.27842E+05        -0.16300E+07         0.00000E+00
    0.00000E+00         0.00000E+00         0.00000E+00
 
    0.16427E+07        -0.29108E+04         0.00000E+00
   -0.29108E+04        -0.16431E+07         0.00000E+00
    0.00000E+00         0.00000E+00         0.00000E+00
 
    0.16543E+07         0.28262E+05         0.00000E+00
    0.28262E+05        -0.16549E+07         0.00000E+00
    0.00000E+00         0.00000E+00         0.00000E+00
 
    0.16635E+07         0.65409E+05         0.00000E+00
    0.65409E+05        -0.16642E+07         0.00000E+00
    0.00000E+00         0.00000E+00         0.00000E+00
 
    0.16692E+07         0.10815E+06         0.00000E+00
    0.10815E+06        -0.16701E+07         0.00000E+00
    0.00000E+00         0.00000E+00         0.00000E+00
 
    0.16706E+07         0.15597E+06         0.00000E+00
    0.15597E+06        -0.16716E+07         0.00000E+00
    0.00000E+00         0.00000E+00         0.00000E+00
 
    0.16666E+07         0.20827E+06         0.00000E+00
    0.20827E+06        -0.16677E+07         0.00000E+00
    0.00000E+00         0.00000E+00         0.00000E+00
 
    0.16564E+07         0.26431E+06         0.00000E+00
    0.26431E+06        -0.16577E+07         0.00000E+00
    0.00000E+00         0.00000E+00         0.00000E+00
 
    0.16391E+07         0.32323E+06         0.00000E+00
    0.32323E+06        -0.16406E+07         0.00000E+00
    0.00000E+00         0.00000E+00         0.00000E+00
 
    0.16140E+07         0.38405E+06         0.00000E+00
    0.38405E+06        -0.16158E+07         0.00000E+00
    0.00000E+00         0.00000E+00         0.00000E+00
 
    0.15804E+07         0.44570E+06         0.00000E+00
    0.44570E+06        -0.15826E+07         0.00000E+00
    0.00000E+00         0.00000E+00         0.00000E+00
 
    0.15378E+07         0.50694E+06         0.00000E+00
    0.50694E+06        -0.15405E+07         0.00000E+00
    0.00000E+00         0.00000E+00         0.00000E+00
 
    0.14857E+07         0.56646E+06         0.00000E+00
    0.56646E+06        -0.14891E+07         0.00000E+00
    0.00000E+00         0.00000E+00         0.00000E+00
 
    0.14238E+07         0.62282E+06         0.00000E+00
    0.62282E+06        -0.14281E+07         0.00000E+00
    0.00000E+00         0.00000E+00         0.00000E+00
 
    0.13519E+07         0.67448E+06         0.00000E+00
    0.67448E+06        -0.13576E+07         0.00000E+00
    0.00000E+00         0.00000E+00         0.00000E+00
 
    0.12700E+07         0.71983E+06         0.00000E+00
    0.71983E+06        -0.12778E+07         0.00000E+00
    0.00000E+00         0.00000E+00         0.00000E+00
 
    0.11784E+07         0.75719E+06         0.00000E+00
    0.75719E+06        -0.11892E+07         0.00000E+00
    0.00000E+00         0.00000E+00         0.00000E+00
 
    0.10773E+07         0.78486E+06         0.00000E+00
    0.78486E+06        -0.10924E+07         0.00000E+00
    0.00000E+00         0.00000E+00         0.00000E+00
 
    0.96762E+06         0.80111E+06         0.00000E+00
    0.80111E+06        -0.98873E+06         0.00000E+00
    0.00000E+00         0.00000E+00         0.00000E+00
 
    0.85010E+06         0.80431E+06         0.00000E+00
    0.80431E+06        -0.87970E+06         0.00000E+00
    0.00000E+00         0.00000E+00         0.00000E+00
 
    0.72595E+06         0.79289E+06         0.00000E+00
    0.79289E+06        -0.76731E+06         0.00000E+00
    0.00000E+00         0.00000E+00         0.00000E+00
 
    0.59659E+06         0.76548E+06         0.00000E+00
    0.76548E+06        -0.65408E+06         0.00000E+00
    0.00000E+00         0.00000E+00         0.00000E+00
 
    0.46372E+06         0.72094E+06         0.00000E+00
    0.72094E+06        -0.54301E+06         0.00000E+00
    0.00000E+00         0.00000E+00         0.00000E+00
 
    0.32927E+06         0.65844E+06         0.00000E+00
    0.65844E+06        -0.43764E+06         0.00000E+00
    0.00000E+00         0.00000E+00         0.00000E+00
 
    0.19539E+06         0.57755E+06         0.00000E+00
    0.57755E+06        -0.34198E+06         0.00000E+00
    0.00000E+00         0.00000E+00         0.00000E+00
 
    0.64441E+05         0.47834E+06         0.00000E+00
    0.47834E+06        -0.26050E+06         0.00000E+00
    0.00000E+00         0.00000E+00         0.00000E+00
 
    0.30825E+07         0.25362E+05         0.00000E+00
    0.25362E+05        -0.25808E+07         0.00000E+00
    0.00000E+00         0.00000E+00         0.00000E+00
 
    0.29257E+07         0.70292E+05         0.00000E+00
    0.70292E+05        -0.25516E+07         0.00000E+00
    0.00000E+00         0.00000E+00         0.00000E+00
 
    0.27744E+07         0.10665E+06         0.00000E+00
    0.10665E+06        -0.24987E+07         0.00000E+00
    0.00000E+00         0.00000E+00         0.00000E+00
 
    0.26294E+07         0.13378E+06         0.00000E+00
    0.13378E+06        -0.24285E+07         0.00000E+00
    0.00000E+00         0.00000E+00         0.00000E+00
 
    0.24916E+07         0.15141E+06         0.00000E+00
    0.15141E+06        -0.23469E+07         0.00000E+00
    0.00000E+00         0.00000E+00         0.00000E+00
 
    0.23619E+07         0.15968E+06         0.00000E+00
    0.15968E+06        -0.22588E+07         0.00000E+00
    0.00000E+00         0.00000E+00         0.00000E+00
 
    0.22414E+07         0.15902E+06         0.00000E+00
    0.15902E+06        -0.21685E+07         0.00000E+00
    0.00000E+00         0.00000E+00         0.00000E+00
 
    0.21306E+07         0.15020E+06         0.00000E+00
    0.15020E+06        -0.20796E+07         0.00000E+00
    0.00000E+00         0.00000E+00         0.00000E+00
 
    0.20303E+07         0.13416E+06         0.00000E+00
    0.13416E+06        -0.19948E+07         0.00000E+00
    0.00000E+00         0.00000E+00         0.00000E+00
 
    0.19408E+07         0.11208E+06         0.00000E+00
    0.11208E+06        -0.19162E+07         0.00000E+00
    0.00000E+00         0.00000E+00         0.00000E+00
 
    0.18625E+07         0.85205E+05         0.00000E+00
    0.85205E+05        -0.18456E+07         0.00000E+00
    0.00000E+00         0.00000E+00         0.00000E+00
 
    0.17955E+07         0.54888E+05         0.00000E+00
    0.54888E+05        -0.17838E+07         0.00000E+00
    0.00000E+00         0.00000E+00         0.00000E+00
 
    0.17396E+07         0.22490E+05         0.00000E+00
    0.22490E+05        -0.17315E+07         0.00000E+00
    0.00000E+00         0.00000E+00         0.00000E+00
 
    0.16945E+07        -0.10642E+05         0.00000E+00
   -0.10642E+05        -0.16890E+07         0.00000E+00
    0.00000E+00         0.00000E+00         0.00000E+00
 
    0.16599E+07        -0.43210E+05         0.00000E+00
   -0.43210E+05        -0.16560E+07         0.00000E+00
    0.00000E+00         0.00000E+00         0.00000E+00
 
    0.16350E+07        -0.73998E+05         0.00000E+00
   -0.73998E+05        -0.16323E+07         0.00000E+00
    0.00000E+00         0.00000E+00         0.00000E+00
 
    0.16192E+07        -0.10189E+06         0.00000E+00
   -0.10189E+06        -0.16174E+07         0.00000E+00
    0.00000E+00         0.00000E+00         0.00000E+00
 
    0.16117E+07        -0.12587E+06         0.00000E+00
   -0.12587E+06        -0.16104E+07         0.00000E+00
    0.00000E+00         0.00000E+00         0.00000E+00
 
    0.16114E+07        -0.14508E+06         0.00000E+00
   -0.14508E+06        -0.16105E+07         0.00000E+00
    0.00000E+00         0.00000E+00         0.00000E+00
 
    0.16174E+07        -0.15877E+06         0.00000E+00
   -0.15877E+06        -0.16168E+07         0.00000E+00
    0.00000E+00         0.00000E+00         0.00000E+00
 
    0.16286E+07        -0.16632E+06         0.00000E+00
   -0.16632E+06        -0.16283E+07         0.00000E+00
    0.00000E+00         0.00000E+00         0.00000E+00
 
    0.16439E+07        -0.16727E+06         0.00000E+00
   -0.16727E+06        -0.16438E+07         0.00000E+00
    0.00000E+00         0.00000E+00         0.00000E+00
 
    0.16621E+07        -0.16127E+06         0.00000E+00
   -0.16127E+06        -0.16622E+07         0.00000E+00
    0.00000E+00         0.00000E+00         0.00000E+00
 
    0.16822E+07        -0.14812E+06         0.00000E+00
   -0.14812E+06        -0.16824E+07         0.00000E+00
    0.00000E+00         0.00000E+00         0.00000E+00
 
    0.17029E+07        -0.12773E+06         0.00000E+00
   -0.12773E+06        -0.17033E+07         0.00000E+00
    0.00000E+00         0.00000E+00         0.00000E+00
 
    0.17231E+07        -0.10015E+06         0.00000E+00
   -0.10015E+06        -0.17237E+07         0.00000E+00
    0.00000E+00         0.00000E+00         0.00000E+00
 
    0.17418E+07        -0.65539E+05         0.00000E+00
   -0.65539E+05        -0.17424E+07         0.00000E+00
    0.00000E+00         0.00000E+00         0.00000E+00
 
    0.17577E+07        -0.24192E+05         0.00000E+00
   -0.24192E+05        -0.17585E+07         0.00000E+00
    0.00000E+00         0.00000E+00         0.00000E+00
 
    0.17698E+07         0.23487E+05         0.00000E+00
    0.23487E+05        -0.17707E+07         0.00000E+00
    0.00000E+00         0.00000E+00         0.00000E+00
 
    0.17770E+07         0.76973E+05         0.00000E+00
    0.76973E+05        -0.17781E+07         0.00000E+00
    0.00000E+00         0.00000E+00         0.00000E+00
 
    0.17784E+07         0.13562E+06         0.00000E+00
    0.13562E+06        -0.17797E+07         0.00000E+00
    0.00000E+00         0.00000E+00         0.00000E+00
 
    0.17730E+07         0.19866E+06         0.00000E+00
    0.19866E+06        -0.17744E+07         0.00000E+00
    0.00000E+00         0.00000E+00         0.00000E+00
 
    0.17598E+07         0.26519E+06         0.00000E+00
    0.26519E+06        -0.17614E+07         0.00000E+00
    0.00000E+00         0.00000E+00         0.00000E+00
 
    0.17380E+07         0.33420E+06         0.00000E+00
    0.33420E+06        -0.17400E+07         0.00000E+00
    0.00000E+00         0.00000E+00         0.00000E+00
 
    0.17069E+07         0.40454E+06         0.00000E+00
    0.40454E+06        -0.17093E+07         0.00000E+00
    0.00000E+00         0.00000E+00         0.00000E+00
 
    0.16658E+07         0.47491E+06         0.00000E+00
    0.47491E+06        -0.16687E+07         0.00000E+00
    0.00000E+00         0.00000E+00         0.00000E+00
 
    0.16141E+07         0.54392E+06         0.00000E+00
    0.54392E+06        -0.16178E+07         0.00000E+00
    0.00000E+00         0.00000E+00         0.00000E+00
 
    0.15514E+07         0.61003E+06         0.00000E+00
    0.61003E+06        -0.15563E+07         0.00000E+00
    0.00000E+00         0.00000E+00         0.00000E+00
 
    0.14775E+07         0.67159E+06         0.00000E+00
    0.67159E+06        -0.14840E+07         0.00000E+00
    0.00000E+00         0.00000E+00         0.00000E+00
 
    0.13924E+07         0.72685E+06         0.00000E+00
    0.72685E+06        -0.14012E+07         0.00000E+00
    0.00000E+00         0.00000E+00         0.00000E+00
 
    0.12960E+07         0.77398E+06         0.00000E+00
    0.77398E+06        -0.13083E+07         0.00000E+00
    0.00000E+00         0.00000E+00         0.00000E+00
 
    0.11888E+07         0.81111E+06         0.00000E+00
    0.81111E+06        -0.12059E+07         0.00000E+00
    0.00000E+00         0.00000E+00         0.00000E+00
 
    0.10713E+07         0.83634E+06         0.00000E+00
    0.83634E+06        -0.10954E+07         0.00000E+00
    0.00000E+00         0.00000E+00         0.00000E+00
 
    0.94454E+06         0.84782E+06         0.00000E+00
    0.84782E+06        -0.97836E+06         0.00000E+00
    0.00000E+00         0.00000E+00         0.00000E+00
 
    0.80959E+06         0.84380E+06         0.00000E+00
    0.84380E+06        -0.85688E+06         0.00000E+00
    0.00000E+00         0.00000E+00         0.00000E+00
 
    0.66793E+06         0.82270E+06         0.00000E+00
    0.82270E+06        -0.73367E+06         0.00000E+00
    0.00000E+00         0.00000E+00         0.00000E+00
 
    0.52130E+06         0.78317E+06         0.00000E+00
    0.78317E+06        -0.61200E+06         0.00000E+00
    0.00000E+00         0.00000E+00         0.00000E+00
 
    0.37176E+06         0.72423E+06         0.00000E+00
    0.72423E+06        -0.49573E+06         0.00000E+00
    0.00000E+00         0.00000E+00         0.00000E+00
 
    0.22160E+06         0.64530E+06         0.00000E+00
    0.64530E+06        -0.38930E+06         0.00000E+00
    0.00000E+00         0.00000E+00         0.00000E+00
 
    0.73333E+05         0.54631E+06         0.00000E+00
    0.54631E+06        -0.29765E+06         0.00000E+00
    0.00000E+00         0.00000E+00         0.00000E+00
 
    0.31173E+07         0.23644E+05         0.00000E+00
    0.23644E+05        -0.25932E+07         0.00000E+00
    0.00000E+00         0.00000E+00         0.00000E+00
 
    0.29536E+07         0.64805E+05         0.00000E+00
    0.64805E+05        -0.25627E+07         0.00000E+00
    0.00000E+00         0.00000E+00         0.00000E+00
 
    0.27957E+07         0.96858E+05         0.00000E+00
    0.96858E+05        -0.25075E+07         0.00000E+00
    0.00000E+00         0.00000E+00         0.00000E+00
 
    0.26445E+07         0.11907E+06         0.00000E+00
    0.11907E+06        -0.24346E+07         0.00000E+00
    0.00000E+00         0.00000E+00         0.00000E+00
 
    0.25012E+07         0.13118E+06         0.00000E+00
    0.13118E+06        -0.23499E+07         0.00000E+00
    0.00000E+00         0.00000E+00         0.00000E+00
 
    0.23667E+07         0.13332E+06         0.00000E+00
    0.13332E+06        -0.22588E+07         0.00000E+00
    0.00000E+00         0.00000E+00         0.00000E+00
 
    0.22422E+07         0.12603E+06         0.00000E+00
    0.12603E+06        -0.21659E+07         0.00000E+00
    0.00000E+00         0.00000E+00         0.00000E+00
 
    0.21284E+07         0.11014E+06         0.00000E+00
    0.11014E+06        -0.20750E+07         0.00000E+00
    0.00000E+00         0.00000E+00         0.00000E+00
 
    0.20262E+07         0.86761E+05         0.00000E+00
    0.86761E+05        -0.19889E+07         0.00000E+00
    0.00000E+00         0.00000E+00         0.00000E+00
 
    0.19358E+07         0.57175E+05         0.00000E+00
    0.57175E+05        -0.19101E+07         0.00000E+00
    0.00000E+00         0.00000E+00         0.00000E+00
 
    0.18578E+07         0.22804E+05         0.00000E+00
    0.22804E+05        -0.18400E+07         0.00000E+00
    0.00000E+00         0.00000E+00         0.00000E+00
 
    0.17921E+07        -0.14863E+05         0.00000E+00
   -0.14863E+05        -0.17798E+07         0.00000E+00
    0.00000E+00         0.00000E+00         0.00000E+00
 
    0.17385E+07        -0.54319E+05         0.00000E+00
   -0.54319E+05        -0.17301E+07         0.00000E+00
    0.00000E+00         0.00000E+00         0.00000E+00
 
    0.16969E+07        -0.94088E+05         0.00000E+00
   -0.94088E+05        -0.16910E+07         0.00000E+00
    0.00000E+00         0.00000E+00         0.00000E+00
 
    0.16665E+07        -0.13276E+06         0.00000E+00
   -0.13276E+06        -0.16625E+07         0.00000E+00
    0.00000E+00         0.00000E+00         0.00000E+00
 
    0.16468E+07        -0.16902E+06         0.00000E+00
   -0.16902E+06        -0.16440E+07         0.00000E+00
    0.00000E+00         0.00000E+00         0.00000E+00
 
    0.16368E+07        -0.20166E+06         0.00000E+00
   -0.20166E+06        -0.16349E+07         0.00000E+00
    0.00000E+00         0.00000E+00         0.00000E+00
 
    0.16357E+07        -0.22963E+06         0.00000E+00
   -0.22963E+06        -0.16344E+07         0.00000E+00
    0.00000E+00         0.00000E+00         0.00000E+00
 
    0.16423E+07        -0.25200E+06         0.00000E+00
   -0.25200E+06        -0.16415E+07         0.00000E+00
    0.00000E+00         0.00000E+00         0.00000E+00
 
    0.16557E+07        -0.26800E+06         0.00000E+00
   -0.26800E+06        -0.16551E+07         0.00000E+00
    0.00000E+00         0.00000E+00         0.00000E+00
 
    0.16745E+07        -0.27700E+06         0.00000E+00
   -0.27700E+06        -0.16742E+07         0.00000E+00
    0.00000E+00         0.00000E+00         0.00000E+00
 
    0.16976E+07        -0.27852E+06         0.00000E+00
   -0.27852E+06        -0.16975E+07         0.00000E+00
    0.00000E+00         0.00000E+00         0.00000E+00
 
    0.17238E+07        -0.27223E+06         0.00000E+00
   -0.27223E+06        -0.17239E+07         0.00000E+00
    0.00000E+00         0.00000E+00         0.00000E+00
 
    0.17518E+07        -0.25791E+06         0.00000E+00
   -0.25791E+06        -0.17520E+07         0.00000E+00
    0.00000E+00         0.00000E+00         0.00000E+00
 
    0.17803E+07        -0.23551E+06         0.00000E+00
   -0.23551E+06        -0.17808E+07         0.00000E+00
    0.00000E+00         0.00000E+00         0.00000E+00
 
    0.18083E+07        -0.20508E+06         0.00000E+00
   -0.20508E+06        -0.18089E+07         0.00000E+00
    0.00000E+00         0.00000E+00         0.00000E+00
 
    0.18344E+07        -0.16681E+06         0.00000E+00
   -0.16681E+06        -0.18351E+07         0.00000E+00
    0.00000E+00         0.00000E+00         0.00000E+00
 
    0.18575E+07        -0.12100E+06         0.00000E+00
   -0.12100E+06        -0.18583E+07         0.00000E+00
    0.00000E+00         0.00000E+00         0.00000E+00
 
    0.18764E+07        -0.68084E+05         0.00000E+00
   -0.68084E+05        -0.18774E+07         0.00000E+00
    0.00000E+00         0.00000E+00         0.00000E+00
 
    0.18900E+07        -0.86106E+04         0.00000E+00
   -0.86106E+04        -0.18911E+07         0.00000E+00
    0.00000E+00         0.00000E+00         0.00000E+00
 
    0.18971E+07         0.56749E+05         0.00000E+00
    0.56749E+05        -0.18985E+07         0.00000E+00
    0.00000E+00         0.00000E+00         0.00000E+00
 
    0.18969E+07         0.12720E+06         0.00000E+00
    0.12720E+06        -0.18984E+07         0.00000E+00
    0.00000E+00         0.00000E+00         0.00000E+00
 
    0.18882E+07         0.20180E+06         0.00000E+00
    0.20180E+06        -0.18900E+07         0.00000E+00
    0.00000E+00         0.00000E+00         0.00000E+00
 
    0.18701E+07         0.27950E+06         0.00000E+00
    0.27950E+06        -0.18722E+07         0.00000E+00
    0.00000E+00         0.00000E+00         0.00000E+00
 
    0.18417E+07         0.35909E+06         0.00000E+00
    0.35909E+06        -0.18443E+07         0.00000E+00
    0.00000E+00         0.00000E+00         0.00000E+00
 
    0.18024E+07         0.43923E+06         0.00000E+00
    0.43923E+06        -0.18056E+07         0.00000E+00
    0.00000E+00         0.00000E+00         0.00000E+00
 
    0.17514E+07         0.51842E+06         0.00000E+00
    0.51842E+06        -0.17555E+07         0.00000E+00
    0.00000E+00         0.00000E+00         0.00000E+00
 
    0.16882E+07         0.59505E+06         0.00000E+00
    0.59505E+06        -0.16937E+07         0.00000E+00
    0.00000E+00         0.00000E+00         0.00000E+00
 
    0.16125E+07         0.66734E+06         0.00000E+00
    0.66734E+06        -0.16198E+07         0.00000E+00
    0.00000E+00         0.00000E+00         0.00000E+00
 
    0.15240E+07         0.73341E+06         0.00000E+00
    0.73341E+06        -0.15340E+07         0.00000E+00
    0.00000E+00         0.00000E+00         0.00000E+00
 
    0.14228E+07         0.79127E+06         0.00000E+00
    0.79127E+06        -0.14368E+07         0.00000E+00
    0.00000E+00         0.00000E+00         0.00000E+00
 
    0.13092E+07         0.83888E+06         0.00000E+00
    0.83888E+06        -0.13287E+07         0.00000E+00
    0.00000E+00         0.00000E+00         0.00000E+00
 
    0.11837E+07         0.87413E+06         0.00000E+00
    0.87413E+06        -0.12111E+07         0.00000E+00
    0.00000E+00         0.00000E+00         0.00000E+00
 
    0.10471E+07         0.89498E+06         0.00000E+00
    0.89498E+06        -0.10856E+07         0.00000E+00
    0.00000E+00         0.00000E+00         0.00000E+00
 
    0.90065E+06         0.89944E+06         0.00000E+00
    0.89944E+06        -0.95450E+06         0.00000E+00
    0.00000E+00         0.00000E+00         0.00000E+00
 
    0.74578E+06         0.88570E+06         0.00000E+00
    0.88570E+06        -0.82065E+06         0.00000E+00
    0.00000E+00         0.00000E+00         0.00000E+00
 
    0.58430E+06         0.85221E+06         0.00000E+00
    0.85221E+06        -0.68760E+06         0.00000E+00
    0.00000E+00         0.00000E+00         0.00000E+00
 
    0.41836E+06         0.79776E+06         0.00000E+00
    0.79776E+06        -0.55956E+06         0.00000E+00
    0.00000E+00         0.00000E+00         0.00000E+00
 
    0.25041E+06         0.72160E+06         0.00000E+00
    0.72160E+06        -0.44141E+06         0.00000E+00
    0.00000E+00         0.00000E+00         0.00000E+00
 
    0.83121E+05         0.62354E+06         0.00000E+00
    0.62354E+06        -0.33862E+06         0.00000E+00
    0.00000E+00         0.00000E+00         0.00000E+00
 
    0.31509E+07         0.21854E+05         0.00000E+00
    0.21854E+05        -0.26031E+07         0.00000E+00
    0.00000E+00         0.00000E+00         0.00000E+00
 
    0.29800E+07         0.59042E+05         0.00000E+00
    0.59042E+05        -0.25712E+07         0.00000E+00
    0.00000E+00         0.00000E+00         0.00000E+00
 
    0.28150E+07         0.86496E+05         0.00000E+00
    0.86496E+05        -0.25136E+07         0.00000E+00
    0.00000E+00         0.00000E+00         0.00000E+00
 
    0.26572E+07         0.10341E+06         0.00000E+00
    0.10341E+06        -0.24376E+07         0.00000E+00
    0.00000E+00         0.00000E+00         0.00000E+00
 
    0.25080E+07         0.10950E+06         0.00000E+00
    0.10950E+06        -0.23496E+07         0.00000E+00
    0.00000E+00         0.00000E+00         0.00000E+00
 
    0.23684E+07         0.10495E+06         0.00000E+00
    0.10495E+06        -0.22554E+07         0.00000E+00
    0.00000E+00         0.00000E+00         0.00000E+00
 
    0.22397E+07         0.90378E+05         0.00000E+00
    0.90378E+05        -0.21598E+07         0.00000E+00
    0.00000E+00         0.00000E+00         0.00000E+00
 
    0.21228E+07         0.66741E+05         0.00000E+00
    0.66741E+05        -0.20668E+07         0.00000E+00
    0.00000E+00         0.00000E+00         0.00000E+00
 
    0.20186E+07         0.35296E+05         0.00000E+00
    0.35296E+05        -0.19795E+07         0.00000E+00
    0.00000E+00         0.00000E+00         0.00000E+00
 
    0.19275E+07        -0.25022E+04         0.00000E+00
   -0.25022E+04        -0.19005E+07         0.00000E+00
    0.00000E+00         0.00000E+00         0.00000E+00
 
    0.18499E+07        -0.45060E+05         0.00000E+00
   -0.45060E+05        -0.18313E+07         0.00000E+00
    0.00000E+00         0.00000E+00         0.00000E+00
 
    0.17859E+07        -0.90722E+05         0.00000E+00
   -0.90722E+05        -0.17730E+07         0.00000E+00
    0.00000E+00         0.00000E+00         0.00000E+00
 
    0.17351E+07        -0.13782E+06         0.00000E+00
   -0.13782E+06        -0.17263E+07         0.00000E+00
    0.00000E+00         0.00000E+00         0.00000E+00
 
    0.16973E+07        -0.18474E+06         0.00000E+00
   -0.18474E+06        -0.16912E+07         0.00000E+00
    0.00000E+00         0.00000E+00         0.00000E+00
 
    0.16718E+07        -0.22995E+06         0.00000E+00
   -0.22995E+06        -0.16676E+07         0.00000E+00
    0.00000E+00         0.00000E+00         0.00000E+00
 
    0.16578E+07        -0.27203E+06         0.00000E+00
   -0.27203E+06        -0.16549E+07         0.00000E+00
    0.00000E+00         0.00000E+00         0.00000E+00
 
    0.16542E+07        -0.30969E+06         0.00000E+00
   -0.30969E+06        -0.16523E+07         0.00000E+00
    0.00000E+00         0.00000E+00         0.00000E+00
 
    0.16602E+07        -0.34183E+06         0.00000E+00
   -0.34183E+06        -0.16588E+07         0.00000E+00
    0.00000E+00         0.00000E+00         0.00000E+00
 
    0.16744E+07        -0.36748E+06         0.00000E+00
   -0.36748E+06        -0.16735E+07         0.00000E+00
    0.00000E+00         0.00000E+00         0.00000E+00
 
    0.16957E+07        -0.38584E+06         0.00000E+00
   -0.38584E+06        -0.16951E+07         0.00000E+00
    0.00000E+00         0.00000E+00         0.00000E+00
 
    0.17227E+07        -0.39626E+06         0.00000E+00
   -0.39626E+06        -0.17225E+07         0.00000E+00
    0.00000E+00         0.00000E+00         0.00000E+00
 
    0.17542E+07        -0.39829E+06         0.00000E+00
   -0.39829E+06        -0.17542E+07         0.00000E+00
    0.00000E+00         0.00000E+00         0.00000E+00
 
    0.17888E+07        -0.39157E+06         0.00000E+00
   -0.39157E+06        -0.17890E+07         0.00000E+00
    0.00000E+00         0.00000E+00         0.00000E+00
 
    0.18253E+07        -0.37594E+06         0.00000E+00
   -0.37594E+06        -0.18256E+07         0.00000E+00
    0.00000E+00         0.00000E+00         0.00000E+00
 
    0.18622E+07        -0.35133E+06         0.00000E+00
   -0.35133E+06        -0.18627E+07         0.00000E+00
    0.00000E+00         0.00000E+00         0.00000E+00
 
    0.18983E+07        -0.31784E+06         0.00000E+00
   -0.31784E+06        -0.18990E+07         0.00000E+00
    0.00000E+00         0.00000E+00         0.00000E+00
 
    0.19324E+07        -0.27566E+06         0.00000E+00
   -0.27566E+06        -0.19332E+07         0.00000E+00
    0.00000E+00         0.00000E+00         0.00000E+00
 
    0.19630E+07        -0.22512E+06         0.00000E+00
   -0.22512E+06        -0.19640E+07         0.00000E+00
    0.00000E+00         0.00000E+00         0.00000E+00
 
    0.19892E+07        -0.16667E+06         0.00000E+00
   -0.16667E+06        -0.19903E+07         0.00000E+00
    0.00000E+00         0.00000E+00         0.00000E+00
 
    0.20095E+07        -0.10089E+06         0.00000E+00
   -0.10089E+06        -0.20108E+07         0.00000E+00
    0.00000E+00         0.00000E+00         0.00000E+00
 
    0.20229E+07        -0.28460E+05         0.00000E+00
   -0.28460E+05        -0.20244E+07         0.00000E+00
    0.00000E+00         0.00000E+00         0.00000E+00
 
    0.20282E+07         0.49791E+05         0.00000E+00
    0.49791E+05        -0.20299E+07         0.00000E+00
    0.00000E+00         0.00000E+00         0.00000E+00
 
    0.20244E+07         0.13291E+06         0.00000E+00
    0.13291E+06        -0.20263E+07         0.00000E+00
    0.00000E+00         0.00000E+00         0.00000E+00
 
    0.20103E+07         0.21979E+06         0.00000E+00
    0.21979E+06        -0.20127E+07         0.00000E+00
    0.00000E+00         0.00000E+00         0.00000E+00
 
    0.19852E+07         0.30919E+06         0.00000E+00
    0.30919E+06        -0.19880E+07         0.00000E+00
    0.00000E+00         0.00000E+00         0.00000E+00
 
    0.19480E+07         0.39971E+06         0.00000E+00
    0.39971E+06        -0.19515E+07         0.00000E+00
    0.00000E+00         0.00000E+00         0.00000E+00
 
    0.18979E+07         0.48978E+06         0.00000E+00
    0.48978E+06        -0.19025E+07         0.00000E+00
    0.00000E+00         0.00000E+00         0.00000E+00
 
    0.18345E+07         0.57769E+06         0.00000E+00
    0.57769E+06        -0.18405E+07         0.00000E+00
    0.00000E+00         0.00000E+00         0.00000E+00
 
    0.17570E+07         0.66157E+06         0.00000E+00
    0.66157E+06        -0.17653E+07         0.00000E+00
    0.00000E+00         0.00000E+00         0.00000E+00
 
    0.16653E+07         0.73938E+06         0.00000E+00
    0.73938E+06        -0.16767E+07         0.00000E+00
    0.00000E+00         0.00000E+00         0.00000E+00
 
    0.15593E+07         0.80900E+06         0.00000E+00
    0.80900E+06        -0.15751E+07         0.00000E+00
    0.00000E+00         0.00000E+00         0.00000E+00
 
    0.14391E+07         0.86816E+06         0.00000E+00
    0.86816E+06        -0.14612E+07         0.00000E+00
    0.00000E+00         0.00000E+00         0.00000E+00
 
    0.13052E+07         0.91459E+06         0.00000E+00
    0.91459E+06        -0.13363E+07         0.00000E+00
    0.00000E+00         0.00000E+00         0.00000E+00
 
    0.11583E+07         0.94598E+06         0.00000E+00
    0.94598E+06        -0.12020E+07         0.00000E+00
    0.00000E+00         0.00000E+00         0.00000E+00
 
    0.99963E+06         0.96011E+06         0.00000E+00
    0.96011E+06        -0.10607E+07         0.00000E+00
    0.00000E+00         0.00000E+00         0.00000E+00
 
    0.83061E+06         0.95491E+06         0.00000E+00
    0.95491E+06        -0.91555E+06         0.00000E+00
    0.00000E+00         0.00000E+00         0.00000E+00
 
    0.65312E+06         0.92859E+06         0.00000E+00
    0.92859E+06        -0.77032E+06         0.00000E+00
    0.00000E+00         0.00000E+00         0.00000E+00
 
    0.46940E+06         0.87969E+06         0.00000E+00
    0.87969E+06        -0.62960E+06         0.00000E+00
    0.00000E+00         0.00000E+00         0.00000E+00
 
    0.28202E+06         0.80726E+06         0.00000E+00
    0.80726E+06        -0.49874E+06         0.00000E+00
    0.00000E+00         0.00000E+00         0.00000E+00
 
    0.93881E+05         0.71095E+06         0.00000E+00
    0.71095E+06        -0.38377E+06         0.00000E+00
    0.00000E+00         0.00000E+00         0.00000E+00
 
    0.31835E+07         0.20001E+05         0.00000E+00
    0.20001E+05        -0.26103E+07         0.00000E+00
    0.00000E+00         0.00000E+00         0.00000E+00
 
    0.30047E+07         0.53022E+05         0.00000E+00
    0.53022E+05        -0.25769E+07         0.00000E+00
    0.00000E+00         0.00000E+00         0.00000E+00
 
    0.28322E+07         0.75573E+05         0.00000E+00
    0.75573E+05        -0.25166E+07         0.00000E+00
    0.00000E+00         0.00000E+00         0.00000E+00
 
    0.26674E+07         0.86769E+05         0.00000E+00
    0.86769E+05        -0.24373E+07         0.00000E+00
    0.00000E+00         0.00000E+00         0.00000E+00
 
    0.25117E+07         0.86309E+05         0.00000E+00
    0.86309E+05        -0.23457E+07         0.00000E+00
    0.00000E+00         0.00000E+00         0.00000E+00
 
    0.23666E+07         0.74434E+05         0.00000E+00
    0.74434E+05        -0.22482E+07         0.00000E+00
    0.00000E+00         0.00000E+00         0.00000E+00
 
    0.22335E+07         0.51865E+05         0.00000E+00
    0.51865E+05        -0.21497E+07         0.00000E+00
    0.00000E+00         0.00000E+00         0.00000E+00
 
    0.21134E+07         0.19720E+05         0.00000E+00
    0.19720E+05        -0.20546E+07         0.00000E+00
    0.00000E+00         0.00000E+00         0.00000E+00
 
    0.20072E+07        -0.20570E+05         0.00000E+00
   -0.20570E+05        -0.19663E+07         0.00000E+00
    0.00000E+00         0.00000E+00         0.00000E+00
 
    0.19156E+07        -0.67351E+05         0.00000E+00
   -0.67351E+05        -0.18872E+07         0.00000E+00
    0.00000E+00         0.00000E+00         0.00000E+00
 
    0.18387E+07        -0.11883E+06         0.00000E+00
   -0.11883E+06        -0.18192E+07         0.00000E+00
    0.00000E+00         0.00000E+00         0.00000E+00
 
    0.17767E+07        -0.17317E+06         0.00000E+00
   -0.17317E+06        -0.17633E+07         0.00000E+00
    0.00000E+00         0.00000E+00         0.00000E+00
 
    0.17293E+07        -0.22852E+06         0.00000E+00
   -0.22852E+06        -0.17200E+07         0.00000E+00
    0.00000E+00         0.00000E+00         0.00000E+00
 
    0.16959E+07        -0.28311E+06         0.00000E+00
   -0.28311E+06        -0.16896E+07         0.00000E+00
    0.00000E+00         0.00000E+00         0.00000E+00
 
    0.16759E+07        -0.33527E+06         0.00000E+00
   -0.33527E+06        -0.16715E+07         0.00000E+00
    0.00000E+00         0.00000E+00         0.00000E+00
 
    0.16682E+07        -0.38349E+06         0.00000E+00
   -0.38349E+06        -0.16652E+07         0.00000E+00
    0.00000E+00         0.00000E+00         0.00000E+00
 
    0.16717E+07        -0.42642E+06         0.00000E+00
   -0.42642E+06        -0.16697E+07         0.00000E+00
    0.00000E+00         0.00000E+00         0.00000E+00
 
    0.16854E+07        -0.46287E+06         0.00000E+00
   -0.46287E+06        -0.16840E+07         0.00000E+00
    0.00000E+00         0.00000E+00         0.00000E+00
 
    0.17078E+07        -0.49185E+06         0.00000E+00
   -0.49185E+06        -0.17070E+07         0.00000E+00
    0.00000E+00         0.00000E+00         0.00000E+00
 
    0.17377E+07        -0.51255E+06         0.00000E+00
   -0.51255E+06        -0.17372E+07         0.00000E+00
    0.00000E+00         0.00000E+00         0.00000E+00
 
    0.17735E+07        -0.52434E+06         0.00000E+00
   -0.52434E+06        -0.17733E+07         0.00000E+00
    0.00000E+00         0.00000E+00         0.00000E+00
 
    0.18140E+07        -0.52674E+06         0.00000E+00
   -0.52674E+06        -0.18140E+07         0.00000E+00
    0.00000E+00         0.00000E+00         0.00000E+00
 
    0.18576E+07        -0.51945E+06         0.00000E+00
   -0.51945E+06        -0.18578E+07         0.00000E+00
    0.00000E+00         0.00000E+00         0.00000E+00
 
    0.19030E+07        -0.50230E+06         0.00000E+00
   -0.50230E+06        -0.19034E+07         0.00000E+00
    0.00000E+00         0.00000E+00         0.00000E+00
 
    0.19487E+07        -0.47528E+06         0.00000E+00
   -0.47528E+06        -0.19493E+07         0.00000E+00
    0.00000E+00         0.00000E+00         0.00000E+00
 
    0.19935E+07        -0.43847E+06         0.00000E+00
   -0.43847E+06        -0.19942E+07         0.00000E+00
    0.00000E+00         0.00000E+00         0.00000E+00
 
    0.20359E+07        -0.39213E+06         0.00000E+00
   -0.39213E+06        -0.20368E+07         0.00000E+00
    0.00000E+00         0.00000E+00         0.00000E+00
 
    0.20746E+07        -0.33659E+06         0.00000E+00
   -0.33659E+06        -0.20756E+07         0.00000E+00
    0.00000E+00         0.00000E+00         0.00000E+00
 
    0.21083E+07        -0.27232E+06         0.00000E+00
   -0.27232E+06        -0.21095E+07         0.00000E+00
    0.00000E+00         0.00000E+00         0.00000E+00
 
    0.21358E+07        -0.19991E+06         0.00000E+00
   -0.19991E+06        -0.21372E+07         0.00000E+00
    0.00000E+00         0.00000E+00         0.00000E+00
 
    0.21558E+07        -0.12007E+06         0.00000E+00
   -0.12007E+06        -0.21574E+07         0.00000E+00
    0.00000E+00         0.00000E+00         0.00000E+00
 
    0.21671E+07        -0.33646E+05         0.00000E+00
   -0.33646E+05        -0.21689E+07         0.00000E+00
    0.00000E+00         0.00000E+00         0.00000E+00
 
    0.21685E+07         0.58396E+05         0.00000E+00
    0.58396E+05        -0.21707E+07         0.00000E+00
    0.00000E+00         0.00000E+00         0.00000E+00
 
    0.21589E+07         0.15493E+06         0.00000E+00
    0.15493E+06        -0.21615E+07         0.00000E+00
    0.00000E+00         0.00000E+00         0.00000E+00
 
    0.21373E+07         0.25467E+06         0.00000E+00
    0.25467E+06        -0.21404E+07         0.00000E+00
    0.00000E+00         0.00000E+00         0.00000E+00
 
    0.21026E+07         0.35617E+06         0.00000E+00
    0.35617E+06        -0.21065E+07         0.00000E+00
    0.00000E+00         0.00000E+00         0.00000E+00
 
    0.20538E+07         0.45781E+06         0.00000E+00
    0.45781E+06        -0.20590E+07         0.00000E+00
    0.00000E+00         0.00000E+00         0.00000E+00
 
    0.19904E+07         0.55778E+06         0.00000E+00
    0.55778E+06        -0.19972E+07         0.00000E+00
    0.00000E+00         0.00000E+00         0.00000E+00
 
    0.19115E+07         0.65411E+06         0.00000E+00
    0.65411E+06        -0.19207E+07         0.00000E+00
    0.00000E+00         0.00000E+00         0.00000E+00
 
    0.18167E+07         0.74464E+06         0.00000E+00
    0.74464E+06        -0.18294E+07         0.00000E+00
    0.00000E+00         0.00000E+00         0.00000E+00
 
    0.17058E+07         0.82707E+06         0.00000E+00
    0.82707E+06        -0.17236E+07         0.00000E+00
    0.00000E+00         0.00000E+00         0.00000E+00
 
    0.15789E+07         0.89895E+06         0.00000E+00
    0.89895E+06        -0.16039E+07         0.00000E+00
    0.00000E+00         0.00000E+00         0.00000E+00
 
    0.14363E+07         0.95777E+06         0.00000E+00
    0.95777E+06        -0.14714E+07         0.00000E+00
    0.00000E+00         0.00000E+00         0.00000E+00
 
    0.12786E+07         0.10010E+07         0.00000E+00
    0.10010E+07        -0.13280E+07         0.00000E+00
    0.00000E+00         0.00000E+00         0.00000E+00
 
    0.11070E+07         0.10261E+07         0.00000E+00
    0.10261E+07        -0.11761E+07         0.00000E+00
    0.00000E+00         0.00000E+00         0.00000E+00
 
    0.92290E+06         0.10308E+07         0.00000E+00
    0.10308E+07        -0.10190E+07         0.00000E+00
    0.00000E+00         0.00000E+00         0.00000E+00
 
    0.72819E+06         0.10129E+07         0.00000E+00
    0.10129E+07        -0.86075E+06         0.00000E+00
    0.00000E+00         0.00000E+00         0.00000E+00
 
    0.52521E+06         0.97075E+06         0.00000E+00
    0.97075E+06        -0.70639E+06         0.00000E+00
    0.00000E+00         0.00000E+00         0.00000E+00
 
    0.31668E+06         0.90316E+06         0.00000E+00
    0.90316E+06        -0.56176E+06         0.00000E+00
    0.00000E+00         0.00000E+00         0.00000E+00
 
    0.10570E+06         0.80954E+06         0.00000E+00
    0.80954E+06        -0.43351E+06         0.00000E+00
    0.00000E+00         0.00000E+00         0.00000E+00
 
    0.32150E+07         0.18096E+05         0.00000E+00
    0.18096E+05        -0.26146E+07         0.00000E+00
    0.00000E+00         0.00000E+00         0.00000E+00
 
    0.30279E+07         0.46760E+05         0.00000E+00
    0.46760E+05        -0.25795E+07         0.00000E+00
    0.00000E+00         0.00000E+00         0.00000E+00
 
    0.28472E+07         0.64088E+05         0.00000E+00
    0.64088E+05        -0.25163E+07         0.00000E+00
    0.00000E+00         0.00000E+00         0.00000E+00
 
    0.26747E+07         0.69103E+05         0.00000E+00
    0.69103E+05        -0.24333E+07         0.00000E+00
    0.00000E+00         0.00000E+00         0.00000E+00
 
    0.25122E+07         0.61500E+05         0.00000E+00
    0.61500E+05        -0.23380E+07         0.00000E+00
    0.00000E+00         0.00000E+00         0.00000E+00
 
    0.23612E+07         0.41594E+05         0.00000E+00
    0.41594E+05        -0.22368E+07         0.00000E+00
    0.00000E+00         0.00000E+00         0.00000E+00
 
    0.22234E+07         0.10241E+05         0.00000E+00
    0.10241E+05        -0.21353E+07         0.00000E+00
    0.00000E+00         0.00000E+00         0.00000E+00
 
    0.21000E+07        -0.31254E+05         0.00000E+00
   -0.31254E+05        -0.20382E+07         0.00000E+00
    0.00000E+00         0.00000E+00         0.00000E+00
 
    0.19919E+07        -0.81244E+05         0.00000E+00
   -0.81244E+05        -0.19488E+07         0.00000E+00
    0.00000E+00         0.00000E+00         0.00000E+00
 
    0.18998E+07        -0.13785E+06         0.00000E+00
   -0.13785E+06        -0.18700E+07         0.00000E+00
    0.00000E+00         0.00000E+00         0.00000E+00
 
    0.18241E+07        -0.19904E+06         0.00000E+00
   -0.19904E+06        -0.18035E+07         0.00000E+00
    0.00000E+00         0.00000E+00         0.00000E+00
 
    0.17646E+07        -0.26276E+06         0.00000E+00
   -0.26276E+06        -0.17505E+07         0.00000E+00
    0.00000E+00         0.00000E+00         0.00000E+00
 
    0.17211E+07        -0.32697E+06         0.00000E+00
   -0.32697E+06        -0.17114E+07         0.00000E+00
    0.00000E+00         0.00000E+00         0.00000E+00
 
    0.16927E+07        -0.38973E+06         0.00000E+00
   -0.38973E+06        -0.16861E+07         0.00000E+00
    0.00000E+00         0.00000E+00         0.00000E+00
 
    0.16788E+07        -0.44925E+06         0.00000E+00
   -0.44925E+06        -0.16743E+07         0.00000E+00
    0.00000E+00         0.00000E+00         0.00000E+00
 
    0.16782E+07        -0.50391E+06         0.00000E+00
   -0.50391E+06        -0.16751E+07         0.00000E+00
    0.00000E+00         0.00000E+00         0.00000E+00
 
    0.16896E+07        -0.55227E+06         0.00000E+00
   -0.55227E+06        -0.16875E+07         0.00000E+00
    0.00000E+00         0.00000E+00         0.00000E+00
 
    0.17117E+07        -0.59311E+06         0.00000E+00
   -0.59311E+06        -0.17103E+07         0.00000E+00
    0.00000E+00         0.00000E+00         0.00000E+00
 
    0.17430E+07        -0.62543E+06         0.00000E+00
   -0.62543E+06        -0.17422E+07         0.00000E+00
    0.00000E+00         0.00000E+00         0.00000E+00
 
    0.17820E+07        -0.64840E+06         0.00000E+00
   -0.64840E+06        -0.17816E+07         0.00000E+00
    0.00000E+00         0.00000E+00         0.00000E+00
 
    0.18273E+07        -0.66141E+06         0.00000E+00
   -0.66141E+06        -0.18272E+07         0.00000E+00
    0.00000E+00         0.00000E+00         0.00000E+00
 
    0.18773E+07        -0.66402E+06         0.00000E+00
   -0.66402E+06        -0.18774E+07         0.00000E+00
    0.00000E+00         0.00000E+00         0.00000E+00
 
    0.19304E+07        -0.65594E+06         0.00000E+00
   -0.65594E+06        -0.19308E+07         0.00000E+00
    0.00000E+00         0.00000E+00         0.00000E+00
 
    0.19852E+07        -0.63704E+06         0.00000E+00
   -0.63704E+06        -0.19858E+07         0.00000E+00
    0.00000E+00         0.00000E+00         0.00000E+00
 
    0.20402E+07        -0.60733E+06         0.00000E+00
   -0.60733E+06        -0.20409E+07         0.00000E+00
    0.00000E+00         0.00000E+00         0.00000E+00
 
    0.20940E+07        -0.56696E+06         0.00000E+00
   -0.56696E+06        -0.20949E+07         0.00000E+00
    0.00000E+00         0.00000E+00         0.00000E+00
 
    0.21451E+07        -0.51618E+06         0.00000E+00
   -0.51618E+06        -0.21461E+07         0.00000E+00
    0.00000E+00         0.00000E+00         0.00000E+00
 
    0.21922E+07        -0.45536E+06         0.00000E+00
   -0.45536E+06        -0.21934E+07         0.00000E+00
    0.00000E+00         0.00000E+00         0.00000E+00
 
    0.22339E+07        -0.38498E+06         0.00000E+00
   -0.38498E+06        -0.22353E+07         0.00000E+00
    0.00000E+00         0.00000E+00         0.00000E+00
 
    0.22689E+07        -0.30566E+06         0.00000E+00
   -0.30566E+06        -0.22704E+07         0.00000E+00
    0.00000E+00         0.00000E+00         0.00000E+00
 
    0.22959E+07        -0.21809E+06         0.00000E+00
   -0.21809E+06        -0.22976E+07         0.00000E+00
    0.00000E+00         0.00000E+00         0.00000E+00
 
    0.23135E+07        -0.12314E+06         0.00000E+00
   -0.12314E+06        -0.23155E+07         0.00000E+00
    0.00000E+00         0.00000E+00         0.00000E+00
 
    0.23206E+07        -0.21794E+05         0.00000E+00
   -0.21794E+05        -0.23230E+07         0.00000E+00
    0.00000E+00         0.00000E+00         0.00000E+00
 
    0.23159E+07         0.84819E+05         0.00000E+00
    0.84819E+05        -0.23187E+07         0.00000E+00
    0.00000E+00         0.00000E+00         0.00000E+00
 
    0.22981E+07         0.19539E+06         0.00000E+00
    0.19539E+06        -0.23016E+07         0.00000E+00
    0.00000E+00         0.00000E+00         0.00000E+00
 
    0.22663E+07         0.30845E+06         0.00000E+00
    0.30845E+06        -0.22707E+07         0.00000E+00
    0.00000E+00         0.00000E+00         0.00000E+00
 
    0.22193E+07         0.42232E+06         0.00000E+00
    0.42232E+06        -0.22250E+07         0.00000E+00
    0.00000E+00         0.00000E+00         0.00000E+00
 
    0.21561E+07         0.53512E+06         0.00000E+00
    0.53512E+06        -0.21637E+07         0.00000E+00
    0.00000E+00         0.00000E+00         0.00000E+00
 
    0.20760E+07         0.64478E+06         0.00000E+00
    0.64478E+06        -0.20864E+07         0.00000E+00
    0.00000E+00         0.00000E+00         0.00000E+00
 
    0.19784E+07         0.74901E+06         0.00000E+00
    0.74901E+06        -0.19927E+07         0.00000E+00
    0.00000E+00         0.00000E+00         0.00000E+00
 
    0.18628E+07         0.84535E+06         0.00000E+00
    0.84535E+06        -0.18828E+07         0.00000E+00
    0.00000E+00         0.00000E+00         0.00000E+00
 
    0.17291E+07         0.93116E+06         0.00000E+00
    0.93116E+06        -0.17572E+07         0.00000E+00
    0.00000E+00         0.00000E+00         0.00000E+00
 
    0.15775E+07         0.10037E+07         0.00000E+00
    0.10037E+07        -0.16171E+07         0.00000E+00
    0.00000E+00         0.00000E+00         0.00000E+00
 
    0.14086E+07         0.10601E+07         0.00000E+00
    0.10601E+07        -0.14643E+07         0.00000E+00
    0.00000E+00         0.00000E+00         0.00000E+00
 
    0.12234E+07         0.10977E+07         0.00000E+00
    0.10977E+07        -0.13013E+07         0.00000E+00
    0.00000E+00         0.00000E+00         0.00000E+00
 
    0.10232E+07         0.11137E+07         0.00000E+00
    0.11137E+07        -0.11315E+07         0.00000E+00
    0.00000E+00         0.00000E+00         0.00000E+00
 
    0.80999E+06         0.11057E+07         0.00000E+00
    0.11057E+07        -0.95949E+06         0.00000E+00
    0.00000E+00         0.00000E+00         0.00000E+00
 
    0.58619E+06         0.10717E+07         0.00000E+00
    0.10717E+07        -0.79051E+06         0.00000E+00
    0.00000E+00         0.00000E+00         0.00000E+00
 
    0.35465E+06         0.10102E+07         0.00000E+00
    0.10102E+07        -0.63100E+06         0.00000E+00
    0.00000E+00         0.00000E+00         0.00000E+00
 
    0.11866E+06         0.92041E+06         0.00000E+00
    0.92041E+06        -0.48826E+06         0.00000E+00
    0.00000E+00         0.00000E+00         0.00000E+00
 
    0.32457E+07         0.16151E+05         0.00000E+00
    0.16151E+05        -0.26158E+07         0.00000E+00
    0.00000E+00         0.00000E+00         0.00000E+00
 
    0.30494E+07         0.40273E+05         0.00000E+00
    0.40273E+05        -0.25787E+07         0.00000E+00
    0.00000E+00         0.00000E+00         0.00000E+00
 
    0.28599E+07         0.52032E+05         0.00000E+00
    0.52032E+05        -0.25124E+07         0.00000E+00
    0.00000E+00         0.00000E+00         0.00000E+00
 
    0.26791E+07         0.50355E+05         0.00000E+00
    0.50355E+05        -0.24255E+07         0.00000E+00
    0.00000E+00         0.00000E+00         0.00000E+00
 
    0.25091E+07         0.34942E+05         0.00000E+00
    0.34942E+05        -0.23260E+07         0.00000E+00
    0.00000E+00         0.00000E+00         0.00000E+00
 
    0.23518E+07         0.62087E+04         0.00000E+00
    0.62087E+04        -0.22209E+07         0.00000E+00
    0.00000E+00         0.00000E+00         0.00000E+00
 
    0.22090E+07        -0.34815E+05         0.00000E+00
   -0.34815E+05        -0.21164E+07         0.00000E+00
    0.00000E+00         0.00000E+00         0.00000E+00
 
    0.20821E+07        -0.86596E+05         0.00000E+00
   -0.86596E+05        -0.20171E+07         0.00000E+00
    0.00000E+00         0.00000E+00         0.00000E+00
 
    0.19723E+07        -0.14723E+06         0.00000E+00
   -0.14723E+06        -0.19270E+07         0.00000E+00
    0.00000E+00         0.00000E+00         0.00000E+00
 
    0.18801E+07        -0.21455E+06         0.00000E+00
   -0.21455E+06        -0.18488E+07         0.00000E+00
    0.00000E+00         0.00000E+00         0.00000E+00
 
    0.18059E+07        -0.28629E+06         0.00000E+00
   -0.28629E+06        -0.17843E+07         0.00000E+00
    0.00000E+00         0.00000E+00         0.00000E+00
 
    0.17495E+07        -0.36012E+06         0.00000E+00
   -0.36012E+06        -0.17347E+07         0.00000E+00
    0.00000E+00         0.00000E+00         0.00000E+00
 
    0.17105E+07        -0.43381E+06         0.00000E+00
   -0.43381E+06        -0.17004E+07         0.00000E+00
    0.00000E+00         0.00000E+00         0.00000E+00
 
    0.16880E+07        -0.50524E+06         0.00000E+00
   -0.50524E+06        -0.16811E+07         0.00000E+00
    0.00000E+00         0.00000E+00         0.00000E+00
 
    0.16810E+07        -0.57247E+06         0.00000E+00
   -0.57247E+06        -0.16763E+07         0.00000E+00
    0.00000E+00         0.00000E+00         0.00000E+00
 
    0.16882E+07        -0.63378E+06         0.00000E+00
   -0.63378E+06        -0.16851E+07         0.00000E+00
    0.00000E+00         0.00000E+00         0.00000E+00
 
    0.17082E+07        -0.68769E+06         0.00000E+00
   -0.68769E+06        -0.17062E+07         0.00000E+00
    0.00000E+00         0.00000E+00         0.00000E+00
 
    0.17394E+07        -0.73293E+06         0.00000E+00
   -0.73293E+06        -0.17382E+07         0.00000E+00
    0.00000E+00         0.00000E+00         0.00000E+00
 
    0.17803E+07        -0.76850E+06         0.00000E+00
   -0.76850E+06        -0.17797E+07         0.00000E+00
    0.00000E+00         0.00000E+00         0.00000E+00
 
    0.18293E+07        -0.79359E+06         0.00000E+00
   -0.79359E+06        -0.18290E+07         0.00000E+00
    0.00000E+00         0.00000E+00         0.00000E+00
 
    0.18845E+07        -0.80761E+06         0.00000E+00
   -0.80761E+06        -0.18846E+07         0.00000E+00
    0.00000E+00         0.00000E+00         0.00000E+00
 
    0.19445E+07        -0.81016E+06         0.00000E+00
   -0.81016E+06        -0.19449E+07         0.00000E+00
    0.00000E+00         0.00000E+00         0.00000E+00
 
    0.20076E+07        -0.80101E+06         0.00000E+00
   -0.80101E+06        -0.20082E+07         0.00000E+00
    0.00000E+00         0.00000E+00         0.00000E+00
 
    0.20723E+07        -0.78007E+06         0.00000E+00
   -0.78007E+06        -0.20730E+07         0.00000E+00
    0.00000E+00         0.00000E+00         0.00000E+00
 
    0.21369E+07        -0.74740E+06         0.00000E+00
   -0.74740E+06        -0.21378E+07         0.00000E+00
    0.00000E+00         0.00000E+00         0.00000E+00
 
    0.22001E+07        -0.70317E+06         0.00000E+00
   -0.70317E+06        -0.22011E+07         0.00000E+00
    0.00000E+00         0.00000E+00         0.00000E+00
 
    0.22603E+07        -0.64766E+06         0.00000E+00
   -0.64766E+06        -0.22615E+07         0.00000E+00
    0.00000E+00         0.00000E+00         0.00000E+00
 
    0.23161E+07        -0.58128E+06         0.00000E+00
   -0.58128E+06        -0.23174E+07         0.00000E+00
    0.00000E+00         0.00000E+00         0.00000E+00
 
    0.23661E+07        -0.50452E+06         0.00000E+00
   -0.50452E+06        -0.23676E+07         0.00000E+00
    0.00000E+00         0.00000E+00         0.00000E+00
 
    0.24089E+07        -0.41800E+06         0.00000E+00
   -0.41800E+06        -0.24106E+07         0.00000E+00
    0.00000E+00         0.00000E+00         0.00000E+00
 
    0.24431E+07        -0.32243E+06         0.00000E+00
   -0.32243E+06        -0.24451E+07         0.00000E+00
    0.00000E+00         0.00000E+00         0.00000E+00
 
    0.24675E+07        -0.21865E+06         0.00000E+00
   -0.21865E+06        -0.24697E+07         0.00000E+00
    0.00000E+00         0.00000E+00         0.00000E+00
 
    0.24806E+07        -0.10766E+06         0.00000E+00
   -0.10766E+06        -0.24832E+07         0.00000E+00
    0.00000E+00         0.00000E+00         0.00000E+00
 
    0.24811E+07         0.94168E+04         0.00000E+00
    0.94168E+04        -0.24842E+07         0.00000E+00
    0.00000E+00         0.00000E+00         0.00000E+00
 
    0.24677E+07         0.13127E+06         0.00000E+00
    0.13127E+06        -0.24716E+07         0.00000E+00
    0.00000E+00         0.00000E+00         0.00000E+00
 
    0.24391E+07         0.25641E+06         0.00000E+00
    0.25641E+06        -0.24440E+07         0.00000E+00
    0.00000E+00         0.00000E+00         0.00000E+00
 
    0.23942E+07         0.38313E+06         0.00000E+00
    0.38313E+06        -0.24006E+07         0.00000E+00
    0.00000E+00         0.00000E+00         0.00000E+00
 
    0.23318E+07         0.50950E+06         0.00000E+00
    0.50950E+06        -0.23403E+07         0.00000E+00
    0.00000E+00         0.00000E+00         0.00000E+00
 
    0.22508E+07         0.63335E+06         0.00000E+00
    0.63335E+06        -0.22625E+07         0.00000E+00
    0.00000E+00         0.00000E+00         0.00000E+00
 
    0.21506E+07         0.75229E+06         0.00000E+00
    0.75229E+06        -0.21667E+07         0.00000E+00
    0.00000E+00         0.00000E+00         0.00000E+00
 
    0.20304E+07         0.86369E+06         0.00000E+00
    0.86369E+06        -0.20529E+07         0.00000E+00
    0.00000E+00         0.00000E+00         0.00000E+00
 
    0.18900E+07         0.96470E+06         0.00000E+00
    0.96470E+06        -0.19216E+07         0.00000E+00
    0.00000E+00         0.00000E+00         0.00000E+00
 
    0.17293E+07         0.10523E+07         0.00000E+00
    0.10523E+07        -0.17739E+07         0.00000E+00
    0.00000E+00         0.00000E+00         0.00000E+00
 
    0.15487E+07         0.11235E+07         0.00000E+00
    0.11235E+07        -0.16114E+07         0.00000E+00
    0.00000E+00         0.00000E+00         0.00000E+00
 
    0.13492E+07         0.11751E+07         0.00000E+00
    0.11751E+07        -0.14369E+07         0.00000E+00
    0.00000E+00         0.00000E+00         0.00000E+00
 
    0.11320E+07         0.12040E+07         0.00000E+00
    0.12040E+07        -0.12539E+07         0.00000E+00
    0.00000E+00         0.00000E+00         0.00000E+00
 
    0.89902E+06         0.12076E+07         0.00000E+00
    0.12076E+07        -0.10672E+07         0.00000E+00
    0.00000E+00         0.00000E+00         0.00000E+00
 
    0.65276E+06         0.11833E+07         0.00000E+00
    0.11833E+07        -0.88262E+06         0.00000E+00
    0.00000E+00         0.00000E+00         0.00000E+00
 
    0.39620E+06         0.11294E+07         0.00000E+00
    0.11294E+07        -0.70704E+06         0.00000E+00
    0.00000E+00         0.00000E+00         0.00000E+00
 
    0.13288E+06         0.10447E+07         0.00000E+00
    0.10447E+07        -0.54853E+06         0.00000E+00
    0.00000E+00         0.00000E+00         0.00000E+00
 
    0.32756E+07         0.14177E+05         0.00000E+00
    0.14177E+05        -0.26134E+07         0.00000E+00
    0.00000E+00         0.00000E+00         0.00000E+00
 
    0.30695E+07         0.33571E+05         0.00000E+00
    0.33571E+05        -0.25744E+07         0.00000E+00
    0.00000E+00         0.00000E+00         0.00000E+00
 
    0.28702E+07         0.39381E+05         0.00000E+00
    0.39381E+05        -0.25045E+07         0.00000E+00
    0.00000E+00         0.00000E+00         0.00000E+00
 
    0.26803E+07         0.30433E+05         0.00000E+00
    0.30433E+05        -0.24132E+07         0.00000E+00
    0.00000E+00         0.00000E+00         0.00000E+00
 
    0.25022E+07         0.64503E+04         0.00000E+00
    0.64503E+04        -0.23092E+07         0.00000E+00
    0.00000E+00         0.00000E+00         0.00000E+00
 
    0.23381E+07        -0.32016E+05         0.00000E+00
   -0.32016E+05        -0.22001E+07         0.00000E+00
    0.00000E+00         0.00000E+00         0.00000E+00
 
    0.21900E+07        -0.83711E+05         0.00000E+00
   -0.83711E+05        -0.20924E+07         0.00000E+00
    0.00000E+00         0.00000E+00         0.00000E+00
 
    0.20597E+07        -0.14682E+06         0.00000E+00
   -0.14682E+06        -0.19911E+07         0.00000E+00
    0.00000E+00         0.00000E+00         0.00000E+00
 
    0.19482E+07        -0.21913E+06         0.00000E+00
   -0.21913E+06        -0.19005E+07         0.00000E+00
    0.00000E+00         0.00000E+00         0.00000E+00
 
    0.18563E+07        -0.29815E+06         0.00000E+00
   -0.29815E+06        -0.18233E+07         0.00000E+00
    0.00000E+00         0.00000E+00         0.00000E+00
 
    0.17841E+07        -0.38130E+06         0.00000E+00
   -0.38130E+06        -0.17614E+07         0.00000E+00
    0.00000E+00         0.00000E+00         0.00000E+00
 
    0.17315E+07        -0.46600E+06         0.00000E+00
   -0.46600E+06        -0.17160E+07         0.00000E+00
    0.00000E+00         0.00000E+00         0.00000E+00
 
    0.16977E+07        -0.54977E+06         0.00000E+00
   -0.54977E+06        -0.16872E+07         0.00000E+00
    0.00000E+00         0.00000E+00         0.00000E+00
 
    0.16819E+07        -0.63031E+06         0.00000E+00
   -0.63031E+06        -0.16748E+07         0.00000E+00
    0.00000E+00         0.00000E+00         0.00000E+00
 
    0.16827E+07        -0.70554E+06         0.00000E+00
   -0.70554E+06        -0.16780E+07         0.00000E+00
    0.00000E+00         0.00000E+00         0.00000E+00
 
    0.16986E+07        -0.77365E+06         0.00000E+00
   -0.77365E+06        -0.16955E+07         0.00000E+00
    0.00000E+00         0.00000E+00         0.00000E+00
 
    0.17280E+07        -0.83312E+06         0.00000E+00
   -0.83312E+06        -0.17261E+07         0.00000E+00
    0.00000E+00         0.00000E+00         0.00000E+00
 
    0.17692E+07        -0.88266E+06         0.00000E+00
   -0.88266E+06        -0.17682E+07         0.00000E+00
    0.00000E+00         0.00000E+00         0.00000E+00
 
    0.18205E+07        -0.92129E+06         0.00000E+00
   -0.92129E+06        -0.18200E+07         0.00000E+00
    0.00000E+00         0.00000E+00         0.00000E+00
 
    0.18799E+07        -0.94824E+06         0.00000E+00
   -0.94824E+06        -0.18799E+07         0.00000E+00
    0.00000E+00         0.00000E+00         0.00000E+00
 
    0.19458E+07        -0.96296E+06         0.00000E+00
   -0.96296E+06        -0.19461E+07         0.00000E+00
    0.00000E+00         0.00000E+00         0.00000E+00
 
    0.20163E+07        -0.96513E+06         0.00000E+00
   -0.96513E+06        -0.20169E+07         0.00000E+00
    0.00000E+00         0.00000E+00         0.00000E+00
 
    0.20898E+07        -0.95455E+06         0.00000E+00
   -0.95455E+06        -0.20906E+07         0.00000E+00
    0.00000E+00         0.00000E+00         0.00000E+00
 
    0.21647E+07        -0.93122E+06         0.00000E+00
   -0.93122E+06        -0.21656E+07         0.00000E+00
    0.00000E+00         0.00000E+00         0.00000E+00
 
    0.22393E+07        -0.89523E+06         0.00000E+00
   -0.89523E+06        -0.22404E+07         0.00000E+00
    0.00000E+00         0.00000E+00         0.00000E+00
 
    0.23120E+07        -0.84681E+06         0.00000E+00
   -0.84681E+06        -0.23133E+07         0.00000E+00
    0.00000E+00         0.00000E+00         0.00000E+00
 
    0.23815E+07        -0.78629E+06         0.00000E+00
   -0.78629E+06        -0.23830E+07         0.00000E+00
    0.00000E+00         0.00000E+00         0.00000E+00
 
    0.24463E+07        -0.71407E+06         0.00000E+00
   -0.71407E+06        -0.24479E+07         0.00000E+00
    0.00000E+00         0.00000E+00         0.00000E+00
 
    0.25048E+07        -0.63067E+06         0.00000E+00
   -0.63067E+06        -0.25066E+07         0.00000E+00
    0.00000E+00         0.00000E+00         0.00000E+00
 
    0.25557E+07        -0.53671E+06         0.00000E+00
   -0.53671E+06        -0.25576E+07         0.00000E+00
    0.00000E+00         0.00000E+00         0.00000E+00
 
    0.25975E+07        -0.43289E+06         0.00000E+00
   -0.43289E+06        -0.25997E+07         0.00000E+00
    0.00000E+00         0.00000E+00         0.00000E+00
 
    0.26289E+07        -0.32004E+06         0.00000E+00
   -0.32004E+06        -0.26314E+07         0.00000E+00
    0.00000E+00         0.00000E+00         0.00000E+00
 
    0.26483E+07        -0.19913E+06         0.00000E+00
   -0.19913E+06        -0.26513E+07         0.00000E+00
    0.00000E+00         0.00000E+00         0.00000E+00
 
    0.26544E+07        -0.71269E+05         0.00000E+00
   -0.71269E+05        -0.26579E+07         0.00000E+00
    0.00000E+00         0.00000E+00         0.00000E+00
 
    0.26458E+07         0.62250E+05         0.00000E+00
    0.62250E+05        -0.26501E+07         0.00000E+00
    0.00000E+00         0.00000E+00         0.00000E+00
 
    0.26210E+07         0.19994E+06         0.00000E+00
    0.19994E+06        -0.26264E+07         0.00000E+00
    0.00000E+00         0.00000E+00         0.00000E+00
 
    0.25786E+07         0.34008E+06         0.00000E+00
    0.34008E+06        -0.25857E+07         0.00000E+00
    0.00000E+00         0.00000E+00         0.00000E+00
 
    0.25173E+07         0.48070E+06         0.00000E+00
    0.48070E+06        -0.25269E+07         0.00000E+00
    0.00000E+00         0.00000E+00         0.00000E+00
 
    0.24360E+07         0.61959E+06         0.00000E+00
    0.61959E+06        -0.24490E+07         0.00000E+00
    0.00000E+00         0.00000E+00         0.00000E+00
 
    0.23335E+07         0.75423E+06         0.00000E+00
    0.75423E+06        -0.23516E+07         0.00000E+00
    0.00000E+00         0.00000E+00         0.00000E+00
 
    0.22090E+07         0.88185E+06         0.00000E+00
    0.88185E+06        -0.22343E+07         0.00000E+00
    0.00000E+00         0.00000E+00         0.00000E+00
 
    0.20619E+07         0.99941E+06         0.00000E+00
    0.99941E+06        -0.20975E+07         0.00000E+00
    0.00000E+00         0.00000E+00         0.00000E+00
 
    0.18920E+07         0.11037E+07         0.00000E+00
    0.11037E+07        -0.19422E+07         0.00000E+00
    0.00000E+00         0.00000E+00         0.00000E+00
 
    0.16995E+07         0.11912E+07         0.00000E+00
    0.11912E+07        -0.17700E+07         0.00000E+00
    0.00000E+00         0.00000E+00         0.00000E+00
 
    0.14850E+07         0.12585E+07         0.00000E+00
    0.12585E+07        -0.15836E+07         0.00000E+00
    0.00000E+00         0.00000E+00         0.00000E+00
 
    0.12498E+07         0.13023E+07         0.00000E+00
    0.13023E+07        -0.13869E+07         0.00000E+00
    0.00000E+00         0.00000E+00         0.00000E+00
 
    0.99579E+06         0.13192E+07         0.00000E+00
    0.13192E+07        -0.11847E+07         0.00000E+00
    0.00000E+00         0.00000E+00         0.00000E+00
 
    0.72535E+06         0.13065E+07         0.00000E+00
    0.13065E+07        -0.98343E+06         0.00000E+00
    0.00000E+00         0.00000E+00         0.00000E+00
 
    0.44166E+06         0.12618E+07         0.00000E+00
    0.12618E+07        -0.79056E+06         0.00000E+00
    0.00000E+00         0.00000E+00         0.00000E+00
 
    0.14847E+06         0.11838E+07         0.00000E+00
    0.11838E+07        -0.61491E+06         0.00000E+00
    0.00000E+00         0.00000E+00         0.00000E+00
 
    0.33052E+07         0.12186E+05         0.00000E+00
    0.12186E+05        -0.26073E+07         0.00000E+00
    0.00000E+00         0.00000E+00         0.00000E+00
 
    0.30881E+07         0.26659E+05         0.00000E+00
    0.26659E+05        -0.25659E+07         0.00000E+00
    0.00000E+00         0.00000E+00         0.00000E+00
 
    0.28781E+07         0.26091E+05         0.00000E+00
    0.26091E+05        -0.24921E+07         0.00000E+00
    0.00000E+00         0.00000E+00         0.00000E+00
 
    0.26782E+07         0.92020E+04         0.00000E+00
    0.92020E+04        -0.23961E+07         0.00000E+00
    0.00000E+00         0.00000E+00         0.00000E+00
 
    0.24911E+07        -0.24229E+05         0.00000E+00
   -0.24229E+05        -0.22873E+07         0.00000E+00
    0.00000E+00         0.00000E+00         0.00000E+00
 
    0.23197E+07        -0.73466E+05         0.00000E+00
   -0.73466E+05        -0.21739E+07         0.00000E+00
    0.00000E+00         0.00000E+00         0.00000E+00
 
    0.21661E+07        -0.13697E+06         0.00000E+00
   -0.13697E+06        -0.20629E+07         0.00000E+00
    0.00000E+00         0.00000E+00         0.00000E+00
 
    0.20323E+07        -0.21258E+06         0.00000E+00
   -0.21258E+06        -0.19598E+07         0.00000E+00
    0.00000E+00         0.00000E+00         0.00000E+00
 
    0.19194E+07        -0.29769E+06         0.00000E+00
   -0.29769E+06        -0.18690E+07         0.00000E+00
    0.00000E+00         0.00000E+00         0.00000E+00
 
    0.18282E+07        -0.38946E+06         0.00000E+00
   -0.38946E+06        -0.17934E+07         0.00000E+00
    0.00000E+00         0.00000E+00         0.00000E+00
 
    0.17588E+07        -0.48494E+06         0.00000E+00
   -0.48494E+06        -0.17350E+07         0.00000E+00
    0.00000E+00         0.00000E+00         0.00000E+00
 
    0.17107E+07        -0.58125E+06         0.00000E+00
   -0.58125E+06        -0.16946E+07         0.00000E+00
    0.00000E+00         0.00000E+00         0.00000E+00
 
    0.16832E+07        -0.67566E+06         0.00000E+00
   -0.67566E+06        -0.16724E+07         0.00000E+00
    0.00000E+00         0.00000E+00         0.00000E+00
 
    0.16749E+07        -0.76568E+06         0.00000E+00
   -0.76568E+06        -0.16678E+07         0.00000E+00
    0.00000E+00         0.00000E+00         0.00000E+00
 
    0.16845E+07        -0.84910E+06         0.00000E+00
   -0.84910E+06        -0.16799E+07         0.00000E+00
    0.00000E+00         0.00000E+00         0.00000E+00
 
    0.17101E+07        -0.92406E+06         0.00000E+00
   -0.92406E+06        -0.17072E+07         0.00000E+00
    0.00000E+00         0.00000E+00         0.00000E+00
 
    0.17498E+07        -0.98897E+06         0.00000E+00
   -0.98897E+06        -0.17482E+07         0.00000E+00
    0.00000E+00         0.00000E+00         0.00000E+00
 
    0.18018E+07        -0.10426E+07         0.00000E+00
   -0.10426E+07        -0.18011E+07         0.00000E+00
    0.00000E+00         0.00000E+00         0.00000E+00
 
    0.18641E+07        -0.10840E+07         0.00000E+00
   -0.10840E+07        -0.18640E+07         0.00000E+00
    0.00000E+00         0.00000E+00         0.00000E+00
 
    0.19347E+07        -0.11124E+07         0.00000E+00
   -0.11124E+07        -0.19350E+07         0.00000E+00
    0.00000E+00         0.00000E+00         0.00000E+00
 
    0.20116E+07        -0.11274E+07         0.00000E+00
   -0.11274E+07        -0.20123E+07         0.00000E+00
    0.00000E+00         0.00000E+00         0.00000E+00
 
    0.20931E+07        -0.11287E+07         0.00000E+00
   -0.11287E+07        -0.20941E+07         0.00000E+00
    0.00000E+00         0.00000E+00         0.00000E+00
 
    0.21774E+07        -0.11163E+07         0.00000E+00
   -0.11163E+07        -0.21786E+07         0.00000E+00
    0.00000E+00         0.00000E+00         0.00000E+00
 
    0.22628E+07        -0.10901E+07         0.00000E+00
   -0.10901E+07        -0.22641E+07         0.00000E+00
    0.00000E+00         0.00000E+00         0.00000E+00
 
    0.23475E+07        -0.10505E+07         0.00000E+00
   -0.10505E+07        -0.23490E+07         0.00000E+00
    0.00000E+00         0.00000E+00         0.00000E+00
 
    0.24301E+07        -0.99749E+06         0.00000E+00
   -0.99749E+06        -0.24318E+07         0.00000E+00
    0.00000E+00         0.00000E+00         0.00000E+00
 
    0.25091E+07        -0.93163E+06         0.00000E+00
   -0.93163E+06        -0.25109E+07         0.00000E+00
    0.00000E+00         0.00000E+00         0.00000E+00
 
    0.25829E+07        -0.85330E+06         0.00000E+00
   -0.85330E+06        -0.25848E+07         0.00000E+00
    0.00000E+00         0.00000E+00         0.00000E+00
 
    0.26501E+07        -0.76303E+06         0.00000E+00
   -0.76303E+06        -0.26522E+07         0.00000E+00
    0.00000E+00         0.00000E+00         0.00000E+00
 
    0.27092E+07        -0.66142E+06         0.00000E+00
   -0.66142E+06        -0.27115E+07         0.00000E+00
    0.00000E+00         0.00000E+00         0.00000E+00
 
    0.27588E+07        -0.54917E+06         0.00000E+00
   -0.54917E+06        -0.27614E+07         0.00000E+00
    0.00000E+00         0.00000E+00         0.00000E+00
 
    0.27974E+07        -0.42706E+06         0.00000E+00
   -0.42706E+06        -0.28003E+07         0.00000E+00
    0.00000E+00         0.00000E+00         0.00000E+00
 
    0.28235E+07        -0.29603E+06         0.00000E+00
   -0.29603E+06        -0.28269E+07         0.00000E+00
    0.00000E+00         0.00000E+00         0.00000E+00
 
    0.28356E+07        -0.15715E+06         0.00000E+00
   -0.15715E+06        -0.28396E+07         0.00000E+00
    0.00000E+00         0.00000E+00         0.00000E+00
 
    0.28321E+07        -0.11674E+05         0.00000E+00
   -0.11674E+05        -0.28370E+07         0.00000E+00
    0.00000E+00         0.00000E+00         0.00000E+00
 
    0.28115E+07         0.13894E+06         0.00000E+00
    0.13894E+06        -0.28177E+07         0.00000E+00
    0.00000E+00         0.00000E+00         0.00000E+00
 
    0.27722E+07         0.29299E+06         0.00000E+00
    0.29299E+06        -0.27803E+07         0.00000E+00
    0.00000E+00         0.00000E+00         0.00000E+00
 
    0.27126E+07         0.44851E+06         0.00000E+00
    0.44851E+06        -0.27234E+07         0.00000E+00
    0.00000E+00         0.00000E+00         0.00000E+00
 
    0.26314E+07         0.60323E+06         0.00000E+00
    0.60323E+06        -0.26461E+07         0.00000E+00
    0.00000E+00         0.00000E+00         0.00000E+00
 
    0.25271E+07         0.75455E+06         0.00000E+00
    0.75455E+06        -0.25475E+07         0.00000E+00
    0.00000E+00         0.00000E+00         0.00000E+00
 
    0.23986E+07         0.89957E+06         0.00000E+00
    0.89957E+06        -0.24271E+07         0.00000E+00
    0.00000E+00         0.00000E+00         0.00000E+00
 
    0.22452E+07         0.10351E+07         0.00000E+00
    0.10351E+07        -0.22852E+07         0.00000E+00
    0.00000E+00         0.00000E+00         0.00000E+00
 
    0.20661E+07         0.11575E+07         0.00000E+00
    0.11575E+07        -0.21224E+07         0.00000E+00
    0.00000E+00         0.00000E+00         0.00000E+00
 
    0.18614E+07         0.12632E+07         0.00000E+00
    0.12632E+07        -0.19405E+07         0.00000E+00
    0.00000E+00         0.00000E+00         0.00000E+00
 
    0.16315E+07         0.13482E+07         0.00000E+00
    0.13482E+07        -0.17421E+07         0.00000E+00
    0.00000E+00         0.00000E+00         0.00000E+00
 
    0.13774E+07         0.14088E+07         0.00000E+00
    0.14088E+07        -0.15311E+07         0.00000E+00
    0.00000E+00         0.00000E+00         0.00000E+00
 
    0.11009E+07         0.14412E+07         0.00000E+00
    0.14412E+07        -0.13128E+07         0.00000E+00
    0.00000E+00         0.00000E+00         0.00000E+00
 
    0.80446E+06         0.14420E+07         0.00000E+00
    0.14420E+07        -0.10938E+07         0.00000E+00
    0.00000E+00         0.00000E+00         0.00000E+00
 
    0.49135E+06         0.14086E+07         0.00000E+00
    0.14086E+07        -0.88231E+06         0.00000E+00
    0.00000E+00         0.00000E+00         0.00000E+00
 
    0.16554E+06         0.13390E+07         0.00000E+00
    0.13390E+07        -0.68803E+06         0.00000E+00
    0.00000E+00         0.00000E+00         0.00000E+00
 
    0.33346E+07         0.10189E+05         0.00000E+00
    0.10189E+05        -0.25970E+07         0.00000E+00
    0.00000E+00         0.00000E+00         0.00000E+00
 
    0.31053E+07         0.19530E+05         0.00000E+00
    0.19530E+05        -0.25530E+07         0.00000E+00
    0.00000E+00         0.00000E+00         0.00000E+00
 
    0.28835E+07         0.12083E+05         0.00000E+00
    0.12083E+05        -0.24749E+07         0.00000E+00
    0.00000E+00         0.00000E+00         0.00000E+00
 
    0.26724E+07        -0.13532E+05         0.00000E+00
   -0.13532E+05        -0.23737E+07         0.00000E+00
    0.00000E+00         0.00000E+00         0.00000E+00
 
    0.24757E+07        -0.57439E+05         0.00000E+00
   -0.57439E+05        -0.22597E+07         0.00000E+00
    0.00000E+00         0.00000E+00         0.00000E+00
 
    0.22963E+07        -0.11865E+06         0.00000E+00
   -0.11865E+06        -0.21418E+07         0.00000E+00
    0.00000E+00         0.00000E+00         0.00000E+00
 
    0.21370E+07        -0.19527E+06         0.00000E+00
   -0.19527E+06        -0.20275E+07         0.00000E+00
    0.00000E+00         0.00000E+00         0.00000E+00
 
    0.19997E+07        -0.28468E+06         0.00000E+00
   -0.28468E+06        -0.19230E+07         0.00000E+00
    0.00000E+00         0.00000E+00         0.00000E+00
 
    0.18858E+07        -0.38385E+06         0.00000E+00
   -0.38385E+06        -0.18325E+07         0.00000E+00
    0.00000E+00         0.00000E+00         0.00000E+00
 
    0.17959E+07        -0.48946E+06         0.00000E+00
   -0.48946E+06        -0.17593E+07         0.00000E+00
    0.00000E+00         0.00000E+00         0.00000E+00
 
    0.17301E+07        -0.59820E+06         0.00000E+00
   -0.59820E+06        -0.17052E+07         0.00000E+00
    0.00000E+00         0.00000E+00         0.00000E+00
 
    0.16876E+07        -0.70684E+06         0.00000E+00
   -0.70684E+06        -0.16708E+07         0.00000E+00
    0.00000E+00         0.00000E+00         0.00000E+00
 
    0.16673E+07        -0.81239E+06         0.00000E+00
   -0.81239E+06        -0.16563E+07         0.00000E+00
    0.00000E+00         0.00000E+00         0.00000E+00
 
    0.16678E+07        -0.91217E+06         0.00000E+00
   -0.91217E+06        -0.16607E+07         0.00000E+00
    0.00000E+00         0.00000E+00         0.00000E+00
 
    0.16872E+07        -0.10039E+07         0.00000E+00
   -0.10039E+07        -0.16828E+07         0.00000E+00
    0.00000E+00         0.00000E+00         0.00000E+00
 
    0.17234E+07        -0.10855E+07         0.00000E+00
   -0.10855E+07        -0.17210E+07         0.00000E+00
    0.00000E+00         0.00000E+00         0.00000E+00
 
    0.17745E+07        -0.11556E+07         0.00000E+00
   -0.11556E+07        -0.17733E+07         0.00000E+00
    0.00000E+00         0.00000E+00         0.00000E+00
 
    0.18381E+07        -0.12130E+07         0.00000E+00
   -0.12130E+07        -0.18379E+07         0.00000E+00
    0.00000E+00         0.00000E+00         0.00000E+00
 
    0.19121E+07        -0.12566E+07         0.00000E+00
   -0.12566E+07        -0.19126E+07         0.00000E+00
    0.00000E+00         0.00000E+00         0.00000E+00
 
    0.19944E+07        -0.12860E+07         0.00000E+00
   -0.12860E+07        -0.19953E+07         0.00000E+00
    0.00000E+00         0.00000E+00         0.00000E+00
 
    0.20829E+07        -0.13007E+07         0.00000E+00
   -0.13007E+07        -0.20842E+07         0.00000E+00
    0.00000E+00         0.00000E+00         0.00000E+00
 
    0.21758E+07        -0.13006E+07         0.00000E+00
   -0.13006E+07        -0.21774E+07         0.00000E+00
    0.00000E+00         0.00000E+00         0.00000E+00
 
    0.22711E+07        -0.12858E+07         0.00000E+00
   -0.12858E+07        -0.22728E+07         0.00000E+00
    0.00000E+00         0.00000E+00         0.00000E+00
 
    0.23671E+07        -0.12563E+07         0.00000E+00
   -0.12563E+07        -0.23690E+07         0.00000E+00
    0.00000E+00         0.00000E+00         0.00000E+00
 
    0.24621E+07        -0.12125E+07         0.00000E+00
   -0.12125E+07        -0.24642E+07         0.00000E+00
    0.00000E+00         0.00000E+00         0.00000E+00
 
    0.25546E+07        -0.11546E+07         0.00000E+00
   -0.11546E+07        -0.25568E+07         0.00000E+00
    0.00000E+00         0.00000E+00         0.00000E+00
 
    0.26430E+07        -0.10831E+07         0.00000E+00
   -0.10831E+07        -0.26454E+07         0.00000E+00
    0.00000E+00         0.00000E+00         0.00000E+00
 
    0.27259E+07        -0.99839E+06         0.00000E+00
   -0.99839E+06        -0.27284E+07         0.00000E+00
    0.00000E+00         0.00000E+00         0.00000E+00
 
    0.28018E+07        -0.90104E+06         0.00000E+00
   -0.90104E+06        -0.28045E+07         0.00000E+00
    0.00000E+00         0.00000E+00         0.00000E+00
 
    0.28692E+07        -0.79162E+06         0.00000E+00
   -0.79162E+06        -0.28721E+07         0.00000E+00
    0.00000E+00         0.00000E+00         0.00000E+00
 
    0.29267E+07        -0.67081E+06         0.00000E+00
   -0.67081E+06        -0.29299E+07         0.00000E+00
    0.00000E+00         0.00000E+00         0.00000E+00
 
    0.29727E+07        -0.53934E+06         0.00000E+00
   -0.53934E+06        -0.29762E+07         0.00000E+00
    0.00000E+00         0.00000E+00         0.00000E+00
 
    0.30057E+07        -0.39808E+06         0.00000E+00
   -0.39808E+06        -0.30098E+07         0.00000E+00
    0.00000E+00         0.00000E+00         0.00000E+00
 
    0.30241E+07        -0.24805E+06         0.00000E+00
   -0.24805E+06        -0.30288E+07         0.00000E+00
    0.00000E+00         0.00000E+00         0.00000E+00
 
    0.30262E+07        -0.90425E+05         0.00000E+00
   -0.90425E+05        -0.30319E+07         0.00000E+00
    0.00000E+00         0.00000E+00         0.00000E+00
 
    0.30103E+07         0.73394E+05         0.00000E+00
    0.73394E+05        -0.30174E+07         0.00000E+00
    0.00000E+00         0.00000E+00         0.00000E+00
 
    0.29746E+07         0.24175E+06         0.00000E+00
    0.24175E+06        -0.29838E+07         0.00000E+00
    0.00000E+00         0.00000E+00         0.00000E+00
 
    0.29173E+07         0.41271E+06         0.00000E+00
    0.41271E+06        -0.29296E+07         0.00000E+00
    0.00000E+00         0.00000E+00         0.00000E+00
 
    0.28368E+07         0.58398E+06         0.00000E+00
    0.58398E+06        -0.28534E+07         0.00000E+00
    0.00000E+00         0.00000E+00         0.00000E+00
 
    0.27313E+07         0.75292E+06         0.00000E+00
    0.75292E+06        -0.27543E+07         0.00000E+00
    0.00000E+00         0.00000E+00         0.00000E+00
 
    0.25994E+07         0.91651E+06         0.00000E+00
    0.91651E+06        -0.26315E+07         0.00000E+00
    0.00000E+00         0.00000E+00         0.00000E+00
 
    0.24399E+07         0.10713E+07         0.00000E+00
    0.10713E+07        -0.24850E+07         0.00000E+00
    0.00000E+00         0.00000E+00         0.00000E+00
 
    0.22518E+07         0.12137E+07         0.00000E+00
    0.12137E+07        -0.23152E+07         0.00000E+00
    0.00000E+00         0.00000E+00         0.00000E+00
 
    0.20348E+07         0.13394E+07         0.00000E+00
    0.13394E+07        -0.21237E+07         0.00000E+00
    0.00000E+00         0.00000E+00         0.00000E+00
 
    0.17890E+07         0.14442E+07         0.00000E+00
    0.14442E+07        -0.19131E+07         0.00000E+00
    0.00000E+00         0.00000E+00         0.00000E+00
 
    0.15151E+07         0.15239E+07         0.00000E+00
    0.15239E+07        -0.16875E+07         0.00000E+00
    0.00000E+00         0.00000E+00         0.00000E+00
 
    0.12149E+07         0.15741E+07         0.00000E+00
    0.15741E+07        -0.14522E+07         0.00000E+00
    0.00000E+00         0.00000E+00         0.00000E+00
 
    0.89060E+06         0.15909E+07         0.00000E+00
    0.15909E+07        -0.12145E+07         0.00000E+00
    0.00000E+00         0.00000E+00         0.00000E+00
 
    0.54566E+06         0.15710E+07         0.00000E+00
    0.15710E+07        -0.98314E+06         0.00000E+00
    0.00000E+00         0.00000E+00         0.00000E+00
 
    0.18424E+06         0.15119E+07         0.00000E+00
    0.15119E+07        -0.76866E+06         0.00000E+00
    0.00000E+00         0.00000E+00         0.00000E+00
 
    0.33643E+07         0.81956E+04         0.00000E+00
    0.81956E+04        -0.25820E+07         0.00000E+00
    0.00000E+00         0.00000E+00         0.00000E+00
 
    0.31214E+07         0.12161E+05         0.00000E+00
    0.12161E+05        -0.25351E+07         0.00000E+00
    0.00000E+00         0.00000E+00         0.00000E+00
 
    0.28862E+07        -0.27659E+04         0.00000E+00
   -0.27659E+04        -0.24522E+07         0.00000E+00
    0.00000E+00         0.00000E+00         0.00000E+00
 
    0.26628E+07        -0.38046E+05         0.00000E+00
   -0.38046E+05        -0.23453E+07         0.00000E+00
    0.00000E+00         0.00000E+00         0.00000E+00
 
    0.24554E+07        -0.93650E+05         0.00000E+00
   -0.93650E+05        -0.22257E+07         0.00000E+00
    0.00000E+00         0.00000E+00         0.00000E+00
 
    0.22675E+07        -0.16825E+06         0.00000E+00
   -0.16825E+06        -0.21032E+07         0.00000E+00
    0.00000E+00         0.00000E+00         0.00000E+00
 
    0.21021E+07        -0.25946E+06         0.00000E+00
   -0.25946E+06        -0.19859E+07         0.00000E+00
    0.00000E+00         0.00000E+00         0.00000E+00
 
    0.19616E+07        -0.36415E+06         0.00000E+00
   -0.36415E+06        -0.18802E+07         0.00000E+00
    0.00000E+00         0.00000E+00         0.00000E+00
 
    0.18472E+07        -0.47871E+06         0.00000E+00
   -0.47871E+06        -0.17909E+07         0.00000E+00
    0.00000E+00         0.00000E+00         0.00000E+00
 
    0.17595E+07        -0.59935E+06         0.00000E+00
   -0.59935E+06        -0.17210E+07         0.00000E+00
    0.00000E+00         0.00000E+00         0.00000E+00
 
    0.16982E+07        -0.72228E+06         0.00000E+00
   -0.72228E+06        -0.16723E+07         0.00000E+00
    0.00000E+00         0.00000E+00         0.00000E+00
 
    0.16625E+07        -0.84391E+06         0.00000E+00
   -0.84391E+06        -0.16453E+07         0.00000E+00
    0.00000E+00         0.00000E+00         0.00000E+00
 
    0.16507E+07        -0.96098E+06         0.00000E+00
   -0.96098E+06        -0.16397E+07         0.00000E+00
    0.00000E+00         0.00000E+00         0.00000E+00
 
    0.16612E+07        -0.10707E+07         0.00000E+00
   -0.10707E+07        -0.16544E+07         0.00000E+00
    0.00000E+00         0.00000E+00         0.00000E+00
 
    0.16916E+07        -0.11705E+07         0.00000E+00
   -0.11705E+07        -0.16878E+07         0.00000E+00
    0.00000E+00         0.00000E+00         0.00000E+00
 
    0.17397E+07        -0.12586E+07         0.00000E+00
   -0.12586E+07        -0.17380E+07         0.00000E+00
    0.00000E+00         0.00000E+00         0.00000E+00
 
    0.18030E+07        -0.13334E+07         0.00000E+00
   -0.13334E+07        -0.18027E+07         0.00000E+00
    0.00000E+00         0.00000E+00         0.00000E+00
 
    0.18791E+07        -0.13939E+07         0.00000E+00
   -0.13939E+07        -0.18797E+07         0.00000E+00
    0.00000E+00         0.00000E+00         0.00000E+00
 
    0.19655E+07        -0.14391E+07         0.00000E+00
   -0.14391E+07        -0.19669E+07         0.00000E+00
    0.00000E+00         0.00000E+00         0.00000E+00
 
    0.20601E+07        -0.14687E+07         0.00000E+00
   -0.14687E+07        -0.20619E+07         0.00000E+00
    0.00000E+00         0.00000E+00         0.00000E+00
 
    0.21606E+07        -0.14824E+07         0.00000E+00
   -0.14824E+07        -0.21628E+07         0.00000E+00
    0.00000E+00         0.00000E+00         0.00000E+00
 
    0.22650E+07        -0.14803E+07         0.00000E+00
   -0.14803E+07        -0.22675E+07         0.00000E+00
    0.00000E+00         0.00000E+00         0.00000E+00
 
    0.23714E+07        -0.14624E+07         0.00000E+00
   -0.14624E+07        -0.23741E+07         0.00000E+00
    0.00000E+00         0.00000E+00         0.00000E+00
 
    0.24781E+07        -0.14291E+07         0.00000E+00
   -0.14291E+07        -0.24809E+07         0.00000E+00
    0.00000E+00         0.00000E+00         0.00000E+00
 
    0.25833E+07        -0.13806E+07         0.00000E+00
   -0.13806E+07        -0.25863E+07         0.00000E+00
    0.00000E+00         0.00000E+00         0.00000E+00
 
    0.26856E+07        -0.13174E+07         0.00000E+00
   -0.13174E+07        -0.26887E+07         0.00000E+00
    0.00000E+00         0.00000E+00         0.00000E+00
 
    0.27834E+07        -0.12398E+07         0.00000E+00
   -0.12398E+07        -0.27867E+07         0.00000E+00
    0.00000E+00         0.00000E+00         0.00000E+00
 
    0.28753E+07        -0.11485E+07         0.00000E+00
   -0.11485E+07        -0.28786E+07         0.00000E+00
    0.00000E+00         0.00000E+00         0.00000E+00
 
    0.29598E+07        -0.10439E+07         0.00000E+00
   -0.10439E+07        -0.29633E+07         0.00000E+00
    0.00000E+00         0.00000E+00         0.00000E+00
 
    0.30354E+07        -0.92662E+06         0.00000E+00
   -0.92662E+06        -0.30392E+07         0.00000E+00
    0.00000E+00         0.00000E+00         0.00000E+00
 
    0.31008E+07        -0.79720E+06         0.00000E+00
   -0.79720E+06        -0.31048E+07         0.00000E+00
    0.00000E+00         0.00000E+00         0.00000E+00
 
    0.31544E+07        -0.65635E+06         0.00000E+00
   -0.65635E+06        -0.31587E+07         0.00000E+00
    0.00000E+00         0.00000E+00         0.00000E+00
 
    0.31945E+07        -0.50488E+06         0.00000E+00
   -0.50488E+06        -0.31994E+07         0.00000E+00
    0.00000E+00         0.00000E+00         0.00000E+00
 
    0.32194E+07        -0.34368E+06         0.00000E+00
   -0.34368E+06        -0.32251E+07         0.00000E+00
    0.00000E+00         0.00000E+00         0.00000E+00
 
    0.32275E+07        -0.17384E+06         0.00000E+00
   -0.17384E+06        -0.32343E+07         0.00000E+00
    0.00000E+00         0.00000E+00         0.00000E+00
 
    0.32167E+07         0.33235E+04         0.00000E+00
    0.33235E+04        -0.32251E+07         0.00000E+00
    0.00000E+00         0.00000E+00         0.00000E+00
 
    0.31852E+07         0.18626E+06         0.00000E+00
    0.18626E+06        -0.31959E+07         0.00000E+00
    0.00000E+00         0.00000E+00         0.00000E+00
 
    0.31309E+07         0.37308E+06         0.00000E+00
    0.37308E+06        -0.31450E+07         0.00000E+00
    0.00000E+00         0.00000E+00         0.00000E+00
 
    0.30517E+07         0.56153E+06         0.00000E+00
    0.56153E+06        -0.30708E+07         0.00000E+00
    0.00000E+00         0.00000E+00         0.00000E+00
 
    0.29458E+07         0.74896E+06         0.00000E+00
    0.74896E+06        -0.29720E+07         0.00000E+00
    0.00000E+00         0.00000E+00         0.00000E+00
 
    0.28111E+07         0.93227E+06         0.00000E+00
    0.93227E+06        -0.28475E+07         0.00000E+00
    0.00000E+00         0.00000E+00         0.00000E+00
 
    0.26461E+07         0.11079E+07         0.00000E+00
    0.11079E+07        -0.26970E+07         0.00000E+00
    0.00000E+00         0.00000E+00         0.00000E+00
 
    0.24494E+07         0.12718E+07         0.00000E+00
    0.12718E+07        -0.25207E+07         0.00000E+00
    0.00000E+00         0.00000E+00         0.00000E+00
 
    0.22202E+07         0.14196E+07         0.00000E+00
    0.14196E+07        -0.23200E+07         0.00000E+00
    0.00000E+00         0.00000E+00         0.00000E+00
 
    0.19582E+07         0.15466E+07         0.00000E+00
    0.15466E+07        -0.20974E+07         0.00000E+00
    0.00000E+00         0.00000E+00         0.00000E+00
 
    0.16638E+07         0.16478E+07         0.00000E+00
    0.16478E+07        -0.18569E+07         0.00000E+00
    0.00000E+00         0.00000E+00         0.00000E+00
 
    0.13384E+07         0.17185E+07         0.00000E+00
    0.17185E+07        -0.16041E+07         0.00000E+00
    0.00000E+00         0.00000E+00         0.00000E+00
 
    0.98433E+06         0.17540E+07         0.00000E+00
    0.17540E+07        -0.13467E+07         0.00000E+00
    0.00000E+00         0.00000E+00         0.00000E+00
 
    0.60497E+06         0.17503E+07         0.00000E+00
    0.17503E+07        -0.10940E+07         0.00000E+00
    0.00000E+00         0.00000E+00         0.00000E+00
 
    0.20473E+06         0.17042E+07         0.00000E+00
    0.17042E+07        -0.85768E+06         0.00000E+00
    0.00000E+00         0.00000E+00         0.00000E+00
 
    0.33948E+07         0.62101E+04         0.00000E+00
    0.62101E+04        -0.25616E+07         0.00000E+00
    0.00000E+00         0.00000E+00         0.00000E+00
 
    0.31366E+07         0.45036E+04         0.00000E+00
    0.45036E+04        -0.25116E+07         0.00000E+00
    0.00000E+00         0.00000E+00         0.00000E+00
 
    0.28863E+07        -0.18642E+05         0.00000E+00
   -0.18642E+05        -0.24232E+07         0.00000E+00
    0.00000E+00         0.00000E+00         0.00000E+00
 
    0.26491E+07        -0.64734E+05         0.00000E+00
   -0.64734E+05        -0.23101E+07         0.00000E+00
    0.00000E+00         0.00000E+00         0.00000E+00
 
    0.24298E+07        -0.13350E+06         0.00000E+00
   -0.13350E+06        -0.21847E+07         0.00000E+00
    0.00000E+00         0.00000E+00         0.00000E+00
 
    0.22328E+07        -0.22313E+06         0.00000E+00
   -0.22313E+06        -0.20575E+07         0.00000E+00
    0.00000E+00         0.00000E+00         0.00000E+00
 
    0.20613E+07        -0.33065E+06         0.00000E+00
   -0.33065E+06        -0.19375E+07         0.00000E+00
    0.00000E+00         0.00000E+00         0.00000E+00
 
    0.19178E+07        -0.45225E+06         0.00000E+00
   -0.45225E+06        -0.18315E+07         0.00000E+00
    0.00000E+00         0.00000E+00         0.00000E+00
 
    0.18036E+07        -0.58368E+06         0.00000E+00
   -0.58368E+06        -0.17442E+07         0.00000E+00
    0.00000E+00         0.00000E+00         0.00000E+00
 
    0.17191E+07        -0.72054E+06         0.00000E+00
   -0.72054E+06        -0.16789E+07         0.00000E+00
    0.00000E+00         0.00000E+00         0.00000E+00
 
    0.16637E+07        -0.85855E+06         0.00000E+00
   -0.85855E+06        -0.16371E+07         0.00000E+00
    0.00000E+00         0.00000E+00         0.00000E+00
 
    0.16361E+07        -0.99373E+06         0.00000E+00
   -0.99373E+06        -0.16190E+07         0.00000E+00
    0.00000E+00         0.00000E+00         0.00000E+00
 
    0.16344E+07        -0.11226E+07         0.00000E+00
   -0.11226E+07        -0.16239E+07         0.00000E+00
    0.00000E+00         0.00000E+00         0.00000E+00
 
    0.16563E+07        -0.12421E+07         0.00000E+00
   -0.12421E+07        -0.16503E+07         0.00000E+00
    0.00000E+00         0.00000E+00         0.00000E+00
 
    0.16991E+07        -0.13498E+07         0.00000E+00
   -0.13498E+07        -0.16964E+07         0.00000E+00
    0.00000E+00         0.00000E+00         0.00000E+00
 
    0.17602E+07        -0.14438E+07         0.00000E+00
   -0.14438E+07        -0.17596E+07         0.00000E+00
    0.00000E+00         0.00000E+00         0.00000E+00
 
    0.18367E+07        -0.15226E+07         0.00000E+00
   -0.15226E+07        -0.18377E+07         0.00000E+00
    0.00000E+00         0.00000E+00         0.00000E+00
 
    0.19261E+07        -0.15853E+07         0.00000E+00
   -0.15853E+07        -0.19281E+07         0.00000E+00
    0.00000E+00         0.00000E+00         0.00000E+00
 
    0.20256E+07        -0.16313E+07         0.00000E+00
   -0.16313E+07        -0.20284E+07         0.00000E+00
    0.00000E+00         0.00000E+00         0.00000E+00
 
    0.21328E+07        -0.16602E+07         0.00000E+00
   -0.16602E+07        -0.21361E+07         0.00000E+00
    0.00000E+00         0.00000E+00         0.00000E+00
 
    0.22456E+07        -0.16721E+07         0.00000E+00
   -0.16721E+07        -0.22492E+07         0.00000E+00
    0.00000E+00         0.00000E+00         0.00000E+00
 
    0.23616E+07        -0.16670E+07         0.00000E+00
   -0.16670E+07        -0.23656E+07         0.00000E+00
    0.00000E+00         0.00000E+00         0.00000E+00
 
    0.24792E+07        -0.16453E+07         0.00000E+00
   -0.16453E+07        -0.24833E+07         0.00000E+00
    0.00000E+00         0.00000E+00         0.00000E+00
 
    0.25964E+07        -0.16074E+07         0.00000E+00
   -0.16074E+07        -0.26006E+07         0.00000E+00
    0.00000E+00         0.00000E+00         0.00000E+00
 
    0.27116E+07        -0.15537E+07         0.00000E+00
   -0.15537E+07        -0.27160E+07         0.00000E+00
    0.00000E+00         0.00000E+00         0.00000E+00
 
    0.28234E+07        -0.14847E+07         0.00000E+00
   -0.14847E+07        -0.28279E+07         0.00000E+00
    0.00000E+00         0.00000E+00         0.00000E+00
 
    0.29303E+07        -0.14009E+07         0.00000E+00
   -0.14009E+07        -0.29349E+07         0.00000E+00
    0.00000E+00         0.00000E+00         0.00000E+00
 
    0.30308E+07        -0.13027E+07         0.00000E+00
   -0.13027E+07        -0.30355E+07         0.00000E+00
    0.00000E+00         0.00000E+00         0.00000E+00
 
    0.31237E+07        -0.11907E+07         0.00000E+00
   -0.11907E+07        -0.31285E+07         0.00000E+00
    0.00000E+00         0.00000E+00         0.00000E+00
 
    0.32074E+07        -0.10655E+07         0.00000E+00
   -0.10655E+07        -0.32125E+07         0.00000E+00
    0.00000E+00         0.00000E+00         0.00000E+00
 
    0.32805E+07        -0.92753E+06         0.00000E+00
   -0.92753E+06        -0.32859E+07         0.00000E+00
    0.00000E+00         0.00000E+00         0.00000E+00
 
    0.33416E+07        -0.77742E+06         0.00000E+00
   -0.77742E+06        -0.33473E+07         0.00000E+00
    0.00000E+00         0.00000E+00         0.00000E+00
 
    0.33888E+07        -0.61585E+06         0.00000E+00
   -0.61585E+06        -0.33951E+07         0.00000E+00
    0.00000E+00         0.00000E+00         0.00000E+00
 
    0.34206E+07        -0.44361E+06         0.00000E+00
   -0.44361E+06        -0.34277E+07         0.00000E+00
    0.00000E+00         0.00000E+00         0.00000E+00
 
    0.34349E+07        -0.26166E+06         0.00000E+00
   -0.26166E+06        -0.34433E+07         0.00000E+00
    0.00000E+00         0.00000E+00         0.00000E+00
 
    0.34298E+07        -0.71159E+05         0.00000E+00
   -0.71159E+05        -0.34400E+07         0.00000E+00
    0.00000E+00         0.00000E+00         0.00000E+00
 
    0.34031E+07         0.12646E+06         0.00000E+00
    0.12646E+06        -0.34159E+07         0.00000E+00
    0.00000E+00         0.00000E+00         0.00000E+00
 
    0.33525E+07         0.32942E+06         0.00000E+00
    0.32942E+06        -0.33690E+07         0.00000E+00
    0.00000E+00         0.00000E+00         0.00000E+00
 
    0.32756E+07         0.53556E+06         0.00000E+00
    0.53556E+06        -0.32976E+07         0.00000E+00
    0.00000E+00         0.00000E+00         0.00000E+00
 
    0.31700E+07         0.74225E+06         0.00000E+00
    0.74225E+06        -0.32000E+07         0.00000E+00
    0.00000E+00         0.00000E+00         0.00000E+00
 
    0.30335E+07         0.94636E+06         0.00000E+00
    0.94636E+06        -0.30748E+07         0.00000E+00
    0.00000E+00         0.00000E+00         0.00000E+00
 
    0.28637E+07         0.11442E+07         0.00000E+00
    0.11442E+07        -0.29213E+07         0.00000E+00
    0.00000E+00         0.00000E+00         0.00000E+00
 
    0.26590E+07         0.13315E+07         0.00000E+00
    0.13315E+07        -0.27394E+07         0.00000E+00
    0.00000E+00         0.00000E+00         0.00000E+00
 
    0.24178E+07         0.15036E+07         0.00000E+00
    0.15036E+07        -0.25301E+07         0.00000E+00
    0.00000E+00         0.00000E+00         0.00000E+00
 
    0.21394E+07         0.16552E+07         0.00000E+00
    0.16552E+07        -0.22957E+07         0.00000E+00
    0.00000E+00         0.00000E+00         0.00000E+00
 
    0.18238E+07         0.17808E+07         0.00000E+00
    0.17808E+07        -0.20402E+07         0.00000E+00
    0.00000E+00         0.00000E+00         0.00000E+00
 
    0.14720E+07         0.18750E+07         0.00000E+00
    0.18750E+07        -0.17695E+07         0.00000E+00
    0.00000E+00         0.00000E+00         0.00000E+00
 
    0.10862E+07         0.19323E+07         0.00000E+00
    0.19323E+07        -0.14914E+07         0.00000E+00
    0.00000E+00         0.00000E+00         0.00000E+00
 
    0.66974E+06         0.19478E+07         0.00000E+00
    0.19478E+07        -0.12161E+07         0.00000E+00
    0.00000E+00         0.00000E+00         0.00000E+00
 
    0.22716E+06         0.19177E+07         0.00000E+00
    0.19177E+07        -0.95608E+06         0.00000E+00
    0.00000E+00         0.00000E+00         0.00000E+00
 
    0.34269E+07         0.42330E+04         0.00000E+00
    0.42330E+04        -0.25352E+07         0.00000E+00
    0.00000E+00         0.00000E+00         0.00000E+00
 
    0.31510E+07        -0.35300E+04         0.00000E+00
   -0.35300E+04        -0.24815E+07         0.00000E+00
    0.00000E+00         0.00000E+00         0.00000E+00
 
    0.28836E+07        -0.35825E+05         0.00000E+00
   -0.35825E+05        -0.23873E+07         0.00000E+00
    0.00000E+00         0.00000E+00         0.00000E+00
 
    0.26308E+07        -0.94143E+05         0.00000E+00
   -0.94143E+05        -0.22675E+07         0.00000E+00
    0.00000E+00         0.00000E+00         0.00000E+00
 
    0.23986E+07        -0.17783E+06         0.00000E+00
   -0.17783E+06        -0.21359E+07         0.00000E+00
    0.00000E+00         0.00000E+00         0.00000E+00
 
    0.21917E+07        -0.28445E+06         0.00000E+00
   -0.28445E+06        -0.20042E+07         0.00000E+00
    0.00000E+00         0.00000E+00         0.00000E+00
 
    0.20141E+07        -0.41025E+06         0.00000E+00
   -0.41025E+06        -0.18820E+07         0.00000E+00
    0.00000E+00         0.00000E+00         0.00000E+00
 
    0.18682E+07        -0.55059E+06         0.00000E+00
   -0.55059E+06        -0.17766E+07         0.00000E+00
    0.00000E+00         0.00000E+00         0.00000E+00
 
    0.17552E+07        -0.70044E+06         0.00000E+00
   -0.70044E+06        -0.16928E+07         0.00000E+00
    0.00000E+00         0.00000E+00         0.00000E+00
 
    0.16753E+07        -0.85472E+06         0.00000E+00
   -0.85472E+06        -0.16336E+07         0.00000E+00
    0.00000E+00         0.00000E+00         0.00000E+00
 
    0.16274E+07        -0.10086E+07         0.00000E+00
   -0.10086E+07        -0.16004E+07         0.00000E+00
    0.00000E+00         0.00000E+00         0.00000E+00
 
    0.16096E+07        -0.11578E+07         0.00000E+00
   -0.11578E+07        -0.15930E+07         0.00000E+00
    0.00000E+00         0.00000E+00         0.00000E+00
 
    0.16195E+07        -0.12984E+07         0.00000E+00
   -0.12984E+07        -0.16102E+07         0.00000E+00
    0.00000E+00         0.00000E+00         0.00000E+00
 
    0.16544E+07        -0.14274E+07         0.00000E+00
   -0.14274E+07        -0.16500E+07         0.00000E+00
    0.00000E+00         0.00000E+00         0.00000E+00
 
    0.17110E+07        -0.15423E+07         0.00000E+00
   -0.15423E+07        -0.17101E+07         0.00000E+00
    0.00000E+00         0.00000E+00         0.00000E+00
 
    0.17864E+07        -0.16413E+07         0.00000E+00
   -0.16413E+07        -0.17878E+07         0.00000E+00
    0.00000E+00         0.00000E+00         0.00000E+00
 
    0.18772E+07        -0.17232E+07         0.00000E+00
   -0.17232E+07        -0.18803E+07         0.00000E+00
    0.00000E+00         0.00000E+00         0.00000E+00
 
    0.19806E+07        -0.17871E+07         0.00000E+00
   -0.17871E+07        -0.19848E+07         0.00000E+00
    0.00000E+00         0.00000E+00         0.00000E+00
 
    0.20937E+07        -0.18326E+07         0.00000E+00
   -0.18326E+07        -0.20987E+07         0.00000E+00
    0.00000E+00         0.00000E+00         0.00000E+00
 
    0.22139E+07        -0.18598E+07         0.00000E+00
   -0.18598E+07        -0.22194E+07         0.00000E+00
    0.00000E+00         0.00000E+00         0.00000E+00
 
    0.23389E+07        -0.18687E+07         0.00000E+00
   -0.18687E+07        -0.23448E+07         0.00000E+00
    0.00000E+00         0.00000E+00         0.00000E+00
 
    0.24666E+07        -0.18598E+07         0.00000E+00
   -0.18598E+07        -0.24727E+07         0.00000E+00
    0.00000E+00         0.00000E+00         0.00000E+00
 
    0.25950E+07        -0.18334E+07         0.00000E+00
   -0.18334E+07        -0.26013E+07         0.00000E+00
    0.00000E+00         0.00000E+00         0.00000E+00
 
    0.27224E+07        -0.17902E+07         0.00000E+00
   -0.17902E+07        -0.27288E+07         0.00000E+00
    0.00000E+00         0.00000E+00         0.00000E+00
 
    0.28472E+07        -0.17306E+07         0.00000E+00
   -0.17306E+07        -0.28538E+07         0.00000E+00
    0.00000E+00         0.00000E+00         0.00000E+00
 
    0.29681E+07        -0.16554E+07         0.00000E+00
   -0.16554E+07        -0.29747E+07         0.00000E+00
    0.00000E+00         0.00000E+00         0.00000E+00
 
    0.30835E+07        -0.15649E+07         0.00000E+00
   -0.15649E+07        -0.30902E+07         0.00000E+00
    0.00000E+00         0.00000E+00         0.00000E+00
 
    0.31923E+07        -0.14597E+07         0.00000E+00
   -0.14597E+07        -0.31991E+07         0.00000E+00
    0.00000E+00         0.00000E+00         0.00000E+00
 
    0.32930E+07        -0.13403E+07         0.00000E+00
   -0.13403E+07        -0.32999E+07         0.00000E+00
    0.00000E+00         0.00000E+00         0.00000E+00
 
    0.33844E+07        -0.12072E+07         0.00000E+00
   -0.12072E+07        -0.33915E+07         0.00000E+00
    0.00000E+00         0.00000E+00         0.00000E+00
 
    0.34650E+07        -0.10608E+07         0.00000E+00
   -0.10608E+07        -0.34724E+07         0.00000E+00
    0.00000E+00         0.00000E+00         0.00000E+00
 
    0.35334E+07        -0.90164E+06         0.00000E+00
   -0.90164E+06        -0.35412E+07         0.00000E+00
    0.00000E+00         0.00000E+00         0.00000E+00
 
    0.35878E+07        -0.73025E+06         0.00000E+00
   -0.73025E+06        -0.35962E+07         0.00000E+00
    0.00000E+00         0.00000E+00         0.00000E+00
 
    0.36265E+07        -0.54727E+06         0.00000E+00
   -0.54727E+06        -0.36358E+07         0.00000E+00
    0.00000E+00         0.00000E+00         0.00000E+00
 
    0.36474E+07        -0.35347E+06         0.00000E+00
   -0.35347E+06        -0.36581E+07         0.00000E+00
    0.00000E+00         0.00000E+00         0.00000E+00
 
    0.36485E+07        -0.14984E+06         0.00000E+00
   -0.14984E+06        -0.36611E+07         0.00000E+00
    0.00000E+00         0.00000E+00         0.00000E+00
 
    0.36272E+07         0.62372E+05         0.00000E+00
    0.62372E+05        -0.36427E+07         0.00000E+00
    0.00000E+00         0.00000E+00         0.00000E+00
 
    0.35811E+07         0.28157E+06         0.00000E+00
    0.28157E+06        -0.36008E+07         0.00000E+00
    0.00000E+00         0.00000E+00         0.00000E+00
 
    0.35074E+07         0.50573E+06         0.00000E+00
    0.50573E+06        -0.35332E+07         0.00000E+00
    0.00000E+00         0.00000E+00         0.00000E+00
 
    0.34032E+07         0.73232E+06         0.00000E+00
    0.73232E+06        -0.34380E+07         0.00000E+00
    0.00000E+00         0.00000E+00         0.00000E+00
 
    0.32658E+07         0.95823E+06         0.00000E+00
    0.95823E+06        -0.33132E+07         0.00000E+00
    0.00000E+00         0.00000E+00         0.00000E+00
 
    0.30923E+07         0.11797E+07         0.00000E+00
    0.11797E+07        -0.31579E+07         0.00000E+00
    0.00000E+00         0.00000E+00         0.00000E+00
 
    0.28803E+07         0.13923E+07         0.00000E+00
    0.13923E+07        -0.29713E+07         0.00000E+00
    0.00000E+00         0.00000E+00         0.00000E+00
 
    0.26276E+07         0.15909E+07         0.00000E+00
    0.15909E+07        -0.27543E+07         0.00000E+00
    0.00000E+00         0.00000E+00         0.00000E+00
 
    0.23330E+07         0.17699E+07         0.00000E+00
    0.17699E+07        -0.25087E+07         0.00000E+00
    0.00000E+00         0.00000E+00         0.00000E+00
 
    0.19957E+07         0.19231E+07         0.00000E+00
    0.19231E+07        -0.22385E+07         0.00000E+00
    0.00000E+00         0.00000E+00         0.00000E+00
 
    0.16164E+07         0.20441E+07         0.00000E+00
    0.20441E+07        -0.19495E+07         0.00000E+00
    0.00000E+00         0.00000E+00         0.00000E+00
 
    0.11969E+07         0.21268E+07         0.00000E+00
    0.21268E+07        -0.16499E+07         0.00000E+00
    0.00000E+00         0.00000E+00         0.00000E+00
 
    0.74043E+06         0.21652E+07         0.00000E+00
    0.21652E+07        -0.13507E+07         0.00000E+00
    0.00000E+00         0.00000E+00         0.00000E+00
 
    0.25172E+06         0.21543E+07         0.00000E+00
    0.21543E+07        -0.10651E+07         0.00000E+00
    0.00000E+00         0.00000E+00         0.00000E+00
 
    0.34613E+07         0.22550E+04         0.00000E+00
    0.22550E+04        -0.25018E+07         0.00000E+00
    0.00000E+00         0.00000E+00         0.00000E+00
 
    0.31650E+07        -0.12081E+05         0.00000E+00
   -0.12081E+05        -0.24440E+07         0.00000E+00
    0.00000E+00         0.00000E+00         0.00000E+00
 
    0.28779E+07        -0.54724E+05         0.00000E+00
   -0.54724E+05        -0.23432E+07         0.00000E+00
    0.00000E+00         0.00000E+00         0.00000E+00
 
    0.26076E+07        -0.12704E+06         0.00000E+00
   -0.12704E+06        -0.22162E+07         0.00000E+00
    0.00000E+00         0.00000E+00         0.00000E+00
 
    0.23610E+07        -0.22780E+06         0.00000E+00
   -0.22780E+06        -0.20784E+07         0.00000E+00
    0.00000E+00         0.00000E+00         0.00000E+00
 
    0.21438E+07        -0.35372E+06         0.00000E+00
   -0.35372E+06        -0.19426E+07         0.00000E+00
    0.00000E+00         0.00000E+00         0.00000E+00
 
    0.19602E+07        -0.50004E+06         0.00000E+00
   -0.50004E+06        -0.18192E+07         0.00000E+00
    0.00000E+00         0.00000E+00         0.00000E+00
 
    0.18127E+07        -0.66112E+06         0.00000E+00
   -0.66112E+06        -0.17157E+07         0.00000E+00
    0.00000E+00         0.00000E+00         0.00000E+00
 
    0.17023E+07        -0.83102E+06         0.00000E+00
   -0.83102E+06        -0.16371E+07         0.00000E+00
    0.00000E+00         0.00000E+00         0.00000E+00
 
    0.16286E+07        -0.10039E+07         0.00000E+00
   -0.10039E+07        -0.15862E+07         0.00000E+00
    0.00000E+00         0.00000E+00         0.00000E+00
 
    0.15900E+07        -0.11743E+07         0.00000E+00
   -0.11743E+07        -0.15637E+07         0.00000E+00
    0.00000E+00         0.00000E+00         0.00000E+00
 
    0.15841E+07        -0.13376E+07         0.00000E+00
   -0.13376E+07        -0.15691E+07         0.00000E+00
    0.00000E+00         0.00000E+00         0.00000E+00
 
    0.16076E+07        -0.14897E+07         0.00000E+00
   -0.14897E+07        -0.16005E+07         0.00000E+00
    0.00000E+00         0.00000E+00         0.00000E+00
 
    0.16572E+07        -0.16275E+07         0.00000E+00
   -0.16275E+07        -0.16556E+07         0.00000E+00
    0.00000E+00         0.00000E+00         0.00000E+00
 
    0.17292E+07        -0.17487E+07         0.00000E+00
   -0.17487E+07        -0.17314E+07         0.00000E+00
    0.00000E+00         0.00000E+00         0.00000E+00
 
    0.18200E+07        -0.18516E+07         0.00000E+00
   -0.18516E+07        -0.18248E+07         0.00000E+00
    0.00000E+00         0.00000E+00         0.00000E+00
 
    0.19261E+07        -0.19351E+07         0.00000E+00
   -0.19351E+07        -0.19326E+07         0.00000E+00
    0.00000E+00         0.00000E+00         0.00000E+00
 
    0.20441E+07        -0.19988E+07         0.00000E+00
   -0.19988E+07        -0.20518E+07         0.00000E+00
    0.00000E+00         0.00000E+00         0.00000E+00
 
    0.21712E+07        -0.20425E+07         0.00000E+00
   -0.20425E+07        -0.21797E+07         0.00000E+00
    0.00000E+00         0.00000E+00         0.00000E+00
 
    0.23045E+07        -0.20665E+07         0.00000E+00
   -0.20665E+07        -0.23136E+07         0.00000E+00
    0.00000E+00         0.00000E+00         0.00000E+00
 
    0.24417E+07        -0.20712E+07         0.00000E+00
   -0.20712E+07        -0.24511E+07         0.00000E+00
    0.00000E+00         0.00000E+00         0.00000E+00
 
    0.25807E+07        -0.20572E+07         0.00000E+00
   -0.20572E+07        -0.25903E+07         0.00000E+00
    0.00000E+00         0.00000E+00         0.00000E+00
 
    0.27195E+07        -0.20252E+07         0.00000E+00
   -0.20252E+07        -0.27292E+07         0.00000E+00
    0.00000E+00         0.00000E+00         0.00000E+00
 
    0.28565E+07        -0.19758E+07         0.00000E+00
   -0.19758E+07        -0.28663E+07         0.00000E+00
    0.00000E+00         0.00000E+00         0.00000E+00
 
    0.29903E+07        -0.19098E+07         0.00000E+00
   -0.19098E+07        -0.30002E+07         0.00000E+00
    0.00000E+00         0.00000E+00         0.00000E+00
 
    0.31195E+07        -0.18277E+07         0.00000E+00
   -0.18277E+07        -0.31294E+07         0.00000E+00
    0.00000E+00         0.00000E+00         0.00000E+00
 
    0.32428E+07        -0.17303E+07         0.00000E+00
   -0.17303E+07        -0.32528E+07         0.00000E+00
    0.00000E+00         0.00000E+00         0.00000E+00
 
    0.33591E+07        -0.16179E+07         0.00000E+00
   -0.16179E+07        -0.33691E+07         0.00000E+00
    0.00000E+00         0.00000E+00         0.00000E+00
 
    0.34671E+07        -0.14911E+07         0.00000E+00
   -0.14911E+07        -0.34772E+07         0.00000E+00
    0.00000E+00         0.00000E+00         0.00000E+00
 
    0.35656E+07        -0.13503E+07         0.00000E+00
   -0.13503E+07        -0.35759E+07         0.00000E+00
    0.00000E+00         0.00000E+00         0.00000E+00
 
    0.36532E+07        -0.11957E+07         0.00000E+00
   -0.11957E+07        -0.36638E+07         0.00000E+00
    0.00000E+00         0.00000E+00         0.00000E+00
 
    0.37286E+07        -0.10279E+07         0.00000E+00
   -0.10279E+07        -0.37396E+07         0.00000E+00
    0.00000E+00         0.00000E+00         0.00000E+00
 
    0.37900E+07        -0.84716E+06         0.00000E+00
   -0.84716E+06        -0.38017E+07         0.00000E+00
    0.00000E+00         0.00000E+00         0.00000E+00
 
    0.38356E+07        -0.65391E+06         0.00000E+00
   -0.65391E+06        -0.38483E+07         0.00000E+00
    0.00000E+00         0.00000E+00         0.00000E+00
 
    0.38634E+07        -0.44873E+06         0.00000E+00
   -0.44873E+06        -0.38775E+07         0.00000E+00
    0.00000E+00         0.00000E+00         0.00000E+00
 
    0.38710E+07        -0.23238E+06         0.00000E+00
   -0.23238E+06        -0.38873E+07         0.00000E+00
    0.00000E+00         0.00000E+00         0.00000E+00
 
    0.38559E+07        -0.58756E+04         0.00000E+00
   -0.58756E+04        -0.38753E+07         0.00000E+00
    0.00000E+00         0.00000E+00         0.00000E+00
 
    0.38151E+07         0.22943E+06         0.00000E+00
    0.22943E+06        -0.38393E+07         0.00000E+00
    0.00000E+00         0.00000E+00         0.00000E+00
 
    0.37456E+07         0.47173E+06         0.00000E+00
    0.47173E+06        -0.37766E+07         0.00000E+00
    0.00000E+00         0.00000E+00         0.00000E+00
 
    0.36441E+07         0.71867E+06         0.00000E+00
    0.71867E+06        -0.36850E+07         0.00000E+00
    0.00000E+00         0.00000E+00         0.00000E+00
 
    0.35071E+07         0.96723E+06         0.00000E+00
    0.96723E+06        -0.35621E+07         0.00000E+00
    0.00000E+00         0.00000E+00         0.00000E+00
 
    0.33311E+07         0.12137E+07         0.00000E+00
    0.12137E+07        -0.34063E+07         0.00000E+00
    0.00000E+00         0.00000E+00         0.00000E+00
 
    0.31130E+07         0.14534E+07         0.00000E+00
    0.14534E+07        -0.32166E+07         0.00000E+00
    0.00000E+00         0.00000E+00         0.00000E+00
 
    0.28498E+07         0.16810E+07         0.00000E+00
    0.16810E+07        -0.29931E+07         0.00000E+00
    0.00000E+00         0.00000E+00         0.00000E+00
 
    0.25392E+07         0.18903E+07         0.00000E+00
    0.18903E+07        -0.27373E+07         0.00000E+00
    0.00000E+00         0.00000E+00         0.00000E+00
 
    0.21801E+07         0.20745E+07         0.00000E+00
    0.20745E+07        -0.24528E+07         0.00000E+00
    0.00000E+00         0.00000E+00         0.00000E+00
 
    0.17722E+07         0.22263E+07         0.00000E+00
    0.22263E+07        -0.21454E+07         0.00000E+00
    0.00000E+00         0.00000E+00         0.00000E+00
 
    0.13170E+07         0.23384E+07         0.00000E+00
    0.23384E+07        -0.18237E+07         0.00000E+00
    0.00000E+00         0.00000E+00         0.00000E+00
 
    0.81751E+06         0.24038E+07         0.00000E+00
    0.24038E+07        -0.14991E+07         0.00000E+00
    0.00000E+00         0.00000E+00         0.00000E+00
 
    0.27860E+06         0.24163E+07         0.00000E+00
    0.24163E+07        -0.11860E+07         0.00000E+00
    0.00000E+00         0.00000E+00         0.00000E+00
 
    0.34989E+07         0.25269E+03         0.00000E+00
    0.25269E+03        -0.24602E+07         0.00000E+00
    0.00000E+00         0.00000E+00         0.00000E+00
 
    0.31789E+07        -0.21374E+05         0.00000E+00
   -0.21374E+05        -0.23978E+07         0.00000E+00
    0.00000E+00         0.00000E+00         0.00000E+00
 
    0.28691E+07        -0.75928E+05         0.00000E+00
   -0.75928E+05        -0.22898E+07         0.00000E+00
    0.00000E+00         0.00000E+00         0.00000E+00
 
    0.25789E+07        -0.16447E+06         0.00000E+00
   -0.16447E+06        -0.21553E+07         0.00000E+00
    0.00000E+00         0.00000E+00         0.00000E+00
 
    0.23165E+07        -0.28494E+06         0.00000E+00
   -0.28494E+06        -0.20113E+07         0.00000E+00
    0.00000E+00         0.00000E+00         0.00000E+00
 
    0.20884E+07        -0.43289E+06         0.00000E+00
   -0.43289E+06        -0.18722E+07         0.00000E+00
    0.00000E+00         0.00000E+00         0.00000E+00
 
    0.18992E+07        -0.60229E+06         0.00000E+00
   -0.60229E+06        -0.17489E+07         0.00000E+00
    0.00000E+00         0.00000E+00         0.00000E+00
 
    0.17513E+07        -0.78629E+06         0.00000E+00
   -0.78629E+06        -0.16493E+07         0.00000E+00
    0.00000E+00         0.00000E+00         0.00000E+00
 
    0.16452E+07        -0.97785E+06         0.00000E+00
   -0.97785E+06        -0.15782E+07         0.00000E+00
    0.00000E+00         0.00000E+00         0.00000E+00
 
    0.15800E+07        -0.11703E+07         0.00000E+00
   -0.11703E+07        -0.15380E+07         0.00000E+00
    0.00000E+00         0.00000E+00         0.00000E+00
 
    0.15530E+07        -0.13577E+07         0.00000E+00
   -0.13577E+07        -0.15289E+07         0.00000E+00
    0.00000E+00         0.00000E+00         0.00000E+00
 
    0.15612E+07        -0.15349E+07         0.00000E+00
   -0.15349E+07        -0.15495E+07         0.00000E+00
    0.00000E+00         0.00000E+00         0.00000E+00
 
    0.16005E+07        -0.16978E+07         0.00000E+00
   -0.16978E+07        -0.15975E+07         0.00000E+00
    0.00000E+00         0.00000E+00         0.00000E+00
 
    0.16667E+07        -0.18433E+07         0.00000E+00
   -0.18433E+07        -0.16698E+07         0.00000E+00
    0.00000E+00         0.00000E+00         0.00000E+00
 
    0.17557E+07        -0.19694E+07         0.00000E+00
   -0.19694E+07        -0.17629E+07         0.00000E+00
    0.00000E+00         0.00000E+00         0.00000E+00
 
    0.18631E+07        -0.20744E+07         0.00000E+00
   -0.20744E+07        -0.18731E+07         0.00000E+00
    0.00000E+00         0.00000E+00         0.00000E+00
 
    0.19853E+07        -0.21579E+07         0.00000E+00
   -0.21579E+07        -0.19972E+07         0.00000E+00
    0.00000E+00         0.00000E+00         0.00000E+00
 
    0.21185E+07        -0.22196E+07         0.00000E+00
   -0.22196E+07        -0.21317E+07         0.00000E+00
    0.00000E+00         0.00000E+00         0.00000E+00
 
    0.22597E+07        -0.22598E+07         0.00000E+00
   -0.22598E+07        -0.22736E+07         0.00000E+00
    0.00000E+00         0.00000E+00         0.00000E+00
 
    0.24060E+07        -0.22790E+07         0.00000E+00
   -0.22790E+07        -0.24205E+07         0.00000E+00
    0.00000E+00         0.00000E+00         0.00000E+00
 
    0.25550E+07        -0.22780E+07         0.00000E+00
   -0.22780E+07        -0.25698E+07         0.00000E+00
    0.00000E+00         0.00000E+00         0.00000E+00
 
    0.27047E+07        -0.22576E+07         0.00000E+00
   -0.22576E+07        -0.27196E+07         0.00000E+00
    0.00000E+00         0.00000E+00         0.00000E+00
 
    0.28532E+07        -0.22188E+07         0.00000E+00
   -0.22188E+07        -0.28682E+07         0.00000E+00
    0.00000E+00         0.00000E+00         0.00000E+00
 
    0.29989E+07        -0.21624E+07         0.00000E+00
   -0.21624E+07        -0.30140E+07         0.00000E+00
    0.00000E+00         0.00000E+00         0.00000E+00
 
    0.31407E+07        -0.20892E+07         0.00000E+00
   -0.20892E+07        -0.31558E+07         0.00000E+00
    0.00000E+00         0.00000E+00         0.00000E+00
 
    0.32773E+07        -0.19999E+07         0.00000E+00
   -0.19999E+07        -0.32924E+07         0.00000E+00
    0.00000E+00         0.00000E+00         0.00000E+00
 
    0.34075E+07        -0.18952E+07         0.00000E+00
   -0.18952E+07        -0.34226E+07         0.00000E+00
    0.00000E+00         0.00000E+00         0.00000E+00
 
    0.35303E+07        -0.17755E+07         0.00000E+00
   -0.17755E+07        -0.35455E+07         0.00000E+00
    0.00000E+00         0.00000E+00         0.00000E+00
 
    0.36447E+07        -0.16414E+07         0.00000E+00
   -0.16414E+07        -0.36599E+07         0.00000E+00
    0.00000E+00         0.00000E+00         0.00000E+00
 
    0.37496E+07        -0.14931E+07         0.00000E+00
   -0.14931E+07        -0.37649E+07         0.00000E+00
    0.00000E+00         0.00000E+00         0.00000E+00
 
    0.38437E+07        -0.13309E+07         0.00000E+00
   -0.13309E+07        -0.38593E+07         0.00000E+00
    0.00000E+00         0.00000E+00         0.00000E+00
 
    0.39255E+07        -0.11549E+07         0.00000E+00
   -0.11549E+07        -0.39416E+07         0.00000E+00
    0.00000E+00         0.00000E+00         0.00000E+00
 
    0.39936E+07        -0.96540E+06         0.00000E+00
   -0.96540E+06        -0.40103E+07         0.00000E+00
    0.00000E+00         0.00000E+00         0.00000E+00
 
    0.40461E+07        -0.76256E+06         0.00000E+00
   -0.76256E+06        -0.40638E+07         0.00000E+00
    0.00000E+00         0.00000E+00         0.00000E+00
 
    0.40809E+07        -0.54670E+06         0.00000E+00
   -0.54670E+06        -0.41002E+07         0.00000E+00
    0.00000E+00         0.00000E+00         0.00000E+00
 
    0.40954E+07        -0.31829E+06         0.00000E+00
   -0.31829E+06        -0.41171E+07         0.00000E+00
    0.00000E+00         0.00000E+00         0.00000E+00
 
    0.40871E+07        -0.78049E+05         0.00000E+00
   -0.78049E+05        -0.41123E+07         0.00000E+00
    0.00000E+00         0.00000E+00         0.00000E+00
 
    0.40526E+07         0.17298E+06         0.00000E+00
    0.17298E+06        -0.40830E+07         0.00000E+00
    0.00000E+00         0.00000E+00         0.00000E+00
 
    0.39885E+07         0.43328E+06         0.00000E+00
    0.43328E+06        -0.40264E+07         0.00000E+00
    0.00000E+00         0.00000E+00         0.00000E+00
 
    0.38910E+07         0.70078E+06         0.00000E+00
    0.70078E+06        -0.39399E+07         0.00000E+00
    0.00000E+00         0.00000E+00         0.00000E+00
 
    0.37559E+07         0.97266E+06         0.00000E+00
    0.97266E+06        -0.38206E+07         0.00000E+00
    0.00000E+00         0.00000E+00         0.00000E+00
 
    0.35791E+07         0.12453E+07         0.00000E+00
    0.12453E+07        -0.36662E+07         0.00000E+00
    0.00000E+00         0.00000E+00         0.00000E+00
 
    0.33563E+07         0.15140E+07         0.00000E+00
    0.15140E+07        -0.34751E+07         0.00000E+00
    0.00000E+00         0.00000E+00         0.00000E+00
 
    0.30837E+07         0.17731E+07         0.00000E+00
    0.17731E+07        -0.32467E+07         0.00000E+00
    0.00000E+00         0.00000E+00         0.00000E+00
 
    0.27581E+07         0.20160E+07         0.00000E+00
    0.20160E+07        -0.29820E+07         0.00000E+00
    0.00000E+00         0.00000E+00         0.00000E+00
 
    0.23771E+07         0.22350E+07         0.00000E+00
    0.22350E+07        -0.26841E+07         0.00000E+00
    0.00000E+00         0.00000E+00         0.00000E+00
 
    0.19398E+07         0.24219E+07         0.00000E+00
    0.24219E+07        -0.23587E+07         0.00000E+00
    0.00000E+00         0.00000E+00         0.00000E+00
 
    0.14470E+07         0.25682E+07         0.00000E+00
    0.25682E+07        -0.20144E+07         0.00000E+00
    0.00000E+00         0.00000E+00         0.00000E+00
 
    0.90149E+06         0.26654E+07         0.00000E+00
    0.26654E+07        -0.16632E+07         0.00000E+00
    0.00000E+00         0.00000E+00         0.00000E+00
 
    0.30799E+06         0.27060E+07         0.00000E+00
    0.27060E+07        -0.13204E+07         0.00000E+00
    0.00000E+00         0.00000E+00         0.00000E+00
 
    0.35411E+07        -0.18203E+04         0.00000E+00
   -0.18203E+04        -0.24088E+07         0.00000E+00
    0.00000E+00         0.00000E+00         0.00000E+00
 
    0.31930E+07        -0.31751E+05         0.00000E+00
   -0.31751E+05        -0.23412E+07         0.00000E+00
    0.00000E+00         0.00000E+00         0.00000E+00
 
    0.28568E+07        -0.10028E+06         0.00000E+00
   -0.10028E+06        -0.22254E+07         0.00000E+00
    0.00000E+00         0.00000E+00         0.00000E+00
 
    0.25440E+07        -0.20789E+06         0.00000E+00
   -0.20789E+06        -0.20832E+07         0.00000E+00
    0.00000E+00         0.00000E+00         0.00000E+00
 
    0.22642E+07        -0.35128E+06         0.00000E+00
   -0.35128E+06        -0.19337E+07         0.00000E+00
    0.00000E+00         0.00000E+00         0.00000E+00
 
    0.20250E+07        -0.52448E+06         0.00000E+00
   -0.52448E+06        -0.17926E+07         0.00000E+00
    0.00000E+00         0.00000E+00         0.00000E+00
 
    0.18309E+07        -0.71984E+06         0.00000E+00
   -0.71984E+06        -0.16715E+07         0.00000E+00
    0.00000E+00         0.00000E+00         0.00000E+00
 
    0.16843E+07        -0.92903E+06         0.00000E+00
   -0.92903E+06        -0.15783E+07         0.00000E+00
    0.00000E+00         0.00000E+00         0.00000E+00
 
    0.15848E+07        -0.11438E+07         0.00000E+00
   -0.11438E+07        -0.15177E+07         0.00000E+00
    0.00000E+00         0.00000E+00         0.00000E+00
 
    0.15306E+07        -0.13567E+07         0.00000E+00
   -0.13567E+07        -0.14913E+07         0.00000E+00
    0.00000E+00         0.00000E+00         0.00000E+00
 
    0.15180E+07        -0.15610E+07         0.00000E+00
   -0.15610E+07        -0.14986E+07         0.00000E+00
    0.00000E+00         0.00000E+00         0.00000E+00
 
    0.15429E+07        -0.17514E+07         0.00000E+00
   -0.17514E+07        -0.15373E+07         0.00000E+00
    0.00000E+00         0.00000E+00         0.00000E+00
 
    0.16003E+07        -0.19239E+07         0.00000E+00
   -0.19239E+07        -0.16044E+07         0.00000E+00
    0.00000E+00         0.00000E+00         0.00000E+00
 
    0.16852E+07        -0.20756E+07         0.00000E+00
   -0.20756E+07        -0.16959E+07         0.00000E+00
    0.00000E+00         0.00000E+00         0.00000E+00
 
    0.17926E+07        -0.22044E+07         0.00000E+00
   -0.22044E+07        -0.18079E+07         0.00000E+00
    0.00000E+00         0.00000E+00         0.00000E+00
 
    0.19179E+07        -0.23096E+07         0.00000E+00
   -0.23096E+07        -0.19362E+07         0.00000E+00
    0.00000E+00         0.00000E+00         0.00000E+00
 
    0.20568E+07        -0.23908E+07         0.00000E+00
   -0.23908E+07        -0.20771E+07         0.00000E+00
    0.00000E+00         0.00000E+00         0.00000E+00
 
    0.22055E+07        -0.24484E+07         0.00000E+00
   -0.24484E+07        -0.22270E+07         0.00000E+00
    0.00000E+00         0.00000E+00         0.00000E+00
 
    0.23606E+07        -0.24830E+07         0.00000E+00
   -0.24830E+07        -0.23830E+07         0.00000E+00
    0.00000E+00         0.00000E+00         0.00000E+00
 
    0.25195E+07        -0.24955E+07         0.00000E+00
   -0.24955E+07        -0.25424E+07         0.00000E+00
    0.00000E+00         0.00000E+00         0.00000E+00
 
    0.26796E+07        -0.24871E+07         0.00000E+00
   -0.24871E+07        -0.27028E+07         0.00000E+00
    0.00000E+00         0.00000E+00         0.00000E+00
 
    0.28391E+07        -0.24590E+07         0.00000E+00
   -0.24590E+07        -0.28623E+07         0.00000E+00
    0.00000E+00         0.00000E+00         0.00000E+00
 
    0.29962E+07        -0.24121E+07         0.00000E+00
   -0.24121E+07        -0.30194E+07         0.00000E+00
    0.00000E+00         0.00000E+00         0.00000E+00
 
    0.31495E+07        -0.23477E+07         0.00000E+00
   -0.23477E+07        -0.31728E+07         0.00000E+00
    0.00000E+00         0.00000E+00         0.00000E+00
 
    0.32981E+07        -0.22666E+07         0.00000E+00
   -0.22666E+07        -0.33212E+07         0.00000E+00
    0.00000E+00         0.00000E+00         0.00000E+00
 
    0.34407E+07        -0.21696E+07         0.00000E+00
   -0.21696E+07        -0.34638E+07         0.00000E+00
    0.00000E+00         0.00000E+00         0.00000E+00
 
    0.35766E+07        -0.20574E+07         0.00000E+00
   -0.20574E+07        -0.35997E+07         0.00000E+00
    0.00000E+00         0.00000E+00         0.00000E+00
 
    0.37048E+07        -0.19305E+07         0.00000E+00
   -0.19305E+07        -0.37279E+07         0.00000E+00
    0.00000E+00         0.00000E+00         0.00000E+00
 
    0.38246E+07        -0.17893E+07         0.00000E+00
   -0.17893E+07        -0.38476E+07         0.00000E+00
    0.00000E+00         0.00000E+00         0.00000E+00
 
    0.39348E+07        -0.16339E+07         0.00000E+00
   -0.16339E+07        -0.39579E+07         0.00000E+00
    0.00000E+00         0.00000E+00         0.00000E+00
 
    0.40344E+07        -0.14645E+07         0.00000E+00
   -0.14645E+07        -0.40577E+07         0.00000E+00
    0.00000E+00         0.00000E+00         0.00000E+00
 
    0.41221E+07        -0.12810E+07         0.00000E+00
   -0.12810E+07        -0.41459E+07         0.00000E+00
    0.00000E+00         0.00000E+00         0.00000E+00
 
    0.41964E+07        -0.10836E+07         0.00000E+00
   -0.10836E+07        -0.42209E+07         0.00000E+00
    0.00000E+00         0.00000E+00         0.00000E+00
 
    0.42555E+07        -0.87203E+06         0.00000E+00
   -0.87203E+06        -0.42811E+07         0.00000E+00
    0.00000E+00         0.00000E+00         0.00000E+00
 
    0.42972E+07        -0.64642E+06         0.00000E+00
   -0.64642E+06        -0.43245E+07         0.00000E+00
    0.00000E+00         0.00000E+00         0.00000E+00
 
    0.43191E+07        -0.40688E+06         0.00000E+00
   -0.40688E+06        -0.43489E+07         0.00000E+00
    0.00000E+00         0.00000E+00         0.00000E+00
 
    0.43181E+07        -0.15375E+06         0.00000E+00
   -0.15375E+06        -0.43518E+07         0.00000E+00
    0.00000E+00         0.00000E+00         0.00000E+00
 
    0.42909E+07         0.11230E+06         0.00000E+00
    0.11230E+06        -0.43302E+07         0.00000E+00
    0.00000E+00         0.00000E+00         0.00000E+00
 
    0.42335E+07         0.39016E+06         0.00000E+00
    0.39016E+06        -0.42811E+07         0.00000E+00
    0.00000E+00         0.00000E+00         0.00000E+00
 
    0.41415E+07         0.67813E+06         0.00000E+00
    0.67813E+06        -0.42013E+07         0.00000E+00
    0.00000E+00         0.00000E+00         0.00000E+00
 
    0.40102E+07         0.97373E+06         0.00000E+00
    0.97373E+06        -0.40875E+07         0.00000E+00
    0.00000E+00         0.00000E+00         0.00000E+00
 
    0.38345E+07         0.12735E+07         0.00000E+00
    0.12735E+07        -0.39367E+07         0.00000E+00
    0.00000E+00         0.00000E+00         0.00000E+00
 
    0.36090E+07         0.15730E+07         0.00000E+00
    0.15730E+07        -0.37464E+07         0.00000E+00
    0.00000E+00         0.00000E+00         0.00000E+00
 
    0.33288E+07         0.18662E+07         0.00000E+00
    0.18662E+07        -0.35153E+07         0.00000E+00
    0.00000E+00         0.00000E+00         0.00000E+00
 
    0.29893E+07         0.21461E+07         0.00000E+00
    0.21461E+07        -0.32436E+07         0.00000E+00
    0.00000E+00         0.00000E+00         0.00000E+00
 
    0.25869E+07         0.24042E+07         0.00000E+00
    0.24042E+07        -0.29337E+07         0.00000E+00
    0.00000E+00         0.00000E+00         0.00000E+00
 
    0.21197E+07         0.26312E+07         0.00000E+00
    0.26312E+07        -0.25908E+07         0.00000E+00
    0.00000E+00         0.00000E+00         0.00000E+00
 
    0.15876E+07         0.28170E+07         0.00000E+00
    0.28170E+07        -0.22237E+07         0.00000E+00
    0.00000E+00         0.00000E+00         0.00000E+00
 
    0.99283E+06         0.29517E+07         0.00000E+00
    0.29517E+07        -0.18447E+07         0.00000E+00
    0.00000E+00         0.00000E+00         0.00000E+00
 
    0.34010E+06         0.30260E+07         0.00000E+00
    0.30260E+07        -0.14702E+07         0.00000E+00
    0.00000E+00         0.00000E+00         0.00000E+00
 
    0.35892E+07        -0.40463E+04         0.00000E+00
   -0.40463E+04        -0.23457E+07         0.00000E+00
    0.00000E+00         0.00000E+00         0.00000E+00
 
    0.32075E+07        -0.43729E+05         0.00000E+00
   -0.43729E+05        -0.22724E+07         0.00000E+00
    0.00000E+00         0.00000E+00         0.00000E+00
 
    0.28403E+07        -0.12899E+06         0.00000E+00
   -0.12899E+06        -0.21484E+07         0.00000E+00
    0.00000E+00         0.00000E+00         0.00000E+00
 
    0.25017E+07        -0.25926E+06         0.00000E+00
   -0.25926E+06        -0.19987E+07         0.00000E+00
    0.00000E+00         0.00000E+00         0.00000E+00
 
    0.22030E+07        -0.42951E+06         0.00000E+00
   -0.42951E+06        -0.18448E+07         0.00000E+00
    0.00000E+00         0.00000E+00         0.00000E+00
 
    0.19526E+07        -0.63171E+06         0.00000E+00
   -0.63171E+06        -0.17037E+07         0.00000E+00
    0.00000E+00         0.00000E+00         0.00000E+00
 
    0.17550E+07        -0.85619E+06         0.00000E+00
   -0.85619E+06        -0.15876E+07         0.00000E+00
    0.00000E+00         0.00000E+00         0.00000E+00
 
    0.16119E+07        -0.10929E+07         0.00000E+00
   -0.10929E+07        -0.15044E+07         0.00000E+00
    0.00000E+00         0.00000E+00         0.00000E+00
 
    0.15220E+07        -0.13323E+07         0.00000E+00
   -0.13323E+07        -0.14580E+07         0.00000E+00
    0.00000E+00         0.00000E+00         0.00000E+00
 
    0.14819E+07        -0.15658E+07         0.00000E+00
   -0.15658E+07        -0.14492E+07         0.00000E+00
    0.00000E+00         0.00000E+00         0.00000E+00
 
    0.14870E+07        -0.17866E+07         0.00000E+00
   -0.17866E+07        -0.14764E+07         0.00000E+00
    0.00000E+00         0.00000E+00         0.00000E+00
 
    0.15315E+07        -0.19890E+07         0.00000E+00
   -0.19890E+07        -0.15365E+07         0.00000E+00
    0.00000E+00         0.00000E+00         0.00000E+00
 
    0.16096E+07        -0.21692E+07         0.00000E+00
   -0.21692E+07        -0.16252E+07         0.00000E+00
    0.00000E+00         0.00000E+00         0.00000E+00
 
    0.17151E+07        -0.23246E+07         0.00000E+00
   -0.23246E+07        -0.17381E+07         0.00000E+00
    0.00000E+00         0.00000E+00         0.00000E+00
 
    0.18424E+07        -0.24538E+07         0.00000E+00
   -0.24538E+07        -0.18704E+07         0.00000E+00
    0.00000E+00         0.00000E+00         0.00000E+00
 
    0.19864E+07        -0.25563E+07         0.00000E+00
   -0.25563E+07        -0.20177E+07         0.00000E+00
    0.00000E+00         0.00000E+00         0.00000E+00
 
    0.21424E+07        -0.26326E+07         0.00000E+00
   -0.26326E+07        -0.21758E+07         0.00000E+00
    0.00000E+00         0.00000E+00         0.00000E+00
 
    0.23065E+07        -0.26835E+07         0.00000E+00
   -0.26835E+07        -0.23411E+07         0.00000E+00
    0.00000E+00         0.00000E+00         0.00000E+00
 
    0.24752E+07        -0.27101E+07         0.00000E+00
   -0.27101E+07        -0.25106E+07         0.00000E+00
    0.00000E+00         0.00000E+00         0.00000E+00
 
    0.26458E+07        -0.27138E+07         0.00000E+00
   -0.27138E+07        -0.26816E+07         0.00000E+00
    0.00000E+00         0.00000E+00         0.00000E+00
 
    0.28159E+07        -0.26962E+07         0.00000E+00
   -0.26962E+07        -0.28520E+07         0.00000E+00
    0.00000E+00         0.00000E+00         0.00000E+00
 
    0.29839E+07        -0.26587E+07         0.00000E+00
   -0.26587E+07        -0.30199E+07         0.00000E+00
    0.00000E+00         0.00000E+00         0.00000E+00
 
    0.31481E+07        -0.26025E+07         0.00000E+00
   -0.26025E+07        -0.31841E+07         0.00000E+00
    0.00000E+00         0.00000E+00         0.00000E+00
 
    0.33076E+07        -0.25291E+07         0.00000E+00
   -0.25291E+07        -0.33434E+07         0.00000E+00
    0.00000E+00         0.00000E+00         0.00000E+00
 
    0.34613E+07        -0.24394E+07         0.00000E+00
   -0.24394E+07        -0.34970E+07         0.00000E+00
    0.00000E+00         0.00000E+00         0.00000E+00
 
    0.36085E+07        -0.23343E+07         0.00000E+00
   -0.23343E+07        -0.36440E+07         0.00000E+00
    0.00000E+00         0.00000E+00         0.00000E+00
 
    0.37485E+07        -0.22145E+07         0.00000E+00
   -0.22145E+07        -0.37839E+07         0.00000E+00
    0.00000E+00         0.00000E+00         0.00000E+00
 
    0.38807E+07        -0.20804E+07         0.00000E+00
   -0.20804E+07        -0.39160E+07         0.00000E+00
    0.00000E+00         0.00000E+00         0.00000E+00
 
    0.40044E+07        -0.19323E+07         0.00000E+00
   -0.19323E+07        -0.40396E+07         0.00000E+00
    0.00000E+00         0.00000E+00         0.00000E+00
 
    0.41187E+07        -0.17703E+07         0.00000E+00
   -0.17703E+07        -0.41539E+07         0.00000E+00
    0.00000E+00         0.00000E+00         0.00000E+00
 
    0.42228E+07        -0.15945E+07         0.00000E+00
   -0.15945E+07        -0.42582E+07         0.00000E+00
    0.00000E+00         0.00000E+00         0.00000E+00
 
    0.43155E+07        -0.14044E+07         0.00000E+00
   -0.14044E+07        -0.43513E+07         0.00000E+00
    0.00000E+00         0.00000E+00         0.00000E+00
 
    0.43953E+07        -0.12000E+07         0.00000E+00
   -0.12000E+07        -0.44318E+07         0.00000E+00
    0.00000E+00         0.00000E+00         0.00000E+00
 
    0.44607E+07        -0.98089E+06         0.00000E+00
   -0.98089E+06        -0.44982E+07         0.00000E+00
    0.00000E+00         0.00000E+00         0.00000E+00
 
    0.45093E+07        -0.74671E+06         0.00000E+00
   -0.74671E+06        -0.45486E+07         0.00000E+00
    0.00000E+00         0.00000E+00         0.00000E+00
 
    0.45386E+07        -0.49722E+06         0.00000E+00
   -0.49722E+06        -0.45807E+07         0.00000E+00
    0.00000E+00         0.00000E+00         0.00000E+00
 
    0.45456E+07        -0.23237E+06         0.00000E+00
   -0.23237E+06        -0.45918E+07         0.00000E+00
    0.00000E+00         0.00000E+00         0.00000E+00
 
    0.45265E+07         0.47669E+05         0.00000E+00
    0.47669E+05        -0.45789E+07         0.00000E+00
    0.00000E+00         0.00000E+00         0.00000E+00
 
    0.44771E+07         0.34228E+06         0.00000E+00
    0.34228E+06        -0.45386E+07         0.00000E+00
    0.00000E+00         0.00000E+00         0.00000E+00
 
    0.43924E+07         0.65026E+06         0.00000E+00
    0.65026E+06        -0.44674E+07         0.00000E+00
    0.00000E+00         0.00000E+00         0.00000E+00
 
    0.42670E+07         0.96963E+06         0.00000E+00
    0.96963E+06        -0.43612E+07         0.00000E+00
    0.00000E+00         0.00000E+00         0.00000E+00
 
    0.40947E+07         0.12974E+07         0.00000E+00
    0.12974E+07        -0.42165E+07         0.00000E+00
    0.00000E+00         0.00000E+00         0.00000E+00
 
    0.38691E+07         0.16291E+07         0.00000E+00
    0.16291E+07        -0.40298E+07         0.00000E+00
    0.00000E+00         0.00000E+00         0.00000E+00
 
    0.35836E+07         0.19591E+07         0.00000E+00
    0.19591E+07        -0.37988E+07         0.00000E+00
    0.00000E+00         0.00000E+00         0.00000E+00
 
    0.32320E+07         0.22797E+07         0.00000E+00
    0.22797E+07        -0.35226E+07         0.00000E+00
    0.00000E+00         0.00000E+00         0.00000E+00
 
    0.28094E+07         0.25816E+07         0.00000E+00
    0.25816E+07        -0.32026E+07         0.00000E+00
    0.00000E+00         0.00000E+00         0.00000E+00
 
    0.23122E+07         0.28542E+07         0.00000E+00
    0.28542E+07        -0.28434E+07         0.00000E+00
    0.00000E+00         0.00000E+00         0.00000E+00
 
    0.17392E+07         0.30858E+07         0.00000E+00
    0.30858E+07        -0.24536E+07         0.00000E+00
    0.00000E+00         0.00000E+00         0.00000E+00
 
    0.10920E+07         0.32645E+07         0.00000E+00
    0.32645E+07        -0.20458E+07         0.00000E+00
    0.00000E+00         0.00000E+00         0.00000E+00
 
    0.37510E+06         0.33790E+07         0.00000E+00
    0.33790E+07        -0.16373E+07         0.00000E+00
    0.00000E+00         0.00000E+00         0.00000E+00
 
    0.36448E+07        -0.65645E+04         0.00000E+00
   -0.65645E+04        -0.22685E+07         0.00000E+00
    0.00000E+00         0.00000E+00         0.00000E+00
 
    0.32225E+07        -0.58084E+05         0.00000E+00
   -0.58084E+05        -0.21890E+07         0.00000E+00
    0.00000E+00         0.00000E+00         0.00000E+00
 
    0.28188E+07        -0.16375E+06         0.00000E+00
   -0.16375E+06        -0.20567E+07         0.00000E+00
    0.00000E+00         0.00000E+00         0.00000E+00
 
    0.24507E+07        -0.32128E+06         0.00000E+00
   -0.32128E+06        -0.19003E+07         0.00000E+00
    0.00000E+00         0.00000E+00         0.00000E+00
 
    0.21316E+07        -0.52315E+06         0.00000E+00
   -0.52315E+06        -0.17439E+07         0.00000E+00
    0.00000E+00         0.00000E+00         0.00000E+00
 
    0.18703E+07        -0.75864E+06         0.00000E+00
   -0.75864E+06        -0.16059E+07         0.00000E+00
    0.00000E+00         0.00000E+00         0.00000E+00
 
    0.16712E+07        -0.10156E+07         0.00000E+00
   -0.10156E+07        -0.14988E+07         0.00000E+00
    0.00000E+00         0.00000E+00         0.00000E+00
 
    0.15347E+07        -0.12821E+07         0.00000E+00
   -0.12821E+07        -0.14301E+07         0.00000E+00
    0.00000E+00         0.00000E+00         0.00000E+00
 
    0.14579E+07        -0.15470E+07         0.00000E+00
   -0.15470E+07        -0.14026E+07         0.00000E+00
    0.00000E+00         0.00000E+00         0.00000E+00
 
    0.14359E+07        -0.18010E+07         0.00000E+00
   -0.18010E+07        -0.14159E+07         0.00000E+00
    0.00000E+00         0.00000E+00         0.00000E+00
 
    0.14621E+07        -0.20369E+07         0.00000E+00
   -0.20369E+07        -0.14671E+07         0.00000E+00
    0.00000E+00         0.00000E+00         0.00000E+00
 
    0.15295E+07        -0.22491E+07         0.00000E+00
   -0.22491E+07        -0.15519E+07         0.00000E+00
    0.00000E+00         0.00000E+00         0.00000E+00
 
    0.16307E+07        -0.24343E+07         0.00000E+00
   -0.24343E+07        -0.16651E+07         0.00000E+00
    0.00000E+00         0.00000E+00         0.00000E+00
 
    0.17588E+07        -0.25903E+07         0.00000E+00
   -0.25903E+07        -0.18013E+07         0.00000E+00
    0.00000E+00         0.00000E+00         0.00000E+00
 
    0.19073E+07        -0.27165E+07         0.00000E+00
   -0.27165E+07        -0.19552E+07         0.00000E+00
    0.00000E+00         0.00000E+00         0.00000E+00
 
    0.20706E+07        -0.28132E+07         0.00000E+00
   -0.28132E+07        -0.21219E+07         0.00000E+00
    0.00000E+00         0.00000E+00         0.00000E+00
 
    0.22437E+07        -0.28814E+07         0.00000E+00
   -0.28814E+07        -0.22972E+07         0.00000E+00
    0.00000E+00         0.00000E+00         0.00000E+00
 
    0.24226E+07        -0.29226E+07         0.00000E+00
   -0.29226E+07        -0.24774E+07         0.00000E+00
    0.00000E+00         0.00000E+00         0.00000E+00
 
    0.26039E+07        -0.29385E+07         0.00000E+00
   -0.29385E+07        -0.26594E+07         0.00000E+00
    0.00000E+00         0.00000E+00         0.00000E+00
 
    0.27849E+07        -0.29311E+07         0.00000E+00
   -0.29311E+07        -0.28407E+07         0.00000E+00
    0.00000E+00         0.00000E+00         0.00000E+00
 
    0.29636E+07        -0.29022E+07         0.00000E+00
   -0.29022E+07        -0.30194E+07         0.00000E+00
    0.00000E+00         0.00000E+00         0.00000E+00
 
    0.31383E+07        -0.28536E+07         0.00000E+00
   -0.28536E+07        -0.31940E+07         0.00000E+00
    0.00000E+00         0.00000E+00         0.00000E+00
 
    0.33079E+07        -0.27869E+07         0.00000E+00
   -0.27869E+07        -0.33634E+07         0.00000E+00
    0.00000E+00         0.00000E+00         0.00000E+00
 
    0.34715E+07        -0.27035E+07         0.00000E+00
   -0.27035E+07        -0.35267E+07         0.00000E+00
    0.00000E+00         0.00000E+00         0.00000E+00
 
    0.36285E+07        -0.26046E+07         0.00000E+00
   -0.26046E+07        -0.36834E+07         0.00000E+00
    0.00000E+00         0.00000E+00         0.00000E+00
 
    0.37784E+07        -0.24910E+07         0.00000E+00
   -0.24910E+07        -0.38330E+07         0.00000E+00
    0.00000E+00         0.00000E+00         0.00000E+00
 
    0.39207E+07        -0.23634E+07         0.00000E+00
   -0.23634E+07        -0.39751E+07         0.00000E+00
    0.00000E+00         0.00000E+00         0.00000E+00
 
    0.40551E+07        -0.22224E+07         0.00000E+00
   -0.22224E+07        -0.41092E+07         0.00000E+00
    0.00000E+00         0.00000E+00         0.00000E+00
 
    0.41811E+07        -0.20679E+07         0.00000E+00
   -0.20679E+07        -0.42350E+07         0.00000E+00
    0.00000E+00         0.00000E+00         0.00000E+00
 
    0.42981E+07        -0.19000E+07         0.00000E+00
   -0.19000E+07        -0.43520E+07         0.00000E+00
    0.00000E+00         0.00000E+00         0.00000E+00
 
    0.44054E+07        -0.17185E+07         0.00000E+00
   -0.17185E+07        -0.44594E+07         0.00000E+00
    0.00000E+00         0.00000E+00         0.00000E+00
 
    0.45020E+07        -0.15230E+07         0.00000E+00
   -0.15230E+07        -0.45562E+07         0.00000E+00
    0.00000E+00         0.00000E+00         0.00000E+00
 
    0.45866E+07        -0.13128E+07         0.00000E+00
   -0.13128E+07        -0.46415E+07         0.00000E+00
    0.00000E+00         0.00000E+00         0.00000E+00
 
    0.46575E+07        -0.10874E+07         0.00000E+00
   -0.10874E+07        -0.47135E+07         0.00000E+00
    0.00000E+00         0.00000E+00         0.00000E+00
 
    0.47127E+07        -0.84610E+06         0.00000E+00
   -0.84610E+06        -0.47705E+07         0.00000E+00
    0.00000E+00         0.00000E+00         0.00000E+00
 
    0.47496E+07        -0.58817E+06         0.00000E+00
   -0.58817E+06        -0.48103E+07         0.00000E+00
    0.00000E+00         0.00000E+00         0.00000E+00
 
    0.47649E+07        -0.31307E+06         0.00000E+00
   -0.31307E+06        -0.48301E+07         0.00000E+00
    0.00000E+00         0.00000E+00         0.00000E+00
 
    0.47549E+07        -0.20445E+05         0.00000E+00
   -0.20445E+05        -0.48267E+07         0.00000E+00
    0.00000E+00         0.00000E+00         0.00000E+00
 
    0.47149E+07         0.28969E+06         0.00000E+00
    0.28969E+06        -0.47966E+07         0.00000E+00
    0.00000E+00         0.00000E+00         0.00000E+00
 
    0.46395E+07         0.61680E+06         0.00000E+00
    0.61680E+06        -0.47358E+07         0.00000E+00
    0.00000E+00         0.00000E+00         0.00000E+00
 
    0.45223E+07         0.95956E+06         0.00000E+00
    0.95956E+06        -0.46397E+07         0.00000E+00
    0.00000E+00         0.00000E+00         0.00000E+00
 
    0.43563E+07         0.13156E+07         0.00000E+00
    0.13156E+07        -0.45040E+07         0.00000E+00
    0.00000E+00         0.00000E+00         0.00000E+00
 
    0.41336E+07         0.16810E+07         0.00000E+00
    0.16810E+07        -0.43243E+07         0.00000E+00
    0.00000E+00         0.00000E+00         0.00000E+00
 
    0.38459E+07         0.20502E+07         0.00000E+00
    0.20502E+07        -0.40969E+07         0.00000E+00
    0.00000E+00         0.00000E+00         0.00000E+00
 
    0.34850E+07         0.24153E+07         0.00000E+00
    0.24153E+07        -0.38194E+07         0.00000E+00
    0.00000E+00         0.00000E+00         0.00000E+00
 
    0.30439E+07         0.27662E+07         0.00000E+00
    0.27662E+07        -0.34920E+07         0.00000E+00
    0.00000E+00         0.00000E+00         0.00000E+00
 
    0.25171E+07         0.30908E+07         0.00000E+00
    0.30908E+07        -0.31183E+07         0.00000E+00
    0.00000E+00         0.00000E+00         0.00000E+00
 
    0.19020E+07         0.33753E+07         0.00000E+00
    0.33753E+07        -0.27062E+07         0.00000E+00
    0.00000E+00         0.00000E+00         0.00000E+00
 
    0.11993E+07         0.36056E+07         0.00000E+00
    0.36056E+07        -0.22689E+07         0.00000E+00
    0.00000E+00         0.00000E+00         0.00000E+00
 
    0.41316E+06         0.37678E+07         0.00000E+00
    0.37678E+07        -0.18243E+07         0.00000E+00
    0.00000E+00         0.00000E+00         0.00000E+00
 
    0.37094E+07        -0.96045E+04         0.00000E+00
   -0.96045E+04        -0.21742E+07         0.00000E+00
    0.00000E+00         0.00000E+00         0.00000E+00
 
    0.32376E+07        -0.75963E+05         0.00000E+00
   -0.75963E+05        -0.20882E+07         0.00000E+00
    0.00000E+00         0.00000E+00         0.00000E+00
 
    0.27904E+07        -0.20695E+06         0.00000E+00
   -0.20695E+06        -0.19479E+07         0.00000E+00
    0.00000E+00         0.00000E+00         0.00000E+00
 
    0.23888E+07        -0.39754E+06         0.00000E+00
   -0.39754E+06        -0.17865E+07         0.00000E+00
    0.00000E+00         0.00000E+00         0.00000E+00
 
    0.20479E+07        -0.63674E+06         0.00000E+00
   -0.63674E+06        -0.16309E+07         0.00000E+00
    0.00000E+00         0.00000E+00         0.00000E+00
 
    0.17770E+07        -0.91036E+06         0.00000E+00
   -0.91036E+06        -0.15005E+07         0.00000E+00
    0.00000E+00         0.00000E+00         0.00000E+00
 
    0.15792E+07        -0.12033E+07         0.00000E+00
   -0.12033E+07        -0.14079E+07         0.00000E+00
    0.00000E+00         0.00000E+00         0.00000E+00
 
    0.14532E+07        -0.15013E+07         0.00000E+00
   -0.15013E+07        -0.13594E+07         0.00000E+00
    0.00000E+00         0.00000E+00         0.00000E+00
 
    0.13940E+07        -0.17920E+07         0.00000E+00
   -0.17920E+07        -0.13564E+07         0.00000E+00
    0.00000E+00         0.00000E+00         0.00000E+00
 
    0.13944E+07        -0.20654E+07         0.00000E+00
   -0.20654E+07        -0.13970E+07         0.00000E+00
    0.00000E+00         0.00000E+00         0.00000E+00
 
    0.14458E+07        -0.23140E+07         0.00000E+00
   -0.23140E+07        -0.14767E+07         0.00000E+00
    0.00000E+00         0.00000E+00         0.00000E+00
 
    0.15393E+07        -0.25329E+07         0.00000E+00
   -0.25329E+07        -0.15899E+07         0.00000E+00
    0.00000E+00         0.00000E+00         0.00000E+00
 
    0.16662E+07        -0.27193E+07         0.00000E+00
   -0.27193E+07        -0.17301E+07         0.00000E+00
    0.00000E+00         0.00000E+00         0.00000E+00
 
    0.18184E+07        -0.28719E+07         0.00000E+00
   -0.28719E+07        -0.18913E+07         0.00000E+00
    0.00000E+00         0.00000E+00         0.00000E+00
 
    0.19890E+07        -0.29911E+07         0.00000E+00
   -0.29911E+07        -0.20676E+07         0.00000E+00
    0.00000E+00         0.00000E+00         0.00000E+00
 
    0.21716E+07        -0.30779E+07         0.00000E+00
   -0.30779E+07        -0.22538E+07         0.00000E+00
    0.00000E+00         0.00000E+00         0.00000E+00
 
    0.23613E+07        -0.31343E+07         0.00000E+00
   -0.31343E+07        -0.24457E+07         0.00000E+00
    0.00000E+00         0.00000E+00         0.00000E+00
 
    0.25540E+07        -0.31625E+07         0.00000E+00
   -0.31625E+07        -0.26395E+07         0.00000E+00
    0.00000E+00         0.00000E+00         0.00000E+00
 
    0.27463E+07        -0.31649E+07         0.00000E+00
   -0.31649E+07        -0.28324E+07         0.00000E+00
    0.00000E+00         0.00000E+00         0.00000E+00
 
    0.29360E+07        -0.31438E+07         0.00000E+00
   -0.31438E+07        -0.30221E+07         0.00000E+00
    0.00000E+00         0.00000E+00         0.00000E+00
 
    0.31211E+07        -0.31015E+07         0.00000E+00
   -0.31015E+07        -0.32070E+07         0.00000E+00
    0.00000E+00         0.00000E+00         0.00000E+00
 
    0.33004E+07        -0.30402E+07         0.00000E+00
   -0.30402E+07        -0.33860E+07         0.00000E+00
    0.00000E+00         0.00000E+00         0.00000E+00
 
    0.34731E+07        -0.29617E+07         0.00000E+00
   -0.29617E+07        -0.35583E+07         0.00000E+00
    0.00000E+00         0.00000E+00         0.00000E+00
 
    0.36386E+07        -0.28674E+07         0.00000E+00
   -0.28674E+07        -0.37233E+07         0.00000E+00
    0.00000E+00         0.00000E+00         0.00000E+00
 
    0.37966E+07        -0.27587E+07         0.00000E+00
   -0.27587E+07        -0.38808E+07         0.00000E+00
    0.00000E+00         0.00000E+00         0.00000E+00
 
    0.39470E+07        -0.26364E+07         0.00000E+00
   -0.26364E+07        -0.40307E+07         0.00000E+00
    0.00000E+00         0.00000E+00         0.00000E+00
 
    0.40895E+07        -0.25012E+07         0.00000E+00
   -0.25012E+07        -0.41728E+07         0.00000E+00
    0.00000E+00         0.00000E+00         0.00000E+00
 
    0.42241E+07        -0.23535E+07         0.00000E+00
   -0.23535E+07        -0.43070E+07         0.00000E+00
    0.00000E+00         0.00000E+00         0.00000E+00
 
    0.43506E+07        -0.21932E+07         0.00000E+00
   -0.21932E+07        -0.44331E+07         0.00000E+00
    0.00000E+00         0.00000E+00         0.00000E+00
 
    0.44686E+07        -0.20203E+07         0.00000E+00
   -0.20203E+07        -0.45509E+07         0.00000E+00
    0.00000E+00         0.00000E+00         0.00000E+00
 
    0.45776E+07        -0.18342E+07         0.00000E+00
   -0.18342E+07        -0.46599E+07         0.00000E+00
    0.00000E+00         0.00000E+00         0.00000E+00
 
    0.46768E+07        -0.16343E+07         0.00000E+00
   -0.16343E+07        -0.47592E+07         0.00000E+00
    0.00000E+00         0.00000E+00         0.00000E+00
 
    0.47650E+07        -0.14198E+07         0.00000E+00
   -0.14198E+07        -0.48480E+07         0.00000E+00
    0.00000E+00         0.00000E+00         0.00000E+00
 
    0.48408E+07        -0.11897E+07         0.00000E+00
   -0.11897E+07        -0.49248E+07         0.00000E+00
    0.00000E+00         0.00000E+00         0.00000E+00
 
    0.49021E+07        -0.94286E+06         0.00000E+00
   -0.94286E+06        -0.49880E+07         0.00000E+00
    0.00000E+00         0.00000E+00         0.00000E+00
 
    0.49465E+07        -0.67824E+06         0.00000E+00
   -0.67824E+06        -0.50353E+07         0.00000E+00
    0.00000E+00         0.00000E+00         0.00000E+00
 
    0.49706E+07        -0.39470E+06         0.00000E+00
   -0.39470E+06        -0.50640E+07         0.00000E+00
    0.00000E+00         0.00000E+00         0.00000E+00
 
    0.49704E+07        -0.91280E+05         0.00000E+00
   -0.91280E+05        -0.50709E+07         0.00000E+00
    0.00000E+00         0.00000E+00         0.00000E+00
 
    0.49412E+07         0.23273E+06         0.00000E+00
    0.23273E+06        -0.50523E+07         0.00000E+00
    0.00000E+00         0.00000E+00         0.00000E+00
 
    0.48769E+07         0.57757E+06         0.00000E+00
    0.57757E+06        -0.50038E+07         0.00000E+00
    0.00000E+00         0.00000E+00         0.00000E+00
 
    0.47707E+07         0.94278E+06         0.00000E+00
    0.94278E+06        -0.49205E+07         0.00000E+00
    0.00000E+00         0.00000E+00         0.00000E+00
 
    0.46142E+07         0.13269E+07         0.00000E+00
    0.13269E+07        -0.47971E+07         0.00000E+00
    0.00000E+00         0.00000E+00         0.00000E+00
 
    0.43982E+07         0.17267E+07         0.00000E+00
    0.17267E+07        -0.46282E+07         0.00000E+00
    0.00000E+00         0.00000E+00         0.00000E+00
 
    0.41123E+07         0.21374E+07         0.00000E+00
    0.21374E+07        -0.44086E+07         0.00000E+00
    0.00000E+00         0.00000E+00         0.00000E+00
 
    0.37461E+07         0.25510E+07         0.00000E+00
    0.25510E+07        -0.41342E+07         0.00000E+00
    0.00000E+00         0.00000E+00         0.00000E+00
 
    0.32894E+07         0.29567E+07         0.00000E+00
    0.29567E+07        -0.38032E+07         0.00000E+00
    0.00000E+00         0.00000E+00         0.00000E+00
 
    0.27344E+07         0.33405E+07         0.00000E+00
    0.33405E+07        -0.34174E+07         0.00000E+00
    0.00000E+00         0.00000E+00         0.00000E+00
 
    0.20763E+07         0.36862E+07         0.00000E+00
    0.36862E+07        -0.29842E+07         0.00000E+00
    0.00000E+00         0.00000E+00         0.00000E+00
 
    0.13150E+07         0.39768E+07         0.00000E+00
    0.39768E+07        -0.25165E+07         0.00000E+00
    0.00000E+00         0.00000E+00         0.00000E+00
 
    0.45439E+06         0.41957E+07         0.00000E+00
    0.41957E+07        -0.20335E+07         0.00000E+00
    0.00000E+00         0.00000E+00         0.00000E+00
 
    0.37844E+07        -0.13538E+05         0.00000E+00
   -0.13538E+05        -0.20594E+07         0.00000E+00
    0.00000E+00         0.00000E+00         0.00000E+00
 
    0.32515E+07        -0.99057E+05         0.00000E+00
   -0.99057E+05        -0.19670E+07         0.00000E+00
    0.00000E+00         0.00000E+00         0.00000E+00
 
    0.27526E+07        -0.26190E+06         0.00000E+00
   -0.26190E+06        -0.18199E+07         0.00000E+00
    0.00000E+00         0.00000E+00         0.00000E+00
 
    0.23130E+07        -0.49283E+06         0.00000E+00
   -0.49283E+06        -0.16566E+07         0.00000E+00
    0.00000E+00         0.00000E+00         0.00000E+00
 
    0.19495E+07        -0.77608E+06         0.00000E+00
   -0.77608E+06        -0.15067E+07         0.00000E+00
    0.00000E+00         0.00000E+00         0.00000E+00
 
    0.16708E+07        -0.10931E+07         0.00000E+00
   -0.10931E+07        -0.13903E+07         0.00000E+00
    0.00000E+00         0.00000E+00         0.00000E+00
 
    0.14782E+07        -0.14253E+07         0.00000E+00
   -0.14253E+07        -0.13192E+07         0.00000E+00
    0.00000E+00         0.00000E+00         0.00000E+00
 
    0.13678E+07        -0.17560E+07         0.00000E+00
   -0.17560E+07        -0.12981E+07         0.00000E+00
    0.00000E+00         0.00000E+00         0.00000E+00
 
    0.13315E+07        -0.20717E+07         0.00000E+00
   -0.20717E+07        -0.13265E+07         0.00000E+00
    0.00000E+00         0.00000E+00         0.00000E+00
 
    0.13592E+07        -0.23620E+07         0.00000E+00
   -0.23620E+07        -0.14002E+07         0.00000E+00
    0.00000E+00         0.00000E+00         0.00000E+00
 
    0.14400E+07        -0.26198E+07         0.00000E+00
   -0.26198E+07        -0.15132E+07         0.00000E+00
    0.00000E+00         0.00000E+00         0.00000E+00
 
    0.15629E+07        -0.28409E+07         0.00000E+00
   -0.28409E+07        -0.16581E+07         0.00000E+00
    0.00000E+00         0.00000E+00         0.00000E+00
 
    0.17177E+07        -0.30236E+07         0.00000E+00
   -0.30236E+07        -0.18277E+07         0.00000E+00
    0.00000E+00         0.00000E+00         0.00000E+00
 
    0.18953E+07        -0.31678E+07         0.00000E+00
   -0.31678E+07        -0.20149E+07         0.00000E+00
    0.00000E+00         0.00000E+00         0.00000E+00
 
    0.20881E+07        -0.32750E+07         0.00000E+00
   -0.32750E+07        -0.22138E+07         0.00000E+00
    0.00000E+00         0.00000E+00         0.00000E+00
 
    0.22895E+07        -0.33474E+07         0.00000E+00
   -0.33474E+07        -0.24188E+07         0.00000E+00
    0.00000E+00         0.00000E+00         0.00000E+00
 
    0.24945E+07        -0.33879E+07         0.00000E+00
   -0.33879E+07        -0.26258E+07         0.00000E+00
    0.00000E+00         0.00000E+00         0.00000E+00
 
    0.26991E+07        -0.33994E+07         0.00000E+00
   -0.33994E+07        -0.28314E+07         0.00000E+00
    0.00000E+00         0.00000E+00         0.00000E+00
 
    0.29004E+07        -0.33850E+07         0.00000E+00
   -0.33850E+07        -0.30328E+07         0.00000E+00
    0.00000E+00         0.00000E+00         0.00000E+00
 
    0.30962E+07        -0.33476E+07         0.00000E+00
   -0.33476E+07        -0.32284E+07         0.00000E+00
    0.00000E+00         0.00000E+00         0.00000E+00
 
    0.32852E+07        -0.32899E+07         0.00000E+00
   -0.32899E+07        -0.34168E+07         0.00000E+00
    0.00000E+00         0.00000E+00         0.00000E+00
 
    0.34664E+07        -0.32143E+07         0.00000E+00
   -0.32143E+07        -0.35974E+07         0.00000E+00
    0.00000E+00         0.00000E+00         0.00000E+00
 
    0.36395E+07        -0.31227E+07         0.00000E+00
   -0.31227E+07        -0.37697E+07         0.00000E+00
    0.00000E+00         0.00000E+00         0.00000E+00
 
    0.38042E+07        -0.30169E+07         0.00000E+00
   -0.30169E+07        -0.39336E+07         0.00000E+00
    0.00000E+00         0.00000E+00         0.00000E+00
 
    0.39606E+07        -0.28979E+07         0.00000E+00
   -0.28979E+07        -0.40893E+07         0.00000E+00
    0.00000E+00         0.00000E+00         0.00000E+00
 
    0.41089E+07        -0.27669E+07         0.00000E+00
   -0.27669E+07        -0.42368E+07         0.00000E+00
    0.00000E+00         0.00000E+00         0.00000E+00
 
    0.42493E+07        -0.26243E+07         0.00000E+00
   -0.26243E+07        -0.43765E+07         0.00000E+00
    0.00000E+00         0.00000E+00         0.00000E+00
 
    0.43819E+07        -0.24704E+07         0.00000E+00
   -0.24704E+07        -0.45084E+07         0.00000E+00
    0.00000E+00         0.00000E+00         0.00000E+00
 
    0.45068E+07        -0.23051E+07         0.00000E+00
   -0.23051E+07        -0.46328E+07         0.00000E+00
    0.00000E+00         0.00000E+00         0.00000E+00
 
    0.46239E+07        -0.21281E+07         0.00000E+00
   -0.21281E+07        -0.47494E+07         0.00000E+00
    0.00000E+00         0.00000E+00         0.00000E+00
 
    0.47329E+07        -0.19386E+07         0.00000E+00
   -0.19386E+07        -0.48582E+07         0.00000E+00
    0.00000E+00         0.00000E+00         0.00000E+00
 
    0.48332E+07        -0.17357E+07         0.00000E+00
   -0.17357E+07        -0.49585E+07         0.00000E+00
    0.00000E+00         0.00000E+00         0.00000E+00
 
    0.49239E+07        -0.15184E+07         0.00000E+00
   -0.15184E+07        -0.50495E+07         0.00000E+00
    0.00000E+00         0.00000E+00         0.00000E+00
 
    0.50036E+07        -0.12854E+07         0.00000E+00
   -0.12854E+07        -0.51301E+07         0.00000E+00
    0.00000E+00         0.00000E+00         0.00000E+00
 
    0.50704E+07        -0.10350E+07         0.00000E+00
   -0.10350E+07        -0.51986E+07         0.00000E+00
    0.00000E+00         0.00000E+00         0.00000E+00
 
    0.51219E+07        -0.76568E+06         0.00000E+00
   -0.76568E+06        -0.52531E+07         0.00000E+00
    0.00000E+00         0.00000E+00         0.00000E+00
 
    0.51550E+07        -0.47582E+06         0.00000E+00
   -0.47582E+06        -0.52908E+07         0.00000E+00
    0.00000E+00         0.00000E+00         0.00000E+00
 
    0.51654E+07        -0.16374E+06         0.00000E+00
   -0.16374E+06        -0.53086E+07         0.00000E+00
    0.00000E+00         0.00000E+00         0.00000E+00
 
    0.51482E+07         0.17204E+06         0.00000E+00
    0.17204E+06        -0.53026E+07         0.00000E+00
    0.00000E+00         0.00000E+00         0.00000E+00
 
    0.50971E+07         0.53268E+06         0.00000E+00
    0.53268E+06        -0.52682E+07         0.00000E+00
    0.00000E+00         0.00000E+00         0.00000E+00
 
    0.50046E+07         0.91877E+06         0.00000E+00
    0.91877E+06        -0.52002E+07         0.00000E+00
    0.00000E+00         0.00000E+00         0.00000E+00
 
    0.48614E+07         0.13300E+07         0.00000E+00
    0.13300E+07        -0.50927E+07         0.00000E+00
    0.00000E+00         0.00000E+00         0.00000E+00
 
    0.46567E+07         0.17645E+07         0.00000E+00
    0.17645E+07        -0.49390E+07         0.00000E+00
    0.00000E+00         0.00000E+00         0.00000E+00
 
    0.43779E+07         0.22182E+07         0.00000E+00
    0.22182E+07        -0.47325E+07         0.00000E+00
    0.00000E+00         0.00000E+00         0.00000E+00
 
    0.40116E+07         0.26841E+07         0.00000E+00
    0.26841E+07        -0.44667E+07         0.00000E+00
    0.00000E+00         0.00000E+00         0.00000E+00
 
    0.35439E+07         0.31508E+07         0.00000E+00
    0.31508E+07        -0.41371E+07         0.00000E+00
    0.00000E+00         0.00000E+00         0.00000E+00
 
    0.29633E+07         0.36023E+07         0.00000E+00
    0.36023E+07        -0.37431E+07         0.00000E+00
    0.00000E+00         0.00000E+00         0.00000E+00
 
    0.22623E+07         0.40191E+07         0.00000E+00
    0.40191E+07        -0.32902E+07         0.00000E+00
    0.00000E+00         0.00000E+00         0.00000E+00
 
    0.14394E+07         0.43802E+07         0.00000E+00
    0.43802E+07        -0.27916E+07         0.00000E+00
    0.00000E+00         0.00000E+00         0.00000E+00
 
    0.49887E+06         0.46657E+07         0.00000E+00
    0.46657E+07        -0.22680E+07         0.00000E+00
    0.00000E+00         0.00000E+00         0.00000E+00
 
    0.38705E+07        -0.18962E+05         0.00000E+00
   -0.18962E+05        -0.19201E+07         0.00000E+00
    0.00000E+00         0.00000E+00         0.00000E+00
 
    0.32617E+07        -0.12983E+06         0.00000E+00
   -0.12983E+06        -0.18219E+07         0.00000E+00
    0.00000E+00         0.00000E+00         0.00000E+00
 
    0.27012E+07        -0.33319E+06         0.00000E+00
   -0.33319E+06        -0.16707E+07         0.00000E+00
    0.00000E+00         0.00000E+00         0.00000E+00
 
    0.22188E+07        -0.61345E+06         0.00000E+00
   -0.61345E+06        -0.15107E+07         0.00000E+00
    0.00000E+00         0.00000E+00         0.00000E+00
 
    0.18324E+07        -0.94843E+06         0.00000E+00
   -0.94843E+06        -0.13738E+07         0.00000E+00
    0.00000E+00         0.00000E+00         0.00000E+00
 
    0.15492E+07        -0.13142E+07         0.00000E+00
   -0.13142E+07        -0.12801E+07         0.00000E+00
    0.00000E+00         0.00000E+00         0.00000E+00
 
    0.13672E+07        -0.16882E+07         0.00000E+00
   -0.16882E+07        -0.12396E+07         0.00000E+00
    0.00000E+00         0.00000E+00         0.00000E+00
 
    0.12785E+07        -0.20517E+07         0.00000E+00
   -0.20517E+07        -0.12547E+07         0.00000E+00
    0.00000E+00         0.00000E+00         0.00000E+00
 
    0.12712E+07        -0.23901E+07         0.00000E+00
   -0.23901E+07        -0.13220E+07         0.00000E+00
    0.00000E+00         0.00000E+00         0.00000E+00
 
    0.13317E+07        -0.26932E+07         0.00000E+00
   -0.26932E+07        -0.14352E+07         0.00000E+00
    0.00000E+00         0.00000E+00         0.00000E+00
 
    0.14461E+07        -0.29549E+07         0.00000E+00
   -0.29549E+07        -0.15860E+07         0.00000E+00
    0.00000E+00         0.00000E+00         0.00000E+00
 
    0.16013E+07        -0.31722E+07         0.00000E+00
   -0.31722E+07        -0.17658E+07         0.00000E+00
    0.00000E+00         0.00000E+00         0.00000E+00
 
    0.17856E+07        -0.33450E+07         0.00000E+00
   -0.33450E+07        -0.19663E+07         0.00000E+00
    0.00000E+00         0.00000E+00         0.00000E+00
 
    0.19890E+07        -0.34748E+07         0.00000E+00
   -0.34748E+07        -0.21800E+07         0.00000E+00
    0.00000E+00         0.00000E+00         0.00000E+00
 
    0.22033E+07        -0.35644E+07         0.00000E+00
   -0.35644E+07        -0.24005E+07         0.00000E+00
    0.00000E+00         0.00000E+00         0.00000E+00
 
    0.24221E+07        -0.36172E+07         0.00000E+00
   -0.36172E+07        -0.26226E+07         0.00000E+00
    0.00000E+00         0.00000E+00         0.00000E+00
 
    0.26403E+07        -0.36372E+07         0.00000E+00
   -0.36372E+07        -0.28424E+07         0.00000E+00
    0.00000E+00         0.00000E+00         0.00000E+00
 
    0.28543E+07        -0.36282E+07         0.00000E+00
   -0.36282E+07        -0.30568E+07         0.00000E+00
    0.00000E+00         0.00000E+00         0.00000E+00
 
    0.30615E+07        -0.35939E+07         0.00000E+00
   -0.35939E+07        -0.32637E+07         0.00000E+00
    0.00000E+00         0.00000E+00         0.00000E+00
 
    0.32604E+07        -0.35377E+07         0.00000E+00
   -0.35377E+07        -0.34618E+07         0.00000E+00
    0.00000E+00         0.00000E+00         0.00000E+00
 
    0.34500E+07        -0.34626E+07         0.00000E+00
   -0.34626E+07        -0.36504E+07         0.00000E+00
    0.00000E+00         0.00000E+00         0.00000E+00
 
    0.36299E+07        -0.33712E+07         0.00000E+00
   -0.33712E+07        -0.38291E+07         0.00000E+00
    0.00000E+00         0.00000E+00         0.00000E+00
 
    0.38002E+07        -0.32656E+07         0.00000E+00
   -0.32656E+07        -0.39982E+07         0.00000E+00
    0.00000E+00         0.00000E+00         0.00000E+00
 
    0.39610E+07        -0.31476E+07         0.00000E+00
   -0.31476E+07        -0.41578E+07         0.00000E+00
    0.00000E+00         0.00000E+00         0.00000E+00
 
    0.41130E+07        -0.30183E+07         0.00000E+00
   -0.30183E+07        -0.43085E+07         0.00000E+00
    0.00000E+00         0.00000E+00         0.00000E+00
 
    0.42565E+07        -0.28787E+07         0.00000E+00
   -0.28787E+07        -0.44509E+07         0.00000E+00
    0.00000E+00         0.00000E+00         0.00000E+00
 
    0.43921E+07        -0.27291E+07         0.00000E+00
   -0.27291E+07        -0.45854E+07         0.00000E+00
    0.00000E+00         0.00000E+00         0.00000E+00
 
    0.45203E+07        -0.25698E+07         0.00000E+00
   -0.25698E+07        -0.47126E+07         0.00000E+00
    0.00000E+00         0.00000E+00         0.00000E+00
 
    0.46413E+07        -0.24004E+07         0.00000E+00
   -0.24004E+07        -0.48328E+07         0.00000E+00
    0.00000E+00         0.00000E+00         0.00000E+00
 
    0.47555E+07        -0.22203E+07         0.00000E+00
   -0.22203E+07        -0.49461E+07         0.00000E+00
    0.00000E+00         0.00000E+00         0.00000E+00
 
    0.48626E+07        -0.20288E+07         0.00000E+00
   -0.20288E+07        -0.50527E+07         0.00000E+00
    0.00000E+00         0.00000E+00         0.00000E+00
 
    0.49625E+07        -0.18245E+07         0.00000E+00
   -0.18245E+07        -0.51522E+07         0.00000E+00
    0.00000E+00         0.00000E+00         0.00000E+00
 
    0.50542E+07        -0.16062E+07         0.00000E+00
   -0.16062E+07        -0.52439E+07         0.00000E+00
    0.00000E+00         0.00000E+00         0.00000E+00
 
    0.51367E+07        -0.13720E+07         0.00000E+00
   -0.13720E+07        -0.53270E+07         0.00000E+00
    0.00000E+00         0.00000E+00         0.00000E+00
 
    0.52082E+07        -0.11201E+07         0.00000E+00
   -0.11201E+07        -0.54001E+07         0.00000E+00
    0.00000E+00         0.00000E+00         0.00000E+00
 
    0.52665E+07        -0.84842E+06         0.00000E+00
   -0.84842E+06        -0.54611E+07         0.00000E+00
    0.00000E+00         0.00000E+00         0.00000E+00
 
    0.53085E+07        -0.55460E+06         0.00000E+00
   -0.55460E+06        -0.55076E+07         0.00000E+00
    0.00000E+00         0.00000E+00         0.00000E+00
 
    0.53300E+07        -0.23635E+06         0.00000E+00
   -0.23635E+06        -0.55366E+07         0.00000E+00
    0.00000E+00         0.00000E+00         0.00000E+00
 
    0.53261E+07         0.10868E+06         0.00000E+00
    0.10868E+06        -0.55441E+07         0.00000E+00
    0.00000E+00         0.00000E+00         0.00000E+00
 
    0.52901E+07         0.48263E+06         0.00000E+00
    0.48263E+06        -0.55255E+07         0.00000E+00
    0.00000E+00         0.00000E+00         0.00000E+00
 
    0.52142E+07         0.88732E+06         0.00000E+00
    0.88732E+06        -0.54753E+07         0.00000E+00
    0.00000E+00         0.00000E+00         0.00000E+00
 
    0.50883E+07         0.13238E+07         0.00000E+00
    0.13238E+07        -0.53872E+07         0.00000E+00
    0.00000E+00         0.00000E+00         0.00000E+00
 
    0.49002E+07         0.17920E+07         0.00000E+00
    0.17920E+07        -0.52536E+07         0.00000E+00
    0.00000E+00         0.00000E+00         0.00000E+00
 
    0.46352E+07         0.22897E+07         0.00000E+00
    0.22897E+07        -0.50662E+07         0.00000E+00
    0.00000E+00         0.00000E+00         0.00000E+00
 
    0.42762E+07         0.28111E+07         0.00000E+00
    0.28111E+07        -0.48160E+07         0.00000E+00
    0.00000E+00         0.00000E+00         0.00000E+00
 
    0.38046E+07         0.33452E+07         0.00000E+00
    0.33452E+07        -0.44948E+07         0.00000E+00
    0.00000E+00         0.00000E+00         0.00000E+00
 
    0.32031E+07         0.38743E+07         0.00000E+00
    0.38743E+07        -0.40978E+07         0.00000E+00
    0.00000E+00         0.00000E+00         0.00000E+00
 
    0.24601E+07         0.43741E+07         0.00000E+00
    0.43741E+07        -0.36277E+07         0.00000E+00
    0.00000E+00         0.00000E+00         0.00000E+00
 
    0.15728E+07         0.48178E+07         0.00000E+00
    0.48178E+07        -0.30976E+07         0.00000E+00
    0.00000E+00         0.00000E+00         0.00000E+00
 
    0.54665E+06         0.51810E+07         0.00000E+00
    0.51810E+07        -0.25306E+07         0.00000E+00
    0.00000E+00         0.00000E+00         0.00000E+00
 
    0.39666E+07        -0.26816E+05         0.00000E+00
   -0.26816E+05        -0.17525E+07         0.00000E+00
    0.00000E+00         0.00000E+00         0.00000E+00
 
    0.32630E+07        -0.17186E+06         0.00000E+00
   -0.17186E+06        -0.16502E+07         0.00000E+00
    0.00000E+00         0.00000E+00         0.00000E+00
 
    0.26292E+07        -0.42701E+06         0.00000E+00
   -0.42701E+06        -0.14998E+07         0.00000E+00
    0.00000E+00         0.00000E+00         0.00000E+00
 
    0.20994E+07        -0.76748E+06         0.00000E+00
   -0.76748E+06        -0.13510E+07         0.00000E+00
    0.00000E+00         0.00000E+00         0.00000E+00
 
    0.16913E+07        -0.11627E+07         0.00000E+00
   -0.11627E+07        -0.12375E+07         0.00000E+00
    0.00000E+00         0.00000E+00         0.00000E+00
 
    0.14084E+07        -0.15822E+07         0.00000E+00
   -0.15822E+07        -0.11779E+07         0.00000E+00
    0.00000E+00         0.00000E+00         0.00000E+00
 
    0.12439E+07        -0.19996E+07         0.00000E+00
   -0.19996E+07        -0.11793E+07         0.00000E+00
    0.00000E+00         0.00000E+00         0.00000E+00
 
    0.11843E+07        -0.23940E+07         0.00000E+00
   -0.23940E+07        -0.12406E+07         0.00000E+00
    0.00000E+00         0.00000E+00         0.00000E+00
 
    0.12128E+07        -0.27507E+07         0.00000E+00
   -0.27507E+07        -0.13553E+07         0.00000E+00
    0.00000E+00         0.00000E+00         0.00000E+00
 
    0.13116E+07        -0.30604E+07         0.00000E+00
   -0.30604E+07        -0.15142E+07         0.00000E+00
    0.00000E+00         0.00000E+00         0.00000E+00
 
    0.14635E+07        -0.33187E+07         0.00000E+00
   -0.33187E+07        -0.17071E+07         0.00000E+00
    0.00000E+00         0.00000E+00         0.00000E+00
 
    0.16532E+07        -0.35246E+07         0.00000E+00
   -0.35246E+07        -0.19240E+07         0.00000E+00
    0.00000E+00         0.00000E+00         0.00000E+00
 
    0.18677E+07        -0.36800E+07         0.00000E+00
   -0.36800E+07        -0.21557E+07         0.00000E+00
    0.00000E+00         0.00000E+00         0.00000E+00
 
    0.20963E+07        -0.37882E+07         0.00000E+00
   -0.37882E+07        -0.23947E+07         0.00000E+00
    0.00000E+00         0.00000E+00         0.00000E+00
 
    0.23305E+07        -0.38538E+07         0.00000E+00
   -0.38538E+07        -0.26348E+07         0.00000E+00
    0.00000E+00         0.00000E+00         0.00000E+00
 
    0.25640E+07        -0.38814E+07         0.00000E+00
   -0.38814E+07        -0.28710E+07         0.00000E+00
    0.00000E+00         0.00000E+00         0.00000E+00
 
    0.27922E+07        -0.38762E+07         0.00000E+00
   -0.38762E+07        -0.31000E+07         0.00000E+00
    0.00000E+00         0.00000E+00         0.00000E+00
 
    0.30120E+07        -0.38428E+07         0.00000E+00
   -0.38428E+07        -0.33194E+07         0.00000E+00
    0.00000E+00         0.00000E+00         0.00000E+00
 
    0.32214E+07        -0.37855E+07         0.00000E+00
   -0.37855E+07        -0.35277E+07         0.00000E+00
    0.00000E+00         0.00000E+00         0.00000E+00
 
    0.34195E+07        -0.37081E+07         0.00000E+00
   -0.37081E+07        -0.37242E+07         0.00000E+00
    0.00000E+00         0.00000E+00         0.00000E+00
 
    0.36060E+07        -0.36138E+07         0.00000E+00
   -0.36138E+07        -0.39088E+07         0.00000E+00
    0.00000E+00         0.00000E+00         0.00000E+00
 
    0.37809E+07        -0.35055E+07         0.00000E+00
   -0.35055E+07        -0.40818E+07         0.00000E+00
    0.00000E+00         0.00000E+00         0.00000E+00
 
    0.39448E+07        -0.33853E+07         0.00000E+00
   -0.33853E+07        -0.42438E+07         0.00000E+00
    0.00000E+00         0.00000E+00         0.00000E+00
 
    0.40984E+07        -0.32549E+07         0.00000E+00
   -0.32549E+07        -0.43956E+07         0.00000E+00
    0.00000E+00         0.00000E+00         0.00000E+00
 
    0.42427E+07        -0.31154E+07         0.00000E+00
   -0.31154E+07        -0.45381E+07         0.00000E+00
    0.00000E+00         0.00000E+00         0.00000E+00
 
    0.43784E+07        -0.29676E+07         0.00000E+00
   -0.29676E+07        -0.46721E+07         0.00000E+00
    0.00000E+00         0.00000E+00         0.00000E+00
 
    0.45065E+07        -0.28117E+07         0.00000E+00
   -0.28117E+07        -0.47985E+07         0.00000E+00
    0.00000E+00         0.00000E+00         0.00000E+00
 
    0.46276E+07        -0.26479E+07         0.00000E+00
   -0.26479E+07        -0.49182E+07         0.00000E+00
    0.00000E+00         0.00000E+00         0.00000E+00
 
    0.47425E+07        -0.24755E+07         0.00000E+00
   -0.24755E+07        -0.50317E+07         0.00000E+00
    0.00000E+00         0.00000E+00         0.00000E+00
 
    0.48516E+07        -0.22938E+07         0.00000E+00
   -0.22938E+07        -0.51394E+07         0.00000E+00
    0.00000E+00         0.00000E+00         0.00000E+00
 
    0.49550E+07        -0.21017E+07         0.00000E+00
   -0.21017E+07        -0.52417E+07         0.00000E+00
    0.00000E+00         0.00000E+00         0.00000E+00
 
    0.50526E+07        -0.18977E+07         0.00000E+00
   -0.18977E+07        -0.53385E+07         0.00000E+00
    0.00000E+00         0.00000E+00         0.00000E+00
 
    0.51439E+07        -0.16802E+07         0.00000E+00
   -0.16802E+07        -0.54293E+07         0.00000E+00
    0.00000E+00         0.00000E+00         0.00000E+00
 
    0.52280E+07        -0.14470E+07         0.00000E+00
   -0.14470E+07        -0.55135E+07         0.00000E+00
    0.00000E+00         0.00000E+00         0.00000E+00
 
    0.53033E+07        -0.11958E+07         0.00000E+00
   -0.11958E+07        -0.55899E+07         0.00000E+00
    0.00000E+00         0.00000E+00         0.00000E+00
 
    0.53678E+07        -0.92411E+06         0.00000E+00
   -0.92411E+06        -0.56566E+07         0.00000E+00
    0.00000E+00         0.00000E+00         0.00000E+00
 
    0.54185E+07        -0.62892E+06         0.00000E+00
   -0.62892E+06        -0.57115E+07         0.00000E+00
    0.00000E+00         0.00000E+00         0.00000E+00
 
    0.54515E+07        -0.30724E+06         0.00000E+00
   -0.30724E+06        -0.57517E+07         0.00000E+00
    0.00000E+00         0.00000E+00         0.00000E+00
 
    0.54618E+07         0.44149E+05         0.00000E+00
    0.44149E+05        -0.57733E+07         0.00000E+00
    0.00000E+00         0.00000E+00         0.00000E+00
 
    0.54428E+07         0.42847E+06         0.00000E+00
    0.42847E+06        -0.57718E+07         0.00000E+00
    0.00000E+00         0.00000E+00         0.00000E+00
 
    0.53863E+07         0.84881E+06         0.00000E+00
    0.84881E+06        -0.57416E+07         0.00000E+00
    0.00000E+00         0.00000E+00         0.00000E+00
 
    0.52819E+07         0.13079E+07         0.00000E+00
    0.13079E+07        -0.56761E+07         0.00000E+00
    0.00000E+00         0.00000E+00         0.00000E+00
 
    0.51164E+07         0.18075E+07         0.00000E+00
    0.18075E+07        -0.55673E+07         0.00000E+00
    0.00000E+00         0.00000E+00         0.00000E+00
 
    0.48732E+07         0.23481E+07         0.00000E+00
    0.23481E+07        -0.54055E+07         0.00000E+00
    0.00000E+00         0.00000E+00         0.00000E+00
 
    0.45315E+07         0.29267E+07         0.00000E+00
    0.29267E+07        -0.51795E+07         0.00000E+00
    0.00000E+00         0.00000E+00         0.00000E+00
 
    0.40667E+07         0.35344E+07         0.00000E+00
    0.35344E+07        -0.48763E+07         0.00000E+00
    0.00000E+00         0.00000E+00         0.00000E+00
 
    0.34529E+07         0.41525E+07         0.00000E+00
    0.41525E+07        -0.44846E+07         0.00000E+00
    0.00000E+00         0.00000E+00         0.00000E+00
 
    0.26710E+07         0.47504E+07         0.00000E+00
    0.47504E+07        -0.40012E+07         0.00000E+00
    0.00000E+00         0.00000E+00         0.00000E+00
 
    0.17160E+07         0.52916E+07         0.00000E+00
    0.52916E+07        -0.34385E+07         0.00000E+00
    0.00000E+00         0.00000E+00         0.00000E+00
 
    0.59787E+06         0.57450E+07         0.00000E+00
    0.57450E+07        -0.28247E+07         0.00000E+00
    0.00000E+00         0.00000E+00         0.00000E+00
 
    0.40684E+07        -0.38571E+05         0.00000E+00
   -0.38571E+05        -0.15531E+07         0.00000E+00
    0.00000E+00         0.00000E+00         0.00000E+00
 
    0.32462E+07        -0.23022E+06         0.00000E+00
   -0.23022E+06        -0.14504E+07         0.00000E+00
    0.00000E+00         0.00000E+00         0.00000E+00
 
    0.25259E+07        -0.55168E+06         0.00000E+00
   -0.55168E+06        -0.13086E+07         0.00000E+00
    0.00000E+00         0.00000E+00         0.00000E+00
 
    0.19449E+07        -0.96513E+06         0.00000E+00
   -0.96513E+06        -0.11829E+07         0.00000E+00
    0.00000E+00         0.00000E+00         0.00000E+00
 
    0.15180E+07        -0.14293E+07         0.00000E+00
   -0.14293E+07        -0.11069E+07         0.00000E+00
    0.00000E+00         0.00000E+00         0.00000E+00
 
    0.12425E+07        -0.19066E+07         0.00000E+00
   -0.19066E+07        -0.10959E+07         0.00000E+00
    0.00000E+00         0.00000E+00         0.00000E+00
 
    0.11042E+07        -0.23667E+07         0.00000E+00
   -0.23667E+07        -0.11527E+07         0.00000E+00
    0.00000E+00         0.00000E+00         0.00000E+00
 
    0.10823E+07        -0.27875E+07         0.00000E+00
   -0.27875E+07        -0.12716E+07         0.00000E+00
    0.00000E+00         0.00000E+00         0.00000E+00
 
    0.11538E+07        -0.31553E+07         0.00000E+00
   -0.31553E+07        -0.14422E+07         0.00000E+00
    0.00000E+00         0.00000E+00         0.00000E+00
 
    0.12960E+07        -0.34628E+07         0.00000E+00
   -0.34628E+07        -0.16525E+07         0.00000E+00
    0.00000E+00         0.00000E+00         0.00000E+00
 
    0.14886E+07        -0.37083E+07         0.00000E+00
   -0.37083E+07        -0.18904E+07         0.00000E+00
    0.00000E+00         0.00000E+00         0.00000E+00
 
    0.17140E+07        -0.38934E+07         0.00000E+00
   -0.38934E+07        -0.21448E+07         0.00000E+00
    0.00000E+00         0.00000E+00         0.00000E+00
 
    0.19580E+07        -0.40225E+07         0.00000E+00
   -0.40225E+07        -0.24066E+07         0.00000E+00
    0.00000E+00         0.00000E+00         0.00000E+00
 
    0.22095E+07        -0.41012E+07         0.00000E+00
   -0.41012E+07        -0.26682E+07         0.00000E+00
    0.00000E+00         0.00000E+00         0.00000E+00
 
    0.24604E+07        -0.41358E+07         0.00000E+00
   -0.41358E+07        -0.29239E+07         0.00000E+00
    0.00000E+00         0.00000E+00         0.00000E+00
 
    0.27047E+07        -0.41325E+07         0.00000E+00
   -0.41325E+07        -0.31697E+07         0.00000E+00
    0.00000E+00         0.00000E+00         0.00000E+00
 
    0.29386E+07        -0.40974E+07         0.00000E+00
   -0.40974E+07        -0.34031E+07         0.00000E+00
    0.00000E+00         0.00000E+00         0.00000E+00
 
    0.31597E+07        -0.40359E+07         0.00000E+00
   -0.40359E+07        -0.36223E+07         0.00000E+00
    0.00000E+00         0.00000E+00         0.00000E+00
 
    0.33667E+07        -0.39528E+07         0.00000E+00
   -0.39528E+07        -0.38269E+07         0.00000E+00
    0.00000E+00         0.00000E+00         0.00000E+00
 
    0.35595E+07        -0.38523E+07         0.00000E+00
   -0.38523E+07        -0.40168E+07         0.00000E+00
    0.00000E+00         0.00000E+00         0.00000E+00
 
    0.37384E+07        -0.37376E+07         0.00000E+00
   -0.37376E+07        -0.41928E+07         0.00000E+00
    0.00000E+00         0.00000E+00         0.00000E+00
 
    0.39042E+07        -0.36117E+07         0.00000E+00
   -0.36117E+07        -0.43555E+07         0.00000E+00
    0.00000E+00         0.00000E+00         0.00000E+00
 
    0.40579E+07        -0.34766E+07         0.00000E+00
   -0.34766E+07        -0.45063E+07         0.00000E+00
    0.00000E+00         0.00000E+00         0.00000E+00
 
    0.42007E+07        -0.33339E+07         0.00000E+00
   -0.33339E+07        -0.46463E+07         0.00000E+00
    0.00000E+00         0.00000E+00         0.00000E+00
 
    0.43339E+07        -0.31847E+07         0.00000E+00
   -0.31847E+07        -0.47769E+07         0.00000E+00
    0.00000E+00         0.00000E+00         0.00000E+00
 
    0.44587E+07        -0.30295E+07         0.00000E+00
   -0.30295E+07        -0.48992E+07         0.00000E+00
    0.00000E+00         0.00000E+00         0.00000E+00
 
    0.45764E+07        -0.28684E+07         0.00000E+00
   -0.28684E+07        -0.50145E+07         0.00000E+00
    0.00000E+00         0.00000E+00         0.00000E+00
 
    0.46880E+07        -0.27011E+07         0.00000E+00
   -0.27011E+07        -0.51237E+07         0.00000E+00
    0.00000E+00         0.00000E+00         0.00000E+00
 
    0.47944E+07        -0.25271E+07         0.00000E+00
   -0.25271E+07        -0.52279E+07         0.00000E+00
    0.00000E+00         0.00000E+00         0.00000E+00
 
    0.48962E+07        -0.23452E+07         0.00000E+00
   -0.23452E+07        -0.53277E+07         0.00000E+00
    0.00000E+00         0.00000E+00         0.00000E+00
 
    0.49938E+07        -0.21542E+07         0.00000E+00
   -0.21542E+07        -0.54235E+07         0.00000E+00
    0.00000E+00         0.00000E+00         0.00000E+00
 
    0.50875E+07        -0.19524E+07         0.00000E+00
   -0.19524E+07        -0.55156E+07         0.00000E+00
    0.00000E+00         0.00000E+00         0.00000E+00
 
    0.51768E+07        -0.17376E+07         0.00000E+00
   -0.17376E+07        -0.56037E+07         0.00000E+00
    0.00000E+00         0.00000E+00         0.00000E+00
 
    0.52611E+07        -0.15076E+07         0.00000E+00
   -0.15076E+07        -0.56874E+07         0.00000E+00
    0.00000E+00         0.00000E+00         0.00000E+00
 
    0.53393E+07        -0.12595E+07         0.00000E+00
   -0.12595E+07        -0.57657E+07         0.00000E+00
    0.00000E+00         0.00000E+00         0.00000E+00
 
    0.54093E+07        -0.99022E+06         0.00000E+00
   -0.99022E+06        -0.58371E+07         0.00000E+00
    0.00000E+00         0.00000E+00         0.00000E+00
 
    0.54685E+07        -0.69640E+06         0.00000E+00
   -0.69640E+06        -0.58997E+07         0.00000E+00
    0.00000E+00         0.00000E+00         0.00000E+00
 
    0.55132E+07        -0.37422E+06         0.00000E+00
   -0.37422E+06        -0.59508E+07         0.00000E+00
    0.00000E+00         0.00000E+00         0.00000E+00
 
    0.55386E+07        -0.19607E+05         0.00000E+00
   -0.19607E+05        -0.59867E+07         0.00000E+00
    0.00000E+00         0.00000E+00         0.00000E+00
 
    0.55382E+07         0.37175E+06         0.00000E+00
    0.37175E+06        -0.60032E+07         0.00000E+00
    0.00000E+00         0.00000E+00         0.00000E+00
 
    0.55039E+07         0.80426E+06         0.00000E+00
    0.80426E+06        -0.59947E+07         0.00000E+00
    0.00000E+00         0.00000E+00         0.00000E+00
 
    0.54251E+07         0.12823E+07         0.00000E+00
    0.12823E+07        -0.59545E+07         0.00000E+00
    0.00000E+00         0.00000E+00         0.00000E+00
 
    0.52881E+07         0.18099E+07         0.00000E+00
    0.18099E+07        -0.58745E+07         0.00000E+00
    0.00000E+00         0.00000E+00         0.00000E+00
 
    0.50755E+07         0.23902E+07         0.00000E+00
    0.23902E+07        -0.57445E+07         0.00000E+00
    0.00000E+00         0.00000E+00         0.00000E+00
 
    0.47640E+07         0.30246E+07         0.00000E+00
    0.30246E+07        -0.55515E+07         0.00000E+00
    0.00000E+00         0.00000E+00         0.00000E+00
 
    0.43223E+07         0.37093E+07         0.00000E+00
    0.37093E+07        -0.52789E+07         0.00000E+00
    0.00000E+00         0.00000E+00         0.00000E+00
 
    0.37122E+07         0.44285E+07         0.00000E+00
    0.44285E+07        -0.49058E+07         0.00000E+00
    0.00000E+00         0.00000E+00         0.00000E+00
 
    0.28988E+07         0.51450E+07         0.00000E+00
    0.51450E+07        -0.44172E+07         0.00000E+00
    0.00000E+00         0.00000E+00         0.00000E+00
 
    0.18719E+07         0.58042E+07         0.00000E+00
    0.58042E+07        -0.38205E+07         0.00000E+00
    0.00000E+00         0.00000E+00         0.00000E+00
 
    0.65305E+06         0.63608E+07         0.00000E+00
    0.63608E+07        -0.31547E+07         0.00000E+00
    0.00000E+00         0.00000E+00         0.00000E+00
 
    0.41656E+07        -0.56481E+05         0.00000E+00
   -0.56481E+05        -0.13209E+07         0.00000E+00
    0.00000E+00         0.00000E+00         0.00000E+00
 
    0.31959E+07        -0.31205E+06         0.00000E+00
   -0.31205E+06        -0.12238E+07         0.00000E+00
    0.00000E+00         0.00000E+00         0.00000E+00
 
    0.23750E+07        -0.71802E+06         0.00000E+00
   -0.71802E+06        -0.11030E+07         0.00000E+00
    0.00000E+00         0.00000E+00         0.00000E+00
 
    0.17405E+07        -0.12188E+07         0.00000E+00
   -0.12188E+07        -0.10172E+07         0.00000E+00
    0.00000E+00         0.00000E+00         0.00000E+00
 
    0.13005E+07        -0.17602E+07         0.00000E+00
   -0.17602E+07        -0.99713E+06         0.00000E+00
    0.00000E+00         0.00000E+00         0.00000E+00
 
    0.10422E+07        -0.22970E+07         0.00000E+00
   -0.22970E+07        -0.10526E+07         0.00000E+00
    0.00000E+00         0.00000E+00         0.00000E+00
 
    0.94063E+06        -0.27958E+07         0.00000E+00
   -0.27958E+07        -0.11800E+07         0.00000E+00
    0.00000E+00         0.00000E+00         0.00000E+00
 
    0.96589E+06        -0.32351E+07         0.00000E+00
   -0.32351E+07        -0.13681E+07         0.00000E+00
    0.00000E+00         0.00000E+00         0.00000E+00
 
    0.10875E+07        -0.36034E+07         0.00000E+00
   -0.36034E+07        -0.16023E+07         0.00000E+00
    0.00000E+00         0.00000E+00         0.00000E+00
 
    0.12777E+07        -0.38970E+07         0.00000E+00
   -0.38970E+07        -0.18680E+07         0.00000E+00
    0.00000E+00         0.00000E+00         0.00000E+00
 
    0.15126E+07        -0.41177E+07         0.00000E+00
   -0.41177E+07        -0.21517E+07         0.00000E+00
    0.00000E+00         0.00000E+00         0.00000E+00
 
    0.17729E+07        -0.42709E+07         0.00000E+00
   -0.42709E+07        -0.24420E+07         0.00000E+00
    0.00000E+00         0.00000E+00         0.00000E+00
 
    0.20439E+07        -0.43637E+07         0.00000E+00
   -0.43637E+07        -0.27301E+07         0.00000E+00
    0.00000E+00         0.00000E+00         0.00000E+00
 
    0.23146E+07        -0.44044E+07         0.00000E+00
   -0.44044E+07        -0.30091E+07         0.00000E+00
    0.00000E+00         0.00000E+00         0.00000E+00
 
    0.25773E+07        -0.44010E+07         0.00000E+00
   -0.44010E+07        -0.32747E+07         0.00000E+00
    0.00000E+00         0.00000E+00         0.00000E+00
 
    0.28271E+07        -0.43612E+07         0.00000E+00
   -0.43612E+07        -0.35238E+07         0.00000E+00
    0.00000E+00         0.00000E+00         0.00000E+00
 
    0.30611E+07        -0.42919E+07         0.00000E+00
   -0.42919E+07        -0.37549E+07         0.00000E+00
    0.00000E+00         0.00000E+00         0.00000E+00
 
    0.32778E+07        -0.41992E+07         0.00000E+00
   -0.41992E+07        -0.39677E+07         0.00000E+00
    0.00000E+00         0.00000E+00         0.00000E+00
 
    0.34771E+07        -0.40881E+07         0.00000E+00
   -0.40881E+07        -0.41625E+07         0.00000E+00
    0.00000E+00         0.00000E+00         0.00000E+00
 
    0.36594E+07        -0.39631E+07         0.00000E+00
   -0.39631E+07        -0.43401E+07         0.00000E+00
    0.00000E+00         0.00000E+00         0.00000E+00
 
    0.38260E+07        -0.38274E+07         0.00000E+00
   -0.38274E+07        -0.45020E+07         0.00000E+00
    0.00000E+00         0.00000E+00         0.00000E+00
 
    0.39781E+07        -0.36837E+07         0.00000E+00
   -0.36837E+07        -0.46496E+07         0.00000E+00
    0.00000E+00         0.00000E+00         0.00000E+00
 
    0.41175E+07        -0.35341E+07         0.00000E+00
   -0.35341E+07        -0.47845E+07         0.00000E+00
    0.00000E+00         0.00000E+00         0.00000E+00
 
    0.42457E+07        -0.33798E+07         0.00000E+00
   -0.33798E+07        -0.49086E+07         0.00000E+00
    0.00000E+00         0.00000E+00         0.00000E+00
 
    0.43645E+07        -0.32218E+07         0.00000E+00
   -0.32218E+07        -0.50235E+07         0.00000E+00
    0.00000E+00         0.00000E+00         0.00000E+00
 
    0.44754E+07        -0.30603E+07         0.00000E+00
   -0.30603E+07        -0.51306E+07         0.00000E+00
    0.00000E+00         0.00000E+00         0.00000E+00
 
    0.45799E+07        -0.28952E+07         0.00000E+00
   -0.28952E+07        -0.52316E+07         0.00000E+00
    0.00000E+00         0.00000E+00         0.00000E+00
 
    0.46794E+07        -0.27260E+07         0.00000E+00
   -0.27260E+07        -0.53276E+07         0.00000E+00
    0.00000E+00         0.00000E+00         0.00000E+00
 
    0.47749E+07        -0.25519E+07         0.00000E+00
   -0.25519E+07        -0.54198E+07         0.00000E+00
    0.00000E+00         0.00000E+00         0.00000E+00
 
    0.48673E+07        -0.23716E+07         0.00000E+00
   -0.23716E+07        -0.55091E+07         0.00000E+00
    0.00000E+00         0.00000E+00         0.00000E+00
 
    0.49574E+07        -0.21835E+07         0.00000E+00
   -0.21835E+07        -0.55962E+07         0.00000E+00
    0.00000E+00         0.00000E+00         0.00000E+00
 
    0.50453E+07        -0.19856E+07         0.00000E+00
   -0.19856E+07        -0.56815E+07         0.00000E+00
    0.00000E+00         0.00000E+00         0.00000E+00
 
    0.51312E+07        -0.17757E+07         0.00000E+00
   -0.17757E+07        -0.57650E+07         0.00000E+00
    0.00000E+00         0.00000E+00         0.00000E+00
 
    0.52146E+07        -0.15509E+07         0.00000E+00
   -0.15509E+07        -0.58465E+07         0.00000E+00
    0.00000E+00         0.00000E+00         0.00000E+00
 
    0.52945E+07        -0.13083E+07         0.00000E+00
   -0.13083E+07        -0.59253E+07         0.00000E+00
    0.00000E+00         0.00000E+00         0.00000E+00
 
    0.53693E+07        -0.10441E+07         0.00000E+00
   -0.10441E+07        -0.60003E+07         0.00000E+00
    0.00000E+00         0.00000E+00         0.00000E+00
 
    0.54367E+07        -0.75451E+06         0.00000E+00
   -0.75451E+06        -0.60697E+07         0.00000E+00
    0.00000E+00         0.00000E+00         0.00000E+00
 
    0.54933E+07        -0.43489E+06         0.00000E+00
   -0.43489E+06        -0.61311E+07         0.00000E+00
    0.00000E+00         0.00000E+00         0.00000E+00
 
    0.55346E+07        -0.80352E+05         0.00000E+00
   -0.80352E+05        -0.61814E+07         0.00000E+00
    0.00000E+00         0.00000E+00         0.00000E+00
 
    0.55545E+07         0.31449E+06         0.00000E+00
    0.31449E+06        -0.62163E+07         0.00000E+00
    0.00000E+00         0.00000E+00         0.00000E+00
 
    0.55449E+07         0.75537E+06         0.00000E+00
    0.75537E+06        -0.62305E+07         0.00000E+00
    0.00000E+00         0.00000E+00         0.00000E+00
 
    0.54956E+07         0.12482E+07         0.00000E+00
    0.12482E+07        -0.62176E+07         0.00000E+00
    0.00000E+00         0.00000E+00         0.00000E+00
 
    0.53931E+07         0.17992E+07         0.00000E+00
    0.17992E+07        -0.61693E+07         0.00000E+00
    0.00000E+00         0.00000E+00         0.00000E+00
 
    0.52200E+07         0.24142E+07         0.00000E+00
    0.24142E+07        -0.60753E+07         0.00000E+00
    0.00000E+00         0.00000E+00         0.00000E+00
 
    0.49525E+07         0.30989E+07         0.00000E+00
    0.30989E+07        -0.59227E+07         0.00000E+00
    0.00000E+00         0.00000E+00         0.00000E+00
 
    0.45563E+07         0.38574E+07         0.00000E+00
    0.38574E+07        -0.56931E+07         0.00000E+00
    0.00000E+00         0.00000E+00         0.00000E+00
 
    0.39783E+07         0.46855E+07         0.00000E+00
    0.46855E+07        -0.53588E+07         0.00000E+00
    0.00000E+00         0.00000E+00         0.00000E+00
 
    0.31533E+07         0.55466E+07         0.00000E+00
    0.55466E+07        -0.48829E+07         0.00000E+00
    0.00000E+00         0.00000E+00         0.00000E+00
 
    0.20494E+07         0.63565E+07         0.00000E+00
    0.63565E+07        -0.42562E+07         0.00000E+00
    0.00000E+00         0.00000E+00         0.00000E+00
 
    0.71393E+06         0.70314E+07         0.00000E+00
    0.70314E+07        -0.35298E+07         0.00000E+00
    0.00000E+00         0.00000E+00         0.00000E+00
 
    0.42380E+07        -0.83930E+05         0.00000E+00
   -0.83930E+05        -0.10595E+07         0.00000E+00
    0.00000E+00         0.00000E+00         0.00000E+00
 
    0.30864E+07        -0.42710E+06         0.00000E+00
   -0.42710E+06        -0.97784E+06         0.00000E+00
    0.00000E+00         0.00000E+00         0.00000E+00
 
    0.21513E+07        -0.93973E+06         0.00000E+00
   -0.93973E+06        -0.89605E+06         0.00000E+00
    0.00000E+00         0.00000E+00         0.00000E+00
 
    0.14647E+07        -0.15429E+07         0.00000E+00
   -0.15429E+07        -0.87272E+06         0.00000E+00
    0.00000E+00         0.00000E+00         0.00000E+00
 
    0.10213E+07        -0.21678E+07         0.00000E+00
   -0.21678E+07        -0.93175E+06         0.00000E+00
    0.00000E+00         0.00000E+00         0.00000E+00
 
    0.79299E+06        -0.27620E+07         0.00000E+00
   -0.27620E+07        -0.10742E+07         0.00000E+00
    0.00000E+00         0.00000E+00         0.00000E+00
 
    0.74075E+06        -0.32912E+07         0.00000E+00
   -0.32912E+07        -0.12881E+07         0.00000E+00
    0.00000E+00         0.00000E+00         0.00000E+00
 
    0.82304E+06        -0.37363E+07         0.00000E+00
   -0.37363E+07        -0.15560E+07         0.00000E+00
    0.00000E+00         0.00000E+00         0.00000E+00
 
    0.10012E+07        -0.40905E+07         0.00000E+00
   -0.40905E+07        -0.18594E+07         0.00000E+00
    0.00000E+00         0.00000E+00         0.00000E+00
 
    0.12419E+07        -0.43552E+07         0.00000E+00
   -0.43552E+07        -0.21816E+07         0.00000E+00
    0.00000E+00         0.00000E+00         0.00000E+00
 
    0.15187E+07        -0.45371E+07         0.00000E+00
   -0.45371E+07        -0.25086E+07         0.00000E+00
    0.00000E+00         0.00000E+00         0.00000E+00
 
    0.18111E+07        -0.46458E+07         0.00000E+00
   -0.46458E+07        -0.28296E+07         0.00000E+00
    0.00000E+00         0.00000E+00         0.00000E+00
 
    0.21042E+07        -0.46918E+07         0.00000E+00
   -0.46918E+07        -0.31371E+07         0.00000E+00
    0.00000E+00         0.00000E+00         0.00000E+00
 
    0.23880E+07        -0.46858E+07         0.00000E+00
   -0.46858E+07        -0.34258E+07         0.00000E+00
    0.00000E+00         0.00000E+00         0.00000E+00
 
    0.26560E+07        -0.46376E+07         0.00000E+00
   -0.46376E+07        -0.36928E+07         0.00000E+00
    0.00000E+00         0.00000E+00         0.00000E+00
 
    0.29044E+07        -0.45563E+07         0.00000E+00
   -0.45563E+07        -0.39369E+07         0.00000E+00
    0.00000E+00         0.00000E+00         0.00000E+00
 
    0.31316E+07        -0.44493E+07         0.00000E+00
   -0.44493E+07        -0.41578E+07         0.00000E+00
    0.00000E+00         0.00000E+00         0.00000E+00
 
    0.33375E+07        -0.43231E+07         0.00000E+00
   -0.43231E+07        -0.43565E+07         0.00000E+00
    0.00000E+00         0.00000E+00         0.00000E+00
 
    0.35229E+07        -0.41829E+07         0.00000E+00
   -0.41829E+07        -0.45344E+07         0.00000E+00
    0.00000E+00         0.00000E+00         0.00000E+00
 
    0.36892E+07        -0.40329E+07         0.00000E+00
   -0.40329E+07        -0.46932E+07         0.00000E+00
    0.00000E+00         0.00000E+00         0.00000E+00
 
    0.38383E+07        -0.38763E+07         0.00000E+00
   -0.38763E+07        -0.48351E+07         0.00000E+00
    0.00000E+00         0.00000E+00         0.00000E+00
 
    0.39722E+07        -0.37156E+07         0.00000E+00
   -0.37156E+07        -0.49622E+07         0.00000E+00
    0.00000E+00         0.00000E+00         0.00000E+00
 
    0.40932E+07        -0.35524E+07         0.00000E+00
   -0.35524E+07        -0.50767E+07         0.00000E+00
    0.00000E+00         0.00000E+00         0.00000E+00
 
    0.42032E+07        -0.33878E+07         0.00000E+00
   -0.33878E+07        -0.51805E+07         0.00000E+00
    0.00000E+00         0.00000E+00         0.00000E+00
 
    0.43042E+07        -0.32223E+07         0.00000E+00
   -0.32223E+07        -0.52758E+07         0.00000E+00
    0.00000E+00         0.00000E+00         0.00000E+00
 
    0.43983E+07        -0.30561E+07         0.00000E+00
   -0.30561E+07        -0.53643E+07         0.00000E+00
    0.00000E+00         0.00000E+00         0.00000E+00
 
    0.44871E+07        -0.28886E+07         0.00000E+00
   -0.28886E+07        -0.54478E+07         0.00000E+00
    0.00000E+00         0.00000E+00         0.00000E+00
 
    0.45721E+07        -0.27193E+07         0.00000E+00
   -0.27193E+07        -0.55277E+07         0.00000E+00
    0.00000E+00         0.00000E+00         0.00000E+00
 
    0.46546E+07        -0.25469E+07         0.00000E+00
   -0.25469E+07        -0.56054E+07         0.00000E+00
    0.00000E+00         0.00000E+00         0.00000E+00
 
    0.47358E+07        -0.23699E+07         0.00000E+00
   -0.23699E+07        -0.56818E+07         0.00000E+00
    0.00000E+00         0.00000E+00         0.00000E+00
 
    0.48165E+07        -0.21866E+07         0.00000E+00
   -0.21866E+07        -0.57580E+07         0.00000E+00
    0.00000E+00         0.00000E+00         0.00000E+00
 
    0.48973E+07        -0.19947E+07         0.00000E+00
   -0.19947E+07        -0.58344E+07         0.00000E+00
    0.00000E+00         0.00000E+00         0.00000E+00
 
    0.49783E+07        -0.17917E+07         0.00000E+00
   -0.17917E+07        -0.59115E+07         0.00000E+00
    0.00000E+00         0.00000E+00         0.00000E+00
 
    0.50595E+07        -0.15746E+07         0.00000E+00
   -0.15746E+07        -0.59891E+07         0.00000E+00
    0.00000E+00         0.00000E+00         0.00000E+00
 
    0.51403E+07        -0.13398E+07         0.00000E+00
   -0.13398E+07        -0.60669E+07         0.00000E+00
    0.00000E+00         0.00000E+00         0.00000E+00
 
    0.52193E+07        -0.10833E+07         0.00000E+00
   -0.10833E+07        -0.61440E+07         0.00000E+00
    0.00000E+00         0.00000E+00         0.00000E+00
 
    0.52946E+07        -0.80076E+06         0.00000E+00
   -0.80076E+06        -0.62192E+07         0.00000E+00
    0.00000E+00         0.00000E+00         0.00000E+00
 
    0.53634E+07        -0.48684E+06         0.00000E+00
   -0.48684E+06        -0.62903E+07         0.00000E+00
    0.00000E+00         0.00000E+00         0.00000E+00
 
    0.54215E+07        -0.13579E+06         0.00000E+00
   -0.13579E+06        -0.63545E+07         0.00000E+00
    0.00000E+00         0.00000E+00         0.00000E+00
 
    0.54633E+07         0.25885E+06         0.00000E+00
    0.25885E+06        -0.64081E+07         0.00000E+00
    0.00000E+00         0.00000E+00         0.00000E+00
 
    0.54812E+07         0.70413E+06         0.00000E+00
    0.70413E+06        -0.64459E+07         0.00000E+00
    0.00000E+00         0.00000E+00         0.00000E+00
 
    0.54654E+07         0.12076E+07         0.00000E+00
    0.12076E+07        -0.64616E+07         0.00000E+00
    0.00000E+00         0.00000E+00         0.00000E+00
 
    0.54031E+07         0.17772E+07         0.00000E+00
    0.17772E+07        -0.64467E+07         0.00000E+00
    0.00000E+00         0.00000E+00         0.00000E+00
 
    0.52776E+07         0.24211E+07         0.00000E+00
    0.24211E+07        -0.63910E+07         0.00000E+00
    0.00000E+00         0.00000E+00         0.00000E+00
 
    0.50668E+07         0.31481E+07         0.00000E+00
    0.31481E+07        -0.62813E+07         0.00000E+00
    0.00000E+00         0.00000E+00         0.00000E+00
 
    0.47393E+07         0.39686E+07         0.00000E+00
    0.39686E+07        -0.60999E+07         0.00000E+00
    0.00000E+00         0.00000E+00         0.00000E+00
 
    0.42384E+07         0.48954E+07         0.00000E+00
    0.48954E+07        -0.58202E+07         0.00000E+00
    0.00000E+00         0.00000E+00         0.00000E+00
 
    0.34509E+07         0.59231E+07         0.00000E+00
    0.59231E+07        -0.53931E+07         0.00000E+00
    0.00000E+00         0.00000E+00         0.00000E+00
 
    0.22694E+07         0.69351E+07         0.00000E+00
    0.69351E+07        -0.47566E+07         0.00000E+00
    0.00000E+00         0.00000E+00         0.00000E+00
 
    0.78599E+06         0.77493E+07         0.00000E+00
    0.77493E+07        -0.39947E+07         0.00000E+00
    0.00000E+00         0.00000E+00         0.00000E+00
 
    0.42486E+07        -0.12587E+06         0.00000E+00
   -0.12587E+06        -0.78069E+06         0.00000E+00
    0.00000E+00         0.00000E+00         0.00000E+00
 
    0.28777E+07        -0.58835E+06         0.00000E+00
   -0.58835E+06        -0.72945E+06         0.00000E+00
    0.00000E+00         0.00000E+00         0.00000E+00
 
    0.18179E+07        -0.12334E+07         0.00000E+00
   -0.12334E+07        -0.71183E+06         0.00000E+00
    0.00000E+00         0.00000E+00         0.00000E+00
 
    0.10860E+07        -0.19534E+07         0.00000E+00
   -0.19534E+07        -0.77992E+06         0.00000E+00
    0.00000E+00         0.00000E+00         0.00000E+00
 
    0.65440E+06        -0.26637E+07         0.00000E+00
   -0.26637E+07        -0.94524E+06         0.00000E+00
    0.00000E+00         0.00000E+00         0.00000E+00
 
    0.47289E+06        -0.33075E+07         0.00000E+00
   -0.33075E+07        -0.11963E+07         0.00000E+00
    0.00000E+00         0.00000E+00         0.00000E+00
 
    0.48404E+06        -0.38524E+07         0.00000E+00
   -0.38524E+07        -0.15115E+07         0.00000E+00
    0.00000E+00         0.00000E+00         0.00000E+00
 
    0.63292E+06        -0.42853E+07         0.00000E+00
   -0.42853E+07        -0.18668E+07         0.00000E+00
    0.00000E+00         0.00000E+00         0.00000E+00
 
    0.87214E+06        -0.46065E+07         0.00000E+00
   -0.46065E+07        -0.22407E+07         0.00000E+00
    0.00000E+00         0.00000E+00         0.00000E+00
 
    0.11637E+07        -0.48243E+07         0.00000E+00
   -0.48243E+07        -0.26157E+07         0.00000E+00
    0.00000E+00         0.00000E+00         0.00000E+00
 
    0.14790E+07        -0.49515E+07         0.00000E+00
   -0.49515E+07        -0.29788E+07         0.00000E+00
    0.00000E+00         0.00000E+00         0.00000E+00
 
    0.17975E+07        -0.50024E+07         0.00000E+00
   -0.50024E+07        -0.33212E+07         0.00000E+00
    0.00000E+00         0.00000E+00         0.00000E+00
 
    0.21053E+07        -0.49910E+07         0.00000E+00
   -0.49910E+07        -0.36375E+07         0.00000E+00
    0.00000E+00         0.00000E+00         0.00000E+00
 
    0.23940E+07        -0.49303E+07         0.00000E+00
   -0.49303E+07        -0.39248E+07         0.00000E+00
    0.00000E+00         0.00000E+00         0.00000E+00
 
    0.26587E+07        -0.48318E+07         0.00000E+00
   -0.48318E+07        -0.41824E+07         0.00000E+00
    0.00000E+00         0.00000E+00         0.00000E+00
 
    0.28974E+07        -0.47050E+07         0.00000E+00
   -0.47050E+07        -0.44110E+07         0.00000E+00
    0.00000E+00         0.00000E+00         0.00000E+00
 
    0.31101E+07        -0.45581E+07         0.00000E+00
   -0.45581E+07        -0.46121E+07         0.00000E+00
    0.00000E+00         0.00000E+00         0.00000E+00
 
    0.32980E+07        -0.43975E+07         0.00000E+00
   -0.43975E+07        -0.47879E+07         0.00000E+00
    0.00000E+00         0.00000E+00         0.00000E+00
 
    0.34629E+07        -0.42281E+07         0.00000E+00
   -0.42281E+07        -0.49410E+07         0.00000E+00
    0.00000E+00         0.00000E+00         0.00000E+00
 
    0.36074E+07        -0.40538E+07         0.00000E+00
   -0.40538E+07        -0.50740E+07         0.00000E+00
    0.00000E+00         0.00000E+00         0.00000E+00
 
    0.37339E+07        -0.38776E+07         0.00000E+00
   -0.38776E+07        -0.51897E+07         0.00000E+00
    0.00000E+00         0.00000E+00         0.00000E+00
 
    0.38452E+07        -0.37013E+07         0.00000E+00
   -0.37013E+07        -0.52908E+07         0.00000E+00
    0.00000E+00         0.00000E+00         0.00000E+00
 
    0.39438E+07        -0.35263E+07         0.00000E+00
   -0.35263E+07        -0.53799E+07         0.00000E+00
    0.00000E+00         0.00000E+00         0.00000E+00
 
    0.40322E+07        -0.33533E+07         0.00000E+00
   -0.33533E+07        -0.54592E+07         0.00000E+00
    0.00000E+00         0.00000E+00         0.00000E+00
 
    0.41126E+07        -0.31825E+07         0.00000E+00
   -0.31825E+07        -0.55312E+07         0.00000E+00
    0.00000E+00         0.00000E+00         0.00000E+00
 
    0.41873E+07        -0.30135E+07         0.00000E+00
   -0.30135E+07        -0.55978E+07         0.00000E+00
    0.00000E+00         0.00000E+00         0.00000E+00
 
    0.42580E+07        -0.28457E+07         0.00000E+00
   -0.28457E+07        -0.56608E+07         0.00000E+00
    0.00000E+00         0.00000E+00         0.00000E+00
 
    0.43266E+07        -0.26781E+07         0.00000E+00
   -0.26781E+07        -0.57219E+07         0.00000E+00
    0.00000E+00         0.00000E+00         0.00000E+00
 
    0.43944E+07        -0.25094E+07         0.00000E+00
   -0.25094E+07        -0.57826E+07         0.00000E+00
    0.00000E+00         0.00000E+00         0.00000E+00
 
    0.44628E+07        -0.23378E+07         0.00000E+00
   -0.23378E+07        -0.58439E+07         0.00000E+00
    0.00000E+00         0.00000E+00         0.00000E+00
 
    0.45328E+07        -0.21613E+07         0.00000E+00
   -0.21613E+07        -0.59071E+07         0.00000E+00
    0.00000E+00         0.00000E+00         0.00000E+00
 
    0.46051E+07        -0.19774E+07         0.00000E+00
   -0.19774E+07        -0.59727E+07         0.00000E+00
    0.00000E+00         0.00000E+00         0.00000E+00
 
    0.46803E+07        -0.17835E+07         0.00000E+00
   -0.17835E+07        -0.60414E+07         0.00000E+00
    0.00000E+00         0.00000E+00         0.00000E+00
 
    0.47585E+07        -0.15761E+07         0.00000E+00
   -0.15761E+07        -0.61134E+07         0.00000E+00
    0.00000E+00         0.00000E+00         0.00000E+00
 
    0.48393E+07        -0.13516E+07         0.00000E+00
   -0.13516E+07        -0.61886E+07         0.00000E+00
    0.00000E+00         0.00000E+00         0.00000E+00
 
    0.49221E+07        -0.11055E+07         0.00000E+00
   -0.11055E+07        -0.62666E+07         0.00000E+00
    0.00000E+00         0.00000E+00         0.00000E+00
 
    0.50053E+07        -0.83289E+06         0.00000E+00
   -0.83289E+06        -0.63463E+07         0.00000E+00
    0.00000E+00         0.00000E+00         0.00000E+00
 
    0.50866E+07        -0.52789E+06         0.00000E+00
   -0.52789E+06        -0.64262E+07         0.00000E+00
    0.00000E+00         0.00000E+00         0.00000E+00
 
    0.51625E+07        -0.18389E+06         0.00000E+00
   -0.18389E+06        -0.65040E+07         0.00000E+00
    0.00000E+00         0.00000E+00         0.00000E+00
 
    0.52282E+07         0.20666E+06         0.00000E+00
    0.20666E+06        -0.65764E+07         0.00000E+00
    0.00000E+00         0.00000E+00         0.00000E+00
 
    0.52768E+07         0.65219E+06         0.00000E+00
    0.65219E+06        -0.66385E+07         0.00000E+00
    0.00000E+00         0.00000E+00         0.00000E+00
 
    0.52992E+07         0.11619E+07         0.00000E+00
    0.11619E+07        -0.66841E+07         0.00000E+00
    0.00000E+00         0.00000E+00         0.00000E+00
 
    0.52833E+07         0.17456E+07         0.00000E+00
    0.17456E+07        -0.67044E+07         0.00000E+00
    0.00000E+00         0.00000E+00         0.00000E+00
 
    0.52137E+07         0.24135E+07         0.00000E+00
    0.24135E+07        -0.66883E+07         0.00000E+00
    0.00000E+00         0.00000E+00         0.00000E+00
 
    0.50712E+07         0.31764E+07         0.00000E+00
    0.31764E+07        -0.66210E+07         0.00000E+00
    0.00000E+00         0.00000E+00         0.00000E+00
 
    0.48300E+07         0.40476E+07         0.00000E+00
    0.40476E+07        -0.64838E+07         0.00000E+00
    0.00000E+00         0.00000E+00         0.00000E+00
 
    0.44519E+07         0.50471E+07         0.00000E+00
    0.50471E+07        -0.62488E+07         0.00000E+00
    0.00000E+00         0.00000E+00         0.00000E+00
 
    0.37963E+07         0.62157E+07         0.00000E+00
    0.62157E+07        -0.58524E+07         0.00000E+00
    0.00000E+00         0.00000E+00         0.00000E+00
 
    0.25836E+07         0.74706E+07         0.00000E+00
    0.74706E+07        -0.52995E+07         0.00000E+00
    0.00000E+00         0.00000E+00        -0.48386E+04
 
    0.82091E+06         0.83588E+07         0.00000E+00
    0.83588E+07        -0.46995E+07         0.00000E+00
    0.00000E+00         0.00000E+00        -0.70944E+05
 
    0.41358E+07        -0.18931E+06         0.00000E+00
   -0.18931E+06        -0.51113E+06         0.00000E+00
    0.00000E+00         0.00000E+00         0.00000E+00
 
    0.25083E+07        -0.81235E+06         0.00000E+00
   -0.81235E+06        -0.51141E+06         0.00000E+00
    0.00000E+00         0.00000E+00         0.00000E+00
 
    0.13214E+07        -0.16182E+07         0.00000E+00
   -0.16182E+07        -0.59091E+06         0.00000E+00
    0.00000E+00         0.00000E+00         0.00000E+00
 
    0.56029E+06        -0.24657E+07         0.00000E+00
   -0.24657E+07        -0.78512E+06         0.00000E+00
    0.00000E+00         0.00000E+00         0.00000E+00
 
    0.16284E+06        -0.32567E+07         0.00000E+00
   -0.32567E+07        -0.10860E+07         0.00000E+00
    0.00000E+00         0.00000E+00         0.00000E+00
 
    0.48821E+05        -0.39340E+07         0.00000E+00
   -0.39340E+07        -0.14660E+07         0.00000E+00
    0.00000E+00         0.00000E+00         0.00000E+00
 
    0.13841E+06        -0.44724E+07         0.00000E+00
   -0.44724E+07        -0.18928E+07         0.00000E+00
    0.00000E+00         0.00000E+00         0.00000E+00
 
    0.36203E+06        -0.48689E+07         0.00000E+00
   -0.48689E+07        -0.23370E+07         0.00000E+00
    0.00000E+00         0.00000E+00         0.00000E+00
 
    0.66409E+06        -0.51339E+07         0.00000E+00
   -0.51339E+07        -0.27760E+07         0.00000E+00
    0.00000E+00         0.00000E+00         0.00000E+00
 
    0.10031E+07        -0.52845E+07         0.00000E+00
   -0.52845E+07        -0.31935E+07         0.00000E+00
    0.00000E+00         0.00000E+00         0.00000E+00
 
    0.13499E+07        -0.53403E+07         0.00000E+00
   -0.53403E+07        -0.35794E+07         0.00000E+00
    0.00000E+00         0.00000E+00         0.00000E+00
 
    0.16853E+07        -0.53203E+07         0.00000E+00
   -0.53203E+07        -0.39284E+07         0.00000E+00
    0.00000E+00         0.00000E+00         0.00000E+00
 
    0.19975E+07        -0.52420E+07         0.00000E+00
   -0.52420E+07        -0.42385E+07         0.00000E+00
    0.00000E+00         0.00000E+00         0.00000E+00
 
    0.22805E+07        -0.51203E+07         0.00000E+00
   -0.51203E+07        -0.45099E+07         0.00000E+00
    0.00000E+00         0.00000E+00         0.00000E+00
 
    0.25318E+07        -0.49674E+07         0.00000E+00
   -0.49674E+07        -0.47446E+07         0.00000E+00
    0.00000E+00         0.00000E+00         0.00000E+00
 
    0.27515E+07        -0.47935E+07         0.00000E+00
   -0.47935E+07        -0.49454E+07         0.00000E+00
    0.00000E+00         0.00000E+00         0.00000E+00
 
    0.29412E+07        -0.46063E+07         0.00000E+00
   -0.46063E+07        -0.51157E+07         0.00000E+00
    0.00000E+00         0.00000E+00         0.00000E+00
 
    0.31035E+07        -0.44119E+07         0.00000E+00
   -0.44119E+07        -0.52589E+07         0.00000E+00
    0.00000E+00         0.00000E+00         0.00000E+00
 
    0.32415E+07        -0.42148E+07         0.00000E+00
   -0.42148E+07        -0.53787E+07         0.00000E+00
    0.00000E+00         0.00000E+00         0.00000E+00
 
    0.33585E+07        -0.40184E+07         0.00000E+00
   -0.40184E+07        -0.54785E+07         0.00000E+00
    0.00000E+00         0.00000E+00         0.00000E+00
 
    0.34578E+07        -0.38248E+07         0.00000E+00
   -0.38248E+07        -0.55618E+07         0.00000E+00
    0.00000E+00         0.00000E+00         0.00000E+00
 
    0.35424E+07        -0.36356E+07         0.00000E+00
   -0.36356E+07        -0.56314E+07         0.00000E+00
    0.00000E+00         0.00000E+00         0.00000E+00
 
    0.36153E+07        -0.34515E+07         0.00000E+00
   -0.34515E+07        -0.56904E+07         0.00000E+00
    0.00000E+00         0.00000E+00         0.00000E+00
 
    0.36792E+07        -0.32727E+07         0.00000E+00
   -0.32727E+07        -0.57413E+07         0.00000E+00
    0.00000E+00         0.00000E+00         0.00000E+00
 
    0.37367E+07        -0.30990E+07         0.00000E+00
   -0.30990E+07        -0.57864E+07         0.00000E+00
    0.00000E+00         0.00000E+00         0.00000E+00
 
    0.37900E+07        -0.29297E+07         0.00000E+00
   -0.29297E+07        -0.58280E+07         0.00000E+00
    0.00000E+00         0.00000E+00         0.00000E+00
 
    0.38411E+07        -0.27639E+07         0.00000E+00
   -0.27639E+07        -0.58679E+07         0.00000E+00
    0.00000E+00         0.00000E+00         0.00000E+00
 
    0.38918E+07        -0.26004E+07         0.00000E+00
   -0.26004E+07        -0.59078E+07         0.00000E+00
    0.00000E+00         0.00000E+00         0.00000E+00
 
    0.39437E+07        -0.24375E+07         0.00000E+00
   -0.24375E+07        -0.59492E+07         0.00000E+00
    0.00000E+00         0.00000E+00         0.00000E+00
 
    0.39982E+07        -0.22733E+07         0.00000E+00
   -0.22733E+07        -0.59934E+07         0.00000E+00
    0.00000E+00         0.00000E+00         0.00000E+00
 
    0.40566E+07        -0.21056E+07         0.00000E+00
   -0.21056E+07        -0.60416E+07         0.00000E+00
    0.00000E+00         0.00000E+00         0.00000E+00
 
    0.41197E+07        -0.19319E+07         0.00000E+00
   -0.19319E+07        -0.60947E+07         0.00000E+00
    0.00000E+00         0.00000E+00         0.00000E+00
 
    0.41883E+07        -0.17491E+07         0.00000E+00
   -0.17491E+07        -0.61533E+07         0.00000E+00
    0.00000E+00         0.00000E+00         0.00000E+00
 
    0.42628E+07        -0.15538E+07         0.00000E+00
   -0.15538E+07        -0.62181E+07         0.00000E+00
    0.00000E+00         0.00000E+00         0.00000E+00
 
    0.43434E+07        -0.13419E+07         0.00000E+00
   -0.13419E+07        -0.62892E+07         0.00000E+00
    0.00000E+00         0.00000E+00         0.00000E+00
 
    0.44298E+07        -0.11088E+07         0.00000E+00
   -0.11088E+07        -0.63665E+07         0.00000E+00
    0.00000E+00         0.00000E+00         0.00000E+00
 
    0.45210E+07        -0.84907E+06         0.00000E+00
   -0.84907E+06        -0.64496E+07         0.00000E+00
    0.00000E+00         0.00000E+00         0.00000E+00
 
    0.46155E+07        -0.55632E+06         0.00000E+00
   -0.55632E+06        -0.65374E+07         0.00000E+00
    0.00000E+00         0.00000E+00         0.00000E+00
 
    0.47107E+07        -0.22315E+06         0.00000E+00
   -0.22315E+06        -0.66282E+07         0.00000E+00
    0.00000E+00         0.00000E+00         0.00000E+00
 
    0.48027E+07         0.15904E+06         0.00000E+00
    0.15904E+06        -0.67194E+07         0.00000E+00
    0.00000E+00         0.00000E+00         0.00000E+00
 
    0.48857E+07         0.60012E+06         0.00000E+00
    0.60012E+06        -0.68067E+07         0.00000E+00
    0.00000E+00         0.00000E+00         0.00000E+00
 
    0.49519E+07         0.11112E+07         0.00000E+00
    0.11112E+07        -0.68841E+07         0.00000E+00
    0.00000E+00         0.00000E+00         0.00000E+00
 
    0.49901E+07         0.17042E+07         0.00000E+00
    0.17042E+07        -0.69425E+07         0.00000E+00
    0.00000E+00         0.00000E+00         0.00000E+00
 
    0.49867E+07         0.23918E+07         0.00000E+00
    0.23918E+07        -0.69693E+07         0.00000E+00
    0.00000E+00         0.00000E+00         0.00000E+00
 
    0.49250E+07         0.31869E+07         0.00000E+00
    0.31869E+07        -0.69470E+07         0.00000E+00
    0.00000E+00         0.00000E+00         0.00000E+00
 
    0.47887E+07         0.41040E+07         0.00000E+00
    0.41040E+07        -0.68520E+07         0.00000E+00
    0.00000E+00         0.00000E+00         0.00000E+00
 
    0.45583E+07         0.51688E+07         0.00000E+00
    0.51688E+07        -0.66500E+07         0.00000E+00
    0.00000E+00         0.00000E+00         0.00000E+00
 
    0.42526E+07         0.64678E+07         0.00000E+00
    0.64678E+07        -0.62837E+07         0.00000E+00
    0.00000E+00         0.00000E+00         0.00000E+00
 
    0.27337E+07         0.77162E+07         0.00000E+00
    0.77162E+07        -0.58257E+07         0.00000E+00
    0.00000E+00         0.00000E+00        -0.29211E+06
 
    0.58469E+06         0.85897E+07         0.00000E+00
    0.85897E+07        -0.54312E+07         0.00000E+00
    0.00000E+00         0.00000E+00        -0.50336E+06
 
    0.38008E+07        -0.28379E+06         0.00000E+00
   -0.28379E+06        -0.29994E+06         0.00000E+00
    0.00000E+00         0.00000E+00         0.00000E+00
 
    0.18885E+07        -0.11191E+07         0.00000E+00
   -0.11191E+07        -0.37981E+06         0.00000E+00
    0.00000E+00         0.00000E+00         0.00000E+00
 
    0.58674E+06        -0.21139E+07         0.00000E+00
   -0.21139E+07        -0.59661E+06         0.00000E+00
    0.00000E+00         0.00000E+00         0.00000E+00
 
   -0.17381E+06        -0.30923E+07         0.00000E+00
   -0.30923E+07        -0.95487E+06         0.00000E+00
    0.00000E+00         0.00000E+00         0.00000E+00
 
   -0.50560E+06        -0.39486E+07         0.00000E+00
   -0.39486E+07        -0.14188E+07         0.00000E+00
    0.00000E+00         0.00000E+00         0.00000E+00
 
   -0.52739E+06        -0.46327E+07         0.00000E+00
   -0.46327E+07        -0.19418E+07         0.00000E+00
    0.00000E+00         0.00000E+00         0.00000E+00
 
   -0.34444E+06        -0.51338E+07         0.00000E+00
   -0.51338E+07        -0.24816E+07         0.00000E+00
    0.00000E+00         0.00000E+00         0.00000E+00
 
   -0.40730E+05        -0.54638E+07         0.00000E+00
   -0.54638E+07        -0.30063E+07         0.00000E+00
    0.00000E+00         0.00000E+00         0.00000E+00
 
    0.32177E+06        -0.56462E+07         0.00000E+00
   -0.56462E+07        -0.34951E+07         0.00000E+00
    0.00000E+00         0.00000E+00         0.00000E+00
 
    0.70036E+06        -0.57082E+07         0.00000E+00
   -0.57082E+07        -0.39360E+07         0.00000E+00
    0.00000E+00         0.00000E+00         0.00000E+00
 
    0.10676E+07        -0.56765E+07         0.00000E+00
   -0.56765E+07        -0.43241E+07         0.00000E+00
    0.00000E+00         0.00000E+00         0.00000E+00
 
    0.14072E+07        -0.55746E+07         0.00000E+00
   -0.55746E+07        -0.46590E+07         0.00000E+00
    0.00000E+00         0.00000E+00         0.00000E+00
 
    0.17111E+07        -0.54224E+07         0.00000E+00
   -0.54224E+07        -0.49432E+07         0.00000E+00
    0.00000E+00         0.00000E+00         0.00000E+00
 
    0.19761E+07        -0.52358E+07         0.00000E+00
   -0.52358E+07        -0.51809E+07         0.00000E+00
    0.00000E+00         0.00000E+00         0.00000E+00
 
    0.22028E+07        -0.50275E+07         0.00000E+00
   -0.50275E+07        -0.53767E+07         0.00000E+00
    0.00000E+00         0.00000E+00         0.00000E+00
 
    0.23935E+07        -0.48070E+07         0.00000E+00
   -0.48070E+07        -0.55359E+07         0.00000E+00
    0.00000E+00         0.00000E+00         0.00000E+00
 
    0.25516E+07        -0.45815E+07         0.00000E+00
   -0.45815E+07        -0.56633E+07         0.00000E+00
    0.00000E+00         0.00000E+00         0.00000E+00
 
    0.26812E+07        -0.43563E+07         0.00000E+00
   -0.43563E+07        -0.57637E+07         0.00000E+00
    0.00000E+00         0.00000E+00         0.00000E+00
 
    0.27863E+07        -0.41349E+07         0.00000E+00
   -0.41349E+07        -0.58417E+07         0.00000E+00
    0.00000E+00         0.00000E+00         0.00000E+00
 
    0.28710E+07        -0.39199E+07         0.00000E+00
   -0.39199E+07        -0.59011E+07         0.00000E+00
    0.00000E+00         0.00000E+00         0.00000E+00
 
    0.29389E+07        -0.37127E+07         0.00000E+00
   -0.37127E+07        -0.59457E+07         0.00000E+00
    0.00000E+00         0.00000E+00         0.00000E+00
 
    0.29937E+07        -0.35141E+07         0.00000E+00
   -0.35141E+07        -0.59789E+07         0.00000E+00
    0.00000E+00         0.00000E+00         0.00000E+00
 
    0.30385E+07        -0.33244E+07         0.00000E+00
   -0.33244E+07        -0.60035E+07         0.00000E+00
    0.00000E+00         0.00000E+00         0.00000E+00
 
    0.30761E+07        -0.31431E+07         0.00000E+00
   -0.31431E+07        -0.60223E+07         0.00000E+00
    0.00000E+00         0.00000E+00         0.00000E+00
 
    0.31091E+07        -0.29696E+07         0.00000E+00
   -0.29696E+07        -0.60376E+07         0.00000E+00
    0.00000E+00         0.00000E+00         0.00000E+00
 
    0.31399E+07        -0.28029E+07         0.00000E+00
   -0.28029E+07        -0.60515E+07         0.00000E+00
    0.00000E+00         0.00000E+00         0.00000E+00
 
    0.31705E+07        -0.26419E+07         0.00000E+00
   -0.26419E+07        -0.60659E+07         0.00000E+00
    0.00000E+00         0.00000E+00         0.00000E+00
 
    0.32027E+07        -0.24848E+07         0.00000E+00
   -0.24848E+07        -0.60826E+07         0.00000E+00
    0.00000E+00         0.00000E+00         0.00000E+00
 
    0.32383E+07        -0.23300E+07         0.00000E+00
   -0.23300E+07        -0.61029E+07         0.00000E+00
    0.00000E+00         0.00000E+00         0.00000E+00
 
    0.32786E+07        -0.21755E+07         0.00000E+00
   -0.21755E+07        -0.61283E+07         0.00000E+00
    0.00000E+00         0.00000E+00         0.00000E+00
 
    0.33250E+07        -0.20187E+07         0.00000E+00
   -0.20187E+07        -0.61599E+07         0.00000E+00
    0.00000E+00         0.00000E+00         0.00000E+00
 
    0.33787E+07        -0.18571E+07         0.00000E+00
   -0.18571E+07        -0.61988E+07         0.00000E+00
    0.00000E+00         0.00000E+00         0.00000E+00
 
    0.34405E+07        -0.16875E+07         0.00000E+00
   -0.16875E+07        -0.62459E+07         0.00000E+00
    0.00000E+00         0.00000E+00         0.00000E+00
 
    0.35114E+07        -0.15064E+07         0.00000E+00
   -0.15064E+07        -0.63019E+07         0.00000E+00
    0.00000E+00         0.00000E+00         0.00000E+00
 
    0.35917E+07        -0.13095E+07         0.00000E+00
   -0.13095E+07        -0.63674E+07         0.00000E+00
    0.00000E+00         0.00000E+00         0.00000E+00
 
    0.36819E+07        -0.10919E+07         0.00000E+00
   -0.10919E+07        -0.64427E+07         0.00000E+00
    0.00000E+00         0.00000E+00         0.00000E+00
 
    0.37816E+07        -0.84803E+06         0.00000E+00
   -0.84803E+06        -0.65279E+07         0.00000E+00
    0.00000E+00         0.00000E+00         0.00000E+00
 
    0.38902E+07        -0.57100E+06         0.00000E+00
   -0.57100E+06        -0.66225E+07         0.00000E+00
    0.00000E+00         0.00000E+00         0.00000E+00
 
    0.40063E+07        -0.25279E+06         0.00000E+00
   -0.25279E+06        -0.67256E+07         0.00000E+00
    0.00000E+00         0.00000E+00         0.00000E+00
 
    0.41273E+07         0.11616E+06         0.00000E+00
    0.11616E+06        -0.68356E+07         0.00000E+00
    0.00000E+00         0.00000E+00         0.00000E+00
 
    0.42492E+07         0.54710E+06         0.00000E+00
    0.54710E+06        -0.69491E+07         0.00000E+00
    0.00000E+00         0.00000E+00         0.00000E+00
 
    0.43656E+07         0.10531E+07         0.00000E+00
    0.10531E+07        -0.70607E+07         0.00000E+00
    0.00000E+00         0.00000E+00         0.00000E+00
 
    0.44676E+07         0.16488E+07         0.00000E+00
    0.16488E+07        -0.71617E+07         0.00000E+00
    0.00000E+00         0.00000E+00         0.00000E+00
 
    0.45432E+07         0.23498E+07         0.00000E+00
    0.23498E+07        -0.72385E+07         0.00000E+00
    0.00000E+00         0.00000E+00         0.00000E+00
 
    0.45787E+07         0.31719E+07         0.00000E+00
    0.31719E+07        -0.72711E+07         0.00000E+00
    0.00000E+00         0.00000E+00         0.00000E+00
 
    0.45638E+07         0.41307E+07         0.00000E+00
    0.41307E+07        -0.72312E+07         0.00000E+00
    0.00000E+00         0.00000E+00         0.00000E+00
 
    0.45174E+07         0.52471E+07         0.00000E+00
    0.52471E+07        -0.70838E+07         0.00000E+00
    0.00000E+00         0.00000E+00         0.00000E+00
 
    0.44734E+07         0.65473E+07         0.00000E+00
    0.65473E+07        -0.67965E+07         0.00000E+00
    0.00000E+00         0.00000E+00        -0.16997E+05
 
    0.26417E+07         0.77730E+07         0.00000E+00
    0.77730E+07        -0.63957E+07         0.00000E+00
    0.00000E+00         0.00000E+00        -0.65897E+06
 
    0.20580E+06         0.88217E+07         0.00000E+00
    0.88217E+07        -0.59826E+07         0.00000E+00
    0.00000E+00         0.00000E+00        -0.10834E+07
 
    0.30940E+07        -0.42154E+06         0.00000E+00
   -0.42154E+06        -0.22940E+06         0.00000E+00
    0.00000E+00         0.00000E+00         0.00000E+00
 
    0.89142E+06        -0.15311E+07         0.00000E+00
   -0.15311E+07        -0.42328E+06         0.00000E+00
    0.00000E+00         0.00000E+00         0.00000E+00
 
   -0.48751E+06        -0.27381E+07         0.00000E+00
   -0.27381E+07        -0.82172E+06         0.00000E+00
    0.00000E+00         0.00000E+00         0.00000E+00
 
   -0.11985E+07        -0.38381E+07         0.00000E+00
   -0.38381E+07        -0.13795E+07         0.00000E+00
    0.00000E+00         0.00000E+00         0.00000E+00
 
   -0.14223E+07        -0.47294E+07         0.00000E+00
   -0.47294E+07        -0.20250E+07         0.00000E+00
    0.00000E+00         0.00000E+00         0.00000E+00
 
   -0.13238E+07        -0.53813E+07         0.00000E+00
   -0.53813E+07        -0.26919E+07         0.00000E+00
    0.00000E+00         0.00000E+00         0.00000E+00
 
   -0.10343E+07        -0.58054E+07         0.00000E+00
   -0.58054E+07        -0.33315E+07         0.00000E+00
    0.00000E+00         0.00000E+00         0.00000E+00
 
   -0.64955E+06        -0.60342E+07         0.00000E+00
   -0.60342E+07        -0.39139E+07         0.00000E+00
    0.00000E+00         0.00000E+00         0.00000E+00
 
   -0.23432E+06        -0.61064E+07         0.00000E+00
   -0.61064E+07        -0.44243E+07         0.00000E+00
    0.00000E+00         0.00000E+00         0.00000E+00
 
    0.17099E+06        -0.60598E+07         0.00000E+00
   -0.60598E+07        -0.48589E+07         0.00000E+00
    0.00000E+00         0.00000E+00         0.00000E+00
 
    0.54339E+06        -0.59275E+07         0.00000E+00
   -0.59275E+07        -0.52202E+07         0.00000E+00
    0.00000E+00         0.00000E+00         0.00000E+00
 
    0.87173E+06        -0.57362E+07         0.00000E+00
   -0.57362E+07        -0.55143E+07         0.00000E+00
    0.00000E+00         0.00000E+00         0.00000E+00
 
    0.11524E+07        -0.55071E+07         0.00000E+00
   -0.55071E+07        -0.57489E+07         0.00000E+00
    0.00000E+00         0.00000E+00         0.00000E+00
 
    0.13863E+07        -0.52560E+07         0.00000E+00
   -0.52560E+07        -0.59321E+07         0.00000E+00
    0.00000E+00         0.00000E+00         0.00000E+00
 
    0.15770E+07        -0.49947E+07         0.00000E+00
   -0.49947E+07        -0.60714E+07         0.00000E+00
    0.00000E+00         0.00000E+00         0.00000E+00
 
    0.17292E+07        -0.47316E+07         0.00000E+00
   -0.47316E+07        -0.61741E+07         0.00000E+00
    0.00000E+00         0.00000E+00         0.00000E+00
 
    0.18481E+07        -0.44726E+07         0.00000E+00
   -0.44726E+07        -0.62464E+07         0.00000E+00
    0.00000E+00         0.00000E+00         0.00000E+00
 
    0.19387E+07        -0.42217E+07         0.00000E+00
   -0.42217E+07        -0.62939E+07         0.00000E+00
    0.00000E+00         0.00000E+00         0.00000E+00
 
    0.20062E+07        -0.39814E+07         0.00000E+00
   -0.39814E+07        -0.63217E+07         0.00000E+00
    0.00000E+00         0.00000E+00         0.00000E+00
 
    0.20549E+07        -0.37530E+07         0.00000E+00
   -0.37530E+07        -0.63339E+07         0.00000E+00
    0.00000E+00         0.00000E+00         0.00000E+00
 
    0.20891E+07        -0.35373E+07         0.00000E+00
   -0.35373E+07        -0.63345E+07         0.00000E+00
    0.00000E+00         0.00000E+00         0.00000E+00
 
    0.21122E+07        -0.33341E+07         0.00000E+00
   -0.33341E+07        -0.63267E+07         0.00000E+00
    0.00000E+00         0.00000E+00         0.00000E+00
 
    0.21277E+07        -0.31430E+07         0.00000E+00
   -0.31430E+07        -0.63134E+07         0.00000E+00
    0.00000E+00         0.00000E+00         0.00000E+00
 
    0.21383E+07        -0.29631E+07         0.00000E+00
   -0.29631E+07        -0.62972E+07         0.00000E+00
    0.00000E+00         0.00000E+00         0.00000E+00
 
    0.21467E+07        -0.27935E+07         0.00000E+00
   -0.27935E+07        -0.62802E+07         0.00000E+00
    0.00000E+00         0.00000E+00         0.00000E+00
 
    0.21550E+07        -0.26327E+07         0.00000E+00
   -0.26327E+07        -0.62644E+07         0.00000E+00
    0.00000E+00         0.00000E+00         0.00000E+00
 
    0.21653E+07        -0.24791E+07         0.00000E+00
   -0.24791E+07        -0.62517E+07         0.00000E+00
    0.00000E+00         0.00000E+00         0.00000E+00
 
    0.21794E+07        -0.23312E+07         0.00000E+00
   -0.23312E+07        -0.62435E+07         0.00000E+00
    0.00000E+00         0.00000E+00         0.00000E+00
 
    0.21990E+07        -0.21869E+07         0.00000E+00
   -0.21869E+07        -0.62414E+07         0.00000E+00
    0.00000E+00         0.00000E+00         0.00000E+00
 
    0.22256E+07        -0.20441E+07         0.00000E+00
   -0.20441E+07        -0.62466E+07         0.00000E+00
    0.00000E+00         0.00000E+00         0.00000E+00
 
    0.22606E+07        -0.19003E+07         0.00000E+00
   -0.19003E+07        -0.62604E+07         0.00000E+00
    0.00000E+00         0.00000E+00         0.00000E+00
 
    0.23053E+07        -0.17528E+07         0.00000E+00
   -0.17528E+07        -0.62839E+07         0.00000E+00
    0.00000E+00         0.00000E+00         0.00000E+00
 
    0.23610E+07        -0.15985E+07         0.00000E+00
   -0.15985E+07        -0.63181E+07         0.00000E+00
    0.00000E+00         0.00000E+00         0.00000E+00
 
    0.24287E+07        -0.14335E+07         0.00000E+00
   -0.14335E+07        -0.63640E+07         0.00000E+00
    0.00000E+00         0.00000E+00         0.00000E+00
 
    0.25094E+07        -0.12538E+07         0.00000E+00
   -0.12538E+07        -0.64226E+07         0.00000E+00
    0.00000E+00         0.00000E+00         0.00000E+00
 
    0.26040E+07        -0.10544E+07         0.00000E+00
   -0.10544E+07        -0.64944E+07         0.00000E+00
    0.00000E+00         0.00000E+00         0.00000E+00
 
    0.27131E+07        -0.82926E+06         0.00000E+00
   -0.82926E+06        -0.65803E+07         0.00000E+00
    0.00000E+00         0.00000E+00         0.00000E+00
 
    0.28370E+07        -0.57152E+06         0.00000E+00
   -0.57152E+06        -0.66804E+07         0.00000E+00
    0.00000E+00         0.00000E+00         0.00000E+00
 
    0.29757E+07        -0.27271E+06         0.00000E+00
   -0.27271E+06        -0.67949E+07         0.00000E+00
    0.00000E+00         0.00000E+00         0.00000E+00
 
    0.31286E+07         0.77392E+05         0.00000E+00
    0.77392E+05        -0.69231E+07         0.00000E+00
    0.00000E+00         0.00000E+00         0.00000E+00
 
    0.32936E+07         0.49119E+06         0.00000E+00
    0.49119E+06        -0.70631E+07         0.00000E+00
    0.00000E+00         0.00000E+00         0.00000E+00
 
    0.34671E+07         0.98354E+06         0.00000E+00
    0.98354E+06        -0.72111E+07         0.00000E+00
    0.00000E+00         0.00000E+00         0.00000E+00
 
    0.36427E+07         0.15717E+07         0.00000E+00
    0.15717E+07        -0.73595E+07         0.00000E+00
    0.00000E+00         0.00000E+00         0.00000E+00
 
    0.38111E+07         0.22748E+07         0.00000E+00
    0.22748E+07        -0.74955E+07         0.00000E+00
    0.00000E+00         0.00000E+00         0.00000E+00
 
    0.39604E+07         0.31118E+07         0.00000E+00
    0.31118E+07        -0.75981E+07         0.00000E+00
    0.00000E+00         0.00000E+00         0.00000E+00
 
    0.40827E+07         0.40982E+07         0.00000E+00
    0.40982E+07        -0.76365E+07         0.00000E+00
    0.00000E+00         0.00000E+00         0.00000E+00
 
    0.41913E+07         0.52347E+07         0.00000E+00
    0.52347E+07        -0.75735E+07         0.00000E+00
    0.00000E+00         0.00000E+00         0.00000E+00
 
    0.43017E+07         0.64880E+07         0.00000E+00
    0.64880E+07        -0.73730E+07         0.00000E+00
    0.00000E+00         0.00000E+00        -0.23603E+05
 
    0.24359E+07         0.78433E+07         0.00000E+00
    0.78433E+07        -0.69777E+07         0.00000E+00
    0.00000E+00         0.00000E+00        -0.89084E+06
 
   -0.39568E+06         0.91428E+07         0.00000E+00
    0.91428E+07        -0.65080E+07         0.00000E+00
    0.00000E+00         0.00000E+00        -0.17387E+07
 
    0.18001E+07        -0.61724E+06         0.00000E+00
   -0.61724E+06        -0.42670E+06         0.00000E+00
    0.00000E+00         0.00000E+00         0.00000E+00
 
   -0.65325E+06        -0.20700E+07         0.00000E+00
   -0.20700E+07        -0.77230E+06         0.00000E+00
    0.00000E+00         0.00000E+00         0.00000E+00
 
   -0.20327E+07        -0.35004E+07         0.00000E+00
   -0.35004E+07        -0.13937E+07         0.00000E+00
    0.00000E+00         0.00000E+00         0.00000E+00
 
   -0.26198E+07        -0.46932E+07         0.00000E+00
   -0.46932E+07        -0.21742E+07         0.00000E+00
    0.00000E+00         0.00000E+00         0.00000E+00
 
   -0.26818E+07        -0.55709E+07         0.00000E+00
   -0.55709E+07        -0.30005E+07         0.00000E+00
    0.00000E+00         0.00000E+00         0.00000E+00
 
   -0.24331E+07        -0.61382E+07         0.00000E+00
   -0.61382E+07        -0.37899E+07         0.00000E+00
    0.00000E+00         0.00000E+00         0.00000E+00
 
   -0.20278E+07        -0.64390E+07         0.00000E+00
   -0.64390E+07        -0.44942E+07         0.00000E+00
    0.00000E+00         0.00000E+00         0.00000E+00
 
   -0.15673E+07        -0.65302E+07         0.00000E+00
   -0.65302E+07        -0.50923E+07         0.00000E+00
    0.00000E+00         0.00000E+00         0.00000E+00
 
   -0.11131E+07        -0.64670E+07         0.00000E+00
   -0.64670E+07        -0.55813E+07         0.00000E+00
    0.00000E+00         0.00000E+00         0.00000E+00
 
   -0.69886E+06        -0.62965E+07         0.00000E+00
   -0.62965E+07        -0.59684E+07         0.00000E+00
    0.00000E+00         0.00000E+00         0.00000E+00
 
   -0.33982E+06        -0.60561E+07         0.00000E+00
   -0.60561E+07        -0.62658E+07         0.00000E+00
    0.00000E+00         0.00000E+00         0.00000E+00
 
   -0.40227E+05        -0.57740E+07         0.00000E+00
   -0.57740E+07        -0.64869E+07         0.00000E+00
    0.00000E+00         0.00000E+00         0.00000E+00
 
    0.20199E+06        -0.54707E+07         0.00000E+00
   -0.54707E+07        -0.66448E+07         0.00000E+00
    0.00000E+00         0.00000E+00         0.00000E+00
 
    0.39207E+06        -0.51604E+07         0.00000E+00
   -0.51604E+07        -0.67510E+07         0.00000E+00
    0.00000E+00         0.00000E+00         0.00000E+00
 
    0.53659E+06        -0.48530E+07         0.00000E+00
   -0.48530E+07        -0.68156E+07         0.00000E+00
    0.00000E+00         0.00000E+00         0.00000E+00
 
    0.64241E+06        -0.45550E+07         0.00000E+00
   -0.45550E+07        -0.68471E+07         0.00000E+00
    0.00000E+00         0.00000E+00         0.00000E+00
 
    0.71613E+06        -0.42704E+07         0.00000E+00
   -0.42704E+07        -0.68524E+07         0.00000E+00
    0.00000E+00         0.00000E+00         0.00000E+00
 
    0.76382E+06        -0.40016E+07         0.00000E+00
   -0.40016E+07        -0.68378E+07         0.00000E+00
    0.00000E+00         0.00000E+00         0.00000E+00
 
    0.79093E+06        -0.37496E+07         0.00000E+00
   -0.37496E+07        -0.68080E+07         0.00000E+00
    0.00000E+00         0.00000E+00         0.00000E+00
 
    0.80223E+06        -0.35148E+07         0.00000E+00
   -0.35148E+07        -0.67674E+07         0.00000E+00
    0.00000E+00         0.00000E+00         0.00000E+00
 
    0.80191E+06        -0.32967E+07         0.00000E+00
   -0.32967E+07        -0.67195E+07         0.00000E+00
    0.00000E+00         0.00000E+00         0.00000E+00
 
    0.79357E+06        -0.30946E+07         0.00000E+00
   -0.30946E+07        -0.66674E+07         0.00000E+00
    0.00000E+00         0.00000E+00         0.00000E+00
 
    0.78036E+06        -0.29072E+07         0.00000E+00
   -0.29072E+07        -0.66135E+07         0.00000E+00
    0.00000E+00         0.00000E+00         0.00000E+00
 
    0.76501E+06        -0.27333E+07         0.00000E+00
   -0.27333E+07        -0.65602E+07         0.00000E+00
    0.00000E+00         0.00000E+00         0.00000E+00
 
    0.74990E+06        -0.25714E+07         0.00000E+00
   -0.25714E+07        -0.65094E+07         0.00000E+00
    0.00000E+00         0.00000E+00         0.00000E+00
 
    0.73717E+06        -0.24198E+07         0.00000E+00
   -0.24198E+07        -0.64627E+07         0.00000E+00
    0.00000E+00         0.00000E+00         0.00000E+00
 
    0.72872E+06        -0.22769E+07         0.00000E+00
   -0.22769E+07        -0.64217E+07         0.00000E+00
    0.00000E+00         0.00000E+00         0.00000E+00
 
    0.72630E+06        -0.21407E+07         0.00000E+00
   -0.21407E+07        -0.63879E+07         0.00000E+00
    0.00000E+00         0.00000E+00         0.00000E+00
 
    0.73153E+06        -0.20093E+07         0.00000E+00
   -0.20093E+07        -0.63624E+07         0.00000E+00
    0.00000E+00         0.00000E+00         0.00000E+00
 
    0.74597E+06        -0.18804E+07         0.00000E+00
   -0.18804E+07        -0.63466E+07         0.00000E+00
    0.00000E+00         0.00000E+00         0.00000E+00
 
    0.77108E+06        -0.17515E+07         0.00000E+00
   -0.17515E+07        -0.63416E+07         0.00000E+00
    0.00000E+00         0.00000E+00         0.00000E+00
 
    0.80834E+06        -0.16200E+07         0.00000E+00
   -0.16200E+07        -0.63487E+07         0.00000E+00
    0.00000E+00         0.00000E+00         0.00000E+00
 
    0.85918E+06        -0.14826E+07         0.00000E+00
   -0.14826E+07        -0.63690E+07         0.00000E+00
    0.00000E+00         0.00000E+00         0.00000E+00
 
    0.92504E+06        -0.13359E+07         0.00000E+00
   -0.13359E+07        -0.64037E+07         0.00000E+00
    0.00000E+00         0.00000E+00         0.00000E+00
 
    0.10074E+07        -0.11754E+07         0.00000E+00
   -0.11754E+07        -0.64541E+07         0.00000E+00
    0.00000E+00         0.00000E+00         0.00000E+00
 
    0.11077E+07        -0.99644E+06         0.00000E+00
   -0.99644E+06        -0.65212E+07         0.00000E+00
    0.00000E+00         0.00000E+00         0.00000E+00
 
    0.12274E+07        -0.79301E+06         0.00000E+00
   -0.79301E+06        -0.66063E+07         0.00000E+00
    0.00000E+00         0.00000E+00         0.00000E+00
 
    0.13681E+07        -0.55815E+06         0.00000E+00
   -0.55815E+06        -0.67105E+07         0.00000E+00
    0.00000E+00         0.00000E+00         0.00000E+00
 
    0.15313E+07        -0.28338E+06         0.00000E+00
   -0.28338E+06        -0.68347E+07         0.00000E+00
    0.00000E+00         0.00000E+00         0.00000E+00
 
    0.17183E+07         0.41747E+05         0.00000E+00
    0.41747E+05        -0.69798E+07         0.00000E+00
    0.00000E+00         0.00000E+00         0.00000E+00
 
    0.19301E+07         0.43024E+06         0.00000E+00
    0.43024E+06        -0.71456E+07         0.00000E+00
    0.00000E+00         0.00000E+00         0.00000E+00
 
    0.21662E+07         0.89822E+06         0.00000E+00
    0.89822E+06        -0.73304E+07         0.00000E+00
    0.00000E+00         0.00000E+00         0.00000E+00
 
    0.24239E+07         0.14651E+07         0.00000E+00
    0.14651E+07        -0.75292E+07         0.00000E+00
    0.00000E+00         0.00000E+00         0.00000E+00
 
    0.26970E+07         0.21533E+07         0.00000E+00
    0.21533E+07        -0.77313E+07         0.00000E+00
    0.00000E+00         0.00000E+00         0.00000E+00
 
    0.29743E+07         0.29858E+07         0.00000E+00
    0.29858E+07        -0.79171E+07         0.00000E+00
    0.00000E+00         0.00000E+00         0.00000E+00
 
    0.32401E+07         0.39795E+07         0.00000E+00
    0.39795E+07        -0.80537E+07         0.00000E+00
    0.00000E+00         0.00000E+00         0.00000E+00
 
    0.34729E+07         0.51279E+07         0.00000E+00
    0.51279E+07        -0.80898E+07         0.00000E+00
    0.00000E+00         0.00000E+00         0.00000E+00
 
    0.36863E+07         0.63949E+07         0.00000E+00
    0.63949E+07        -0.79737E+07         0.00000E+00
    0.00000E+00         0.00000E+00         0.00000E+00
 
    0.21116E+07         0.79142E+07         0.00000E+00
    0.79142E+07        -0.76079E+07         0.00000E+00
    0.00000E+00         0.00000E+00        -0.96008E+06
 
   -0.12003E+07         0.95316E+07         0.00000E+00
    0.95316E+07        -0.71173E+07         0.00000E+00
    0.00000E+00         0.00000E+00        -0.24345E+07
 
   -0.37380E+06        -0.88651E+06         0.00000E+00
   -0.88651E+06        -0.10748E+07         0.00000E+00
    0.00000E+00         0.00000E+00         0.00000E+00
 
   -0.29618E+07        -0.27512E+07         0.00000E+00
   -0.27512E+07        -0.16061E+07         0.00000E+00
    0.00000E+00         0.00000E+00         0.00000E+00
 
   -0.42095E+07        -0.43938E+07         0.00000E+00
   -0.43938E+07        -0.24758E+07         0.00000E+00
    0.00000E+00         0.00000E+00         0.00000E+00
 
   -0.45683E+07        -0.56238E+07         0.00000E+00
   -0.56238E+07        -0.34744E+07         0.00000E+00
    0.00000E+00         0.00000E+00         0.00000E+00
 
   -0.44043E+07        -0.64190E+07         0.00000E+00
   -0.64190E+07        -0.44470E+07         0.00000E+00
    0.00000E+00         0.00000E+00         0.00000E+00
 
   -0.39774E+07        -0.68382E+07         0.00000E+00
   -0.68382E+07        -0.53045E+07         0.00000E+00
    0.00000E+00         0.00000E+00         0.00000E+00
 
   -0.34536E+07        -0.69668E+07         0.00000E+00
   -0.69668E+07        -0.60099E+07         0.00000E+00
    0.00000E+00         0.00000E+00         0.00000E+00
 
   -0.29300E+07        -0.68880E+07         0.00000E+00
   -0.68880E+07        -0.65596E+07         0.00000E+00
    0.00000E+00         0.00000E+00         0.00000E+00
 
   -0.24567E+07        -0.66714E+07         0.00000E+00
   -0.66714E+07        -0.69676E+07         0.00000E+00
    0.00000E+00         0.00000E+00         0.00000E+00
 
   -0.20550E+07        -0.63703E+07         0.00000E+00
   -0.63703E+07        -0.72554E+07         0.00000E+00
    0.00000E+00         0.00000E+00         0.00000E+00
 
   -0.17295E+07        -0.60235E+07         0.00000E+00
   -0.60235E+07        -0.74453E+07         0.00000E+00
    0.00000E+00         0.00000E+00         0.00000E+00
 
   -0.14758E+07        -0.56574E+07         0.00000E+00
   -0.56574E+07        -0.75579E+07         0.00000E+00
    0.00000E+00         0.00000E+00         0.00000E+00
 
   -0.12858E+07        -0.52897E+07         0.00000E+00
   -0.52897E+07        -0.76106E+07         0.00000E+00
    0.00000E+00         0.00000E+00         0.00000E+00
 
   -0.11498E+07        -0.49316E+07         0.00000E+00
   -0.49316E+07        -0.76176E+07         0.00000E+00
    0.00000E+00         0.00000E+00         0.00000E+00
 
   -0.10588E+07        -0.45899E+07         0.00000E+00
   -0.45899E+07        -0.75900E+07         0.00000E+00
    0.00000E+00         0.00000E+00         0.00000E+00
 
   -0.10040E+07        -0.42686E+07         0.00000E+00
   -0.42686E+07        -0.75369E+07         0.00000E+00
    0.00000E+00         0.00000E+00         0.00000E+00
 
   -0.97801E+06        -0.39694E+07         0.00000E+00
   -0.39694E+07        -0.74652E+07         0.00000E+00
    0.00000E+00         0.00000E+00         0.00000E+00
 
   -0.97427E+06        -0.36928E+07         0.00000E+00
   -0.36928E+07        -0.73807E+07         0.00000E+00
    0.00000E+00         0.00000E+00         0.00000E+00
 
   -0.98719E+06        -0.34385E+07         0.00000E+00
   -0.34385E+07        -0.72878E+07         0.00000E+00
    0.00000E+00         0.00000E+00         0.00000E+00
 
   -0.10120E+07        -0.32054E+07         0.00000E+00
   -0.32054E+07        -0.71902E+07         0.00000E+00
    0.00000E+00         0.00000E+00         0.00000E+00
 
   -0.10448E+07        -0.29923E+07         0.00000E+00
   -0.29923E+07        -0.70909E+07         0.00000E+00
    0.00000E+00         0.00000E+00         0.00000E+00
 
   -0.10822E+07        -0.27975E+07         0.00000E+00
   -0.27975E+07        -0.69924E+07         0.00000E+00
    0.00000E+00         0.00000E+00         0.00000E+00
 
   -0.11213E+07        -0.26194E+07         0.00000E+00
   -0.26194E+07        -0.68966E+07         0.00000E+00
    0.00000E+00         0.00000E+00         0.00000E+00
 
   -0.11596E+07        -0.24562E+07         0.00000E+00
   -0.24562E+07        -0.68054E+07         0.00000E+00
    0.00000E+00         0.00000E+00         0.00000E+00
 
   -0.11950E+07        -0.23061E+07         0.00000E+00
   -0.23061E+07        -0.67201E+07         0.00000E+00
    0.00000E+00         0.00000E+00         0.00000E+00
 
   -0.12256E+07        -0.21674E+07         0.00000E+00
   -0.21674E+07        -0.66421E+07         0.00000E+00
    0.00000E+00         0.00000E+00         0.00000E+00
 
   -0.12497E+07        -0.20380E+07         0.00000E+00
   -0.20380E+07        -0.65726E+07         0.00000E+00
    0.00000E+00         0.00000E+00         0.00000E+00
 
   -0.12656E+07        -0.19162E+07         0.00000E+00
   -0.19162E+07        -0.65128E+07         0.00000E+00
    0.00000E+00         0.00000E+00         0.00000E+00
 
   -0.12718E+07        -0.17999E+07         0.00000E+00
   -0.17999E+07        -0.64638E+07         0.00000E+00
    0.00000E+00         0.00000E+00         0.00000E+00
 
   -0.12668E+07        -0.16868E+07         0.00000E+00
   -0.16868E+07        -0.64266E+07         0.00000E+00
    0.00000E+00         0.00000E+00         0.00000E+00
 
   -0.12489E+07        -0.15746E+07         0.00000E+00
   -0.15746E+07        -0.64024E+07         0.00000E+00
    0.00000E+00         0.00000E+00         0.00000E+00
 
   -0.12167E+07        -0.14607E+07         0.00000E+00
   -0.14607E+07        -0.63925E+07         0.00000E+00
    0.00000E+00         0.00000E+00         0.00000E+00
 
   -0.11683E+07        -0.13420E+07         0.00000E+00
   -0.13420E+07        -0.63981E+07         0.00000E+00
    0.00000E+00         0.00000E+00         0.00000E+00
 
   -0.11021E+07        -0.12151E+07         0.00000E+00
   -0.12151E+07        -0.64206E+07         0.00000E+00
    0.00000E+00         0.00000E+00         0.00000E+00
 
   -0.10161E+07        -0.10759E+07         0.00000E+00
   -0.10759E+07        -0.64617E+07         0.00000E+00
    0.00000E+00         0.00000E+00         0.00000E+00
 
   -0.90814E+06        -0.91958E+06         0.00000E+00
   -0.91958E+06        -0.65228E+07         0.00000E+00
    0.00000E+00         0.00000E+00         0.00000E+00
 
   -0.77592E+06        -0.74052E+06         0.00000E+00
   -0.74052E+06        -0.66057E+07         0.00000E+00
    0.00000E+00         0.00000E+00         0.00000E+00
 
   -0.61676E+06        -0.53196E+06         0.00000E+00
   -0.53196E+06        -0.67122E+07         0.00000E+00
    0.00000E+00         0.00000E+00         0.00000E+00
 
   -0.42753E+06        -0.28574E+06         0.00000E+00
   -0.28574E+06        -0.68442E+07         0.00000E+00
    0.00000E+00         0.00000E+00         0.00000E+00
 
   -0.20455E+06         0.82380E+04         0.00000E+00
    0.82380E+04        -0.70037E+07         0.00000E+00
    0.00000E+00         0.00000E+00         0.00000E+00
 
    0.56186E+05         0.36284E+06         0.00000E+00
    0.36284E+06        -0.71927E+07         0.00000E+00
    0.00000E+00         0.00000E+00         0.00000E+00
 
    0.35828E+06         0.79461E+06         0.00000E+00
    0.79461E+06        -0.74121E+07         0.00000E+00
    0.00000E+00         0.00000E+00         0.00000E+00
 
    0.70343E+06         0.13244E+07         0.00000E+00
    0.13244E+07        -0.76599E+07         0.00000E+00
    0.00000E+00         0.00000E+00         0.00000E+00
 
    0.10892E+07         0.19773E+07         0.00000E+00
    0.19773E+07        -0.79293E+07         0.00000E+00
    0.00000E+00         0.00000E+00         0.00000E+00
 
    0.15052E+07         0.27813E+07         0.00000E+00
    0.27813E+07        -0.82039E+07         0.00000E+00
    0.00000E+00         0.00000E+00         0.00000E+00
 
    0.19260E+07         0.37628E+07         0.00000E+00
    0.37628E+07        -0.84516E+07         0.00000E+00
    0.00000E+00         0.00000E+00         0.00000E+00
 
    0.22966E+07         0.49369E+07         0.00000E+00
    0.49369E+07        -0.86126E+07         0.00000E+00
    0.00000E+00         0.00000E+00         0.00000E+00
 
    0.25543E+07         0.62610E+07         0.00000E+00
    0.62610E+07        -0.85946E+07         0.00000E+00
    0.00000E+00         0.00000E+00         0.00000E+00
 
    0.16385E+07         0.79767E+07         0.00000E+00
    0.79767E+07        -0.83170E+07         0.00000E+00
    0.00000E+00         0.00000E+00        -0.85223E+06
 
   -0.21756E+07         0.99608E+07         0.00000E+00
    0.99608E+07        -0.78302E+07         0.00000E+00
    0.00000E+00         0.00000E+00        -0.31131E+07
 
   -0.38002E+07        -0.12427E+07         0.00000E+00
   -0.12427E+07        -0.24180E+07         0.00000E+00
    0.00000E+00         0.00000E+00         0.00000E+00
 
   -0.62887E+07        -0.35740E+07         0.00000E+00
   -0.35740E+07        -0.31520E+07         0.00000E+00
    0.00000E+00         0.00000E+00         0.00000E+00
 
   -0.72008E+07        -0.53814E+07         0.00000E+00
   -0.53814E+07        -0.42585E+07         0.00000E+00
    0.00000E+00         0.00000E+00         0.00000E+00
 
   -0.71957E+07        -0.65605E+07         0.00000E+00
   -0.65605E+07        -0.54217E+07         0.00000E+00
    0.00000E+00         0.00000E+00         0.00000E+00
 
   -0.67365E+07        -0.71853E+07         0.00000E+00
   -0.71853E+07        -0.64565E+07         0.00000E+00
    0.00000E+00         0.00000E+00         0.00000E+00
 
   -0.61101E+07        -0.73886E+07         0.00000E+00
   -0.73886E+07        -0.72843E+07         0.00000E+00
    0.00000E+00         0.00000E+00         0.00000E+00
 
   -0.54752E+07        -0.73020E+07         0.00000E+00
   -0.73020E+07        -0.78939E+07         0.00000E+00
    0.00000E+00         0.00000E+00         0.00000E+00
 
   -0.49090E+07        -0.70323E+07         0.00000E+00
   -0.70323E+07        -0.83081E+07         0.00000E+00
    0.00000E+00         0.00000E+00         0.00000E+00
 
   -0.44408E+07        -0.66580E+07         0.00000E+00
   -0.66580E+07        -0.85619E+07         0.00000E+00
    0.00000E+00         0.00000E+00         0.00000E+00
 
   -0.40744E+07        -0.62333E+07         0.00000E+00
   -0.62333E+07        -0.86909E+07         0.00000E+00
    0.00000E+00         0.00000E+00         0.00000E+00
 
   -0.38011E+07        -0.57934E+07         0.00000E+00
   -0.57934E+07        -0.87268E+07         0.00000E+00
    0.00000E+00         0.00000E+00         0.00000E+00
 
   -0.36073E+07        -0.53602E+07         0.00000E+00
   -0.53602E+07        -0.86952E+07         0.00000E+00
    0.00000E+00         0.00000E+00         0.00000E+00
 
   -0.34787E+07        -0.49461E+07         0.00000E+00
   -0.49461E+07        -0.86159E+07         0.00000E+00
    0.00000E+00         0.00000E+00         0.00000E+00
 
   -0.34024E+07        -0.45580E+07         0.00000E+00
   -0.45580E+07        -0.85037E+07         0.00000E+00
    0.00000E+00         0.00000E+00         0.00000E+00
 
   -0.33670E+07        -0.41987E+07         0.00000E+00
   -0.41987E+07        -0.83694E+07         0.00000E+00
    0.00000E+00         0.00000E+00         0.00000E+00
 
   -0.33631E+07        -0.38693E+07         0.00000E+00
   -0.38693E+07        -0.82211E+07         0.00000E+00
    0.00000E+00         0.00000E+00         0.00000E+00
 
   -0.33829E+07        -0.35691E+07         0.00000E+00
   -0.35691E+07        -0.80650E+07         0.00000E+00
    0.00000E+00         0.00000E+00         0.00000E+00
 
   -0.34198E+07        -0.32969E+07         0.00000E+00
   -0.32969E+07        -0.79055E+07         0.00000E+00
    0.00000E+00         0.00000E+00         0.00000E+00
 
   -0.34686E+07        -0.30508E+07         0.00000E+00
   -0.30508E+07        -0.77462E+07         0.00000E+00
    0.00000E+00         0.00000E+00         0.00000E+00
 
   -0.35248E+07        -0.28286E+07         0.00000E+00
   -0.28286E+07        -0.75897E+07         0.00000E+00
    0.00000E+00         0.00000E+00         0.00000E+00
 
   -0.35849E+07        -0.26284E+07         0.00000E+00
   -0.26284E+07        -0.74380E+07         0.00000E+00
    0.00000E+00         0.00000E+00         0.00000E+00
 
   -0.36459E+07        -0.24477E+07         0.00000E+00
   -0.24477E+07        -0.72927E+07         0.00000E+00
    0.00000E+00         0.00000E+00         0.00000E+00
 
   -0.37055E+07        -0.22846E+07         0.00000E+00
   -0.22846E+07        -0.71551E+07         0.00000E+00
    0.00000E+00         0.00000E+00         0.00000E+00
 
   -0.37614E+07        -0.21369E+07         0.00000E+00
   -0.21369E+07        -0.70263E+07         0.00000E+00
    0.00000E+00         0.00000E+00         0.00000E+00
 
   -0.38119E+07        -0.20028E+07         0.00000E+00
   -0.20028E+07        -0.69071E+07         0.00000E+00
    0.00000E+00         0.00000E+00         0.00000E+00
 
   -0.38554E+07        -0.18802E+07         0.00000E+00
   -0.18802E+07        -0.67985E+07         0.00000E+00
    0.00000E+00         0.00000E+00         0.00000E+00
 
   -0.38902E+07        -0.17673E+07         0.00000E+00
   -0.17673E+07        -0.67011E+07         0.00000E+00
    0.00000E+00         0.00000E+00         0.00000E+00
 
   -0.39150E+07        -0.16622E+07         0.00000E+00
   -0.16622E+07        -0.66159E+07         0.00000E+00
    0.00000E+00         0.00000E+00         0.00000E+00
 
   -0.39282E+07        -0.15629E+07         0.00000E+00
   -0.15629E+07        -0.65436E+07         0.00000E+00
    0.00000E+00         0.00000E+00         0.00000E+00
 
   -0.39284E+07        -0.14674E+07         0.00000E+00
   -0.14674E+07        -0.64852E+07         0.00000E+00
    0.00000E+00         0.00000E+00         0.00000E+00
 
   -0.39139E+07        -0.13734E+07         0.00000E+00
   -0.13734E+07        -0.64418E+07         0.00000E+00
    0.00000E+00         0.00000E+00         0.00000E+00
 
   -0.38829E+07        -0.12785E+07         0.00000E+00
   -0.12785E+07        -0.64146E+07         0.00000E+00
    0.00000E+00         0.00000E+00         0.00000E+00
 
   -0.38336E+07        -0.11798E+07         0.00000E+00
   -0.11798E+07        -0.64051E+07         0.00000E+00
    0.00000E+00         0.00000E+00         0.00000E+00
 
   -0.37639E+07        -0.10742E+07         0.00000E+00
   -0.10742E+07        -0.64148E+07         0.00000E+00
    0.00000E+00         0.00000E+00         0.00000E+00
 
   -0.36712E+07        -0.95789E+06         0.00000E+00
   -0.95789E+06        -0.64455E+07         0.00000E+00
    0.00000E+00         0.00000E+00         0.00000E+00
 
   -0.35529E+07        -0.82631E+06         0.00000E+00
   -0.82631E+06        -0.64994E+07         0.00000E+00
    0.00000E+00         0.00000E+00         0.00000E+00
 
   -0.34057E+07        -0.67411E+06         0.00000E+00
   -0.67411E+06        -0.65786E+07         0.00000E+00
    0.00000E+00         0.00000E+00         0.00000E+00
 
   -0.32260E+07        -0.49496E+06         0.00000E+00
   -0.49496E+06        -0.66856E+07         0.00000E+00
    0.00000E+00         0.00000E+00         0.00000E+00
 
   -0.30091E+07        -0.28134E+06         0.00000E+00
   -0.28134E+06        -0.68229E+07         0.00000E+00
    0.00000E+00         0.00000E+00         0.00000E+00
 
   -0.27491E+07        -0.24084E+05         0.00000E+00
   -0.24084E+05        -0.69938E+07         0.00000E+00
    0.00000E+00         0.00000E+00         0.00000E+00
 
   -0.24387E+07         0.28866E+06         0.00000E+00
    0.28866E+06        -0.72018E+07         0.00000E+00
    0.00000E+00         0.00000E+00         0.00000E+00
 
   -0.20698E+07         0.67292E+06         0.00000E+00
    0.67292E+06        -0.74504E+07         0.00000E+00
    0.00000E+00         0.00000E+00         0.00000E+00
 
   -0.16356E+07         0.11500E+07         0.00000E+00
    0.11500E+07        -0.77414E+07         0.00000E+00
    0.00000E+00         0.00000E+00         0.00000E+00
 
   -0.11334E+07         0.17472E+07         0.00000E+00
    0.17472E+07        -0.80720E+07         0.00000E+00
    0.00000E+00         0.00000E+00         0.00000E+00
 
   -0.57035E+06         0.24980E+07         0.00000E+00
    0.24980E+07        -0.84311E+07         0.00000E+00
    0.00000E+00         0.00000E+00         0.00000E+00
 
    0.26280E+05         0.34420E+07         0.00000E+00
    0.34420E+07        -0.87927E+07         0.00000E+00
    0.00000E+00         0.00000E+00         0.00000E+00
 
    0.58687E+06         0.46237E+07         0.00000E+00
    0.46237E+07        -0.91064E+07         0.00000E+00
    0.00000E+00         0.00000E+00         0.00000E+00
 
    0.91865E+06         0.60651E+07         0.00000E+00
    0.60651E+07        -0.92715E+07         0.00000E+00
    0.00000E+00         0.00000E+00         0.00000E+00
 
    0.85852E+06         0.80233E+07         0.00000E+00
    0.80233E+07        -0.91392E+07         0.00000E+00
    0.00000E+00         0.00000E+00        -0.53348E+06
 
   -0.32456E+07         0.10381E+08         0.00000E+00
    0.10381E+08        -0.86931E+07         0.00000E+00
    0.00000E+00         0.00000E+00        -0.36778E+07
 
   -0.89116E+07        -0.16897E+07         0.00000E+00
   -0.16897E+07        -0.47546E+07         0.00000E+00
    0.00000E+00         0.00000E+00         0.00000E+00
 
   -0.10902E+08        -0.45040E+07         0.00000E+00
   -0.45040E+07        -0.56692E+07         0.00000E+00
    0.00000E+00         0.00000E+00         0.00000E+00
 
   -0.11194E+08        -0.63786E+07         0.00000E+00
   -0.63786E+07        -0.69345E+07         0.00000E+00
    0.00000E+00         0.00000E+00         0.00000E+00
 
   -0.10666E+08        -0.73853E+07         0.00000E+00
   -0.73853E+07        -0.81363E+07         0.00000E+00
    0.00000E+00         0.00000E+00         0.00000E+00
 
   -0.98490E+07        -0.77412E+07         0.00000E+00
   -0.77412E+07        -0.90838E+07         0.00000E+00
    0.00000E+00         0.00000E+00         0.00000E+00
 
   -0.90169E+07        -0.76691E+07         0.00000E+00
   -0.76691E+07        -0.97345E+07         0.00000E+00
    0.00000E+00         0.00000E+00         0.00000E+00
 
   -0.82904E+07        -0.73430E+07         0.00000E+00
   -0.73430E+07        -0.10119E+08         0.00000E+00
    0.00000E+00         0.00000E+00         0.00000E+00
 
   -0.77086E+07        -0.68833E+07         0.00000E+00
   -0.68833E+07        -0.10293E+08         0.00000E+00
    0.00000E+00         0.00000E+00         0.00000E+00
 
   -0.72706E+07        -0.63679E+07         0.00000E+00
   -0.63679E+07        -0.10311E+08         0.00000E+00
    0.00000E+00         0.00000E+00         0.00000E+00
 
   -0.69588E+07        -0.58439E+07         0.00000E+00
   -0.58439E+07        -0.10222E+08         0.00000E+00
    0.00000E+00         0.00000E+00         0.00000E+00
 
   -0.67505E+07        -0.53386E+07         0.00000E+00
   -0.53386E+07        -0.10060E+08         0.00000E+00
    0.00000E+00         0.00000E+00         0.00000E+00
 
   -0.66234E+07        -0.48660E+07         0.00000E+00
   -0.48660E+07        -0.98527E+07         0.00000E+00
    0.00000E+00         0.00000E+00         0.00000E+00
 
   -0.65580E+07        -0.44316E+07         0.00000E+00
   -0.44316E+07        -0.96199E+07         0.00000E+00
    0.00000E+00         0.00000E+00         0.00000E+00
 
   -0.65390E+07        -0.40369E+07         0.00000E+00
   -0.40369E+07        -0.93738E+07         0.00000E+00
    0.00000E+00         0.00000E+00         0.00000E+00
 
   -0.65544E+07        -0.36807E+07         0.00000E+00
   -0.36807E+07        -0.91230E+07         0.00000E+00
    0.00000E+00         0.00000E+00         0.00000E+00
 
   -0.65948E+07        -0.33613E+07         0.00000E+00
   -0.33613E+07        -0.88735E+07         0.00000E+00
    0.00000E+00         0.00000E+00         0.00000E+00
 
   -0.66525E+07        -0.30758E+07         0.00000E+00
   -0.30758E+07        -0.86294E+07         0.00000E+00
    0.00000E+00         0.00000E+00         0.00000E+00
 
   -0.67216E+07        -0.28213E+07         0.00000E+00
   -0.28213E+07        -0.83934E+07         0.00000E+00
    0.00000E+00         0.00000E+00         0.00000E+00
 
   -0.67974E+07        -0.25947E+07         0.00000E+00
   -0.25947E+07        -0.81674E+07         0.00000E+00
    0.00000E+00         0.00000E+00         0.00000E+00
 
   -0.68761E+07        -0.23931E+07         0.00000E+00
   -0.23931E+07        -0.79525E+07         0.00000E+00
    0.00000E+00         0.00000E+00         0.00000E+00
 
   -0.69547E+07        -0.22136E+07         0.00000E+00
   -0.22136E+07        -0.77496E+07         0.00000E+00
    0.00000E+00         0.00000E+00         0.00000E+00
 
   -0.70309E+07        -0.20538E+07         0.00000E+00
   -0.20538E+07        -0.75592E+07         0.00000E+00
    0.00000E+00         0.00000E+00         0.00000E+00
 
   -0.71028E+07        -0.19111E+07         0.00000E+00
   -0.19111E+07        -0.73816E+07         0.00000E+00
    0.00000E+00         0.00000E+00         0.00000E+00
 
   -0.71685E+07        -0.17836E+07         0.00000E+00
   -0.17836E+07        -0.72170E+07         0.00000E+00
    0.00000E+00         0.00000E+00         0.00000E+00
 
   -0.72267E+07        -0.16690E+07         0.00000E+00
   -0.16690E+07        -0.70658E+07         0.00000E+00
    0.00000E+00         0.00000E+00         0.00000E+00
 
   -0.72758E+07        -0.15657E+07         0.00000E+00
   -0.15657E+07        -0.69281E+07         0.00000E+00
    0.00000E+00         0.00000E+00         0.00000E+00
 
   -0.73148E+07        -0.14716E+07         0.00000E+00
   -0.14716E+07        -0.68043E+07         0.00000E+00
    0.00000E+00         0.00000E+00         0.00000E+00
 
   -0.73420E+07        -0.13852E+07         0.00000E+00
   -0.13852E+07        -0.66949E+07         0.00000E+00
    0.00000E+00         0.00000E+00         0.00000E+00
 
   -0.73563E+07        -0.13046E+07         0.00000E+00
   -0.13046E+07        -0.66004E+07         0.00000E+00
    0.00000E+00         0.00000E+00         0.00000E+00
 
   -0.73560E+07        -0.12279E+07         0.00000E+00
   -0.12279E+07        -0.65216E+07         0.00000E+00
    0.00000E+00         0.00000E+00         0.00000E+00
 
   -0.73395E+07        -0.11532E+07         0.00000E+00
   -0.11532E+07        -0.64594E+07         0.00000E+00
    0.00000E+00         0.00000E+00         0.00000E+00
 
   -0.73049E+07        -0.10783E+07         0.00000E+00
   -0.10783E+07        -0.64151E+07         0.00000E+00
    0.00000E+00         0.00000E+00         0.00000E+00
 
   -0.72501E+07        -0.10007E+07         0.00000E+00
   -0.10007E+07        -0.63901E+07         0.00000E+00
    0.00000E+00         0.00000E+00         0.00000E+00
 
   -0.71725E+07        -0.91755E+06         0.00000E+00
   -0.91755E+06        -0.63863E+07         0.00000E+00
    0.00000E+00         0.00000E+00         0.00000E+00
 
   -0.70693E+07        -0.82550E+06         0.00000E+00
   -0.82550E+06        -0.64058E+07         0.00000E+00
    0.00000E+00         0.00000E+00         0.00000E+00
 
   -0.69369E+07        -0.72043E+06         0.00000E+00
   -0.72043E+06        -0.64511E+07         0.00000E+00
    0.00000E+00         0.00000E+00         0.00000E+00
 
   -0.67715E+07        -0.59738E+06         0.00000E+00
   -0.59738E+06        -0.65252E+07         0.00000E+00
    0.00000E+00         0.00000E+00         0.00000E+00
 
   -0.65684E+07        -0.45043E+06         0.00000E+00
   -0.45043E+06        -0.66309E+07         0.00000E+00
    0.00000E+00         0.00000E+00         0.00000E+00
 
   -0.63219E+07        -0.27279E+06         0.00000E+00
   -0.27279E+06        -0.67715E+07         0.00000E+00
    0.00000E+00         0.00000E+00         0.00000E+00
 
   -0.60242E+07        -0.56687E+05         0.00000E+00
   -0.56687E+05        -0.69503E+07         0.00000E+00
    0.00000E+00         0.00000E+00         0.00000E+00
 
   -0.56648E+07         0.20781E+06         0.00000E+00
    0.20781E+06        -0.71724E+07         0.00000E+00
    0.00000E+00         0.00000E+00         0.00000E+00
 
   -0.52304E+07         0.53523E+06         0.00000E+00
    0.53523E+06        -0.74435E+07         0.00000E+00
    0.00000E+00         0.00000E+00         0.00000E+00
 
   -0.47083E+07         0.94684E+06         0.00000E+00
    0.94684E+06        -0.77685E+07         0.00000E+00
    0.00000E+00         0.00000E+00         0.00000E+00
 
   -0.40896E+07         0.14712E+07         0.00000E+00
    0.14712E+07        -0.81484E+07         0.00000E+00
    0.00000E+00         0.00000E+00         0.00000E+00
 
   -0.33738E+07         0.21459E+07         0.00000E+00
    0.21459E+07        -0.85786E+07         0.00000E+00
    0.00000E+00         0.00000E+00         0.00000E+00
 
   -0.25798E+07         0.30237E+07         0.00000E+00
    0.30237E+07        -0.90433E+07         0.00000E+00
    0.00000E+00         0.00000E+00         0.00000E+00
 
   -0.17715E+07         0.41759E+07         0.00000E+00
    0.41759E+07        -0.95017E+07         0.00000E+00
    0.00000E+00         0.00000E+00         0.00000E+00
 
   -0.11534E+07         0.57109E+07         0.00000E+00
    0.57109E+07        -0.98534E+07         0.00000E+00
    0.00000E+00         0.00000E+00         0.00000E+00
 
   -0.43553E+06         0.79735E+07         0.00000E+00
    0.79735E+07        -0.10084E+08         0.00000E+00
    0.00000E+00         0.00000E+00        -0.42935E+05
 
   -0.43037E+07         0.10716E+08         0.00000E+00
    0.10716E+08        -0.98278E+07         0.00000E+00
    0.00000E+00         0.00000E+00        -0.39728E+07
 
   -0.16143E+08        -0.22073E+07         0.00000E+00
   -0.22073E+07        -0.84075E+07         0.00000E+00
    0.00000E+00         0.00000E+00         0.00000E+00
 
   -0.17040E+08        -0.54426E+07         0.00000E+00
   -0.54426E+07        -0.93970E+07         0.00000E+00
    0.00000E+00         0.00000E+00         0.00000E+00
 
   -0.16355E+08        -0.72371E+07         0.00000E+00
   -0.72371E+07        -0.10646E+08         0.00000E+00
    0.00000E+00         0.00000E+00         0.00000E+00
 
   -0.15142E+08        -0.79199E+07         0.00000E+00
   -0.79199E+07        -0.11673E+08         0.00000E+00
    0.00000E+00         0.00000E+00         0.00000E+00
 
   -0.13932E+08        -0.79171E+07         0.00000E+00
   -0.79171E+07        -0.12310E+08         0.00000E+00
    0.00000E+00         0.00000E+00         0.00000E+00
 
   -0.12912E+08        -0.75391E+07         0.00000E+00
   -0.75391E+07        -0.12590E+08         0.00000E+00
    0.00000E+00         0.00000E+00         0.00000E+00
 
   -0.12126E+08        -0.69844E+07         0.00000E+00
   -0.69844E+07        -0.12597E+08         0.00000E+00
    0.00000E+00         0.00000E+00         0.00000E+00
 
   -0.11558E+08        -0.63691E+07         0.00000E+00
   -0.63691E+07        -0.12420E+08         0.00000E+00
    0.00000E+00         0.00000E+00         0.00000E+00
 
   -0.11169E+08        -0.57557E+07         0.00000E+00
   -0.57557E+07        -0.12128E+08         0.00000E+00
    0.00000E+00         0.00000E+00         0.00000E+00
 
   -0.10921E+08        -0.51768E+07         0.00000E+00
   -0.51768E+07        -0.11768E+08         0.00000E+00
    0.00000E+00         0.00000E+00         0.00000E+00
 
   -0.10780E+08        -0.46480E+07         0.00000E+00
   -0.46480E+07        -0.11375E+08         0.00000E+00
    0.00000E+00         0.00000E+00         0.00000E+00
 
   -0.10714E+08        -0.41735E+07         0.00000E+00
   -0.41735E+07        -0.10972E+08         0.00000E+00
    0.00000E+00         0.00000E+00         0.00000E+00
 
   -0.10702E+08        -0.37514E+07         0.00000E+00
   -0.37514E+07        -0.10574E+08         0.00000E+00
    0.00000E+00         0.00000E+00         0.00000E+00
 
   -0.10728E+08        -0.33776E+07         0.00000E+00
   -0.33776E+07        -0.10187E+08         0.00000E+00
    0.00000E+00         0.00000E+00         0.00000E+00
 
   -0.10781E+08        -0.30480E+07         0.00000E+00
   -0.30480E+07        -0.98167E+07         0.00000E+00
    0.00000E+00         0.00000E+00         0.00000E+00
 
   -0.10851E+08        -0.27581E+07         0.00000E+00
   -0.27581E+07        -0.94656E+07         0.00000E+00
    0.00000E+00         0.00000E+00         0.00000E+00
 
   -0.10932E+08        -0.25035E+07         0.00000E+00
   -0.25035E+07        -0.91348E+07         0.00000E+00
    0.00000E+00         0.00000E+00         0.00000E+00
 
   -0.11018E+08        -0.22801E+07         0.00000E+00
   -0.22801E+07        -0.88248E+07         0.00000E+00
    0.00000E+00         0.00000E+00         0.00000E+00
 
   -0.11107E+08        -0.20841E+07         0.00000E+00
   -0.20841E+07        -0.85352E+07         0.00000E+00
    0.00000E+00         0.00000E+00         0.00000E+00
 
   -0.11196E+08        -0.19121E+07         0.00000E+00
   -0.19121E+07        -0.82656E+07         0.00000E+00
    0.00000E+00         0.00000E+00         0.00000E+00
 
   -0.11280E+08        -0.17609E+07         0.00000E+00
   -0.17609E+07        -0.80152E+07         0.00000E+00
    0.00000E+00         0.00000E+00         0.00000E+00
 
   -0.11360E+08        -0.16278E+07         0.00000E+00
   -0.16278E+07        -0.77832E+07         0.00000E+00
    0.00000E+00         0.00000E+00         0.00000E+00
 
   -0.11433E+08        -0.15105E+07         0.00000E+00
   -0.15105E+07        -0.75690E+07         0.00000E+00
    0.00000E+00         0.00000E+00         0.00000E+00
 
   -0.11498E+08        -0.14069E+07         0.00000E+00
   -0.14069E+07        -0.73720E+07         0.00000E+00
    0.00000E+00         0.00000E+00         0.00000E+00
 
   -0.11555E+08        -0.13151E+07         0.00000E+00
   -0.13151E+07        -0.71917E+07         0.00000E+00
    0.00000E+00         0.00000E+00         0.00000E+00
 
   -0.11600E+08        -0.12333E+07         0.00000E+00
   -0.12333E+07        -0.70277E+07         0.00000E+00
    0.00000E+00         0.00000E+00         0.00000E+00
 
   -0.11635E+08        -0.11600E+07         0.00000E+00
   -0.11600E+07        -0.68799E+07         0.00000E+00
    0.00000E+00         0.00000E+00         0.00000E+00
 
   -0.11657E+08        -0.10937E+07         0.00000E+00
   -0.10937E+07        -0.67483E+07         0.00000E+00
    0.00000E+00         0.00000E+00         0.00000E+00
 
   -0.11664E+08        -0.10328E+07         0.00000E+00
   -0.10328E+07        -0.66333E+07         0.00000E+00
    0.00000E+00         0.00000E+00         0.00000E+00
 
   -0.11657E+08        -0.97576E+06         0.00000E+00
   -0.97576E+06        -0.65353E+07         0.00000E+00
    0.00000E+00         0.00000E+00         0.00000E+00
 
   -0.11631E+08        -0.92100E+06         0.00000E+00
   -0.92100E+06        -0.64552E+07         0.00000E+00
    0.00000E+00         0.00000E+00         0.00000E+00
 
   -0.11587E+08        -0.86666E+06         0.00000E+00
   -0.86666E+06        -0.63942E+07         0.00000E+00
    0.00000E+00         0.00000E+00         0.00000E+00
 
   -0.11521E+08        -0.81071E+06         0.00000E+00
   -0.81071E+06        -0.63537E+07         0.00000E+00
    0.00000E+00         0.00000E+00         0.00000E+00
 
   -0.11430E+08        -0.75078E+06         0.00000E+00
   -0.75078E+06        -0.63359E+07         0.00000E+00
    0.00000E+00         0.00000E+00         0.00000E+00
 
   -0.11311E+08        -0.68404E+06         0.00000E+00
   -0.68404E+06        -0.63431E+07         0.00000E+00
    0.00000E+00         0.00000E+00         0.00000E+00
 
   -0.11160E+08        -0.60699E+06         0.00000E+00
   -0.60699E+06        -0.63784E+07         0.00000E+00
    0.00000E+00         0.00000E+00         0.00000E+00
 
   -0.10972E+08        -0.51521E+06         0.00000E+00
   -0.51521E+06        -0.64456E+07         0.00000E+00
    0.00000E+00         0.00000E+00         0.00000E+00
 
   -0.10742E+08        -0.40326E+06         0.00000E+00
   -0.40326E+06        -0.65483E+07         0.00000E+00
    0.00000E+00         0.00000E+00         0.00000E+00
 
   -0.10463E+08        -0.26468E+06         0.00000E+00
   -0.26468E+06        -0.66905E+07         0.00000E+00
    0.00000E+00         0.00000E+00         0.00000E+00
 
   -0.10127E+08        -0.92721E+05         0.00000E+00
   -0.92721E+05        -0.68756E+07         0.00000E+00
    0.00000E+00         0.00000E+00         0.00000E+00
 
   -0.97200E+07         0.11925E+06         0.00000E+00
    0.11925E+06        -0.71076E+07         0.00000E+00
    0.00000E+00         0.00000E+00         0.00000E+00
 
   -0.92226E+07         0.38304E+06         0.00000E+00
    0.38304E+06        -0.73950E+07         0.00000E+00
    0.00000E+00         0.00000E+00         0.00000E+00
 
   -0.86146E+07         0.72031E+06         0.00000E+00
    0.72031E+06        -0.77449E+07         0.00000E+00
    0.00000E+00         0.00000E+00         0.00000E+00
 
   -0.78813E+07         0.11607E+07         0.00000E+00
    0.11607E+07        -0.81609E+07         0.00000E+00
    0.00000E+00         0.00000E+00         0.00000E+00
 
   -0.70116E+07         0.17417E+07         0.00000E+00
    0.17417E+07        -0.86434E+07         0.00000E+00
    0.00000E+00         0.00000E+00         0.00000E+00
 
   -0.59998E+07         0.25241E+07         0.00000E+00
    0.25241E+07        -0.91928E+07         0.00000E+00
    0.00000E+00         0.00000E+00         0.00000E+00
 
   -0.48791E+07         0.36208E+07         0.00000E+00
    0.36208E+07        -0.97901E+07         0.00000E+00
    0.00000E+00         0.00000E+00         0.00000E+00
 
   -0.37052E+07         0.52346E+07         0.00000E+00
    0.52346E+07        -0.10369E+08         0.00000E+00
    0.00000E+00         0.00000E+00         0.00000E+00
 
   -0.25355E+07         0.74819E+07         0.00000E+00
    0.74819E+07        -0.10896E+08         0.00000E+00
    0.00000E+00         0.00000E+00         0.00000E+00
 
   -0.50221E+07         0.10861E+08         0.00000E+00
    0.10861E+08        -0.11075E+08         0.00000E+00
    0.00000E+00         0.00000E+00        -0.39681E+07
 
   -0.25810E+08        -0.26678E+07         0.00000E+00
   -0.26678E+07        -0.13554E+08         0.00000E+00
    0.00000E+00         0.00000E+00         0.00000E+00
 
   -0.24873E+08        -0.62576E+07         0.00000E+00
   -0.62576E+07        -0.14466E+08         0.00000E+00
    0.00000E+00         0.00000E+00         0.00000E+00
 
   -0.22764E+08        -0.77095E+07         0.00000E+00
   -0.77095E+07        -0.15435E+08         0.00000E+00
    0.00000E+00         0.00000E+00        -0.63419E+05
 
   -0.20769E+08        -0.79209E+07         0.00000E+00
   -0.79209E+07        -0.15961E+08         0.00000E+00
    0.00000E+00         0.00000E+00         0.00000E+00
 
   -0.19187E+08        -0.75089E+07         0.00000E+00
   -0.75089E+07        -0.15999E+08         0.00000E+00
    0.00000E+00         0.00000E+00         0.00000E+00
 
   -0.18031E+08        -0.68529E+07         0.00000E+00
   -0.68529E+07        -0.15680E+08         0.00000E+00
    0.00000E+00         0.00000E+00         0.00000E+00
 
   -0.17227E+08        -0.61381E+07         0.00000E+00
   -0.61381E+07        -0.15160E+08         0.00000E+00
    0.00000E+00         0.00000E+00         0.00000E+00
 
   -0.16691E+08        -0.54442E+07         0.00000E+00
   -0.54442E+07        -0.14542E+08         0.00000E+00
    0.00000E+00         0.00000E+00         0.00000E+00
 
   -0.16354E+08        -0.48048E+07         0.00000E+00
   -0.48048E+07        -0.13884E+08         0.00000E+00
    0.00000E+00         0.00000E+00         0.00000E+00
 
   -0.16163E+08        -0.42340E+07         0.00000E+00
   -0.42340E+07        -0.13227E+08         0.00000E+00
    0.00000E+00         0.00000E+00         0.00000E+00
 
   -0.16072E+08        -0.37349E+07         0.00000E+00
   -0.37349E+07        -0.12590E+08         0.00000E+00
    0.00000E+00         0.00000E+00         0.00000E+00
 
   -0.16047E+08        -0.33027E+07         0.00000E+00
   -0.33027E+07        -0.11987E+08         0.00000E+00
    0.00000E+00         0.00000E+00         0.00000E+00
 
   -0.16065E+08        -0.29280E+07         0.00000E+00
   -0.29280E+07        -0.11424E+08         0.00000E+00
    0.00000E+00         0.00000E+00         0.00000E+00
 
   -0.16111E+08        -0.26040E+07         0.00000E+00
   -0.26040E+07        -0.10899E+08         0.00000E+00
    0.00000E+00         0.00000E+00         0.00000E+00
 
   -0.16176E+08        -0.23244E+07         0.00000E+00
   -0.23244E+07        -0.10415E+08         0.00000E+00
    0.00000E+00         0.00000E+00         0.00000E+00
 
   -0.16253E+08        -0.20831E+07         0.00000E+00
   -0.20831E+07        -0.99686E+07         0.00000E+00
    0.00000E+00         0.00000E+00         0.00000E+00
 
   -0.16336E+08        -0.18746E+07         0.00000E+00
   -0.18746E+07        -0.95582E+07         0.00000E+00
    0.00000E+00         0.00000E+00         0.00000E+00
 
   -0.16420E+08        -0.16944E+07         0.00000E+00
   -0.16944E+07        -0.91812E+07         0.00000E+00
    0.00000E+00         0.00000E+00         0.00000E+00
 
   -0.16504E+08        -0.15387E+07         0.00000E+00
   -0.15387E+07        -0.88349E+07         0.00000E+00
    0.00000E+00         0.00000E+00         0.00000E+00
 
   -0.16585E+08        -0.14039E+07         0.00000E+00
   -0.14039E+07        -0.85170E+07         0.00000E+00
    0.00000E+00         0.00000E+00         0.00000E+00
 
   -0.16660E+08        -0.12870E+07         0.00000E+00
   -0.12870E+07        -0.82251E+07         0.00000E+00
    0.00000E+00         0.00000E+00         0.00000E+00
 
   -0.16729E+08        -0.11855E+07         0.00000E+00
   -0.11855E+07        -0.79573E+07         0.00000E+00
    0.00000E+00         0.00000E+00         0.00000E+00
 
   -0.16790E+08        -0.10973E+07         0.00000E+00
   -0.10973E+07        -0.77117E+07         0.00000E+00
    0.00000E+00         0.00000E+00         0.00000E+00
 
   -0.16842E+08        -0.10205E+07         0.00000E+00
   -0.10205E+07        -0.74869E+07         0.00000E+00
    0.00000E+00         0.00000E+00         0.00000E+00
 
   -0.16885E+08        -0.95354E+06         0.00000E+00
   -0.95354E+06        -0.72817E+07         0.00000E+00
    0.00000E+00         0.00000E+00         0.00000E+00
 
   -0.16916E+08        -0.89494E+06         0.00000E+00
   -0.89494E+06        -0.70950E+07         0.00000E+00
    0.00000E+00         0.00000E+00         0.00000E+00
 
   -0.16936E+08        -0.84347E+06         0.00000E+00
   -0.84347E+06        -0.69264E+07         0.00000E+00
    0.00000E+00         0.00000E+00         0.00000E+00
 
   -0.16943E+08        -0.79794E+06         0.00000E+00
   -0.79794E+06        -0.67754E+07         0.00000E+00
    0.00000E+00         0.00000E+00         0.00000E+00
 
   -0.16935E+08        -0.75721E+06         0.00000E+00
   -0.75721E+06        -0.66420E+07         0.00000E+00
    0.00000E+00         0.00000E+00         0.00000E+00
 
   -0.16911E+08        -0.72012E+06         0.00000E+00
   -0.72012E+06        -0.65266E+07         0.00000E+00
    0.00000E+00         0.00000E+00         0.00000E+00
 
   -0.16869E+08        -0.68541E+06         0.00000E+00
   -0.68541E+06        -0.64298E+07         0.00000E+00
    0.00000E+00         0.00000E+00         0.00000E+00
 
   -0.16807E+08        -0.65173E+06         0.00000E+00
   -0.65173E+06        -0.63527E+07         0.00000E+00
    0.00000E+00         0.00000E+00         0.00000E+00
 
   -0.16723E+08        -0.61750E+06         0.00000E+00
   -0.61750E+06        -0.62970E+07         0.00000E+00
    0.00000E+00         0.00000E+00         0.00000E+00
 
   -0.16612E+08        -0.58097E+06         0.00000E+00
   -0.58097E+06        -0.62646E+07         0.00000E+00
    0.00000E+00         0.00000E+00         0.00000E+00
 
   -0.16472E+08        -0.54007E+06         0.00000E+00
   -0.54007E+06        -0.62583E+07         0.00000E+00
    0.00000E+00         0.00000E+00         0.00000E+00
 
   -0.16297E+08        -0.49214E+06         0.00000E+00
   -0.49214E+06        -0.62819E+07         0.00000E+00
    0.00000E+00         0.00000E+00         0.00000E+00
 
   -0.16082E+08        -0.43355E+06         0.00000E+00
   -0.43355E+06        -0.63396E+07         0.00000E+00
    0.00000E+00         0.00000E+00         0.00000E+00
 
   -0.15820E+08        -0.35959E+06         0.00000E+00
   -0.35959E+06        -0.64367E+07         0.00000E+00
    0.00000E+00         0.00000E+00         0.00000E+00
 
   -0.15504E+08        -0.26423E+06         0.00000E+00
   -0.26423E+06        -0.65787E+07         0.00000E+00
    0.00000E+00         0.00000E+00         0.00000E+00
 
   -0.15126E+08        -0.13999E+06         0.00000E+00
   -0.13999E+06        -0.67710E+07         0.00000E+00
    0.00000E+00         0.00000E+00         0.00000E+00
 
   -0.14673E+08         0.18914E+05         0.00000E+00
    0.18914E+05        -0.70157E+07         0.00000E+00
    0.00000E+00         0.00000E+00         0.00000E+00
 
   -0.14118E+08         0.21441E+06         0.00000E+00
    0.21441E+06        -0.73146E+07         0.00000E+00
    0.00000E+00         0.00000E+00         0.00000E+00
 
   -0.13424E+08         0.47085E+06         0.00000E+00
    0.47085E+06        -0.76857E+07         0.00000E+00
    0.00000E+00         0.00000E+00         0.00000E+00
 
   -0.12576E+08         0.82536E+06         0.00000E+00
    0.82536E+06        -0.81266E+07         0.00000E+00
    0.00000E+00         0.00000E+00         0.00000E+00
 
   -0.11560E+08         0.13026E+07         0.00000E+00
    0.13026E+07        -0.86412E+07         0.00000E+00
    0.00000E+00         0.00000E+00         0.00000E+00
 
   -0.10326E+08         0.19536E+07         0.00000E+00
    0.19536E+07        -0.92543E+07         0.00000E+00
    0.00000E+00         0.00000E+00         0.00000E+00
 
   -0.88164E+07         0.29177E+07         0.00000E+00
    0.29177E+07        -0.99997E+07         0.00000E+00
    0.00000E+00         0.00000E+00         0.00000E+00
 
   -0.70496E+07         0.44344E+07         0.00000E+00
    0.44344E+07        -0.10891E+08         0.00000E+00
    0.00000E+00         0.00000E+00         0.00000E+00
 
   -0.52553E+07         0.67162E+07         0.00000E+00
    0.67162E+07        -0.11806E+08         0.00000E+00
    0.00000E+00         0.00000E+00         0.00000E+00
 
   -0.54043E+07         0.10729E+08         0.00000E+00
    0.10729E+08        -0.12343E+08         0.00000E+00
    0.00000E+00         0.00000E+00        -0.35000E+07
 
   -0.38195E+08        -0.31802E+07         0.00000E+00
   -0.31802E+07        -0.20721E+08         0.00000E+00
    0.00000E+00         0.00000E+00        -0.25543E+07
 
   -0.34330E+08        -0.65228E+07         0.00000E+00
   -0.65228E+07        -0.21369E+08         0.00000E+00
    0.00000E+00         0.00000E+00        -0.20493E+07
 
   -0.30496E+08        -0.73294E+07         0.00000E+00
   -0.73294E+07        -0.21403E+08         0.00000E+00
    0.00000E+00         0.00000E+00        -0.10728E+07
 
   -0.27708E+08        -0.70007E+07         0.00000E+00
   -0.70007E+07        -0.20775E+08         0.00000E+00
    0.00000E+00         0.00000E+00        -0.27879E+06
 
   -0.25851E+08        -0.62926E+07         0.00000E+00
   -0.62926E+07        -0.19806E+08         0.00000E+00
    0.00000E+00         0.00000E+00         0.00000E+00
 
   -0.24628E+08        -0.55028E+07         0.00000E+00
   -0.55028E+07        -0.18699E+08         0.00000E+00
    0.00000E+00         0.00000E+00         0.00000E+00
 
   -0.23831E+08        -0.47685E+07         0.00000E+00
   -0.47685E+07        -0.17564E+08         0.00000E+00
    0.00000E+00         0.00000E+00         0.00000E+00
 
   -0.23319E+08        -0.41108E+07         0.00000E+00
   -0.41108E+07        -0.16457E+08         0.00000E+00
    0.00000E+00         0.00000E+00         0.00000E+00
 
   -0.23012E+08        -0.35430E+07         0.00000E+00
   -0.35430E+07        -0.15423E+08         0.00000E+00
    0.00000E+00         0.00000E+00         0.00000E+00
 
   -0.22843E+08        -0.30577E+07         0.00000E+00
   -0.30577E+07        -0.14477E+08         0.00000E+00
    0.00000E+00         0.00000E+00         0.00000E+00
 
   -0.22764E+08        -0.26454E+07         0.00000E+00
   -0.26454E+07        -0.13620E+08         0.00000E+00
    0.00000E+00         0.00000E+00         0.00000E+00
 
   -0.22737E+08        -0.22982E+07         0.00000E+00
   -0.22982E+07        -0.12833E+08         0.00000E+00
    0.00000E+00         0.00000E+00         0.00000E+00
 
   -0.22742E+08        -0.20033E+07         0.00000E+00
   -0.20033E+07        -0.12117E+08         0.00000E+00
    0.00000E+00         0.00000E+00         0.00000E+00
 
   -0.22771E+08        -0.17551E+07         0.00000E+00
   -0.17551E+07        -0.11469E+08         0.00000E+00
    0.00000E+00         0.00000E+00         0.00000E+00
 
   -0.22816E+08        -0.15462E+07         0.00000E+00
   -0.15462E+07        -0.10884E+08         0.00000E+00
    0.00000E+00         0.00000E+00         0.00000E+00
 
   -0.22870E+08        -0.13693E+07         0.00000E+00
   -0.13693E+07        -0.10356E+08         0.00000E+00
    0.00000E+00         0.00000E+00         0.00000E+00
 
   -0.22928E+08        -0.12191E+07         0.00000E+00
   -0.12191E+07        -0.98790E+07         0.00000E+00
    0.00000E+00         0.00000E+00         0.00000E+00
 
   -0.22986E+08        -0.10915E+07         0.00000E+00
   -0.10915E+07        -0.94467E+07         0.00000E+00
    0.00000E+00         0.00000E+00         0.00000E+00
 
   -0.23043E+08        -0.98312E+06         0.00000E+00
   -0.98312E+06        -0.90541E+07         0.00000E+00
    0.00000E+00         0.00000E+00         0.00000E+00
 
   -0.23096E+08        -0.89092E+06         0.00000E+00
   -0.89092E+06        -0.86970E+07         0.00000E+00
    0.00000E+00         0.00000E+00         0.00000E+00
 
   -0.23144E+08        -0.81245E+06         0.00000E+00
   -0.81245E+06        -0.83720E+07         0.00000E+00
    0.00000E+00         0.00000E+00         0.00000E+00
 
   -0.23185E+08        -0.74564E+06         0.00000E+00
   -0.74564E+06        -0.80757E+07         0.00000E+00
    0.00000E+00         0.00000E+00         0.00000E+00
 
   -0.23219E+08        -0.68873E+06         0.00000E+00
   -0.68873E+06        -0.78053E+07         0.00000E+00
    0.00000E+00         0.00000E+00         0.00000E+00
 
   -0.23244E+08        -0.64027E+06         0.00000E+00
   -0.64027E+06        -0.75587E+07         0.00000E+00
    0.00000E+00         0.00000E+00         0.00000E+00
 
   -0.23260E+08        -0.59908E+06         0.00000E+00
   -0.59908E+06        -0.73336E+07         0.00000E+00
    0.00000E+00         0.00000E+00         0.00000E+00
 
   -0.23265E+08        -0.56419E+06         0.00000E+00
   -0.56419E+06        -0.71288E+07         0.00000E+00
    0.00000E+00         0.00000E+00         0.00000E+00
 
   -0.23259E+08        -0.53475E+06         0.00000E+00
   -0.53475E+06        -0.69432E+07         0.00000E+00
    0.00000E+00         0.00000E+00         0.00000E+00
 
   -0.23240E+08        -0.50997E+06         0.00000E+00
   -0.50997E+06        -0.67761E+07         0.00000E+00
    0.00000E+00         0.00000E+00         0.00000E+00
 
   -0.23207E+08        -0.48913E+06         0.00000E+00
   -0.48913E+06        -0.66271E+07         0.00000E+00
    0.00000E+00         0.00000E+00         0.00000E+00
 
   -0.23157E+08        -0.47149E+06         0.00000E+00
   -0.47149E+06        -0.64963E+07         0.00000E+00
    0.00000E+00         0.00000E+00         0.00000E+00
 
   -0.23090E+08        -0.45637E+06         0.00000E+00
   -0.45637E+06        -0.63843E+07         0.00000E+00
    0.00000E+00         0.00000E+00         0.00000E+00
 
   -0.23002E+08        -0.44286E+06         0.00000E+00
   -0.44286E+06        -0.62921E+07         0.00000E+00
    0.00000E+00         0.00000E+00         0.00000E+00
 
   -0.22891E+08        -0.42997E+06         0.00000E+00
   -0.42997E+06        -0.62213E+07         0.00000E+00
    0.00000E+00         0.00000E+00         0.00000E+00
 
   -0.22753E+08        -0.41653E+06         0.00000E+00
   -0.41653E+06        -0.61740E+07         0.00000E+00
    0.00000E+00         0.00000E+00         0.00000E+00
 
   -0.22584E+08        -0.40133E+06         0.00000E+00
   -0.40133E+06        -0.61531E+07         0.00000E+00
    0.00000E+00         0.00000E+00         0.00000E+00
 
   -0.22379E+08        -0.38305E+06         0.00000E+00
   -0.38305E+06        -0.61623E+07         0.00000E+00
    0.00000E+00         0.00000E+00         0.00000E+00
 
   -0.22131E+08        -0.35910E+06         0.00000E+00
   -0.35910E+06        -0.62073E+07         0.00000E+00
    0.00000E+00         0.00000E+00         0.00000E+00
 
   -0.21832E+08        -0.32580E+06         0.00000E+00
   -0.32580E+06        -0.62941E+07         0.00000E+00
    0.00000E+00         0.00000E+00         0.00000E+00
 
   -0.21475E+08        -0.27900E+06         0.00000E+00
   -0.27900E+06        -0.64304E+07         0.00000E+00
    0.00000E+00         0.00000E+00         0.00000E+00
 
   -0.21049E+08        -0.21235E+06         0.00000E+00
   -0.21235E+06        -0.66275E+07         0.00000E+00
    0.00000E+00         0.00000E+00         0.00000E+00
 
   -0.20545E+08        -0.11368E+06         0.00000E+00
   -0.11368E+06        -0.68971E+07         0.00000E+00
    0.00000E+00         0.00000E+00         0.00000E+00
 
   -0.19936E+08         0.21340E+05         0.00000E+00
    0.21340E+05        -0.72448E+07         0.00000E+00
    0.00000E+00         0.00000E+00         0.00000E+00
 
   -0.19157E+08         0.19984E+06         0.00000E+00
    0.19984E+06        -0.76143E+07         0.00000E+00
    0.00000E+00         0.00000E+00         0.00000E+00
 
   -0.18195E+08         0.46772E+06         0.00000E+00
    0.46772E+06        -0.80579E+07         0.00000E+00
    0.00000E+00         0.00000E+00         0.00000E+00
 
   -0.17048E+08         0.83257E+06         0.00000E+00
    0.83257E+06        -0.86031E+07         0.00000E+00
    0.00000E+00         0.00000E+00         0.00000E+00
 
   -0.15620E+08         0.13236E+07         0.00000E+00
    0.13236E+07        -0.92653E+07         0.00000E+00
    0.00000E+00         0.00000E+00         0.00000E+00
 
   -0.13738E+08         0.20406E+07         0.00000E+00
    0.20406E+07        -0.10119E+08         0.00000E+00
    0.00000E+00         0.00000E+00         0.00000E+00
 
   -0.11275E+08         0.32767E+07         0.00000E+00
    0.32767E+07        -0.11276E+08         0.00000E+00
    0.00000E+00         0.00000E+00         0.00000E+00
 
   -0.85181E+07         0.55374E+07         0.00000E+00
    0.55374E+07        -0.12695E+08         0.00000E+00
    0.00000E+00         0.00000E+00         0.00000E+00
 
   -0.54840E+07         0.10141E+08         0.00000E+00
    0.10141E+08        -0.13900E+08         0.00000E+00
    0.00000E+00         0.00000E+00        -0.24417E+07
 
   -0.53027E+08        -0.34045E+07         0.00000E+00
   -0.34045E+07        -0.30219E+08         0.00000E+00
    0.00000E+00         0.00000E+00        -0.78906E+07
 
   -0.45210E+08        -0.56984E+07         0.00000E+00
   -0.56984E+07        -0.29641E+08         0.00000E+00
    0.00000E+00         0.00000E+00        -0.50412E+07
 
   -0.39696E+08        -0.55189E+07         0.00000E+00
   -0.55189E+07        -0.27705E+08         0.00000E+00
    0.00000E+00         0.00000E+00        -0.29333E+07
 
   -0.36353E+08        -0.48409E+07         0.00000E+00
   -0.48409E+07        -0.25418E+08         0.00000E+00
    0.00000E+00         0.00000E+00        -0.15592E+07
 
   -0.34265E+08        -0.41301E+07         0.00000E+00
   -0.41301E+07        -0.23225E+08         0.00000E+00
    0.00000E+00         0.00000E+00        -0.66055E+06
 
   -0.32962E+08        -0.34867E+07         0.00000E+00
   -0.34867E+07        -0.21249E+08         0.00000E+00
    0.00000E+00         0.00000E+00        -0.15002E+06
 
   -0.32126E+08        -0.29210E+07         0.00000E+00
   -0.29210E+07        -0.19489E+08         0.00000E+00
    0.00000E+00         0.00000E+00         0.00000E+00
 
   -0.31585E+08        -0.24444E+07         0.00000E+00
   -0.24444E+07        -0.17936E+08         0.00000E+00
    0.00000E+00         0.00000E+00         0.00000E+00
 
   -0.31247E+08        -0.20521E+07         0.00000E+00
   -0.20521E+07        -0.16576E+08         0.00000E+00
    0.00000E+00         0.00000E+00         0.00000E+00
 
   -0.31040E+08        -0.17329E+07         0.00000E+00
   -0.17329E+07        -0.15387E+08         0.00000E+00
    0.00000E+00         0.00000E+00         0.00000E+00
 
   -0.30932E+08        -0.14741E+07         0.00000E+00
   -0.14741E+07        -0.14352E+08         0.00000E+00
    0.00000E+00         0.00000E+00        -0.57125E+04
 
   -0.30841E+08        -0.12589E+07         0.00000E+00
   -0.12589E+07        -0.13469E+08         0.00000E+00
    0.00000E+00         0.00000E+00        -0.15346E+06
 
   -0.30787E+08        -0.10812E+07         0.00000E+00
   -0.10812E+07        -0.12714E+08         0.00000E+00
    0.00000E+00         0.00000E+00        -0.35557E+06
 
   -0.30759E+08        -0.93529E+06         0.00000E+00
   -0.93529E+06        -0.12069E+08         0.00000E+00
    0.00000E+00         0.00000E+00        -0.56302E+06
 
   -0.30748E+08        -0.81455E+06         0.00000E+00
   -0.81455E+06        -0.11520E+08         0.00000E+00
    0.00000E+00         0.00000E+00        -0.76552E+06
 
   -0.30747E+08        -0.71401E+06         0.00000E+00
   -0.71401E+06        -0.11049E+08         0.00000E+00
    0.00000E+00         0.00000E+00        -0.95955E+06
 
   -0.30752E+08        -0.63009E+06         0.00000E+00
   -0.63009E+06        -0.10641E+08         0.00000E+00
    0.00000E+00         0.00000E+00        -0.11426E+07
 
   -0.30759E+08        -0.55992E+06         0.00000E+00
   -0.55992E+06        -0.10286E+08         0.00000E+00
    0.00000E+00         0.00000E+00        -0.13133E+07
 
   -0.30766E+08        -0.50120E+06         0.00000E+00
   -0.50120E+06        -0.99751E+07         0.00000E+00
    0.00000E+00         0.00000E+00        -0.14703E+07
 
   -0.30771E+08        -0.45200E+06         0.00000E+00
   -0.45200E+06        -0.97022E+07         0.00000E+00
    0.00000E+00         0.00000E+00        -0.16134E+07
 
   -0.30773E+08        -0.41072E+06         0.00000E+00
   -0.41072E+06        -0.94601E+07         0.00000E+00
    0.00000E+00         0.00000E+00        -0.17431E+07
 
   -0.30770E+08        -0.37611E+06         0.00000E+00
   -0.37611E+06        -0.92435E+07         0.00000E+00
    0.00000E+00         0.00000E+00        -0.18597E+07
 
   -0.30761E+08        -0.34719E+06         0.00000E+00
   -0.34719E+06        -0.90479E+07         0.00000E+00
    0.00000E+00         0.00000E+00        -0.19635E+07
 
   -0.30744E+08        -0.32312E+06         0.00000E+00
   -0.32312E+06        -0.88699E+07         0.00000E+00
    0.00000E+00         0.00000E+00        -0.20547E+07
 
   -0.30720E+08        -0.30323E+06         0.00000E+00
   -0.30323E+06        -0.87068E+07         0.00000E+00
    0.00000E+00         0.00000E+00        -0.21333E+07
 
   -0.30686E+08        -0.28702E+06         0.00000E+00
   -0.28702E+06        -0.85562E+07         0.00000E+00
    0.00000E+00         0.00000E+00        -0.21994E+07
 
   -0.30642E+08        -0.27402E+06         0.00000E+00
   -0.27402E+06        -0.84159E+07         0.00000E+00
    0.00000E+00         0.00000E+00        -0.22526E+07
 
   -0.30585E+08        -0.26384E+06         0.00000E+00
   -0.26384E+06        -0.82841E+07         0.00000E+00
    0.00000E+00         0.00000E+00        -0.22927E+07
 
   -0.30514E+08        -0.25615E+06         0.00000E+00
   -0.25615E+06        -0.81594E+07         0.00000E+00
    0.00000E+00         0.00000E+00        -0.23188E+07
 
   -0.30428E+08        -0.25059E+06         0.00000E+00
   -0.25059E+06        -0.80407E+07         0.00000E+00
    0.00000E+00         0.00000E+00        -0.23301E+07
 
   -0.30324E+08        -0.24685E+06         0.00000E+00
   -0.24685E+06        -0.79269E+07         0.00000E+00
    0.00000E+00         0.00000E+00        -0.23250E+07
 
   -0.30199E+08        -0.24450E+06         0.00000E+00
   -0.24450E+06        -0.78172E+07         0.00000E+00
    0.00000E+00         0.00000E+00        -0.23017E+07
 
   -0.30051E+08        -0.24304E+06         0.00000E+00
   -0.24304E+06        -0.77113E+07         0.00000E+00
    0.00000E+00         0.00000E+00        -0.22580E+07
 
   -0.29874E+08        -0.24178E+06         0.00000E+00
   -0.24178E+06        -0.76091E+07         0.00000E+00
    0.00000E+00         0.00000E+00        -0.21911E+07
 
   -0.29666E+08        -0.23984E+06         0.00000E+00
   -0.23984E+06        -0.75108E+07         0.00000E+00
    0.00000E+00         0.00000E+00        -0.20974E+07
 
   -0.29420E+08        -0.23672E+06         0.00000E+00
   -0.23672E+06        -0.74167E+07         0.00000E+00
    0.00000E+00         0.00000E+00        -0.19724E+07
 
   -0.29128E+08        -0.23184E+06         0.00000E+00
   -0.23184E+06        -0.73266E+07         0.00000E+00
    0.00000E+00         0.00000E+00        -0.18100E+07
 
   -0.28782E+08        -0.22233E+06         0.00000E+00
   -0.22233E+06        -0.72435E+07         0.00000E+00
    0.00000E+00         0.00000E+00        -0.16033E+07
 
   -0.28375E+08        -0.20803E+06         0.00000E+00
   -0.20803E+06        -0.71740E+07         0.00000E+00
    0.00000E+00         0.00000E+00        -0.13456E+07
 
   -0.27894E+08        -0.18826E+06         0.00000E+00
   -0.18826E+06        -0.71266E+07         0.00000E+00
    0.00000E+00         0.00000E+00        -0.10241E+07
 
   -0.27325E+08        -0.16129E+06         0.00000E+00
   -0.16129E+06        -0.71230E+07         0.00000E+00
    0.00000E+00         0.00000E+00        -0.61721E+06
 
   -0.26697E+08        -0.12340E+06         0.00000E+00
   -0.12340E+06        -0.71996E+07         0.00000E+00
    0.00000E+00         0.00000E+00        -0.12980E+06
 
   -0.25794E+08        -0.57097E+05         0.00000E+00
   -0.57097E+05        -0.74791E+07         0.00000E+00
    0.00000E+00         0.00000E+00         0.00000E+00
 
   -0.24722E+08         0.67001E+05         0.00000E+00
    0.67001E+05        -0.79221E+07         0.00000E+00
    0.00000E+00         0.00000E+00         0.00000E+00
 
   -0.23436E+08         0.28304E+06         0.00000E+00
    0.28304E+06        -0.85337E+07         0.00000E+00
    0.00000E+00         0.00000E+00         0.00000E+00
 
   -0.21859E+08         0.61934E+06         0.00000E+00
    0.61934E+06        -0.93243E+07         0.00000E+00
    0.00000E+00         0.00000E+00         0.00000E+00
 
   -0.19689E+08         0.10662E+07         0.00000E+00
    0.10662E+07        -0.10284E+08         0.00000E+00
    0.00000E+00         0.00000E+00         0.00000E+00
 
   -0.16574E+08         0.18863E+07         0.00000E+00
    0.18863E+07        -0.11459E+08         0.00000E+00
    0.00000E+00         0.00000E+00         0.00000E+00
 
   -0.12339E+08         0.36430E+07         0.00000E+00
    0.36430E+07        -0.13236E+08         0.00000E+00
    0.00000E+00         0.00000E+00         0.00000E+00
 
   -0.54676E+07         0.83353E+07         0.00000E+00
    0.83353E+07        -0.16107E+08         0.00000E+00
    0.00000E+00         0.00000E+00        -0.71322E+06
 
   -0.69080E+08        -0.22845E+07         0.00000E+00
   -0.22845E+07        -0.40793E+08         0.00000E+00
    0.00000E+00         0.00000E+00        -0.13410E+08
 
   -0.57003E+08        -0.24634E+07         0.00000E+00
   -0.24634E+07        -0.36733E+08         0.00000E+00
    0.00000E+00         0.00000E+00        -0.82579E+07
 
   -0.50804E+08        -0.20555E+07         0.00000E+00
   -0.20555E+07        -0.32648E+08         0.00000E+00
    0.00000E+00         0.00000E+00        -0.60047E+07
 
   -0.47093E+08        -0.16953E+07         0.00000E+00
   -0.16953E+07        -0.29176E+08         0.00000E+00
    0.00000E+00         0.00000E+00        -0.48052E+07
 
   -0.44752E+08        -0.13880E+07         0.00000E+00
   -0.13880E+07        -0.26320E+08         0.00000E+00
    0.00000E+00         0.00000E+00        -0.41757E+07
 
   -0.43232E+08        -0.11368E+07         0.00000E+00
   -0.11368E+07        -0.23983E+08         0.00000E+00
    0.00000E+00         0.00000E+00        -0.38918E+07
 
   -0.42217E+08        -0.92752E+06         0.00000E+00
   -0.92752E+06        -0.22067E+08         0.00000E+00
    0.00000E+00         0.00000E+00        -0.38408E+07
 
   -0.41518E+08        -0.75821E+06         0.00000E+00
   -0.75821E+06        -0.20505E+08         0.00000E+00
    0.00000E+00         0.00000E+00        -0.39552E+07
 
   -0.41044E+08        -0.61978E+06         0.00000E+00
   -0.61978E+06        -0.19231E+08         0.00000E+00
    0.00000E+00         0.00000E+00        -0.41358E+07
 
   -0.40714E+08        -0.51218E+06         0.00000E+00
   -0.51218E+06        -0.18187E+08         0.00000E+00
    0.00000E+00         0.00000E+00        -0.43450E+07
 
   -0.40474E+08        -0.42902E+06         0.00000E+00
   -0.42902E+06        -0.17322E+08         0.00000E+00
    0.00000E+00         0.00000E+00        -0.45651E+07
 
   -0.40287E+08        -0.36490E+06         0.00000E+00
   -0.36490E+06        -0.16587E+08         0.00000E+00
    0.00000E+00         0.00000E+00        -0.47803E+07
 
   -0.40137E+08        -0.31413E+06         0.00000E+00
   -0.31413E+06        -0.15956E+08         0.00000E+00
    0.00000E+00         0.00000E+00        -0.49822E+07
 
   -0.40016E+08        -0.27129E+06         0.00000E+00
   -0.27129E+06        -0.15415E+08         0.00000E+00
    0.00000E+00         0.00000E+00        -0.51706E+07
 
   -0.39916E+08        -0.23559E+06         0.00000E+00
   -0.23559E+06        -0.14950E+08         0.00000E+00
    0.00000E+00         0.00000E+00        -0.53479E+07
 
   -0.39831E+08        -0.20618E+06         0.00000E+00
   -0.20618E+06        -0.14546E+08         0.00000E+00
    0.00000E+00         0.00000E+00        -0.55122E+07
 
   -0.39757E+08        -0.18179E+06         0.00000E+00
   -0.18179E+06        -0.14193E+08         0.00000E+00
    0.00000E+00         0.00000E+00        -0.56625E+07
 
   -0.39689E+08        -0.16157E+06         0.00000E+00
   -0.16157E+06        -0.13881E+08         0.00000E+00
    0.00000E+00         0.00000E+00        -0.57983E+07
 
   -0.39625E+08        -0.14474E+06         0.00000E+00
   -0.14474E+06        -0.13604E+08         0.00000E+00
    0.00000E+00         0.00000E+00        -0.59200E+07
 
   -0.39563E+08        -0.13065E+06         0.00000E+00
   -0.13065E+06        -0.13356E+08         0.00000E+00
    0.00000E+00         0.00000E+00        -0.60282E+07
 
   -0.39501E+08        -0.11879E+06         0.00000E+00
   -0.11879E+06        -0.13133E+08         0.00000E+00
    0.00000E+00         0.00000E+00        -0.61237E+07
 
   -0.39438E+08        -0.10879E+06         0.00000E+00
   -0.10879E+06        -0.12930E+08         0.00000E+00
    0.00000E+00         0.00000E+00        -0.62072E+07
 
   -0.39370E+08        -0.10042E+06         0.00000E+00
   -0.10042E+06        -0.12744E+08         0.00000E+00
    0.00000E+00         0.00000E+00        -0.62792E+07
 
   -0.39298E+08        -0.93488E+05         0.00000E+00
   -0.93488E+05        -0.12572E+08         0.00000E+00
    0.00000E+00         0.00000E+00        -0.63401E+07
 
   -0.39219E+08        -0.87823E+05         0.00000E+00
   -0.87823E+05        -0.12412E+08         0.00000E+00
    0.00000E+00         0.00000E+00        -0.63900E+07
 
   -0.39133E+08        -0.83180E+05         0.00000E+00
   -0.83180E+05        -0.12261E+08         0.00000E+00
    0.00000E+00         0.00000E+00        -0.64289E+07
 
   -0.39037E+08        -0.79457E+05         0.00000E+00
   -0.79457E+05        -0.12119E+08         0.00000E+00
    0.00000E+00         0.00000E+00        -0.64564E+07
 
   -0.38930E+08        -0.76560E+05         0.00000E+00
   -0.76560E+05        -0.11983E+08         0.00000E+00
    0.00000E+00         0.00000E+00        -0.64722E+07
 
   -0.38809E+08        -0.74385E+05         0.00000E+00
   -0.74385E+05        -0.11852E+08         0.00000E+00
    0.00000E+00         0.00000E+00        -0.64755E+07
 
   -0.38672E+08        -0.72887E+05         0.00000E+00
   -0.72887E+05        -0.11725E+08         0.00000E+00
    0.00000E+00         0.00000E+00        -0.64653E+07
 
   -0.38518E+08        -0.71857E+05         0.00000E+00
   -0.71857E+05        -0.11600E+08         0.00000E+00
    0.00000E+00         0.00000E+00        -0.64403E+07
 
   -0.38341E+08        -0.71258E+05         0.00000E+00
   -0.71258E+05        -0.11478E+08         0.00000E+00
    0.00000E+00         0.00000E+00        -0.63983E+07
 
   -0.38140E+08        -0.70925E+05         0.00000E+00
   -0.70925E+05        -0.11357E+08         0.00000E+00
    0.00000E+00         0.00000E+00        -0.63374E+07
 
   -0.37910E+08        -0.70598E+05         0.00000E+00
   -0.70598E+05        -0.11237E+08         0.00000E+00
    0.00000E+00         0.00000E+00        -0.62541E+07
 
   -0.37645E+08        -0.69813E+05         0.00000E+00
   -0.69813E+05        -0.11118E+08         0.00000E+00
    0.00000E+00         0.00000E+00        -0.61447E+07
 
   -0.37343E+08        -0.68250E+05         0.00000E+00
   -0.68250E+05        -0.11002E+08         0.00000E+00
    0.00000E+00         0.00000E+00        -0.60052E+07
 
   -0.36990E+08        -0.66460E+05         0.00000E+00
   -0.66460E+05        -0.10891E+08         0.00000E+00
    0.00000E+00         0.00000E+00        -0.58428E+07
 
   -0.36581E+08        -0.63106E+05         0.00000E+00
   -0.63106E+05        -0.10787E+08         0.00000E+00
    0.00000E+00         0.00000E+00        -0.56484E+07
 
   -0.36109E+08        -0.58701E+05         0.00000E+00
   -0.58701E+05        -0.10690E+08         0.00000E+00
    0.00000E+00         0.00000E+00        -0.54067E+07
 
   -0.35562E+08        -0.54708E+05         0.00000E+00
   -0.54708E+05        -0.10604E+08         0.00000E+00
    0.00000E+00         0.00000E+00        -0.51146E+07
 
   -0.34936E+08        -0.60045E+05         0.00000E+00
   -0.60045E+05        -0.10523E+08         0.00000E+00
    0.00000E+00         0.00000E+00        -0.47583E+07
 
   -0.34188E+08        -0.75449E+05         0.00000E+00
   -0.75449E+05        -0.10438E+08         0.00000E+00
    0.00000E+00         0.00000E+00        -0.43203E+07
 
   -0.33229E+08        -0.81853E+05         0.00000E+00
   -0.81853E+05        -0.10301E+08         0.00000E+00
    0.00000E+00         0.00000E+00        -0.37924E+07
 
   -0.32033E+08        -0.72526E+05         0.00000E+00
   -0.72526E+05        -0.10160E+08         0.00000E+00
    0.00000E+00         0.00000E+00        -0.31380E+07
 
   -0.30608E+08        -0.12312E+05         0.00000E+00
   -0.12312E+05        -0.10086E+08         0.00000E+00
    0.00000E+00         0.00000E+00        -0.22643E+07
 
   -0.28900E+08         0.11821E+06         0.00000E+00
    0.11821E+06        -0.10172E+08         0.00000E+00
    0.00000E+00         0.00000E+00        -0.11176E+07
 
   -0.26677E+08         0.28901E+06         0.00000E+00
    0.28901E+06        -0.10561E+08         0.00000E+00
    0.00000E+00         0.00000E+00        -0.43653E+05
 
   -0.23056E+08         0.58749E+06         0.00000E+00
    0.58749E+06        -0.11503E+08         0.00000E+00
    0.00000E+00         0.00000E+00         0.00000E+00
 
   -0.17550E+08         0.12963E+07         0.00000E+00
    0.12963E+07        -0.13378E+08         0.00000E+00
    0.00000E+00         0.00000E+00         0.00000E+00
 
   -0.70523E+07         0.33208E+07         0.00000E+00
    0.33208E+07        -0.17809E+08         0.00000E+00
    0.00000E+00         0.00000E+00         0.00000E+00
 
TENSORS stresstot double 
   -0.56682E+08        -0.84789E+05         0.00000E+00
   -0.84789E+05        -0.60078E+08         0.00000E+00
    0.00000E+00         0.00000E+00        -0.59782E+08
 
   -0.57080E+08        -0.76401E+05         0.00000E+00
   -0.76401E+05        -0.60204E+08         0.00000E+00
    0.00000E+00         0.00000E+00        -0.59788E+08
 
   -0.57256E+08        -0.56817E+05         0.00000E+00
   -0.56817E+05        -0.60326E+08         0.00000E+00
    0.00000E+00         0.00000E+00        -0.59794E+08
 
   -0.57359E+08        -0.42445E+05         0.00000E+00
   -0.42445E+05        -0.60422E+08         0.00000E+00
    0.00000E+00         0.00000E+00        -0.59801E+08
 
   -0.57429E+08        -0.31525E+05         0.00000E+00
   -0.31525E+05        -0.60495E+08         0.00000E+00
    0.00000E+00         0.00000E+00        -0.59808E+08
 
   -0.57483E+08        -0.23178E+05         0.00000E+00
   -0.23178E+05        -0.60549E+08         0.00000E+00
    0.00000E+00         0.00000E+00        -0.59813E+08
 
   -0.57529E+08        -0.16662E+05         0.00000E+00
   -0.16662E+05        -0.60590E+08         0.00000E+00
    0.00000E+00         0.00000E+00        -0.59819E+08
 
   -0.57571E+08        -0.11476E+05         0.00000E+00
   -0.11476E+05        -0.60619E+08         0.00000E+00
    0.00000E+00         0.00000E+00        -0.59824E+08
 
   -0.57611E+08        -0.72738E+04         0.00000E+00
   -0.72738E+04        -0.60638E+08         0.00000E+00
    0.00000E+00         0.00000E+00        -0.59828E+08
 
   -0.57650E+08        -0.38182E+04         0.00000E+00
   -0.38182E+04        -0.60650E+08         0.00000E+00
    0.00000E+00         0.00000E+00        -0.59832E+08
 
   -0.57690E+08        -0.94168E+03         0.00000E+00
   -0.94168E+03        -0.60656E+08         0.00000E+00
    0.00000E+00         0.00000E+00        -0.59836E+08
 
   -0.57730E+08         0.14760E+04         0.00000E+00
    0.14760E+04        -0.60657E+08         0.00000E+00
    0.00000E+00         0.00000E+00        -0.59839E+08
 
   -0.57772E+08         0.35230E+04         0.00000E+00
    0.35230E+04        -0.60653E+08         0.00000E+00
    0.00000E+00         0.00000E+00        -0.59843E+08
 
   -0.57814E+08         0.52654E+04         0.00000E+00
    0.52654E+04        -0.60645E+08         0.00000E+00
    0.00000E+00         0.00000E+00        -0.59846E+08
 
   -0.57857E+08         0.67536E+04         0.00000E+00
    0.67536E+04        -0.60634E+08         0.00000E+00
    0.00000E+00         0.00000E+00        -0.59849E+08
 
   -0.57902E+08         0.80265E+04         0.00000E+00
    0.80265E+04        -0.60620E+08         0.00000E+00
    0.00000E+00         0.00000E+00        -0.59852E+08
 
   -0.57947E+08         0.91146E+04         0.00000E+00
    0.91146E+04        -0.60604E+08         0.00000E+00
    0.00000E+00         0.00000E+00        -0.59855E+08
 
   -0.57993E+08         0.10043E+05         0.00000E+00
    0.10043E+05        -0.60585E+08         0.00000E+00
    0.00000E+00         0.00000E+00        -0.59858E+08
 
   -0.58040E+08         0.10830E+05         0.00000E+00
    0.10830E+05        -0.60565E+08         0.00000E+00
    0.00000E+00         0.00000E+00        -0.59860E+08
 
   -0.58087E+08         0.11493E+05         0.00000E+00
    0.11493E+05        -0.60544E+08         0.00000E+00
    0.00000E+00         0.00000E+00        -0.59863E+08
 
   -0.58135E+08         0.12044E+05         0.00000E+00
    0.12044E+05        -0.60521E+08         0.00000E+00
    0.00000E+00         0.00000E+00        -0.59866E+08
 
   -0.58184E+08         0.12496E+05         0.00000E+00
    0.12496E+05        -0.60497E+08         0.00000E+00
    0.00000E+00         0.00000E+00        -0.59868E+08
 
   -0.58232E+08         0.12858E+05         0.00000E+00
    0.12858E+05        -0.60473E+08         0.00000E+00
    0.00000E+00         0.00000E+00        -0.59871E+08
 
   -0.58281E+08         0.13138E+05         0.00000E+00
    0.13138E+05        -0.60447E+08         0.00000E+00
    0.00000E+00         0.00000E+00        -0.59873E+08
 
   -0.58330E+08         0.13343E+05         0.00000E+00
    0.13343E+05        -0.60422E+08         0.00000E+00
    0.00000E+00         0.00000E+00        -0.59875E+08
 
   -0.58379E+08         0.13481E+05         0.00000E+00
    0.13481E+05        -0.60396E+08         0.00000E+00
    0.00000E+00         0.00000E+00        -0.59878E+08
 
   -0.58427E+08         0.13557E+05         0.00000E+00
    0.13557E+05        -0.60369E+08         0.00000E+00
    0.00000E+00         0.00000E+00        -0.59880E+08
 
   -0.58476E+08         0.13576E+05         0.00000E+00
    0.13576E+05        -0.60343E+08         0.00000E+00
    0.00000E+00         0.00000E+00        -0.59882E+08
 
   -0.58524E+08         0.13545E+05         0.00000E+00
    0.13545E+05        -0.60317E+08         0.00000E+00
    0.00000E+00         0.00000E+00        -0.59884E+08
 
   -0.58572E+08         0.13469E+05         0.00000E+00
    0.13469E+05        -0.60290E+08         0.00000E+00
    0.00000E+00         0.00000E+00        -0.59887E+08
 
   -0.58619E+08         0.13353E+05         0.00000E+00
    0.13353E+05        -0.60264E+08         0.00000E+00
    0.00000E+00         0.00000E+00        -0.59889E+08
 
   -0.58667E+08         0.13202E+05         0.00000E+00
    0.13202E+05        -0.60238E+08         0.00000E+00
    0.00000E+00         0.00000E+00        -0.59891E+08
 
   -0.58713E+08         0.13023E+05         0.00000E+00
    0.13023E+05        -0.60213E+08         0.00000E+00
    0.00000E+00         0.00000E+00        -0.59893E+08
 
   -0.58759E+08         0.12821E+05         0.00000E+00
    0.12821E+05        -0.60188E+08         0.00000E+00
    0.00000E+00         0.00000E+00        -0.59895E+08
 
   -0.58805E+08         0.12603E+05         0.00000E+00
    0.12603E+05        -0.60163E+08         0.00000E+00
    0.00000E+00         0.00000E+00        -0.59897E+08
 
   -0.58851E+08         0.12377E+05         0.00000E+00
    0.12377E+05        -0.60139E+08         0.00000E+00
    0.00000E+00         0.00000E+00        -0.59899E+08
 
   -0.58896E+08         0.12152E+05         0.00000E+00
    0.12152E+05        -0.60115E+08         0.00000E+00
    0.00000E+00         0.00000E+00        -0.59902E+08
 
   -0.58941E+08         0.11939E+05         0.00000E+00
    0.11939E+05        -0.60091E+08         0.00000E+00
    0.00000E+00         0.00000E+00        -0.59904E+08
 
   -0.58986E+08         0.11752E+05         0.00000E+00
    0.11752E+05        -0.60068E+08         0.00000E+00
    0.00000E+00         0.00000E+00        -0.59906E+08
 
   -0.59032E+08         0.11607E+05         0.00000E+00
    0.11607E+05        -0.60046E+08         0.00000E+00
    0.00000E+00         0.00000E+00        -0.59908E+08
 
   -0.59078E+08         0.11530E+05         0.00000E+00
    0.11530E+05        -0.60023E+08         0.00000E+00
    0.00000E+00         0.00000E+00        -0.59910E+08
 
   -0.59126E+08         0.11552E+05         0.00000E+00
    0.11552E+05        -0.60001E+08         0.00000E+00
    0.00000E+00         0.00000E+00        -0.59912E+08
 
   -0.59175E+08         0.11722E+05         0.00000E+00
    0.11722E+05        -0.59978E+08         0.00000E+00
    0.00000E+00         0.00000E+00        -0.59915E+08
 
   -0.59227E+08         0.12116E+05         0.00000E+00
    0.12116E+05        -0.59955E+08         0.00000E+00
    0.00000E+00         0.00000E+00        -0.59917E+08
 
   -0.59284E+08         0.12856E+05         0.00000E+00
    0.12856E+05        -0.59931E+08         0.00000E+00
    0.00000E+00         0.00000E+00        -0.59919E+08
 
   -0.59347E+08         0.14159E+05         0.00000E+00
    0.14159E+05        -0.59905E+08         0.00000E+00
    0.00000E+00         0.00000E+00        -0.59922E+08
 
   -0.59420E+08         0.16439E+05         0.00000E+00
    0.16439E+05        -0.59875E+08         0.00000E+00
    0.00000E+00         0.00000E+00        -0.59924E+08
 
   -0.59509E+08         0.20633E+05         0.00000E+00
    0.20633E+05        -0.59838E+08         0.00000E+00
    0.00000E+00         0.00000E+00        -0.59926E+08
 
   -0.59627E+08         0.28955E+05         0.00000E+00
    0.28955E+05        -0.59789E+08         0.00000E+00
    0.00000E+00         0.00000E+00        -0.59928E+08
 
   -0.59813E+08         0.55659E+05         0.00000E+00
    0.55659E+05        -0.59709E+08         0.00000E+00
    0.00000E+00         0.00000E+00        -0.59930E+08
 
   -0.56815E+08        -0.11866E+06         0.00000E+00
   -0.11866E+06        -0.59987E+08         0.00000E+00
    0.00000E+00         0.00000E+00        -0.59406E+08
 
   -0.57063E+08        -0.17535E+06         0.00000E+00
   -0.17535E+06        -0.60010E+08         0.00000E+00
    0.00000E+00         0.00000E+00        -0.59417E+08
 
   -0.57232E+08        -0.15084E+06         0.00000E+00
   -0.15084E+06        -0.60072E+08         0.00000E+00
    0.00000E+00         0.00000E+00        -0.59433E+08
 
   -0.57338E+08        -0.11985E+06         0.00000E+00
   -0.11985E+06        -0.60140E+08         0.00000E+00
    0.00000E+00         0.00000E+00        -0.59449E+08
 
   -0.57412E+08        -0.92750E+05         0.00000E+00
   -0.92750E+05        -0.60200E+08         0.00000E+00
    0.00000E+00         0.00000E+00        -0.59465E+08
 
   -0.57470E+08        -0.70453E+05         0.00000E+00
   -0.70453E+05        -0.60250E+08         0.00000E+00
    0.00000E+00         0.00000E+00        -0.59480E+08
 
   -0.57518E+08        -0.52298E+05         0.00000E+00
   -0.52298E+05        -0.60290E+08         0.00000E+00
    0.00000E+00         0.00000E+00        -0.59493E+08
 
   -0.57562E+08        -0.37445E+05         0.00000E+00
   -0.37445E+05        -0.60321E+08         0.00000E+00
    0.00000E+00         0.00000E+00        -0.59506E+08
 
   -0.57603E+08        -0.25188E+05         0.00000E+00
   -0.25188E+05        -0.60343E+08         0.00000E+00
    0.00000E+00         0.00000E+00        -0.59518E+08
 
   -0.57644E+08        -0.14976E+05         0.00000E+00
   -0.14976E+05        -0.60359E+08         0.00000E+00
    0.00000E+00         0.00000E+00        -0.59529E+08
 
   -0.57685E+08        -0.63966E+04         0.00000E+00
   -0.63966E+04        -0.60369E+08         0.00000E+00
    0.00000E+00         0.00000E+00        -0.59539E+08
 
   -0.57726E+08         0.86435E+03         0.00000E+00
    0.86435E+03        -0.60374E+08         0.00000E+00
    0.00000E+00         0.00000E+00        -0.59549E+08
 
   -0.57768E+08         0.70444E+04         0.00000E+00
    0.70444E+04        -0.60374E+08         0.00000E+00
    0.00000E+00         0.00000E+00        -0.59558E+08
 
   -0.57811E+08         0.12326E+05         0.00000E+00
    0.12326E+05        -0.60371E+08         0.00000E+00
    0.00000E+00         0.00000E+00        -0.59567E+08
 
   -0.57854E+08         0.16852E+05         0.00000E+00
    0.16852E+05        -0.60365E+08         0.00000E+00
    0.00000E+00         0.00000E+00        -0.59576E+08
 
   -0.57899E+08         0.20735E+05         0.00000E+00
    0.20735E+05        -0.60355E+08         0.00000E+00
    0.00000E+00         0.00000E+00        -0.59584E+08
 
   -0.57945E+08         0.24062E+05         0.00000E+00
    0.24062E+05        -0.60343E+08         0.00000E+00
    0.00000E+00         0.00000E+00        -0.59592E+08
 
   -0.57991E+08         0.26906E+05         0.00000E+00
    0.26906E+05        -0.60330E+08         0.00000E+00
    0.00000E+00         0.00000E+00        -0.59600E+08
 
   -0.58038E+08         0.29325E+05         0.00000E+00
    0.29325E+05        -0.60314E+08         0.00000E+00
    0.00000E+00         0.00000E+00        -0.59607E+08
 
   -0.58086E+08         0.31368E+05         0.00000E+00
    0.31368E+05        -0.60297E+08         0.00000E+00
    0.00000E+00         0.00000E+00        -0.59614E+08
 
   -0.58134E+08         0.33074E+05         0.00000E+00
    0.33074E+05        -0.60278E+08         0.00000E+00
    0.00000E+00         0.00000E+00        -0.59622E+08
 
   -0.58183E+08         0.34478E+05         0.00000E+00
    0.34478E+05        -0.60259E+08         0.00000E+00
    0.00000E+00         0.00000E+00        -0.59629E+08
 
   -0.58231E+08         0.35609E+05         0.00000E+00
    0.35609E+05        -0.60239E+08         0.00000E+00
    0.00000E+00         0.00000E+00        -0.59635E+08
 
   -0.58280E+08         0.36492E+05         0.00000E+00
    0.36492E+05        -0.60217E+08         0.00000E+00
    0.00000E+00         0.00000E+00        -0.59642E+08
 
   -0.58329E+08         0.37149E+05         0.00000E+00
    0.37149E+05        -0.60196E+08         0.00000E+00
    0.00000E+00         0.00000E+00        -0.59649E+08
 
   -0.58378E+08         0.37600E+05         0.00000E+00
    0.37600E+05        -0.60174E+08         0.00000E+00
    0.00000E+00         0.00000E+00        -0.59655E+08
 
   -0.58427E+08         0.37864E+05         0.00000E+00
    0.37864E+05        -0.60151E+08         0.00000E+00
    0.00000E+00         0.00000E+00        -0.59662E+08
 
   -0.58476E+08         0.37957E+05         0.00000E+00
    0.37957E+05        -0.60129E+08         0.00000E+00
    0.00000E+00         0.00000E+00        -0.59668E+08
 
   -0.58524E+08         0.37897E+05         0.00000E+00
    0.37897E+05        -0.60106E+08         0.00000E+00
    0.00000E+00         0.00000E+00        -0.59674E+08
 
   -0.58572E+08         0.37698E+05         0.00000E+00
    0.37698E+05        -0.60084E+08         0.00000E+00
    0.00000E+00         0.00000E+00        -0.59680E+08
 
   -0.58620E+08         0.37376E+05         0.00000E+00
    0.37376E+05        -0.60062E+08         0.00000E+00
    0.00000E+00         0.00000E+00        -0.59686E+08
 
   -0.58667E+08         0.36948E+05         0.00000E+00
    0.36948E+05        -0.60040E+08         0.00000E+00
    0.00000E+00         0.00000E+00        -0.59692E+08
 
   -0.58714E+08         0.36430E+05         0.00000E+00
    0.36430E+05        -0.60018E+08         0.00000E+00
    0.00000E+00         0.00000E+00        -0.59698E+08
 
   -0.58760E+08         0.35840E+05         0.00000E+00
    0.35840E+05        -0.59996E+08         0.00000E+00
    0.00000E+00         0.00000E+00        -0.59704E+08
 
   -0.58806E+08         0.35199E+05         0.00000E+00
    0.35199E+05        -0.59975E+08         0.00000E+00
    0.00000E+00         0.00000E+00        -0.59710E+08
 
   -0.58851E+08         0.34528E+05         0.00000E+00
    0.34528E+05        -0.59955E+08         0.00000E+00
    0.00000E+00         0.00000E+00        -0.59716E+08
 
   -0.58896E+08         0.33855E+05         0.00000E+00
    0.33855E+05        -0.59934E+08         0.00000E+00
    0.00000E+00         0.00000E+00        -0.59722E+08
 
   -0.58941E+08         0.33211E+05         0.00000E+00
    0.33211E+05        -0.59915E+08         0.00000E+00
    0.00000E+00         0.00000E+00        -0.59728E+08
 
   -0.58987E+08         0.32639E+05         0.00000E+00
    0.32639E+05        -0.59895E+08         0.00000E+00
    0.00000E+00         0.00000E+00        -0.59734E+08
 
   -0.59032E+08         0.32189E+05         0.00000E+00
    0.32189E+05        -0.59876E+08         0.00000E+00
    0.00000E+00         0.00000E+00        -0.59740E+08
 
   -0.59078E+08         0.31935E+05         0.00000E+00
    0.31935E+05        -0.59858E+08         0.00000E+00
    0.00000E+00         0.00000E+00        -0.59746E+08
 
   -0.59125E+08         0.31978E+05         0.00000E+00
    0.31978E+05        -0.59839E+08         0.00000E+00
    0.00000E+00         0.00000E+00        -0.59752E+08
 
   -0.59174E+08         0.32468E+05         0.00000E+00
    0.32468E+05        -0.59820E+08         0.00000E+00
    0.00000E+00         0.00000E+00        -0.59758E+08
 
   -0.59226E+08         0.33635E+05         0.00000E+00
    0.33635E+05        -0.59801E+08         0.00000E+00
    0.00000E+00         0.00000E+00        -0.59764E+08
 
   -0.59282E+08         0.35861E+05         0.00000E+00
    0.35861E+05        -0.59780E+08         0.00000E+00
    0.00000E+00         0.00000E+00        -0.59770E+08
 
   -0.59343E+08         0.39805E+05         0.00000E+00
    0.39805E+05        -0.59757E+08         0.00000E+00
    0.00000E+00         0.00000E+00        -0.59777E+08
 
   -0.59414E+08         0.46725E+05         0.00000E+00
    0.46725E+05        -0.59731E+08         0.00000E+00
    0.00000E+00         0.00000E+00        -0.59783E+08
 
   -0.59498E+08         0.59275E+05         0.00000E+00
    0.59275E+05        -0.59698E+08         0.00000E+00
    0.00000E+00         0.00000E+00        -0.59789E+08
 
   -0.59603E+08         0.84270E+05         0.00000E+00
    0.84270E+05        -0.59654E+08         0.00000E+00
    0.00000E+00         0.00000E+00        -0.59794E+08
 
   -0.59730E+08         0.14429E+06         0.00000E+00
    0.14429E+06        -0.59593E+08         0.00000E+00
    0.00000E+00         0.00000E+00        -0.59797E+08
 
   -0.56976E+08        -0.95129E+05         0.00000E+00
   -0.95129E+05        -0.59984E+08         0.00000E+00
    0.00000E+00         0.00000E+00        -0.59136E+08
 
   -0.57083E+08        -0.18679E+06         0.00000E+00
   -0.18679E+06        -0.59963E+08         0.00000E+00
    0.00000E+00         0.00000E+00        -0.59147E+08
 
   -0.57209E+08        -0.19282E+06         0.00000E+00
   -0.19282E+06        -0.59964E+08         0.00000E+00
    0.00000E+00         0.00000E+00        -0.59164E+08
 
   -0.57309E+08        -0.16821E+06         0.00000E+00
   -0.16821E+06        -0.59988E+08         0.00000E+00
    0.00000E+00         0.00000E+00        -0.59183E+08
 
   -0.57385E+08        -0.13797E+06         0.00000E+00
   -0.13797E+06        -0.60020E+08         0.00000E+00
    0.00000E+00         0.00000E+00        -0.59202E+08
 
   -0.57446E+08        -0.10929E+06         0.00000E+00
   -0.10929E+06        -0.60053E+08         0.00000E+00
    0.00000E+00         0.00000E+00        -0.59221E+08
 
   -0.57498E+08        -0.84006E+05         0.00000E+00
   -0.84006E+05        -0.60082E+08         0.00000E+00
    0.00000E+00         0.00000E+00        -0.59239E+08
 
   -0.57545E+08        -0.62251E+05         0.00000E+00
   -0.62251E+05        -0.60107E+08         0.00000E+00
    0.00000E+00         0.00000E+00        -0.59256E+08
 
   -0.57589E+08        -0.43671E+05         0.00000E+00
   -0.43671E+05        -0.60126E+08         0.00000E+00
    0.00000E+00         0.00000E+00        -0.59272E+08
 
   -0.57632E+08        -0.27811E+05         0.00000E+00
   -0.27811E+05        -0.60141E+08         0.00000E+00
    0.00000E+00         0.00000E+00        -0.59288E+08
 
   -0.57674E+08        -0.14245E+05         0.00000E+00
   -0.14245E+05        -0.60151E+08         0.00000E+00
    0.00000E+00         0.00000E+00        -0.59303E+08
 
   -0.57717E+08        -0.26086E+04         0.00000E+00
   -0.26086E+04        -0.60156E+08         0.00000E+00
    0.00000E+00         0.00000E+00        -0.59317E+08
 
   -0.57760E+08         0.73987E+04         0.00000E+00
    0.73987E+04        -0.60159E+08         0.00000E+00
    0.00000E+00         0.00000E+00        -0.59330E+08
 
   -0.57804E+08         0.16022E+05         0.00000E+00
    0.16022E+05        -0.60157E+08         0.00000E+00
    0.00000E+00         0.00000E+00        -0.59343E+08
 
   -0.57849E+08         0.23459E+05         0.00000E+00
    0.23459E+05        -0.60153E+08         0.00000E+00
    0.00000E+00         0.00000E+00        -0.59356E+08
 
   -0.57894E+08         0.29873E+05         0.00000E+00
    0.29873E+05        -0.60146E+08         0.00000E+00
    0.00000E+00         0.00000E+00        -0.59368E+08
 
   -0.57941E+08         0.35395E+05         0.00000E+00
    0.35395E+05        -0.60137E+08         0.00000E+00
    0.00000E+00         0.00000E+00        -0.59379E+08
 
   -0.57988E+08         0.40134E+05         0.00000E+00
    0.40134E+05        -0.60126E+08         0.00000E+00
    0.00000E+00         0.00000E+00        -0.59391E+08
 
   -0.58035E+08         0.44181E+05         0.00000E+00
    0.44181E+05        -0.60114E+08         0.00000E+00
    0.00000E+00         0.00000E+00        -0.59402E+08
 
   -0.58083E+08         0.47610E+05         0.00000E+00
    0.47610E+05        -0.60099E+08         0.00000E+00
    0.00000E+00         0.00000E+00        -0.59413E+08
 
   -0.58132E+08         0.50487E+05         0.00000E+00
    0.50487E+05        -0.60084E+08         0.00000E+00
    0.00000E+00         0.00000E+00        -0.59424E+08
 
   -0.58181E+08         0.52864E+05         0.00000E+00
    0.52864E+05        -0.60067E+08         0.00000E+00
    0.00000E+00         0.00000E+00        -0.59434E+08
 
   -0.58230E+08         0.54789E+05         0.00000E+00
    0.54789E+05        -0.60050E+08         0.00000E+00
    0.00000E+00         0.00000E+00        -0.59445E+08
 
   -0.58279E+08         0.56303E+05         0.00000E+00
    0.56303E+05        -0.60032E+08         0.00000E+00
    0.00000E+00         0.00000E+00        -0.59455E+08
 
   -0.58329E+08         0.57442E+05         0.00000E+00
    0.57442E+05        -0.60013E+08         0.00000E+00
    0.00000E+00         0.00000E+00        -0.59465E+08
 
   -0.58378E+08         0.58238E+05         0.00000E+00
    0.58238E+05        -0.59994E+08         0.00000E+00
    0.00000E+00         0.00000E+00        -0.59475E+08
 
   -0.58427E+08         0.58723E+05         0.00000E+00
    0.58723E+05        -0.59975E+08         0.00000E+00
    0.00000E+00         0.00000E+00        -0.59484E+08
 
   -0.58476E+08         0.58923E+05         0.00000E+00
    0.58923E+05        -0.59955E+08         0.00000E+00
    0.00000E+00         0.00000E+00        -0.59494E+08
 
   -0.58524E+08         0.58866E+05         0.00000E+00
    0.58866E+05        -0.59936E+08         0.00000E+00
    0.00000E+00         0.00000E+00        -0.59503E+08
 
   -0.58572E+08         0.58576E+05         0.00000E+00
    0.58576E+05        -0.59916E+08         0.00000E+00
    0.00000E+00         0.00000E+00        -0.59513E+08
 
   -0.58620E+08         0.58080E+05         0.00000E+00
    0.58080E+05        -0.59897E+08         0.00000E+00
    0.00000E+00         0.00000E+00        -0.59522E+08
 
   -0.58667E+08         0.57405E+05         0.00000E+00
    0.57405E+05        -0.59878E+08         0.00000E+00
    0.00000E+00         0.00000E+00        -0.59531E+08
 
   -0.58714E+08         0.56576E+05         0.00000E+00
    0.56576E+05        -0.59859E+08         0.00000E+00
    0.00000E+00         0.00000E+00        -0.59540E+08
 
   -0.58761E+08         0.55625E+05         0.00000E+00
    0.55625E+05        -0.59840E+08         0.00000E+00
    0.00000E+00         0.00000E+00        -0.59549E+08
 
   -0.58807E+08         0.54583E+05         0.00000E+00
    0.54583E+05        -0.59822E+08         0.00000E+00
    0.00000E+00         0.00000E+00        -0.59558E+08
 
   -0.58852E+08         0.53488E+05         0.00000E+00
    0.53488E+05        -0.59804E+08         0.00000E+00
    0.00000E+00         0.00000E+00        -0.59567E+08
 
   -0.58897E+08         0.52385E+05         0.00000E+00
    0.52385E+05        -0.59786E+08         0.00000E+00
    0.00000E+00         0.00000E+00        -0.59575E+08
 
   -0.58942E+08         0.51327E+05         0.00000E+00
    0.51327E+05        -0.59769E+08         0.00000E+00
    0.00000E+00         0.00000E+00        -0.59584E+08
 
   -0.58987E+08         0.50383E+05         0.00000E+00
    0.50383E+05        -0.59753E+08         0.00000E+00
    0.00000E+00         0.00000E+00        -0.59593E+08
 
   -0.59033E+08         0.49643E+05         0.00000E+00
    0.49643E+05        -0.59736E+08         0.00000E+00
    0.00000E+00         0.00000E+00        -0.59602E+08
 
   -0.59078E+08         0.49231E+05         0.00000E+00
    0.49231E+05        -0.59720E+08         0.00000E+00
    0.00000E+00         0.00000E+00        -0.59611E+08
 
   -0.59125E+08         0.49320E+05         0.00000E+00
    0.49320E+05        -0.59704E+08         0.00000E+00
    0.00000E+00         0.00000E+00        -0.59620E+08
 
   -0.59173E+08         0.50167E+05         0.00000E+00
    0.50167E+05        -0.59688E+08         0.00000E+00
    0.00000E+00         0.00000E+00        -0.59629E+08
 
   -0.59224E+08         0.52165E+05         0.00000E+00
    0.52165E+05        -0.59671E+08         0.00000E+00
    0.00000E+00         0.00000E+00        -0.59638E+08
 
   -0.59278E+08         0.55948E+05         0.00000E+00
    0.55948E+05        -0.59652E+08         0.00000E+00
    0.00000E+00         0.00000E+00        -0.59647E+08
 
   -0.59336E+08         0.62596E+05         0.00000E+00
    0.62596E+05        -0.59632E+08         0.00000E+00
    0.00000E+00         0.00000E+00        -0.59655E+08
 
   -0.59402E+08         0.74061E+05         0.00000E+00
    0.74061E+05        -0.59608E+08         0.00000E+00
    0.00000E+00         0.00000E+00        -0.59664E+08
 
   -0.59476E+08         0.94154E+05         0.00000E+00
    0.94154E+05        -0.59579E+08         0.00000E+00
    0.00000E+00         0.00000E+00        -0.59672E+08
 
   -0.59559E+08         0.13099E+06         0.00000E+00
    0.13099E+06        -0.59543E+08         0.00000E+00
    0.00000E+00         0.00000E+00        -0.59678E+08
 
   -0.59643E+08         0.19723E+06         0.00000E+00
    0.19723E+06        -0.59502E+08         0.00000E+00
    0.00000E+00         0.00000E+00        -0.59682E+08
 
   -0.57115E+08        -0.69619E+05         0.00000E+00
   -0.69619E+05        -0.59985E+08         0.00000E+00
    0.00000E+00         0.00000E+00        -0.58951E+08
 
   -0.57133E+08        -0.15931E+06         0.00000E+00
   -0.15931E+06        -0.59957E+08         0.00000E+00
    0.00000E+00         0.00000E+00        -0.58959E+08
 
   -0.57206E+08        -0.18869E+06         0.00000E+00
   -0.18869E+06        -0.59930E+08         0.00000E+00
    0.00000E+00         0.00000E+00        -0.58973E+08
 
   -0.57286E+08        -0.18150E+06         0.00000E+00
   -0.18150E+06        -0.59921E+08         0.00000E+00
    0.00000E+00         0.00000E+00        -0.58990E+08
 
   -0.57357E+08        -0.15885E+06         0.00000E+00
   -0.15885E+06        -0.59925E+08         0.00000E+00
    0.00000E+00         0.00000E+00        -0.59009E+08
 
   -0.57419E+08        -0.13178E+06         0.00000E+00
   -0.13178E+06        -0.59936E+08         0.00000E+00
    0.00000E+00         0.00000E+00        -0.59028E+08
 
   -0.57473E+08        -0.10495E+06         0.00000E+00
   -0.10495E+06        -0.59950E+08         0.00000E+00
    0.00000E+00         0.00000E+00        -0.59047E+08
 
   -0.57523E+08        -0.80164E+05         0.00000E+00
   -0.80164E+05        -0.59964E+08         0.00000E+00
    0.00000E+00         0.00000E+00        -0.59066E+08
 
   -0.57570E+08        -0.57947E+05         0.00000E+00
   -0.57947E+05        -0.59976E+08         0.00000E+00
    0.00000E+00         0.00000E+00        -0.59084E+08
 
   -0.57615E+08        -0.38321E+05         0.00000E+00
   -0.38321E+05        -0.59985E+08         0.00000E+00
    0.00000E+00         0.00000E+00        -0.59101E+08
 
   -0.57660E+08        -0.21104E+05         0.00000E+00
   -0.21104E+05        -0.59992E+08         0.00000E+00
    0.00000E+00         0.00000E+00        -0.59119E+08
 
   -0.57705E+08        -0.60498E+04         0.00000E+00
   -0.60498E+04        -0.59996E+08         0.00000E+00
    0.00000E+00         0.00000E+00        -0.59135E+08
 
   -0.57750E+08         0.70908E+04         0.00000E+00
    0.70908E+04        -0.59998E+08         0.00000E+00
    0.00000E+00         0.00000E+00        -0.59151E+08
 
   -0.57795E+08         0.18547E+05         0.00000E+00
    0.18547E+05        -0.59996E+08         0.00000E+00
    0.00000E+00         0.00000E+00        -0.59167E+08
 
   -0.57841E+08         0.28522E+05         0.00000E+00
    0.28522E+05        -0.59993E+08         0.00000E+00
    0.00000E+00         0.00000E+00        -0.59182E+08
 
   -0.57887E+08         0.37191E+05         0.00000E+00
    0.37191E+05        -0.59987E+08         0.00000E+00
    0.00000E+00         0.00000E+00        -0.59197E+08
 
   -0.57935E+08         0.44702E+05         0.00000E+00
    0.44702E+05        -0.59979E+08         0.00000E+00
    0.00000E+00         0.00000E+00        -0.59212E+08
 
   -0.57983E+08         0.51184E+05         0.00000E+00
    0.51184E+05        -0.59969E+08         0.00000E+00
    0.00000E+00         0.00000E+00        -0.59226E+08
 
   -0.58031E+08         0.56745E+05         0.00000E+00
    0.56745E+05        -0.59958E+08         0.00000E+00
    0.00000E+00         0.00000E+00        -0.59240E+08
 
   -0.58080E+08         0.61479E+05         0.00000E+00
    0.61479E+05        -0.59946E+08         0.00000E+00
    0.00000E+00         0.00000E+00        -0.59254E+08
 
   -0.58129E+08         0.65465E+05         0.00000E+00
    0.65465E+05        -0.59932E+08         0.00000E+00
    0.00000E+00         0.00000E+00        -0.59267E+08
 
   -0.58178E+08         0.68774E+05         0.00000E+00
    0.68774E+05        -0.59917E+08         0.00000E+00
    0.00000E+00         0.00000E+00        -0.59280E+08
 
   -0.58228E+08         0.71465E+05         0.00000E+00
    0.71465E+05        -0.59902E+08         0.00000E+00
    0.00000E+00         0.00000E+00        -0.59293E+08
 
   -0.58278E+08         0.73594E+05         0.00000E+00
    0.73594E+05        -0.59886E+08         0.00000E+00
    0.00000E+00         0.00000E+00        -0.59306E+08
 
   -0.58327E+08         0.75207E+05         0.00000E+00
    0.75207E+05        -0.59869E+08         0.00000E+00
    0.00000E+00         0.00000E+00        -0.59319E+08
 
   -0.58377E+08         0.76349E+05         0.00000E+00
    0.76349E+05        -0.59852E+08         0.00000E+00
    0.00000E+00         0.00000E+00        -0.59331E+08
 
   -0.58427E+08         0.77061E+05         0.00000E+00
    0.77061E+05        -0.59835E+08         0.00000E+00
    0.00000E+00         0.00000E+00        -0.59343E+08
 
   -0.58476E+08         0.77378E+05         0.00000E+00
    0.77378E+05        -0.59818E+08         0.00000E+00
    0.00000E+00         0.00000E+00        -0.59356E+08
 
   -0.58524E+08         0.77339E+05         0.00000E+00
    0.77339E+05        -0.59800E+08         0.00000E+00
    0.00000E+00         0.00000E+00        -0.59367E+08
 
   -0.58573E+08         0.76977E+05         0.00000E+00
    0.76977E+05        -0.59783E+08         0.00000E+00
    0.00000E+00         0.00000E+00        -0.59379E+08
 
   -0.58621E+08         0.76328E+05         0.00000E+00
    0.76328E+05        -0.59766E+08         0.00000E+00
    0.00000E+00         0.00000E+00        -0.59391E+08
 
   -0.58668E+08         0.75428E+05         0.00000E+00
    0.75428E+05        -0.59748E+08         0.00000E+00
    0.00000E+00         0.00000E+00        -0.59402E+08
 
   -0.58715E+08         0.74315E+05         0.00000E+00
    0.74315E+05        -0.59731E+08         0.00000E+00
    0.00000E+00         0.00000E+00        -0.59414E+08
 
   -0.58762E+08         0.73030E+05         0.00000E+00
    0.73030E+05        -0.59715E+08         0.00000E+00
    0.00000E+00         0.00000E+00        -0.59425E+08
 
   -0.58808E+08         0.71618E+05         0.00000E+00
    0.71618E+05        -0.59698E+08         0.00000E+00
    0.00000E+00         0.00000E+00        -0.59436E+08
 
   -0.58853E+08         0.70131E+05         0.00000E+00
    0.70131E+05        -0.59683E+08         0.00000E+00
    0.00000E+00         0.00000E+00        -0.59447E+08
 
   -0.58899E+08         0.68633E+05         0.00000E+00
    0.68633E+05        -0.59667E+08         0.00000E+00
    0.00000E+00         0.00000E+00        -0.59458E+08
 
   -0.58943E+08         0.67201E+05         0.00000E+00
    0.67201E+05        -0.59652E+08         0.00000E+00
    0.00000E+00         0.00000E+00        -0.59469E+08
 
   -0.58988E+08         0.65932E+05         0.00000E+00
    0.65932E+05        -0.59637E+08         0.00000E+00
    0.00000E+00         0.00000E+00        -0.59480E+08
 
   -0.59033E+08         0.64956E+05         0.00000E+00
    0.64956E+05        -0.59622E+08         0.00000E+00
    0.00000E+00         0.00000E+00        -0.59491E+08
 
   -0.59079E+08         0.64448E+05         0.00000E+00
    0.64448E+05        -0.59608E+08         0.00000E+00
    0.00000E+00         0.00000E+00        -0.59502E+08
 
   -0.59124E+08         0.64655E+05         0.00000E+00
    0.64655E+05        -0.59593E+08         0.00000E+00
    0.00000E+00         0.00000E+00        -0.59513E+08
 
   -0.59172E+08         0.65938E+05         0.00000E+00
    0.65938E+05        -0.59578E+08         0.00000E+00
    0.00000E+00         0.00000E+00        -0.59523E+08
 
   -0.59220E+08         0.68836E+05         0.00000E+00
    0.68836E+05        -0.59563E+08         0.00000E+00
    0.00000E+00         0.00000E+00        -0.59534E+08
 
   -0.59272E+08         0.74193E+05         0.00000E+00
    0.74193E+05        -0.59546E+08         0.00000E+00
    0.00000E+00         0.00000E+00        -0.59545E+08
 
   -0.59326E+08         0.83374E+05         0.00000E+00
    0.83374E+05        -0.59527E+08         0.00000E+00
    0.00000E+00         0.00000E+00        -0.59555E+08
 
   -0.59384E+08         0.98652E+05         0.00000E+00
    0.98652E+05        -0.59506E+08         0.00000E+00
    0.00000E+00         0.00000E+00        -0.59565E+08
 
   -0.59446E+08         0.12390E+06         0.00000E+00
    0.12390E+06        -0.59481E+08         0.00000E+00
    0.00000E+00         0.00000E+00        -0.59573E+08
 
   -0.59508E+08         0.16495E+06         0.00000E+00
    0.16495E+06        -0.59454E+08         0.00000E+00
    0.00000E+00         0.00000E+00        -0.59580E+08
 
   -0.59562E+08         0.22841E+06         0.00000E+00
    0.22841E+06        -0.59428E+08         0.00000E+00
    0.00000E+00         0.00000E+00        -0.59584E+08
 
   -0.57222E+08        -0.48106E+05         0.00000E+00
   -0.48106E+05        -0.59989E+08         0.00000E+00
    0.00000E+00         0.00000E+00        -0.58829E+08
 
   -0.57190E+08        -0.12301E+06         0.00000E+00
   -0.12301E+06        -0.59961E+08         0.00000E+00
    0.00000E+00         0.00000E+00        -0.58834E+08
 
   -0.57221E+08        -0.16114E+06         0.00000E+00
   -0.16114E+06        -0.59926E+08         0.00000E+00
    0.00000E+00         0.00000E+00        -0.58844E+08
 
   -0.57276E+08        -0.16849E+06         0.00000E+00
   -0.16849E+06        -0.59899E+08         0.00000E+00
    0.00000E+00         0.00000E+00        -0.58857E+08
 
   -0.57336E+08        -0.15703E+06         0.00000E+00
   -0.15703E+06        -0.59883E+08         0.00000E+00
    0.00000E+00         0.00000E+00        -0.58872E+08
 
   -0.57394E+08        -0.13642E+06         0.00000E+00
   -0.13642E+06        -0.59876E+08         0.00000E+00
    0.00000E+00         0.00000E+00        -0.58889E+08
 
   -0.57448E+08        -0.11246E+06         0.00000E+00
   -0.11246E+06        -0.59875E+08         0.00000E+00
    0.00000E+00         0.00000E+00        -0.58907E+08
 
   -0.57499E+08        -0.88196E+05         0.00000E+00
   -0.88196E+05        -0.59877E+08         0.00000E+00
    0.00000E+00         0.00000E+00        -0.58925E+08
 
   -0.57548E+08        -0.65095E+05         0.00000E+00
   -0.65095E+05        -0.59880E+08         0.00000E+00
    0.00000E+00         0.00000E+00        -0.58943E+08
 
   -0.57596E+08        -0.43801E+05         0.00000E+00
   -0.43801E+05        -0.59882E+08         0.00000E+00
    0.00000E+00         0.00000E+00        -0.58961E+08
 
   -0.57643E+08        -0.24524E+05         0.00000E+00
   -0.24524E+05        -0.59884E+08         0.00000E+00
    0.00000E+00         0.00000E+00        -0.58979E+08
 
   -0.57689E+08        -0.72594E+04         0.00000E+00
   -0.72594E+04        -0.59884E+08         0.00000E+00
    0.00000E+00         0.00000E+00        -0.58997E+08
 
   -0.57736E+08         0.80939E+04         0.00000E+00
    0.80939E+04        -0.59883E+08         0.00000E+00
    0.00000E+00         0.00000E+00        -0.59015E+08
 
   -0.57783E+08         0.21679E+05         0.00000E+00
    0.21679E+05        -0.59880E+08         0.00000E+00
    0.00000E+00         0.00000E+00        -0.59032E+08
 
   -0.57831E+08         0.33648E+05         0.00000E+00
    0.33648E+05        -0.59875E+08         0.00000E+00
    0.00000E+00         0.00000E+00        -0.59049E+08
 
   -0.57878E+08         0.44151E+05         0.00000E+00
    0.44151E+05        -0.59869E+08         0.00000E+00
    0.00000E+00         0.00000E+00        -0.59066E+08
 
   -0.57927E+08         0.53325E+05         0.00000E+00
    0.53325E+05        -0.59861E+08         0.00000E+00
    0.00000E+00         0.00000E+00        -0.59082E+08
 
   -0.57976E+08         0.61295E+05         0.00000E+00
    0.61295E+05        -0.59852E+08         0.00000E+00
    0.00000E+00         0.00000E+00        -0.59099E+08
 
   -0.58025E+08         0.68171E+05         0.00000E+00
    0.68171E+05        -0.59841E+08         0.00000E+00
    0.00000E+00         0.00000E+00        -0.59115E+08
 
   -0.58075E+08         0.74054E+05         0.00000E+00
    0.74054E+05        -0.59829E+08         0.00000E+00
    0.00000E+00         0.00000E+00        -0.59130E+08
 
   -0.58125E+08         0.79029E+05         0.00000E+00
    0.79029E+05        -0.59817E+08         0.00000E+00
    0.00000E+00         0.00000E+00        -0.59146E+08
 
   -0.58175E+08         0.83175E+05         0.00000E+00
    0.83175E+05        -0.59803E+08         0.00000E+00
    0.00000E+00         0.00000E+00        -0.59161E+08
 
   -0.58225E+08         0.86562E+05         0.00000E+00
    0.86562E+05        -0.59789E+08         0.00000E+00
    0.00000E+00         0.00000E+00        -0.59176E+08
 
   -0.58276E+08         0.89251E+05         0.00000E+00
    0.89251E+05        -0.59774E+08         0.00000E+00
    0.00000E+00         0.00000E+00        -0.59191E+08
 
   -0.58326E+08         0.91300E+05         0.00000E+00
    0.91300E+05        -0.59759E+08         0.00000E+00
    0.00000E+00         0.00000E+00        -0.59205E+08
 
   -0.58376E+08         0.92760E+05         0.00000E+00
    0.92760E+05        -0.59743E+08         0.00000E+00
    0.00000E+00         0.00000E+00        -0.59220E+08
 
   -0.58426E+08         0.93681E+05         0.00000E+00
    0.93681E+05        -0.59727E+08         0.00000E+00
    0.00000E+00         0.00000E+00        -0.59234E+08
 
   -0.58475E+08         0.94107E+05         0.00000E+00
    0.94107E+05        -0.59711E+08         0.00000E+00
    0.00000E+00         0.00000E+00        -0.59248E+08
 
   -0.58525E+08         0.94085E+05         0.00000E+00
    0.94085E+05        -0.59695E+08         0.00000E+00
    0.00000E+00         0.00000E+00        -0.59261E+08
 
   -0.58573E+08         0.93657E+05         0.00000E+00
    0.93657E+05        -0.59679E+08         0.00000E+00
    0.00000E+00         0.00000E+00        -0.59275E+08
 
   -0.58622E+08         0.92867E+05         0.00000E+00
    0.92867E+05        -0.59663E+08         0.00000E+00
    0.00000E+00         0.00000E+00        -0.59288E+08
 
   -0.58669E+08         0.91761E+05         0.00000E+00
    0.91761E+05        -0.59647E+08         0.00000E+00
    0.00000E+00         0.00000E+00        -0.59302E+08
 
   -0.58717E+08         0.90387E+05         0.00000E+00
    0.90387E+05        -0.59632E+08         0.00000E+00
    0.00000E+00         0.00000E+00        -0.59315E+08
 
   -0.58763E+08         0.88796E+05         0.00000E+00
    0.88796E+05        -0.59616E+08         0.00000E+00
    0.00000E+00         0.00000E+00        -0.59328E+08
 
   -0.58809E+08         0.87048E+05         0.00000E+00
    0.87048E+05        -0.59601E+08         0.00000E+00
    0.00000E+00         0.00000E+00        -0.59341E+08
 
   -0.58855E+08         0.85210E+05         0.00000E+00
    0.85210E+05        -0.59587E+08         0.00000E+00
    0.00000E+00         0.00000E+00        -0.59353E+08
 
   -0.58900E+08         0.83365E+05         0.00000E+00
    0.83365E+05        -0.59572E+08         0.00000E+00
    0.00000E+00         0.00000E+00        -0.59366E+08
 
   -0.58945E+08         0.81613E+05         0.00000E+00
    0.81613E+05        -0.59558E+08         0.00000E+00
    0.00000E+00         0.00000E+00        -0.59378E+08
 
   -0.58990E+08         0.80081E+05         0.00000E+00
    0.80081E+05        -0.59544E+08         0.00000E+00
    0.00000E+00         0.00000E+00        -0.59391E+08
 
   -0.59034E+08         0.78938E+05         0.00000E+00
    0.78938E+05        -0.59531E+08         0.00000E+00
    0.00000E+00         0.00000E+00        -0.59403E+08
 
   -0.59079E+08         0.78408E+05         0.00000E+00
    0.78408E+05        -0.59517E+08         0.00000E+00
    0.00000E+00         0.00000E+00        -0.59415E+08
 
   -0.59124E+08         0.78806E+05         0.00000E+00
    0.78806E+05        -0.59504E+08         0.00000E+00
    0.00000E+00         0.00000E+00        -0.59427E+08
 
   -0.59169E+08         0.80575E+05         0.00000E+00
    0.80575E+05        -0.59490E+08         0.00000E+00
    0.00000E+00         0.00000E+00        -0.59439E+08
 
   -0.59216E+08         0.84362E+05         0.00000E+00
    0.84362E+05        -0.59475E+08         0.00000E+00
    0.00000E+00         0.00000E+00        -0.59451E+08
 
   -0.59264E+08         0.91128E+05         0.00000E+00
    0.91128E+05        -0.59459E+08         0.00000E+00
    0.00000E+00         0.00000E+00        -0.59462E+08
 
   -0.59313E+08         0.10232E+06         0.00000E+00
    0.10232E+06        -0.59442E+08         0.00000E+00
    0.00000E+00         0.00000E+00        -0.59473E+08
 
   -0.59363E+08         0.12010E+06         0.00000E+00
    0.12010E+06        -0.59423E+08         0.00000E+00
    0.00000E+00         0.00000E+00        -0.59483E+08
 
   -0.59413E+08         0.14755E+06         0.00000E+00
    0.14755E+06        -0.59403E+08         0.00000E+00
    0.00000E+00         0.00000E+00        -0.59491E+08
 
   -0.59458E+08         0.18834E+06         0.00000E+00
    0.18834E+06        -0.59383E+08         0.00000E+00
    0.00000E+00         0.00000E+00        -0.59498E+08
 
   -0.59491E+08         0.24569E+06         0.00000E+00
    0.24569E+06        -0.59367E+08         0.00000E+00
    0.00000E+00         0.00000E+00        -0.59502E+08
 
   -0.57297E+08        -0.31227E+05         0.00000E+00
   -0.31227E+05        -0.59991E+08         0.00000E+00
    0.00000E+00         0.00000E+00        -0.58753E+08
 
   -0.57243E+08        -0.88245E+05         0.00000E+00
   -0.88245E+05        -0.59968E+08         0.00000E+00
    0.00000E+00         0.00000E+00        -0.58755E+08
 
   -0.57244E+08        -0.12572E+06         0.00000E+00
   -0.12572E+06        -0.59933E+08         0.00000E+00
    0.00000E+00         0.00000E+00        -0.58760E+08
 
   -0.57277E+08        -0.14105E+06         0.00000E+00
   -0.14105E+06        -0.59900E+08         0.00000E+00
    0.00000E+00         0.00000E+00        -0.58769E+08
 
   -0.57323E+08        -0.13907E+06         0.00000E+00
   -0.13907E+06        -0.59873E+08         0.00000E+00
    0.00000E+00         0.00000E+00        -0.58780E+08
 
   -0.57374E+08        -0.12609E+06         0.00000E+00
   -0.12609E+06        -0.59853E+08         0.00000E+00
    0.00000E+00         0.00000E+00        -0.58793E+08
 
   -0.57426E+08        -0.10723E+06         0.00000E+00
   -0.10723E+06        -0.59839E+08         0.00000E+00
    0.00000E+00         0.00000E+00        -0.58808E+08
 
   -0.57477E+08        -0.85862E+05         0.00000E+00
   -0.85862E+05        -0.59831E+08         0.00000E+00
    0.00000E+00         0.00000E+00        -0.58824E+08
 
   -0.57527E+08        -0.64040E+05         0.00000E+00
   -0.64040E+05        -0.59824E+08         0.00000E+00
    0.00000E+00         0.00000E+00        -0.58842E+08
 
   -0.57576E+08        -0.42912E+05         0.00000E+00
   -0.42912E+05        -0.59820E+08         0.00000E+00
    0.00000E+00         0.00000E+00        -0.58859E+08
 
   -0.57624E+08        -0.23079E+05         0.00000E+00
   -0.23079E+05        -0.59816E+08         0.00000E+00
    0.00000E+00         0.00000E+00        -0.58877E+08
 
   -0.57673E+08        -0.48205E+04         0.00000E+00
   -0.48205E+04        -0.59811E+08         0.00000E+00
    0.00000E+00         0.00000E+00        -0.58895E+08
 
   -0.57721E+08         0.11771E+05         0.00000E+00
    0.11771E+05        -0.59807E+08         0.00000E+00
    0.00000E+00         0.00000E+00        -0.58913E+08
 
   -0.57770E+08         0.26706E+05         0.00000E+00
    0.26706E+05        -0.59801E+08         0.00000E+00
    0.00000E+00         0.00000E+00        -0.58931E+08
 
   -0.57819E+08         0.40048E+05         0.00000E+00
    0.40048E+05        -0.59794E+08         0.00000E+00
    0.00000E+00         0.00000E+00        -0.58949E+08
 
   -0.57868E+08         0.51888E+05         0.00000E+00
    0.51888E+05        -0.59786E+08         0.00000E+00
    0.00000E+00         0.00000E+00        -0.58967E+08
 
   -0.57918E+08         0.62326E+05         0.00000E+00
    0.62326E+05        -0.59777E+08         0.00000E+00
    0.00000E+00         0.00000E+00        -0.58985E+08
 
   -0.57968E+08         0.71464E+05         0.00000E+00
    0.71464E+05        -0.59767E+08         0.00000E+00
    0.00000E+00         0.00000E+00        -0.59002E+08
 
   -0.58018E+08         0.79399E+05         0.00000E+00
    0.79399E+05        -0.59756E+08         0.00000E+00
    0.00000E+00         0.00000E+00        -0.59019E+08
 
   -0.58069E+08         0.86223E+05         0.00000E+00
    0.86223E+05        -0.59744E+08         0.00000E+00
    0.00000E+00         0.00000E+00        -0.59037E+08
 
   -0.58120E+08         0.92022E+05         0.00000E+00
    0.92022E+05        -0.59732E+08         0.00000E+00
    0.00000E+00         0.00000E+00        -0.59053E+08
 
   -0.58171E+08         0.96873E+05         0.00000E+00
    0.96873E+05        -0.59719E+08         0.00000E+00
    0.00000E+00         0.00000E+00        -0.59070E+08
 
   -0.58222E+08         0.10085E+06         0.00000E+00
    0.10085E+06        -0.59705E+08         0.00000E+00
    0.00000E+00         0.00000E+00        -0.59086E+08
 
   -0.58273E+08         0.10402E+06         0.00000E+00
    0.10402E+06        -0.59690E+08         0.00000E+00
    0.00000E+00         0.00000E+00        -0.59103E+08
 
   -0.58324E+08         0.10643E+06         0.00000E+00
    0.10643E+06        -0.59676E+08         0.00000E+00
    0.00000E+00         0.00000E+00        -0.59119E+08
 
   -0.58375E+08         0.10816E+06         0.00000E+00
    0.10816E+06        -0.59661E+08         0.00000E+00
    0.00000E+00         0.00000E+00        -0.59134E+08
 
   -0.58425E+08         0.10926E+06         0.00000E+00
    0.10926E+06        -0.59646E+08         0.00000E+00
    0.00000E+00         0.00000E+00        -0.59150E+08
 
   -0.58475E+08         0.10977E+06         0.00000E+00
    0.10977E+06        -0.59630E+08         0.00000E+00
    0.00000E+00         0.00000E+00        -0.59165E+08
 
   -0.58525E+08         0.10975E+06         0.00000E+00
    0.10975E+06        -0.59615E+08         0.00000E+00
    0.00000E+00         0.00000E+00        -0.59181E+08
 
   -0.58574E+08         0.10925E+06         0.00000E+00
    0.10925E+06        -0.59600E+08         0.00000E+00
    0.00000E+00         0.00000E+00        -0.59195E+08
 
   -0.58623E+08         0.10833E+06         0.00000E+00
    0.10833E+06        -0.59584E+08         0.00000E+00
    0.00000E+00         0.00000E+00        -0.59210E+08
 
   -0.58671E+08         0.10703E+06         0.00000E+00
    0.10703E+06        -0.59569E+08         0.00000E+00
    0.00000E+00         0.00000E+00        -0.59225E+08
 
   -0.58718E+08         0.10541E+06         0.00000E+00
    0.10541E+06        -0.59555E+08         0.00000E+00
    0.00000E+00         0.00000E+00        -0.59239E+08
 
   -0.58765E+08         0.10354E+06         0.00000E+00
    0.10354E+06        -0.59540E+08         0.00000E+00
    0.00000E+00         0.00000E+00        -0.59253E+08
 
   -0.58811E+08         0.10149E+06         0.00000E+00
    0.10149E+06        -0.59526E+08         0.00000E+00
    0.00000E+00         0.00000E+00        -0.59267E+08
 
   -0.58857E+08         0.99345E+05         0.00000E+00
    0.99345E+05        -0.59512E+08         0.00000E+00
    0.00000E+00         0.00000E+00        -0.59281E+08
 
   -0.58902E+08         0.97203E+05         0.00000E+00
    0.97203E+05        -0.59498E+08         0.00000E+00
    0.00000E+00         0.00000E+00        -0.59295E+08
 
   -0.58947E+08         0.95187E+05         0.00000E+00
    0.95187E+05        -0.59485E+08         0.00000E+00
    0.00000E+00         0.00000E+00        -0.59308E+08
 
   -0.58991E+08         0.93454E+05         0.00000E+00
    0.93454E+05        -0.59471E+08         0.00000E+00
    0.00000E+00         0.00000E+00        -0.59322E+08
 
   -0.59035E+08         0.92207E+05         0.00000E+00
    0.92207E+05        -0.59458E+08         0.00000E+00
    0.00000E+00         0.00000E+00        -0.59335E+08
 
   -0.59079E+08         0.91712E+05         0.00000E+00
    0.91712E+05        -0.59445E+08         0.00000E+00
    0.00000E+00         0.00000E+00        -0.59348E+08
 
   -0.59122E+08         0.92333E+05         0.00000E+00
    0.92333E+05        -0.59432E+08         0.00000E+00
    0.00000E+00         0.00000E+00        -0.59360E+08
 
   -0.59166E+08         0.94568E+05         0.00000E+00
    0.94568E+05        -0.59419E+08         0.00000E+00
    0.00000E+00         0.00000E+00        -0.59373E+08
 
   -0.59210E+08         0.99112E+05         0.00000E+00
    0.99112E+05        -0.59404E+08         0.00000E+00
    0.00000E+00         0.00000E+00        -0.59384E+08
 
   -0.59254E+08         0.10693E+06         0.00000E+00
    0.10693E+06        -0.59390E+08         0.00000E+00
    0.00000E+00         0.00000E+00        -0.59396E+08
 
   -0.59298E+08         0.11938E+06         0.00000E+00
    0.11938E+06        -0.59374E+08         0.00000E+00
    0.00000E+00         0.00000E+00        -0.59406E+08
 
   -0.59341E+08         0.13824E+06         0.00000E+00
    0.13824E+06        -0.59358E+08         0.00000E+00
    0.00000E+00         0.00000E+00        -0.59416E+08
 
   -0.59380E+08         0.16566E+06         0.00000E+00
    0.16566E+06        -0.59341E+08         0.00000E+00
    0.00000E+00         0.00000E+00        -0.59424E+08
 
   -0.59411E+08         0.20378E+06         0.00000E+00
    0.20378E+06        -0.59327E+08         0.00000E+00
    0.00000E+00         0.00000E+00        -0.59430E+08
 
   -0.59430E+08         0.25386E+06         0.00000E+00
    0.25386E+06        -0.59319E+08         0.00000E+00
    0.00000E+00         0.00000E+00        -0.59434E+08
 
   -0.57347E+08        -0.18484E+05         0.00000E+00
   -0.18484E+05        -0.59994E+08         0.00000E+00
    0.00000E+00         0.00000E+00        -0.58709E+08
 
   -0.57286E+08        -0.58420E+05         0.00000E+00
   -0.58420E+05        -0.59975E+08         0.00000E+00
    0.00000E+00         0.00000E+00        -0.58708E+08
 
   -0.57270E+08        -0.90263E+05         0.00000E+00
   -0.90263E+05        -0.59944E+08         0.00000E+00
    0.00000E+00         0.00000E+00        -0.58710E+08
 
   -0.57285E+08        -0.10796E+06         0.00000E+00
   -0.10796E+06        -0.59910E+08         0.00000E+00
    0.00000E+00         0.00000E+00        -0.58713E+08
 
   -0.57318E+08        -0.11193E+06         0.00000E+00
   -0.11193E+06        -0.59878E+08         0.00000E+00
    0.00000E+00         0.00000E+00        -0.58720E+08
 
   -0.57361E+08        -0.10536E+06         0.00000E+00
   -0.10536E+06        -0.59852E+08         0.00000E+00
    0.00000E+00         0.00000E+00        -0.58730E+08
 
   -0.57408E+08        -0.91864E+05         0.00000E+00
   -0.91864E+05        -0.59830E+08         0.00000E+00
    0.00000E+00         0.00000E+00        -0.58742E+08
 
   -0.57456E+08        -0.74418E+05         0.00000E+00
   -0.74418E+05        -0.59813E+08         0.00000E+00
    0.00000E+00         0.00000E+00        -0.58755E+08
 
   -0.57506E+08        -0.55155E+05         0.00000E+00
   -0.55155E+05        -0.59799E+08         0.00000E+00
    0.00000E+00         0.00000E+00        -0.58771E+08
 
   -0.57556E+08        -0.35483E+05         0.00000E+00
   -0.35483E+05        -0.59787E+08         0.00000E+00
    0.00000E+00         0.00000E+00        -0.58787E+08
 
   -0.57605E+08        -0.16279E+05         0.00000E+00
   -0.16279E+05        -0.59777E+08         0.00000E+00
    0.00000E+00         0.00000E+00        -0.58804E+08
 
   -0.57655E+08         0.19387E+04         0.00000E+00
    0.19387E+04        -0.59768E+08         0.00000E+00
    0.00000E+00         0.00000E+00        -0.58822E+08
 
   -0.57705E+08         0.18886E+05         0.00000E+00
    0.18886E+05        -0.59759E+08         0.00000E+00
    0.00000E+00         0.00000E+00        -0.58840E+08
 
   -0.57755E+08         0.34430E+05         0.00000E+00
    0.34430E+05        -0.59750E+08         0.00000E+00
    0.00000E+00         0.00000E+00        -0.58858E+08
 
   -0.57806E+08         0.48529E+05         0.00000E+00
    0.48529E+05        -0.59741E+08         0.00000E+00
    0.00000E+00         0.00000E+00        -0.58876E+08
 
   -0.57856E+08         0.61196E+05         0.00000E+00
    0.61196E+05        -0.59731E+08         0.00000E+00
    0.00000E+00         0.00000E+00        -0.58894E+08
 
   -0.57908E+08         0.72478E+05         0.00000E+00
    0.72478E+05        -0.59720E+08         0.00000E+00
    0.00000E+00         0.00000E+00        -0.58913E+08
 
   -0.57959E+08         0.82437E+05         0.00000E+00
    0.82437E+05        -0.59709E+08         0.00000E+00
    0.00000E+00         0.00000E+00        -0.58931E+08
 
   -0.58011E+08         0.91146E+05         0.00000E+00
    0.91146E+05        -0.59697E+08         0.00000E+00
    0.00000E+00         0.00000E+00        -0.58949E+08
 
   -0.58062E+08         0.98678E+05         0.00000E+00
    0.98678E+05        -0.59685E+08         0.00000E+00
    0.00000E+00         0.00000E+00        -0.58967E+08
 
   -0.58114E+08         0.10511E+06         0.00000E+00
    0.10511E+06        -0.59672E+08         0.00000E+00
    0.00000E+00         0.00000E+00        -0.58985E+08
 
   -0.58166E+08         0.11051E+06         0.00000E+00
    0.11051E+06        -0.59658E+08         0.00000E+00
    0.00000E+00         0.00000E+00        -0.59002E+08
 
   -0.58218E+08         0.11494E+06         0.00000E+00
    0.11494E+06        -0.59644E+08         0.00000E+00
    0.00000E+00         0.00000E+00        -0.59020E+08
 
   -0.58270E+08         0.11848E+06         0.00000E+00
    0.11848E+06        -0.59630E+08         0.00000E+00
    0.00000E+00         0.00000E+00        -0.59037E+08
 
   -0.58322E+08         0.12119E+06         0.00000E+00
    0.12119E+06        -0.59615E+08         0.00000E+00
    0.00000E+00         0.00000E+00        -0.59054E+08
 
   -0.58373E+08         0.12313E+06         0.00000E+00
    0.12313E+06        -0.59600E+08         0.00000E+00
    0.00000E+00         0.00000E+00        -0.59071E+08
 
   -0.58424E+08         0.12435E+06         0.00000E+00
    0.12435E+06        -0.59585E+08         0.00000E+00
    0.00000E+00         0.00000E+00        -0.59087E+08
 
   -0.58475E+08         0.12491E+06         0.00000E+00
    0.12491E+06        -0.59570E+08         0.00000E+00
    0.00000E+00         0.00000E+00        -0.59104E+08
 
   -0.58525E+08         0.12487E+06         0.00000E+00
    0.12487E+06        -0.59555E+08         0.00000E+00
    0.00000E+00         0.00000E+00        -0.59120E+08
 
   -0.58575E+08         0.12428E+06         0.00000E+00
    0.12428E+06        -0.59540E+08         0.00000E+00
    0.00000E+00         0.00000E+00        -0.59136E+08
 
   -0.58624E+08         0.12322E+06         0.00000E+00
    0.12322E+06        -0.59526E+08         0.00000E+00
    0.00000E+00         0.00000E+00        -0.59152E+08
 
   -0.58672E+08         0.12173E+06         0.00000E+00
    0.12173E+06        -0.59511E+08         0.00000E+00
    0.00000E+00         0.00000E+00        -0.59167E+08
 
   -0.58720E+08         0.11988E+06         0.00000E+00
    0.11988E+06        -0.59496E+08         0.00000E+00
    0.00000E+00         0.00000E+00        -0.59182E+08
 
   -0.58767E+08         0.11776E+06         0.00000E+00
    0.11776E+06        -0.59482E+08         0.00000E+00
    0.00000E+00         0.00000E+00        -0.59197E+08
 
   -0.58814E+08         0.11544E+06         0.00000E+00
    0.11544E+06        -0.59468E+08         0.00000E+00
    0.00000E+00         0.00000E+00        -0.59212E+08
 
   -0.58859E+08         0.11302E+06         0.00000E+00
    0.11302E+06        -0.59455E+08         0.00000E+00
    0.00000E+00         0.00000E+00        -0.59227E+08
 
   -0.58904E+08         0.11063E+06         0.00000E+00
    0.11063E+06        -0.59441E+08         0.00000E+00
    0.00000E+00         0.00000E+00        -0.59241E+08
 
   -0.58949E+08         0.10839E+06         0.00000E+00
    0.10839E+06        -0.59428E+08         0.00000E+00
    0.00000E+00         0.00000E+00        -0.59255E+08
 
   -0.58993E+08         0.10651E+06         0.00000E+00
    0.10651E+06        -0.59415E+08         0.00000E+00
    0.00000E+00         0.00000E+00        -0.59269E+08
 
   -0.59036E+08         0.10519E+06         0.00000E+00
    0.10519E+06        -0.59402E+08         0.00000E+00
    0.00000E+00         0.00000E+00        -0.59282E+08
 
   -0.59079E+08         0.10475E+06         0.00000E+00
    0.10475E+06        -0.59389E+08         0.00000E+00
    0.00000E+00         0.00000E+00        -0.59295E+08
 
   -0.59121E+08         0.10557E+06         0.00000E+00
    0.10557E+06        -0.59376E+08         0.00000E+00
    0.00000E+00         0.00000E+00        -0.59308E+08
 
   -0.59163E+08         0.10817E+06         0.00000E+00
    0.10817E+06        -0.59363E+08         0.00000E+00
    0.00000E+00         0.00000E+00        -0.59321E+08
 
   -0.59204E+08         0.11323E+06         0.00000E+00
    0.11323E+06        -0.59349E+08         0.00000E+00
    0.00000E+00         0.00000E+00        -0.59332E+08
 
   -0.59244E+08         0.12165E+06         0.00000E+00
    0.12165E+06        -0.59335E+08         0.00000E+00
    0.00000E+00         0.00000E+00        -0.59343E+08
 
   -0.59283E+08         0.13456E+06         0.00000E+00
    0.13456E+06        -0.59321E+08         0.00000E+00
    0.00000E+00         0.00000E+00        -0.59353E+08
 
   -0.59318E+08         0.15329E+06         0.00000E+00
    0.15329E+06        -0.59307E+08         0.00000E+00
    0.00000E+00         0.00000E+00        -0.59362E+08
 
   -0.59349E+08         0.17923E+06         0.00000E+00
    0.17923E+06        -0.59294E+08         0.00000E+00
    0.00000E+00         0.00000E+00        -0.59370E+08
 
   -0.59370E+08         0.21346E+06         0.00000E+00
    0.21346E+06        -0.59284E+08         0.00000E+00
    0.00000E+00         0.00000E+00        -0.59375E+08
 
   -0.59378E+08         0.25614E+06         0.00000E+00
    0.25614E+06        -0.59281E+08         0.00000E+00
    0.00000E+00         0.00000E+00        -0.59378E+08
 
   -0.57377E+08        -0.91037E+04         0.00000E+00
   -0.91037E+04        -0.59996E+08         0.00000E+00
    0.00000E+00         0.00000E+00        -0.58684E+08
 
   -0.57317E+08        -0.34181E+05         0.00000E+00
   -0.34181E+05        -0.59981E+08         0.00000E+00
    0.00000E+00         0.00000E+00        -0.58682E+08
 
   -0.57293E+08        -0.58240E+05         0.00000E+00
   -0.58240E+05        -0.59955E+08         0.00000E+00
    0.00000E+00         0.00000E+00        -0.58680E+08
 
   -0.57296E+08        -0.74475E+05         0.00000E+00
   -0.74475E+05        -0.59924E+08         0.00000E+00
    0.00000E+00         0.00000E+00        -0.58681E+08
 
   -0.57318E+08        -0.80966E+05         0.00000E+00
   -0.80966E+05        -0.59892E+08         0.00000E+00
    0.00000E+00         0.00000E+00        -0.58684E+08
 
   -0.57352E+08        -0.78642E+05         0.00000E+00
   -0.78642E+05        -0.59862E+08         0.00000E+00
    0.00000E+00         0.00000E+00        -0.58690E+08
 
   -0.57394E+08        -0.69583E+05         0.00000E+00
   -0.69583E+05        -0.59835E+08         0.00000E+00
    0.00000E+00         0.00000E+00        -0.58699E+08
 
   -0.57440E+08        -0.55986E+05         0.00000E+00
   -0.55986E+05        -0.59812E+08         0.00000E+00
    0.00000E+00         0.00000E+00        -0.58710E+08
 
   -0.57488E+08        -0.39713E+05         0.00000E+00
   -0.39713E+05        -0.59793E+08         0.00000E+00
    0.00000E+00         0.00000E+00        -0.58723E+08
 
   -0.57537E+08        -0.22171E+05         0.00000E+00
   -0.22171E+05        -0.59776E+08         0.00000E+00
    0.00000E+00         0.00000E+00        -0.58738E+08
 
   -0.57587E+08        -0.43525E+04         0.00000E+00
   -0.43525E+04        -0.59761E+08         0.00000E+00
    0.00000E+00         0.00000E+00        -0.58754E+08
 
   -0.57638E+08         0.13075E+05         0.00000E+00
    0.13075E+05        -0.59747E+08         0.00000E+00
    0.00000E+00         0.00000E+00        -0.58770E+08
 
   -0.57689E+08         0.29684E+05         0.00000E+00
    0.29684E+05        -0.59734E+08         0.00000E+00
    0.00000E+00         0.00000E+00        -0.58788E+08
 
   -0.57740E+08         0.45216E+05         0.00000E+00
    0.45216E+05        -0.59722E+08         0.00000E+00
    0.00000E+00         0.00000E+00        -0.58806E+08
 
   -0.57792E+08         0.59528E+05         0.00000E+00
    0.59528E+05        -0.59709E+08         0.00000E+00
    0.00000E+00         0.00000E+00        -0.58824E+08
 
   -0.57844E+08         0.72555E+05         0.00000E+00
    0.72555E+05        -0.59697E+08         0.00000E+00
    0.00000E+00         0.00000E+00        -0.58842E+08
 
   -0.57897E+08         0.84282E+05         0.00000E+00
    0.84282E+05        -0.59684E+08         0.00000E+00
    0.00000E+00         0.00000E+00        -0.58861E+08
 
   -0.57949E+08         0.94724E+05         0.00000E+00
    0.94724E+05        -0.59672E+08         0.00000E+00
    0.00000E+00         0.00000E+00        -0.58879E+08
 
   -0.58002E+08         0.10392E+06         0.00000E+00
    0.10392E+06        -0.59658E+08         0.00000E+00
    0.00000E+00         0.00000E+00        -0.58898E+08
 
   -0.58055E+08         0.11192E+06         0.00000E+00
    0.11192E+06        -0.59645E+08         0.00000E+00
    0.00000E+00         0.00000E+00        -0.58916E+08
 
   -0.58108E+08         0.11878E+06         0.00000E+00
    0.11878E+06        -0.59631E+08         0.00000E+00
    0.00000E+00         0.00000E+00        -0.58935E+08
 
   -0.58161E+08         0.12456E+06         0.00000E+00
    0.12456E+06        -0.59617E+08         0.00000E+00
    0.00000E+00         0.00000E+00        -0.58953E+08
 
   -0.58214E+08         0.12932E+06         0.00000E+00
    0.12932E+06        -0.59602E+08         0.00000E+00
    0.00000E+00         0.00000E+00        -0.58971E+08
 
   -0.58267E+08         0.13312E+06         0.00000E+00
    0.13312E+06        -0.59587E+08         0.00000E+00
    0.00000E+00         0.00000E+00        -0.58989E+08
 
   -0.58319E+08         0.13602E+06         0.00000E+00
    0.13602E+06        -0.59572E+08         0.00000E+00
    0.00000E+00         0.00000E+00        -0.59007E+08
 
   -0.58372E+08         0.13809E+06         0.00000E+00
    0.13809E+06        -0.59557E+08         0.00000E+00
    0.00000E+00         0.00000E+00        -0.59024E+08
 
   -0.58423E+08         0.13937E+06         0.00000E+00
    0.13937E+06        -0.59542E+08         0.00000E+00
    0.00000E+00         0.00000E+00        -0.59042E+08
 
   -0.58475E+08         0.13994E+06         0.00000E+00
    0.13994E+06        -0.59527E+08         0.00000E+00
    0.00000E+00         0.00000E+00        -0.59059E+08
 
   -0.58526E+08         0.13985E+06         0.00000E+00
    0.13985E+06        -0.59512E+08         0.00000E+00
    0.00000E+00         0.00000E+00        -0.59076E+08
 
   -0.58576E+08         0.13916E+06         0.00000E+00
    0.13916E+06        -0.59497E+08         0.00000E+00
    0.00000E+00         0.00000E+00        -0.59092E+08
 
   -0.58625E+08         0.13794E+06         0.00000E+00
    0.13794E+06        -0.59482E+08         0.00000E+00
    0.00000E+00         0.00000E+00        -0.59108E+08
 
   -0.58674E+08         0.13626E+06         0.00000E+00
    0.13626E+06        -0.59468E+08         0.00000E+00
    0.00000E+00         0.00000E+00        -0.59125E+08
 
   -0.58722E+08         0.13420E+06         0.00000E+00
    0.13420E+06        -0.59453E+08         0.00000E+00
    0.00000E+00         0.00000E+00        -0.59140E+08
 
   -0.58770E+08         0.13183E+06         0.00000E+00
    0.13183E+06        -0.59439E+08         0.00000E+00
    0.00000E+00         0.00000E+00        -0.59156E+08
 
   -0.58816E+08         0.12926E+06         0.00000E+00
    0.12926E+06        -0.59425E+08         0.00000E+00
    0.00000E+00         0.00000E+00        -0.59171E+08
 
   -0.58862E+08         0.12660E+06         0.00000E+00
    0.12660E+06        -0.59411E+08         0.00000E+00
    0.00000E+00         0.00000E+00        -0.59186E+08
 
   -0.58907E+08         0.12398E+06         0.00000E+00
    0.12398E+06        -0.59398E+08         0.00000E+00
    0.00000E+00         0.00000E+00        -0.59201E+08
 
   -0.58951E+08         0.12156E+06         0.00000E+00
    0.12156E+06        -0.59384E+08         0.00000E+00
    0.00000E+00         0.00000E+00        -0.59215E+08
 
   -0.58994E+08         0.11954E+06         0.00000E+00
    0.11954E+06        -0.59371E+08         0.00000E+00
    0.00000E+00         0.00000E+00        -0.59229E+08
 
   -0.59037E+08         0.11817E+06         0.00000E+00
    0.11817E+06        -0.59358E+08         0.00000E+00
    0.00000E+00         0.00000E+00        -0.59243E+08
 
   -0.59078E+08         0.11776E+06         0.00000E+00
    0.11776E+06        -0.59345E+08         0.00000E+00
    0.00000E+00         0.00000E+00        -0.59256E+08
 
   -0.59119E+08         0.11870E+06         0.00000E+00
    0.11870E+06        -0.59332E+08         0.00000E+00
    0.00000E+00         0.00000E+00        -0.59268E+08
 
   -0.59159E+08         0.12149E+06         0.00000E+00
    0.12149E+06        -0.59319E+08         0.00000E+00
    0.00000E+00         0.00000E+00        -0.59280E+08
 
   -0.59197E+08         0.12677E+06         0.00000E+00
    0.12677E+06        -0.59306E+08         0.00000E+00
    0.00000E+00         0.00000E+00        -0.59292E+08
 
   -0.59234E+08         0.13530E+06         0.00000E+00
    0.13530E+06        -0.59293E+08         0.00000E+00
    0.00000E+00         0.00000E+00        -0.59302E+08
 
   -0.59267E+08         0.14796E+06         0.00000E+00
    0.14796E+06        -0.59280E+08         0.00000E+00
    0.00000E+00         0.00000E+00        -0.59311E+08
 
   -0.59297E+08         0.16568E+06         0.00000E+00
    0.16568E+06        -0.59268E+08         0.00000E+00
    0.00000E+00         0.00000E+00        -0.59319E+08
 
   -0.59320E+08         0.18927E+06         0.00000E+00
    0.18927E+06        -0.59258E+08         0.00000E+00
    0.00000E+00         0.00000E+00        -0.59326E+08
 
   -0.59334E+08         0.21909E+06         0.00000E+00
    0.21909E+06        -0.59252E+08         0.00000E+00
    0.00000E+00         0.00000E+00        -0.59330E+08
 
   -0.59336E+08         0.25473E+06         0.00000E+00
    0.25473E+06        -0.59251E+08         0.00000E+00
    0.00000E+00         0.00000E+00        -0.59333E+08
 
   -0.57392E+08        -0.22994E+04         0.00000E+00
   -0.22994E+04        -0.59997E+08         0.00000E+00
    0.00000E+00         0.00000E+00        -0.58672E+08
 
   -0.57338E+08        -0.15065E+05         0.00000E+00
   -0.15065E+05        -0.59986E+08         0.00000E+00
    0.00000E+00         0.00000E+00        -0.58668E+08
 
   -0.57311E+08        -0.30831E+05         0.00000E+00
   -0.30831E+05        -0.59965E+08         0.00000E+00
    0.00000E+00         0.00000E+00        -0.58665E+08
 
   -0.57306E+08        -0.43334E+05         0.00000E+00
   -0.43334E+05        -0.59937E+08         0.00000E+00
    0.00000E+00         0.00000E+00        -0.58663E+08
 
   -0.57321E+08        -0.49688E+05         0.00000E+00
   -0.49688E+05        -0.59907E+08         0.00000E+00
    0.00000E+00         0.00000E+00        -0.58663E+08
 
   -0.57348E+08        -0.49407E+05         0.00000E+00
   -0.49407E+05        -0.59877E+08         0.00000E+00
    0.00000E+00         0.00000E+00        -0.58666E+08
 
   -0.57384E+08        -0.43339E+05         0.00000E+00
   -0.43339E+05        -0.59849E+08         0.00000E+00
    0.00000E+00         0.00000E+00        -0.58673E+08
 
   -0.57426E+08        -0.32856E+05         0.00000E+00
   -0.32856E+05        -0.59823E+08         0.00000E+00
    0.00000E+00         0.00000E+00        -0.58681E+08
 
   -0.57472E+08        -0.19368E+05         0.00000E+00
   -0.19368E+05        -0.59799E+08         0.00000E+00
    0.00000E+00         0.00000E+00        -0.58693E+08
 
   -0.57520E+08        -0.40956E+04         0.00000E+00
   -0.40956E+04        -0.59778E+08         0.00000E+00
    0.00000E+00         0.00000E+00        -0.58706E+08
 
   -0.57570E+08         0.12000E+05         0.00000E+00
    0.12000E+05        -0.59759E+08         0.00000E+00
    0.00000E+00         0.00000E+00        -0.58720E+08
 
   -0.57621E+08         0.28204E+05         0.00000E+00
    0.28204E+05        -0.59741E+08         0.00000E+00
    0.00000E+00         0.00000E+00        -0.58736E+08
 
   -0.57673E+08         0.44010E+05         0.00000E+00
    0.44010E+05        -0.59725E+08         0.00000E+00
    0.00000E+00         0.00000E+00        -0.58752E+08
 
   -0.57726E+08         0.59075E+05         0.00000E+00
    0.59075E+05        -0.59709E+08         0.00000E+00
    0.00000E+00         0.00000E+00        -0.58770E+08
 
   -0.57779E+08         0.73174E+05         0.00000E+00
    0.73174E+05        -0.59694E+08         0.00000E+00
    0.00000E+00         0.00000E+00        -0.58788E+08
 
   -0.57832E+08         0.86173E+05         0.00000E+00
    0.86173E+05        -0.59679E+08         0.00000E+00
    0.00000E+00         0.00000E+00        -0.58806E+08
 
   -0.57886E+08         0.97999E+05         0.00000E+00
    0.97999E+05        -0.59665E+08         0.00000E+00
    0.00000E+00         0.00000E+00        -0.58824E+08
 
   -0.57939E+08         0.10862E+06         0.00000E+00
    0.10862E+06        -0.59650E+08         0.00000E+00
    0.00000E+00         0.00000E+00        -0.58843E+08
 
   -0.57993E+08         0.11804E+06         0.00000E+00
    0.11804E+06        -0.59635E+08         0.00000E+00
    0.00000E+00         0.00000E+00        -0.58862E+08
 
   -0.58048E+08         0.12629E+06         0.00000E+00
    0.12629E+06        -0.59620E+08         0.00000E+00
    0.00000E+00         0.00000E+00        -0.58881E+08
 
   -0.58102E+08         0.13338E+06         0.00000E+00
    0.13338E+06        -0.59605E+08         0.00000E+00
    0.00000E+00         0.00000E+00        -0.58899E+08
 
   -0.58156E+08         0.13938E+06         0.00000E+00
    0.13938E+06        -0.59590E+08         0.00000E+00
    0.00000E+00         0.00000E+00        -0.58918E+08
 
   -0.58210E+08         0.14432E+06         0.00000E+00
    0.14432E+06        -0.59575E+08         0.00000E+00
    0.00000E+00         0.00000E+00        -0.58936E+08
 
   -0.58264E+08         0.14826E+06         0.00000E+00
    0.14826E+06        -0.59559E+08         0.00000E+00
    0.00000E+00         0.00000E+00        -0.58955E+08
 
   -0.58317E+08         0.15126E+06         0.00000E+00
    0.15126E+06        -0.59544E+08         0.00000E+00
    0.00000E+00         0.00000E+00        -0.58973E+08
 
   -0.58370E+08         0.15338E+06         0.00000E+00
    0.15338E+06        -0.59528E+08         0.00000E+00
    0.00000E+00         0.00000E+00        -0.58991E+08
 
   -0.58423E+08         0.15466E+06         0.00000E+00
    0.15466E+06        -0.59513E+08         0.00000E+00
    0.00000E+00         0.00000E+00        -0.59009E+08
 
   -0.58475E+08         0.15518E+06         0.00000E+00
    0.15518E+06        -0.59497E+08         0.00000E+00
    0.00000E+00         0.00000E+00        -0.59026E+08
 
   -0.58526E+08         0.15500E+06         0.00000E+00
    0.15500E+06        -0.59482E+08         0.00000E+00
    0.00000E+00         0.00000E+00        -0.59044E+08
 
   -0.58577E+08         0.15418E+06         0.00000E+00
    0.15418E+06        -0.59466E+08         0.00000E+00
    0.00000E+00         0.00000E+00        -0.59061E+08
 
   -0.58627E+08         0.15280E+06         0.00000E+00
    0.15280E+06        -0.59451E+08         0.00000E+00
    0.00000E+00         0.00000E+00        -0.59078E+08
 
   -0.58676E+08         0.15092E+06         0.00000E+00
    0.15092E+06        -0.59436E+08         0.00000E+00
    0.00000E+00         0.00000E+00        -0.59094E+08
 
   -0.58725E+08         0.14863E+06         0.00000E+00
    0.14863E+06        -0.59422E+08         0.00000E+00
    0.00000E+00         0.00000E+00        -0.59110E+08
 
   -0.58772E+08         0.14604E+06         0.00000E+00
    0.14604E+06        -0.59407E+08         0.00000E+00
    0.00000E+00         0.00000E+00        -0.59126E+08
 
   -0.58819E+08         0.14323E+06         0.00000E+00
    0.14323E+06        -0.59393E+08         0.00000E+00
    0.00000E+00         0.00000E+00        -0.59142E+08
 
   -0.58865E+08         0.14034E+06         0.00000E+00
    0.14034E+06        -0.59379E+08         0.00000E+00
    0.00000E+00         0.00000E+00        -0.59157E+08
 
   -0.58909E+08         0.13750E+06         0.00000E+00
    0.13750E+06        -0.59365E+08         0.00000E+00
    0.00000E+00         0.00000E+00        -0.59172E+08
 
   -0.58953E+08         0.13490E+06         0.00000E+00
    0.13490E+06        -0.59352E+08         0.00000E+00
    0.00000E+00         0.00000E+00        -0.59186E+08
 
   -0.58996E+08         0.13274E+06         0.00000E+00
    0.13274E+06        -0.59338E+08         0.00000E+00
    0.00000E+00         0.00000E+00        -0.59200E+08
 
   -0.59038E+08         0.13128E+06         0.00000E+00
    0.13128E+06        -0.59325E+08         0.00000E+00
    0.00000E+00         0.00000E+00        -0.59213E+08
 
   -0.59078E+08         0.13083E+06         0.00000E+00
    0.13083E+06        -0.59312E+08         0.00000E+00
    0.00000E+00         0.00000E+00        -0.59226E+08
 
   -0.59117E+08         0.13176E+06         0.00000E+00
    0.13176E+06        -0.59299E+08         0.00000E+00
    0.00000E+00         0.00000E+00        -0.59238E+08
 
   -0.59155E+08         0.13455E+06         0.00000E+00
    0.13455E+06        -0.59286E+08         0.00000E+00
    0.00000E+00         0.00000E+00        -0.59250E+08
 
   -0.59191E+08         0.13973E+06         0.00000E+00
    0.13973E+06        -0.59273E+08         0.00000E+00
    0.00000E+00         0.00000E+00        -0.59261E+08
 
   -0.59224E+08         0.14793E+06         0.00000E+00
    0.14793E+06        -0.59261E+08         0.00000E+00
    0.00000E+00         0.00000E+00        -0.59270E+08
 
   -0.59253E+08         0.15978E+06         0.00000E+00
    0.15978E+06        -0.59249E+08         0.00000E+00
    0.00000E+00         0.00000E+00        -0.59279E+08
 
   -0.59277E+08         0.17589E+06         0.00000E+00
    0.17589E+06        -0.59239E+08         0.00000E+00
    0.00000E+00         0.00000E+00        -0.59286E+08
 
   -0.59295E+08         0.19663E+06         0.00000E+00
    0.19663E+06        -0.59231E+08         0.00000E+00
    0.00000E+00         0.00000E+00        -0.59291E+08
 
   -0.59304E+08         0.22196E+06         0.00000E+00
    0.22196E+06        -0.59227E+08         0.00000E+00
    0.00000E+00         0.00000E+00        -0.59295E+08
 
   -0.59302E+08         0.25113E+06         0.00000E+00
    0.25113E+06        -0.59228E+08         0.00000E+00
    0.00000E+00         0.00000E+00        -0.59297E+08
 
   -0.57394E+08         0.26147E+04         0.00000E+00
    0.26147E+04        -0.59998E+08         0.00000E+00
    0.00000E+00         0.00000E+00        -0.58665E+08
 
   -0.57349E+08        -0.21853E+03         0.00000E+00
   -0.21853E+03        -0.59989E+08         0.00000E+00
    0.00000E+00         0.00000E+00        -0.58661E+08
 
   -0.57322E+08        -0.80576E+04         0.00000E+00
   -0.80576E+04        -0.59972E+08         0.00000E+00
    0.00000E+00         0.00000E+00        -0.58657E+08
 
   -0.57314E+08        -0.15704E+05         0.00000E+00
   -0.15704E+05        -0.59949E+08         0.00000E+00
    0.00000E+00         0.00000E+00        -0.58653E+08
 
   -0.57323E+08        -0.20106E+05         0.00000E+00
   -0.20106E+05        -0.59922E+08         0.00000E+00
    0.00000E+00         0.00000E+00        -0.58652E+08
 
   -0.57345E+08        -0.20027E+05         0.00000E+00
   -0.20027E+05        -0.59893E+08         0.00000E+00
    0.00000E+00         0.00000E+00        -0.58653E+08
 
   -0.57376E+08        -0.15460E+05         0.00000E+00
   -0.15460E+05        -0.59865E+08         0.00000E+00
    0.00000E+00         0.00000E+00        -0.58657E+08
 
   -0.57415E+08        -0.70684E+04         0.00000E+00
   -0.70684E+04        -0.59838E+08         0.00000E+00
    0.00000E+00         0.00000E+00        -0.58664E+08
 
   -0.57458E+08         0.42206E+04         0.00000E+00
    0.42206E+04        -0.59812E+08         0.00000E+00
    0.00000E+00         0.00000E+00        -0.58674E+08
 
   -0.57505E+08         0.17469E+05         0.00000E+00
    0.17469E+05        -0.59788E+08         0.00000E+00
    0.00000E+00         0.00000E+00        -0.58685E+08
 
   -0.57555E+08         0.31847E+05         0.00000E+00
    0.31847E+05        -0.59766E+08         0.00000E+00
    0.00000E+00         0.00000E+00        -0.58699E+08
 
   -0.57606E+08         0.46680E+05         0.00000E+00
    0.46680E+05        -0.59746E+08         0.00000E+00
    0.00000E+00         0.00000E+00        -0.58713E+08
 
   -0.57658E+08         0.61447E+05         0.00000E+00
    0.61447E+05        -0.59726E+08         0.00000E+00
    0.00000E+00         0.00000E+00        -0.58729E+08
 
   -0.57711E+08         0.75765E+05         0.00000E+00
    0.75765E+05        -0.59708E+08         0.00000E+00
    0.00000E+00         0.00000E+00        -0.58746E+08
 
   -0.57765E+08         0.89359E+05         0.00000E+00
    0.89359E+05        -0.59690E+08         0.00000E+00
    0.00000E+00         0.00000E+00        -0.58763E+08
 
   -0.57820E+08         0.10204E+06         0.00000E+00
    0.10204E+06        -0.59673E+08         0.00000E+00
    0.00000E+00         0.00000E+00        -0.58781E+08
 
   -0.57874E+08         0.11370E+06         0.00000E+00
    0.11370E+06        -0.59656E+08         0.00000E+00
    0.00000E+00         0.00000E+00        -0.58800E+08
 
   -0.57929E+08         0.12425E+06         0.00000E+00
    0.12425E+06        -0.59640E+08         0.00000E+00
    0.00000E+00         0.00000E+00        -0.58818E+08
 
   -0.57985E+08         0.13367E+06         0.00000E+00
    0.13367E+06        -0.59623E+08         0.00000E+00
    0.00000E+00         0.00000E+00        -0.58837E+08
 
   -0.58040E+08         0.14196E+06         0.00000E+00
    0.14196E+06        -0.59607E+08         0.00000E+00
    0.00000E+00         0.00000E+00        -0.58856E+08
 
   -0.58095E+08         0.14911E+06         0.00000E+00
    0.14911E+06        -0.59591E+08         0.00000E+00
    0.00000E+00         0.00000E+00        -0.58875E+08
 
   -0.58150E+08         0.15517E+06         0.00000E+00
    0.15517E+06        -0.59574E+08         0.00000E+00
    0.00000E+00         0.00000E+00        -0.58894E+08
 
   -0.58205E+08         0.16017E+06         0.00000E+00
    0.16017E+06        -0.59558E+08         0.00000E+00
    0.00000E+00         0.00000E+00        -0.58912E+08
 
   -0.58260E+08         0.16414E+06         0.00000E+00
    0.16414E+06        -0.59542E+08         0.00000E+00
    0.00000E+00         0.00000E+00        -0.58931E+08
 
   -0.58314E+08         0.16714E+06         0.00000E+00
    0.16714E+06        -0.59525E+08         0.00000E+00
    0.00000E+00         0.00000E+00        -0.58950E+08
 
   -0.58368E+08         0.16923E+06         0.00000E+00
    0.16923E+06        -0.59509E+08         0.00000E+00
    0.00000E+00         0.00000E+00        -0.58968E+08
 
   -0.58422E+08         0.17045E+06         0.00000E+00
    0.17045E+06        -0.59493E+08         0.00000E+00
    0.00000E+00         0.00000E+00        -0.58986E+08
 
   -0.58474E+08         0.17087E+06         0.00000E+00
    0.17087E+06        -0.59477E+08         0.00000E+00
    0.00000E+00         0.00000E+00        -0.59004E+08
 
   -0.58527E+08         0.17056E+06         0.00000E+00
    0.17056E+06        -0.59461E+08         0.00000E+00
    0.00000E+00         0.00000E+00        -0.59022E+08
 
   -0.58578E+08         0.16958E+06         0.00000E+00
    0.16958E+06        -0.59445E+08         0.00000E+00
    0.00000E+00         0.00000E+00        -0.59039E+08
 
   -0.58629E+08         0.16800E+06         0.00000E+00
    0.16800E+06        -0.59430E+08         0.00000E+00
    0.00000E+00         0.00000E+00        -0.59056E+08
 
   -0.58678E+08         0.16591E+06         0.00000E+00
    0.16591E+06        -0.59415E+08         0.00000E+00
    0.00000E+00         0.00000E+00        -0.59073E+08
 
   -0.58727E+08         0.16340E+06         0.00000E+00
    0.16340E+06        -0.59399E+08         0.00000E+00
    0.00000E+00         0.00000E+00        -0.59089E+08
 
   -0.58775E+08         0.16056E+06         0.00000E+00
    0.16056E+06        -0.59385E+08         0.00000E+00
    0.00000E+00         0.00000E+00        -0.59105E+08
 
   -0.58822E+08         0.15751E+06         0.00000E+00
    0.15751E+06        -0.59370E+08         0.00000E+00
    0.00000E+00         0.00000E+00        -0.59121E+08
 
   -0.58868E+08         0.15438E+06         0.00000E+00
    0.15438E+06        -0.59356E+08         0.00000E+00
    0.00000E+00         0.00000E+00        -0.59136E+08
 
   -0.58912E+08         0.15133E+06         0.00000E+00
    0.15133E+06        -0.59341E+08         0.00000E+00
    0.00000E+00         0.00000E+00        -0.59151E+08
 
   -0.58956E+08         0.14853E+06         0.00000E+00
    0.14853E+06        -0.59328E+08         0.00000E+00
    0.00000E+00         0.00000E+00        -0.59165E+08
 
   -0.58998E+08         0.14620E+06         0.00000E+00
    0.14620E+06        -0.59314E+08         0.00000E+00
    0.00000E+00         0.00000E+00        -0.59179E+08
 
   -0.59039E+08         0.14459E+06         0.00000E+00
    0.14459E+06        -0.59300E+08         0.00000E+00
    0.00000E+00         0.00000E+00        -0.59192E+08
 
   -0.59078E+08         0.14400E+06         0.00000E+00
    0.14400E+06        -0.59287E+08         0.00000E+00
    0.00000E+00         0.00000E+00        -0.59204E+08
 
   -0.59116E+08         0.14477E+06         0.00000E+00
    0.14477E+06        -0.59274E+08         0.00000E+00
    0.00000E+00         0.00000E+00        -0.59216E+08
 
   -0.59151E+08         0.14733E+06         0.00000E+00
    0.14733E+06        -0.59261E+08         0.00000E+00
    0.00000E+00         0.00000E+00        -0.59227E+08
 
   -0.59184E+08         0.15211E+06         0.00000E+00
    0.15211E+06        -0.59249E+08         0.00000E+00
    0.00000E+00         0.00000E+00        -0.59237E+08
 
   -0.59214E+08         0.15959E+06         0.00000E+00
    0.15959E+06        -0.59237E+08         0.00000E+00
    0.00000E+00         0.00000E+00        -0.59246E+08
 
   -0.59240E+08         0.17022E+06         0.00000E+00
    0.17022E+06        -0.59227E+08         0.00000E+00
    0.00000E+00         0.00000E+00        -0.59253E+08
 
   -0.59260E+08         0.18433E+06         0.00000E+00
    0.18433E+06        -0.59218E+08         0.00000E+00
    0.00000E+00         0.00000E+00        -0.59260E+08
 
   -0.59274E+08         0.20203E+06         0.00000E+00
    0.20203E+06        -0.59212E+08         0.00000E+00
    0.00000E+00         0.00000E+00        -0.59264E+08
 
   -0.59279E+08         0.22300E+06         0.00000E+00
    0.22300E+06        -0.59209E+08         0.00000E+00
    0.00000E+00         0.00000E+00        -0.59267E+08
 
   -0.59274E+08         0.24639E+06         0.00000E+00
    0.24639E+06        -0.59212E+08         0.00000E+00
    0.00000E+00         0.00000E+00        -0.59269E+08
 
   -0.57388E+08         0.61898E+04         0.00000E+00
    0.61898E+04        -0.59998E+08         0.00000E+00
    0.00000E+00         0.00000E+00        -0.58661E+08
 
   -0.57351E+08         0.11273E+05         0.00000E+00
    0.11273E+05        -0.59992E+08         0.00000E+00
    0.00000E+00         0.00000E+00        -0.58657E+08
 
   -0.57327E+08         0.10590E+05         0.00000E+00
    0.10590E+05        -0.59978E+08         0.00000E+00
    0.00000E+00         0.00000E+00        -0.58652E+08
 
   -0.57319E+08         0.81731E+04         0.00000E+00
    0.81731E+04        -0.59959E+08         0.00000E+00
    0.00000E+00         0.00000E+00        -0.58648E+08
 
   -0.57324E+08         0.68177E+04         0.00000E+00
    0.68177E+04        -0.59935E+08         0.00000E+00
    0.00000E+00         0.00000E+00        -0.58646E+08
 
   -0.57342E+08         0.80562E+04         0.00000E+00
    0.80562E+04        -0.59909E+08         0.00000E+00
    0.00000E+00         0.00000E+00        -0.58646E+08
 
   -0.57370E+08         0.12418E+05         0.00000E+00
    0.12418E+05        -0.59881E+08         0.00000E+00
    0.00000E+00         0.00000E+00        -0.58649E+08
 
   -0.57406E+08         0.19768E+05         0.00000E+00
    0.19768E+05        -0.59854E+08         0.00000E+00
    0.00000E+00         0.00000E+00        -0.58655E+08
 
   -0.57447E+08         0.29609E+05         0.00000E+00
    0.29609E+05        -0.59828E+08         0.00000E+00
    0.00000E+00         0.00000E+00        -0.58663E+08
 
   -0.57492E+08         0.41305E+05         0.00000E+00
    0.41305E+05        -0.59803E+08         0.00000E+00
    0.00000E+00         0.00000E+00        -0.58673E+08
 
   -0.57541E+08         0.54210E+05         0.00000E+00
    0.54210E+05        -0.59779E+08         0.00000E+00
    0.00000E+00         0.00000E+00        -0.58686E+08
 
   -0.57591E+08         0.67748E+05         0.00000E+00
    0.67748E+05        -0.59756E+08         0.00000E+00
    0.00000E+00         0.00000E+00        -0.58699E+08
 
   -0.57644E+08         0.81434E+05         0.00000E+00
    0.81434E+05        -0.59734E+08         0.00000E+00
    0.00000E+00         0.00000E+00        -0.58714E+08
 
   -0.57698E+08         0.94887E+05         0.00000E+00
    0.94887E+05        -0.59714E+08         0.00000E+00
    0.00000E+00         0.00000E+00        -0.58731E+08
 
   -0.57752E+08         0.10781E+06         0.00000E+00
    0.10781E+06        -0.59694E+08         0.00000E+00
    0.00000E+00         0.00000E+00        -0.58748E+08
 
   -0.57808E+08         0.12000E+06         0.00000E+00
    0.12000E+06        -0.59675E+08         0.00000E+00
    0.00000E+00         0.00000E+00        -0.58765E+08
 
   -0.57863E+08         0.13129E+06         0.00000E+00
    0.13129E+06        -0.59656E+08         0.00000E+00
    0.00000E+00         0.00000E+00        -0.58783E+08
 
   -0.57920E+08         0.14159E+06         0.00000E+00
    0.14159E+06        -0.59638E+08         0.00000E+00
    0.00000E+00         0.00000E+00        -0.58802E+08
 
   -0.57976E+08         0.15084E+06         0.00000E+00
    0.15084E+06        -0.59620E+08         0.00000E+00
    0.00000E+00         0.00000E+00        -0.58821E+08
 
   -0.58032E+08         0.15900E+06         0.00000E+00
    0.15900E+06        -0.59602E+08         0.00000E+00
    0.00000E+00         0.00000E+00        -0.58839E+08
 
   -0.58089E+08         0.16607E+06         0.00000E+00
    0.16607E+06        -0.59584E+08         0.00000E+00
    0.00000E+00         0.00000E+00        -0.58858E+08
 
   -0.58145E+08         0.17206E+06         0.00000E+00
    0.17206E+06        -0.59567E+08         0.00000E+00
    0.00000E+00         0.00000E+00        -0.58877E+08
 
   -0.58201E+08         0.17699E+06         0.00000E+00
    0.17699E+06        -0.59549E+08         0.00000E+00
    0.00000E+00         0.00000E+00        -0.58896E+08
 
   -0.58257E+08         0.18089E+06         0.00000E+00
    0.18089E+06        -0.59532E+08         0.00000E+00
    0.00000E+00         0.00000E+00        -0.58915E+08
 
   -0.58312E+08         0.18381E+06         0.00000E+00
    0.18381E+06        -0.59515E+08         0.00000E+00
    0.00000E+00         0.00000E+00        -0.58934E+08
 
   -0.58367E+08         0.18579E+06         0.00000E+00
    0.18579E+06        -0.59498E+08         0.00000E+00
    0.00000E+00         0.00000E+00        -0.58952E+08
 
   -0.58421E+08         0.18689E+06         0.00000E+00
    0.18689E+06        -0.59481E+08         0.00000E+00
    0.00000E+00         0.00000E+00        -0.58971E+08
 
   -0.58475E+08         0.18716E+06         0.00000E+00
    0.18716E+06        -0.59464E+08         0.00000E+00
    0.00000E+00         0.00000E+00        -0.58989E+08
 
   -0.58527E+08         0.18667E+06         0.00000E+00
    0.18667E+06        -0.59448E+08         0.00000E+00
    0.00000E+00         0.00000E+00        -0.59007E+08
 
   -0.58579E+08         0.18549E+06         0.00000E+00
    0.18549E+06        -0.59432E+08         0.00000E+00
    0.00000E+00         0.00000E+00        -0.59024E+08
 
   -0.58631E+08         0.18369E+06         0.00000E+00
    0.18369E+06        -0.59415E+08         0.00000E+00
    0.00000E+00         0.00000E+00        -0.59041E+08
 
   -0.58681E+08         0.18137E+06         0.00000E+00
    0.18137E+06        -0.59400E+08         0.00000E+00
    0.00000E+00         0.00000E+00        -0.59058E+08
 
   -0.58730E+08         0.17860E+06         0.00000E+00
    0.17860E+06        -0.59384E+08         0.00000E+00
    0.00000E+00         0.00000E+00        -0.59075E+08
 
   -0.58778E+08         0.17551E+06         0.00000E+00
    0.17551E+06        -0.59369E+08         0.00000E+00
    0.00000E+00         0.00000E+00        -0.59091E+08
 
   -0.58825E+08         0.17221E+06         0.00000E+00
    0.17221E+06        -0.59354E+08         0.00000E+00
    0.00000E+00         0.00000E+00        -0.59106E+08
 
   -0.58871E+08         0.16883E+06         0.00000E+00
    0.16883E+06        -0.59339E+08         0.00000E+00
    0.00000E+00         0.00000E+00        -0.59122E+08
 
   -0.58915E+08         0.16553E+06         0.00000E+00
    0.16553E+06        -0.59324E+08         0.00000E+00
    0.00000E+00         0.00000E+00        -0.59136E+08
 
   -0.58959E+08         0.16250E+06         0.00000E+00
    0.16250E+06        -0.59310E+08         0.00000E+00
    0.00000E+00         0.00000E+00        -0.59150E+08
 
   -0.59000E+08         0.15993E+06         0.00000E+00
    0.15993E+06        -0.59296E+08         0.00000E+00
    0.00000E+00         0.00000E+00        -0.59164E+08
 
   -0.59040E+08         0.15809E+06         0.00000E+00
    0.15809E+06        -0.59282E+08         0.00000E+00
    0.00000E+00         0.00000E+00        -0.59177E+08
 
   -0.59078E+08         0.15723E+06         0.00000E+00
    0.15723E+06        -0.59269E+08         0.00000E+00
    0.00000E+00         0.00000E+00        -0.59189E+08
 
   -0.59114E+08         0.15769E+06         0.00000E+00
    0.15769E+06        -0.59256E+08         0.00000E+00
    0.00000E+00         0.00000E+00        -0.59200E+08
 
   -0.59148E+08         0.15980E+06         0.00000E+00
    0.15980E+06        -0.59243E+08         0.00000E+00
    0.00000E+00         0.00000E+00        -0.59210E+08
 
   -0.59179E+08         0.16392E+06         0.00000E+00
    0.16392E+06        -0.59231E+08         0.00000E+00
    0.00000E+00         0.00000E+00        -0.59219E+08
 
   -0.59206E+08         0.17039E+06         0.00000E+00
    0.17039E+06        -0.59220E+08         0.00000E+00
    0.00000E+00         0.00000E+00        -0.59227E+08
 
   -0.59228E+08         0.17951E+06         0.00000E+00
    0.17951E+06        -0.59211E+08         0.00000E+00
    0.00000E+00         0.00000E+00        -0.59234E+08
 
   -0.59246E+08         0.19141E+06         0.00000E+00
    0.19141E+06        -0.59203E+08         0.00000E+00
    0.00000E+00         0.00000E+00        -0.59240E+08
 
   -0.59256E+08         0.20601E+06         0.00000E+00
    0.20601E+06        -0.59198E+08         0.00000E+00
    0.00000E+00         0.00000E+00        -0.59244E+08
 
   -0.59259E+08         0.22290E+06         0.00000E+00
    0.22290E+06        -0.59197E+08         0.00000E+00
    0.00000E+00         0.00000E+00        -0.59246E+08
 
   -0.59253E+08         0.24118E+06         0.00000E+00
    0.24118E+06        -0.59200E+08         0.00000E+00
    0.00000E+00         0.00000E+00        -0.59247E+08
 
   -0.57376E+08         0.88446E+04         0.00000E+00
    0.88446E+04        -0.59999E+08         0.00000E+00
    0.00000E+00         0.00000E+00        -0.58657E+08
 
   -0.57346E+08         0.20232E+05         0.00000E+00
    0.20232E+05        -0.59994E+08         0.00000E+00
    0.00000E+00         0.00000E+00        -0.58654E+08
 
   -0.57326E+08         0.25808E+05         0.00000E+00
    0.25808E+05        -0.59983E+08         0.00000E+00
    0.00000E+00         0.00000E+00        -0.58649E+08
 
   -0.57319E+08         0.28542E+05         0.00000E+00
    0.28542E+05        -0.59967E+08         0.00000E+00
    0.00000E+00         0.00000E+00        -0.58645E+08
 
   -0.57323E+08         0.30790E+05         0.00000E+00
    0.30790E+05        -0.59946E+08         0.00000E+00
    0.00000E+00         0.00000E+00        -0.58643E+08
 
   -0.57339E+08         0.34100E+05         0.00000E+00
    0.34100E+05        -0.59922E+08         0.00000E+00
    0.00000E+00         0.00000E+00        -0.58643E+08
 
   -0.57364E+08         0.39265E+05         0.00000E+00
    0.39265E+05        -0.59897E+08         0.00000E+00
    0.00000E+00         0.00000E+00        -0.58645E+08
 
   -0.57397E+08         0.46506E+05         0.00000E+00
    0.46506E+05        -0.59870E+08         0.00000E+00
    0.00000E+00         0.00000E+00        -0.58650E+08
 
   -0.57436E+08         0.55664E+05         0.00000E+00
    0.55664E+05        -0.59844E+08         0.00000E+00
    0.00000E+00         0.00000E+00        -0.58657E+08
 
   -0.57480E+08         0.66374E+05         0.00000E+00
    0.66374E+05        -0.59818E+08         0.00000E+00
    0.00000E+00         0.00000E+00        -0.58667E+08
 
   -0.57528E+08         0.78188E+05         0.00000E+00
    0.78188E+05        -0.59793E+08         0.00000E+00
    0.00000E+00         0.00000E+00        -0.58678E+08
 
   -0.57578E+08         0.90655E+05         0.00000E+00
    0.90655E+05        -0.59769E+08         0.00000E+00
    0.00000E+00         0.00000E+00        -0.58691E+08
 
   -0.57631E+08         0.10336E+06         0.00000E+00
    0.10336E+06        -0.59746E+08         0.00000E+00
    0.00000E+00         0.00000E+00        -0.58706E+08
 
   -0.57685E+08         0.11597E+06         0.00000E+00
    0.11597E+06        -0.59724E+08         0.00000E+00
    0.00000E+00         0.00000E+00        -0.58721E+08
 
   -0.57740E+08         0.12818E+06         0.00000E+00
    0.12818E+06        -0.59702E+08         0.00000E+00
    0.00000E+00         0.00000E+00        -0.58738E+08
 
   -0.57796E+08         0.13978E+06         0.00000E+00
    0.13978E+06        -0.59682E+08         0.00000E+00
    0.00000E+00         0.00000E+00        -0.58755E+08
 
   -0.57853E+08         0.15061E+06         0.00000E+00
    0.15061E+06        -0.59661E+08         0.00000E+00
    0.00000E+00         0.00000E+00        -0.58773E+08
 
   -0.57910E+08         0.16053E+06         0.00000E+00
    0.16053E+06        -0.59641E+08         0.00000E+00
    0.00000E+00         0.00000E+00        -0.58791E+08
 
   -0.57967E+08         0.16948E+06         0.00000E+00
    0.16948E+06        -0.59622E+08         0.00000E+00
    0.00000E+00         0.00000E+00        -0.58810E+08
 
   -0.58025E+08         0.17740E+06         0.00000E+00
    0.17740E+06        -0.59603E+08         0.00000E+00
    0.00000E+00         0.00000E+00        -0.58829E+08
 
   -0.58082E+08         0.18427E+06         0.00000E+00
    0.18427E+06        -0.59584E+08         0.00000E+00
    0.00000E+00         0.00000E+00        -0.58848E+08
 
   -0.58139E+08         0.19008E+06         0.00000E+00
    0.19008E+06        -0.59565E+08         0.00000E+00
    0.00000E+00         0.00000E+00        -0.58867E+08
 
   -0.58197E+08         0.19484E+06         0.00000E+00
    0.19484E+06        -0.59547E+08         0.00000E+00
    0.00000E+00         0.00000E+00        -0.58886E+08
 
   -0.58253E+08         0.19858E+06         0.00000E+00
    0.19858E+06        -0.59528E+08         0.00000E+00
    0.00000E+00         0.00000E+00        -0.58905E+08
 
   -0.58310E+08         0.20134E+06         0.00000E+00
    0.20134E+06        -0.59510E+08         0.00000E+00
    0.00000E+00         0.00000E+00        -0.58924E+08
 
   -0.58365E+08         0.20314E+06         0.00000E+00
    0.20314E+06        -0.59492E+08         0.00000E+00
    0.00000E+00         0.00000E+00        -0.58943E+08
 
   -0.58420E+08         0.20405E+06         0.00000E+00
    0.20405E+06        -0.59475E+08         0.00000E+00
    0.00000E+00         0.00000E+00        -0.58961E+08
 
   -0.58475E+08         0.20412E+06         0.00000E+00
    0.20412E+06        -0.59457E+08         0.00000E+00
    0.00000E+00         0.00000E+00        -0.58979E+08
 
   -0.58528E+08         0.20341E+06         0.00000E+00
    0.20341E+06        -0.59440E+08         0.00000E+00
    0.00000E+00         0.00000E+00        -0.58997E+08
 
   -0.58581E+08         0.20200E+06         0.00000E+00
    0.20200E+06        -0.59423E+08         0.00000E+00
    0.00000E+00         0.00000E+00        -0.59015E+08
 
   -0.58633E+08         0.19995E+06         0.00000E+00
    0.19995E+06        -0.59407E+08         0.00000E+00
    0.00000E+00         0.00000E+00        -0.59032E+08
 
   -0.58684E+08         0.19736E+06         0.00000E+00
    0.19736E+06        -0.59390E+08         0.00000E+00
    0.00000E+00         0.00000E+00        -0.59049E+08
 
   -0.58733E+08         0.19433E+06         0.00000E+00
    0.19433E+06        -0.59374E+08         0.00000E+00
    0.00000E+00         0.00000E+00        -0.59066E+08
 
   -0.58782E+08         0.19096E+06         0.00000E+00
    0.19096E+06        -0.59358E+08         0.00000E+00
    0.00000E+00         0.00000E+00        -0.59082E+08
 
   -0.58829E+08         0.18737E+06         0.00000E+00
    0.18737E+06        -0.59343E+08         0.00000E+00
    0.00000E+00         0.00000E+00        -0.59097E+08
 
   -0.58874E+08         0.18371E+06         0.00000E+00
    0.18371E+06        -0.59327E+08         0.00000E+00
    0.00000E+00         0.00000E+00        -0.59112E+08
 
   -0.58919E+08         0.18012E+06         0.00000E+00
    0.18012E+06        -0.59312E+08         0.00000E+00
    0.00000E+00         0.00000E+00        -0.59127E+08
 
   -0.58961E+08         0.17679E+06         0.00000E+00
    0.17679E+06        -0.59298E+08         0.00000E+00
    0.00000E+00         0.00000E+00        -0.59141E+08
 
   -0.59003E+08         0.17392E+06         0.00000E+00
    0.17392E+06        -0.59283E+08         0.00000E+00
    0.00000E+00         0.00000E+00        -0.59154E+08
 
   -0.59042E+08         0.17174E+06         0.00000E+00
    0.17174E+06        -0.59270E+08         0.00000E+00
    0.00000E+00         0.00000E+00        -0.59166E+08
 
   -0.59079E+08         0.17050E+06         0.00000E+00
    0.17050E+06        -0.59256E+08         0.00000E+00
    0.00000E+00         0.00000E+00        -0.59178E+08
 
   -0.59113E+08         0.17047E+06         0.00000E+00
    0.17047E+06        -0.59243E+08         0.00000E+00
    0.00000E+00         0.00000E+00        -0.59188E+08
 
   -0.59145E+08         0.17193E+06         0.00000E+00
    0.17193E+06        -0.59231E+08         0.00000E+00
    0.00000E+00         0.00000E+00        -0.59198E+08
 
   -0.59174E+08         0.17517E+06         0.00000E+00
    0.17517E+06        -0.59219E+08         0.00000E+00
    0.00000E+00         0.00000E+00        -0.59207E+08
 
   -0.59199E+08         0.18041E+06         0.00000E+00
    0.18041E+06        -0.59209E+08         0.00000E+00
    0.00000E+00         0.00000E+00        -0.59214E+08
 
   -0.59219E+08         0.18782E+06         0.00000E+00
    0.18782E+06        -0.59200E+08         0.00000E+00
    0.00000E+00         0.00000E+00        -0.59220E+08
 
   -0.59234E+08         0.19741E+06         0.00000E+00
    0.19741E+06        -0.59193E+08         0.00000E+00
    0.00000E+00         0.00000E+00        -0.59225E+08
 
   -0.59242E+08         0.20901E+06         0.00000E+00
    0.20901E+06        -0.59189E+08         0.00000E+00
    0.00000E+00         0.00000E+00        -0.59229E+08
 
   -0.59244E+08         0.22213E+06         0.00000E+00
    0.22213E+06        -0.59189E+08         0.00000E+00
    0.00000E+00         0.00000E+00        -0.59231E+08
 
   -0.59237E+08         0.23594E+06         0.00000E+00
    0.23594E+06        -0.59192E+08         0.00000E+00
    0.00000E+00         0.00000E+00        -0.59232E+08
 
   -0.57358E+08         0.10882E+05         0.00000E+00
    0.10882E+05        -0.59999E+08         0.00000E+00
    0.00000E+00         0.00000E+00        -0.58653E+08
 
   -0.57335E+08         0.27336E+05         0.00000E+00
    0.27336E+05        -0.59995E+08         0.00000E+00
    0.00000E+00         0.00000E+00        -0.58650E+08
 
   -0.57320E+08         0.38303E+05         0.00000E+00
    0.38303E+05        -0.59986E+08         0.00000E+00
    0.00000E+00         0.00000E+00        -0.58646E+08
 
   -0.57314E+08         0.45869E+05         0.00000E+00
    0.45869E+05        -0.59972E+08         0.00000E+00
    0.00000E+00         0.00000E+00        -0.58643E+08
 
   -0.57319E+08         0.51910E+05         0.00000E+00
    0.51910E+05        -0.59955E+08         0.00000E+00
    0.00000E+00         0.00000E+00        -0.58640E+08
 
   -0.57334E+08         0.57834E+05         0.00000E+00
    0.57834E+05        -0.59933E+08         0.00000E+00
    0.00000E+00         0.00000E+00        -0.58640E+08
 
   -0.57357E+08         0.64525E+05         0.00000E+00
    0.64525E+05        -0.59910E+08         0.00000E+00
    0.00000E+00         0.00000E+00        -0.58642E+08
 
   -0.57389E+08         0.72409E+05         0.00000E+00
    0.72409E+05        -0.59885E+08         0.00000E+00
    0.00000E+00         0.00000E+00        -0.58647E+08
 
   -0.57426E+08         0.81569E+05         0.00000E+00
    0.81569E+05        -0.59860E+08         0.00000E+00
    0.00000E+00         0.00000E+00        -0.58654E+08
 
   -0.57469E+08         0.91861E+05         0.00000E+00
    0.91861E+05        -0.59834E+08         0.00000E+00
    0.00000E+00         0.00000E+00        -0.58663E+08
 
   -0.57516E+08         0.10302E+06         0.00000E+00
    0.10302E+06        -0.59809E+08         0.00000E+00
    0.00000E+00         0.00000E+00        -0.58674E+08
 
   -0.57566E+08         0.11473E+06         0.00000E+00
    0.11473E+06        -0.59784E+08         0.00000E+00
    0.00000E+00         0.00000E+00        -0.58687E+08
 
   -0.57618E+08         0.12666E+06         0.00000E+00
    0.12666E+06        -0.59760E+08         0.00000E+00
    0.00000E+00         0.00000E+00        -0.58701E+08
 
   -0.57673E+08         0.13852E+06         0.00000E+00
    0.13852E+06        -0.59736E+08         0.00000E+00
    0.00000E+00         0.00000E+00        -0.58716E+08
 
   -0.57728E+08         0.15007E+06         0.00000E+00
    0.15007E+06        -0.59714E+08         0.00000E+00
    0.00000E+00         0.00000E+00        -0.58732E+08
 
   -0.57785E+08         0.16108E+06         0.00000E+00
    0.16108E+06        -0.59691E+08         0.00000E+00
    0.00000E+00         0.00000E+00        -0.58749E+08
 
   -0.57843E+08         0.17139E+06         0.00000E+00
    0.17139E+06        -0.59670E+08         0.00000E+00
    0.00000E+00         0.00000E+00        -0.58767E+08
 
   -0.57901E+08         0.18088E+06         0.00000E+00
    0.18088E+06        -0.59648E+08         0.00000E+00
    0.00000E+00         0.00000E+00        -0.58785E+08
 
   -0.57959E+08         0.18945E+06         0.00000E+00
    0.18945E+06        -0.59628E+08         0.00000E+00
    0.00000E+00         0.00000E+00        -0.58804E+08
 
   -0.58017E+08         0.19705E+06         0.00000E+00
    0.19705E+06        -0.59607E+08         0.00000E+00
    0.00000E+00         0.00000E+00        -0.58823E+08
 
   -0.58076E+08         0.20363E+06         0.00000E+00
    0.20363E+06        -0.59587E+08         0.00000E+00
    0.00000E+00         0.00000E+00        -0.58842E+08
 
   -0.58134E+08         0.20918E+06         0.00000E+00
    0.20918E+06        -0.59567E+08         0.00000E+00
    0.00000E+00         0.00000E+00        -0.58861E+08
 
   -0.58192E+08         0.21371E+06         0.00000E+00
    0.21371E+06        -0.59548E+08         0.00000E+00
    0.00000E+00         0.00000E+00        -0.58880E+08
 
   -0.58250E+08         0.21722E+06         0.00000E+00
    0.21722E+06        -0.59529E+08         0.00000E+00
    0.00000E+00         0.00000E+00        -0.58899E+08
 
   -0.58307E+08         0.21974E+06         0.00000E+00
    0.21974E+06        -0.59510E+08         0.00000E+00
    0.00000E+00         0.00000E+00        -0.58918E+08
 
   -0.58364E+08         0.22132E+06         0.00000E+00
    0.22132E+06        -0.59491E+08         0.00000E+00
    0.00000E+00         0.00000E+00        -0.58937E+08
 
   -0.58420E+08         0.22199E+06         0.00000E+00
    0.22199E+06        -0.59473E+08         0.00000E+00
    0.00000E+00         0.00000E+00        -0.58955E+08
 
   -0.58475E+08         0.22181E+06         0.00000E+00
    0.22181E+06        -0.59454E+08         0.00000E+00
    0.00000E+00         0.00000E+00        -0.58974E+08
 
   -0.58530E+08         0.22084E+06         0.00000E+00
    0.22084E+06        -0.59437E+08         0.00000E+00
    0.00000E+00         0.00000E+00        -0.58992E+08
 
   -0.58583E+08         0.21915E+06         0.00000E+00
    0.21915E+06        -0.59419E+08         0.00000E+00
    0.00000E+00         0.00000E+00        -0.59010E+08
 
   -0.58635E+08         0.21682E+06         0.00000E+00
    0.21682E+06        -0.59402E+08         0.00000E+00
    0.00000E+00         0.00000E+00        -0.59027E+08
 
   -0.58686E+08         0.21393E+06         0.00000E+00
    0.21393E+06        -0.59385E+08         0.00000E+00
    0.00000E+00         0.00000E+00        -0.59044E+08
 
   -0.58736E+08         0.21060E+06         0.00000E+00
    0.21060E+06        -0.59368E+08         0.00000E+00
    0.00000E+00         0.00000E+00        -0.59060E+08
 
   -0.58785E+08         0.20691E+06         0.00000E+00
    0.20691E+06        -0.59352E+08         0.00000E+00
    0.00000E+00         0.00000E+00        -0.59076E+08
 
   -0.58832E+08         0.20300E+06         0.00000E+00
    0.20300E+06        -0.59336E+08         0.00000E+00
    0.00000E+00         0.00000E+00        -0.59092E+08
 
   -0.58878E+08         0.19901E+06         0.00000E+00
    0.19901E+06        -0.59320E+08         0.00000E+00
    0.00000E+00         0.00000E+00        -0.59107E+08
 
   -0.58922E+08         0.19508E+06         0.00000E+00
    0.19508E+06        -0.59305E+08         0.00000E+00
    0.00000E+00         0.00000E+00        -0.59121E+08
 
   -0.58965E+08         0.19139E+06         0.00000E+00
    0.19139E+06        -0.59290E+08         0.00000E+00
    0.00000E+00         0.00000E+00        -0.59135E+08
 
   -0.59005E+08         0.18813E+06         0.00000E+00
    0.18813E+06        -0.59275E+08         0.00000E+00
    0.00000E+00         0.00000E+00        -0.59148E+08
 
   -0.59044E+08         0.18551E+06         0.00000E+00
    0.18551E+06        -0.59261E+08         0.00000E+00
    0.00000E+00         0.00000E+00        -0.59160E+08
 
   -0.59080E+08         0.18374E+06         0.00000E+00
    0.18374E+06        -0.59248E+08         0.00000E+00
    0.00000E+00         0.00000E+00        -0.59171E+08
 
   -0.59113E+08         0.18307E+06         0.00000E+00
    0.18307E+06        -0.59235E+08         0.00000E+00
    0.00000E+00         0.00000E+00        -0.59181E+08
 
   -0.59143E+08         0.18372E+06         0.00000E+00
    0.18372E+06        -0.59223E+08         0.00000E+00
    0.00000E+00         0.00000E+00        -0.59190E+08
 
   -0.59170E+08         0.18588E+06         0.00000E+00
    0.18588E+06        -0.59212E+08         0.00000E+00
    0.00000E+00         0.00000E+00        -0.59198E+08
 
   -0.59193E+08         0.18973E+06         0.00000E+00
    0.18973E+06        -0.59202E+08         0.00000E+00
    0.00000E+00         0.00000E+00        -0.59205E+08
 
   -0.59211E+08         0.19532E+06         0.00000E+00
    0.19532E+06        -0.59194E+08         0.00000E+00
    0.00000E+00         0.00000E+00        -0.59211E+08
 
   -0.59224E+08         0.20260E+06         0.00000E+00
    0.20260E+06        -0.59188E+08         0.00000E+00
    0.00000E+00         0.00000E+00        -0.59215E+08
 
   -0.59231E+08         0.21132E+06         0.00000E+00
    0.21132E+06        -0.59184E+08         0.00000E+00
    0.00000E+00         0.00000E+00        -0.59218E+08
 
   -0.59232E+08         0.22101E+06         0.00000E+00
    0.22101E+06        -0.59184E+08         0.00000E+00
    0.00000E+00         0.00000E+00        -0.59219E+08
 
   -0.59225E+08         0.23091E+06         0.00000E+00
    0.23091E+06        -0.59187E+08         0.00000E+00
    0.00000E+00         0.00000E+00        -0.59220E+08
 
   -0.57336E+08         0.12516E+05         0.00000E+00
    0.12516E+05        -0.59999E+08         0.00000E+00
    0.00000E+00         0.00000E+00        -0.58647E+08
 
   -0.57320E+08         0.33115E+05         0.00000E+00
    0.33115E+05        -0.59996E+08         0.00000E+00
    0.00000E+00         0.00000E+00        -0.58645E+08
 
   -0.57309E+08         0.48704E+05         0.00000E+00
    0.48704E+05        -0.59989E+08         0.00000E+00
    0.00000E+00         0.00000E+00        -0.58642E+08
 
   -0.57306E+08         0.60682E+05         0.00000E+00
    0.60682E+05        -0.59977E+08         0.00000E+00
    0.00000E+00         0.00000E+00        -0.58639E+08
 
   -0.57311E+08         0.70476E+05         0.00000E+00
    0.70476E+05        -0.59961E+08         0.00000E+00
    0.00000E+00         0.00000E+00        -0.58637E+08
 
   -0.57326E+08         0.79285E+05         0.00000E+00
    0.79285E+05        -0.59942E+08         0.00000E+00
    0.00000E+00         0.00000E+00        -0.58638E+08
 
   -0.57349E+08         0.87973E+05         0.00000E+00
    0.87973E+05        -0.59921E+08         0.00000E+00
    0.00000E+00         0.00000E+00        -0.58640E+08
 
   -0.57380E+08         0.97062E+05         0.00000E+00
    0.97062E+05        -0.59898E+08         0.00000E+00
    0.00000E+00         0.00000E+00        -0.58645E+08
 
   -0.57416E+08         0.10679E+06         0.00000E+00
    0.10679E+06        -0.59873E+08         0.00000E+00
    0.00000E+00         0.00000E+00        -0.58652E+08
 
   -0.57458E+08         0.11718E+06         0.00000E+00
    0.11718E+06        -0.59848E+08         0.00000E+00
    0.00000E+00         0.00000E+00        -0.58661E+08
 
   -0.57505E+08         0.12811E+06         0.00000E+00
    0.12811E+06        -0.59823E+08         0.00000E+00
    0.00000E+00         0.00000E+00        -0.58672E+08
 
   -0.57554E+08         0.13939E+06         0.00000E+00
    0.13939E+06        -0.59798E+08         0.00000E+00
    0.00000E+00         0.00000E+00        -0.58684E+08
 
   -0.57607E+08         0.15080E+06         0.00000E+00
    0.15080E+06        -0.59774E+08         0.00000E+00
    0.00000E+00         0.00000E+00        -0.58698E+08
 
   -0.57661E+08         0.16210E+06         0.00000E+00
    0.16210E+06        -0.59750E+08         0.00000E+00
    0.00000E+00         0.00000E+00        -0.58713E+08
 
   -0.57717E+08         0.17308E+06         0.00000E+00
    0.17308E+06        -0.59726E+08         0.00000E+00
    0.00000E+00         0.00000E+00        -0.58729E+08
 
   -0.57775E+08         0.18356E+06         0.00000E+00
    0.18356E+06        -0.59703E+08         0.00000E+00
    0.00000E+00         0.00000E+00        -0.58746E+08
 
   -0.57833E+08         0.19338E+06         0.00000E+00
    0.19338E+06        -0.59680E+08         0.00000E+00
    0.00000E+00         0.00000E+00        -0.58764E+08
 
   -0.57892E+08         0.20242E+06         0.00000E+00
    0.20242E+06        -0.59658E+08         0.00000E+00
    0.00000E+00         0.00000E+00        -0.58782E+08
 
   -0.57951E+08         0.21059E+06         0.00000E+00
    0.21059E+06        -0.59636E+08         0.00000E+00
    0.00000E+00         0.00000E+00        -0.58800E+08
 
   -0.58011E+08         0.21782E+06         0.00000E+00
    0.21782E+06        -0.59614E+08         0.00000E+00
    0.00000E+00         0.00000E+00        -0.58819E+08
 
   -0.58070E+08         0.22406E+06         0.00000E+00
    0.22406E+06        -0.59593E+08         0.00000E+00
    0.00000E+00         0.00000E+00        -0.58838E+08
 
   -0.58129E+08         0.22930E+06         0.00000E+00
    0.22930E+06        -0.59573E+08         0.00000E+00
    0.00000E+00         0.00000E+00        -0.58858E+08
 
   -0.58189E+08         0.23353E+06         0.00000E+00
    0.23353E+06        -0.59552E+08         0.00000E+00
    0.00000E+00         0.00000E+00        -0.58877E+08
 
   -0.58247E+08         0.23676E+06         0.00000E+00
    0.23676E+06        -0.59532E+08         0.00000E+00
    0.00000E+00         0.00000E+00        -0.58896E+08
 
   -0.58305E+08         0.23900E+06         0.00000E+00
    0.23900E+06        -0.59512E+08         0.00000E+00
    0.00000E+00         0.00000E+00        -0.58915E+08
 
   -0.58363E+08         0.24029E+06         0.00000E+00
    0.24029E+06        -0.59493E+08         0.00000E+00
    0.00000E+00         0.00000E+00        -0.58934E+08
 
   -0.58420E+08         0.24068E+06         0.00000E+00
    0.24068E+06        -0.59473E+08         0.00000E+00
    0.00000E+00         0.00000E+00        -0.58953E+08
 
   -0.58476E+08         0.24020E+06         0.00000E+00
    0.24020E+06        -0.59455E+08         0.00000E+00
    0.00000E+00         0.00000E+00        -0.58971E+08
 
   -0.58531E+08         0.23893E+06         0.00000E+00
    0.23893E+06        -0.59436E+08         0.00000E+00
    0.00000E+00         0.00000E+00        -0.58989E+08
 
   -0.58585E+08         0.23693E+06         0.00000E+00
    0.23693E+06        -0.59418E+08         0.00000E+00
    0.00000E+00         0.00000E+00        -0.59007E+08
 
   -0.58638E+08         0.23428E+06         0.00000E+00
    0.23428E+06        -0.59400E+08         0.00000E+00
    0.00000E+00         0.00000E+00        -0.59025E+08
 
   -0.58690E+08         0.23107E+06         0.00000E+00
    0.23107E+06        -0.59382E+08         0.00000E+00
    0.00000E+00         0.00000E+00        -0.59042E+08
 
   -0.58740E+08         0.22739E+06         0.00000E+00
    0.22739E+06        -0.59365E+08         0.00000E+00
    0.00000E+00         0.00000E+00        -0.59058E+08
 
   -0.58789E+08         0.22335E+06         0.00000E+00
    0.22335E+06        -0.59348E+08         0.00000E+00
    0.00000E+00         0.00000E+00        -0.59074E+08
 
   -0.58837E+08         0.21907E+06         0.00000E+00
    0.21907E+06        -0.59332E+08         0.00000E+00
    0.00000E+00         0.00000E+00        -0.59089E+08
 
   -0.58882E+08         0.21470E+06         0.00000E+00
    0.21470E+06        -0.59316E+08         0.00000E+00
    0.00000E+00         0.00000E+00        -0.59104E+08
 
   -0.58926E+08         0.21036E+06         0.00000E+00
    0.21036E+06        -0.59300E+08         0.00000E+00
    0.00000E+00         0.00000E+00        -0.59118E+08
 
   -0.58969E+08         0.20624E+06         0.00000E+00
    0.20624E+06        -0.59285E+08         0.00000E+00
    0.00000E+00         0.00000E+00        -0.59132E+08
 
   -0.59009E+08         0.20249E+06         0.00000E+00
    0.20249E+06        -0.59270E+08         0.00000E+00
    0.00000E+00         0.00000E+00        -0.59144E+08
 
   -0.59046E+08         0.19932E+06         0.00000E+00
    0.19932E+06        -0.59256E+08         0.00000E+00
    0.00000E+00         0.00000E+00        -0.59156E+08
 
   -0.59081E+08         0.19691E+06         0.00000E+00
    0.19691E+06        -0.59242E+08         0.00000E+00
    0.00000E+00         0.00000E+00        -0.59167E+08
 
   -0.59114E+08         0.19546E+06         0.00000E+00
    0.19546E+06        -0.59230E+08         0.00000E+00
    0.00000E+00         0.00000E+00        -0.59177E+08
 
   -0.59143E+08         0.19514E+06         0.00000E+00
    0.19514E+06        -0.59218E+08         0.00000E+00
    0.00000E+00         0.00000E+00        -0.59185E+08
 
   -0.59168E+08         0.19611E+06         0.00000E+00
    0.19611E+06        -0.59207E+08         0.00000E+00
    0.00000E+00         0.00000E+00        -0.59193E+08
 
   -0.59189E+08         0.19845E+06         0.00000E+00
    0.19845E+06        -0.59198E+08         0.00000E+00
    0.00000E+00         0.00000E+00        -0.59199E+08
 
   -0.59206E+08         0.20217E+06         0.00000E+00
    0.20217E+06        -0.59191E+08         0.00000E+00
    0.00000E+00         0.00000E+00        -0.59204E+08
 
   -0.59218E+08         0.20717E+06         0.00000E+00
    0.20717E+06        -0.59185E+08         0.00000E+00
    0.00000E+00         0.00000E+00        -0.59208E+08
 
   -0.59224E+08         0.21317E+06         0.00000E+00
    0.21317E+06        -0.59182E+08         0.00000E+00
    0.00000E+00         0.00000E+00        -0.59211E+08
 
   -0.59224E+08         0.21975E+06         0.00000E+00
    0.21975E+06        -0.59182E+08         0.00000E+00
    0.00000E+00         0.00000E+00        -0.59212E+08
 
   -0.59217E+08         0.22626E+06         0.00000E+00
    0.22626E+06        -0.59185E+08         0.00000E+00
    0.00000E+00         0.00000E+00        -0.59213E+08
 
   -0.57311E+08         0.13890E+05         0.00000E+00
    0.13890E+05        -0.59999E+08         0.00000E+00
    0.00000E+00         0.00000E+00        -0.58640E+08
 
   -0.57300E+08         0.37964E+05         0.00000E+00
    0.37964E+05        -0.59997E+08         0.00000E+00
    0.00000E+00         0.00000E+00        -0.58638E+08
 
   -0.57293E+08         0.57535E+05         0.00000E+00
    0.57535E+05        -0.59990E+08         0.00000E+00
    0.00000E+00         0.00000E+00        -0.58636E+08
 
   -0.57293E+08         0.73487E+05         0.00000E+00
    0.73487E+05        -0.59980E+08         0.00000E+00
    0.00000E+00         0.00000E+00        -0.58634E+08
 
   -0.57301E+08         0.86866E+05         0.00000E+00
    0.86866E+05        -0.59966E+08         0.00000E+00
    0.00000E+00         0.00000E+00        -0.58633E+08
 
   -0.57316E+08         0.98644E+05         0.00000E+00
    0.98644E+05        -0.59949E+08         0.00000E+00
    0.00000E+00         0.00000E+00        -0.58635E+08
 
   -0.57340E+08         0.10960E+06         0.00000E+00
    0.10960E+06        -0.59930E+08         0.00000E+00
    0.00000E+00         0.00000E+00        -0.58638E+08
 
   -0.57370E+08         0.12028E+06         0.00000E+00
    0.12028E+06        -0.59908E+08         0.00000E+00
    0.00000E+00         0.00000E+00        -0.58643E+08
 
   -0.57406E+08         0.13101E+06         0.00000E+00
    0.13101E+06        -0.59885E+08         0.00000E+00
    0.00000E+00         0.00000E+00        -0.58650E+08
 
   -0.57448E+08         0.14193E+06         0.00000E+00
    0.14193E+06        -0.59861E+08         0.00000E+00
    0.00000E+00         0.00000E+00        -0.58659E+08
 
   -0.57494E+08         0.15303E+06         0.00000E+00
    0.15303E+06        -0.59837E+08         0.00000E+00
    0.00000E+00         0.00000E+00        -0.58670E+08
 
   -0.57543E+08         0.16422E+06         0.00000E+00
    0.16422E+06        -0.59812E+08         0.00000E+00
    0.00000E+00         0.00000E+00        -0.58682E+08
 
   -0.57596E+08         0.17536E+06         0.00000E+00
    0.17536E+06        -0.59787E+08         0.00000E+00
    0.00000E+00         0.00000E+00        -0.58696E+08
 
   -0.57650E+08         0.18630E+06         0.00000E+00
    0.18630E+06        -0.59763E+08         0.00000E+00
    0.00000E+00         0.00000E+00        -0.58711E+08
 
   -0.57707E+08         0.19687E+06         0.00000E+00
    0.19687E+06        -0.59738E+08         0.00000E+00
    0.00000E+00         0.00000E+00        -0.58728E+08
 
   -0.57765E+08         0.20691E+06         0.00000E+00
    0.20691E+06        -0.59714E+08         0.00000E+00
    0.00000E+00         0.00000E+00        -0.58744E+08
 
   -0.57824E+08         0.21630E+06         0.00000E+00
    0.21630E+06        -0.59691E+08         0.00000E+00
    0.00000E+00         0.00000E+00        -0.58762E+08
 
   -0.57883E+08         0.22492E+06         0.00000E+00
    0.22492E+06        -0.59668E+08         0.00000E+00
    0.00000E+00         0.00000E+00        -0.58780E+08
 
   -0.57944E+08         0.23269E+06         0.00000E+00
    0.23269E+06        -0.59645E+08         0.00000E+00
    0.00000E+00         0.00000E+00        -0.58799E+08
 
   -0.58004E+08         0.23954E+06         0.00000E+00
    0.23954E+06        -0.59623E+08         0.00000E+00
    0.00000E+00         0.00000E+00        -0.58818E+08
 
   -0.58065E+08         0.24543E+06         0.00000E+00
    0.24543E+06        -0.59601E+08         0.00000E+00
    0.00000E+00         0.00000E+00        -0.58837E+08
 
   -0.58125E+08         0.25032E+06         0.00000E+00
    0.25032E+06        -0.59579E+08         0.00000E+00
    0.00000E+00         0.00000E+00        -0.58857E+08
 
   -0.58185E+08         0.25422E+06         0.00000E+00
    0.25422E+06        -0.59558E+08         0.00000E+00
    0.00000E+00         0.00000E+00        -0.58876E+08
 
   -0.58245E+08         0.25712E+06         0.00000E+00
    0.25712E+06        -0.59537E+08         0.00000E+00
    0.00000E+00         0.00000E+00        -0.58895E+08
 
   -0.58304E+08         0.25904E+06         0.00000E+00
    0.25904E+06        -0.59517E+08         0.00000E+00
    0.00000E+00         0.00000E+00        -0.58914E+08
 
   -0.58362E+08         0.26002E+06         0.00000E+00
    0.26002E+06        -0.59496E+08         0.00000E+00
    0.00000E+00         0.00000E+00        -0.58933E+08
 
   -0.58420E+08         0.26008E+06         0.00000E+00
    0.26008E+06        -0.59476E+08         0.00000E+00
    0.00000E+00         0.00000E+00        -0.58952E+08
 
   -0.58477E+08         0.25928E+06         0.00000E+00
    0.25928E+06        -0.59457E+08         0.00000E+00
    0.00000E+00         0.00000E+00        -0.58971E+08
 
   -0.58533E+08         0.25767E+06         0.00000E+00
    0.25767E+06        -0.59438E+08         0.00000E+00
    0.00000E+00         0.00000E+00        -0.58989E+08
 
   -0.58588E+08         0.25533E+06         0.00000E+00
    0.25533E+06        -0.59419E+08         0.00000E+00
    0.00000E+00         0.00000E+00        -0.59007E+08
 
   -0.58641E+08         0.25232E+06         0.00000E+00
    0.25232E+06        -0.59400E+08         0.00000E+00
    0.00000E+00         0.00000E+00        -0.59025E+08
 
   -0.58693E+08         0.24874E+06         0.00000E+00
    0.24874E+06        -0.59382E+08         0.00000E+00
    0.00000E+00         0.00000E+00        -0.59042E+08
 
   -0.58744E+08         0.24468E+06         0.00000E+00
    0.24468E+06        -0.59364E+08         0.00000E+00
    0.00000E+00         0.00000E+00        -0.59058E+08
 
   -0.58794E+08         0.24024E+06         0.00000E+00
    0.24024E+06        -0.59347E+08         0.00000E+00
    0.00000E+00         0.00000E+00        -0.59074E+08
 
   -0.58841E+08         0.23555E+06         0.00000E+00
    0.23555E+06        -0.59330E+08         0.00000E+00
    0.00000E+00         0.00000E+00        -0.59089E+08
 
   -0.58887E+08         0.23073E+06         0.00000E+00
    0.23073E+06        -0.59314E+08         0.00000E+00
    0.00000E+00         0.00000E+00        -0.59104E+08
 
   -0.58931E+08         0.22592E+06         0.00000E+00
    0.22592E+06        -0.59298E+08         0.00000E+00
    0.00000E+00         0.00000E+00        -0.59118E+08
 
   -0.58973E+08         0.22128E+06         0.00000E+00
    0.22128E+06        -0.59283E+08         0.00000E+00
    0.00000E+00         0.00000E+00        -0.59131E+08
 
   -0.59012E+08         0.21696E+06         0.00000E+00
    0.21696E+06        -0.59268E+08         0.00000E+00
    0.00000E+00         0.00000E+00        -0.59143E+08
 
   -0.59049E+08         0.21313E+06         0.00000E+00
    0.21313E+06        -0.59254E+08         0.00000E+00
    0.00000E+00         0.00000E+00        -0.59155E+08
 
   -0.59084E+08         0.20996E+06         0.00000E+00
    0.20996E+06        -0.59240E+08         0.00000E+00
    0.00000E+00         0.00000E+00        -0.59165E+08
 
   -0.59115E+08         0.20761E+06         0.00000E+00
    0.20761E+06        -0.59228E+08         0.00000E+00
    0.00000E+00         0.00000E+00        -0.59175E+08
 
   -0.59143E+08         0.20621E+06         0.00000E+00
    0.20621E+06        -0.59216E+08         0.00000E+00
    0.00000E+00         0.00000E+00        -0.59183E+08
 
   -0.59167E+08         0.20587E+06         0.00000E+00
    0.20587E+06        -0.59206E+08         0.00000E+00
    0.00000E+00         0.00000E+00        -0.59190E+08
 
   -0.59187E+08         0.20663E+06         0.00000E+00
    0.20663E+06        -0.59197E+08         0.00000E+00
    0.00000E+00         0.00000E+00        -0.59196E+08
 
   -0.59203E+08         0.20847E+06         0.00000E+00
    0.20847E+06        -0.59190E+08         0.00000E+00
    0.00000E+00         0.00000E+00        -0.59201E+08
 
   -0.59213E+08         0.21126E+06         0.00000E+00
    0.21126E+06        -0.59185E+08         0.00000E+00
    0.00000E+00         0.00000E+00        -0.59204E+08
 
   -0.59219E+08         0.21473E+06         0.00000E+00
    0.21473E+06        -0.59183E+08         0.00000E+00
    0.00000E+00         0.00000E+00        -0.59207E+08
 
   -0.59218E+08         0.21850E+06         0.00000E+00
    0.21850E+06        -0.59182E+08         0.00000E+00
    0.00000E+00         0.00000E+00        -0.59208E+08
 
   -0.59213E+08         0.22202E+06         0.00000E+00
    0.22202E+06        -0.59185E+08         0.00000E+00
    0.00000E+00         0.00000E+00        -0.59209E+08
 
   -0.57283E+08         0.15099E+05         0.00000E+00
    0.15099E+05        -0.59999E+08         0.00000E+00
    0.00000E+00         0.00000E+00        -0.58630E+08
 
   -0.57276E+08         0.42171E+05         0.00000E+00
    0.42171E+05        -0.59997E+08         0.00000E+00
    0.00000E+00         0.00000E+00        -0.58629E+08
 
   -0.57274E+08         0.65208E+05         0.00000E+00
    0.65208E+05        -0.59991E+08         0.00000E+00
    0.00000E+00         0.00000E+00        -0.58628E+08
 
   -0.57277E+08         0.84728E+05         0.00000E+00
    0.84728E+05        -0.59982E+08         0.00000E+00
    0.00000E+00         0.00000E+00        -0.58628E+08
 
   -0.57287E+08         0.10146E+06         0.00000E+00
    0.10146E+06        -0.59970E+08         0.00000E+00
    0.00000E+00         0.00000E+00        -0.58628E+08
 
   -0.57304E+08         0.11617E+06         0.00000E+00
    0.11617E+06        -0.59955E+08         0.00000E+00
    0.00000E+00         0.00000E+00        -0.58630E+08
 
   -0.57328E+08         0.12953E+06         0.00000E+00
    0.12953E+06        -0.59937E+08         0.00000E+00
    0.00000E+00         0.00000E+00        -0.58634E+08
 
   -0.57358E+08         0.14206E+06         0.00000E+00
    0.14206E+06        -0.59917E+08         0.00000E+00
    0.00000E+00         0.00000E+00        -0.58640E+08
 
   -0.57395E+08         0.15410E+06         0.00000E+00
    0.15410E+06        -0.59895E+08         0.00000E+00
    0.00000E+00         0.00000E+00        -0.58648E+08
 
   -0.57436E+08         0.16588E+06         0.00000E+00
    0.16588E+06        -0.59872E+08         0.00000E+00
    0.00000E+00         0.00000E+00        -0.58657E+08
 
   -0.57482E+08         0.17747E+06         0.00000E+00
    0.17747E+06        -0.59848E+08         0.00000E+00
    0.00000E+00         0.00000E+00        -0.58668E+08
 
   -0.57532E+08         0.18887E+06         0.00000E+00
    0.18887E+06        -0.59824E+08         0.00000E+00
    0.00000E+00         0.00000E+00        -0.58681E+08
 
   -0.57585E+08         0.20001E+06         0.00000E+00
    0.20001E+06        -0.59799E+08         0.00000E+00
    0.00000E+00         0.00000E+00        -0.58695E+08
 
   -0.57640E+08         0.21079E+06         0.00000E+00
    0.21079E+06        -0.59775E+08         0.00000E+00
    0.00000E+00         0.00000E+00        -0.58710E+08
 
   -0.57697E+08         0.22111E+06         0.00000E+00
    0.22111E+06        -0.59750E+08         0.00000E+00
    0.00000E+00         0.00000E+00        -0.58727E+08
 
   -0.57755E+08         0.23084E+06         0.00000E+00
    0.23084E+06        -0.59726E+08         0.00000E+00
    0.00000E+00         0.00000E+00        -0.58744E+08
 
   -0.57815E+08         0.23989E+06         0.00000E+00
    0.23989E+06        -0.59702E+08         0.00000E+00
    0.00000E+00         0.00000E+00        -0.58762E+08
 
   -0.57875E+08         0.24815E+06         0.00000E+00
    0.24815E+06        -0.59678E+08         0.00000E+00
    0.00000E+00         0.00000E+00        -0.58780E+08
 
   -0.57936E+08         0.25555E+06         0.00000E+00
    0.25555E+06        -0.59655E+08         0.00000E+00
    0.00000E+00         0.00000E+00        -0.58799E+08
 
   -0.57998E+08         0.26204E+06         0.00000E+00
    0.26204E+06        -0.59632E+08         0.00000E+00
    0.00000E+00         0.00000E+00        -0.58818E+08
 
   -0.58059E+08         0.26757E+06         0.00000E+00
    0.26757E+06        -0.59609E+08         0.00000E+00
    0.00000E+00         0.00000E+00        -0.58837E+08
 
   -0.58121E+08         0.27211E+06         0.00000E+00
    0.27211E+06        -0.59587E+08         0.00000E+00
    0.00000E+00         0.00000E+00        -0.58857E+08
 
   -0.58182E+08         0.27566E+06         0.00000E+00
    0.27566E+06        -0.59565E+08         0.00000E+00
    0.00000E+00         0.00000E+00        -0.58876E+08
 
   -0.58242E+08         0.27822E+06         0.00000E+00
    0.27822E+06        -0.59544E+08         0.00000E+00
    0.00000E+00         0.00000E+00        -0.58896E+08
 
   -0.58303E+08         0.27979E+06         0.00000E+00
    0.27979E+06        -0.59522E+08         0.00000E+00
    0.00000E+00         0.00000E+00        -0.58915E+08
 
   -0.58362E+08         0.28042E+06         0.00000E+00
    0.28042E+06        -0.59501E+08         0.00000E+00
    0.00000E+00         0.00000E+00        -0.58934E+08
 
   -0.58421E+08         0.28013E+06         0.00000E+00
    0.28013E+06        -0.59481E+08         0.00000E+00
    0.00000E+00         0.00000E+00        -0.58953E+08
 
   -0.58478E+08         0.27897E+06         0.00000E+00
    0.27897E+06        -0.59461E+08         0.00000E+00
    0.00000E+00         0.00000E+00        -0.58972E+08
 
   -0.58535E+08         0.27700E+06         0.00000E+00
    0.27700E+06        -0.59441E+08         0.00000E+00
    0.00000E+00         0.00000E+00        -0.58991E+08
 
   -0.58590E+08         0.27428E+06         0.00000E+00
    0.27428E+06        -0.59422E+08         0.00000E+00
    0.00000E+00         0.00000E+00        -0.59009E+08
 
   -0.58645E+08         0.27088E+06         0.00000E+00
    0.27088E+06        -0.59403E+08         0.00000E+00
    0.00000E+00         0.00000E+00        -0.59026E+08
 
   -0.58697E+08         0.26689E+06         0.00000E+00
    0.26689E+06        -0.59384E+08         0.00000E+00
    0.00000E+00         0.00000E+00        -0.59043E+08
 
   -0.58749E+08         0.26241E+06         0.00000E+00
    0.26241E+06        -0.59366E+08         0.00000E+00
    0.00000E+00         0.00000E+00        -0.59060E+08
 
   -0.58798E+08         0.25753E+06         0.00000E+00
    0.25753E+06        -0.59348E+08         0.00000E+00
    0.00000E+00         0.00000E+00        -0.59076E+08
 
   -0.58846E+08         0.25236E+06         0.00000E+00
    0.25236E+06        -0.59331E+08         0.00000E+00
    0.00000E+00         0.00000E+00        -0.59091E+08
 
   -0.58892E+08         0.24704E+06         0.00000E+00
    0.24704E+06        -0.59314E+08         0.00000E+00
    0.00000E+00         0.00000E+00        -0.59105E+08
 
   -0.58936E+08         0.24169E+06         0.00000E+00
    0.24169E+06        -0.59298E+08         0.00000E+00
    0.00000E+00         0.00000E+00        -0.59119E+08
 
   -0.58978E+08         0.23646E+06         0.00000E+00
    0.23646E+06        -0.59283E+08         0.00000E+00
    0.00000E+00         0.00000E+00        -0.59132E+08
 
   -0.59017E+08         0.23148E+06         0.00000E+00
    0.23148E+06        -0.59268E+08         0.00000E+00
    0.00000E+00         0.00000E+00        -0.59144E+08
 
   -0.59053E+08         0.22690E+06         0.00000E+00
    0.22690E+06        -0.59254E+08         0.00000E+00
    0.00000E+00         0.00000E+00        -0.59156E+08
 
   -0.59087E+08         0.22287E+06         0.00000E+00
    0.22287E+06        -0.59240E+08         0.00000E+00
    0.00000E+00         0.00000E+00        -0.59166E+08
 
   -0.59117E+08         0.21951E+06         0.00000E+00
    0.21951E+06        -0.59228E+08         0.00000E+00
    0.00000E+00         0.00000E+00        -0.59175E+08
 
   -0.59144E+08         0.21694E+06         0.00000E+00
    0.21694E+06        -0.59217E+08         0.00000E+00
    0.00000E+00         0.00000E+00        -0.59183E+08
 
   -0.59168E+08         0.21521E+06         0.00000E+00
    0.21521E+06        -0.59207E+08         0.00000E+00
    0.00000E+00         0.00000E+00        -0.59190E+08
 
   -0.59187E+08         0.21436E+06         0.00000E+00
    0.21436E+06        -0.59199E+08         0.00000E+00
    0.00000E+00         0.00000E+00        -0.59196E+08
 
   -0.59201E+08         0.21433E+06         0.00000E+00
    0.21433E+06        -0.59192E+08         0.00000E+00
    0.00000E+00         0.00000E+00        -0.59200E+08
 
   -0.59211E+08         0.21499E+06         0.00000E+00
    0.21499E+06        -0.59187E+08         0.00000E+00
    0.00000E+00         0.00000E+00        -0.59203E+08
 
   -0.59216E+08         0.21609E+06         0.00000E+00
    0.21609E+06        -0.59185E+08         0.00000E+00
    0.00000E+00         0.00000E+00        -0.59205E+08
 
   -0.59216E+08         0.21731E+06         0.00000E+00
    0.21731E+06        -0.59185E+08         0.00000E+00
    0.00000E+00         0.00000E+00        -0.59207E+08
 
   -0.59211E+08         0.21820E+06         0.00000E+00
    0.21820E+06        -0.59187E+08         0.00000E+00
    0.00000E+00         0.00000E+00        -0.59207E+08
 
   -0.57253E+08         0.16207E+05         0.00000E+00
    0.16207E+05        -0.60000E+08         0.00000E+00
    0.00000E+00         0.00000E+00        -0.58620E+08
 
   -0.57250E+08         0.45939E+05         0.00000E+00
    0.45939E+05        -0.59997E+08         0.00000E+00
    0.00000E+00         0.00000E+00        -0.58619E+08
 
   -0.57251E+08         0.72041E+05         0.00000E+00
    0.72041E+05        -0.59992E+08         0.00000E+00
    0.00000E+00         0.00000E+00        -0.58619E+08
 
   -0.57257E+08         0.94770E+05         0.00000E+00
    0.94770E+05        -0.59984E+08         0.00000E+00
    0.00000E+00         0.00000E+00        -0.58619E+08
 
   -0.57269E+08         0.11462E+06         0.00000E+00
    0.11462E+06        -0.59973E+08         0.00000E+00
    0.00000E+00         0.00000E+00        -0.58621E+08
 
   -0.57288E+08         0.13216E+06         0.00000E+00
    0.13216E+06        -0.59959E+08         0.00000E+00
    0.00000E+00         0.00000E+00        -0.58624E+08
 
   -0.57314E+08         0.14795E+06         0.00000E+00
    0.14795E+06        -0.59943E+08         0.00000E+00
    0.00000E+00         0.00000E+00        -0.58629E+08
 
   -0.57345E+08         0.16245E+06         0.00000E+00
    0.16245E+06        -0.59924E+08         0.00000E+00
    0.00000E+00         0.00000E+00        -0.58636E+08
 
   -0.57382E+08         0.17603E+06         0.00000E+00
    0.17603E+06        -0.59903E+08         0.00000E+00
    0.00000E+00         0.00000E+00        -0.58645E+08
 
   -0.57424E+08         0.18892E+06         0.00000E+00
    0.18892E+06        -0.59881E+08         0.00000E+00
    0.00000E+00         0.00000E+00        -0.58655E+08
 
   -0.57470E+08         0.20126E+06         0.00000E+00
    0.20126E+06        -0.59858E+08         0.00000E+00
    0.00000E+00         0.00000E+00        -0.58666E+08
 
   -0.57520E+08         0.21312E+06         0.00000E+00
    0.21312E+06        -0.59835E+08         0.00000E+00
    0.00000E+00         0.00000E+00        -0.58680E+08
 
   -0.57573E+08         0.22449E+06         0.00000E+00
    0.22449E+06        -0.59810E+08         0.00000E+00
    0.00000E+00         0.00000E+00        -0.58694E+08
 
   -0.57629E+08         0.23532E+06         0.00000E+00
    0.23532E+06        -0.59786E+08         0.00000E+00
    0.00000E+00         0.00000E+00        -0.58710E+08
 
   -0.57687E+08         0.24556E+06         0.00000E+00
    0.24556E+06        -0.59762E+08         0.00000E+00
    0.00000E+00         0.00000E+00        -0.58726E+08
 
   -0.57746E+08         0.25511E+06         0.00000E+00
    0.25511E+06        -0.59737E+08         0.00000E+00
    0.00000E+00         0.00000E+00        -0.58744E+08
 
   -0.57806E+08         0.26391E+06         0.00000E+00
    0.26391E+06        -0.59713E+08         0.00000E+00
    0.00000E+00         0.00000E+00        -0.58762E+08
 
   -0.57868E+08         0.27189E+06         0.00000E+00
    0.27189E+06        -0.59689E+08         0.00000E+00
    0.00000E+00         0.00000E+00        -0.58780E+08
 
   -0.57930E+08         0.27898E+06         0.00000E+00
    0.27898E+06        -0.59665E+08         0.00000E+00
    0.00000E+00         0.00000E+00        -0.58799E+08
 
   -0.57992E+08         0.28514E+06         0.00000E+00
    0.28514E+06        -0.59642E+08         0.00000E+00
    0.00000E+00         0.00000E+00        -0.58819E+08
 
   -0.58054E+08         0.29033E+06         0.00000E+00
    0.29033E+06        -0.59618E+08         0.00000E+00
    0.00000E+00         0.00000E+00        -0.58838E+08
 
   -0.58117E+08         0.29453E+06         0.00000E+00
    0.29453E+06        -0.59595E+08         0.00000E+00
    0.00000E+00         0.00000E+00        -0.58858E+08
 
   -0.58179E+08         0.29773E+06         0.00000E+00
    0.29773E+06        -0.59573E+08         0.00000E+00
    0.00000E+00         0.00000E+00        -0.58878E+08
 
   -0.58241E+08         0.29993E+06         0.00000E+00
    0.29993E+06        -0.59551E+08         0.00000E+00
    0.00000E+00         0.00000E+00        -0.58898E+08
 
   -0.58302E+08         0.30115E+06         0.00000E+00
    0.30115E+06        -0.59529E+08         0.00000E+00
    0.00000E+00         0.00000E+00        -0.58917E+08
 
   -0.58362E+08         0.30141E+06         0.00000E+00
    0.30141E+06        -0.59508E+08         0.00000E+00
    0.00000E+00         0.00000E+00        -0.58937E+08
 
   -0.58422E+08         0.30075E+06         0.00000E+00
    0.30075E+06        -0.59487E+08         0.00000E+00
    0.00000E+00         0.00000E+00        -0.58956E+08
 
   -0.58480E+08         0.29921E+06         0.00000E+00
    0.29921E+06        -0.59466E+08         0.00000E+00
    0.00000E+00         0.00000E+00        -0.58975E+08
 
   -0.58538E+08         0.29684E+06         0.00000E+00
    0.29684E+06        -0.59446E+08         0.00000E+00
    0.00000E+00         0.00000E+00        -0.58993E+08
 
   -0.58594E+08         0.29371E+06         0.00000E+00
    0.29371E+06        -0.59426E+08         0.00000E+00
    0.00000E+00         0.00000E+00        -0.59011E+08
 
   -0.58649E+08         0.28989E+06         0.00000E+00
    0.28989E+06        -0.59406E+08         0.00000E+00
    0.00000E+00         0.00000E+00        -0.59029E+08
 
   -0.58702E+08         0.28547E+06         0.00000E+00
    0.28547E+06        -0.59387E+08         0.00000E+00
    0.00000E+00         0.00000E+00        -0.59046E+08
 
   -0.58754E+08         0.28052E+06         0.00000E+00
    0.28052E+06        -0.59369E+08         0.00000E+00
    0.00000E+00         0.00000E+00        -0.59063E+08
 
   -0.58804E+08         0.27515E+06         0.00000E+00
    0.27515E+06        -0.59351E+08         0.00000E+00
    0.00000E+00         0.00000E+00        -0.59079E+08
 
   -0.58852E+08         0.26947E+06         0.00000E+00
    0.26947E+06        -0.59333E+08         0.00000E+00
    0.00000E+00         0.00000E+00        -0.59094E+08
 
   -0.58898E+08         0.26358E+06         0.00000E+00
    0.26358E+06        -0.59316E+08         0.00000E+00
    0.00000E+00         0.00000E+00        -0.59109E+08
 
   -0.58942E+08         0.25763E+06         0.00000E+00
    0.25763E+06        -0.59300E+08         0.00000E+00
    0.00000E+00         0.00000E+00        -0.59122E+08
 
   -0.58983E+08         0.25172E+06         0.00000E+00
    0.25172E+06        -0.59284E+08         0.00000E+00
    0.00000E+00         0.00000E+00        -0.59135E+08
 
   -0.59022E+08         0.24600E+06         0.00000E+00
    0.24600E+06        -0.59269E+08         0.00000E+00
    0.00000E+00         0.00000E+00        -0.59147E+08
 
   -0.59058E+08         0.24058E+06         0.00000E+00
    0.24058E+06        -0.59255E+08         0.00000E+00
    0.00000E+00         0.00000E+00        -0.59158E+08
 
   -0.59091E+08         0.23560E+06         0.00000E+00
    0.23560E+06        -0.59242E+08         0.00000E+00
    0.00000E+00         0.00000E+00        -0.59168E+08
 
   -0.59121E+08         0.23116E+06         0.00000E+00
    0.23116E+06        -0.59230E+08         0.00000E+00
    0.00000E+00         0.00000E+00        -0.59177E+08
 
   -0.59147E+08         0.22733E+06         0.00000E+00
    0.22733E+06        -0.59219E+08         0.00000E+00
    0.00000E+00         0.00000E+00        -0.59185E+08
 
   -0.59170E+08         0.22418E+06         0.00000E+00
    0.22418E+06        -0.59210E+08         0.00000E+00
    0.00000E+00         0.00000E+00        -0.59192E+08
 
   -0.59188E+08         0.22170E+06         0.00000E+00
    0.22170E+06        -0.59202E+08         0.00000E+00
    0.00000E+00         0.00000E+00        -0.59197E+08
 
   -0.59202E+08         0.21983E+06         0.00000E+00
    0.21983E+06        -0.59196E+08         0.00000E+00
    0.00000E+00         0.00000E+00        -0.59201E+08
 
   -0.59211E+08         0.21844E+06         0.00000E+00
    0.21844E+06        -0.59191E+08         0.00000E+00
    0.00000E+00         0.00000E+00        -0.59205E+08
 
   -0.59216E+08         0.21733E+06         0.00000E+00
    0.21733E+06        -0.59189E+08         0.00000E+00
    0.00000E+00         0.00000E+00        -0.59207E+08
 
   -0.59216E+08         0.21623E+06         0.00000E+00
    0.21623E+06        -0.59189E+08         0.00000E+00
    0.00000E+00         0.00000E+00        -0.59208E+08
 
   -0.59212E+08         0.21478E+06         0.00000E+00
    0.21478E+06        -0.59191E+08         0.00000E+00
    0.00000E+00         0.00000E+00        -0.59208E+08
 
   -0.57220E+08         0.17254E+05         0.00000E+00
    0.17254E+05        -0.60000E+08         0.00000E+00
    0.00000E+00         0.00000E+00        -0.58607E+08
 
   -0.57221E+08         0.49411E+05         0.00000E+00
    0.49411E+05        -0.59997E+08         0.00000E+00
    0.00000E+00         0.00000E+00        -0.58607E+08
 
   -0.57225E+08         0.78269E+05         0.00000E+00
    0.78269E+05        -0.59993E+08         0.00000E+00
    0.00000E+00         0.00000E+00        -0.58608E+08
 
   -0.57234E+08         0.10391E+06         0.00000E+00
    0.10391E+06        -0.59985E+08         0.00000E+00
    0.00000E+00         0.00000E+00        -0.58610E+08
 
   -0.57249E+08         0.12663E+06         0.00000E+00
    0.12663E+06        -0.59975E+08         0.00000E+00
    0.00000E+00         0.00000E+00        -0.58613E+08
 
   -0.57270E+08         0.14687E+06         0.00000E+00
    0.14687E+06        -0.59962E+08         0.00000E+00
    0.00000E+00         0.00000E+00        -0.58617E+08
 
   -0.57298E+08         0.16505E+06         0.00000E+00
    0.16505E+06        -0.59947E+08         0.00000E+00
    0.00000E+00         0.00000E+00        -0.58623E+08
 
   -0.57330E+08         0.18159E+06         0.00000E+00
    0.18159E+06        -0.59929E+08         0.00000E+00
    0.00000E+00         0.00000E+00        -0.58631E+08
 
   -0.57368E+08         0.19682E+06         0.00000E+00
    0.19682E+06        -0.59910E+08         0.00000E+00
    0.00000E+00         0.00000E+00        -0.58640E+08
 
   -0.57411E+08         0.21101E+06         0.00000E+00
    0.21101E+06        -0.59889E+08         0.00000E+00
    0.00000E+00         0.00000E+00        -0.58651E+08
 
   -0.57458E+08         0.22431E+06         0.00000E+00
    0.22431E+06        -0.59867E+08         0.00000E+00
    0.00000E+00         0.00000E+00        -0.58664E+08
 
   -0.57509E+08         0.23683E+06         0.00000E+00
    0.23683E+06        -0.59844E+08         0.00000E+00
    0.00000E+00         0.00000E+00        -0.58678E+08
 
   -0.57562E+08         0.24863E+06         0.00000E+00
    0.24863E+06        -0.59820E+08         0.00000E+00
    0.00000E+00         0.00000E+00        -0.58693E+08
 
   -0.57618E+08         0.25969E+06         0.00000E+00
    0.25969E+06        -0.59796E+08         0.00000E+00
    0.00000E+00         0.00000E+00        -0.58709E+08
 
   -0.57677E+08         0.26999E+06         0.00000E+00
    0.26999E+06        -0.59772E+08         0.00000E+00
    0.00000E+00         0.00000E+00        -0.58726E+08
 
   -0.57737E+08         0.27950E+06         0.00000E+00
    0.27950E+06        -0.59747E+08         0.00000E+00
    0.00000E+00         0.00000E+00        -0.58743E+08
 
   -0.57798E+08         0.28817E+06         0.00000E+00
    0.28817E+06        -0.59723E+08         0.00000E+00
    0.00000E+00         0.00000E+00        -0.58762E+08
 
   -0.57860E+08         0.29595E+06         0.00000E+00
    0.29595E+06        -0.59699E+08         0.00000E+00
    0.00000E+00         0.00000E+00        -0.58781E+08
 
   -0.57923E+08         0.30280E+06         0.00000E+00
    0.30280E+06        -0.59675E+08         0.00000E+00
    0.00000E+00         0.00000E+00        -0.58800E+08
 
   -0.57986E+08         0.30868E+06         0.00000E+00
    0.30868E+06        -0.59651E+08         0.00000E+00
    0.00000E+00         0.00000E+00        -0.58820E+08
 
   -0.58050E+08         0.31356E+06         0.00000E+00
    0.31356E+06        -0.59627E+08         0.00000E+00
    0.00000E+00         0.00000E+00        -0.58840E+08
 
   -0.58113E+08         0.31744E+06         0.00000E+00
    0.31744E+06        -0.59604E+08         0.00000E+00
    0.00000E+00         0.00000E+00        -0.58860E+08
 
   -0.58176E+08         0.32030E+06         0.00000E+00
    0.32030E+06        -0.59581E+08         0.00000E+00
    0.00000E+00         0.00000E+00        -0.58880E+08
 
   -0.58239E+08         0.32215E+06         0.00000E+00
    0.32215E+06        -0.59559E+08         0.00000E+00
    0.00000E+00         0.00000E+00        -0.58900E+08
 
   -0.58301E+08         0.32301E+06         0.00000E+00
    0.32301E+06        -0.59536E+08         0.00000E+00
    0.00000E+00         0.00000E+00        -0.58920E+08
 
   -0.58362E+08         0.32289E+06         0.00000E+00
    0.32289E+06        -0.59514E+08         0.00000E+00
    0.00000E+00         0.00000E+00        -0.58940E+08
 
   -0.58423E+08         0.32184E+06         0.00000E+00
    0.32184E+06        -0.59493E+08         0.00000E+00
    0.00000E+00         0.00000E+00        -0.58959E+08
 
   -0.58482E+08         0.31990E+06         0.00000E+00
    0.31990E+06        -0.59472E+08         0.00000E+00
    0.00000E+00         0.00000E+00        -0.58978E+08
 
   -0.58541E+08         0.31712E+06         0.00000E+00
    0.31712E+06        -0.59451E+08         0.00000E+00
    0.00000E+00         0.00000E+00        -0.58997E+08
 
   -0.58597E+08         0.31356E+06         0.00000E+00
    0.31356E+06        -0.59431E+08         0.00000E+00
    0.00000E+00         0.00000E+00        -0.59015E+08
 
   -0.58653E+08         0.30929E+06         0.00000E+00
    0.30929E+06        -0.59411E+08         0.00000E+00
    0.00000E+00         0.00000E+00        -0.59033E+08
 
   -0.58707E+08         0.30439E+06         0.00000E+00
    0.30439E+06        -0.59392E+08         0.00000E+00
    0.00000E+00         0.00000E+00        -0.59050E+08
 
   -0.58759E+08         0.29894E+06         0.00000E+00
    0.29894E+06        -0.59373E+08         0.00000E+00
    0.00000E+00         0.00000E+00        -0.59067E+08
 
   -0.58809E+08         0.29304E+06         0.00000E+00
    0.29304E+06        -0.59355E+08         0.00000E+00
    0.00000E+00         0.00000E+00        -0.59083E+08
 
   -0.58858E+08         0.28679E+06         0.00000E+00
    0.28679E+06        -0.59337E+08         0.00000E+00
    0.00000E+00         0.00000E+00        -0.59098E+08
 
   -0.58904E+08         0.28029E+06         0.00000E+00
    0.28029E+06        -0.59320E+08         0.00000E+00
    0.00000E+00         0.00000E+00        -0.59113E+08
 
   -0.58948E+08         0.27366E+06         0.00000E+00
    0.27366E+06        -0.59304E+08         0.00000E+00
    0.00000E+00         0.00000E+00        -0.59127E+08
 
   -0.58989E+08         0.26702E+06         0.00000E+00
    0.26702E+06        -0.59288E+08         0.00000E+00
    0.00000E+00         0.00000E+00        -0.59140E+08
 
   -0.59028E+08         0.26048E+06         0.00000E+00
    0.26048E+06        -0.59273E+08         0.00000E+00
    0.00000E+00         0.00000E+00        -0.59152E+08
 
   -0.59064E+08         0.25415E+06         0.00000E+00
    0.25415E+06        -0.59259E+08         0.00000E+00
    0.00000E+00         0.00000E+00        -0.59162E+08
 
   -0.59096E+08         0.24815E+06         0.00000E+00
    0.24815E+06        -0.59246E+08         0.00000E+00
    0.00000E+00         0.00000E+00        -0.59172E+08
 
   -0.59126E+08         0.24255E+06         0.00000E+00
    0.24255E+06        -0.59234E+08         0.00000E+00
    0.00000E+00         0.00000E+00        -0.59181E+08
 
   -0.59151E+08         0.23742E+06         0.00000E+00
    0.23742E+06        -0.59223E+08         0.00000E+00
    0.00000E+00         0.00000E+00        -0.59189E+08
 
   -0.59173E+08         0.23281E+06         0.00000E+00
    0.23281E+06        -0.59214E+08         0.00000E+00
    0.00000E+00         0.00000E+00        -0.59195E+08
 
   -0.59191E+08         0.22869E+06         0.00000E+00
    0.22869E+06        -0.59207E+08         0.00000E+00
    0.00000E+00         0.00000E+00        -0.59201E+08
 
   -0.59204E+08         0.22502E+06         0.00000E+00
    0.22502E+06        -0.59201E+08         0.00000E+00
    0.00000E+00         0.00000E+00        -0.59205E+08
 
   -0.59214E+08         0.22168E+06         0.00000E+00
    0.22168E+06        -0.59197E+08         0.00000E+00
    0.00000E+00         0.00000E+00        -0.59208E+08
 
   -0.59218E+08         0.21850E+06         0.00000E+00
    0.21850E+06        -0.59194E+08         0.00000E+00
    0.00000E+00         0.00000E+00        -0.59210E+08
 
   -0.59218E+08         0.21526E+06         0.00000E+00
    0.21526E+06        -0.59194E+08         0.00000E+00
    0.00000E+00         0.00000E+00        -0.59211E+08
 
   -0.59214E+08         0.21170E+06         0.00000E+00
    0.21170E+06        -0.59196E+08         0.00000E+00
    0.00000E+00         0.00000E+00        -0.59211E+08
 
   -0.57186E+08         0.18263E+05         0.00000E+00
    0.18263E+05        -0.60000E+08         0.00000E+00
    0.00000E+00         0.00000E+00        -0.58594E+08
 
   -0.57189E+08         0.52683E+05         0.00000E+00
    0.52683E+05        -0.59997E+08         0.00000E+00
    0.00000E+00         0.00000E+00        -0.58594E+08
 
   -0.57196E+08         0.84064E+05         0.00000E+00
    0.84064E+05        -0.59993E+08         0.00000E+00
    0.00000E+00         0.00000E+00        -0.58596E+08
 
   -0.57209E+08         0.11236E+06         0.00000E+00
    0.11236E+06        -0.59986E+08         0.00000E+00
    0.00000E+00         0.00000E+00        -0.58599E+08
 
   -0.57227E+08         0.13776E+06         0.00000E+00
    0.13776E+06        -0.59977E+08         0.00000E+00
    0.00000E+00         0.00000E+00        -0.58603E+08
 
   -0.57250E+08         0.16053E+06         0.00000E+00
    0.16053E+06        -0.59965E+08         0.00000E+00
    0.00000E+00         0.00000E+00        -0.58608E+08
 
   -0.57279E+08         0.18104E+06         0.00000E+00
    0.18104E+06        -0.59950E+08         0.00000E+00
    0.00000E+00         0.00000E+00        -0.58616E+08
 
   -0.57313E+08         0.19962E+06         0.00000E+00
    0.19962E+06        -0.59934E+08         0.00000E+00
    0.00000E+00         0.00000E+00        -0.58625E+08
 
   -0.57353E+08         0.21658E+06         0.00000E+00
    0.21658E+06        -0.59915E+08         0.00000E+00
    0.00000E+00         0.00000E+00        -0.58635E+08
 
   -0.57397E+08         0.23217E+06         0.00000E+00
    0.23217E+06        -0.59895E+08         0.00000E+00
    0.00000E+00         0.00000E+00        -0.58647E+08
 
   -0.57445E+08         0.24657E+06         0.00000E+00
    0.24657E+06        -0.59874E+08         0.00000E+00
    0.00000E+00         0.00000E+00        -0.58660E+08
 
   -0.57496E+08         0.25992E+06         0.00000E+00
    0.25992E+06        -0.59852E+08         0.00000E+00
    0.00000E+00         0.00000E+00        -0.58675E+08
 
   -0.57551E+08         0.27230E+06         0.00000E+00
    0.27230E+06        -0.59829E+08         0.00000E+00
    0.00000E+00         0.00000E+00        -0.58691E+08
 
   -0.57608E+08         0.28374E+06         0.00000E+00
    0.28374E+06        -0.59805E+08         0.00000E+00
    0.00000E+00         0.00000E+00        -0.58707E+08
 
   -0.57667E+08         0.29426E+06         0.00000E+00
    0.29426E+06        -0.59781E+08         0.00000E+00
    0.00000E+00         0.00000E+00        -0.58725E+08
 
   -0.57728E+08         0.30385E+06         0.00000E+00
    0.30385E+06        -0.59757E+08         0.00000E+00
    0.00000E+00         0.00000E+00        -0.58743E+08
 
   -0.57790E+08         0.31249E+06         0.00000E+00
    0.31249E+06        -0.59733E+08         0.00000E+00
    0.00000E+00         0.00000E+00        -0.58762E+08
 
   -0.57853E+08         0.32016E+06         0.00000E+00
    0.32016E+06        -0.59708E+08         0.00000E+00
    0.00000E+00         0.00000E+00        -0.58782E+08
 
   -0.57917E+08         0.32684E+06         0.00000E+00
    0.32684E+06        -0.59684E+08         0.00000E+00
    0.00000E+00         0.00000E+00        -0.58801E+08
 
   -0.57981E+08         0.33249E+06         0.00000E+00
    0.33249E+06        -0.59660E+08         0.00000E+00
    0.00000E+00         0.00000E+00        -0.58821E+08
 
   -0.58046E+08         0.33711E+06         0.00000E+00
    0.33711E+06        -0.59636E+08         0.00000E+00
    0.00000E+00         0.00000E+00        -0.58842E+08
 
   -0.58110E+08         0.34070E+06         0.00000E+00
    0.34070E+06        -0.59613E+08         0.00000E+00
    0.00000E+00         0.00000E+00        -0.58862E+08
 
   -0.58174E+08         0.34324E+06         0.00000E+00
    0.34324E+06        -0.59590E+08         0.00000E+00
    0.00000E+00         0.00000E+00        -0.58883E+08
 
   -0.58238E+08         0.34475E+06         0.00000E+00
    0.34475E+06        -0.59567E+08         0.00000E+00
    0.00000E+00         0.00000E+00        -0.58903E+08
 
   -0.58301E+08         0.34525E+06         0.00000E+00
    0.34525E+06        -0.59544E+08         0.00000E+00
    0.00000E+00         0.00000E+00        -0.58923E+08
 
   -0.58363E+08         0.34476E+06         0.00000E+00
    0.34476E+06        -0.59522E+08         0.00000E+00
    0.00000E+00         0.00000E+00        -0.58943E+08
 
   -0.58425E+08         0.34332E+06         0.00000E+00
    0.34332E+06        -0.59500E+08         0.00000E+00
    0.00000E+00         0.00000E+00        -0.58963E+08
 
   -0.58485E+08         0.34097E+06         0.00000E+00
    0.34097E+06        -0.59479E+08         0.00000E+00
    0.00000E+00         0.00000E+00        -0.58983E+08
 
   -0.58544E+08         0.33776E+06         0.00000E+00
    0.33776E+06        -0.59458E+08         0.00000E+00
    0.00000E+00         0.00000E+00        -0.59002E+08
 
   -0.58602E+08         0.33374E+06         0.00000E+00
    0.33374E+06        -0.59437E+08         0.00000E+00
    0.00000E+00         0.00000E+00        -0.59020E+08
 
   -0.58658E+08         0.32900E+06         0.00000E+00
    0.32900E+06        -0.59417E+08         0.00000E+00
    0.00000E+00         0.00000E+00        -0.59038E+08
 
   -0.58712E+08         0.32359E+06         0.00000E+00
    0.32359E+06        -0.59397E+08         0.00000E+00
    0.00000E+00         0.00000E+00        -0.59056E+08
 
   -0.58765E+08         0.31761E+06         0.00000E+00
    0.31761E+06        -0.59378E+08         0.00000E+00
    0.00000E+00         0.00000E+00        -0.59072E+08
 
   -0.58816E+08         0.31114E+06         0.00000E+00
    0.31114E+06        -0.59360E+08         0.00000E+00
    0.00000E+00         0.00000E+00        -0.59089E+08
 
   -0.58865E+08         0.30427E+06         0.00000E+00
    0.30427E+06        -0.59342E+08         0.00000E+00
    0.00000E+00         0.00000E+00        -0.59104E+08
 
   -0.58911E+08         0.29711E+06         0.00000E+00
    0.29711E+06        -0.59325E+08         0.00000E+00
    0.00000E+00         0.00000E+00        -0.59119E+08
 
   -0.58955E+08         0.28976E+06         0.00000E+00
    0.28976E+06        -0.59308E+08         0.00000E+00
    0.00000E+00         0.00000E+00        -0.59132E+08
 
   -0.58996E+08         0.28232E+06         0.00000E+00
    0.28232E+06        -0.59293E+08         0.00000E+00
    0.00000E+00         0.00000E+00        -0.59145E+08
 
   -0.59035E+08         0.27490E+06         0.00000E+00
    0.27490E+06        -0.59278E+08         0.00000E+00
    0.00000E+00         0.00000E+00        -0.59157E+08
 
   -0.59070E+08         0.26759E+06         0.00000E+00
    0.26759E+06        -0.59264E+08         0.00000E+00
    0.00000E+00         0.00000E+00        -0.59168E+08
 
   -0.59103E+08         0.26050E+06         0.00000E+00
    0.26050E+06        -0.59251E+08         0.00000E+00
    0.00000E+00         0.00000E+00        -0.59178E+08
 
   -0.59132E+08         0.25370E+06         0.00000E+00
    0.25370E+06        -0.59240E+08         0.00000E+00
    0.00000E+00         0.00000E+00        -0.59187E+08
 
   -0.59157E+08         0.24723E+06         0.00000E+00
    0.24723E+06        -0.59229E+08         0.00000E+00
    0.00000E+00         0.00000E+00        -0.59194E+08
 
   -0.59178E+08         0.24113E+06         0.00000E+00
    0.24113E+06        -0.59220E+08         0.00000E+00
    0.00000E+00         0.00000E+00        -0.59201E+08
 
   -0.59196E+08         0.23539E+06         0.00000E+00
    0.23539E+06        -0.59213E+08         0.00000E+00
    0.00000E+00         0.00000E+00        -0.59206E+08
 
   -0.59209E+08         0.22995E+06         0.00000E+00
    0.22995E+06        -0.59207E+08         0.00000E+00
    0.00000E+00         0.00000E+00        -0.59210E+08
 
   -0.59218E+08         0.22474E+06         0.00000E+00
    0.22474E+06        -0.59203E+08         0.00000E+00
    0.00000E+00         0.00000E+00        -0.59213E+08
 
   -0.59222E+08         0.21961E+06         0.00000E+00
    0.21961E+06        -0.59201E+08         0.00000E+00
    0.00000E+00         0.00000E+00        -0.59215E+08
 
   -0.59223E+08         0.21440E+06         0.00000E+00
    0.21440E+06        -0.59201E+08         0.00000E+00
    0.00000E+00         0.00000E+00        -0.59216E+08
 
   -0.59219E+08         0.20890E+06         0.00000E+00
    0.20890E+06        -0.59203E+08         0.00000E+00
    0.00000E+00         0.00000E+00        -0.59216E+08
 
   -0.57149E+08         0.19251E+05         0.00000E+00
    0.19251E+05        -0.60000E+08         0.00000E+00
    0.00000E+00         0.00000E+00        -0.58579E+08
 
   -0.57155E+08         0.55822E+05         0.00000E+00
    0.55822E+05        -0.59998E+08         0.00000E+00
    0.00000E+00         0.00000E+00        -0.58580E+08
 
   -0.57165E+08         0.89549E+05         0.00000E+00
    0.89549E+05        -0.59993E+08         0.00000E+00
    0.00000E+00         0.00000E+00        -0.58582E+08
 
   -0.57181E+08         0.12031E+06         0.00000E+00
    0.12031E+06        -0.59987E+08         0.00000E+00
    0.00000E+00         0.00000E+00        -0.58586E+08
 
   -0.57201E+08         0.14819E+06         0.00000E+00
    0.14819E+06        -0.59978E+08         0.00000E+00
    0.00000E+00         0.00000E+00        -0.58591E+08
 
   -0.57227E+08         0.17336E+06         0.00000E+00
    0.17336E+06        -0.59966E+08         0.00000E+00
    0.00000E+00         0.00000E+00        -0.58598E+08
 
   -0.57259E+08         0.19610E+06         0.00000E+00
    0.19610E+06        -0.59953E+08         0.00000E+00
    0.00000E+00         0.00000E+00        -0.58607E+08
 
   -0.57295E+08         0.21669E+06         0.00000E+00
    0.21669E+06        -0.59937E+08         0.00000E+00
    0.00000E+00         0.00000E+00        -0.58617E+08
 
   -0.57336E+08         0.23539E+06         0.00000E+00
    0.23539E+06        -0.59920E+08         0.00000E+00
    0.00000E+00         0.00000E+00        -0.58629E+08
 
   -0.57381E+08         0.25245E+06         0.00000E+00
    0.25245E+06        -0.59901E+08         0.00000E+00
    0.00000E+00         0.00000E+00        -0.58642E+08
 
   -0.57430E+08         0.26805E+06         0.00000E+00
    0.26805E+06        -0.59880E+08         0.00000E+00
    0.00000E+00         0.00000E+00        -0.58656E+08
 
   -0.57483E+08         0.28234E+06         0.00000E+00
    0.28234E+06        -0.59859E+08         0.00000E+00
    0.00000E+00         0.00000E+00        -0.58671E+08
 
   -0.57538E+08         0.29542E+06         0.00000E+00
    0.29542E+06        -0.59836E+08         0.00000E+00
    0.00000E+00         0.00000E+00        -0.58688E+08
 
   -0.57596E+08         0.30738E+06         0.00000E+00
    0.30738E+06        -0.59813E+08         0.00000E+00
    0.00000E+00         0.00000E+00        -0.58705E+08
 
   -0.57657E+08         0.31823E+06         0.00000E+00
    0.31823E+06        -0.59789E+08         0.00000E+00
    0.00000E+00         0.00000E+00        -0.58724E+08
 
   -0.57718E+08         0.32802E+06         0.00000E+00
    0.32802E+06        -0.59765E+08         0.00000E+00
    0.00000E+00         0.00000E+00        -0.58743E+08
 
   -0.57782E+08         0.33673E+06         0.00000E+00
    0.33673E+06        -0.59741E+08         0.00000E+00
    0.00000E+00         0.00000E+00        -0.58762E+08
 
   -0.57846E+08         0.34438E+06         0.00000E+00
    0.34438E+06        -0.59717E+08         0.00000E+00
    0.00000E+00         0.00000E+00        -0.58782E+08
 
   -0.57911E+08         0.35095E+06         0.00000E+00
    0.35095E+06        -0.59693E+08         0.00000E+00
    0.00000E+00         0.00000E+00        -0.58802E+08
 
   -0.57976E+08         0.35644E+06         0.00000E+00
    0.35644E+06        -0.59669E+08         0.00000E+00
    0.00000E+00         0.00000E+00        -0.58823E+08
 
   -0.58042E+08         0.36084E+06         0.00000E+00
    0.36084E+06        -0.59645E+08         0.00000E+00
    0.00000E+00         0.00000E+00        -0.58844E+08
 
   -0.58107E+08         0.36417E+06         0.00000E+00
    0.36417E+06        -0.59622E+08         0.00000E+00
    0.00000E+00         0.00000E+00        -0.58865E+08
 
   -0.58172E+08         0.36642E+06         0.00000E+00
    0.36642E+06        -0.59598E+08         0.00000E+00
    0.00000E+00         0.00000E+00        -0.58886E+08
 
   -0.58237E+08         0.36761E+06         0.00000E+00
    0.36761E+06        -0.59575E+08         0.00000E+00
    0.00000E+00         0.00000E+00        -0.58907E+08
 
   -0.58301E+08         0.36776E+06         0.00000E+00
    0.36776E+06        -0.59552E+08         0.00000E+00
    0.00000E+00         0.00000E+00        -0.58927E+08
 
   -0.58364E+08         0.36690E+06         0.00000E+00
    0.36690E+06        -0.59530E+08         0.00000E+00
    0.00000E+00         0.00000E+00        -0.58948E+08
 
   -0.58427E+08         0.36507E+06         0.00000E+00
    0.36507E+06        -0.59508E+08         0.00000E+00
    0.00000E+00         0.00000E+00        -0.58968E+08
 
   -0.58488E+08         0.36230E+06         0.00000E+00
    0.36230E+06        -0.59486E+08         0.00000E+00
    0.00000E+00         0.00000E+00        -0.58987E+08
 
   -0.58548E+08         0.35865E+06         0.00000E+00
    0.35865E+06        -0.59465E+08         0.00000E+00
    0.00000E+00         0.00000E+00        -0.59007E+08
 
   -0.58606E+08         0.35418E+06         0.00000E+00
    0.35418E+06        -0.59444E+08         0.00000E+00
    0.00000E+00         0.00000E+00        -0.59026E+08
 
   -0.58663E+08         0.34894E+06         0.00000E+00
    0.34894E+06        -0.59424E+08         0.00000E+00
    0.00000E+00         0.00000E+00        -0.59044E+08
 
   -0.58718E+08         0.34300E+06         0.00000E+00
    0.34300E+06        -0.59404E+08         0.00000E+00
    0.00000E+00         0.00000E+00        -0.59062E+08
 
   -0.58772E+08         0.33646E+06         0.00000E+00
    0.33646E+06        -0.59385E+08         0.00000E+00
    0.00000E+00         0.00000E+00        -0.59079E+08
 
   -0.58823E+08         0.32938E+06         0.00000E+00
    0.32938E+06        -0.59366E+08         0.00000E+00
    0.00000E+00         0.00000E+00        -0.59095E+08
 
   -0.58872E+08         0.32186E+06         0.00000E+00
    0.32186E+06        -0.59348E+08         0.00000E+00
    0.00000E+00         0.00000E+00        -0.59111E+08
 
   -0.58919E+08         0.31399E+06         0.00000E+00
    0.31399E+06        -0.59331E+08         0.00000E+00
    0.00000E+00         0.00000E+00        -0.59125E+08
 
   -0.58963E+08         0.30586E+06         0.00000E+00
    0.30586E+06        -0.59315E+08         0.00000E+00
    0.00000E+00         0.00000E+00        -0.59139E+08
 
   -0.59004E+08         0.29757E+06         0.00000E+00
    0.29757E+06        -0.59299E+08         0.00000E+00
    0.00000E+00         0.00000E+00        -0.59152E+08
 
   -0.59043E+08         0.28922E+06         0.00000E+00
    0.28922E+06        -0.59284E+08         0.00000E+00
    0.00000E+00         0.00000E+00        -0.59164E+08
 
   -0.59078E+08         0.28089E+06         0.00000E+00
    0.28089E+06        -0.59270E+08         0.00000E+00
    0.00000E+00         0.00000E+00        -0.59175E+08
 
   -0.59110E+08         0.27266E+06         0.00000E+00
    0.27266E+06        -0.59258E+08         0.00000E+00
    0.00000E+00         0.00000E+00        -0.59185E+08
 
   -0.59139E+08         0.26461E+06         0.00000E+00
    0.26461E+06        -0.59246E+08         0.00000E+00
    0.00000E+00         0.00000E+00        -0.59193E+08
 
   -0.59164E+08         0.25678E+06         0.00000E+00
    0.25678E+06        -0.59236E+08         0.00000E+00
    0.00000E+00         0.00000E+00        -0.59201E+08
 
   -0.59185E+08         0.24918E+06         0.00000E+00
    0.24918E+06        -0.59228E+08         0.00000E+00
    0.00000E+00         0.00000E+00        -0.59207E+08
 
   -0.59202E+08         0.24183E+06         0.00000E+00
    0.24183E+06        -0.59220E+08         0.00000E+00
    0.00000E+00         0.00000E+00        -0.59213E+08
 
   -0.59215E+08         0.23468E+06         0.00000E+00
    0.23468E+06        -0.59215E+08         0.00000E+00
    0.00000E+00         0.00000E+00        -0.59217E+08
 
   -0.59224E+08         0.22766E+06         0.00000E+00
    0.22766E+06        -0.59211E+08         0.00000E+00
    0.00000E+00         0.00000E+00        -0.59220E+08
 
   -0.59228E+08         0.22068E+06         0.00000E+00
    0.22068E+06        -0.59209E+08         0.00000E+00
    0.00000E+00         0.00000E+00        -0.59222E+08
 
   -0.59229E+08         0.21361E+06         0.00000E+00
    0.21361E+06        -0.59209E+08         0.00000E+00
    0.00000E+00         0.00000E+00        -0.59223E+08
 
   -0.59226E+08         0.20632E+06         0.00000E+00
    0.20632E+06        -0.59211E+08         0.00000E+00
    0.00000E+00         0.00000E+00        -0.59223E+08
 
   -0.57110E+08         0.20227E+05         0.00000E+00
    0.20227E+05        -0.60000E+08         0.00000E+00
    0.00000E+00         0.00000E+00        -0.58562E+08
 
   -0.57119E+08         0.58870E+05         0.00000E+00
    0.58870E+05        -0.59998E+08         0.00000E+00
    0.00000E+00         0.00000E+00        -0.58564E+08
 
   -0.57132E+08         0.94812E+05         0.00000E+00
    0.94812E+05        -0.59993E+08         0.00000E+00
    0.00000E+00         0.00000E+00        -0.58567E+08
 
   -0.57150E+08         0.12788E+06         0.00000E+00
    0.12788E+06        -0.59987E+08         0.00000E+00
    0.00000E+00         0.00000E+00        -0.58572E+08
 
   -0.57174E+08         0.15808E+06         0.00000E+00
    0.15808E+06        -0.59979E+08         0.00000E+00
    0.00000E+00         0.00000E+00        -0.58579E+08
 
   -0.57202E+08         0.18552E+06         0.00000E+00
    0.18552E+06        -0.59968E+08         0.00000E+00
    0.00000E+00         0.00000E+00        -0.58587E+08
 
   -0.57236E+08         0.21039E+06         0.00000E+00
    0.21039E+06        -0.59955E+08         0.00000E+00
    0.00000E+00         0.00000E+00        -0.58597E+08
 
   -0.57274E+08         0.23293E+06         0.00000E+00
    0.23293E+06        -0.59940E+08         0.00000E+00
    0.00000E+00         0.00000E+00        -0.58608E+08
 
   -0.57317E+08         0.25337E+06         0.00000E+00
    0.25337E+06        -0.59923E+08         0.00000E+00
    0.00000E+00         0.00000E+00        -0.58621E+08
 
   -0.57364E+08         0.27192E+06         0.00000E+00
    0.27192E+06        -0.59905E+08         0.00000E+00
    0.00000E+00         0.00000E+00        -0.58635E+08
 
   -0.57415E+08         0.28877E+06         0.00000E+00
    0.28877E+06        -0.59885E+08         0.00000E+00
    0.00000E+00         0.00000E+00        -0.58651E+08
 
   -0.57469E+08         0.30408E+06         0.00000E+00
    0.30408E+06        -0.59864E+08         0.00000E+00
    0.00000E+00         0.00000E+00        -0.58667E+08
 
   -0.57525E+08         0.31797E+06         0.00000E+00
    0.31797E+06        -0.59843E+08         0.00000E+00
    0.00000E+00         0.00000E+00        -0.58684E+08
 
   -0.57585E+08         0.33053E+06         0.00000E+00
    0.33053E+06        -0.59820E+08         0.00000E+00
    0.00000E+00         0.00000E+00        -0.58703E+08
 
   -0.57646E+08         0.34182E+06         0.00000E+00
    0.34182E+06        -0.59797E+08         0.00000E+00
    0.00000E+00         0.00000E+00        -0.58722E+08
 
   -0.57709E+08         0.35189E+06         0.00000E+00
    0.35189E+06        -0.59773E+08         0.00000E+00
    0.00000E+00         0.00000E+00        -0.58742E+08
 
   -0.57773E+08         0.36076E+06         0.00000E+00
    0.36076E+06        -0.59750E+08         0.00000E+00
    0.00000E+00         0.00000E+00        -0.58762E+08
 
   -0.57839E+08         0.36846E+06         0.00000E+00
    0.36846E+06        -0.59726E+08         0.00000E+00
    0.00000E+00         0.00000E+00        -0.58783E+08
 
   -0.57905E+08         0.37500E+06         0.00000E+00
    0.37500E+06        -0.59702E+08         0.00000E+00
    0.00000E+00         0.00000E+00        -0.58804E+08
 
   -0.57971E+08         0.38038E+06         0.00000E+00
    0.38038E+06        -0.59678E+08         0.00000E+00
    0.00000E+00         0.00000E+00        -0.58825E+08
 
   -0.58038E+08         0.38462E+06         0.00000E+00
    0.38462E+06        -0.59654E+08         0.00000E+00
    0.00000E+00         0.00000E+00        -0.58846E+08
 
   -0.58104E+08         0.38773E+06         0.00000E+00
    0.38773E+06        -0.59630E+08         0.00000E+00
    0.00000E+00         0.00000E+00        -0.58868E+08
 
   -0.58171E+08         0.38972E+06         0.00000E+00
    0.38972E+06        -0.59607E+08         0.00000E+00
    0.00000E+00         0.00000E+00        -0.58889E+08
 
   -0.58237E+08         0.39062E+06         0.00000E+00
    0.39062E+06        -0.59584E+08         0.00000E+00
    0.00000E+00         0.00000E+00        -0.58910E+08
 
   -0.58302E+08         0.39044E+06         0.00000E+00
    0.39044E+06        -0.59561E+08         0.00000E+00
    0.00000E+00         0.00000E+00        -0.58931E+08
 
   -0.58366E+08         0.38922E+06         0.00000E+00
    0.38922E+06        -0.59538E+08         0.00000E+00
    0.00000E+00         0.00000E+00        -0.58952E+08
 
   -0.58429E+08         0.38700E+06         0.00000E+00
    0.38700E+06        -0.59516E+08         0.00000E+00
    0.00000E+00         0.00000E+00        -0.58973E+08
 
   -0.58491E+08         0.38382E+06         0.00000E+00
    0.38382E+06        -0.59494E+08         0.00000E+00
    0.00000E+00         0.00000E+00        -0.58993E+08
 
   -0.58552E+08         0.37972E+06         0.00000E+00
    0.37972E+06        -0.59473E+08         0.00000E+00
    0.00000E+00         0.00000E+00        -0.59013E+08
 
   -0.58611E+08         0.37477E+06         0.00000E+00
    0.37477E+06        -0.59452E+08         0.00000E+00
    0.00000E+00         0.00000E+00        -0.59032E+08
 
   -0.58669E+08         0.36902E+06         0.00000E+00
    0.36902E+06        -0.59432E+08         0.00000E+00
    0.00000E+00         0.00000E+00        -0.59051E+08
 
   -0.58725E+08         0.36255E+06         0.00000E+00
    0.36255E+06        -0.59412E+08         0.00000E+00
    0.00000E+00         0.00000E+00        -0.59069E+08
 
   -0.58779E+08         0.35541E+06         0.00000E+00
    0.35541E+06        -0.59392E+08         0.00000E+00
    0.00000E+00         0.00000E+00        -0.59086E+08
 
   -0.58830E+08         0.34770E+06         0.00000E+00
    0.34770E+06        -0.59374E+08         0.00000E+00
    0.00000E+00         0.00000E+00        -0.59102E+08
 
   -0.58880E+08         0.33949E+06         0.00000E+00
    0.33949E+06        -0.59356E+08         0.00000E+00
    0.00000E+00         0.00000E+00        -0.59118E+08
 
   -0.58927E+08         0.33087E+06         0.00000E+00
    0.33087E+06        -0.59338E+08         0.00000E+00
    0.00000E+00         0.00000E+00        -0.59133E+08
 
   -0.58971E+08         0.32193E+06         0.00000E+00
    0.32193E+06        -0.59322E+08         0.00000E+00
    0.00000E+00         0.00000E+00        -0.59147E+08
 
   -0.59013E+08         0.31275E+06         0.00000E+00
    0.31275E+06        -0.59306E+08         0.00000E+00
    0.00000E+00         0.00000E+00        -0.59160E+08
 
   -0.59052E+08         0.30343E+06         0.00000E+00
    0.30343E+06        -0.59292E+08         0.00000E+00
    0.00000E+00         0.00000E+00        -0.59172E+08
 
   -0.59087E+08         0.29403E+06         0.00000E+00
    0.29403E+06        -0.59278E+08         0.00000E+00
    0.00000E+00         0.00000E+00        -0.59183E+08
 
   -0.59119E+08         0.28464E+06         0.00000E+00
    0.28464E+06        -0.59266E+08         0.00000E+00
    0.00000E+00         0.00000E+00        -0.59193E+08
 
   -0.59148E+08         0.27531E+06         0.00000E+00
    0.27531E+06        -0.59254E+08         0.00000E+00
    0.00000E+00         0.00000E+00        -0.59202E+08
 
   -0.59172E+08         0.26609E+06         0.00000E+00
    0.26609E+06        -0.59245E+08         0.00000E+00
    0.00000E+00         0.00000E+00        -0.59209E+08
 
   -0.59193E+08         0.25700E+06         0.00000E+00
    0.25700E+06        -0.59236E+08         0.00000E+00
    0.00000E+00         0.00000E+00        -0.59216E+08
 
   -0.59210E+08         0.24805E+06         0.00000E+00
    0.24805E+06        -0.59229E+08         0.00000E+00
    0.00000E+00         0.00000E+00        -0.59221E+08
 
   -0.59223E+08         0.23922E+06         0.00000E+00
    0.23922E+06        -0.59224E+08         0.00000E+00
    0.00000E+00         0.00000E+00        -0.59225E+08
 
   -0.59232E+08         0.23046E+06         0.00000E+00
    0.23046E+06        -0.59220E+08         0.00000E+00
    0.00000E+00         0.00000E+00        -0.59228E+08
 
   -0.59236E+08         0.22170E+06         0.00000E+00
    0.22170E+06        -0.59218E+08         0.00000E+00
    0.00000E+00         0.00000E+00        -0.59230E+08
 
   -0.59237E+08         0.21288E+06         0.00000E+00
    0.21288E+06        -0.59218E+08         0.00000E+00
    0.00000E+00         0.00000E+00        -0.59231E+08
 
   -0.59234E+08         0.20390E+06         0.00000E+00
    0.20390E+06        -0.59220E+08         0.00000E+00
    0.00000E+00         0.00000E+00        -0.59232E+08
 
   -0.57069E+08         0.21196E+05         0.00000E+00
    0.21196E+05        -0.60000E+08         0.00000E+00
    0.00000E+00         0.00000E+00        -0.58545E+08
 
   -0.57080E+08         0.61855E+05         0.00000E+00
    0.61855E+05        -0.59998E+08         0.00000E+00
    0.00000E+00         0.00000E+00        -0.58547E+08
 
   -0.57096E+08         0.99912E+05         0.00000E+00
    0.99912E+05        -0.59994E+08         0.00000E+00
    0.00000E+00         0.00000E+00        -0.58551E+08
 
   -0.57118E+08         0.13516E+06         0.00000E+00
    0.13516E+06        -0.59988E+08         0.00000E+00
    0.00000E+00         0.00000E+00        -0.58557E+08
 
   -0.57144E+08         0.16754E+06         0.00000E+00
    0.16754E+06        -0.59979E+08         0.00000E+00
    0.00000E+00         0.00000E+00        -0.58565E+08
 
   -0.57175E+08         0.19712E+06         0.00000E+00
    0.19712E+06        -0.59969E+08         0.00000E+00
    0.00000E+00         0.00000E+00        -0.58575E+08
 
   -0.57211E+08         0.22403E+06         0.00000E+00
    0.22403E+06        -0.59957E+08         0.00000E+00
    0.00000E+00         0.00000E+00        -0.58586E+08
 
   -0.57252E+08         0.24846E+06         0.00000E+00
    0.24846E+06        -0.59942E+08         0.00000E+00
    0.00000E+00         0.00000E+00        -0.58598E+08
 
   -0.57297E+08         0.27059E+06         0.00000E+00
    0.27059E+06        -0.59926E+08         0.00000E+00
    0.00000E+00         0.00000E+00        -0.58612E+08
 
   -0.57346E+08         0.29064E+06         0.00000E+00
    0.29064E+06        -0.59909E+08         0.00000E+00
    0.00000E+00         0.00000E+00        -0.58628E+08
 
   -0.57398E+08         0.30877E+06         0.00000E+00
    0.30877E+06        -0.59890E+08         0.00000E+00
    0.00000E+00         0.00000E+00        -0.58644E+08
 
   -0.57454E+08         0.32515E+06         0.00000E+00
    0.32515E+06        -0.59869E+08         0.00000E+00
    0.00000E+00         0.00000E+00        -0.58662E+08
 
   -0.57512E+08         0.33990E+06         0.00000E+00
    0.33990E+06        -0.59848E+08         0.00000E+00
    0.00000E+00         0.00000E+00        -0.58680E+08
 
   -0.57573E+08         0.35314E+06         0.00000E+00
    0.35314E+06        -0.59826E+08         0.00000E+00
    0.00000E+00         0.00000E+00        -0.58700E+08
 
   -0.57635E+08         0.36495E+06         0.00000E+00
    0.36495E+06        -0.59804E+08         0.00000E+00
    0.00000E+00         0.00000E+00        -0.58720E+08
 
   -0.57700E+08         0.37538E+06         0.00000E+00
    0.37538E+06        -0.59781E+08         0.00000E+00
    0.00000E+00         0.00000E+00        -0.58740E+08
 
   -0.57765E+08         0.38449E+06         0.00000E+00
    0.38449E+06        -0.59757E+08         0.00000E+00
    0.00000E+00         0.00000E+00        -0.58761E+08
 
   -0.57832E+08         0.39231E+06         0.00000E+00
    0.39231E+06        -0.59733E+08         0.00000E+00
    0.00000E+00         0.00000E+00        -0.58783E+08
 
   -0.57899E+08         0.39888E+06         0.00000E+00
    0.39888E+06        -0.59710E+08         0.00000E+00
    0.00000E+00         0.00000E+00        -0.58805E+08
 
   -0.57967E+08         0.40421E+06         0.00000E+00
    0.40421E+06        -0.59686E+08         0.00000E+00
    0.00000E+00         0.00000E+00        -0.58826E+08
 
   -0.58034E+08         0.40833E+06         0.00000E+00
    0.40833E+06        -0.59662E+08         0.00000E+00
    0.00000E+00         0.00000E+00        -0.58849E+08
 
   -0.58102E+08         0.41126E+06         0.00000E+00
    0.41126E+06        -0.59639E+08         0.00000E+00
    0.00000E+00         0.00000E+00        -0.58871E+08
 
   -0.58169E+08         0.41303E+06         0.00000E+00
    0.41303E+06        -0.59615E+08         0.00000E+00
    0.00000E+00         0.00000E+00        -0.58893E+08
 
   -0.58236E+08         0.41366E+06         0.00000E+00
    0.41366E+06        -0.59592E+08         0.00000E+00
    0.00000E+00         0.00000E+00        -0.58914E+08
 
   -0.58303E+08         0.41317E+06         0.00000E+00
    0.41317E+06        -0.59569E+08         0.00000E+00
    0.00000E+00         0.00000E+00        -0.58936E+08
 
   -0.58368E+08         0.41161E+06         0.00000E+00
    0.41161E+06        -0.59547E+08         0.00000E+00
    0.00000E+00         0.00000E+00        -0.58958E+08
 
   -0.58432E+08         0.40901E+06         0.00000E+00
    0.40901E+06        -0.59525E+08         0.00000E+00
    0.00000E+00         0.00000E+00        -0.58979E+08
 
   -0.58495E+08         0.40542E+06         0.00000E+00
    0.40542E+06        -0.59503E+08         0.00000E+00
    0.00000E+00         0.00000E+00        -0.58999E+08
 
   -0.58557E+08         0.40088E+06         0.00000E+00
    0.40088E+06        -0.59481E+08         0.00000E+00
    0.00000E+00         0.00000E+00        -0.59019E+08
 
   -0.58617E+08         0.39545E+06         0.00000E+00
    0.39545E+06        -0.59460E+08         0.00000E+00
    0.00000E+00         0.00000E+00        -0.59039E+08
 
   -0.58675E+08         0.38919E+06         0.00000E+00
    0.38919E+06        -0.59440E+08         0.00000E+00
    0.00000E+00         0.00000E+00        -0.59058E+08
 
   -0.58732E+08         0.38215E+06         0.00000E+00
    0.38215E+06        -0.59420E+08         0.00000E+00
    0.00000E+00         0.00000E+00        -0.59076E+08
 
   -0.58786E+08         0.37441E+06         0.00000E+00
    0.37441E+06        -0.59401E+08         0.00000E+00
    0.00000E+00         0.00000E+00        -0.59094E+08
 
   -0.58839E+08         0.36605E+06         0.00000E+00
    0.36605E+06        -0.59382E+08         0.00000E+00
    0.00000E+00         0.00000E+00        -0.59111E+08
 
   -0.58889E+08         0.35712E+06         0.00000E+00
    0.35712E+06        -0.59364E+08         0.00000E+00
    0.00000E+00         0.00000E+00        -0.59127E+08
 
   -0.58936E+08         0.34773E+06         0.00000E+00
    0.34773E+06        -0.59347E+08         0.00000E+00
    0.00000E+00         0.00000E+00        -0.59142E+08
 
   -0.58981E+08         0.33794E+06         0.00000E+00
    0.33794E+06        -0.59331E+08         0.00000E+00
    0.00000E+00         0.00000E+00        -0.59156E+08
 
   -0.59023E+08         0.32784E+06         0.00000E+00
    0.32784E+06        -0.59315E+08         0.00000E+00
    0.00000E+00         0.00000E+00        -0.59169E+08
 
   -0.59062E+08         0.31751E+06         0.00000E+00
    0.31751E+06        -0.59301E+08         0.00000E+00
    0.00000E+00         0.00000E+00        -0.59181E+08
 
   -0.59097E+08         0.30701E+06         0.00000E+00
    0.30701E+06        -0.59287E+08         0.00000E+00
    0.00000E+00         0.00000E+00        -0.59192E+08
 
   -0.59129E+08         0.29642E+06         0.00000E+00
    0.29642E+06        -0.59275E+08         0.00000E+00
    0.00000E+00         0.00000E+00        -0.59202E+08
 
   -0.59158E+08         0.28580E+06         0.00000E+00
    0.28580E+06        -0.59264E+08         0.00000E+00
    0.00000E+00         0.00000E+00        -0.59211E+08
 
   -0.59182E+08         0.27518E+06         0.00000E+00
    0.27518E+06        -0.59254E+08         0.00000E+00
    0.00000E+00         0.00000E+00        -0.59219E+08
 
   -0.59203E+08         0.26460E+06         0.00000E+00
    0.26460E+06        -0.59246E+08         0.00000E+00
    0.00000E+00         0.00000E+00        -0.59225E+08
 
   -0.59220E+08         0.25407E+06         0.00000E+00
    0.25407E+06        -0.59239E+08         0.00000E+00
    0.00000E+00         0.00000E+00        -0.59231E+08
 
   -0.59233E+08         0.24359E+06         0.00000E+00
    0.24359E+06        -0.59234E+08         0.00000E+00
    0.00000E+00         0.00000E+00        -0.59235E+08
 
   -0.59241E+08         0.23314E+06         0.00000E+00
    0.23314E+06        -0.59230E+08         0.00000E+00
    0.00000E+00         0.00000E+00        -0.59238E+08
 
   -0.59246E+08         0.22267E+06         0.00000E+00
    0.22267E+06        -0.59229E+08         0.00000E+00
    0.00000E+00         0.00000E+00        -0.59240E+08
 
   -0.59247E+08         0.21216E+06         0.00000E+00
    0.21216E+06        -0.59229E+08         0.00000E+00
    0.00000E+00         0.00000E+00        -0.59241E+08
 
   -0.59244E+08         0.20156E+06         0.00000E+00
    0.20156E+06        -0.59230E+08         0.00000E+00
    0.00000E+00         0.00000E+00        -0.59241E+08
 
   -0.57026E+08         0.22160E+05         0.00000E+00
    0.22160E+05        -0.60000E+08         0.00000E+00
    0.00000E+00         0.00000E+00        -0.58527E+08
 
   -0.57040E+08         0.64796E+05         0.00000E+00
    0.64796E+05        -0.59998E+08         0.00000E+00
    0.00000E+00         0.00000E+00        -0.58529E+08
 
   -0.57059E+08         0.10489E+06         0.00000E+00
    0.10489E+06        -0.59994E+08         0.00000E+00
    0.00000E+00         0.00000E+00        -0.58534E+08
 
   -0.57083E+08         0.14221E+06         0.00000E+00
    0.14221E+06        -0.59988E+08         0.00000E+00
    0.00000E+00         0.00000E+00        -0.58541E+08
 
   -0.57112E+08         0.17667E+06         0.00000E+00
    0.17667E+06        -0.59980E+08         0.00000E+00
    0.00000E+00         0.00000E+00        -0.58550E+08
 
   -0.57146E+08         0.20828E+06         0.00000E+00
    0.20828E+06        -0.59970E+08         0.00000E+00
    0.00000E+00         0.00000E+00        -0.58561E+08
 
   -0.57185E+08         0.23713E+06         0.00000E+00
    0.23713E+06        -0.59958E+08         0.00000E+00
    0.00000E+00         0.00000E+00        -0.58573E+08
 
   -0.57228E+08         0.26336E+06         0.00000E+00
    0.26336E+06        -0.59944E+08         0.00000E+00
    0.00000E+00         0.00000E+00        -0.58587E+08
 
   -0.57275E+08         0.28715E+06         0.00000E+00
    0.28715E+06        -0.59929E+08         0.00000E+00
    0.00000E+00         0.00000E+00        -0.58603E+08
 
   -0.57326E+08         0.30867E+06         0.00000E+00
    0.30867E+06        -0.59912E+08         0.00000E+00
    0.00000E+00         0.00000E+00        -0.58620E+08
 
   -0.57380E+08         0.32809E+06         0.00000E+00
    0.32809E+06        -0.59893E+08         0.00000E+00
    0.00000E+00         0.00000E+00        -0.58637E+08
 
   -0.57438E+08         0.34556E+06         0.00000E+00
    0.34556E+06        -0.59874E+08         0.00000E+00
    0.00000E+00         0.00000E+00        -0.58656E+08
 
   -0.57497E+08         0.36122E+06         0.00000E+00
    0.36122E+06        -0.59853E+08         0.00000E+00
    0.00000E+00         0.00000E+00        -0.58676E+08
 
   -0.57560E+08         0.37519E+06         0.00000E+00
    0.37519E+06        -0.59832E+08         0.00000E+00
    0.00000E+00         0.00000E+00        -0.58696E+08
 
   -0.57624E+08         0.38757E+06         0.00000E+00
    0.38757E+06        -0.59810E+08         0.00000E+00
    0.00000E+00         0.00000E+00        -0.58717E+08
 
   -0.57690E+08         0.39843E+06         0.00000E+00
    0.39843E+06        -0.59787E+08         0.00000E+00
    0.00000E+00         0.00000E+00        -0.58739E+08
 
   -0.57757E+08         0.40783E+06         0.00000E+00
    0.40783E+06        -0.59764E+08         0.00000E+00
    0.00000E+00         0.00000E+00        -0.58761E+08
 
   -0.57824E+08         0.41584E+06         0.00000E+00
    0.41584E+06        -0.59741E+08         0.00000E+00
    0.00000E+00         0.00000E+00        -0.58783E+08
 
   -0.57893E+08         0.42249E+06         0.00000E+00
    0.42249E+06        -0.59718E+08         0.00000E+00
    0.00000E+00         0.00000E+00        -0.58805E+08
 
   -0.57962E+08         0.42782E+06         0.00000E+00
    0.42782E+06        -0.59694E+08         0.00000E+00
    0.00000E+00         0.00000E+00        -0.58828E+08
 
   -0.58031E+08         0.43187E+06         0.00000E+00
    0.43187E+06        -0.59671E+08         0.00000E+00
    0.00000E+00         0.00000E+00        -0.58851E+08
 
   -0.58100E+08         0.43466E+06         0.00000E+00
    0.43466E+06        -0.59647E+08         0.00000E+00
    0.00000E+00         0.00000E+00        -0.58874E+08
 
   -0.58168E+08         0.43624E+06         0.00000E+00
    0.43624E+06        -0.59624E+08         0.00000E+00
    0.00000E+00         0.00000E+00        -0.58896E+08
 
   -0.58236E+08         0.43662E+06         0.00000E+00
    0.43662E+06        -0.59601E+08         0.00000E+00
    0.00000E+00         0.00000E+00        -0.58919E+08
 
   -0.58304E+08         0.43586E+06         0.00000E+00
    0.43586E+06        -0.59578E+08         0.00000E+00
    0.00000E+00         0.00000E+00        -0.58941E+08
 
   -0.58370E+08         0.43397E+06         0.00000E+00
    0.43397E+06        -0.59556E+08         0.00000E+00
    0.00000E+00         0.00000E+00        -0.58963E+08
 
   -0.58435E+08         0.43101E+06         0.00000E+00
    0.43101E+06        -0.59534E+08         0.00000E+00
    0.00000E+00         0.00000E+00        -0.58985E+08
 
   -0.58499E+08         0.42702E+06         0.00000E+00
    0.42702E+06        -0.59512E+08         0.00000E+00
    0.00000E+00         0.00000E+00        -0.59006E+08
 
   -0.58562E+08         0.42204E+06         0.00000E+00
    0.42204E+06        -0.59491E+08         0.00000E+00
    0.00000E+00         0.00000E+00        -0.59027E+08
 
   -0.58623E+08         0.41613E+06         0.00000E+00
    0.41613E+06        -0.59470E+08         0.00000E+00
    0.00000E+00         0.00000E+00        -0.59047E+08
 
   -0.58682E+08         0.40935E+06         0.00000E+00
    0.40935E+06        -0.59449E+08         0.00000E+00
    0.00000E+00         0.00000E+00        -0.59066E+08
 
   -0.58740E+08         0.40175E+06         0.00000E+00
    0.40175E+06        -0.59430E+08         0.00000E+00
    0.00000E+00         0.00000E+00        -0.59085E+08
 
   -0.58795E+08         0.39339E+06         0.00000E+00
    0.39339E+06        -0.59410E+08         0.00000E+00
    0.00000E+00         0.00000E+00        -0.59103E+08
 
   -0.58848E+08         0.38436E+06         0.00000E+00
    0.38436E+06        -0.59392E+08         0.00000E+00
    0.00000E+00         0.00000E+00        -0.59120E+08
 
   -0.58898E+08         0.37471E+06         0.00000E+00
    0.37471E+06        -0.59374E+08         0.00000E+00
    0.00000E+00         0.00000E+00        -0.59136E+08
 
   -0.58946E+08         0.36452E+06         0.00000E+00
    0.36452E+06        -0.59357E+08         0.00000E+00
    0.00000E+00         0.00000E+00        -0.59152E+08
 
   -0.58991E+08         0.35386E+06         0.00000E+00
    0.35386E+06        -0.59340E+08         0.00000E+00
    0.00000E+00         0.00000E+00        -0.59166E+08
 
   -0.59033E+08         0.34281E+06         0.00000E+00
    0.34281E+06        -0.59325E+08         0.00000E+00
    0.00000E+00         0.00000E+00        -0.59179E+08
 
   -0.59072E+08         0.33145E+06         0.00000E+00
    0.33145E+06        -0.59311E+08         0.00000E+00
    0.00000E+00         0.00000E+00        -0.59192E+08
 
   -0.59108E+08         0.31983E+06         0.00000E+00
    0.31983E+06        -0.59297E+08         0.00000E+00
    0.00000E+00         0.00000E+00        -0.59203E+08
 
   -0.59140E+08         0.30803E+06         0.00000E+00
    0.30803E+06        -0.59285E+08         0.00000E+00
    0.00000E+00         0.00000E+00        -0.59213E+08
 
   -0.59169E+08         0.29609E+06         0.00000E+00
    0.29609E+06        -0.59274E+08         0.00000E+00
    0.00000E+00         0.00000E+00        -0.59222E+08
 
   -0.59194E+08         0.28408E+06         0.00000E+00
    0.28408E+06        -0.59265E+08         0.00000E+00
    0.00000E+00         0.00000E+00        -0.59230E+08
 
   -0.59214E+08         0.27201E+06         0.00000E+00
    0.27201E+06        -0.59257E+08         0.00000E+00
    0.00000E+00         0.00000E+00        -0.59236E+08
 
   -0.59231E+08         0.25993E+06         0.00000E+00
    0.25993E+06        -0.59250E+08         0.00000E+00
    0.00000E+00         0.00000E+00        -0.59242E+08
 
   -0.59244E+08         0.24782E+06         0.00000E+00
    0.24782E+06        -0.59245E+08         0.00000E+00
    0.00000E+00         0.00000E+00        -0.59246E+08
 
   -0.59253E+08         0.23571E+06         0.00000E+00
    0.23571E+06        -0.59242E+08         0.00000E+00
    0.00000E+00         0.00000E+00        -0.59249E+08
 
   -0.59257E+08         0.22358E+06         0.00000E+00
    0.22358E+06        -0.59240E+08         0.00000E+00
    0.00000E+00         0.00000E+00        -0.59251E+08
 
   -0.59258E+08         0.21143E+06         0.00000E+00
    0.21143E+06        -0.59240E+08         0.00000E+00
    0.00000E+00         0.00000E+00        -0.59252E+08
 
   -0.59255E+08         0.19926E+06         0.00000E+00
    0.19926E+06        -0.59242E+08         0.00000E+00
    0.00000E+00         0.00000E+00        -0.59253E+08
 
   -0.56981E+08         0.23121E+05         0.00000E+00
    0.23121E+05        -0.60000E+08         0.00000E+00
    0.00000E+00         0.00000E+00        -0.58507E+08
 
   -0.56997E+08         0.67703E+05         0.00000E+00
    0.67703E+05        -0.59998E+08         0.00000E+00
    0.00000E+00         0.00000E+00        -0.58510E+08
 
   -0.57019E+08         0.10977E+06         0.00000E+00
    0.10977E+06        -0.59994E+08         0.00000E+00
    0.00000E+00         0.00000E+00        -0.58516E+08
 
   -0.57046E+08         0.14908E+06         0.00000E+00
    0.14908E+06        -0.59988E+08         0.00000E+00
    0.00000E+00         0.00000E+00        -0.58524E+08
 
   -0.57078E+08         0.18552E+06         0.00000E+00
    0.18552E+06        -0.59980E+08         0.00000E+00
    0.00000E+00         0.00000E+00        -0.58534E+08
 
   -0.57115E+08         0.21906E+06         0.00000E+00
    0.21906E+06        -0.59971E+08         0.00000E+00
    0.00000E+00         0.00000E+00        -0.58546E+08
 
   -0.57156E+08         0.24976E+06         0.00000E+00
    0.24976E+06        -0.59959E+08         0.00000E+00
    0.00000E+00         0.00000E+00        -0.58560E+08
 
   -0.57202E+08         0.27773E+06         0.00000E+00
    0.27773E+06        -0.59946E+08         0.00000E+00
    0.00000E+00         0.00000E+00        -0.58576E+08
 
   -0.57252E+08         0.30312E+06         0.00000E+00
    0.30312E+06        -0.59931E+08         0.00000E+00
    0.00000E+00         0.00000E+00        -0.58592E+08
 
   -0.57305E+08         0.32608E+06         0.00000E+00
    0.32608E+06        -0.59914E+08         0.00000E+00
    0.00000E+00         0.00000E+00        -0.58610E+08
 
   -0.57361E+08         0.34676E+06         0.00000E+00
    0.34676E+06        -0.59897E+08         0.00000E+00
    0.00000E+00         0.00000E+00        -0.58630E+08
 
   -0.57420E+08         0.36533E+06         0.00000E+00
    0.36533E+06        -0.59878E+08         0.00000E+00
    0.00000E+00         0.00000E+00        -0.58650E+08
 
   -0.57482E+08         0.38192E+06         0.00000E+00
    0.38192E+06        -0.59858E+08         0.00000E+00
    0.00000E+00         0.00000E+00        -0.58670E+08
 
   -0.57546E+08         0.39666E+06         0.00000E+00
    0.39666E+06        -0.59837E+08         0.00000E+00
    0.00000E+00         0.00000E+00        -0.58692E+08
 
   -0.57612E+08         0.40964E+06         0.00000E+00
    0.40964E+06        -0.59816E+08         0.00000E+00
    0.00000E+00         0.00000E+00        -0.58714E+08
 
   -0.57679E+08         0.42097E+06         0.00000E+00
    0.42097E+06        -0.59794E+08         0.00000E+00
    0.00000E+00         0.00000E+00        -0.58737E+08
 
   -0.57748E+08         0.43072E+06         0.00000E+00
    0.43072E+06        -0.59771E+08         0.00000E+00
    0.00000E+00         0.00000E+00        -0.58759E+08
 
   -0.57817E+08         0.43896E+06         0.00000E+00
    0.43896E+06        -0.59748E+08         0.00000E+00
    0.00000E+00         0.00000E+00        -0.58783E+08
 
   -0.57887E+08         0.44574E+06         0.00000E+00
    0.44574E+06        -0.59725E+08         0.00000E+00
    0.00000E+00         0.00000E+00        -0.58806E+08
 
   -0.57957E+08         0.45112E+06         0.00000E+00
    0.45112E+06        -0.59702E+08         0.00000E+00
    0.00000E+00         0.00000E+00        -0.58830E+08
 
   -0.58027E+08         0.45513E+06         0.00000E+00
    0.45513E+06        -0.59679E+08         0.00000E+00
    0.00000E+00         0.00000E+00        -0.58853E+08
 
   -0.58098E+08         0.45783E+06         0.00000E+00
    0.45783E+06        -0.59656E+08         0.00000E+00
    0.00000E+00         0.00000E+00        -0.58877E+08
 
   -0.58167E+08         0.45925E+06         0.00000E+00
    0.45925E+06        -0.59633E+08         0.00000E+00
    0.00000E+00         0.00000E+00        -0.58900E+08
 
   -0.58237E+08         0.45942E+06         0.00000E+00
    0.45942E+06        -0.59610E+08         0.00000E+00
    0.00000E+00         0.00000E+00        -0.58924E+08
 
   -0.58305E+08         0.45840E+06         0.00000E+00
    0.45840E+06        -0.59588E+08         0.00000E+00
    0.00000E+00         0.00000E+00        -0.58947E+08
 
   -0.58373E+08         0.45621E+06         0.00000E+00
    0.45621E+06        -0.59566E+08         0.00000E+00
    0.00000E+00         0.00000E+00        -0.58969E+08
 
   -0.58439E+08         0.45290E+06         0.00000E+00
    0.45290E+06        -0.59544E+08         0.00000E+00
    0.00000E+00         0.00000E+00        -0.58991E+08
 
   -0.58504E+08         0.44852E+06         0.00000E+00
    0.44852E+06        -0.59522E+08         0.00000E+00
    0.00000E+00         0.00000E+00        -0.59013E+08
 
   -0.58568E+08         0.44312E+06         0.00000E+00
    0.44312E+06        -0.59501E+08         0.00000E+00
    0.00000E+00         0.00000E+00        -0.59034E+08
 
   -0.58630E+08         0.43674E+06         0.00000E+00
    0.43674E+06        -0.59480E+08         0.00000E+00
    0.00000E+00         0.00000E+00        -0.59055E+08
 
   -0.58690E+08         0.42944E+06         0.00000E+00
    0.42944E+06        -0.59460E+08         0.00000E+00
    0.00000E+00         0.00000E+00        -0.59075E+08
 
   -0.58748E+08         0.42127E+06         0.00000E+00
    0.42127E+06        -0.59440E+08         0.00000E+00
    0.00000E+00         0.00000E+00        -0.59094E+08
 
   -0.58804E+08         0.41230E+06         0.00000E+00
    0.41230E+06        -0.59421E+08         0.00000E+00
    0.00000E+00         0.00000E+00        -0.59112E+08
 
   -0.58858E+08         0.40258E+06         0.00000E+00
    0.40258E+06        -0.59402E+08         0.00000E+00
    0.00000E+00         0.00000E+00        -0.59130E+08
 
   -0.58909E+08         0.39220E+06         0.00000E+00
    0.39220E+06        -0.59384E+08         0.00000E+00
    0.00000E+00         0.00000E+00        -0.59147E+08
 
   -0.58957E+08         0.38120E+06         0.00000E+00
    0.38120E+06        -0.59367E+08         0.00000E+00
    0.00000E+00         0.00000E+00        -0.59162E+08
 
   -0.59003E+08         0.36966E+06         0.00000E+00
    0.36966E+06        -0.59351E+08         0.00000E+00
    0.00000E+00         0.00000E+00        -0.59177E+08
 
   -0.59045E+08         0.35765E+06         0.00000E+00
    0.35765E+06        -0.59336E+08         0.00000E+00
    0.00000E+00         0.00000E+00        -0.59191E+08
 
   -0.59085E+08         0.34524E+06         0.00000E+00
    0.34524E+06        -0.59322E+08         0.00000E+00
    0.00000E+00         0.00000E+00        -0.59203E+08
 
   -0.59120E+08         0.33249E+06         0.00000E+00
    0.33249E+06        -0.59309E+08         0.00000E+00
    0.00000E+00         0.00000E+00        -0.59215E+08
 
   -0.59153E+08         0.31946E+06         0.00000E+00
    0.31946E+06        -0.59297E+08         0.00000E+00
    0.00000E+00         0.00000E+00        -0.59225E+08
 
   -0.59182E+08         0.30621E+06         0.00000E+00
    0.30621E+06        -0.59286E+08         0.00000E+00
    0.00000E+00         0.00000E+00        -0.59234E+08
 
   -0.59206E+08         0.29280E+06         0.00000E+00
    0.29280E+06        -0.59277E+08         0.00000E+00
    0.00000E+00         0.00000E+00        -0.59242E+08
 
   -0.59227E+08         0.27926E+06         0.00000E+00
    0.27926E+06        -0.59269E+08         0.00000E+00
    0.00000E+00         0.00000E+00        -0.59249E+08
 
   -0.59244E+08         0.26562E+06         0.00000E+00
    0.26562E+06        -0.59262E+08         0.00000E+00
    0.00000E+00         0.00000E+00        -0.59254E+08
 
   -0.59257E+08         0.25192E+06         0.00000E+00
    0.25192E+06        -0.59258E+08         0.00000E+00
    0.00000E+00         0.00000E+00        -0.59259E+08
 
   -0.59265E+08         0.23818E+06         0.00000E+00
    0.23818E+06        -0.59254E+08         0.00000E+00
    0.00000E+00         0.00000E+00        -0.59262E+08
 
   -0.59270E+08         0.22442E+06         0.00000E+00
    0.22442E+06        -0.59253E+08         0.00000E+00
    0.00000E+00         0.00000E+00        -0.59264E+08
 
   -0.59271E+08         0.21066E+06         0.00000E+00
    0.21066E+06        -0.59253E+08         0.00000E+00
    0.00000E+00         0.00000E+00        -0.59265E+08
 
   -0.59268E+08         0.19694E+06         0.00000E+00
    0.19694E+06        -0.59254E+08         0.00000E+00
    0.00000E+00         0.00000E+00        -0.59266E+08
 
   -0.56935E+08         0.24079E+05         0.00000E+00
    0.24079E+05        -0.60000E+08         0.00000E+00
    0.00000E+00         0.00000E+00        -0.58487E+08
 
   -0.56953E+08         0.70579E+05         0.00000E+00
    0.70579E+05        -0.59998E+08         0.00000E+00
    0.00000E+00         0.00000E+00        -0.58490E+08
 
   -0.56977E+08         0.11457E+06         0.00000E+00
    0.11457E+06        -0.59994E+08         0.00000E+00
    0.00000E+00         0.00000E+00        -0.58497E+08
 
   -0.57007E+08         0.15580E+06         0.00000E+00
    0.15580E+06        -0.59988E+08         0.00000E+00
    0.00000E+00         0.00000E+00        -0.58506E+08
 
   -0.57042E+08         0.19413E+06         0.00000E+00
    0.19413E+06        -0.59981E+08         0.00000E+00
    0.00000E+00         0.00000E+00        -0.58517E+08
 
   -0.57082E+08         0.22951E+06         0.00000E+00
    0.22951E+06        -0.59971E+08         0.00000E+00
    0.00000E+00         0.00000E+00        -0.58531E+08
 
   -0.57126E+08         0.26198E+06         0.00000E+00
    0.26198E+06        -0.59960E+08         0.00000E+00
    0.00000E+00         0.00000E+00        -0.58546E+08
 
   -0.57174E+08         0.29161E+06         0.00000E+00
    0.29161E+06        -0.59947E+08         0.00000E+00
    0.00000E+00         0.00000E+00        -0.58563E+08
 
   -0.57227E+08         0.31854E+06         0.00000E+00
    0.31854E+06        -0.59933E+08         0.00000E+00
    0.00000E+00         0.00000E+00        -0.58581E+08
 
   -0.57282E+08         0.34289E+06         0.00000E+00
    0.34289E+06        -0.59917E+08         0.00000E+00
    0.00000E+00         0.00000E+00        -0.58601E+08
 
   -0.57341E+08         0.36482E+06         0.00000E+00
    0.36482E+06        -0.59900E+08         0.00000E+00
    0.00000E+00         0.00000E+00        -0.58621E+08
 
   -0.57402E+08         0.38448E+06         0.00000E+00
    0.38448E+06        -0.59881E+08         0.00000E+00
    0.00000E+00         0.00000E+00        -0.58642E+08
 
   -0.57466E+08         0.40200E+06         0.00000E+00
    0.40200E+06        -0.59862E+08         0.00000E+00
    0.00000E+00         0.00000E+00        -0.58664E+08
 
   -0.57532E+08         0.41751E+06         0.00000E+00
    0.41751E+06        -0.59842E+08         0.00000E+00
    0.00000E+00         0.00000E+00        -0.58687E+08
 
   -0.57600E+08         0.43114E+06         0.00000E+00
    0.43114E+06        -0.59821E+08         0.00000E+00
    0.00000E+00         0.00000E+00        -0.58710E+08
 
   -0.57668E+08         0.44297E+06         0.00000E+00
    0.44297E+06        -0.59800E+08         0.00000E+00
    0.00000E+00         0.00000E+00        -0.58734E+08
 
   -0.57739E+08         0.45310E+06         0.00000E+00
    0.45310E+06        -0.59778E+08         0.00000E+00
    0.00000E+00         0.00000E+00        -0.58758E+08
 
   -0.57809E+08         0.46160E+06         0.00000E+00
    0.46160E+06        -0.59755E+08         0.00000E+00
    0.00000E+00         0.00000E+00        -0.58782E+08
 
   -0.57881E+08         0.46856E+06         0.00000E+00
    0.46856E+06        -0.59733E+08         0.00000E+00
    0.00000E+00         0.00000E+00        -0.58807E+08
 
   -0.57952E+08         0.47401E+06         0.00000E+00
    0.47401E+06        -0.59710E+08         0.00000E+00
    0.00000E+00         0.00000E+00        -0.58831E+08
 
   -0.58024E+08         0.47804E+06         0.00000E+00
    0.47804E+06        -0.59688E+08         0.00000E+00
    0.00000E+00         0.00000E+00        -0.58856E+08
 
   -0.58096E+08         0.48067E+06         0.00000E+00
    0.48067E+06        -0.59665E+08         0.00000E+00
    0.00000E+00         0.00000E+00        -0.58880E+08
 
   -0.58167E+08         0.48196E+06         0.00000E+00
    0.48196E+06        -0.59642E+08         0.00000E+00
    0.00000E+00         0.00000E+00        -0.58905E+08
 
   -0.58237E+08         0.48195E+06         0.00000E+00
    0.48195E+06        -0.59620E+08         0.00000E+00
    0.00000E+00         0.00000E+00        -0.58929E+08
 
   -0.58307E+08         0.48070E+06         0.00000E+00
    0.48070E+06        -0.59598E+08         0.00000E+00
    0.00000E+00         0.00000E+00        -0.58952E+08
 
   -0.58376E+08         0.47823E+06         0.00000E+00
    0.47823E+06        -0.59576E+08         0.00000E+00
    0.00000E+00         0.00000E+00        -0.58976E+08
 
   -0.58443E+08         0.47460E+06         0.00000E+00
    0.47460E+06        -0.59554E+08         0.00000E+00
    0.00000E+00         0.00000E+00        -0.58999E+08
 
   -0.58509E+08         0.46985E+06         0.00000E+00
    0.46985E+06        -0.59533E+08         0.00000E+00
    0.00000E+00         0.00000E+00        -0.59021E+08
 
   -0.58574E+08         0.46404E+06         0.00000E+00
    0.46404E+06        -0.59512E+08         0.00000E+00
    0.00000E+00         0.00000E+00        -0.59043E+08
 
   -0.58637E+08         0.45720E+06         0.00000E+00
    0.45720E+06        -0.59491E+08         0.00000E+00
    0.00000E+00         0.00000E+00        -0.59064E+08
 
   -0.58698E+08         0.44938E+06         0.00000E+00
    0.44938E+06        -0.59471E+08         0.00000E+00
    0.00000E+00         0.00000E+00        -0.59084E+08
 
   -0.58757E+08         0.44066E+06         0.00000E+00
    0.44066E+06        -0.59451E+08         0.00000E+00
    0.00000E+00         0.00000E+00        -0.59104E+08
 
   -0.58814E+08         0.43107E+06         0.00000E+00
    0.43107E+06        -0.59432E+08         0.00000E+00
    0.00000E+00         0.00000E+00        -0.59123E+08
 
   -0.58868E+08         0.42068E+06         0.00000E+00
    0.42068E+06        -0.59414E+08         0.00000E+00
    0.00000E+00         0.00000E+00        -0.59141E+08
 
   -0.58920E+08         0.40955E+06         0.00000E+00
    0.40955E+06        -0.59396E+08         0.00000E+00
    0.00000E+00         0.00000E+00        -0.59158E+08
 
   -0.58969E+08         0.39774E+06         0.00000E+00
    0.39774E+06        -0.59379E+08         0.00000E+00
    0.00000E+00         0.00000E+00        -0.59174E+08
 
   -0.59015E+08         0.38531E+06         0.00000E+00
    0.38531E+06        -0.59363E+08         0.00000E+00
    0.00000E+00         0.00000E+00        -0.59189E+08
 
   -0.59058E+08         0.37234E+06         0.00000E+00
    0.37234E+06        -0.59348E+08         0.00000E+00
    0.00000E+00         0.00000E+00        -0.59203E+08
 
   -0.59098E+08         0.35887E+06         0.00000E+00
    0.35887E+06        -0.59334E+08         0.00000E+00
    0.00000E+00         0.00000E+00        -0.59216E+08
 
   -0.59134E+08         0.34498E+06         0.00000E+00
    0.34498E+06        -0.59321E+08         0.00000E+00
    0.00000E+00         0.00000E+00        -0.59228E+08
 
   -0.59167E+08         0.33073E+06         0.00000E+00
    0.33073E+06        -0.59309E+08         0.00000E+00
    0.00000E+00         0.00000E+00        -0.59238E+08
 
   -0.59196E+08         0.31617E+06         0.00000E+00
    0.31617E+06        -0.59299E+08         0.00000E+00
    0.00000E+00         0.00000E+00        -0.59248E+08
 
   -0.59221E+08         0.30136E+06         0.00000E+00
    0.30136E+06        -0.59290E+08         0.00000E+00
    0.00000E+00         0.00000E+00        -0.59256E+08
 
   -0.59242E+08         0.28635E+06         0.00000E+00
    0.28635E+06        -0.59282E+08         0.00000E+00
    0.00000E+00         0.00000E+00        -0.59263E+08
 
   -0.59259E+08         0.27118E+06         0.00000E+00
    0.27118E+06        -0.59276E+08         0.00000E+00
    0.00000E+00         0.00000E+00        -0.59268E+08
 
   -0.59271E+08         0.25589E+06         0.00000E+00
    0.25589E+06        -0.59271E+08         0.00000E+00
    0.00000E+00         0.00000E+00        -0.59273E+08
 
   -0.59280E+08         0.24054E+06         0.00000E+00
    0.24054E+06        -0.59268E+08         0.00000E+00
    0.00000E+00         0.00000E+00        -0.59276E+08
 
   -0.59285E+08         0.22516E+06         0.00000E+00
    0.22516E+06        -0.59266E+08         0.00000E+00
    0.00000E+00         0.00000E+00        -0.59278E+08
 
   -0.59286E+08         0.20981E+06         0.00000E+00
    0.20981E+06        -0.59267E+08         0.00000E+00
    0.00000E+00         0.00000E+00        -0.59280E+08
 
   -0.59283E+08         0.19456E+06         0.00000E+00
    0.19456E+06        -0.59268E+08         0.00000E+00
    0.00000E+00         0.00000E+00        -0.59280E+08
 
   -0.56886E+08         0.25033E+05         0.00000E+00
    0.25033E+05        -0.60000E+08         0.00000E+00
    0.00000E+00         0.00000E+00        -0.58466E+08
 
   -0.56907E+08         0.73428E+05         0.00000E+00
    0.73428E+05        -0.59998E+08         0.00000E+00
    0.00000E+00         0.00000E+00        -0.58469E+08
 
   -0.56934E+08         0.11930E+06         0.00000E+00
    0.11930E+06        -0.59994E+08         0.00000E+00
    0.00000E+00         0.00000E+00        -0.58476E+08
 
   -0.56966E+08         0.16239E+06         0.00000E+00
    0.16239E+06        -0.59988E+08         0.00000E+00
    0.00000E+00         0.00000E+00        -0.58487E+08
 
   -0.57004E+08         0.20253E+06         0.00000E+00
    0.20253E+06        -0.59981E+08         0.00000E+00
    0.00000E+00         0.00000E+00        -0.58499E+08
 
   -0.57047E+08         0.23968E+06         0.00000E+00
    0.23968E+06        -0.59972E+08         0.00000E+00
    0.00000E+00         0.00000E+00        -0.58514E+08
 
   -0.57094E+08         0.27383E+06         0.00000E+00
    0.27383E+06        -0.59961E+08         0.00000E+00
    0.00000E+00         0.00000E+00        -0.58531E+08
 
   -0.57145E+08         0.30506E+06         0.00000E+00
    0.30506E+06        -0.59948E+08         0.00000E+00
    0.00000E+00         0.00000E+00        -0.58549E+08
 
   -0.57200E+08         0.33345E+06         0.00000E+00
    0.33345E+06        -0.59934E+08         0.00000E+00
    0.00000E+00         0.00000E+00        -0.58569E+08
 
   -0.57259E+08         0.35915E+06         0.00000E+00
    0.35915E+06        -0.59919E+08         0.00000E+00
    0.00000E+00         0.00000E+00        -0.58590E+08
 
   -0.57320E+08         0.38229E+06         0.00000E+00
    0.38229E+06        -0.59903E+08         0.00000E+00
    0.00000E+00         0.00000E+00        -0.58612E+08
 
   -0.57383E+08         0.40301E+06         0.00000E+00
    0.40301E+06        -0.59885E+08         0.00000E+00
    0.00000E+00         0.00000E+00        -0.58635E+08
 
   -0.57449E+08         0.42145E+06         0.00000E+00
    0.42145E+06        -0.59866E+08         0.00000E+00
    0.00000E+00         0.00000E+00        -0.58658E+08
 
   -0.57517E+08         0.43775E+06         0.00000E+00
    0.43775E+06        -0.59847E+08         0.00000E+00
    0.00000E+00         0.00000E+00        -0.58682E+08
 
   -0.57587E+08         0.45202E+06         0.00000E+00
    0.45202E+06        -0.59826E+08         0.00000E+00
    0.00000E+00         0.00000E+00        -0.58707E+08
 
   -0.57657E+08         0.46437E+06         0.00000E+00
    0.46437E+06        -0.59806E+08         0.00000E+00
    0.00000E+00         0.00000E+00        -0.58732E+08
 
   -0.57729E+08         0.47490E+06         0.00000E+00
    0.47490E+06        -0.59784E+08         0.00000E+00
    0.00000E+00         0.00000E+00        -0.58757E+08
 
   -0.57802E+08         0.48370E+06         0.00000E+00
    0.48370E+06        -0.59763E+08         0.00000E+00
    0.00000E+00         0.00000E+00        -0.58782E+08
 
   -0.57874E+08         0.49086E+06         0.00000E+00
    0.49086E+06        -0.59741E+08         0.00000E+00
    0.00000E+00         0.00000E+00        -0.58808E+08
 
   -0.57948E+08         0.49643E+06         0.00000E+00
    0.49643E+06        -0.59719E+08         0.00000E+00
    0.00000E+00         0.00000E+00        -0.58833E+08
 
   -0.58021E+08         0.50049E+06         0.00000E+00
    0.50049E+06        -0.59696E+08         0.00000E+00
    0.00000E+00         0.00000E+00        -0.58859E+08
 
   -0.58094E+08         0.50309E+06         0.00000E+00
    0.50309E+06        -0.59674E+08         0.00000E+00
    0.00000E+00         0.00000E+00        -0.58884E+08
 
   -0.58166E+08         0.50429E+06         0.00000E+00
    0.50429E+06        -0.59652E+08         0.00000E+00
    0.00000E+00         0.00000E+00        -0.58909E+08
 
   -0.58238E+08         0.50413E+06         0.00000E+00
    0.50413E+06        -0.59630E+08         0.00000E+00
    0.00000E+00         0.00000E+00        -0.58934E+08
 
   -0.58309E+08         0.50267E+06         0.00000E+00
    0.50267E+06        -0.59608E+08         0.00000E+00
    0.00000E+00         0.00000E+00        -0.58959E+08
 
   -0.58379E+08         0.49995E+06         0.00000E+00
    0.49995E+06        -0.59587E+08         0.00000E+00
    0.00000E+00         0.00000E+00        -0.58983E+08
 
   -0.58447E+08         0.49602E+06         0.00000E+00
    0.49602E+06        -0.59565E+08         0.00000E+00
    0.00000E+00         0.00000E+00        -0.59006E+08
 
   -0.58515E+08         0.49092E+06         0.00000E+00
    0.49092E+06        -0.59544E+08         0.00000E+00
    0.00000E+00         0.00000E+00        -0.59029E+08
 
   -0.58580E+08         0.48471E+06         0.00000E+00
    0.48471E+06        -0.59523E+08         0.00000E+00
    0.00000E+00         0.00000E+00        -0.59052E+08
 
   -0.58644E+08         0.47743E+06         0.00000E+00
    0.47743E+06        -0.59503E+08         0.00000E+00
    0.00000E+00         0.00000E+00        -0.59074E+08
 
   -0.58706E+08         0.46912E+06         0.00000E+00
    0.46912E+06        -0.59483E+08         0.00000E+00
    0.00000E+00         0.00000E+00        -0.59095E+08
 
   -0.58766E+08         0.45985E+06         0.00000E+00
    0.45985E+06        -0.59464E+08         0.00000E+00
    0.00000E+00         0.00000E+00        -0.59115E+08
 
   -0.58824E+08         0.44966E+06         0.00000E+00
    0.44966E+06        -0.59445E+08         0.00000E+00
    0.00000E+00         0.00000E+00        -0.59135E+08
 
   -0.58879E+08         0.43860E+06         0.00000E+00
    0.43860E+06        -0.59427E+08         0.00000E+00
    0.00000E+00         0.00000E+00        -0.59153E+08
 
   -0.58932E+08         0.42673E+06         0.00000E+00
    0.42673E+06        -0.59409E+08         0.00000E+00
    0.00000E+00         0.00000E+00        -0.59171E+08
 
   -0.58981E+08         0.41411E+06         0.00000E+00
    0.41411E+06        -0.59393E+08         0.00000E+00
    0.00000E+00         0.00000E+00        -0.59187E+08
 
   -0.59028E+08         0.40080E+06         0.00000E+00
    0.40080E+06        -0.59377E+08         0.00000E+00
    0.00000E+00         0.00000E+00        -0.59203E+08
 
   -0.59072E+08         0.38686E+06         0.00000E+00
    0.38686E+06        -0.59362E+08         0.00000E+00
    0.00000E+00         0.00000E+00        -0.59217E+08
 
   -0.59112E+08         0.37235E+06         0.00000E+00
    0.37235E+06        -0.59348E+08         0.00000E+00
    0.00000E+00         0.00000E+00        -0.59230E+08
 
   -0.59149E+08         0.35732E+06         0.00000E+00
    0.35732E+06        -0.59335E+08         0.00000E+00
    0.00000E+00         0.00000E+00        -0.59242E+08
 
   -0.59182E+08         0.34184E+06         0.00000E+00
    0.34184E+06        -0.59324E+08         0.00000E+00
    0.00000E+00         0.00000E+00        -0.59253E+08
 
   -0.59211E+08         0.32598E+06         0.00000E+00
    0.32598E+06        -0.59313E+08         0.00000E+00
    0.00000E+00         0.00000E+00        -0.59263E+08
 
   -0.59236E+08         0.30977E+06         0.00000E+00
    0.30977E+06        -0.59304E+08         0.00000E+00
    0.00000E+00         0.00000E+00        -0.59271E+08
 
   -0.59257E+08         0.29330E+06         0.00000E+00
    0.29330E+06        -0.59297E+08         0.00000E+00
    0.00000E+00         0.00000E+00        -0.59278E+08
 
   -0.59275E+08         0.27660E+06         0.00000E+00
    0.27660E+06        -0.59290E+08         0.00000E+00
    0.00000E+00         0.00000E+00        -0.59284E+08
 
   -0.59287E+08         0.25975E+06         0.00000E+00
    0.25975E+06        -0.59286E+08         0.00000E+00
    0.00000E+00         0.00000E+00        -0.59288E+08
 
   -0.59296E+08         0.24280E+06         0.00000E+00
    0.24280E+06        -0.59283E+08         0.00000E+00
    0.00000E+00         0.00000E+00        -0.59292E+08
 
   -0.59301E+08         0.22581E+06         0.00000E+00
    0.22581E+06        -0.59281E+08         0.00000E+00
    0.00000E+00         0.00000E+00        -0.59294E+08
 
   -0.59302E+08         0.20888E+06         0.00000E+00
    0.20888E+06        -0.59282E+08         0.00000E+00
    0.00000E+00         0.00000E+00        -0.59295E+08
 
   -0.59299E+08         0.19207E+06         0.00000E+00
    0.19207E+06        -0.59283E+08         0.00000E+00
    0.00000E+00         0.00000E+00        -0.59296E+08
 
   -0.56836E+08         0.25981E+05         0.00000E+00
    0.25981E+05        -0.60000E+08         0.00000E+00
    0.00000E+00         0.00000E+00        -0.58443E+08
 
   -0.56859E+08         0.76247E+05         0.00000E+00
    0.76247E+05        -0.59998E+08         0.00000E+00
    0.00000E+00         0.00000E+00        -0.58447E+08
 
   -0.56888E+08         0.12396E+06         0.00000E+00
    0.12396E+06        -0.59994E+08         0.00000E+00
    0.00000E+00         0.00000E+00        -0.58455E+08
 
   -0.56924E+08         0.16884E+06         0.00000E+00
    0.16884E+06        -0.59988E+08         0.00000E+00
    0.00000E+00         0.00000E+00        -0.58467E+08
 
   -0.56965E+08         0.21074E+06         0.00000E+00
    0.21074E+06        -0.59981E+08         0.00000E+00
    0.00000E+00         0.00000E+00        -0.58480E+08
 
   -0.57010E+08         0.24958E+06         0.00000E+00
    0.24958E+06        -0.59972E+08         0.00000E+00
    0.00000E+00         0.00000E+00        -0.58497E+08
 
   -0.57061E+08         0.28534E+06         0.00000E+00
    0.28534E+06        -0.59962E+08         0.00000E+00
    0.00000E+00         0.00000E+00        -0.58515E+08
 
   -0.57115E+08         0.31808E+06         0.00000E+00
    0.31808E+06        -0.59950E+08         0.00000E+00
    0.00000E+00         0.00000E+00        -0.58535E+08
 
   -0.57173E+08         0.34789E+06         0.00000E+00
    0.34789E+06        -0.59936E+08         0.00000E+00
    0.00000E+00         0.00000E+00        -0.58556E+08
 
   -0.57234E+08         0.37488E+06         0.00000E+00
    0.37488E+06        -0.59921E+08         0.00000E+00
    0.00000E+00         0.00000E+00        -0.58579E+08
 
   -0.57297E+08         0.39918E+06         0.00000E+00
    0.39918E+06        -0.59905E+08         0.00000E+00
    0.00000E+00         0.00000E+00        -0.58602E+08
 
   -0.57363E+08         0.42093E+06         0.00000E+00
    0.42093E+06        -0.59888E+08         0.00000E+00
    0.00000E+00         0.00000E+00        -0.58626E+08
 
   -0.57432E+08         0.44028E+06         0.00000E+00
    0.44028E+06        -0.59870E+08         0.00000E+00
    0.00000E+00         0.00000E+00        -0.58651E+08
 
   -0.57501E+08         0.45734E+06         0.00000E+00
    0.45734E+06        -0.59851E+08         0.00000E+00
    0.00000E+00         0.00000E+00        -0.58677E+08
 
   -0.57573E+08         0.47225E+06         0.00000E+00
    0.47225E+06        -0.59832E+08         0.00000E+00
    0.00000E+00         0.00000E+00        -0.58702E+08
 
   -0.57646E+08         0.48513E+06         0.00000E+00
    0.48513E+06        -0.59811E+08         0.00000E+00
    0.00000E+00         0.00000E+00        -0.58729E+08
 
   -0.57719E+08         0.49608E+06         0.00000E+00
    0.49608E+06        -0.59791E+08         0.00000E+00
    0.00000E+00         0.00000E+00        -0.58755E+08
 
   -0.57793E+08         0.50520E+06         0.00000E+00
    0.50520E+06        -0.59770E+08         0.00000E+00
    0.00000E+00         0.00000E+00        -0.58782E+08
 
   -0.57868E+08         0.51258E+06         0.00000E+00
    0.51258E+06        -0.59748E+08         0.00000E+00
    0.00000E+00         0.00000E+00        -0.58808E+08
 
   -0.57943E+08         0.51829E+06         0.00000E+00
    0.51829E+06        -0.59727E+08         0.00000E+00
    0.00000E+00         0.00000E+00        -0.58835E+08
 
   -0.58017E+08         0.52242E+06         0.00000E+00
    0.52242E+06        -0.59705E+08         0.00000E+00
    0.00000E+00         0.00000E+00        -0.58861E+08
 
   -0.58092E+08         0.52501E+06         0.00000E+00
    0.52501E+06        -0.59684E+08         0.00000E+00
    0.00000E+00         0.00000E+00        -0.58888E+08
 
   -0.58166E+08         0.52614E+06         0.00000E+00
    0.52614E+06        -0.59662E+08         0.00000E+00
    0.00000E+00         0.00000E+00        -0.58914E+08
 
   -0.58239E+08         0.52586E+06         0.00000E+00
    0.52586E+06        -0.59641E+08         0.00000E+00
    0.00000E+00         0.00000E+00        -0.58940E+08
 
   -0.58311E+08         0.52422E+06         0.00000E+00
    0.52422E+06        -0.59619E+08         0.00000E+00
    0.00000E+00         0.00000E+00        -0.58965E+08
 
   -0.58382E+08         0.52128E+06         0.00000E+00
    0.52128E+06        -0.59598E+08         0.00000E+00
    0.00000E+00         0.00000E+00        -0.58990E+08
 
   -0.58452E+08         0.51707E+06         0.00000E+00
    0.51707E+06        -0.59577E+08         0.00000E+00
    0.00000E+00         0.00000E+00        -0.59015E+08
 
   -0.58521E+08         0.51166E+06         0.00000E+00
    0.51166E+06        -0.59556E+08         0.00000E+00
    0.00000E+00         0.00000E+00        -0.59038E+08
 
   -0.58587E+08         0.50507E+06         0.00000E+00
    0.50507E+06        -0.59536E+08         0.00000E+00
    0.00000E+00         0.00000E+00        -0.59062E+08
 
   -0.58652E+08         0.49737E+06         0.00000E+00
    0.49737E+06        -0.59516E+08         0.00000E+00
    0.00000E+00         0.00000E+00        -0.59084E+08
 
   -0.58715E+08         0.48859E+06         0.00000E+00
    0.48859E+06        -0.59496E+08         0.00000E+00
    0.00000E+00         0.00000E+00        -0.59106E+08
 
   -0.58776E+08         0.47879E+06         0.00000E+00
    0.47879E+06        -0.59477E+08         0.00000E+00
    0.00000E+00         0.00000E+00        -0.59127E+08
 
   -0.58835E+08         0.46800E+06         0.00000E+00
    0.46800E+06        -0.59459E+08         0.00000E+00
    0.00000E+00         0.00000E+00        -0.59147E+08
 
   -0.58891E+08         0.45629E+06         0.00000E+00
    0.45629E+06        -0.59441E+08         0.00000E+00
    0.00000E+00         0.00000E+00        -0.59166E+08
 
   -0.58944E+08         0.44370E+06         0.00000E+00
    0.44370E+06        -0.59424E+08         0.00000E+00
    0.00000E+00         0.00000E+00        -0.59184E+08
 
   -0.58995E+08         0.43029E+06         0.00000E+00
    0.43029E+06        -0.59407E+08         0.00000E+00
    0.00000E+00         0.00000E+00        -0.59201E+08
 
   -0.59042E+08         0.41611E+06         0.00000E+00
    0.41611E+06        -0.59392E+08         0.00000E+00
    0.00000E+00         0.00000E+00        -0.59217E+08
 
   -0.59086E+08         0.40121E+06         0.00000E+00
    0.40121E+06        -0.59377E+08         0.00000E+00
    0.00000E+00         0.00000E+00        -0.59232E+08
 
   -0.59127E+08         0.38565E+06         0.00000E+00
    0.38565E+06        -0.59363E+08         0.00000E+00
    0.00000E+00         0.00000E+00        -0.59245E+08
 
   -0.59164E+08         0.36950E+06         0.00000E+00
    0.36950E+06        -0.59351E+08         0.00000E+00
    0.00000E+00         0.00000E+00        -0.59258E+08
 
   -0.59198E+08         0.35281E+06         0.00000E+00
    0.35281E+06        -0.59339E+08         0.00000E+00
    0.00000E+00         0.00000E+00        -0.59269E+08
 
   -0.59228E+08         0.33564E+06         0.00000E+00
    0.33564E+06        -0.59329E+08         0.00000E+00
    0.00000E+00         0.00000E+00        -0.59279E+08
 
   -0.59253E+08         0.31806E+06         0.00000E+00
    0.31806E+06        -0.59320E+08         0.00000E+00
    0.00000E+00         0.00000E+00        -0.59287E+08
 
   -0.59275E+08         0.30013E+06         0.00000E+00
    0.30013E+06        -0.59312E+08         0.00000E+00
    0.00000E+00         0.00000E+00        -0.59294E+08
 
   -0.59292E+08         0.28192E+06         0.00000E+00
    0.28192E+06        -0.59306E+08         0.00000E+00
    0.00000E+00         0.00000E+00        -0.59300E+08
 
   -0.59305E+08         0.26350E+06         0.00000E+00
    0.26350E+06        -0.59302E+08         0.00000E+00
    0.00000E+00         0.00000E+00        -0.59305E+08
 
   -0.59314E+08         0.24495E+06         0.00000E+00
    0.24495E+06        -0.59299E+08         0.00000E+00
    0.00000E+00         0.00000E+00        -0.59309E+08
 
   -0.59319E+08         0.22636E+06         0.00000E+00
    0.22636E+06        -0.59298E+08         0.00000E+00
    0.00000E+00         0.00000E+00        -0.59311E+08
 
   -0.59319E+08         0.20782E+06         0.00000E+00
    0.20782E+06        -0.59298E+08         0.00000E+00
    0.00000E+00         0.00000E+00        -0.59313E+08
 
   -0.59316E+08         0.18945E+06         0.00000E+00
    0.18945E+06        -0.59300E+08         0.00000E+00
    0.00000E+00         0.00000E+00        -0.59313E+08
 
   -0.56783E+08         0.26921E+05         0.00000E+00
    0.26921E+05        -0.60000E+08         0.00000E+00
    0.00000E+00         0.00000E+00        -0.58420E+08
 
   -0.56809E+08         0.79033E+05         0.00000E+00
    0.79033E+05        -0.59998E+08         0.00000E+00
    0.00000E+00         0.00000E+00        -0.58425E+08
 
   -0.56841E+08         0.12854E+06         0.00000E+00
    0.12854E+06        -0.59994E+08         0.00000E+00
    0.00000E+00         0.00000E+00        -0.58433E+08
 
   -0.56879E+08         0.17517E+06         0.00000E+00
    0.17517E+06        -0.59989E+08         0.00000E+00
    0.00000E+00         0.00000E+00        -0.58446E+08
 
   -0.56923E+08         0.21876E+06         0.00000E+00
    0.21876E+06        -0.59982E+08         0.00000E+00
    0.00000E+00         0.00000E+00        -0.58461E+08
 
   -0.56972E+08         0.25922E+06         0.00000E+00
    0.25922E+06        -0.59973E+08         0.00000E+00
    0.00000E+00         0.00000E+00        -0.58479E+08
 
   -0.57026E+08         0.29652E+06         0.00000E+00
    0.29652E+06        -0.59963E+08         0.00000E+00
    0.00000E+00         0.00000E+00        -0.58498E+08
 
   -0.57083E+08         0.33071E+06         0.00000E+00
    0.33071E+06        -0.59951E+08         0.00000E+00
    0.00000E+00         0.00000E+00        -0.58520E+08
 
   -0.57144E+08         0.36186E+06         0.00000E+00
    0.36186E+06        -0.59938E+08         0.00000E+00
    0.00000E+00         0.00000E+00        -0.58543E+08
 
   -0.57207E+08         0.39008E+06         0.00000E+00
    0.39008E+06        -0.59923E+08         0.00000E+00
    0.00000E+00         0.00000E+00        -0.58567E+08
 
   -0.57274E+08         0.41549E+06         0.00000E+00
    0.41549E+06        -0.59908E+08         0.00000E+00
    0.00000E+00         0.00000E+00        -0.58592E+08
 
   -0.57342E+08         0.43824E+06         0.00000E+00
    0.43824E+06        -0.59891E+08         0.00000E+00
    0.00000E+00         0.00000E+00        -0.58617E+08
 
   -0.57413E+08         0.45845E+06         0.00000E+00
    0.45845E+06        -0.59874E+08         0.00000E+00
    0.00000E+00         0.00000E+00        -0.58644E+08
 
   -0.57485E+08         0.47627E+06         0.00000E+00
    0.47627E+06        -0.59856E+08         0.00000E+00
    0.00000E+00         0.00000E+00        -0.58671E+08
 
   -0.57559E+08         0.49182E+06         0.00000E+00
    0.49182E+06        -0.59837E+08         0.00000E+00
    0.00000E+00         0.00000E+00        -0.58698E+08
 
   -0.57633E+08         0.50522E+06         0.00000E+00
    0.50522E+06        -0.59817E+08         0.00000E+00
    0.00000E+00         0.00000E+00        -0.58726E+08
 
   -0.57709E+08         0.51659E+06         0.00000E+00
    0.51659E+06        -0.59797E+08         0.00000E+00
    0.00000E+00         0.00000E+00        -0.58753E+08
 
   -0.57785E+08         0.52604E+06         0.00000E+00
    0.52604E+06        -0.59777E+08         0.00000E+00
    0.00000E+00         0.00000E+00        -0.58781E+08
 
   -0.57861E+08         0.53365E+06         0.00000E+00
    0.53365E+06        -0.59757E+08         0.00000E+00
    0.00000E+00         0.00000E+00        -0.58809E+08
 
   -0.57938E+08         0.53953E+06         0.00000E+00
    0.53953E+06        -0.59736E+08         0.00000E+00
    0.00000E+00         0.00000E+00        -0.58837E+08
 
   -0.58014E+08         0.54373E+06         0.00000E+00
    0.54373E+06        -0.59715E+08         0.00000E+00
    0.00000E+00         0.00000E+00        -0.58864E+08
 
   -0.58090E+08         0.54635E+06         0.00000E+00
    0.54635E+06        -0.59694E+08         0.00000E+00
    0.00000E+00         0.00000E+00        -0.58892E+08
 
   -0.58165E+08         0.54744E+06         0.00000E+00
    0.54744E+06        -0.59673E+08         0.00000E+00
    0.00000E+00         0.00000E+00        -0.58919E+08
 
   -0.58240E+08         0.54706E+06         0.00000E+00
    0.54706E+06        -0.59652E+08         0.00000E+00
    0.00000E+00         0.00000E+00        -0.58946E+08
 
   -0.58313E+08         0.54528E+06         0.00000E+00
    0.54528E+06        -0.59631E+08         0.00000E+00
    0.00000E+00         0.00000E+00        -0.58972E+08
 
   -0.58386E+08         0.54213E+06         0.00000E+00
    0.54213E+06        -0.59610E+08         0.00000E+00
    0.00000E+00         0.00000E+00        -0.58998E+08
 
   -0.58457E+08         0.53768E+06         0.00000E+00
    0.53768E+06        -0.59590E+08         0.00000E+00
    0.00000E+00         0.00000E+00        -0.59023E+08
 
   -0.58527E+08         0.53197E+06         0.00000E+00
    0.53197E+06        -0.59570E+08         0.00000E+00
    0.00000E+00         0.00000E+00        -0.59048E+08
 
   -0.58595E+08         0.52504E+06         0.00000E+00
    0.52504E+06        -0.59550E+08         0.00000E+00
    0.00000E+00         0.00000E+00        -0.59072E+08
 
   -0.58661E+08         0.51694E+06         0.00000E+00
    0.51694E+06        -0.59530E+08         0.00000E+00
    0.00000E+00         0.00000E+00        -0.59096E+08
 
   -0.58725E+08         0.50772E+06         0.00000E+00
    0.50772E+06        -0.59511E+08         0.00000E+00
    0.00000E+00         0.00000E+00        -0.59118E+08
 
   -0.58787E+08         0.49741E+06         0.00000E+00
    0.49741E+06        -0.59492E+08         0.00000E+00
    0.00000E+00         0.00000E+00        -0.59140E+08
 
   -0.58846E+08         0.48606E+06         0.00000E+00
    0.48606E+06        -0.59474E+08         0.00000E+00
    0.00000E+00         0.00000E+00        -0.59160E+08
 
   -0.58903E+08         0.47372E+06         0.00000E+00
    0.47372E+06        -0.59457E+08         0.00000E+00
    0.00000E+00         0.00000E+00        -0.59180E+08
 
   -0.58958E+08         0.46043E+06         0.00000E+00
    0.46043E+06        -0.59440E+08         0.00000E+00
    0.00000E+00         0.00000E+00        -0.59199E+08
 
   -0.59009E+08         0.44624E+06         0.00000E+00
    0.44624E+06        -0.59423E+08         0.00000E+00
    0.00000E+00         0.00000E+00        -0.59216E+08
 
   -0.59057E+08         0.43120E+06         0.00000E+00
    0.43120E+06        -0.59408E+08         0.00000E+00
    0.00000E+00         0.00000E+00        -0.59233E+08
 
   -0.59102E+08         0.41537E+06         0.00000E+00
    0.41537E+06        -0.59393E+08         0.00000E+00
    0.00000E+00         0.00000E+00        -0.59248E+08
 
   -0.59144E+08         0.39879E+06         0.00000E+00
    0.39879E+06        -0.59380E+08         0.00000E+00
    0.00000E+00         0.00000E+00        -0.59262E+08
 
   -0.59181E+08         0.38152E+06         0.00000E+00
    0.38152E+06        -0.59367E+08         0.00000E+00
    0.00000E+00         0.00000E+00        -0.59275E+08
 
   -0.59216E+08         0.36363E+06         0.00000E+00
    0.36363E+06        -0.59356E+08         0.00000E+00
    0.00000E+00         0.00000E+00        -0.59286E+08
 
   -0.59246E+08         0.34517E+06         0.00000E+00
    0.34517E+06        -0.59346E+08         0.00000E+00
    0.00000E+00         0.00000E+00        -0.59296E+08
 
   -0.59272E+08         0.32622E+06         0.00000E+00
    0.32622E+06        -0.59337E+08         0.00000E+00
    0.00000E+00         0.00000E+00        -0.59305E+08
 
   -0.59294E+08         0.30685E+06         0.00000E+00
    0.30685E+06        -0.59330E+08         0.00000E+00
    0.00000E+00         0.00000E+00        -0.59313E+08
 
   -0.59311E+08         0.28713E+06         0.00000E+00
    0.28713E+06        -0.59324E+08         0.00000E+00
    0.00000E+00         0.00000E+00        -0.59319E+08
 
   -0.59324E+08         0.26715E+06         0.00000E+00
    0.26715E+06        -0.59319E+08         0.00000E+00
    0.00000E+00         0.00000E+00        -0.59324E+08
 
   -0.59333E+08         0.24700E+06         0.00000E+00
    0.24700E+06        -0.59317E+08         0.00000E+00
    0.00000E+00         0.00000E+00        -0.59327E+08
 
   -0.59338E+08         0.22679E+06         0.00000E+00
    0.22679E+06        -0.59315E+08         0.00000E+00
    0.00000E+00         0.00000E+00        -0.59330E+08
 
   -0.59339E+08         0.20663E+06         0.00000E+00
    0.20663E+06        -0.59316E+08         0.00000E+00
    0.00000E+00         0.00000E+00        -0.59331E+08
 
   -0.59335E+08         0.18666E+06         0.00000E+00
    0.18666E+06        -0.59318E+08         0.00000E+00
    0.00000E+00         0.00000E+00        -0.59332E+08
 
   -0.56729E+08         0.27852E+05         0.00000E+00
    0.27852E+05        -0.60000E+08         0.00000E+00
    0.00000E+00         0.00000E+00        -0.58396E+08
 
   -0.56757E+08         0.81781E+05         0.00000E+00
    0.81781E+05        -0.59998E+08         0.00000E+00
    0.00000E+00         0.00000E+00        -0.58401E+08
 
   -0.56792E+08         0.13305E+06         0.00000E+00
    0.13305E+06        -0.59994E+08         0.00000E+00
    0.00000E+00         0.00000E+00        -0.58411E+08
 
   -0.56833E+08         0.18137E+06         0.00000E+00
    0.18137E+06        -0.59989E+08         0.00000E+00
    0.00000E+00         0.00000E+00        -0.58424E+08
 
   -0.56881E+08         0.22659E+06         0.00000E+00
    0.22659E+06        -0.59982E+08         0.00000E+00
    0.00000E+00         0.00000E+00        -0.58441E+08
 
   -0.56933E+08         0.26860E+06         0.00000E+00
    0.26860E+06        -0.59973E+08         0.00000E+00
    0.00000E+00         0.00000E+00        -0.58460E+08
 
   -0.56989E+08         0.30737E+06         0.00000E+00
    0.30737E+06        -0.59963E+08         0.00000E+00
    0.00000E+00         0.00000E+00        -0.58481E+08
 
   -0.57050E+08         0.34293E+06         0.00000E+00
    0.34293E+06        -0.59952E+08         0.00000E+00
    0.00000E+00         0.00000E+00        -0.58504E+08
 
   -0.57113E+08         0.37536E+06         0.00000E+00
    0.37536E+06        -0.59939E+08         0.00000E+00
    0.00000E+00         0.00000E+00        -0.58529E+08
 
   -0.57180E+08         0.40475E+06         0.00000E+00
    0.40475E+06        -0.59926E+08         0.00000E+00
    0.00000E+00         0.00000E+00        -0.58554E+08
 
   -0.57249E+08         0.43122E+06         0.00000E+00
    0.43122E+06        -0.59911E+08         0.00000E+00
    0.00000E+00         0.00000E+00        -0.58581E+08
 
   -0.57320E+08         0.45492E+06         0.00000E+00
    0.45492E+06        -0.59895E+08         0.00000E+00
    0.00000E+00         0.00000E+00        -0.58608E+08
 
   -0.57394E+08         0.47596E+06         0.00000E+00
    0.47596E+06        -0.59878E+08         0.00000E+00
    0.00000E+00         0.00000E+00        -0.58636E+08
 
   -0.57468E+08         0.49450E+06         0.00000E+00
    0.49450E+06        -0.59861E+08         0.00000E+00
    0.00000E+00         0.00000E+00        -0.58665E+08
 
   -0.57544E+08         0.51067E+06         0.00000E+00
    0.51067E+06        -0.59842E+08         0.00000E+00
    0.00000E+00         0.00000E+00        -0.58693E+08
 
   -0.57621E+08         0.52458E+06         0.00000E+00
    0.52458E+06        -0.59824E+08         0.00000E+00
    0.00000E+00         0.00000E+00        -0.58722E+08
 
   -0.57698E+08         0.53638E+06         0.00000E+00
    0.53638E+06        -0.59804E+08         0.00000E+00
    0.00000E+00         0.00000E+00        -0.58751E+08
 
   -0.57776E+08         0.54615E+06         0.00000E+00
    0.54615E+06        -0.59785E+08         0.00000E+00
    0.00000E+00         0.00000E+00        -0.58781E+08
 
   -0.57855E+08         0.55402E+06         0.00000E+00
    0.55402E+06        -0.59765E+08         0.00000E+00
    0.00000E+00         0.00000E+00        -0.58810E+08
 
   -0.57933E+08         0.56006E+06         0.00000E+00
    0.56006E+06        -0.59745E+08         0.00000E+00
    0.00000E+00         0.00000E+00        -0.58839E+08
 
   -0.58011E+08         0.56437E+06         0.00000E+00
    0.56437E+06        -0.59725E+08         0.00000E+00
    0.00000E+00         0.00000E+00        -0.58868E+08
 
   -0.58088E+08         0.56703E+06         0.00000E+00
    0.56703E+06        -0.59704E+08         0.00000E+00
    0.00000E+00         0.00000E+00        -0.58896E+08
 
   -0.58165E+08         0.56810E+06         0.00000E+00
    0.56810E+06        -0.59684E+08         0.00000E+00
    0.00000E+00         0.00000E+00        -0.58925E+08
 
   -0.58241E+08         0.56765E+06         0.00000E+00
    0.56765E+06        -0.59664E+08         0.00000E+00
    0.00000E+00         0.00000E+00        -0.58952E+08
 
   -0.58316E+08         0.56575E+06         0.00000E+00
    0.56575E+06        -0.59644E+08         0.00000E+00
    0.00000E+00         0.00000E+00        -0.58980E+08
 
   -0.58390E+08         0.56243E+06         0.00000E+00
    0.56243E+06        -0.59624E+08         0.00000E+00
    0.00000E+00         0.00000E+00        -0.59007E+08
 
   -0.58462E+08         0.55777E+06         0.00000E+00
    0.55777E+06        -0.59604E+08         0.00000E+00
    0.00000E+00         0.00000E+00        -0.59033E+08
 
   -0.58533E+08         0.55179E+06         0.00000E+00
    0.55179E+06        -0.59584E+08         0.00000E+00
    0.00000E+00         0.00000E+00        -0.59059E+08
 
   -0.58602E+08         0.54455E+06         0.00000E+00
    0.54455E+06        -0.59565E+08         0.00000E+00
    0.00000E+00         0.00000E+00        -0.59084E+08
 
   -0.58670E+08         0.53609E+06         0.00000E+00
    0.53609E+06        -0.59545E+08         0.00000E+00
    0.00000E+00         0.00000E+00        -0.59108E+08
 
   -0.58735E+08         0.52645E+06         0.00000E+00
    0.52645E+06        -0.59527E+08         0.00000E+00
    0.00000E+00         0.00000E+00        -0.59131E+08
 
   -0.58798E+08         0.51567E+06         0.00000E+00
    0.51567E+06        -0.59508E+08         0.00000E+00
    0.00000E+00         0.00000E+00        -0.59153E+08
 
   -0.58859E+08         0.50378E+06         0.00000E+00
    0.50378E+06        -0.59491E+08         0.00000E+00
    0.00000E+00         0.00000E+00        -0.59175E+08
 
   -0.58916E+08         0.49084E+06         0.00000E+00
    0.49084E+06        -0.59473E+08         0.00000E+00
    0.00000E+00         0.00000E+00        -0.59195E+08
 
   -0.58972E+08         0.47688E+06         0.00000E+00
    0.47688E+06        -0.59457E+08         0.00000E+00
    0.00000E+00         0.00000E+00        -0.59214E+08
 
   -0.59024E+08         0.46194E+06         0.00000E+00
    0.46194E+06        -0.59441E+08         0.00000E+00
    0.00000E+00         0.00000E+00        -0.59233E+08
 
   -0.59073E+08         0.44607E+06         0.00000E+00
    0.44607E+06        -0.59426E+08         0.00000E+00
    0.00000E+00         0.00000E+00        -0.59250E+08
 
   -0.59119E+08         0.42932E+06         0.00000E+00
    0.42932E+06        -0.59411E+08         0.00000E+00
    0.00000E+00         0.00000E+00        -0.59265E+08
 
   -0.59161E+08         0.41174E+06         0.00000E+00
    0.41174E+06        -0.59398E+08         0.00000E+00
    0.00000E+00         0.00000E+00        -0.59280E+08
 
   -0.59200E+08         0.39339E+06         0.00000E+00
    0.39339E+06        -0.59386E+08         0.00000E+00
    0.00000E+00         0.00000E+00        -0.59293E+08
 
   -0.59234E+08         0.37431E+06         0.00000E+00
    0.37431E+06        -0.59375E+08         0.00000E+00
    0.00000E+00         0.00000E+00        -0.59305E+08
 
   -0.59265E+08         0.35459E+06         0.00000E+00
    0.35459E+06        -0.59365E+08         0.00000E+00
    0.00000E+00         0.00000E+00        -0.59315E+08
 
   -0.59292E+08         0.33428E+06         0.00000E+00
    0.33428E+06        -0.59356E+08         0.00000E+00
    0.00000E+00         0.00000E+00        -0.59324E+08
 
   -0.59314E+08         0.31347E+06         0.00000E+00
    0.31347E+06        -0.59349E+08         0.00000E+00
    0.00000E+00         0.00000E+00        -0.59332E+08
 
   -0.59332E+08         0.29225E+06         0.00000E+00
    0.29225E+06        -0.59343E+08         0.00000E+00
    0.00000E+00         0.00000E+00        -0.59339E+08
 
   -0.59345E+08         0.27071E+06         0.00000E+00
    0.27071E+06        -0.59338E+08         0.00000E+00
    0.00000E+00         0.00000E+00        -0.59344E+08
 
   -0.59354E+08         0.24895E+06         0.00000E+00
    0.24895E+06        -0.59336E+08         0.00000E+00
    0.00000E+00         0.00000E+00        -0.59348E+08
 
   -0.59359E+08         0.22710E+06         0.00000E+00
    0.22710E+06        -0.59335E+08         0.00000E+00
    0.00000E+00         0.00000E+00        -0.59350E+08
 
   -0.59359E+08         0.20529E+06         0.00000E+00
    0.20529E+06        -0.59335E+08         0.00000E+00
    0.00000E+00         0.00000E+00        -0.59352E+08
 
   -0.59356E+08         0.18368E+06         0.00000E+00
    0.18368E+06        -0.59337E+08         0.00000E+00
    0.00000E+00         0.00000E+00        -0.59353E+08
 
   -0.56673E+08         0.28770E+05         0.00000E+00
    0.28770E+05        -0.60000E+08         0.00000E+00
    0.00000E+00         0.00000E+00        -0.58371E+08
 
   -0.56703E+08         0.84484E+05         0.00000E+00
    0.84484E+05        -0.59998E+08         0.00000E+00
    0.00000E+00         0.00000E+00        -0.58377E+08
 
   -0.56741E+08         0.13746E+06         0.00000E+00
    0.13746E+06        -0.59994E+08         0.00000E+00
    0.00000E+00         0.00000E+00        -0.58387E+08
 
   -0.56786E+08         0.18744E+06         0.00000E+00
    0.18744E+06        -0.59989E+08         0.00000E+00
    0.00000E+00         0.00000E+00        -0.58402E+08
 
   -0.56836E+08         0.23422E+06         0.00000E+00
    0.23422E+06        -0.59982E+08         0.00000E+00
    0.00000E+00         0.00000E+00        -0.58419E+08
 
   -0.56892E+08         0.27771E+06         0.00000E+00
    0.27771E+06        -0.59974E+08         0.00000E+00
    0.00000E+00         0.00000E+00        -0.58440E+08
 
   -0.56951E+08         0.31788E+06         0.00000E+00
    0.31788E+06        -0.59964E+08         0.00000E+00
    0.00000E+00         0.00000E+00        -0.58463E+08
 
   -0.57015E+08         0.35475E+06         0.00000E+00
    0.35475E+06        -0.59953E+08         0.00000E+00
    0.00000E+00         0.00000E+00        -0.58488E+08
 
   -0.57082E+08         0.38838E+06         0.00000E+00
    0.38838E+06        -0.59941E+08         0.00000E+00
    0.00000E+00         0.00000E+00        -0.58514E+08
 
   -0.57151E+08         0.41888E+06         0.00000E+00
    0.41888E+06        -0.59928E+08         0.00000E+00
    0.00000E+00         0.00000E+00        -0.58541E+08
 
   -0.57224E+08         0.44636E+06         0.00000E+00
    0.44636E+06        -0.59914E+08         0.00000E+00
    0.00000E+00         0.00000E+00        -0.58570E+08
 
   -0.57298E+08         0.47095E+06         0.00000E+00
    0.47095E+06        -0.59898E+08         0.00000E+00
    0.00000E+00         0.00000E+00        -0.58599E+08
 
   -0.57373E+08         0.49278E+06         0.00000E+00
    0.49278E+06        -0.59882E+08         0.00000E+00
    0.00000E+00         0.00000E+00        -0.58628E+08
 
   -0.57451E+08         0.51201E+06         0.00000E+00
    0.51201E+06        -0.59865E+08         0.00000E+00
    0.00000E+00         0.00000E+00        -0.58658E+08
 
   -0.57529E+08         0.52877E+06         0.00000E+00
    0.52877E+06        -0.59848E+08         0.00000E+00
    0.00000E+00         0.00000E+00        -0.58689E+08
 
   -0.57608E+08         0.54318E+06         0.00000E+00
    0.54318E+06        -0.59830E+08         0.00000E+00
    0.00000E+00         0.00000E+00        -0.58719E+08
 
   -0.57687E+08         0.55538E+06         0.00000E+00
    0.55538E+06        -0.59812E+08         0.00000E+00
    0.00000E+00         0.00000E+00        -0.58750E+08
 
   -0.57767E+08         0.56548E+06         0.00000E+00
    0.56548E+06        -0.59793E+08         0.00000E+00
    0.00000E+00         0.00000E+00        -0.58780E+08
 
   -0.57848E+08         0.57359E+06         0.00000E+00
    0.57359E+06        -0.59774E+08         0.00000E+00
    0.00000E+00         0.00000E+00        -0.58811E+08
 
   -0.57927E+08         0.57982E+06         0.00000E+00
    0.57982E+06        -0.59755E+08         0.00000E+00
    0.00000E+00         0.00000E+00        -0.58841E+08
 
   -0.58007E+08         0.58425E+06         0.00000E+00
    0.58425E+06        -0.59735E+08         0.00000E+00
    0.00000E+00         0.00000E+00        -0.58871E+08
 
   -0.58086E+08         0.58696E+06         0.00000E+00
    0.58696E+06        -0.59716E+08         0.00000E+00
    0.00000E+00         0.00000E+00        -0.58901E+08
 
   -0.58165E+08         0.58804E+06         0.00000E+00
    0.58804E+06        -0.59696E+08         0.00000E+00
    0.00000E+00         0.00000E+00        -0.58930E+08
 
   -0.58242E+08         0.58754E+06         0.00000E+00
    0.58754E+06        -0.59677E+08         0.00000E+00
    0.00000E+00         0.00000E+00        -0.58959E+08
 
   -0.58319E+08         0.58554E+06         0.00000E+00
    0.58554E+06        -0.59657E+08         0.00000E+00
    0.00000E+00         0.00000E+00        -0.58988E+08
 
   -0.58394E+08         0.58209E+06         0.00000E+00
    0.58209E+06        -0.59638E+08         0.00000E+00
    0.00000E+00         0.00000E+00        -0.59016E+08
 
   -0.58468E+08         0.57724E+06         0.00000E+00
    0.57724E+06        -0.59619E+08         0.00000E+00
    0.00000E+00         0.00000E+00        -0.59043E+08
 
   -0.58540E+08         0.57104E+06         0.00000E+00
    0.57104E+06        -0.59599E+08         0.00000E+00
    0.00000E+00         0.00000E+00        -0.59070E+08
 
   -0.58610E+08         0.56352E+06         0.00000E+00
    0.56352E+06        -0.59581E+08         0.00000E+00
    0.00000E+00         0.00000E+00        -0.59096E+08
 
   -0.58679E+08         0.55473E+06         0.00000E+00
    0.55473E+06        -0.59562E+08         0.00000E+00
    0.00000E+00         0.00000E+00        -0.59121E+08
 
   -0.58745E+08         0.54471E+06         0.00000E+00
    0.54471E+06        -0.59544E+08         0.00000E+00
    0.00000E+00         0.00000E+00        -0.59145E+08
 
   -0.58809E+08         0.53350E+06         0.00000E+00
    0.53350E+06        -0.59526E+08         0.00000E+00
    0.00000E+00         0.00000E+00        -0.59168E+08
 
   -0.58871E+08         0.52112E+06         0.00000E+00
    0.52112E+06        -0.59509E+08         0.00000E+00
    0.00000E+00         0.00000E+00        -0.59190E+08
 
   -0.58930E+08         0.50761E+06         0.00000E+00
    0.50761E+06        -0.59492E+08         0.00000E+00
    0.00000E+00         0.00000E+00        -0.59211E+08
 
   -0.58986E+08         0.49301E+06         0.00000E+00
    0.49301E+06        -0.59476E+08         0.00000E+00
    0.00000E+00         0.00000E+00        -0.59231E+08
 
   -0.59040E+08         0.47736E+06         0.00000E+00
    0.47736E+06        -0.59460E+08         0.00000E+00
    0.00000E+00         0.00000E+00        -0.59250E+08
 
   -0.59090E+08         0.46070E+06         0.00000E+00
    0.46070E+06        -0.59445E+08         0.00000E+00
    0.00000E+00         0.00000E+00        -0.59268E+08
 
   -0.59136E+08         0.44307E+06         0.00000E+00
    0.44307E+06        -0.59431E+08         0.00000E+00
    0.00000E+00         0.00000E+00        -0.59284E+08
 
   -0.59180E+08         0.42452E+06         0.00000E+00
    0.42452E+06        -0.59418E+08         0.00000E+00
    0.00000E+00         0.00000E+00        -0.59299E+08
 
   -0.59219E+08         0.40510E+06         0.00000E+00
    0.40510E+06        -0.59406E+08         0.00000E+00
    0.00000E+00         0.00000E+00        -0.59313E+08
 
   -0.59254E+08         0.38487E+06         0.00000E+00
    0.38487E+06        -0.59395E+08         0.00000E+00
    0.00000E+00         0.00000E+00        -0.59325E+08
 
   -0.59286E+08         0.36389E+06         0.00000E+00
    0.36389E+06        -0.59385E+08         0.00000E+00
    0.00000E+00         0.00000E+00        -0.59336E+08
 
   -0.59313E+08         0.34225E+06         0.00000E+00
    0.34225E+06        -0.59376E+08         0.00000E+00
    0.00000E+00         0.00000E+00        -0.59345E+08
 
   -0.59336E+08         0.32002E+06         0.00000E+00
    0.32002E+06        -0.59369E+08         0.00000E+00
    0.00000E+00         0.00000E+00        -0.59353E+08
 
   -0.59354E+08         0.29729E+06         0.00000E+00
    0.29729E+06        -0.59363E+08         0.00000E+00
    0.00000E+00         0.00000E+00        -0.59360E+08
 
   -0.59368E+08         0.27418E+06         0.00000E+00
    0.27418E+06        -0.59359E+08         0.00000E+00
    0.00000E+00         0.00000E+00        -0.59365E+08
 
   -0.59377E+08         0.25080E+06         0.00000E+00
    0.25080E+06        -0.59356E+08         0.00000E+00
    0.00000E+00         0.00000E+00        -0.59369E+08
 
   -0.59382E+08         0.22729E+06         0.00000E+00
    0.22729E+06        -0.59355E+08         0.00000E+00
    0.00000E+00         0.00000E+00        -0.59372E+08
 
   -0.59382E+08         0.20380E+06         0.00000E+00
    0.20380E+06        -0.59356E+08         0.00000E+00
    0.00000E+00         0.00000E+00        -0.59374E+08
 
   -0.59378E+08         0.18051E+06         0.00000E+00
    0.18051E+06        -0.59359E+08         0.00000E+00
    0.00000E+00         0.00000E+00        -0.59375E+08
 
   -0.56615E+08         0.29673E+05         0.00000E+00
    0.29673E+05        -0.60000E+08         0.00000E+00
    0.00000E+00         0.00000E+00        -0.58346E+08
 
   -0.56648E+08         0.87136E+05         0.00000E+00
    0.87136E+05        -0.59998E+08         0.00000E+00
    0.00000E+00         0.00000E+00        -0.58352E+08
 
   -0.56689E+08         0.14179E+06         0.00000E+00
    0.14179E+06        -0.59994E+08         0.00000E+00
    0.00000E+00         0.00000E+00        -0.58363E+08
 
   -0.56737E+08         0.19335E+06         0.00000E+00
    0.19335E+06        -0.59989E+08         0.00000E+00
    0.00000E+00         0.00000E+00        -0.58379E+08
 
   -0.56790E+08         0.24163E+06         0.00000E+00
    0.24163E+06        -0.59983E+08         0.00000E+00
    0.00000E+00         0.00000E+00        -0.58398E+08
 
   -0.56849E+08         0.28654E+06         0.00000E+00
    0.28654E+06        -0.59975E+08         0.00000E+00
    0.00000E+00         0.00000E+00        -0.58420E+08
 
   -0.56912E+08         0.32804E+06         0.00000E+00
    0.32804E+06        -0.59965E+08         0.00000E+00
    0.00000E+00         0.00000E+00        -0.58444E+08
 
   -0.56979E+08         0.36615E+06         0.00000E+00
    0.36615E+06        -0.59955E+08         0.00000E+00
    0.00000E+00         0.00000E+00        -0.58471E+08
 
   -0.57049E+08         0.40092E+06         0.00000E+00
    0.40092E+06        -0.59943E+08         0.00000E+00
    0.00000E+00         0.00000E+00        -0.58499E+08
 
   -0.57122E+08         0.43245E+06         0.00000E+00
    0.43245E+06        -0.59930E+08         0.00000E+00
    0.00000E+00         0.00000E+00        -0.58528E+08
 
   -0.57197E+08         0.46087E+06         0.00000E+00
    0.46087E+06        -0.59917E+08         0.00000E+00
    0.00000E+00         0.00000E+00        -0.58558E+08
 
   -0.57274E+08         0.48630E+06         0.00000E+00
    0.48630E+06        -0.59902E+08         0.00000E+00
    0.00000E+00         0.00000E+00        -0.58589E+08
 
   -0.57353E+08         0.50888E+06         0.00000E+00
    0.50888E+06        -0.59887E+08         0.00000E+00
    0.00000E+00         0.00000E+00        -0.58620E+08
 
   -0.57432E+08         0.52876E+06         0.00000E+00
    0.52876E+06        -0.59871E+08         0.00000E+00
    0.00000E+00         0.00000E+00        -0.58652E+08
 
   -0.57513E+08         0.54607E+06         0.00000E+00
    0.54607E+06        -0.59854E+08         0.00000E+00
    0.00000E+00         0.00000E+00        -0.58684E+08
 
   -0.57594E+08         0.56095E+06         0.00000E+00
    0.56095E+06        -0.59837E+08         0.00000E+00
    0.00000E+00         0.00000E+00        -0.58716E+08
 
   -0.57676E+08         0.57354E+06         0.00000E+00
    0.57354E+06        -0.59819E+08         0.00000E+00
    0.00000E+00         0.00000E+00        -0.58748E+08
 
   -0.57758E+08         0.58396E+06         0.00000E+00
    0.58396E+06        -0.59801E+08         0.00000E+00
    0.00000E+00         0.00000E+00        -0.58780E+08
 
   -0.57840E+08         0.59232E+06         0.00000E+00
    0.59232E+06        -0.59783E+08         0.00000E+00
    0.00000E+00         0.00000E+00        -0.58812E+08
 
   -0.57922E+08         0.59873E+06         0.00000E+00
    0.59873E+06        -0.59765E+08         0.00000E+00
    0.00000E+00         0.00000E+00        -0.58844E+08
 
   -0.58004E+08         0.60328E+06         0.00000E+00
    0.60328E+06        -0.59746E+08         0.00000E+00
    0.00000E+00         0.00000E+00        -0.58875E+08
 
   -0.58084E+08         0.60607E+06         0.00000E+00
    0.60607E+06        -0.59728E+08         0.00000E+00
    0.00000E+00         0.00000E+00        -0.58906E+08
 
   -0.58164E+08         0.60717E+06         0.00000E+00
    0.60717E+06        -0.59709E+08         0.00000E+00
    0.00000E+00         0.00000E+00        -0.58937E+08
 
   -0.58244E+08         0.60666E+06         0.00000E+00
    0.60666E+06        -0.59690E+08         0.00000E+00
    0.00000E+00         0.00000E+00        -0.58967E+08
 
   -0.58321E+08         0.60459E+06         0.00000E+00
    0.60459E+06        -0.59672E+08         0.00000E+00
    0.00000E+00         0.00000E+00        -0.58997E+08
 
   -0.58398E+08         0.60103E+06         0.00000E+00
    0.60103E+06        -0.59653E+08         0.00000E+00
    0.00000E+00         0.00000E+00        -0.59026E+08
 
   -0.58473E+08         0.59603E+06         0.00000E+00
    0.59603E+06        -0.59635E+08         0.00000E+00
    0.00000E+00         0.00000E+00        -0.59054E+08
 
   -0.58547E+08         0.58964E+06         0.00000E+00
    0.58964E+06        -0.59616E+08         0.00000E+00
    0.00000E+00         0.00000E+00        -0.59082E+08
 
   -0.58619E+08         0.58188E+06         0.00000E+00
    0.58188E+06        -0.59598E+08         0.00000E+00
    0.00000E+00         0.00000E+00        -0.59108E+08
 
   -0.58688E+08         0.57281E+06         0.00000E+00
    0.57281E+06        -0.59580E+08         0.00000E+00
    0.00000E+00         0.00000E+00        -0.59134E+08
 
   -0.58756E+08         0.56246E+06         0.00000E+00
    0.56246E+06        -0.59563E+08         0.00000E+00
    0.00000E+00         0.00000E+00        -0.59159E+08
 
   -0.58822E+08         0.55085E+06         0.00000E+00
    0.55085E+06        -0.59545E+08         0.00000E+00
    0.00000E+00         0.00000E+00        -0.59183E+08
 
   -0.58884E+08         0.53801E+06         0.00000E+00
    0.53801E+06        -0.59529E+08         0.00000E+00
    0.00000E+00         0.00000E+00        -0.59206E+08
 
   -0.58945E+08         0.52399E+06         0.00000E+00
    0.52399E+06        -0.59512E+08         0.00000E+00
    0.00000E+00         0.00000E+00        -0.59228E+08
 
   -0.59002E+08         0.50880E+06         0.00000E+00
    0.50880E+06        -0.59496E+08         0.00000E+00
    0.00000E+00         0.00000E+00        -0.59249E+08
 
   -0.59056E+08         0.49248E+06         0.00000E+00
    0.49248E+06        -0.59481E+08         0.00000E+00
    0.00000E+00         0.00000E+00        -0.59269E+08
 
   -0.59107E+08         0.47507E+06         0.00000E+00
    0.47507E+06        -0.59466E+08         0.00000E+00
    0.00000E+00         0.00000E+00        -0.59287E+08
 
   -0.59155E+08         0.45660E+06         0.00000E+00
    0.45660E+06        -0.59453E+08         0.00000E+00
    0.00000E+00         0.00000E+00        -0.59304E+08
 
   -0.59199E+08         0.43711E+06         0.00000E+00
    0.43711E+06        -0.59440E+08         0.00000E+00
    0.00000E+00         0.00000E+00        -0.59320E+08
 
   -0.59239E+08         0.41666E+06         0.00000E+00
    0.41666E+06        -0.59428E+08         0.00000E+00
    0.00000E+00         0.00000E+00        -0.59334E+08
 
   -0.59276E+08         0.39530E+06         0.00000E+00
    0.39530E+06        -0.59417E+08         0.00000E+00
    0.00000E+00         0.00000E+00        -0.59347E+08
 
   -0.59308E+08         0.37310E+06         0.00000E+00
    0.37310E+06        -0.59407E+08         0.00000E+00
    0.00000E+00         0.00000E+00        -0.59358E+08
 
   -0.59335E+08         0.35014E+06         0.00000E+00
    0.35014E+06        -0.59398E+08         0.00000E+00
    0.00000E+00         0.00000E+00        -0.59368E+08
 
   -0.59359E+08         0.32650E+06         0.00000E+00
    0.32650E+06        -0.59391E+08         0.00000E+00
    0.00000E+00         0.00000E+00        -0.59376E+08
 
   -0.59378E+08         0.30228E+06         0.00000E+00
    0.30228E+06        -0.59385E+08         0.00000E+00
    0.00000E+00         0.00000E+00        -0.59383E+08
 
   -0.59392E+08         0.27759E+06         0.00000E+00
    0.27759E+06        -0.59381E+08         0.00000E+00
    0.00000E+00         0.00000E+00        -0.59389E+08
 
   -0.59401E+08         0.25258E+06         0.00000E+00
    0.25258E+06        -0.59379E+08         0.00000E+00
    0.00000E+00         0.00000E+00        -0.59393E+08
 
   -0.59406E+08         0.22738E+06         0.00000E+00
    0.22738E+06        -0.59378E+08         0.00000E+00
    0.00000E+00         0.00000E+00        -0.59396E+08
 
   -0.59406E+08         0.20216E+06         0.00000E+00
    0.20216E+06        -0.59379E+08         0.00000E+00
    0.00000E+00         0.00000E+00        -0.59398E+08
 
   -0.59402E+08         0.17712E+06         0.00000E+00
    0.17712E+06        -0.59381E+08         0.00000E+00
    0.00000E+00         0.00000E+00        -0.59398E+08
 
   -0.56556E+08         0.30558E+05         0.00000E+00
    0.30558E+05        -0.60000E+08         0.00000E+00
    0.00000E+00         0.00000E+00        -0.58320E+08
 
   -0.56591E+08         0.89727E+05         0.00000E+00
    0.89727E+05        -0.59998E+08         0.00000E+00
    0.00000E+00         0.00000E+00        -0.58326E+08
 
   -0.56635E+08         0.14600E+06         0.00000E+00
    0.14600E+06        -0.59995E+08         0.00000E+00
    0.00000E+00         0.00000E+00        -0.58338E+08
 
   -0.56686E+08         0.19909E+06         0.00000E+00
    0.19909E+06        -0.59990E+08         0.00000E+00
    0.00000E+00         0.00000E+00        -0.58355E+08
 
   -0.56743E+08         0.24882E+06         0.00000E+00
    0.24882E+06        -0.59983E+08         0.00000E+00
    0.00000E+00         0.00000E+00        -0.58375E+08
 
   -0.56805E+08         0.29508E+06         0.00000E+00
    0.29508E+06        -0.59976E+08         0.00000E+00
    0.00000E+00         0.00000E+00        -0.58399E+08
 
   -0.56872E+08         0.33783E+06         0.00000E+00
    0.33783E+06        -0.59967E+08         0.00000E+00
    0.00000E+00         0.00000E+00        -0.58425E+08
 
   -0.56942E+08         0.37710E+06         0.00000E+00
    0.37710E+06        -0.59956E+08         0.00000E+00
    0.00000E+00         0.00000E+00        -0.58454E+08
 
   -0.57016E+08         0.41294E+06         0.00000E+00
    0.41294E+06        -0.59945E+08         0.00000E+00
    0.00000E+00         0.00000E+00        -0.58483E+08
 
   -0.57092E+08         0.44544E+06         0.00000E+00
    0.44544E+06        -0.59933E+08         0.00000E+00
    0.00000E+00         0.00000E+00        -0.58514E+08
 
   -0.57170E+08         0.47473E+06         0.00000E+00
    0.47473E+06        -0.59920E+08         0.00000E+00
    0.00000E+00         0.00000E+00        -0.58546E+08
 
   -0.57250E+08         0.50094E+06         0.00000E+00
    0.50094E+06        -0.59906E+08         0.00000E+00
    0.00000E+00         0.00000E+00        -0.58579E+08
 
   -0.57331E+08         0.52421E+06         0.00000E+00
    0.52421E+06        -0.59891E+08         0.00000E+00
    0.00000E+00         0.00000E+00        -0.58612E+08
 
   -0.57413E+08         0.54469E+06         0.00000E+00
    0.54469E+06        -0.59876E+08         0.00000E+00
    0.00000E+00         0.00000E+00        -0.58645E+08
 
   -0.57497E+08         0.56252E+06         0.00000E+00
    0.56252E+06        -0.59860E+08         0.00000E+00
    0.00000E+00         0.00000E+00        -0.58679E+08
 
   -0.57580E+08         0.57785E+06         0.00000E+00
    0.57785E+06        -0.59844E+08         0.00000E+00
    0.00000E+00         0.00000E+00        -0.58712E+08
 
   -0.57664E+08         0.59080E+06         0.00000E+00
    0.59080E+06        -0.59828E+08         0.00000E+00
    0.00000E+00         0.00000E+00        -0.58746E+08
 
   -0.57749E+08         0.60152E+06         0.00000E+00
    0.60152E+06        -0.59811E+08         0.00000E+00
    0.00000E+00         0.00000E+00        -0.58780E+08
 
   -0.57833E+08         0.61012E+06         0.00000E+00
    0.61012E+06        -0.59793E+08         0.00000E+00
    0.00000E+00         0.00000E+00        -0.58813E+08
 
   -0.57917E+08         0.61671E+06         0.00000E+00
    0.61671E+06        -0.59776E+08         0.00000E+00
    0.00000E+00         0.00000E+00        -0.58846E+08
 
   -0.58000E+08         0.62140E+06         0.00000E+00
    0.62140E+06        -0.59758E+08         0.00000E+00
    0.00000E+00         0.00000E+00        -0.58879E+08
 
   -0.58082E+08         0.62427E+06         0.00000E+00
    0.62427E+06        -0.59741E+08         0.00000E+00
    0.00000E+00         0.00000E+00        -0.58912E+08
 
   -0.58164E+08         0.62541E+06         0.00000E+00
    0.62541E+06        -0.59723E+08         0.00000E+00
    0.00000E+00         0.00000E+00        -0.58944E+08
 
   -0.58245E+08         0.62490E+06         0.00000E+00
    0.62490E+06        -0.59705E+08         0.00000E+00
    0.00000E+00         0.00000E+00        -0.58975E+08
 
   -0.58324E+08         0.62280E+06         0.00000E+00
    0.62280E+06        -0.59687E+08         0.00000E+00
    0.00000E+00         0.00000E+00        -0.59006E+08
 
   -0.58402E+08         0.61917E+06         0.00000E+00
    0.61917E+06        -0.59670E+08         0.00000E+00
    0.00000E+00         0.00000E+00        -0.59036E+08
 
   -0.58479E+08         0.61405E+06         0.00000E+00
    0.61405E+06        -0.59652E+08         0.00000E+00
    0.00000E+00         0.00000E+00        -0.59066E+08
 
   -0.58554E+08         0.60751E+06         0.00000E+00
    0.60751E+06        -0.59635E+08         0.00000E+00
    0.00000E+00         0.00000E+00        -0.59094E+08
 
   -0.58627E+08         0.59956E+06         0.00000E+00
    0.59956E+06        -0.59617E+08         0.00000E+00
    0.00000E+00         0.00000E+00        -0.59122E+08
 
   -0.58698E+08         0.59025E+06         0.00000E+00
    0.59025E+06        -0.59600E+08         0.00000E+00
    0.00000E+00         0.00000E+00        -0.59149E+08
 
   -0.58767E+08         0.57961E+06         0.00000E+00
    0.57961E+06        -0.59583E+08         0.00000E+00
    0.00000E+00         0.00000E+00        -0.59175E+08
 
   -0.58834E+08         0.56766E+06         0.00000E+00
    0.56766E+06        -0.59566E+08         0.00000E+00
    0.00000E+00         0.00000E+00        -0.59200E+08
 
   -0.58898E+08         0.55442E+06         0.00000E+00
    0.55442E+06        -0.59550E+08         0.00000E+00
    0.00000E+00         0.00000E+00        -0.59224E+08
 
   -0.58959E+08         0.53993E+06         0.00000E+00
    0.53993E+06        -0.59534E+08         0.00000E+00
    0.00000E+00         0.00000E+00        -0.59247E+08
 
   -0.59018E+08         0.52421E+06         0.00000E+00
    0.52421E+06        -0.59519E+08         0.00000E+00
    0.00000E+00         0.00000E+00        -0.59268E+08
 
   -0.59073E+08         0.50727E+06         0.00000E+00
    0.50727E+06        -0.59504E+08         0.00000E+00
    0.00000E+00         0.00000E+00        -0.59289E+08
 
   -0.59126E+08         0.48915E+06         0.00000E+00
    0.48915E+06        -0.59489E+08         0.00000E+00
    0.00000E+00         0.00000E+00        -0.59308E+08
 
   -0.59174E+08         0.46988E+06         0.00000E+00
    0.46988E+06        -0.59476E+08         0.00000E+00
    0.00000E+00         0.00000E+00        -0.59325E+08
 
   -0.59219E+08         0.44951E+06         0.00000E+00
    0.44951E+06        -0.59463E+08         0.00000E+00
    0.00000E+00         0.00000E+00        -0.59342E+08
 
   -0.59261E+08         0.42807E+06         0.00000E+00
    0.42807E+06        -0.59451E+08         0.00000E+00
    0.00000E+00         0.00000E+00        -0.59356E+08
 
   -0.59298E+08         0.40562E+06         0.00000E+00
    0.40562E+06        -0.59441E+08         0.00000E+00
    0.00000E+00         0.00000E+00        -0.59370E+08
 
   -0.59331E+08         0.38223E+06         0.00000E+00
    0.38223E+06        -0.59431E+08         0.00000E+00
    0.00000E+00         0.00000E+00        -0.59381E+08
 
   -0.59359E+08         0.35796E+06         0.00000E+00
    0.35796E+06        -0.59422E+08         0.00000E+00
    0.00000E+00         0.00000E+00        -0.59392E+08
 
   -0.59384E+08         0.33292E+06         0.00000E+00
    0.33292E+06        -0.59415E+08         0.00000E+00
    0.00000E+00         0.00000E+00        -0.59401E+08
 
   -0.59403E+08         0.30721E+06         0.00000E+00
    0.30721E+06        -0.59410E+08         0.00000E+00
    0.00000E+00         0.00000E+00        -0.59408E+08
 
   -0.59418E+08         0.28095E+06         0.00000E+00
    0.28095E+06        -0.59405E+08         0.00000E+00
    0.00000E+00         0.00000E+00        -0.59414E+08
 
   -0.59427E+08         0.25428E+06         0.00000E+00
    0.25428E+06        -0.59403E+08         0.00000E+00
    0.00000E+00         0.00000E+00        -0.59418E+08
 
   -0.59432E+08         0.22736E+06         0.00000E+00
    0.22736E+06        -0.59402E+08         0.00000E+00
    0.00000E+00         0.00000E+00        -0.59421E+08
 
   -0.59432E+08         0.20037E+06         0.00000E+00
    0.20037E+06        -0.59403E+08         0.00000E+00
    0.00000E+00         0.00000E+00        -0.59423E+08
 
   -0.59428E+08         0.17352E+06         0.00000E+00
    0.17352E+06        -0.59406E+08         0.00000E+00
    0.00000E+00         0.00000E+00        -0.59424E+08
 
   -0.56494E+08         0.31421E+05         0.00000E+00
    0.31421E+05        -0.60000E+08         0.00000E+00
    0.00000E+00         0.00000E+00        -0.58293E+08
 
   -0.56533E+08         0.92248E+05         0.00000E+00
    0.92248E+05        -0.59998E+08         0.00000E+00
    0.00000E+00         0.00000E+00        -0.58299E+08
 
   -0.56580E+08         0.15008E+06         0.00000E+00
    0.15008E+06        -0.59995E+08         0.00000E+00
    0.00000E+00         0.00000E+00        -0.58312E+08
 
   -0.56634E+08         0.20465E+06         0.00000E+00
    0.20465E+06        -0.59990E+08         0.00000E+00
    0.00000E+00         0.00000E+00        -0.58330E+08
 
   -0.56694E+08         0.25575E+06         0.00000E+00
    0.25575E+06        -0.59984E+08         0.00000E+00
    0.00000E+00         0.00000E+00        -0.58352E+08
 
   -0.56760E+08         0.30329E+06         0.00000E+00
    0.30329E+06        -0.59976E+08         0.00000E+00
    0.00000E+00         0.00000E+00        -0.58378E+08
 
   -0.56830E+08         0.34723E+06         0.00000E+00
    0.34723E+06        -0.59968E+08         0.00000E+00
    0.00000E+00         0.00000E+00        -0.58406E+08
 
   -0.56904E+08         0.38758E+06         0.00000E+00
    0.38758E+06        -0.59958E+08         0.00000E+00
    0.00000E+00         0.00000E+00        -0.58436E+08
 
   -0.56981E+08         0.42440E+06         0.00000E+00
    0.42440E+06        -0.59947E+08         0.00000E+00
    0.00000E+00         0.00000E+00        -0.58467E+08
 
   -0.57060E+08         0.45781E+06         0.00000E+00
    0.45781E+06        -0.59936E+08         0.00000E+00
    0.00000E+00         0.00000E+00        -0.58500E+08
 
   -0.57142E+08         0.48790E+06         0.00000E+00
    0.48790E+06        -0.59923E+08         0.00000E+00
    0.00000E+00         0.00000E+00        -0.58534E+08
 
   -0.57225E+08         0.51483E+06         0.00000E+00
    0.51483E+06        -0.59910E+08         0.00000E+00
    0.00000E+00         0.00000E+00        -0.58568E+08
 
   -0.57309E+08         0.53873E+06         0.00000E+00
    0.53873E+06        -0.59896E+08         0.00000E+00
    0.00000E+00         0.00000E+00        -0.58603E+08
 
   -0.57394E+08         0.55976E+06         0.00000E+00
    0.55976E+06        -0.59882E+08         0.00000E+00
    0.00000E+00         0.00000E+00        -0.58638E+08
 
   -0.57480E+08         0.57807E+06         0.00000E+00
    0.57807E+06        -0.59867E+08         0.00000E+00
    0.00000E+00         0.00000E+00        -0.58674E+08
 
   -0.57566E+08         0.59380E+06         0.00000E+00
    0.59380E+06        -0.59852E+08         0.00000E+00
    0.00000E+00         0.00000E+00        -0.58709E+08
 
   -0.57653E+08         0.60709E+06         0.00000E+00
    0.60709E+06        -0.59836E+08         0.00000E+00
    0.00000E+00         0.00000E+00        -0.58745E+08
 
   -0.57739E+08         0.61809E+06         0.00000E+00
    0.61809E+06        -0.59820E+08         0.00000E+00
    0.00000E+00         0.00000E+00        -0.58780E+08
 
   -0.57825E+08         0.62692E+06         0.00000E+00
    0.62692E+06        -0.59804E+08         0.00000E+00
    0.00000E+00         0.00000E+00        -0.58815E+08
 
   -0.57911E+08         0.63368E+06         0.00000E+00
    0.63368E+06        -0.59788E+08         0.00000E+00
    0.00000E+00         0.00000E+00        -0.58849E+08
 
   -0.57996E+08         0.63850E+06         0.00000E+00
    0.63850E+06        -0.59771E+08         0.00000E+00
    0.00000E+00         0.00000E+00        -0.58884E+08
 
   -0.58080E+08         0.64147E+06         0.00000E+00
    0.64147E+06        -0.59755E+08         0.00000E+00
    0.00000E+00         0.00000E+00        -0.58918E+08
 
   -0.58164E+08         0.64267E+06         0.00000E+00
    0.64267E+06        -0.59738E+08         0.00000E+00
    0.00000E+00         0.00000E+00        -0.58951E+08
 
   -0.58246E+08         0.64219E+06         0.00000E+00
    0.64219E+06        -0.59721E+08         0.00000E+00
    0.00000E+00         0.00000E+00        -0.58984E+08
 
   -0.58327E+08         0.64008E+06         0.00000E+00
    0.64008E+06        -0.59705E+08         0.00000E+00
    0.00000E+00         0.00000E+00        -0.59016E+08
 
   -0.58407E+08         0.63640E+06         0.00000E+00
    0.63640E+06        -0.59688E+08         0.00000E+00
    0.00000E+00         0.00000E+00        -0.59047E+08
 
   -0.58485E+08         0.63122E+06         0.00000E+00
    0.63122E+06        -0.59671E+08         0.00000E+00
    0.00000E+00         0.00000E+00        -0.59078E+08
 
   -0.58561E+08         0.62456E+06         0.00000E+00
    0.62456E+06        -0.59654E+08         0.00000E+00
    0.00000E+00         0.00000E+00        -0.59108E+08
 
   -0.58636E+08         0.61648E+06         0.00000E+00
    0.61648E+06        -0.59638E+08         0.00000E+00
    0.00000E+00         0.00000E+00        -0.59137E+08
 
   -0.58708E+08         0.60698E+06         0.00000E+00
    0.60698E+06        -0.59621E+08         0.00000E+00
    0.00000E+00         0.00000E+00        -0.59165E+08
 
   -0.58779E+08         0.59611E+06         0.00000E+00
    0.59611E+06        -0.59605E+08         0.00000E+00
    0.00000E+00         0.00000E+00        -0.59192E+08
 
   -0.58847E+08         0.58387E+06         0.00000E+00
    0.58387E+06        -0.59589E+08         0.00000E+00
    0.00000E+00         0.00000E+00        -0.59218E+08
 
   -0.58912E+08         0.57030E+06         0.00000E+00
    0.57030E+06        -0.59573E+08         0.00000E+00
    0.00000E+00         0.00000E+00        -0.59243E+08
 
   -0.58975E+08         0.55540E+06         0.00000E+00
    0.55540E+06        -0.59558E+08         0.00000E+00
    0.00000E+00         0.00000E+00        -0.59266E+08
 
   -0.59035E+08         0.53919E+06         0.00000E+00
    0.53919E+06        -0.59543E+08         0.00000E+00
    0.00000E+00         0.00000E+00        -0.59289E+08
 
   -0.59091E+08         0.52169E+06         0.00000E+00
    0.52169E+06        -0.59528E+08         0.00000E+00
    0.00000E+00         0.00000E+00        -0.59310E+08
 
   -0.59145E+08         0.50293E+06         0.00000E+00
    0.50293E+06        -0.59515E+08         0.00000E+00
    0.00000E+00         0.00000E+00        -0.59330E+08
 
   -0.59195E+08         0.48292E+06         0.00000E+00
    0.48292E+06        -0.59501E+08         0.00000E+00
    0.00000E+00         0.00000E+00        -0.59348E+08
 
   -0.59241E+08         0.46171E+06         0.00000E+00
    0.46171E+06        -0.59489E+08         0.00000E+00
    0.00000E+00         0.00000E+00        -0.59365E+08
 
   -0.59283E+08         0.43933E+06         0.00000E+00
    0.43933E+06        -0.59477E+08         0.00000E+00
    0.00000E+00         0.00000E+00        -0.59380E+08
 
   -0.59321E+08         0.41583E+06         0.00000E+00
    0.41583E+06        -0.59466E+08         0.00000E+00
    0.00000E+00         0.00000E+00        -0.59394E+08
 
   -0.59355E+08         0.39128E+06         0.00000E+00
    0.39128E+06        -0.59457E+08         0.00000E+00
    0.00000E+00         0.00000E+00        -0.59407E+08
 
   -0.59385E+08         0.36574E+06         0.00000E+00
    0.36574E+06        -0.59448E+08         0.00000E+00
    0.00000E+00         0.00000E+00        -0.59417E+08
 
   -0.59410E+08         0.33932E+06         0.00000E+00
    0.33932E+06        -0.59441E+08         0.00000E+00
    0.00000E+00         0.00000E+00        -0.59427E+08
 
   -0.59430E+08         0.31212E+06         0.00000E+00
    0.31212E+06        -0.59436E+08         0.00000E+00
    0.00000E+00         0.00000E+00        -0.59434E+08
 
   -0.59445E+08         0.28428E+06         0.00000E+00
    0.28428E+06        -0.59432E+08         0.00000E+00
    0.00000E+00         0.00000E+00        -0.59441E+08
 
   -0.59455E+08         0.25593E+06         0.00000E+00
    0.25593E+06        -0.59429E+08         0.00000E+00
    0.00000E+00         0.00000E+00        -0.59445E+08
 
   -0.59460E+08         0.22725E+06         0.00000E+00
    0.22725E+06        -0.59428E+08         0.00000E+00
    0.00000E+00         0.00000E+00        -0.59449E+08
 
   -0.59460E+08         0.19844E+06         0.00000E+00
    0.19844E+06        -0.59429E+08         0.00000E+00
    0.00000E+00         0.00000E+00        -0.59451E+08
 
   -0.59455E+08         0.16972E+06         0.00000E+00
    0.16972E+06        -0.59432E+08         0.00000E+00
    0.00000E+00         0.00000E+00        -0.59452E+08
 
   -0.56431E+08         0.32259E+05         0.00000E+00
    0.32259E+05        -0.60000E+08         0.00000E+00
    0.00000E+00         0.00000E+00        -0.58265E+08
 
   -0.56472E+08         0.94690E+05         0.00000E+00
    0.94690E+05        -0.59998E+08         0.00000E+00
    0.00000E+00         0.00000E+00        -0.58272E+08
 
   -0.56523E+08         0.15403E+06         0.00000E+00
    0.15403E+06        -0.59995E+08         0.00000E+00
    0.00000E+00         0.00000E+00        -0.58286E+08
 
   -0.56580E+08         0.21000E+06         0.00000E+00
    0.21000E+06        -0.59990E+08         0.00000E+00
    0.00000E+00         0.00000E+00        -0.58305E+08
 
   -0.56644E+08         0.26241E+06         0.00000E+00
    0.26241E+06        -0.59984E+08         0.00000E+00
    0.00000E+00         0.00000E+00        -0.58329E+08
 
   -0.56714E+08         0.31115E+06         0.00000E+00
    0.31115E+06        -0.59977E+08         0.00000E+00
    0.00000E+00         0.00000E+00        -0.58356E+08
 
   -0.56788E+08         0.35619E+06         0.00000E+00
    0.35619E+06        -0.59969E+08         0.00000E+00
    0.00000E+00         0.00000E+00        -0.58386E+08
 
   -0.56865E+08         0.39755E+06         0.00000E+00
    0.39755E+06        -0.59960E+08         0.00000E+00
    0.00000E+00         0.00000E+00        -0.58417E+08
 
   -0.56945E+08         0.43529E+06         0.00000E+00
    0.43529E+06        -0.59950E+08         0.00000E+00
    0.00000E+00         0.00000E+00        -0.58451E+08
 
   -0.57028E+08         0.46951E+06         0.00000E+00
    0.46951E+06        -0.59939E+08         0.00000E+00
    0.00000E+00         0.00000E+00        -0.58486E+08
 
   -0.57113E+08         0.50034E+06         0.00000E+00
    0.50034E+06        -0.59927E+08         0.00000E+00
    0.00000E+00         0.00000E+00        -0.58522E+08
 
   -0.57199E+08         0.52791E+06         0.00000E+00
    0.52791E+06        -0.59915E+08         0.00000E+00
    0.00000E+00         0.00000E+00        -0.58558E+08
 
   -0.57286E+08         0.55238E+06         0.00000E+00
    0.55238E+06        -0.59902E+08         0.00000E+00
    0.00000E+00         0.00000E+00        -0.58595E+08
 
   -0.57374E+08         0.57391E+06         0.00000E+00
    0.57391E+06        -0.59888E+08         0.00000E+00
    0.00000E+00         0.00000E+00        -0.58632E+08
 
   -0.57463E+08         0.59264E+06         0.00000E+00
    0.59264E+06        -0.59875E+08         0.00000E+00
    0.00000E+00         0.00000E+00        -0.58669E+08
 
   -0.57551E+08         0.60873E+06         0.00000E+00
    0.60873E+06        -0.59860E+08         0.00000E+00
    0.00000E+00         0.00000E+00        -0.58706E+08
 
   -0.57640E+08         0.62233E+06         0.00000E+00
    0.62233E+06        -0.59846E+08         0.00000E+00
    0.00000E+00         0.00000E+00        -0.58743E+08
 
   -0.57729E+08         0.63359E+06         0.00000E+00
    0.63359E+06        -0.59831E+08         0.00000E+00
    0.00000E+00         0.00000E+00        -0.58780E+08
 
   -0.57817E+08         0.64262E+06         0.00000E+00
    0.64262E+06        -0.59816E+08         0.00000E+00
    0.00000E+00         0.00000E+00        -0.58817E+08
 
   -0.57905E+08         0.64956E+06         0.00000E+00
    0.64956E+06        -0.59801E+08         0.00000E+00
    0.00000E+00         0.00000E+00        -0.58853E+08
 
   -0.57992E+08         0.65451E+06         0.00000E+00
    0.65451E+06        -0.59785E+08         0.00000E+00
    0.00000E+00         0.00000E+00        -0.58889E+08
 
   -0.58078E+08         0.65758E+06         0.00000E+00
    0.65758E+06        -0.59770E+08         0.00000E+00
    0.00000E+00         0.00000E+00        -0.58924E+08
 
   -0.58163E+08         0.65886E+06         0.00000E+00
    0.65886E+06        -0.59754E+08         0.00000E+00
    0.00000E+00         0.00000E+00        -0.58959E+08
 
   -0.58247E+08         0.65842E+06         0.00000E+00
    0.65842E+06        -0.59739E+08         0.00000E+00
    0.00000E+00         0.00000E+00        -0.58993E+08
 
   -0.58330E+08         0.65633E+06         0.00000E+00
    0.65633E+06        -0.59723E+08         0.00000E+00
    0.00000E+00         0.00000E+00        -0.59027E+08
 
   -0.58411E+08         0.65266E+06         0.00000E+00
    0.65266E+06        -0.59707E+08         0.00000E+00
    0.00000E+00         0.00000E+00        -0.59059E+08
 
   -0.58491E+08         0.64744E+06         0.00000E+00
    0.64744E+06        -0.59691E+08         0.00000E+00
    0.00000E+00         0.00000E+00        -0.59091E+08
 
   -0.58569E+08         0.64073E+06         0.00000E+00
    0.64073E+06        -0.59676E+08         0.00000E+00
    0.00000E+00         0.00000E+00        -0.59122E+08
 
   -0.58645E+08         0.63255E+06         0.00000E+00
    0.63255E+06        -0.59660E+08         0.00000E+00
    0.00000E+00         0.00000E+00        -0.59152E+08
 
   -0.58719E+08         0.62292E+06         0.00000E+00
    0.62292E+06        -0.59645E+08         0.00000E+00
    0.00000E+00         0.00000E+00        -0.59182E+08
 
   -0.58790E+08         0.61188E+06         0.00000E+00
    0.61188E+06        -0.59629E+08         0.00000E+00
    0.00000E+00         0.00000E+00        -0.59210E+08
 
   -0.58860E+08         0.59942E+06         0.00000E+00
    0.59942E+06        -0.59614E+08         0.00000E+00
    0.00000E+00         0.00000E+00        -0.59237E+08
 
   -0.58926E+08         0.58557E+06         0.00000E+00
    0.58557E+06        -0.59599E+08         0.00000E+00
    0.00000E+00         0.00000E+00        -0.59263E+08
 
   -0.58991E+08         0.57033E+06         0.00000E+00
    0.57033E+06        -0.59584E+08         0.00000E+00
    0.00000E+00         0.00000E+00        -0.59287E+08
 
   -0.59052E+08         0.55371E+06         0.00000E+00
    0.55371E+06        -0.59569E+08         0.00000E+00
    0.00000E+00         0.00000E+00        -0.59311E+08
 
   -0.59110E+08         0.53573E+06         0.00000E+00
    0.53573E+06        -0.59555E+08         0.00000E+00
    0.00000E+00         0.00000E+00        -0.59333E+08
 
   -0.59164E+08         0.51638E+06         0.00000E+00
    0.51638E+06        -0.59542E+08         0.00000E+00
    0.00000E+00         0.00000E+00        -0.59353E+08
 
   -0.59216E+08         0.49570E+06         0.00000E+00
    0.49570E+06        -0.59529E+08         0.00000E+00
    0.00000E+00         0.00000E+00        -0.59372E+08
 
   -0.59263E+08         0.47371E+06         0.00000E+00
    0.47371E+06        -0.59517E+08         0.00000E+00
    0.00000E+00         0.00000E+00        -0.59390E+08
 
   -0.59307E+08         0.45044E+06         0.00000E+00
    0.45044E+06        -0.59505E+08         0.00000E+00
    0.00000E+00         0.00000E+00        -0.59406E+08
 
   -0.59346E+08         0.42594E+06         0.00000E+00
    0.42594E+06        -0.59495E+08         0.00000E+00
    0.00000E+00         0.00000E+00        -0.59421E+08
 
   -0.59381E+08         0.40027E+06         0.00000E+00
    0.40027E+06        -0.59485E+08         0.00000E+00
    0.00000E+00         0.00000E+00        -0.59434E+08
 
   -0.59411E+08         0.37349E+06         0.00000E+00
    0.37349E+06        -0.59477E+08         0.00000E+00
    0.00000E+00         0.00000E+00        -0.59445E+08
 
   -0.59437E+08         0.34571E+06         0.00000E+00
    0.34571E+06        -0.59470E+08         0.00000E+00
    0.00000E+00         0.00000E+00        -0.59455E+08
 
   -0.59458E+08         0.31703E+06         0.00000E+00
    0.31703E+06        -0.59464E+08         0.00000E+00
    0.00000E+00         0.00000E+00        -0.59463E+08
 
   -0.59474E+08         0.28760E+06         0.00000E+00
    0.28760E+06        -0.59460E+08         0.00000E+00
    0.00000E+00         0.00000E+00        -0.59469E+08
 
   -0.59484E+08         0.25755E+06         0.00000E+00
    0.25755E+06        -0.59457E+08         0.00000E+00
    0.00000E+00         0.00000E+00        -0.59474E+08
 
   -0.59490E+08         0.22708E+06         0.00000E+00
    0.22708E+06        -0.59457E+08         0.00000E+00
    0.00000E+00         0.00000E+00        -0.59478E+08
 
   -0.59490E+08         0.19640E+06         0.00000E+00
    0.19640E+06        -0.59458E+08         0.00000E+00
    0.00000E+00         0.00000E+00        -0.59480E+08
 
   -0.59485E+08         0.16574E+06         0.00000E+00
    0.16574E+06        -0.59461E+08         0.00000E+00
    0.00000E+00         0.00000E+00        -0.59481E+08
 
   -0.56366E+08         0.33068E+05         0.00000E+00
    0.33068E+05        -0.60000E+08         0.00000E+00
    0.00000E+00         0.00000E+00        -0.58236E+08
 
   -0.56411E+08         0.97041E+05         0.00000E+00
    0.97041E+05        -0.59998E+08         0.00000E+00
    0.00000E+00         0.00000E+00        -0.58244E+08
 
   -0.56464E+08         0.15782E+06         0.00000E+00
    0.15782E+06        -0.59995E+08         0.00000E+00
    0.00000E+00         0.00000E+00        -0.58259E+08
 
   -0.56525E+08         0.21512E+06         0.00000E+00
    0.21512E+06        -0.59991E+08         0.00000E+00
    0.00000E+00         0.00000E+00        -0.58279E+08
 
   -0.56593E+08         0.26876E+06         0.00000E+00
    0.26876E+06        -0.59985E+08         0.00000E+00
    0.00000E+00         0.00000E+00        -0.58305E+08
 
   -0.56666E+08         0.31862E+06         0.00000E+00
    0.31862E+06        -0.59978E+08         0.00000E+00
    0.00000E+00         0.00000E+00        -0.58333E+08
 
   -0.56744E+08         0.36469E+06         0.00000E+00
    0.36469E+06        -0.59971E+08         0.00000E+00
    0.00000E+00         0.00000E+00        -0.58365E+08
 
   -0.56825E+08         0.40697E+06         0.00000E+00
    0.40697E+06        -0.59962E+08         0.00000E+00
    0.00000E+00         0.00000E+00        -0.58399E+08
 
   -0.56909E+08         0.44554E+06         0.00000E+00
    0.44554E+06        -0.59952E+08         0.00000E+00
    0.00000E+00         0.00000E+00        -0.58434E+08
 
   -0.56995E+08         0.48050E+06         0.00000E+00
    0.48050E+06        -0.59942E+08         0.00000E+00
    0.00000E+00         0.00000E+00        -0.58471E+08
 
   -0.57083E+08         0.51198E+06         0.00000E+00
    0.51198E+06        -0.59931E+08         0.00000E+00
    0.00000E+00         0.00000E+00        -0.58509E+08
 
   -0.57173E+08         0.54013E+06         0.00000E+00
    0.54013E+06        -0.59920E+08         0.00000E+00
    0.00000E+00         0.00000E+00        -0.58547E+08
 
   -0.57263E+08         0.56510E+06         0.00000E+00
    0.56510E+06        -0.59908E+08         0.00000E+00
    0.00000E+00         0.00000E+00        -0.58586E+08
 
   -0.57354E+08         0.58706E+06         0.00000E+00
    0.58706E+06        -0.59895E+08         0.00000E+00
    0.00000E+00         0.00000E+00        -0.58625E+08
 
   -0.57445E+08         0.60616E+06         0.00000E+00
    0.60616E+06        -0.59882E+08         0.00000E+00
    0.00000E+00         0.00000E+00        -0.58664E+08
 
   -0.57536E+08         0.62258E+06         0.00000E+00
    0.62258E+06        -0.59869E+08         0.00000E+00
    0.00000E+00         0.00000E+00        -0.58703E+08
 
   -0.57628E+08         0.63645E+06         0.00000E+00
    0.63645E+06        -0.59856E+08         0.00000E+00
    0.00000E+00         0.00000E+00        -0.58742E+08
 
   -0.57719E+08         0.64793E+06         0.00000E+00
    0.64793E+06        -0.59842E+08         0.00000E+00
    0.00000E+00         0.00000E+00        -0.58781E+08
 
   -0.57809E+08         0.65715E+06         0.00000E+00
    0.65715E+06        -0.59829E+08         0.00000E+00
    0.00000E+00         0.00000E+00        -0.58819E+08
 
   -0.57899E+08         0.66425E+06         0.00000E+00
    0.66425E+06        -0.59815E+08         0.00000E+00
    0.00000E+00         0.00000E+00        -0.58857E+08
 
   -0.57988E+08         0.66933E+06         0.00000E+00
    0.66933E+06        -0.59800E+08         0.00000E+00
    0.00000E+00         0.00000E+00        -0.58894E+08
 
   -0.58076E+08         0.67251E+06         0.00000E+00
    0.67251E+06        -0.59786E+08         0.00000E+00
    0.00000E+00         0.00000E+00        -0.58931E+08
 
   -0.58163E+08         0.67387E+06         0.00000E+00
    0.67387E+06        -0.59772E+08         0.00000E+00
    0.00000E+00         0.00000E+00        -0.58967E+08
 
   -0.58249E+08         0.67350E+06         0.00000E+00
    0.67350E+06        -0.59757E+08         0.00000E+00
    0.00000E+00         0.00000E+00        -0.59003E+08
 
   -0.58333E+08         0.67147E+06         0.00000E+00
    0.67147E+06        -0.59743E+08         0.00000E+00
    0.00000E+00         0.00000E+00        -0.59038E+08
 
   -0.58416E+08         0.66783E+06         0.00000E+00
    0.66783E+06        -0.59728E+08         0.00000E+00
    0.00000E+00         0.00000E+00        -0.59072E+08
 
   -0.58497E+08         0.66263E+06         0.00000E+00
    0.66263E+06        -0.59714E+08         0.00000E+00
    0.00000E+00         0.00000E+00        -0.59105E+08
 
   -0.58576E+08         0.65590E+06         0.00000E+00
    0.65590E+06        -0.59699E+08         0.00000E+00
    0.00000E+00         0.00000E+00        -0.59138E+08
 
   -0.58654E+08         0.64769E+06         0.00000E+00
    0.64769E+06        -0.59684E+08         0.00000E+00
    0.00000E+00         0.00000E+00        -0.59169E+08
 
   -0.58729E+08         0.63800E+06         0.00000E+00
    0.63800E+06        -0.59670E+08         0.00000E+00
    0.00000E+00         0.00000E+00        -0.59199E+08
 
   -0.58802E+08         0.62685E+06         0.00000E+00
    0.62685E+06        -0.59655E+08         0.00000E+00
    0.00000E+00         0.00000E+00        -0.59229E+08
 
   -0.58873E+08         0.61425E+06         0.00000E+00
    0.61425E+06        -0.59641E+08         0.00000E+00
    0.00000E+00         0.00000E+00        -0.59257E+08
 
   -0.58941E+08         0.60019E+06         0.00000E+00
    0.60019E+06        -0.59626E+08         0.00000E+00
    0.00000E+00         0.00000E+00        -0.59284E+08
 
   -0.59007E+08         0.58469E+06         0.00000E+00
    0.58469E+06        -0.59612E+08         0.00000E+00
    0.00000E+00         0.00000E+00        -0.59309E+08
 
   -0.59069E+08         0.56774E+06         0.00000E+00
    0.56774E+06        -0.59598E+08         0.00000E+00
    0.00000E+00         0.00000E+00        -0.59334E+08
 
   -0.59129E+08         0.54934E+06         0.00000E+00
    0.54934E+06        -0.59585E+08         0.00000E+00
    0.00000E+00         0.00000E+00        -0.59357E+08
 
   -0.59185E+08         0.52949E+06         0.00000E+00
    0.52949E+06        -0.59572E+08         0.00000E+00
    0.00000E+00         0.00000E+00        -0.59378E+08
 
   -0.59237E+08         0.50821E+06         0.00000E+00
    0.50821E+06        -0.59559E+08         0.00000E+00
    0.00000E+00         0.00000E+00        -0.59398E+08
 
   -0.59286E+08         0.48550E+06         0.00000E+00
    0.48550E+06        -0.59547E+08         0.00000E+00
    0.00000E+00         0.00000E+00        -0.59417E+08
 
   -0.59331E+08         0.46141E+06         0.00000E+00
    0.46141E+06        -0.59536E+08         0.00000E+00
    0.00000E+00         0.00000E+00        -0.59434E+08
 
   -0.59372E+08         0.43596E+06         0.00000E+00
    0.43596E+06        -0.59525E+08         0.00000E+00
    0.00000E+00         0.00000E+00        -0.59449E+08
 
   -0.59408E+08         0.40921E+06         0.00000E+00
    0.40921E+06        -0.59516E+08         0.00000E+00
    0.00000E+00         0.00000E+00        -0.59462E+08
 
   -0.59439E+08         0.38123E+06         0.00000E+00
    0.38123E+06        -0.59507E+08         0.00000E+00
    0.00000E+00         0.00000E+00        -0.59474E+08
 
   -0.59466E+08         0.35211E+06         0.00000E+00
    0.35211E+06        -0.59500E+08         0.00000E+00
    0.00000E+00         0.00000E+00        -0.59484E+08
 
   -0.59488E+08         0.32197E+06         0.00000E+00
    0.32197E+06        -0.59495E+08         0.00000E+00
    0.00000E+00         0.00000E+00        -0.59493E+08
 
   -0.59504E+08         0.29094E+06         0.00000E+00
    0.29094E+06        -0.59490E+08         0.00000E+00
    0.00000E+00         0.00000E+00        -0.59500E+08
 
   -0.59516E+08         0.25917E+06         0.00000E+00
    0.25917E+06        -0.59488E+08         0.00000E+00
    0.00000E+00         0.00000E+00        -0.59505E+08
 
   -0.59521E+08         0.22688E+06         0.00000E+00
    0.22688E+06        -0.59487E+08         0.00000E+00
    0.00000E+00         0.00000E+00        -0.59509E+08
 
   -0.59522E+08         0.19426E+06         0.00000E+00
    0.19426E+06        -0.59488E+08         0.00000E+00
    0.00000E+00         0.00000E+00        -0.59511E+08
 
   -0.59517E+08         0.16158E+06         0.00000E+00
    0.16158E+06        -0.59492E+08         0.00000E+00
    0.00000E+00         0.00000E+00        -0.59512E+08
 
   -0.56300E+08         0.33844E+05         0.00000E+00
    0.33844E+05        -0.60000E+08         0.00000E+00
    0.00000E+00         0.00000E+00        -0.58207E+08
 
   -0.56348E+08         0.99291E+05         0.00000E+00
    0.99291E+05        -0.59998E+08         0.00000E+00
    0.00000E+00         0.00000E+00        -0.58216E+08
 
   -0.56405E+08         0.16144E+06         0.00000E+00
    0.16144E+06        -0.59995E+08         0.00000E+00
    0.00000E+00         0.00000E+00        -0.58232E+08
 
   -0.56469E+08         0.21999E+06         0.00000E+00
    0.21999E+06        -0.59991E+08         0.00000E+00
    0.00000E+00         0.00000E+00        -0.58253E+08
 
   -0.56541E+08         0.27478E+06         0.00000E+00
    0.27478E+06        -0.59986E+08         0.00000E+00
    0.00000E+00         0.00000E+00        -0.58280E+08
 
   -0.56618E+08         0.32568E+06         0.00000E+00
    0.32568E+06        -0.59980E+08         0.00000E+00
    0.00000E+00         0.00000E+00        -0.58310E+08
 
   -0.56699E+08         0.37268E+06         0.00000E+00
    0.37268E+06        -0.59972E+08         0.00000E+00
    0.00000E+00         0.00000E+00        -0.58344E+08
 
   -0.56784E+08         0.41580E+06         0.00000E+00
    0.41580E+06        -0.59964E+08         0.00000E+00
    0.00000E+00         0.00000E+00        -0.58380E+08
 
   -0.56872E+08         0.45511E+06         0.00000E+00
    0.45511E+06        -0.59955E+08         0.00000E+00
    0.00000E+00         0.00000E+00        -0.58418E+08
 
   -0.56962E+08         0.49073E+06         0.00000E+00
    0.49073E+06        -0.59946E+08         0.00000E+00
    0.00000E+00         0.00000E+00        -0.58456E+08
 
   -0.57053E+08         0.52278E+06         0.00000E+00
    0.52278E+06        -0.59936E+08         0.00000E+00
    0.00000E+00         0.00000E+00        -0.58496E+08
 
   -0.57146E+08         0.55143E+06         0.00000E+00
    0.55143E+06        -0.59925E+08         0.00000E+00
    0.00000E+00         0.00000E+00        -0.58537E+08
 
   -0.57239E+08         0.57683E+06         0.00000E+00
    0.57683E+06        -0.59914E+08         0.00000E+00
    0.00000E+00         0.00000E+00        -0.58577E+08
 
   -0.57333E+08         0.59915E+06         0.00000E+00
    0.59915E+06        -0.59903E+08         0.00000E+00
    0.00000E+00         0.00000E+00        -0.58618E+08
 
   -0.57427E+08         0.61857E+06         0.00000E+00
    0.61857E+06        -0.59891E+08         0.00000E+00
    0.00000E+00         0.00000E+00        -0.58659E+08
 
   -0.57521E+08         0.63525E+06         0.00000E+00
    0.63525E+06        -0.59879E+08         0.00000E+00
    0.00000E+00         0.00000E+00        -0.58700E+08
 
   -0.57615E+08         0.64934E+06         0.00000E+00
    0.64934E+06        -0.59867E+08         0.00000E+00
    0.00000E+00         0.00000E+00        -0.58741E+08
 
   -0.57708E+08         0.66101E+06         0.00000E+00
    0.66101E+06        -0.59855E+08         0.00000E+00
    0.00000E+00         0.00000E+00        -0.58782E+08
 
   -0.57801E+08         0.67040E+06         0.00000E+00
    0.67040E+06        -0.59842E+08         0.00000E+00
    0.00000E+00         0.00000E+00        -0.58822E+08
 
   -0.57893E+08         0.67764E+06         0.00000E+00
    0.67764E+06        -0.59829E+08         0.00000E+00
    0.00000E+00         0.00000E+00        -0.58861E+08
 
   -0.57984E+08         0.68285E+06         0.00000E+00
    0.68285E+06        -0.59817E+08         0.00000E+00
    0.00000E+00         0.00000E+00        -0.58900E+08
 
   -0.58074E+08         0.68614E+06         0.00000E+00
    0.68614E+06        -0.59804E+08         0.00000E+00
    0.00000E+00         0.00000E+00        -0.58939E+08
 
   -0.58162E+08         0.68761E+06         0.00000E+00
    0.68761E+06        -0.59791E+08         0.00000E+00
    0.00000E+00         0.00000E+00        -0.58977E+08
 
   -0.58250E+08         0.68733E+06         0.00000E+00
    0.68733E+06        -0.59778E+08         0.00000E+00
    0.00000E+00         0.00000E+00        -0.59014E+08
 
   -0.58336E+08         0.68538E+06         0.00000E+00
    0.68538E+06        -0.59764E+08         0.00000E+00
    0.00000E+00         0.00000E+00        -0.59050E+08
 
   -0.58420E+08         0.68181E+06         0.00000E+00
    0.68181E+06        -0.59751E+08         0.00000E+00
    0.00000E+00         0.00000E+00        -0.59086E+08
 
   -0.58503E+08         0.67668E+06         0.00000E+00
    0.67668E+06        -0.59738E+08         0.00000E+00
    0.00000E+00         0.00000E+00        -0.59120E+08
 
   -0.58584E+08         0.67000E+06         0.00000E+00
    0.67000E+06        -0.59724E+08         0.00000E+00
    0.00000E+00         0.00000E+00        -0.59154E+08
 
   -0.58663E+08         0.66182E+06         0.00000E+00
    0.66182E+06        -0.59711E+08         0.00000E+00
    0.00000E+00         0.00000E+00        -0.59187E+08
 
   -0.58740E+08         0.65213E+06         0.00000E+00
    0.65213E+06        -0.59697E+08         0.00000E+00
    0.00000E+00         0.00000E+00        -0.59218E+08
 
   -0.58814E+08         0.64095E+06         0.00000E+00
    0.64095E+06        -0.59683E+08         0.00000E+00
    0.00000E+00         0.00000E+00        -0.59249E+08
 
   -0.58886E+08         0.62828E+06         0.00000E+00
    0.62828E+06        -0.59670E+08         0.00000E+00
    0.00000E+00         0.00000E+00        -0.59278E+08
 
   -0.58956E+08         0.61410E+06         0.00000E+00
    0.61410E+06        -0.59656E+08         0.00000E+00
    0.00000E+00         0.00000E+00        -0.59306E+08
 
   -0.59023E+08         0.59842E+06         0.00000E+00
    0.59842E+06        -0.59643E+08         0.00000E+00
    0.00000E+00         0.00000E+00        -0.59333E+08
 
   -0.59087E+08         0.58122E+06         0.00000E+00
    0.58122E+06        -0.59630E+08         0.00000E+00
    0.00000E+00         0.00000E+00        -0.59358E+08
 
   -0.59148E+08         0.56249E+06         0.00000E+00
    0.56249E+06        -0.59616E+08         0.00000E+00
    0.00000E+00         0.00000E+00        -0.59382E+08
 
   -0.59205E+08         0.54222E+06         0.00000E+00
    0.54222E+06        -0.59604E+08         0.00000E+00
    0.00000E+00         0.00000E+00        -0.59405E+08
 
   -0.59260E+08         0.52042E+06         0.00000E+00
    0.52042E+06        -0.59591E+08         0.00000E+00
    0.00000E+00         0.00000E+00        -0.59426E+08
 
   -0.59310E+08         0.49708E+06         0.00000E+00
    0.49708E+06        -0.59580E+08         0.00000E+00
    0.00000E+00         0.00000E+00        -0.59445E+08
 
   -0.59356E+08         0.47223E+06         0.00000E+00
    0.47223E+06        -0.59569E+08         0.00000E+00
    0.00000E+00         0.00000E+00        -0.59463E+08
 
   -0.59398E+08         0.44590E+06         0.00000E+00
    0.44590E+06        -0.59558E+08         0.00000E+00
    0.00000E+00         0.00000E+00        -0.59479E+08
 
   -0.59436E+08         0.41813E+06         0.00000E+00
    0.41813E+06        -0.59549E+08         0.00000E+00
    0.00000E+00         0.00000E+00        -0.59493E+08
 
   -0.59469E+08         0.38899E+06         0.00000E+00
    0.38899E+06        -0.59540E+08         0.00000E+00
    0.00000E+00         0.00000E+00        -0.59505E+08
 
   -0.59496E+08         0.35856E+06         0.00000E+00
    0.35856E+06        -0.59533E+08         0.00000E+00
    0.00000E+00         0.00000E+00        -0.59516E+08
 
   -0.59519E+08         0.32696E+06         0.00000E+00
    0.32696E+06        -0.59528E+08         0.00000E+00
    0.00000E+00         0.00000E+00        -0.59525E+08
 
   -0.59537E+08         0.29433E+06         0.00000E+00
    0.29433E+06        -0.59523E+08         0.00000E+00
    0.00000E+00         0.00000E+00        -0.59533E+08
 
   -0.59549E+08         0.26083E+06         0.00000E+00
    0.26083E+06        -0.59521E+08         0.00000E+00
    0.00000E+00         0.00000E+00        -0.59538E+08
 
   -0.59555E+08         0.22667E+06         0.00000E+00
    0.22667E+06        -0.59520E+08         0.00000E+00
    0.00000E+00         0.00000E+00        -0.59542E+08
 
   -0.59555E+08         0.19206E+06         0.00000E+00
    0.19206E+06        -0.59521E+08         0.00000E+00
    0.00000E+00         0.00000E+00        -0.59545E+08
 
   -0.59550E+08         0.15729E+06         0.00000E+00
    0.15729E+06        -0.59525E+08         0.00000E+00
    0.00000E+00         0.00000E+00        -0.59546E+08
 
   -0.56233E+08         0.34584E+05         0.00000E+00
    0.34584E+05        -0.60000E+08         0.00000E+00
    0.00000E+00         0.00000E+00        -0.58178E+08
 
   -0.56283E+08         0.10143E+06         0.00000E+00
    0.10143E+06        -0.59998E+08         0.00000E+00
    0.00000E+00         0.00000E+00        -0.58187E+08
 
   -0.56343E+08         0.16486E+06         0.00000E+00
    0.16486E+06        -0.59996E+08         0.00000E+00
    0.00000E+00         0.00000E+00        -0.58203E+08
 
   -0.56412E+08         0.22459E+06         0.00000E+00
    0.22459E+06        -0.59992E+08         0.00000E+00
    0.00000E+00         0.00000E+00        -0.58227E+08
 
   -0.56488E+08         0.28043E+06         0.00000E+00
    0.28043E+06        -0.59987E+08         0.00000E+00
    0.00000E+00         0.00000E+00        -0.58255E+08
 
   -0.56569E+08         0.33228E+06         0.00000E+00
    0.33228E+06        -0.59981E+08         0.00000E+00
    0.00000E+00         0.00000E+00        -0.58287E+08
 
   -0.56654E+08         0.38012E+06         0.00000E+00
    0.38012E+06        -0.59974E+08         0.00000E+00
    0.00000E+00         0.00000E+00        -0.58323E+08
 
   -0.56743E+08         0.42399E+06         0.00000E+00
    0.42399E+06        -0.59967E+08         0.00000E+00
    0.00000E+00         0.00000E+00        -0.58361E+08
 
   -0.56834E+08         0.46395E+06         0.00000E+00
    0.46395E+06        -0.59958E+08         0.00000E+00
    0.00000E+00         0.00000E+00        -0.58401E+08
 
   -0.56928E+08         0.50013E+06         0.00000E+00
    0.50013E+06        -0.59950E+08         0.00000E+00
    0.00000E+00         0.00000E+00        -0.58442E+08
 
   -0.57023E+08         0.53267E+06         0.00000E+00
    0.53267E+06        -0.59941E+08         0.00000E+00
    0.00000E+00         0.00000E+00        -0.58484E+08
 
   -0.57119E+08         0.56173E+06         0.00000E+00
    0.56173E+06        -0.59931E+08         0.00000E+00
    0.00000E+00         0.00000E+00        -0.58526E+08
 
   -0.57215E+08         0.58748E+06         0.00000E+00
    0.58748E+06        -0.59921E+08         0.00000E+00
    0.00000E+00         0.00000E+00        -0.58569E+08
 
   -0.57312E+08         0.61010E+06         0.00000E+00
    0.61010E+06        -0.59911E+08         0.00000E+00
    0.00000E+00         0.00000E+00        -0.58612E+08
 
   -0.57409E+08         0.62977E+06         0.00000E+00
    0.62977E+06        -0.59900E+08         0.00000E+00
    0.00000E+00         0.00000E+00        -0.58655E+08
 
   -0.57506E+08         0.64665E+06         0.00000E+00
    0.64665E+06        -0.59890E+08         0.00000E+00
    0.00000E+00         0.00000E+00        -0.58698E+08
 
   -0.57602E+08         0.66093E+06         0.00000E+00
    0.66093E+06        -0.59879E+08         0.00000E+00
    0.00000E+00         0.00000E+00        -0.58741E+08
 
   -0.57698E+08         0.67275E+06         0.00000E+00
    0.67275E+06        -0.59868E+08         0.00000E+00
    0.00000E+00         0.00000E+00        -0.58783E+08
 
   -0.57793E+08         0.68228E+06         0.00000E+00
    0.68228E+06        -0.59857E+08         0.00000E+00
    0.00000E+00         0.00000E+00        -0.58825E+08
 
   -0.57887E+08         0.68964E+06         0.00000E+00
    0.68964E+06        -0.59846E+08         0.00000E+00
    0.00000E+00         0.00000E+00        -0.58866E+08
 
   -0.57980E+08         0.69497E+06         0.00000E+00
    0.69497E+06        -0.59834E+08         0.00000E+00
    0.00000E+00         0.00000E+00        -0.58907E+08
 
   -0.58071E+08         0.69838E+06         0.00000E+00
    0.69838E+06        -0.59823E+08         0.00000E+00
    0.00000E+00         0.00000E+00        -0.58947E+08
 
   -0.58162E+08         0.69995E+06         0.00000E+00
    0.69995E+06        -0.59811E+08         0.00000E+00
    0.00000E+00         0.00000E+00        -0.58987E+08
 
   -0.58251E+08         0.69979E+06         0.00000E+00
    0.69979E+06        -0.59800E+08         0.00000E+00
    0.00000E+00         0.00000E+00        -0.59025E+08
 
   -0.58338E+08         0.69796E+06         0.00000E+00
    0.69796E+06        -0.59788E+08         0.00000E+00
    0.00000E+00         0.00000E+00        -0.59063E+08
 
   -0.58424E+08         0.69451E+06         0.00000E+00
    0.69451E+06        -0.59776E+08         0.00000E+00
    0.00000E+00         0.00000E+00        -0.59100E+08
 
   -0.58509E+08         0.68949E+06         0.00000E+00
    0.68949E+06        -0.59764E+08         0.00000E+00
    0.00000E+00         0.00000E+00        -0.59136E+08
 
   -0.58591E+08         0.68292E+06         0.00000E+00
    0.68292E+06        -0.59752E+08         0.00000E+00
    0.00000E+00         0.00000E+00        -0.59171E+08
 
   -0.58672E+08         0.67483E+06         0.00000E+00
    0.67483E+06        -0.59739E+08         0.00000E+00
    0.00000E+00         0.00000E+00        -0.59205E+08
 
   -0.58750E+08         0.66522E+06         0.00000E+00
    0.66522E+06        -0.59727E+08         0.00000E+00
    0.00000E+00         0.00000E+00        -0.59238E+08
 
   -0.58826E+08         0.65409E+06         0.00000E+00
    0.65409E+06        -0.59714E+08         0.00000E+00
    0.00000E+00         0.00000E+00        -0.59270E+08
 
   -0.58900E+08         0.64144E+06         0.00000E+00
    0.64144E+06        -0.59701E+08         0.00000E+00
    0.00000E+00         0.00000E+00        -0.59301E+08
 
   -0.58971E+08         0.62724E+06         0.00000E+00
    0.62724E+06        -0.59689E+08         0.00000E+00
    0.00000E+00         0.00000E+00        -0.59330E+08
 
   -0.59039E+08         0.61147E+06         0.00000E+00
    0.61147E+06        -0.59676E+08         0.00000E+00
    0.00000E+00         0.00000E+00        -0.59358E+08
 
   -0.59105E+08         0.59411E+06         0.00000E+00
    0.59411E+06        -0.59663E+08         0.00000E+00
    0.00000E+00         0.00000E+00        -0.59384E+08
 
   -0.59168E+08         0.57515E+06         0.00000E+00
    0.57515E+06        -0.59651E+08         0.00000E+00
    0.00000E+00         0.00000E+00        -0.59409E+08
 
   -0.59227E+08         0.55455E+06         0.00000E+00
    0.55455E+06        -0.59639E+08         0.00000E+00
    0.00000E+00         0.00000E+00        -0.59433E+08
 
   -0.59282E+08         0.53232E+06         0.00000E+00
    0.53232E+06        -0.59627E+08         0.00000E+00
    0.00000E+00         0.00000E+00        -0.59455E+08
 
   -0.59334E+08         0.50843E+06         0.00000E+00
    0.50843E+06        -0.59615E+08         0.00000E+00
    0.00000E+00         0.00000E+00        -0.59475E+08
 
   -0.59382E+08         0.48291E+06         0.00000E+00
    0.48291E+06        -0.59604E+08         0.00000E+00
    0.00000E+00         0.00000E+00        -0.59494E+08
 
   -0.59426E+08         0.45576E+06         0.00000E+00
    0.45576E+06        -0.59594E+08         0.00000E+00
    0.00000E+00         0.00000E+00        -0.59510E+08
 
   -0.59465E+08         0.42703E+06         0.00000E+00
    0.42703E+06        -0.59585E+08         0.00000E+00
    0.00000E+00         0.00000E+00        -0.59525E+08
 
   -0.59499E+08         0.39678E+06         0.00000E+00
    0.39678E+06        -0.59576E+08         0.00000E+00
    0.00000E+00         0.00000E+00        -0.59539E+08
 
   -0.59528E+08         0.36508E+06         0.00000E+00
    0.36508E+06        -0.59569E+08         0.00000E+00
    0.00000E+00         0.00000E+00        -0.59550E+08
 
   -0.59552E+08         0.33205E+06         0.00000E+00
    0.33205E+06        -0.59563E+08         0.00000E+00
    0.00000E+00         0.00000E+00        -0.59560E+08
 
   -0.59571E+08         0.29782E+06         0.00000E+00
    0.29782E+06        -0.59559E+08         0.00000E+00
    0.00000E+00         0.00000E+00        -0.59567E+08
 
   -0.59583E+08         0.26257E+06         0.00000E+00
    0.26257E+06        -0.59556E+08         0.00000E+00
    0.00000E+00         0.00000E+00        -0.59573E+08
 
   -0.59590E+08         0.22650E+06         0.00000E+00
    0.22650E+06        -0.59555E+08         0.00000E+00
    0.00000E+00         0.00000E+00        -0.59578E+08
 
   -0.59591E+08         0.18985E+06         0.00000E+00
    0.18985E+06        -0.59557E+08         0.00000E+00
    0.00000E+00         0.00000E+00        -0.59580E+08
 
   -0.59586E+08         0.15290E+06         0.00000E+00
    0.15290E+06        -0.59560E+08         0.00000E+00
    0.00000E+00         0.00000E+00        -0.59582E+08
 
   -0.56163E+08         0.35282E+05         0.00000E+00
    0.35282E+05        -0.60000E+08         0.00000E+00
    0.00000E+00         0.00000E+00        -0.58148E+08
 
   -0.56217E+08         0.10344E+06         0.00000E+00
    0.10344E+06        -0.59998E+08         0.00000E+00
    0.00000E+00         0.00000E+00        -0.58157E+08
 
   -0.56281E+08         0.16806E+06         0.00000E+00
    0.16806E+06        -0.59996E+08         0.00000E+00
    0.00000E+00         0.00000E+00        -0.58175E+08
 
   -0.56354E+08         0.22887E+06         0.00000E+00
    0.22887E+06        -0.59992E+08         0.00000E+00
    0.00000E+00         0.00000E+00        -0.58199E+08
 
   -0.56433E+08         0.28568E+06         0.00000E+00
    0.28568E+06        -0.59988E+08         0.00000E+00
    0.00000E+00         0.00000E+00        -0.58229E+08
 
   -0.56518E+08         0.33839E+06         0.00000E+00
    0.33839E+06        -0.59982E+08         0.00000E+00
    0.00000E+00         0.00000E+00        -0.58264E+08
 
   -0.56608E+08         0.38697E+06         0.00000E+00
    0.38697E+06        -0.59976E+08         0.00000E+00
    0.00000E+00         0.00000E+00        -0.58301E+08
 
   -0.56701E+08         0.43148E+06         0.00000E+00
    0.43148E+06        -0.59969E+08         0.00000E+00
    0.00000E+00         0.00000E+00        -0.58341E+08
 
   -0.56796E+08         0.47200E+06         0.00000E+00
    0.47200E+06        -0.59962E+08         0.00000E+00
    0.00000E+00         0.00000E+00        -0.58383E+08
 
   -0.56893E+08         0.50865E+06         0.00000E+00
    0.50865E+06        -0.59954E+08         0.00000E+00
    0.00000E+00         0.00000E+00        -0.58427E+08
 
   -0.56992E+08         0.54158E+06         0.00000E+00
    0.54158E+06        -0.59946E+08         0.00000E+00
    0.00000E+00         0.00000E+00        -0.58471E+08
 
   -0.57091E+08         0.57096E+06         0.00000E+00
    0.57096E+06        -0.59937E+08         0.00000E+00
    0.00000E+00         0.00000E+00        -0.58516E+08
 
   -0.57191E+08         0.59698E+06         0.00000E+00
    0.59698E+06        -0.59928E+08         0.00000E+00
    0.00000E+00         0.00000E+00        -0.58561E+08
 
   -0.57291E+08         0.61982E+06         0.00000E+00
    0.61982E+06        -0.59919E+08         0.00000E+00
    0.00000E+00         0.00000E+00        -0.58606E+08
 
   -0.57391E+08         0.63966E+06         0.00000E+00
    0.63966E+06        -0.59910E+08         0.00000E+00
    0.00000E+00         0.00000E+00        -0.58651E+08
 
   -0.57490E+08         0.65670E+06         0.00000E+00
    0.65670E+06        -0.59901E+08         0.00000E+00
    0.00000E+00         0.00000E+00        -0.58696E+08
 
   -0.57589E+08         0.67110E+06         0.00000E+00
    0.67110E+06        -0.59892E+08         0.00000E+00
    0.00000E+00         0.00000E+00        -0.58740E+08
 
   -0.57687E+08         0.68304E+06         0.00000E+00
    0.68304E+06        -0.59882E+08         0.00000E+00
    0.00000E+00         0.00000E+00        -0.58785E+08
 
   -0.57784E+08         0.69267E+06         0.00000E+00
    0.69267E+06        -0.59873E+08         0.00000E+00
    0.00000E+00         0.00000E+00        -0.58828E+08
 
   -0.57880E+08         0.70013E+06         0.00000E+00
    0.70013E+06        -0.59863E+08         0.00000E+00
    0.00000E+00         0.00000E+00        -0.58872E+08
 
   -0.57975E+08         0.70557E+06         0.00000E+00
    0.70557E+06        -0.59853E+08         0.00000E+00
    0.00000E+00         0.00000E+00        -0.58914E+08
 
   -0.58069E+08         0.70909E+06         0.00000E+00
    0.70909E+06        -0.59843E+08         0.00000E+00
    0.00000E+00         0.00000E+00        -0.58956E+08
 
   -0.58161E+08         0.71079E+06         0.00000E+00
    0.71079E+06        -0.59833E+08         0.00000E+00
    0.00000E+00         0.00000E+00        -0.58997E+08
 
   -0.58252E+08         0.71077E+06         0.00000E+00
    0.71077E+06        -0.59823E+08         0.00000E+00
    0.00000E+00         0.00000E+00        -0.59038E+08
 
   -0.58341E+08         0.70909E+06         0.00000E+00
    0.70909E+06        -0.59813E+08         0.00000E+00
    0.00000E+00         0.00000E+00        -0.59077E+08
 
   -0.58429E+08         0.70580E+06         0.00000E+00
    0.70580E+06        -0.59803E+08         0.00000E+00
    0.00000E+00         0.00000E+00        -0.59116E+08
 
   -0.58514E+08         0.70095E+06         0.00000E+00
    0.70095E+06        -0.59792E+08         0.00000E+00
    0.00000E+00         0.00000E+00        -0.59153E+08
 
   -0.58598E+08         0.69455E+06         0.00000E+00
    0.69455E+06        -0.59781E+08         0.00000E+00
    0.00000E+00         0.00000E+00        -0.59190E+08
 
   -0.58680E+08         0.68663E+06         0.00000E+00
    0.68663E+06        -0.59770E+08         0.00000E+00
    0.00000E+00         0.00000E+00        -0.59225E+08
 
   -0.58760E+08         0.67718E+06         0.00000E+00
    0.67718E+06        -0.59759E+08         0.00000E+00
    0.00000E+00         0.00000E+00        -0.59259E+08
 
   -0.58838E+08         0.66620E+06         0.00000E+00
    0.66620E+06        -0.59747E+08         0.00000E+00
    0.00000E+00         0.00000E+00        -0.59293E+08
 
   -0.58913E+08         0.65365E+06         0.00000E+00
    0.65365E+06        -0.59736E+08         0.00000E+00
    0.00000E+00         0.00000E+00        -0.59324E+08
 
   -0.58986E+08         0.63952E+06         0.00000E+00
    0.63952E+06        -0.59724E+08         0.00000E+00
    0.00000E+00         0.00000E+00        -0.59355E+08
 
   -0.59056E+08         0.62377E+06         0.00000E+00
    0.62377E+06        -0.59712E+08         0.00000E+00
    0.00000E+00         0.00000E+00        -0.59384E+08
 
   -0.59123E+08         0.60637E+06         0.00000E+00
    0.60637E+06        -0.59700E+08         0.00000E+00
    0.00000E+00         0.00000E+00        -0.59412E+08
 
   -0.59187E+08         0.58727E+06         0.00000E+00
    0.58727E+06        -0.59688E+08         0.00000E+00
    0.00000E+00         0.00000E+00        -0.59438E+08
 
   -0.59248E+08         0.56646E+06         0.00000E+00
    0.56646E+06        -0.59677E+08         0.00000E+00
    0.00000E+00         0.00000E+00        -0.59462E+08
 
   -0.59306E+08         0.54389E+06         0.00000E+00
    0.54389E+06        -0.59665E+08         0.00000E+00
    0.00000E+00         0.00000E+00        -0.59485E+08
 
   -0.59359E+08         0.51956E+06         0.00000E+00
    0.51956E+06        -0.59654E+08         0.00000E+00
    0.00000E+00         0.00000E+00        -0.59507E+08
 
   -0.59409E+08         0.49345E+06         0.00000E+00
    0.49345E+06        -0.59643E+08         0.00000E+00
    0.00000E+00         0.00000E+00        -0.59526E+08
 
   -0.59454E+08         0.46557E+06         0.00000E+00
    0.46557E+06        -0.59633E+08         0.00000E+00
    0.00000E+00         0.00000E+00        -0.59544E+08
 
   -0.59495E+08         0.43595E+06         0.00000E+00
    0.43595E+06        -0.59624E+08         0.00000E+00
    0.00000E+00         0.00000E+00        -0.59560E+08
 
   -0.59531E+08         0.40464E+06         0.00000E+00
    0.40464E+06        -0.59615E+08         0.00000E+00
    0.00000E+00         0.00000E+00        -0.59574E+08
 
   -0.59561E+08         0.37171E+06         0.00000E+00
    0.37171E+06        -0.59608E+08         0.00000E+00
    0.00000E+00         0.00000E+00        -0.59586E+08
 
   -0.59587E+08         0.33727E+06         0.00000E+00
    0.33727E+06        -0.59602E+08         0.00000E+00
    0.00000E+00         0.00000E+00        -0.59596E+08
 
   -0.59606E+08         0.30145E+06         0.00000E+00
    0.30145E+06        -0.59597E+08         0.00000E+00
    0.00000E+00         0.00000E+00        -0.59604E+08
 
   -0.59620E+08         0.26443E+06         0.00000E+00
    0.26443E+06        -0.59594E+08         0.00000E+00
    0.00000E+00         0.00000E+00        -0.59611E+08
 
   -0.59628E+08         0.22642E+06         0.00000E+00
    0.22642E+06        -0.59593E+08         0.00000E+00
    0.00000E+00         0.00000E+00        -0.59615E+08
 
   -0.59629E+08         0.18767E+06         0.00000E+00
    0.18767E+06        -0.59595E+08         0.00000E+00
    0.00000E+00         0.00000E+00        -0.59618E+08
 
   -0.59624E+08         0.14847E+06         0.00000E+00
    0.14847E+06        -0.59598E+08         0.00000E+00
    0.00000E+00         0.00000E+00        -0.59620E+08
 
   -0.56093E+08         0.35935E+05         0.00000E+00
    0.35935E+05        -0.60000E+08         0.00000E+00
    0.00000E+00         0.00000E+00        -0.58117E+08
 
   -0.56150E+08         0.10531E+06         0.00000E+00
    0.10531E+06        -0.59998E+08         0.00000E+00
    0.00000E+00         0.00000E+00        -0.58127E+08
 
   -0.56218E+08         0.17104E+06         0.00000E+00
    0.17104E+06        -0.59996E+08         0.00000E+00
    0.00000E+00         0.00000E+00        -0.58146E+08
 
   -0.56294E+08         0.23283E+06         0.00000E+00
    0.23283E+06        -0.59993E+08         0.00000E+00
    0.00000E+00         0.00000E+00        -0.58172E+08
 
   -0.56378E+08         0.29049E+06         0.00000E+00
    0.29049E+06        -0.59989E+08         0.00000E+00
    0.00000E+00         0.00000E+00        -0.58204E+08
 
   -0.56467E+08         0.34395E+06         0.00000E+00
    0.34395E+06        -0.59984E+08         0.00000E+00
    0.00000E+00         0.00000E+00        -0.58240E+08
 
   -0.56561E+08         0.39318E+06         0.00000E+00
    0.39318E+06        -0.59978E+08         0.00000E+00
    0.00000E+00         0.00000E+00        -0.58280E+08
 
   -0.56658E+08         0.43823E+06         0.00000E+00
    0.43823E+06        -0.59972E+08         0.00000E+00
    0.00000E+00         0.00000E+00        -0.58322E+08
 
   -0.56757E+08         0.47919E+06         0.00000E+00
    0.47919E+06        -0.59966E+08         0.00000E+00
    0.00000E+00         0.00000E+00        -0.58366E+08
 
   -0.56858E+08         0.51620E+06         0.00000E+00
    0.51620E+06        -0.59959E+08         0.00000E+00
    0.00000E+00         0.00000E+00        -0.58412E+08
 
   -0.56960E+08         0.54943E+06         0.00000E+00
    0.54943E+06        -0.59951E+08         0.00000E+00
    0.00000E+00         0.00000E+00        -0.58458E+08
 
   -0.57063E+08         0.57904E+06         0.00000E+00
    0.57904E+06        -0.59944E+08         0.00000E+00
    0.00000E+00         0.00000E+00        -0.58505E+08
 
   -0.57167E+08         0.60524E+06         0.00000E+00
    0.60524E+06        -0.59937E+08         0.00000E+00
    0.00000E+00         0.00000E+00        -0.58553E+08
 
   -0.57270E+08         0.62821E+06         0.00000E+00
    0.62821E+06        -0.59929E+08         0.00000E+00
    0.00000E+00         0.00000E+00        -0.58600E+08
 
   -0.57372E+08         0.64816E+06         0.00000E+00
    0.64816E+06        -0.59921E+08         0.00000E+00
    0.00000E+00         0.00000E+00        -0.58647E+08
 
   -0.57474E+08         0.66527E+06         0.00000E+00
    0.66527E+06        -0.59913E+08         0.00000E+00
    0.00000E+00         0.00000E+00        -0.58694E+08
 
   -0.57576E+08         0.67975E+06         0.00000E+00
    0.67975E+06        -0.59906E+08         0.00000E+00
    0.00000E+00         0.00000E+00        -0.58741E+08
 
   -0.57676E+08         0.69175E+06         0.00000E+00
    0.69175E+06        -0.59898E+08         0.00000E+00
    0.00000E+00         0.00000E+00        -0.58787E+08
 
   -0.57776E+08         0.70145E+06         0.00000E+00
    0.70145E+06        -0.59890E+08         0.00000E+00
    0.00000E+00         0.00000E+00        -0.58833E+08
 
   -0.57874E+08         0.70899E+06         0.00000E+00
    0.70899E+06        -0.59882E+08         0.00000E+00
    0.00000E+00         0.00000E+00        -0.58878E+08
 
   -0.57971E+08         0.71452E+06         0.00000E+00
    0.71452E+06        -0.59874E+08         0.00000E+00
    0.00000E+00         0.00000E+00        -0.58922E+08
 
   -0.58066E+08         0.71816E+06         0.00000E+00
    0.71816E+06        -0.59866E+08         0.00000E+00
    0.00000E+00         0.00000E+00        -0.58966E+08
 
   -0.58160E+08         0.72000E+06         0.00000E+00
    0.72000E+06        -0.59857E+08         0.00000E+00
    0.00000E+00         0.00000E+00        -0.59009E+08
 
   -0.58253E+08         0.72014E+06         0.00000E+00
    0.72014E+06        -0.59849E+08         0.00000E+00
    0.00000E+00         0.00000E+00        -0.59051E+08
 
   -0.58343E+08         0.71864E+06         0.00000E+00
    0.71864E+06        -0.59840E+08         0.00000E+00
    0.00000E+00         0.00000E+00        -0.59092E+08
 
   -0.58433E+08         0.71556E+06         0.00000E+00
    0.71556E+06        -0.59831E+08         0.00000E+00
    0.00000E+00         0.00000E+00        -0.59132E+08
 
   -0.58520E+08         0.71094E+06         0.00000E+00
    0.71094E+06        -0.59822E+08         0.00000E+00
    0.00000E+00         0.00000E+00        -0.59171E+08
 
   -0.58605E+08         0.70479E+06         0.00000E+00
    0.70479E+06        -0.59813E+08         0.00000E+00
    0.00000E+00         0.00000E+00        -0.59209E+08
 
   -0.58689E+08         0.69712E+06         0.00000E+00
    0.69712E+06        -0.59803E+08         0.00000E+00
    0.00000E+00         0.00000E+00        -0.59246E+08
 
   -0.58770E+08         0.68791E+06         0.00000E+00
    0.68791E+06        -0.59793E+08         0.00000E+00
    0.00000E+00         0.00000E+00        -0.59282E+08
 
   -0.58849E+08         0.67716E+06         0.00000E+00
    0.67716E+06        -0.59783E+08         0.00000E+00
    0.00000E+00         0.00000E+00        -0.59316E+08
 
   -0.58926E+08         0.66483E+06         0.00000E+00
    0.66483E+06        -0.59773E+08         0.00000E+00
    0.00000E+00         0.00000E+00        -0.59350E+08
 
   -0.59001E+08         0.65088E+06         0.00000E+00
    0.65088E+06        -0.59762E+08         0.00000E+00
    0.00000E+00         0.00000E+00        -0.59381E+08
 
   -0.59073E+08         0.63526E+06         0.00000E+00
    0.63526E+06        -0.59751E+08         0.00000E+00
    0.00000E+00         0.00000E+00        -0.59412E+08
 
   -0.59141E+08         0.61793E+06         0.00000E+00
    0.61793E+06        -0.59740E+08         0.00000E+00
    0.00000E+00         0.00000E+00        -0.59441E+08
 
   -0.59207E+08         0.59882E+06         0.00000E+00
    0.59882E+06        -0.59729E+08         0.00000E+00
    0.00000E+00         0.00000E+00        -0.59468E+08
 
   -0.59270E+08         0.57790E+06         0.00000E+00
    0.57790E+06        -0.59717E+08         0.00000E+00
    0.00000E+00         0.00000E+00        -0.59494E+08
 
   -0.59329E+08         0.55512E+06         0.00000E+00
    0.55512E+06        -0.59706E+08         0.00000E+00
    0.00000E+00         0.00000E+00        -0.59518E+08
 
   -0.59385E+08         0.53044E+06         0.00000E+00
    0.53044E+06        -0.59695E+08         0.00000E+00
    0.00000E+00         0.00000E+00        -0.59540E+08
 
   -0.59436E+08         0.50385E+06         0.00000E+00
    0.50385E+06        -0.59685E+08         0.00000E+00
    0.00000E+00         0.00000E+00        -0.59561E+08
 
   -0.59483E+08         0.47533E+06         0.00000E+00
    0.47533E+06        -0.59675E+08         0.00000E+00
    0.00000E+00         0.00000E+00        -0.59579E+08
 
   -0.59526E+08         0.44490E+06         0.00000E+00
    0.44490E+06        -0.59665E+08         0.00000E+00
    0.00000E+00         0.00000E+00        -0.59596E+08
 
   -0.59563E+08         0.41260E+06         0.00000E+00
    0.41260E+06        -0.59657E+08         0.00000E+00
    0.00000E+00         0.00000E+00        -0.59611E+08
 
   -0.59596E+08         0.37849E+06         0.00000E+00
    0.37849E+06        -0.59649E+08         0.00000E+00
    0.00000E+00         0.00000E+00        -0.59624E+08
 
   -0.59622E+08         0.34267E+06         0.00000E+00
    0.34267E+06        -0.59643E+08         0.00000E+00
    0.00000E+00         0.00000E+00        -0.59635E+08
 
   -0.59643E+08         0.30528E+06         0.00000E+00
    0.30528E+06        -0.59639E+08         0.00000E+00
    0.00000E+00         0.00000E+00        -0.59644E+08
 
   -0.59658E+08         0.26648E+06         0.00000E+00
    0.26648E+06        -0.59636E+08         0.00000E+00
    0.00000E+00         0.00000E+00        -0.59651E+08
 
   -0.59667E+08         0.22649E+06         0.00000E+00
    0.22649E+06        -0.59634E+08         0.00000E+00
    0.00000E+00         0.00000E+00        -0.59656E+08
 
   -0.59669E+08         0.18558E+06         0.00000E+00
    0.18558E+06        -0.59635E+08         0.00000E+00
    0.00000E+00         0.00000E+00        -0.59659E+08
 
   -0.59665E+08         0.14405E+06         0.00000E+00
    0.14405E+06        -0.59638E+08         0.00000E+00
    0.00000E+00         0.00000E+00        -0.59660E+08
 
   -0.56021E+08         0.36538E+05         0.00000E+00
    0.36538E+05        -0.60000E+08         0.00000E+00
    0.00000E+00         0.00000E+00        -0.58086E+08
 
   -0.56082E+08         0.10703E+06         0.00000E+00
    0.10703E+06        -0.59999E+08         0.00000E+00
    0.00000E+00         0.00000E+00        -0.58097E+08
 
   -0.56154E+08         0.17375E+06         0.00000E+00
    0.17375E+06        -0.59997E+08         0.00000E+00
    0.00000E+00         0.00000E+00        -0.58117E+08
 
   -0.56234E+08         0.23641E+06         0.00000E+00
    0.23641E+06        -0.59994E+08         0.00000E+00
    0.00000E+00         0.00000E+00        -0.58144E+08
 
   -0.56322E+08         0.29483E+06         0.00000E+00
    0.29483E+06        -0.59990E+08         0.00000E+00
    0.00000E+00         0.00000E+00        -0.58178E+08
 
   -0.56416E+08         0.34893E+06         0.00000E+00
    0.34893E+06        -0.59985E+08         0.00000E+00
    0.00000E+00         0.00000E+00        -0.58216E+08
 
   -0.56513E+08         0.39868E+06         0.00000E+00
    0.39868E+06        -0.59980E+08         0.00000E+00
    0.00000E+00         0.00000E+00        -0.58258E+08
 
   -0.56615E+08         0.44416E+06         0.00000E+00
    0.44416E+06        -0.59975E+08         0.00000E+00
    0.00000E+00         0.00000E+00        -0.58302E+08
 
   -0.56718E+08         0.48546E+06         0.00000E+00
    0.48546E+06        -0.59970E+08         0.00000E+00
    0.00000E+00         0.00000E+00        -0.58349E+08
 
   -0.56823E+08         0.52273E+06         0.00000E+00
    0.52273E+06        -0.59964E+08         0.00000E+00
    0.00000E+00         0.00000E+00        -0.58397E+08
 
   -0.56929E+08         0.55614E+06         0.00000E+00
    0.55614E+06        -0.59958E+08         0.00000E+00
    0.00000E+00         0.00000E+00        -0.58446E+08
 
   -0.57035E+08         0.58588E+06         0.00000E+00
    0.58588E+06        -0.59951E+08         0.00000E+00
    0.00000E+00         0.00000E+00        -0.58495E+08
 
   -0.57142E+08         0.61216E+06         0.00000E+00
    0.61216E+06        -0.59945E+08         0.00000E+00
    0.00000E+00         0.00000E+00        -0.58545E+08
 
   -0.57248E+08         0.63517E+06         0.00000E+00
    0.63517E+06        -0.59939E+08         0.00000E+00
    0.00000E+00         0.00000E+00        -0.58594E+08
 
   -0.57354E+08         0.65515E+06         0.00000E+00
    0.65515E+06        -0.59933E+08         0.00000E+00
    0.00000E+00         0.00000E+00        -0.58644E+08
 
   -0.57459E+08         0.67227E+06         0.00000E+00
    0.67227E+06        -0.59927E+08         0.00000E+00
    0.00000E+00         0.00000E+00        -0.58693E+08
 
   -0.57563E+08         0.68675E+06         0.00000E+00
    0.68675E+06        -0.59920E+08         0.00000E+00
    0.00000E+00         0.00000E+00        -0.58742E+08
 
   -0.57665E+08         0.69877E+06         0.00000E+00
    0.69877E+06        -0.59914E+08         0.00000E+00
    0.00000E+00         0.00000E+00        -0.58790E+08
 
   -0.57767E+08         0.70849E+06         0.00000E+00
    0.70849E+06        -0.59908E+08         0.00000E+00
    0.00000E+00         0.00000E+00        -0.58838E+08
 
   -0.57867E+08         0.71609E+06         0.00000E+00
    0.71609E+06        -0.59902E+08         0.00000E+00
    0.00000E+00         0.00000E+00        -0.58885E+08
 
   -0.57966E+08         0.72170E+06         0.00000E+00
    0.72170E+06        -0.59896E+08         0.00000E+00
    0.00000E+00         0.00000E+00        -0.58931E+08
 
   -0.58063E+08         0.72545E+06         0.00000E+00
    0.72545E+06        -0.59890E+08         0.00000E+00
    0.00000E+00         0.00000E+00        -0.58976E+08
 
   -0.58159E+08         0.72744E+06         0.00000E+00
    0.72744E+06        -0.59883E+08         0.00000E+00
    0.00000E+00         0.00000E+00        -0.59021E+08
 
   -0.58253E+08         0.72776E+06         0.00000E+00
    0.72776E+06        -0.59877E+08         0.00000E+00
    0.00000E+00         0.00000E+00        -0.59065E+08
 
   -0.58346E+08         0.72649E+06         0.00000E+00
    0.72649E+06        -0.59870E+08         0.00000E+00
    0.00000E+00         0.00000E+00        -0.59108E+08
 
   -0.58436E+08         0.72367E+06         0.00000E+00
    0.72367E+06        -0.59863E+08         0.00000E+00
    0.00000E+00         0.00000E+00        -0.59149E+08
 
   -0.58525E+08         0.71933E+06         0.00000E+00
    0.71933E+06        -0.59855E+08         0.00000E+00
    0.00000E+00         0.00000E+00        -0.59190E+08
 
   -0.58612E+08         0.71350E+06         0.00000E+00
    0.71350E+06        -0.59848E+08         0.00000E+00
    0.00000E+00         0.00000E+00        -0.59230E+08
 
   -0.58697E+08         0.70616E+06         0.00000E+00
    0.70616E+06        -0.59839E+08         0.00000E+00
    0.00000E+00         0.00000E+00        -0.59268E+08
 
   -0.58780E+08         0.69731E+06         0.00000E+00
    0.69731E+06        -0.59831E+08         0.00000E+00
    0.00000E+00         0.00000E+00        -0.59305E+08
 
   -0.58861E+08         0.68690E+06         0.00000E+00
    0.68690E+06        -0.59822E+08         0.00000E+00
    0.00000E+00         0.00000E+00        -0.59341E+08
 
   -0.58939E+08         0.67489E+06         0.00000E+00
    0.67489E+06        -0.59813E+08         0.00000E+00
    0.00000E+00         0.00000E+00        -0.59376E+08
 
   -0.59015E+08         0.66124E+06         0.00000E+00
    0.66124E+06        -0.59803E+08         0.00000E+00
    0.00000E+00         0.00000E+00        -0.59409E+08
 
   -0.59089E+08         0.64588E+06         0.00000E+00
    0.64588E+06        -0.59793E+08         0.00000E+00
    0.00000E+00         0.00000E+00        -0.59441E+08
 
   -0.59160E+08         0.62874E+06         0.00000E+00
    0.62874E+06        -0.59783E+08         0.00000E+00
    0.00000E+00         0.00000E+00        -0.59471E+08
 
   -0.59227E+08         0.60975E+06         0.00000E+00
    0.60975E+06        -0.59772E+08         0.00000E+00
    0.00000E+00         0.00000E+00        -0.59500E+08
 
   -0.59292E+08         0.58885E+06         0.00000E+00
    0.58885E+06        -0.59762E+08         0.00000E+00
    0.00000E+00         0.00000E+00        -0.59527E+08
 
   -0.59353E+08         0.56598E+06         0.00000E+00
    0.56598E+06        -0.59751E+08         0.00000E+00
    0.00000E+00         0.00000E+00        -0.59552E+08
 
   -0.59410E+08         0.54108E+06         0.00000E+00
    0.54108E+06        -0.59740E+08         0.00000E+00
    0.00000E+00         0.00000E+00        -0.59576E+08
 
   -0.59464E+08         0.51412E+06         0.00000E+00
    0.51412E+06        -0.59730E+08         0.00000E+00
    0.00000E+00         0.00000E+00        -0.59597E+08
 
   -0.59513E+08         0.48506E+06         0.00000E+00
    0.48506E+06        -0.59720E+08         0.00000E+00
    0.00000E+00         0.00000E+00        -0.59617E+08
 
   -0.59557E+08         0.45391E+06         0.00000E+00
    0.45391E+06        -0.59711E+08         0.00000E+00
    0.00000E+00         0.00000E+00        -0.59635E+08
 
   -0.59597E+08         0.42070E+06         0.00000E+00
    0.42070E+06        -0.59702E+08         0.00000E+00
    0.00000E+00         0.00000E+00        -0.59650E+08
 
   -0.59631E+08         0.38546E+06         0.00000E+00
    0.38546E+06        -0.59694E+08         0.00000E+00
    0.00000E+00         0.00000E+00        -0.59664E+08
 
   -0.59660E+08         0.34831E+06         0.00000E+00
    0.34831E+06        -0.59688E+08         0.00000E+00
    0.00000E+00         0.00000E+00        -0.59676E+08
 
   -0.59682E+08         0.30935E+06         0.00000E+00
    0.30935E+06        -0.59683E+08         0.00000E+00
    0.00000E+00         0.00000E+00        -0.59685E+08
 
   -0.59699E+08         0.26877E+06         0.00000E+00
    0.26877E+06        -0.59680E+08         0.00000E+00
    0.00000E+00         0.00000E+00        -0.59693E+08
 
   -0.59709E+08         0.22679E+06         0.00000E+00
    0.22679E+06        -0.59678E+08         0.00000E+00
    0.00000E+00         0.00000E+00        -0.59698E+08
 
   -0.59712E+08         0.18366E+06         0.00000E+00
    0.18366E+06        -0.59679E+08         0.00000E+00
    0.00000E+00         0.00000E+00        -0.59702E+08
 
   -0.59708E+08         0.13972E+06         0.00000E+00
    0.13972E+06        -0.59682E+08         0.00000E+00
    0.00000E+00         0.00000E+00        -0.59704E+08
 
   -0.55949E+08         0.37087E+05         0.00000E+00
    0.37087E+05        -0.60000E+08         0.00000E+00
    0.00000E+00         0.00000E+00        -0.58054E+08
 
   -0.56013E+08         0.10859E+06         0.00000E+00
    0.10859E+06        -0.59999E+08         0.00000E+00
    0.00000E+00         0.00000E+00        -0.58066E+08
 
   -0.56089E+08         0.17619E+06         0.00000E+00
    0.17619E+06        -0.59997E+08         0.00000E+00
    0.00000E+00         0.00000E+00        -0.58087E+08
 
   -0.56173E+08         0.23961E+06         0.00000E+00
    0.23961E+06        -0.59994E+08         0.00000E+00
    0.00000E+00         0.00000E+00        -0.58116E+08
 
   -0.56266E+08         0.29866E+06         0.00000E+00
    0.29866E+06        -0.59991E+08         0.00000E+00
    0.00000E+00         0.00000E+00        -0.58151E+08
 
   -0.56363E+08         0.35327E+06         0.00000E+00
    0.35327E+06        -0.59987E+08         0.00000E+00
    0.00000E+00         0.00000E+00        -0.58192E+08
 
   -0.56466E+08         0.40344E+06         0.00000E+00
    0.40344E+06        -0.59983E+08         0.00000E+00
    0.00000E+00         0.00000E+00        -0.58236E+08
 
   -0.56571E+08         0.44922E+06         0.00000E+00
    0.44922E+06        -0.59979E+08         0.00000E+00
    0.00000E+00         0.00000E+00        -0.58283E+08
 
   -0.56679E+08         0.49074E+06         0.00000E+00
    0.49074E+06        -0.59974E+08         0.00000E+00
    0.00000E+00         0.00000E+00        -0.58332E+08
 
   -0.56788E+08         0.52814E+06         0.00000E+00
    0.52814E+06        -0.59969E+08         0.00000E+00
    0.00000E+00         0.00000E+00        -0.58382E+08
 
   -0.56897E+08         0.56163E+06         0.00000E+00
    0.56163E+06        -0.59964E+08         0.00000E+00
    0.00000E+00         0.00000E+00        -0.58433E+08
 
   -0.57007E+08         0.59139E+06         0.00000E+00
    0.59139E+06        -0.59959E+08         0.00000E+00
    0.00000E+00         0.00000E+00        -0.58485E+08
 
   -0.57117E+08         0.61764E+06         0.00000E+00
    0.61764E+06        -0.59955E+08         0.00000E+00
    0.00000E+00         0.00000E+00        -0.58537E+08
 
   -0.57227E+08         0.64061E+06         0.00000E+00
    0.64061E+06        -0.59950E+08         0.00000E+00
    0.00000E+00         0.00000E+00        -0.58589E+08
 
   -0.57335E+08         0.66051E+06         0.00000E+00
    0.66051E+06        -0.59945E+08         0.00000E+00
    0.00000E+00         0.00000E+00        -0.58641E+08
 
   -0.57443E+08         0.67757E+06         0.00000E+00
    0.67757E+06        -0.59941E+08         0.00000E+00
    0.00000E+00         0.00000E+00        -0.58692E+08
 
   -0.57549E+08         0.69199E+06         0.00000E+00
    0.69199E+06        -0.59937E+08         0.00000E+00
    0.00000E+00         0.00000E+00        -0.58743E+08
 
   -0.57655E+08         0.70396E+06         0.00000E+00
    0.70396E+06        -0.59932E+08         0.00000E+00
    0.00000E+00         0.00000E+00        -0.58794E+08
 
   -0.57758E+08         0.71367E+06         0.00000E+00
    0.71367E+06        -0.59928E+08         0.00000E+00
    0.00000E+00         0.00000E+00        -0.58843E+08
 
   -0.57861E+08         0.72129E+06         0.00000E+00
    0.72129E+06        -0.59924E+08         0.00000E+00
    0.00000E+00         0.00000E+00        -0.58892E+08
 
   -0.57961E+08         0.72696E+06         0.00000E+00
    0.72696E+06        -0.59920E+08         0.00000E+00
    0.00000E+00         0.00000E+00        -0.58940E+08
 
   -0.58060E+08         0.73081E+06         0.00000E+00
    0.73081E+06        -0.59915E+08         0.00000E+00
    0.00000E+00         0.00000E+00        -0.58988E+08
 
   -0.58158E+08         0.73296E+06         0.00000E+00
    0.73296E+06        -0.59911E+08         0.00000E+00
    0.00000E+00         0.00000E+00        -0.59034E+08
 
   -0.58254E+08         0.73350E+06         0.00000E+00
    0.73350E+06        -0.59906E+08         0.00000E+00
    0.00000E+00         0.00000E+00        -0.59080E+08
 
   -0.58348E+08         0.73249E+06         0.00000E+00
    0.73249E+06        -0.59901E+08         0.00000E+00
    0.00000E+00         0.00000E+00        -0.59124E+08
 
   -0.58440E+08         0.72998E+06         0.00000E+00
    0.72998E+06        -0.59896E+08         0.00000E+00
    0.00000E+00         0.00000E+00        -0.59168E+08
 
   -0.58530E+08         0.72600E+06         0.00000E+00
    0.72600E+06        -0.59891E+08         0.00000E+00
    0.00000E+00         0.00000E+00        -0.59210E+08
 
   -0.58619E+08         0.72056E+06         0.00000E+00
    0.72056E+06        -0.59885E+08         0.00000E+00
    0.00000E+00         0.00000E+00        -0.59252E+08
 
   -0.58705E+08         0.71365E+06         0.00000E+00
    0.71365E+06        -0.59878E+08         0.00000E+00
    0.00000E+00         0.00000E+00        -0.59292E+08
 
   -0.58789E+08         0.70524E+06         0.00000E+00
    0.70524E+06        -0.59871E+08         0.00000E+00
    0.00000E+00         0.00000E+00        -0.59330E+08
 
   -0.58872E+08         0.69529E+06         0.00000E+00
    0.69529E+06        -0.59864E+08         0.00000E+00
    0.00000E+00         0.00000E+00        -0.59368E+08
 
   -0.58952E+08         0.68374E+06         0.00000E+00
    0.68374E+06        -0.59856E+08         0.00000E+00
    0.00000E+00         0.00000E+00        -0.59404E+08
 
   -0.59030E+08         0.67051E+06         0.00000E+00
    0.67051E+06        -0.59848E+08         0.00000E+00
    0.00000E+00         0.00000E+00        -0.59439E+08
 
   -0.59105E+08         0.65554E+06         0.00000E+00
    0.65554E+06        -0.59839E+08         0.00000E+00
    0.00000E+00         0.00000E+00        -0.59472E+08
 
   -0.59178E+08         0.63874E+06         0.00000E+00
    0.63874E+06        -0.59829E+08         0.00000E+00
    0.00000E+00         0.00000E+00        -0.59503E+08
 
   -0.59247E+08         0.62001E+06         0.00000E+00
    0.62001E+06        -0.59820E+08         0.00000E+00
    0.00000E+00         0.00000E+00        -0.59533E+08
 
   -0.59314E+08         0.59928E+06         0.00000E+00
    0.59928E+06        -0.59809E+08         0.00000E+00
    0.00000E+00         0.00000E+00        -0.59562E+08
 
   -0.59377E+08         0.57645E+06         0.00000E+00
    0.57645E+06        -0.59799E+08         0.00000E+00
    0.00000E+00         0.00000E+00        -0.59588E+08
 
   -0.59436E+08         0.55146E+06         0.00000E+00
    0.55146E+06        -0.59789E+08         0.00000E+00
    0.00000E+00         0.00000E+00        -0.59613E+08
 
   -0.59492E+08         0.52425E+06         0.00000E+00
    0.52425E+06        -0.59779E+08         0.00000E+00
    0.00000E+00         0.00000E+00        -0.59636E+08
 
   -0.59543E+08         0.49478E+06         0.00000E+00
    0.49478E+06        -0.59769E+08         0.00000E+00
    0.00000E+00         0.00000E+00        -0.59657E+08
 
   -0.59590E+08         0.46301E+06         0.00000E+00
    0.46301E+06        -0.59760E+08         0.00000E+00
    0.00000E+00         0.00000E+00        -0.59675E+08
 
   -0.59632E+08         0.42897E+06         0.00000E+00
    0.42897E+06        -0.59751E+08         0.00000E+00
    0.00000E+00         0.00000E+00        -0.59692E+08
 
   -0.59668E+08         0.39268E+06         0.00000E+00
    0.39268E+06        -0.59743E+08         0.00000E+00
    0.00000E+00         0.00000E+00        -0.59707E+08
 
   -0.59699E+08         0.35424E+06         0.00000E+00
    0.35424E+06        -0.59736E+08         0.00000E+00
    0.00000E+00         0.00000E+00        -0.59719E+08
 
   -0.59723E+08         0.31375E+06         0.00000E+00
    0.31375E+06        -0.59731E+08         0.00000E+00
    0.00000E+00         0.00000E+00        -0.59729E+08
 
   -0.59741E+08         0.27139E+06         0.00000E+00
    0.27139E+06        -0.59727E+08         0.00000E+00
    0.00000E+00         0.00000E+00        -0.59738E+08
 
   -0.59752E+08         0.22738E+06         0.00000E+00
    0.22738E+06        -0.59725E+08         0.00000E+00
    0.00000E+00         0.00000E+00        -0.59743E+08
 
   -0.59756E+08         0.18199E+06         0.00000E+00
    0.18199E+06        -0.59726E+08         0.00000E+00
    0.00000E+00         0.00000E+00        -0.59747E+08
 
   -0.59753E+08         0.13556E+06         0.00000E+00
    0.13556E+06        -0.59728E+08         0.00000E+00
    0.00000E+00         0.00000E+00        -0.59749E+08
 
   -0.55875E+08         0.37576E+05         0.00000E+00
    0.37576E+05        -0.60000E+08         0.00000E+00
    0.00000E+00         0.00000E+00        -0.58023E+08
 
   -0.55943E+08         0.10996E+06         0.00000E+00
    0.10996E+06        -0.59999E+08         0.00000E+00
    0.00000E+00         0.00000E+00        -0.58035E+08
 
   -0.56023E+08         0.17832E+06         0.00000E+00
    0.17832E+06        -0.59997E+08         0.00000E+00
    0.00000E+00         0.00000E+00        -0.58057E+08
 
   -0.56112E+08         0.24238E+06         0.00000E+00
    0.24238E+06        -0.59995E+08         0.00000E+00
    0.00000E+00         0.00000E+00        -0.58088E+08
 
   -0.56209E+08         0.30194E+06         0.00000E+00
    0.30194E+06        -0.59992E+08         0.00000E+00
    0.00000E+00         0.00000E+00        -0.58125E+08
 
   -0.56311E+08         0.35694E+06         0.00000E+00
    0.35694E+06        -0.59989E+08         0.00000E+00
    0.00000E+00         0.00000E+00        -0.58167E+08
 
   -0.56418E+08         0.40738E+06         0.00000E+00
    0.40738E+06        -0.59986E+08         0.00000E+00
    0.00000E+00         0.00000E+00        -0.58214E+08
 
   -0.56527E+08         0.45334E+06         0.00000E+00
    0.45334E+06        -0.59982E+08         0.00000E+00
    0.00000E+00         0.00000E+00        -0.58263E+08
 
   -0.56639E+08         0.49495E+06         0.00000E+00
    0.49495E+06        -0.59978E+08         0.00000E+00
    0.00000E+00         0.00000E+00        -0.58315E+08
 
   -0.56752E+08         0.53237E+06         0.00000E+00
    0.53237E+06        -0.59975E+08         0.00000E+00
    0.00000E+00         0.00000E+00        -0.58368E+08
 
   -0.56866E+08         0.56580E+06         0.00000E+00
    0.56580E+06        -0.59971E+08         0.00000E+00
    0.00000E+00         0.00000E+00        -0.58421E+08
 
   -0.56980E+08         0.59546E+06         0.00000E+00
    0.59546E+06        -0.59968E+08         0.00000E+00
    0.00000E+00         0.00000E+00        -0.58476E+08
 
   -0.57093E+08         0.62158E+06         0.00000E+00
    0.62158E+06        -0.59965E+08         0.00000E+00
    0.00000E+00         0.00000E+00        -0.58530E+08
 
   -0.57205E+08         0.64440E+06         0.00000E+00
    0.64440E+06        -0.59962E+08         0.00000E+00
    0.00000E+00         0.00000E+00        -0.58584E+08
 
   -0.57317E+08         0.66414E+06         0.00000E+00
    0.66414E+06        -0.59959E+08         0.00000E+00
    0.00000E+00         0.00000E+00        -0.58638E+08
 
   -0.57427E+08         0.68104E+06         0.00000E+00
    0.68104E+06        -0.59956E+08         0.00000E+00
    0.00000E+00         0.00000E+00        -0.58692E+08
 
   -0.57536E+08         0.69532E+06         0.00000E+00
    0.69532E+06        -0.59954E+08         0.00000E+00
    0.00000E+00         0.00000E+00        -0.58745E+08
 
   -0.57644E+08         0.70719E+06         0.00000E+00
    0.70719E+06        -0.59952E+08         0.00000E+00
    0.00000E+00         0.00000E+00        -0.58798E+08
 
   -0.57750E+08         0.71683E+06         0.00000E+00
    0.71683E+06        -0.59949E+08         0.00000E+00
    0.00000E+00         0.00000E+00        -0.58850E+08
 
   -0.57854E+08         0.72443E+06         0.00000E+00
    0.72443E+06        -0.59947E+08         0.00000E+00
    0.00000E+00         0.00000E+00        -0.58901E+08
 
   -0.57956E+08         0.73014E+06         0.00000E+00
    0.73014E+06        -0.59945E+08         0.00000E+00
    0.00000E+00         0.00000E+00        -0.58951E+08
 
   -0.58057E+08         0.73410E+06         0.00000E+00
    0.73410E+06        -0.59943E+08         0.00000E+00
    0.00000E+00         0.00000E+00        -0.59000E+08
 
   -0.58156E+08         0.73642E+06         0.00000E+00
    0.73642E+06        -0.59941E+08         0.00000E+00
    0.00000E+00         0.00000E+00        -0.59049E+08
 
   -0.58254E+08         0.73719E+06         0.00000E+00
    0.73719E+06        -0.59938E+08         0.00000E+00
    0.00000E+00         0.00000E+00        -0.59096E+08
 
   -0.58349E+08         0.73648E+06         0.00000E+00
    0.73648E+06        -0.59936E+08         0.00000E+00
    0.00000E+00         0.00000E+00        -0.59142E+08
 
   -0.58443E+08         0.73434E+06         0.00000E+00
    0.73434E+06        -0.59932E+08         0.00000E+00
    0.00000E+00         0.00000E+00        -0.59188E+08
 
   -0.58535E+08         0.73079E+06         0.00000E+00
    0.73079E+06        -0.59929E+08         0.00000E+00
    0.00000E+00         0.00000E+00        -0.59232E+08
 
   -0.58624E+08         0.72584E+06         0.00000E+00
    0.72584E+06        -0.59925E+08         0.00000E+00
    0.00000E+00         0.00000E+00        -0.59275E+08
 
   -0.58712E+08         0.71945E+06         0.00000E+00
    0.71945E+06        -0.59920E+08         0.00000E+00
    0.00000E+00         0.00000E+00        -0.59316E+08
 
   -0.58798E+08         0.71160E+06         0.00000E+00
    0.71160E+06        -0.59915E+08         0.00000E+00
    0.00000E+00         0.00000E+00        -0.59357E+08
 
   -0.58882E+08         0.70223E+06         0.00000E+00
    0.70223E+06        -0.59909E+08         0.00000E+00
    0.00000E+00         0.00000E+00        -0.59396E+08
 
   -0.58964E+08         0.69126E+06         0.00000E+00
    0.69126E+06        -0.59903E+08         0.00000E+00
    0.00000E+00         0.00000E+00        -0.59433E+08
 
   -0.59044E+08         0.67861E+06         0.00000E+00
    0.67861E+06        -0.59895E+08         0.00000E+00
    0.00000E+00         0.00000E+00        -0.59469E+08
 
   -0.59121E+08         0.66417E+06         0.00000E+00
    0.66417E+06        -0.59888E+08         0.00000E+00
    0.00000E+00         0.00000E+00        -0.59504E+08
 
   -0.59195E+08         0.64785E+06         0.00000E+00
    0.64785E+06        -0.59879E+08         0.00000E+00
    0.00000E+00         0.00000E+00        -0.59537E+08
 
   -0.59267E+08         0.62954E+06         0.00000E+00
    0.62954E+06        -0.59870E+08         0.00000E+00
    0.00000E+00         0.00000E+00        -0.59569E+08
 
   -0.59335E+08         0.60913E+06         0.00000E+00
    0.60913E+06        -0.59861E+08         0.00000E+00
    0.00000E+00         0.00000E+00        -0.59598E+08
 
   -0.59401E+08         0.58651E+06         0.00000E+00
    0.58651E+06        -0.59851E+08         0.00000E+00
    0.00000E+00         0.00000E+00        -0.59626E+08
 
   -0.59463E+08         0.56158E+06         0.00000E+00
    0.56158E+06        -0.59841E+08         0.00000E+00
    0.00000E+00         0.00000E+00        -0.59652E+08
 
   -0.59520E+08         0.53426E+06         0.00000E+00
    0.53426E+06        -0.59831E+08         0.00000E+00
    0.00000E+00         0.00000E+00        -0.59676E+08
 
   -0.59574E+08         0.50450E+06         0.00000E+00
    0.50450E+06        -0.59822E+08         0.00000E+00
    0.00000E+00         0.00000E+00        -0.59698E+08
 
   -0.59623E+08         0.47223E+06         0.00000E+00
    0.47223E+06        -0.59812E+08         0.00000E+00
    0.00000E+00         0.00000E+00        -0.59718E+08
 
   -0.59667E+08         0.43746E+06         0.00000E+00
    0.43746E+06        -0.59803E+08         0.00000E+00
    0.00000E+00         0.00000E+00        -0.59736E+08
 
   -0.59706E+08         0.40020E+06         0.00000E+00
    0.40020E+06        -0.59795E+08         0.00000E+00
    0.00000E+00         0.00000E+00        -0.59752E+08
 
   -0.59739E+08         0.36053E+06         0.00000E+00
    0.36053E+06        -0.59788E+08         0.00000E+00
    0.00000E+00         0.00000E+00        -0.59765E+08
 
   -0.59765E+08         0.31854E+06         0.00000E+00
    0.31854E+06        -0.59782E+08         0.00000E+00
    0.00000E+00         0.00000E+00        -0.59776E+08
 
   -0.59785E+08         0.27441E+06         0.00000E+00
    0.27441E+06        -0.59778E+08         0.00000E+00
    0.00000E+00         0.00000E+00        -0.59785E+08
 
   -0.59798E+08         0.22835E+06         0.00000E+00
    0.22835E+06        -0.59776E+08         0.00000E+00
    0.00000E+00         0.00000E+00        -0.59791E+08
 
   -0.59804E+08         0.18065E+06         0.00000E+00
    0.18065E+06        -0.59776E+08         0.00000E+00
    0.00000E+00         0.00000E+00        -0.59796E+08
 
   -0.59801E+08         0.13166E+06         0.00000E+00
    0.13166E+06        -0.59778E+08         0.00000E+00
    0.00000E+00         0.00000E+00        -0.59798E+08
 
   -0.55800E+08         0.38001E+05         0.00000E+00
    0.38001E+05        -0.60000E+08         0.00000E+00
    0.00000E+00         0.00000E+00        -0.57990E+08
 
   -0.55872E+08         0.11114E+06         0.00000E+00
    0.11114E+06        -0.59999E+08         0.00000E+00
    0.00000E+00         0.00000E+00        -0.58003E+08
 
   -0.55956E+08         0.18013E+06         0.00000E+00
    0.18013E+06        -0.59998E+08         0.00000E+00
    0.00000E+00         0.00000E+00        -0.58027E+08
 
   -0.56050E+08         0.24469E+06         0.00000E+00
    0.24469E+06        -0.59996E+08         0.00000E+00
    0.00000E+00         0.00000E+00        -0.58059E+08
 
   -0.56151E+08         0.30462E+06         0.00000E+00
    0.30462E+06        -0.59994E+08         0.00000E+00
    0.00000E+00         0.00000E+00        -0.58098E+08
 
   -0.56258E+08         0.35988E+06         0.00000E+00
    0.35988E+06        -0.59991E+08         0.00000E+00
    0.00000E+00         0.00000E+00        -0.58143E+08
 
   -0.56369E+08         0.41046E+06         0.00000E+00
    0.41046E+06        -0.59989E+08         0.00000E+00
    0.00000E+00         0.00000E+00        -0.58192E+08
 
   -0.56484E+08         0.45646E+06         0.00000E+00
    0.45646E+06        -0.59986E+08         0.00000E+00
    0.00000E+00         0.00000E+00        -0.58244E+08
 
   -0.56600E+08         0.49802E+06         0.00000E+00
    0.49802E+06        -0.59983E+08         0.00000E+00
    0.00000E+00         0.00000E+00        -0.58298E+08
 
   -0.56717E+08         0.53532E+06         0.00000E+00
    0.53532E+06        -0.59981E+08         0.00000E+00
    0.00000E+00         0.00000E+00        -0.58353E+08
 
   -0.56834E+08         0.56857E+06         0.00000E+00
    0.56857E+06        -0.59979E+08         0.00000E+00
    0.00000E+00         0.00000E+00        -0.58410E+08
 
   -0.56952E+08         0.59800E+06         0.00000E+00
    0.59800E+06        -0.59977E+08         0.00000E+00
    0.00000E+00         0.00000E+00        -0.58466E+08
 
   -0.57069E+08         0.62387E+06         0.00000E+00
    0.62387E+06        -0.59975E+08         0.00000E+00
    0.00000E+00         0.00000E+00        -0.58523E+08
 
   -0.57184E+08         0.64641E+06         0.00000E+00
    0.64641E+06        -0.59974E+08         0.00000E+00
    0.00000E+00         0.00000E+00        -0.58580E+08
 
   -0.57299E+08         0.66589E+06         0.00000E+00
    0.66589E+06        -0.59973E+08         0.00000E+00
    0.00000E+00         0.00000E+00        -0.58637E+08
 
   -0.57412E+08         0.68255E+06         0.00000E+00
    0.68255E+06        -0.59973E+08         0.00000E+00
    0.00000E+00         0.00000E+00        -0.58693E+08
 
   -0.57523E+08         0.69661E+06         0.00000E+00
    0.69661E+06        -0.59972E+08         0.00000E+00
    0.00000E+00         0.00000E+00        -0.58748E+08
 
   -0.57633E+08         0.70830E+06         0.00000E+00
    0.70830E+06        -0.59972E+08         0.00000E+00
    0.00000E+00         0.00000E+00        -0.58803E+08
 
   -0.57741E+08         0.71783E+06         0.00000E+00
    0.71783E+06        -0.59972E+08         0.00000E+00
    0.00000E+00         0.00000E+00        -0.58857E+08
 
   -0.57847E+08         0.72537E+06         0.00000E+00
    0.72537E+06        -0.59972E+08         0.00000E+00
    0.00000E+00         0.00000E+00        -0.58910E+08
 
   -0.57952E+08         0.73110E+06         0.00000E+00
    0.73110E+06        -0.59973E+08         0.00000E+00
    0.00000E+00         0.00000E+00        -0.58962E+08
 
   -0.58054E+08         0.73515E+06         0.00000E+00
    0.73515E+06        -0.59973E+08         0.00000E+00
    0.00000E+00         0.00000E+00        -0.59014E+08
 
   -0.58155E+08         0.73765E+06         0.00000E+00
    0.73765E+06        -0.59973E+08         0.00000E+00
    0.00000E+00         0.00000E+00        -0.59064E+08
 
   -0.58253E+08         0.73868E+06         0.00000E+00
    0.73868E+06        -0.59973E+08         0.00000E+00
    0.00000E+00         0.00000E+00        -0.59113E+08
 
   -0.58350E+08         0.73832E+06         0.00000E+00
    0.73832E+06        -0.59972E+08         0.00000E+00
    0.00000E+00         0.00000E+00        -0.59161E+08
 
   -0.58445E+08         0.73660E+06         0.00000E+00
    0.73660E+06        -0.59971E+08         0.00000E+00
    0.00000E+00         0.00000E+00        -0.59208E+08
 
   -0.58539E+08         0.73356E+06         0.00000E+00
    0.73356E+06        -0.59970E+08         0.00000E+00
    0.00000E+00         0.00000E+00        -0.59254E+08
 
   -0.58630E+08         0.72917E+06         0.00000E+00
    0.72917E+06        -0.59968E+08         0.00000E+00
    0.00000E+00         0.00000E+00        -0.59299E+08
 
   -0.58719E+08         0.72342E+06         0.00000E+00
    0.72342E+06        -0.59965E+08         0.00000E+00
    0.00000E+00         0.00000E+00        -0.59342E+08
 
   -0.58807E+08         0.71625E+06         0.00000E+00
    0.71625E+06        -0.59962E+08         0.00000E+00
    0.00000E+00         0.00000E+00        -0.59384E+08
 
   -0.58892E+08         0.70759E+06         0.00000E+00
    0.70759E+06        -0.59958E+08         0.00000E+00
    0.00000E+00         0.00000E+00        -0.59425E+08
 
   -0.58975E+08         0.69734E+06         0.00000E+00
    0.69734E+06        -0.59953E+08         0.00000E+00
    0.00000E+00         0.00000E+00        -0.59464E+08
 
   -0.59057E+08         0.68542E+06         0.00000E+00
    0.68542E+06        -0.59947E+08         0.00000E+00
    0.00000E+00         0.00000E+00        -0.59502E+08
 
   -0.59136E+08         0.67168E+06         0.00000E+00
    0.67168E+06        -0.59941E+08         0.00000E+00
    0.00000E+00         0.00000E+00        -0.59538E+08
 
   -0.59212E+08         0.65602E+06         0.00000E+00
    0.65602E+06        -0.59933E+08         0.00000E+00
    0.00000E+00         0.00000E+00        -0.59573E+08
 
   -0.59286E+08         0.63829E+06         0.00000E+00
    0.63829E+06        -0.59925E+08         0.00000E+00
    0.00000E+00         0.00000E+00        -0.59606E+08
 
   -0.59357E+08         0.61837E+06         0.00000E+00
    0.61837E+06        -0.59917E+08         0.00000E+00
    0.00000E+00         0.00000E+00        -0.59637E+08
 
   -0.59424E+08         0.59612E+06         0.00000E+00
    0.59612E+06        -0.59907E+08         0.00000E+00
    0.00000E+00         0.00000E+00        -0.59666E+08
 
   -0.59489E+08         0.57142E+06         0.00000E+00
    0.57142E+06        -0.59898E+08         0.00000E+00
    0.00000E+00         0.00000E+00        -0.59693E+08
 
   -0.59549E+08         0.54415E+06         0.00000E+00
    0.54415E+06        -0.59888E+08         0.00000E+00
    0.00000E+00         0.00000E+00        -0.59719E+08
 
   -0.59605E+08         0.51424E+06         0.00000E+00
    0.51424E+06        -0.59878E+08         0.00000E+00
    0.00000E+00         0.00000E+00        -0.59742E+08
 
   -0.59657E+08         0.48160E+06         0.00000E+00
    0.48160E+06        -0.59869E+08         0.00000E+00
    0.00000E+00         0.00000E+00        -0.59763E+08
 
   -0.59704E+08         0.44622E+06         0.00000E+00
    0.44622E+06        -0.59860E+08         0.00000E+00
    0.00000E+00         0.00000E+00        -0.59782E+08
 
   -0.59745E+08         0.40809E+06         0.00000E+00
    0.40809E+06        -0.59851E+08         0.00000E+00
    0.00000E+00         0.00000E+00        -0.59799E+08
 
   -0.59780E+08         0.36725E+06         0.00000E+00
    0.36725E+06        -0.59843E+08         0.00000E+00
    0.00000E+00         0.00000E+00        -0.59813E+08
 
   -0.59809E+08         0.32382E+06         0.00000E+00
    0.32382E+06        -0.59837E+08         0.00000E+00
    0.00000E+00         0.00000E+00        -0.59825E+08
 
   -0.59831E+08         0.27793E+06         0.00000E+00
    0.27793E+06        -0.59833E+08         0.00000E+00
    0.00000E+00         0.00000E+00        -0.59835E+08
 
   -0.59846E+08         0.22982E+06         0.00000E+00
    0.22982E+06        -0.59830E+08         0.00000E+00
    0.00000E+00         0.00000E+00        -0.59842E+08
 
   -0.59853E+08         0.17977E+06         0.00000E+00
    0.17977E+06        -0.59829E+08         0.00000E+00
    0.00000E+00         0.00000E+00        -0.59847E+08
 
   -0.59852E+08         0.12813E+06         0.00000E+00
    0.12813E+06        -0.59831E+08         0.00000E+00
    0.00000E+00         0.00000E+00        -0.59849E+08
 
   -0.55725E+08         0.38357E+05         0.00000E+00
    0.38357E+05        -0.60000E+08         0.00000E+00
    0.00000E+00         0.00000E+00        -0.57958E+08
 
   -0.55801E+08         0.11212E+06         0.00000E+00
    0.11212E+06        -0.59999E+08         0.00000E+00
    0.00000E+00         0.00000E+00        -0.57972E+08
 
   -0.55889E+08         0.18160E+06         0.00000E+00
    0.18160E+06        -0.59998E+08         0.00000E+00
    0.00000E+00         0.00000E+00        -0.57996E+08
 
   -0.55987E+08         0.24650E+06         0.00000E+00
    0.24650E+06        -0.59997E+08         0.00000E+00
    0.00000E+00         0.00000E+00        -0.58030E+08
 
   -0.56093E+08         0.30667E+06         0.00000E+00
    0.30667E+06        -0.59995E+08         0.00000E+00
    0.00000E+00         0.00000E+00        -0.58072E+08
 
   -0.56205E+08         0.36203E+06         0.00000E+00
    0.36203E+06        -0.59993E+08         0.00000E+00
    0.00000E+00         0.00000E+00        -0.58119E+08
 
   -0.56321E+08         0.41261E+06         0.00000E+00
    0.41261E+06        -0.59992E+08         0.00000E+00
    0.00000E+00         0.00000E+00        -0.58170E+08
 
   -0.56440E+08         0.45850E+06         0.00000E+00
    0.45850E+06        -0.59990E+08         0.00000E+00
    0.00000E+00         0.00000E+00        -0.58225E+08
 
   -0.56560E+08         0.49986E+06         0.00000E+00
    0.49986E+06        -0.59989E+08         0.00000E+00
    0.00000E+00         0.00000E+00        -0.58281E+08
 
   -0.56682E+08         0.53690E+06         0.00000E+00
    0.53690E+06        -0.59988E+08         0.00000E+00
    0.00000E+00         0.00000E+00        -0.58339E+08
 
   -0.56803E+08         0.56982E+06         0.00000E+00
    0.56982E+06        -0.59987E+08         0.00000E+00
    0.00000E+00         0.00000E+00        -0.58398E+08
 
   -0.56924E+08         0.59890E+06         0.00000E+00
    0.59890E+06        -0.59987E+08         0.00000E+00
    0.00000E+00         0.00000E+00        -0.58458E+08
 
   -0.57045E+08         0.62438E+06         0.00000E+00
    0.62438E+06        -0.59987E+08         0.00000E+00
    0.00000E+00         0.00000E+00        -0.58517E+08
 
   -0.57163E+08         0.64654E+06         0.00000E+00
    0.64654E+06        -0.59988E+08         0.00000E+00
    0.00000E+00         0.00000E+00        -0.58576E+08
 
   -0.57281E+08         0.66564E+06         0.00000E+00
    0.66564E+06        -0.59989E+08         0.00000E+00
    0.00000E+00         0.00000E+00        -0.58635E+08
 
   -0.57397E+08         0.68195E+06         0.00000E+00
    0.68195E+06        -0.59990E+08         0.00000E+00
    0.00000E+00         0.00000E+00        -0.58694E+08
 
   -0.57511E+08         0.69570E+06         0.00000E+00
    0.69570E+06        -0.59992E+08         0.00000E+00
    0.00000E+00         0.00000E+00        -0.58752E+08
 
   -0.57623E+08         0.70715E+06         0.00000E+00
    0.70715E+06        -0.59994E+08         0.00000E+00
    0.00000E+00         0.00000E+00        -0.58809E+08
 
   -0.57733E+08         0.71649E+06         0.00000E+00
    0.71649E+06        -0.59997E+08         0.00000E+00
    0.00000E+00         0.00000E+00        -0.58865E+08
 
   -0.57841E+08         0.72394E+06         0.00000E+00
    0.72394E+06        -0.59999E+08         0.00000E+00
    0.00000E+00         0.00000E+00        -0.58920E+08
 
   -0.57947E+08         0.72965E+06         0.00000E+00
    0.72965E+06        -0.60002E+08         0.00000E+00
    0.00000E+00         0.00000E+00        -0.58974E+08
 
   -0.58051E+08         0.73379E+06         0.00000E+00
    0.73379E+06        -0.60005E+08         0.00000E+00
    0.00000E+00         0.00000E+00        -0.59028E+08
 
   -0.58153E+08         0.73647E+06         0.00000E+00
    0.73647E+06        -0.60007E+08         0.00000E+00
    0.00000E+00         0.00000E+00        -0.59080E+08
 
   -0.58253E+08         0.73779E+06         0.00000E+00
    0.73779E+06        -0.60010E+08         0.00000E+00
    0.00000E+00         0.00000E+00        -0.59131E+08
 
   -0.58351E+08         0.73782E+06         0.00000E+00
    0.73782E+06        -0.60012E+08         0.00000E+00
    0.00000E+00         0.00000E+00        -0.59181E+08
 
   -0.58448E+08         0.73659E+06         0.00000E+00
    0.73659E+06        -0.60013E+08         0.00000E+00
    0.00000E+00         0.00000E+00        -0.59230E+08
 
   -0.58542E+08         0.73413E+06         0.00000E+00
    0.73413E+06        -0.60014E+08         0.00000E+00
    0.00000E+00         0.00000E+00        -0.59278E+08
 
   -0.58635E+08         0.73042E+06         0.00000E+00
    0.73042E+06        -0.60014E+08         0.00000E+00
    0.00000E+00         0.00000E+00        -0.59324E+08
 
   -0.58725E+08         0.72541E+06         0.00000E+00
    0.72541E+06        -0.60014E+08         0.00000E+00
    0.00000E+00         0.00000E+00        -0.59369E+08
 
   -0.58814E+08         0.71905E+06         0.00000E+00
    0.71905E+06        -0.60012E+08         0.00000E+00
    0.00000E+00         0.00000E+00        -0.59413E+08
 
   -0.58901E+08         0.71124E+06         0.00000E+00
    0.71124E+06        -0.60010E+08         0.00000E+00
    0.00000E+00         0.00000E+00        -0.59455E+08
 
   -0.58986E+08         0.70188E+06         0.00000E+00
    0.70188E+06        -0.60007E+08         0.00000E+00
    0.00000E+00         0.00000E+00        -0.59496E+08
 
   -0.59069E+08         0.69084E+06         0.00000E+00
    0.69084E+06        -0.60003E+08         0.00000E+00
    0.00000E+00         0.00000E+00        -0.59536E+08
 
   -0.59150E+08         0.67798E+06         0.00000E+00
    0.67798E+06        -0.59997E+08         0.00000E+00
    0.00000E+00         0.00000E+00        -0.59574E+08
 
   -0.59228E+08         0.66316E+06         0.00000E+00
    0.66316E+06        -0.59991E+08         0.00000E+00
    0.00000E+00         0.00000E+00        -0.59610E+08
 
   -0.59304E+08         0.64620E+06         0.00000E+00
    0.64620E+06        -0.59984E+08         0.00000E+00
    0.00000E+00         0.00000E+00        -0.59644E+08
 
   -0.59377E+08         0.62695E+06         0.00000E+00
    0.62695E+06        -0.59976E+08         0.00000E+00
    0.00000E+00         0.00000E+00        -0.59677E+08
 
   -0.59448E+08         0.60526E+06         0.00000E+00
    0.60526E+06        -0.59968E+08         0.00000E+00
    0.00000E+00         0.00000E+00        -0.59708E+08
 
   -0.59514E+08         0.58096E+06         0.00000E+00
    0.58096E+06        -0.59959E+08         0.00000E+00
    0.00000E+00         0.00000E+00        -0.59737E+08
 
   -0.59578E+08         0.55392E+06         0.00000E+00
    0.55392E+06        -0.59949E+08         0.00000E+00
    0.00000E+00         0.00000E+00        -0.59763E+08
 
   -0.59637E+08         0.52402E+06         0.00000E+00
    0.52402E+06        -0.59939E+08         0.00000E+00
    0.00000E+00         0.00000E+00        -0.59788E+08
 
   -0.59691E+08         0.49117E+06         0.00000E+00
    0.49117E+06        -0.59930E+08         0.00000E+00
    0.00000E+00         0.00000E+00        -0.59811E+08
 
   -0.59741E+08         0.45530E+06         0.00000E+00
    0.45530E+06        -0.59920E+08         0.00000E+00
    0.00000E+00         0.00000E+00        -0.59831E+08
 
   -0.59785E+08         0.41640E+06         0.00000E+00
    0.41640E+06        -0.59911E+08         0.00000E+00
    0.00000E+00         0.00000E+00        -0.59849E+08
 
   -0.59823E+08         0.37450E+06         0.00000E+00
    0.37450E+06        -0.59903E+08         0.00000E+00
    0.00000E+00         0.00000E+00        -0.59864E+08
 
   -0.59855E+08         0.32967E+06         0.00000E+00
    0.32967E+06        -0.59896E+08         0.00000E+00
    0.00000E+00         0.00000E+00        -0.59877E+08
 
   -0.59879E+08         0.28206E+06         0.00000E+00
    0.28206E+06        -0.59891E+08         0.00000E+00
    0.00000E+00         0.00000E+00        -0.59888E+08
 
   -0.59896E+08         0.23189E+06         0.00000E+00
    0.23189E+06        -0.59888E+08         0.00000E+00
    0.00000E+00         0.00000E+00        -0.59896E+08
 
   -0.59905E+08         0.17944E+06         0.00000E+00
    0.17944E+06        -0.59886E+08         0.00000E+00
    0.00000E+00         0.00000E+00        -0.59901E+08
 
   -0.59906E+08         0.12511E+06         0.00000E+00
    0.12511E+06        -0.59888E+08         0.00000E+00
    0.00000E+00         0.00000E+00        -0.59903E+08
 
   -0.55649E+08         0.38640E+05         0.00000E+00
    0.38640E+05        -0.60000E+08         0.00000E+00
    0.00000E+00         0.00000E+00        -0.57926E+08
 
   -0.55729E+08         0.11287E+06         0.00000E+00
    0.11287E+06        -0.59999E+08         0.00000E+00
    0.00000E+00         0.00000E+00        -0.57940E+08
 
   -0.55822E+08         0.18268E+06         0.00000E+00
    0.18268E+06        -0.59999E+08         0.00000E+00
    0.00000E+00         0.00000E+00        -0.57966E+08
 
   -0.55925E+08         0.24780E+06         0.00000E+00
    0.24780E+06        -0.59998E+08         0.00000E+00
    0.00000E+00         0.00000E+00        -0.58002E+08
 
   -0.56036E+08         0.30803E+06         0.00000E+00
    0.30803E+06        -0.59997E+08         0.00000E+00
    0.00000E+00         0.00000E+00        -0.58045E+08
 
   -0.56152E+08         0.36334E+06         0.00000E+00
    0.36334E+06        -0.59996E+08         0.00000E+00
    0.00000E+00         0.00000E+00        -0.58095E+08
 
   -0.56273E+08         0.41376E+06         0.00000E+00
    0.41376E+06        -0.59995E+08         0.00000E+00
    0.00000E+00         0.00000E+00        -0.58149E+08
 
   -0.56396E+08         0.45939E+06         0.00000E+00
    0.45939E+06        -0.59995E+08         0.00000E+00
    0.00000E+00         0.00000E+00        -0.58206E+08
 
   -0.56521E+08         0.50040E+06         0.00000E+00
    0.50040E+06        -0.59994E+08         0.00000E+00
    0.00000E+00         0.00000E+00        -0.58265E+08
 
   -0.56647E+08         0.53701E+06         0.00000E+00
    0.53701E+06        -0.59995E+08         0.00000E+00
    0.00000E+00         0.00000E+00        -0.58326E+08
 
   -0.56773E+08         0.56947E+06         0.00000E+00
    0.56947E+06        -0.59996E+08         0.00000E+00
    0.00000E+00         0.00000E+00        -0.58387E+08
 
   -0.56897E+08         0.59804E+06         0.00000E+00
    0.59804E+06        -0.59997E+08         0.00000E+00
    0.00000E+00         0.00000E+00        -0.58450E+08
 
   -0.57021E+08         0.62300E+06         0.00000E+00
    0.62300E+06        -0.59999E+08         0.00000E+00
    0.00000E+00         0.00000E+00        -0.58512E+08
 
   -0.57143E+08         0.64464E+06         0.00000E+00
    0.64464E+06        -0.60002E+08         0.00000E+00
    0.00000E+00         0.00000E+00        -0.58574E+08
 
   -0.57263E+08         0.66324E+06         0.00000E+00
    0.66324E+06        -0.60005E+08         0.00000E+00
    0.00000E+00         0.00000E+00        -0.58635E+08
 
   -0.57382E+08         0.67909E+06         0.00000E+00
    0.67909E+06        -0.60009E+08         0.00000E+00
    0.00000E+00         0.00000E+00        -0.58696E+08
 
   -0.57498E+08         0.69244E+06         0.00000E+00
    0.69244E+06        -0.60013E+08         0.00000E+00
    0.00000E+00         0.00000E+00        -0.58756E+08
 
   -0.57612E+08         0.70356E+06         0.00000E+00
    0.70356E+06        -0.60018E+08         0.00000E+00
    0.00000E+00         0.00000E+00        -0.58815E+08
 
   -0.57724E+08         0.71266E+06         0.00000E+00
    0.71266E+06        -0.60023E+08         0.00000E+00
    0.00000E+00         0.00000E+00        -0.58874E+08
 
   -0.57834E+08         0.71995E+06         0.00000E+00
    0.71995E+06        -0.60028E+08         0.00000E+00
    0.00000E+00         0.00000E+00        -0.58931E+08
 
   -0.57942E+08         0.72562E+06         0.00000E+00
    0.72562E+06        -0.60034E+08         0.00000E+00
    0.00000E+00         0.00000E+00        -0.58988E+08
 
   -0.58047E+08         0.72983E+06         0.00000E+00
    0.72983E+06        -0.60039E+08         0.00000E+00
    0.00000E+00         0.00000E+00        -0.59043E+08
 
   -0.58151E+08         0.73270E+06         0.00000E+00
    0.73270E+06        -0.60044E+08         0.00000E+00
    0.00000E+00         0.00000E+00        -0.59097E+08
 
   -0.58252E+08         0.73434E+06         0.00000E+00
    0.73434E+06        -0.60049E+08         0.00000E+00
    0.00000E+00         0.00000E+00        -0.59151E+08
 
   -0.58352E+08         0.73480E+06         0.00000E+00
    0.73480E+06        -0.60054E+08         0.00000E+00
    0.00000E+00         0.00000E+00        -0.59203E+08
 
   -0.58449E+08         0.73413E+06         0.00000E+00
    0.73413E+06        -0.60058E+08         0.00000E+00
    0.00000E+00         0.00000E+00        -0.59253E+08
 
   -0.58545E+08         0.73234E+06         0.00000E+00
    0.73234E+06        -0.60061E+08         0.00000E+00
    0.00000E+00         0.00000E+00        -0.59303E+08
 
   -0.58638E+08         0.72940E+06         0.00000E+00
    0.72940E+06        -0.60064E+08         0.00000E+00
    0.00000E+00         0.00000E+00        -0.59351E+08
 
   -0.58730E+08         0.72526E+06         0.00000E+00
    0.72526E+06        -0.60066E+08         0.00000E+00
    0.00000E+00         0.00000E+00        -0.59398E+08
 
   -0.58821E+08         0.71984E+06         0.00000E+00
    0.71984E+06        -0.60066E+08         0.00000E+00
    0.00000E+00         0.00000E+00        -0.59443E+08
 
   -0.58909E+08         0.71304E+06         0.00000E+00
    0.71304E+06        -0.60066E+08         0.00000E+00
    0.00000E+00         0.00000E+00        -0.59488E+08
 
   -0.58996E+08         0.70473E+06         0.00000E+00
    0.70473E+06        -0.60065E+08         0.00000E+00
    0.00000E+00         0.00000E+00        -0.59530E+08
 
   -0.59080E+08         0.69476E+06         0.00000E+00
    0.69476E+06        -0.60062E+08         0.00000E+00
    0.00000E+00         0.00000E+00        -0.59571E+08
 
   -0.59163E+08         0.68297E+06         0.00000E+00
    0.68297E+06        -0.60058E+08         0.00000E+00
    0.00000E+00         0.00000E+00        -0.59611E+08
 
   -0.59244E+08         0.66917E+06         0.00000E+00
    0.66917E+06        -0.60054E+08         0.00000E+00
    0.00000E+00         0.00000E+00        -0.59649E+08
 
   -0.59322E+08         0.65319E+06         0.00000E+00
    0.65319E+06        -0.60048E+08         0.00000E+00
    0.00000E+00         0.00000E+00        -0.59685E+08
 
   -0.59397E+08         0.63483E+06         0.00000E+00
    0.63483E+06        -0.60041E+08         0.00000E+00
    0.00000E+00         0.00000E+00        -0.59719E+08
 
   -0.59470E+08         0.61389E+06         0.00000E+00
    0.61389E+06        -0.60033E+08         0.00000E+00
    0.00000E+00         0.00000E+00        -0.59751E+08
 
   -0.59540E+08         0.59020E+06         0.00000E+00
    0.59020E+06        -0.60024E+08         0.00000E+00
    0.00000E+00         0.00000E+00        -0.59782E+08
 
   -0.59606E+08         0.56358E+06         0.00000E+00
    0.56358E+06        -0.60015E+08         0.00000E+00
    0.00000E+00         0.00000E+00        -0.59810E+08
 
   -0.59668E+08         0.53388E+06         0.00000E+00
    0.53388E+06        -0.60005E+08         0.00000E+00
    0.00000E+00         0.00000E+00        -0.59837E+08
 
   -0.59726E+08         0.50097E+06         0.00000E+00
    0.50097E+06        -0.59995E+08         0.00000E+00
    0.00000E+00         0.00000E+00        -0.59861E+08
 
   -0.59778E+08         0.46477E+06         0.00000E+00
    0.46477E+06        -0.59985E+08         0.00000E+00
    0.00000E+00         0.00000E+00        -0.59882E+08
 
   -0.59826E+08         0.42523E+06         0.00000E+00
    0.42523E+06        -0.59976E+08         0.00000E+00
    0.00000E+00         0.00000E+00        -0.59901E+08
 
   -0.59867E+08         0.38235E+06         0.00000E+00
    0.38235E+06        -0.59967E+08         0.00000E+00
    0.00000E+00         0.00000E+00        -0.59918E+08
 
   -0.59902E+08         0.33619E+06         0.00000E+00
    0.33619E+06        -0.59960E+08         0.00000E+00
    0.00000E+00         0.00000E+00        -0.59932E+08
 
   -0.59929E+08         0.28690E+06         0.00000E+00
    0.28690E+06        -0.59953E+08         0.00000E+00
    0.00000E+00         0.00000E+00        -0.59944E+08
 
   -0.59949E+08         0.23468E+06         0.00000E+00
    0.23468E+06        -0.59949E+08         0.00000E+00
    0.00000E+00         0.00000E+00        -0.59952E+08
 
   -0.59960E+08         0.17982E+06         0.00000E+00
    0.17982E+06        -0.59947E+08         0.00000E+00
    0.00000E+00         0.00000E+00        -0.59958E+08
 
   -0.59963E+08         0.12272E+06         0.00000E+00
    0.12272E+06        -0.59948E+08         0.00000E+00
    0.00000E+00         0.00000E+00        -0.59961E+08
 
   -0.55572E+08         0.38844E+05         0.00000E+00
    0.38844E+05        -0.60000E+08         0.00000E+00
    0.00000E+00         0.00000E+00        -0.57893E+08
 
   -0.55657E+08         0.11338E+06         0.00000E+00
    0.11338E+06        -0.60000E+08         0.00000E+00
    0.00000E+00         0.00000E+00        -0.57908E+08
 
   -0.55754E+08         0.18338E+06         0.00000E+00
    0.18338E+06        -0.59999E+08         0.00000E+00
    0.00000E+00         0.00000E+00        -0.57936E+08
 
   -0.55862E+08         0.24853E+06         0.00000E+00
    0.24853E+06        -0.59999E+08         0.00000E+00
    0.00000E+00         0.00000E+00        -0.57973E+08
 
   -0.55978E+08         0.30868E+06         0.00000E+00
    0.30868E+06        -0.59998E+08         0.00000E+00
    0.00000E+00         0.00000E+00        -0.58019E+08
 
   -0.56100E+08         0.36377E+06         0.00000E+00
    0.36377E+06        -0.59998E+08         0.00000E+00
    0.00000E+00         0.00000E+00        -0.58071E+08
 
   -0.56225E+08         0.41386E+06         0.00000E+00
    0.41386E+06        -0.59998E+08         0.00000E+00
    0.00000E+00         0.00000E+00        -0.58127E+08
 
   -0.56353E+08         0.45906E+06         0.00000E+00
    0.45906E+06        -0.59999E+08         0.00000E+00
    0.00000E+00         0.00000E+00        -0.58187E+08
 
   -0.56483E+08         0.49955E+06         0.00000E+00
    0.49955E+06        -0.60000E+08         0.00000E+00
    0.00000E+00         0.00000E+00        -0.58249E+08
 
   -0.56613E+08         0.53558E+06         0.00000E+00
    0.53558E+06        -0.60002E+08         0.00000E+00
    0.00000E+00         0.00000E+00        -0.58313E+08
 
   -0.56742E+08         0.56740E+06         0.00000E+00
    0.56740E+06        -0.60005E+08         0.00000E+00
    0.00000E+00         0.00000E+00        -0.58377E+08
 
   -0.56871E+08         0.59530E+06         0.00000E+00
    0.59530E+06        -0.60008E+08         0.00000E+00
    0.00000E+00         0.00000E+00        -0.58442E+08
 
   -0.56998E+08         0.61959E+06         0.00000E+00
    0.61959E+06        -0.60012E+08         0.00000E+00
    0.00000E+00         0.00000E+00        -0.58507E+08
 
   -0.57123E+08         0.64057E+06         0.00000E+00
    0.64057E+06        -0.60017E+08         0.00000E+00
    0.00000E+00         0.00000E+00        -0.58571E+08
 
   -0.57247E+08         0.65854E+06         0.00000E+00
    0.65854E+06        -0.60023E+08         0.00000E+00
    0.00000E+00         0.00000E+00        -0.58635E+08
 
   -0.57368E+08         0.67381E+06         0.00000E+00
    0.67381E+06        -0.60029E+08         0.00000E+00
    0.00000E+00         0.00000E+00        -0.58699E+08
 
   -0.57486E+08         0.68666E+06         0.00000E+00
    0.68666E+06        -0.60036E+08         0.00000E+00
    0.00000E+00         0.00000E+00        -0.58761E+08
 
   -0.57602E+08         0.69735E+06         0.00000E+00
    0.69735E+06        -0.60043E+08         0.00000E+00
    0.00000E+00         0.00000E+00        -0.58823E+08
 
   -0.57716E+08         0.70613E+06         0.00000E+00
    0.70613E+06        -0.60051E+08         0.00000E+00
    0.00000E+00         0.00000E+00        -0.58884E+08
 
   -0.57828E+08         0.71322E+06         0.00000E+00
    0.71322E+06        -0.60059E+08         0.00000E+00
    0.00000E+00         0.00000E+00        -0.58944E+08
 
   -0.57937E+08         0.71882E+06         0.00000E+00
    0.71882E+06        -0.60067E+08         0.00000E+00
    0.00000E+00         0.00000E+00        -0.59002E+08
 
   -0.58044E+08         0.72308E+06         0.00000E+00
    0.72308E+06        -0.60076E+08         0.00000E+00
    0.00000E+00         0.00000E+00        -0.59060E+08
 
   -0.58148E+08         0.72615E+06         0.00000E+00
    0.72615E+06        -0.60084E+08         0.00000E+00
    0.00000E+00         0.00000E+00        -0.59116E+08
 
   -0.58251E+08         0.72812E+06         0.00000E+00
    0.72812E+06        -0.60092E+08         0.00000E+00
    0.00000E+00         0.00000E+00        -0.59171E+08
 
   -0.58351E+08         0.72907E+06         0.00000E+00
    0.72907E+06        -0.60099E+08         0.00000E+00
    0.00000E+00         0.00000E+00        -0.59225E+08
 
   -0.58450E+08         0.72902E+06         0.00000E+00
    0.72902E+06        -0.60106E+08         0.00000E+00
    0.00000E+00         0.00000E+00        -0.59278E+08
 
   -0.58547E+08         0.72799E+06         0.00000E+00
    0.72799E+06        -0.60112E+08         0.00000E+00
    0.00000E+00         0.00000E+00        -0.59329E+08
 
   -0.58642E+08         0.72593E+06         0.00000E+00
    0.72593E+06        -0.60117E+08         0.00000E+00
    0.00000E+00         0.00000E+00        -0.59379E+08
 
   -0.58735E+08         0.72279E+06         0.00000E+00
    0.72279E+06        -0.60121E+08         0.00000E+00
    0.00000E+00         0.00000E+00        -0.59428E+08
 
   -0.58826E+08         0.71846E+06         0.00000E+00
    0.71846E+06        -0.60124E+08         0.00000E+00
    0.00000E+00         0.00000E+00        -0.59475E+08
 
   -0.58916E+08         0.71283E+06         0.00000E+00
    0.71283E+06        -0.60126E+08         0.00000E+00
    0.00000E+00         0.00000E+00        -0.59521E+08
 
   -0.59004E+08         0.70575E+06         0.00000E+00
    0.70575E+06        -0.60127E+08         0.00000E+00
    0.00000E+00         0.00000E+00        -0.59565E+08
 
   -0.59091E+08         0.69705E+06         0.00000E+00
    0.69705E+06        -0.60126E+08         0.00000E+00
    0.00000E+00         0.00000E+00        -0.59608E+08
 
   -0.59175E+08         0.68653E+06         0.00000E+00
    0.68653E+06        -0.60124E+08         0.00000E+00
    0.00000E+00         0.00000E+00        -0.59650E+08
 
   -0.59258E+08         0.67399E+06         0.00000E+00
    0.67399E+06        -0.60121E+08         0.00000E+00
    0.00000E+00         0.00000E+00        -0.59689E+08
 
   -0.59338E+08         0.65920E+06         0.00000E+00
    0.65920E+06        -0.60116E+08         0.00000E+00
    0.00000E+00         0.00000E+00        -0.59727E+08
 
   -0.59417E+08         0.64194E+06         0.00000E+00
    0.64194E+06        -0.60110E+08         0.00000E+00
    0.00000E+00         0.00000E+00        -0.59763E+08
 
   -0.59492E+08         0.62198E+06         0.00000E+00
    0.62198E+06        -0.60102E+08         0.00000E+00
    0.00000E+00         0.00000E+00        -0.59797E+08
 
   -0.59565E+08         0.59912E+06         0.00000E+00
    0.59912E+06        -0.60094E+08         0.00000E+00
    0.00000E+00         0.00000E+00        -0.59829E+08
 
   -0.59634E+08         0.57312E+06         0.00000E+00
    0.57312E+06        -0.60085E+08         0.00000E+00
    0.00000E+00         0.00000E+00        -0.59859E+08
 
   -0.59699E+08         0.54382E+06         0.00000E+00
    0.54382E+06        -0.60075E+08         0.00000E+00
    0.00000E+00         0.00000E+00        -0.59887E+08
 
   -0.59760E+08         0.51105E+06         0.00000E+00
    0.51105E+06        -0.60065E+08         0.00000E+00
    0.00000E+00         0.00000E+00        -0.59913E+08
 
   -0.59816E+08         0.47468E+06         0.00000E+00
    0.47468E+06        -0.60055E+08         0.00000E+00
    0.00000E+00         0.00000E+00        -0.59936E+08
 
   -0.59867E+08         0.43464E+06         0.00000E+00
    0.43464E+06        -0.60045E+08         0.00000E+00
    0.00000E+00         0.00000E+00        -0.59957E+08
 
   -0.59912E+08         0.39090E+06         0.00000E+00
    0.39090E+06        -0.60036E+08         0.00000E+00
    0.00000E+00         0.00000E+00        -0.59975E+08
 
   -0.59950E+08         0.34351E+06         0.00000E+00
    0.34351E+06        -0.60027E+08         0.00000E+00
    0.00000E+00         0.00000E+00        -0.59990E+08
 
   -0.59981E+08         0.29259E+06         0.00000E+00
    0.29259E+06        -0.60020E+08         0.00000E+00
    0.00000E+00         0.00000E+00        -0.60002E+08
 
   -0.60004E+08         0.23834E+06         0.00000E+00
    0.23834E+06        -0.60015E+08         0.00000E+00
    0.00000E+00         0.00000E+00        -0.60012E+08
 
   -0.60018E+08         0.18105E+06         0.00000E+00
    0.18105E+06        -0.60012E+08         0.00000E+00
    0.00000E+00         0.00000E+00        -0.60018E+08
 
   -0.60022E+08         0.12112E+06         0.00000E+00
    0.12112E+06        -0.60012E+08         0.00000E+00
    0.00000E+00         0.00000E+00        -0.60021E+08
 
   -0.55495E+08         0.38965E+05         0.00000E+00
    0.38965E+05        -0.60000E+08         0.00000E+00
    0.00000E+00         0.00000E+00        -0.57861E+08
 
   -0.55584E+08         0.11365E+06         0.00000E+00
    0.11365E+06        -0.60000E+08         0.00000E+00
    0.00000E+00         0.00000E+00        -0.57877E+08
 
   -0.55687E+08         0.18365E+06         0.00000E+00
    0.18365E+06        -0.60000E+08         0.00000E+00
    0.00000E+00         0.00000E+00        -0.57906E+08
 
   -0.55799E+08         0.24867E+06         0.00000E+00
    0.24867E+06        -0.60000E+08         0.00000E+00
    0.00000E+00         0.00000E+00        -0.57945E+08
 
   -0.55920E+08         0.30856E+06         0.00000E+00
    0.30856E+06        -0.60000E+08         0.00000E+00
    0.00000E+00         0.00000E+00        -0.57993E+08
 
   -0.56047E+08         0.36326E+06         0.00000E+00
    0.36326E+06        -0.60001E+08         0.00000E+00
    0.00000E+00         0.00000E+00        -0.58047E+08
 
   -0.56178E+08         0.41283E+06         0.00000E+00
    0.41283E+06        -0.60002E+08         0.00000E+00
    0.00000E+00         0.00000E+00        -0.58106E+08
 
   -0.56311E+08         0.45742E+06         0.00000E+00
    0.45742E+06        -0.60004E+08         0.00000E+00
    0.00000E+00         0.00000E+00        -0.58169E+08
 
   -0.56445E+08         0.49722E+06         0.00000E+00
    0.49722E+06        -0.60007E+08         0.00000E+00
    0.00000E+00         0.00000E+00        -0.58234E+08
 
   -0.56579E+08         0.53248E+06         0.00000E+00
    0.53248E+06        -0.60010E+08         0.00000E+00
    0.00000E+00         0.00000E+00        -0.58300E+08
 
   -0.56713E+08         0.56349E+06         0.00000E+00
    0.56349E+06        -0.60015E+08         0.00000E+00
    0.00000E+00         0.00000E+00        -0.58368E+08
 
   -0.56845E+08         0.59056E+06         0.00000E+00
    0.59056E+06        -0.60020E+08         0.00000E+00
    0.00000E+00         0.00000E+00        -0.58435E+08
 
   -0.56976E+08         0.61401E+06         0.00000E+00
    0.61401E+06        -0.60026E+08         0.00000E+00
    0.00000E+00         0.00000E+00        -0.58503E+08
 
   -0.57104E+08         0.63418E+06         0.00000E+00
    0.63418E+06        -0.60034E+08         0.00000E+00
    0.00000E+00         0.00000E+00        -0.58570E+08
 
   -0.57230E+08         0.65138E+06         0.00000E+00
    0.65138E+06        -0.60042E+08         0.00000E+00
    0.00000E+00         0.00000E+00        -0.58637E+08
 
   -0.57354E+08         0.66595E+06         0.00000E+00
    0.66595E+06        -0.60050E+08         0.00000E+00
    0.00000E+00         0.00000E+00        -0.58703E+08
 
   -0.57475E+08         0.67817E+06         0.00000E+00
    0.67817E+06        -0.60060E+08         0.00000E+00
    0.00000E+00         0.00000E+00        -0.58768E+08
 
   -0.57593E+08         0.68835E+06         0.00000E+00
    0.68835E+06        -0.60070E+08         0.00000E+00
    0.00000E+00         0.00000E+00        -0.58832E+08
 
   -0.57709E+08         0.69673E+06         0.00000E+00
    0.69673E+06        -0.60081E+08         0.00000E+00
    0.00000E+00         0.00000E+00        -0.58895E+08
 
   -0.57822E+08         0.70355E+06         0.00000E+00
    0.70355E+06        -0.60092E+08         0.00000E+00
    0.00000E+00         0.00000E+00        -0.58957E+08
 
   -0.57932E+08         0.70903E+06         0.00000E+00
    0.70903E+06        -0.60103E+08         0.00000E+00
    0.00000E+00         0.00000E+00        -0.59018E+08
 
   -0.58040E+08         0.71333E+06         0.00000E+00
    0.71333E+06        -0.60115E+08         0.00000E+00
    0.00000E+00         0.00000E+00        -0.59077E+08
 
   -0.58146E+08         0.71660E+06         0.00000E+00
    0.71660E+06        -0.60126E+08         0.00000E+00
    0.00000E+00         0.00000E+00        -0.59136E+08
 
   -0.58249E+08         0.71894E+06         0.00000E+00
    0.71894E+06        -0.60137E+08         0.00000E+00
    0.00000E+00         0.00000E+00        -0.59193E+08
 
   -0.58351E+08         0.72042E+06         0.00000E+00
    0.72042E+06        -0.60147E+08         0.00000E+00
    0.00000E+00         0.00000E+00        -0.59249E+08
 
   -0.58450E+08         0.72107E+06         0.00000E+00
    0.72107E+06        -0.60157E+08         0.00000E+00
    0.00000E+00         0.00000E+00        -0.59303E+08
 
   -0.58548E+08         0.72089E+06         0.00000E+00
    0.72089E+06        -0.60166E+08         0.00000E+00
    0.00000E+00         0.00000E+00        -0.59357E+08
 
   -0.58644E+08         0.71983E+06         0.00000E+00
    0.71983E+06        -0.60174E+08         0.00000E+00
    0.00000E+00         0.00000E+00        -0.59409E+08
 
   -0.58738E+08         0.71782E+06         0.00000E+00
    0.71782E+06        -0.60181E+08         0.00000E+00
    0.00000E+00         0.00000E+00        -0.59459E+08
 
   -0.58831E+08         0.71475E+06         0.00000E+00
    0.71475E+06        -0.60187E+08         0.00000E+00
    0.00000E+00         0.00000E+00        -0.59508E+08
 
   -0.58922E+08         0.71047E+06         0.00000E+00
    0.71047E+06        -0.60191E+08         0.00000E+00
    0.00000E+00         0.00000E+00        -0.59556E+08
 
   -0.59011E+08         0.70481E+06         0.00000E+00
    0.70481E+06        -0.60194E+08         0.00000E+00
    0.00000E+00         0.00000E+00        -0.59602E+08
 
   -0.59100E+08         0.69758E+06         0.00000E+00
    0.69758E+06        -0.60195E+08         0.00000E+00
    0.00000E+00         0.00000E+00        -0.59647E+08
 
   -0.59186E+08         0.68856E+06         0.00000E+00
    0.68856E+06        -0.60194E+08         0.00000E+00
    0.00000E+00         0.00000E+00        -0.59690E+08
 
   -0.59271E+08         0.67749E+06         0.00000E+00
    0.67749E+06        -0.60192E+08         0.00000E+00
    0.00000E+00         0.00000E+00        -0.59731E+08
 
   -0.59354E+08         0.66413E+06         0.00000E+00
    0.66413E+06        -0.60189E+08         0.00000E+00
    0.00000E+00         0.00000E+00        -0.59771E+08
 
   -0.59434E+08         0.64823E+06         0.00000E+00
    0.64823E+06        -0.60184E+08         0.00000E+00
    0.00000E+00         0.00000E+00        -0.59809E+08
 
   -0.59513E+08         0.62950E+06         0.00000E+00
    0.62950E+06        -0.60177E+08         0.00000E+00
    0.00000E+00         0.00000E+00        -0.59845E+08
 
   -0.59588E+08         0.60770E+06         0.00000E+00
    0.60770E+06        -0.60169E+08         0.00000E+00
    0.00000E+00         0.00000E+00        -0.59879E+08
 
   -0.59661E+08         0.58257E+06         0.00000E+00
    0.58257E+06        -0.60160E+08         0.00000E+00
    0.00000E+00         0.00000E+00        -0.59911E+08
 
   -0.59730E+08         0.55388E+06         0.00000E+00
    0.55388E+06        -0.60151E+08         0.00000E+00
    0.00000E+00         0.00000E+00        -0.59940E+08
 
   -0.59795E+08         0.52145E+06         0.00000E+00
    0.52145E+06        -0.60140E+08         0.00000E+00
    0.00000E+00         0.00000E+00        -0.59968E+08
 
   -0.59855E+08         0.48510E+06         0.00000E+00
    0.48510E+06        -0.60130E+08         0.00000E+00
    0.00000E+00         0.00000E+00        -0.59992E+08
 
   -0.59909E+08         0.44473E+06         0.00000E+00
    0.44473E+06        -0.60119E+08         0.00000E+00
    0.00000E+00         0.00000E+00        -0.60014E+08
 
   -0.59958E+08         0.40027E+06         0.00000E+00
    0.40027E+06        -0.60109E+08         0.00000E+00
    0.00000E+00         0.00000E+00        -0.60034E+08
 
   -0.60000E+08         0.35175E+06         0.00000E+00
    0.35175E+06        -0.60100E+08         0.00000E+00
    0.00000E+00         0.00000E+00        -0.60050E+08
 
   -0.60034E+08         0.29927E+06         0.00000E+00
    0.29927E+06        -0.60092E+08         0.00000E+00
    0.00000E+00         0.00000E+00        -0.60064E+08
 
   -0.60061E+08         0.24302E+06         0.00000E+00
    0.24302E+06        -0.60085E+08         0.00000E+00
    0.00000E+00         0.00000E+00        -0.60074E+08
 
   -0.60078E+08         0.18329E+06         0.00000E+00
    0.18329E+06        -0.60081E+08         0.00000E+00
    0.00000E+00         0.00000E+00        -0.60081E+08
 
   -0.60085E+08         0.12049E+06         0.00000E+00
    0.12049E+06        -0.60080E+08         0.00000E+00
    0.00000E+00         0.00000E+00        -0.60085E+08
 
   -0.55418E+08         0.38999E+05         0.00000E+00
    0.38999E+05        -0.60000E+08         0.00000E+00
    0.00000E+00         0.00000E+00        -0.57829E+08
 
   -0.55512E+08         0.11365E+06         0.00000E+00
    0.11365E+06        -0.60000E+08         0.00000E+00
    0.00000E+00         0.00000E+00        -0.57845E+08
 
   -0.55619E+08         0.18348E+06         0.00000E+00
    0.18348E+06        -0.60000E+08         0.00000E+00
    0.00000E+00         0.00000E+00        -0.57875E+08
 
   -0.55737E+08         0.24819E+06         0.00000E+00
    0.24819E+06        -0.60001E+08         0.00000E+00
    0.00000E+00         0.00000E+00        -0.57917E+08
 
   -0.55863E+08         0.30763E+06         0.00000E+00
    0.30763E+06        -0.60002E+08         0.00000E+00
    0.00000E+00         0.00000E+00        -0.57967E+08
 
   -0.55995E+08         0.36175E+06         0.00000E+00
    0.36175E+06        -0.60004E+08         0.00000E+00
    0.00000E+00         0.00000E+00        -0.58024E+08
 
   -0.56131E+08         0.41062E+06         0.00000E+00
    0.41062E+06        -0.60006E+08         0.00000E+00
    0.00000E+00         0.00000E+00        -0.58086E+08
 
   -0.56269E+08         0.45441E+06         0.00000E+00
    0.45441E+06        -0.60009E+08         0.00000E+00
    0.00000E+00         0.00000E+00        -0.58151E+08
 
   -0.56408E+08         0.49332E+06         0.00000E+00
    0.49332E+06        -0.60014E+08         0.00000E+00
    0.00000E+00         0.00000E+00        -0.58219E+08
 
   -0.56547E+08         0.52762E+06         0.00000E+00
    0.52762E+06        -0.60019E+08         0.00000E+00
    0.00000E+00         0.00000E+00        -0.58289E+08
 
   -0.56685E+08         0.55764E+06         0.00000E+00
    0.55764E+06        -0.60025E+08         0.00000E+00
    0.00000E+00         0.00000E+00        -0.58359E+08
 
   -0.56821E+08         0.58369E+06         0.00000E+00
    0.58369E+06        -0.60033E+08         0.00000E+00
    0.00000E+00         0.00000E+00        -0.58429E+08
 
   -0.56955E+08         0.60614E+06         0.00000E+00
    0.60614E+06        -0.60041E+08         0.00000E+00
    0.00000E+00         0.00000E+00        -0.58500E+08
 
   -0.57086E+08         0.62532E+06         0.00000E+00
    0.62532E+06        -0.60051E+08         0.00000E+00
    0.00000E+00         0.00000E+00        -0.58570E+08
 
   -0.57215E+08         0.64160E+06         0.00000E+00
    0.64160E+06        -0.60061E+08         0.00000E+00
    0.00000E+00         0.00000E+00        -0.58639E+08
 
   -0.57341E+08         0.65532E+06         0.00000E+00
    0.65532E+06        -0.60073E+08         0.00000E+00
    0.00000E+00         0.00000E+00        -0.58708E+08
 
   -0.57464E+08         0.66680E+06         0.00000E+00
    0.66680E+06        -0.60086E+08         0.00000E+00
    0.00000E+00         0.00000E+00        -0.58775E+08
 
   -0.57584E+08         0.67634E+06         0.00000E+00
    0.67634E+06        -0.60099E+08         0.00000E+00
    0.00000E+00         0.00000E+00        -0.58842E+08
 
   -0.57701E+08         0.68424E+06         0.00000E+00
    0.68424E+06        -0.60113E+08         0.00000E+00
    0.00000E+00         0.00000E+00        -0.58907E+08
 
   -0.57816E+08         0.69073E+06         0.00000E+00
    0.69073E+06        -0.60127E+08         0.00000E+00
    0.00000E+00         0.00000E+00        -0.58971E+08
 
   -0.57927E+08         0.69605E+06         0.00000E+00
    0.69605E+06        -0.60141E+08         0.00000E+00
    0.00000E+00         0.00000E+00        -0.59034E+08
 
   -0.58036E+08         0.70037E+06         0.00000E+00
    0.70037E+06        -0.60156E+08         0.00000E+00
    0.00000E+00         0.00000E+00        -0.59096E+08
 
   -0.58143E+08         0.70384E+06         0.00000E+00
    0.70384E+06        -0.60171E+08         0.00000E+00
    0.00000E+00         0.00000E+00        -0.59157E+08
 
   -0.58247E+08         0.70657E+06         0.00000E+00
    0.70657E+06        -0.60185E+08         0.00000E+00
    0.00000E+00         0.00000E+00        -0.59216E+08
 
   -0.58349E+08         0.70863E+06         0.00000E+00
    0.70863E+06        -0.60199E+08         0.00000E+00
    0.00000E+00         0.00000E+00        -0.59274E+08
 
   -0.58449E+08         0.71005E+06         0.00000E+00
    0.71005E+06        -0.60212E+08         0.00000E+00
    0.00000E+00         0.00000E+00        -0.59331E+08
 
   -0.58548E+08         0.71082E+06         0.00000E+00
    0.71082E+06        -0.60224E+08         0.00000E+00
    0.00000E+00         0.00000E+00        -0.59386E+08
 
   -0.58645E+08         0.71089E+06         0.00000E+00
    0.71089E+06        -0.60235E+08         0.00000E+00
    0.00000E+00         0.00000E+00        -0.59440E+08
 
   -0.58740E+08         0.71016E+06         0.00000E+00
    0.71016E+06        -0.60245E+08         0.00000E+00
    0.00000E+00         0.00000E+00        -0.59492E+08
 
   -0.58833E+08         0.70851E+06         0.00000E+00
    0.70851E+06        -0.60253E+08         0.00000E+00
    0.00000E+00         0.00000E+00        -0.59543E+08
 
   -0.58926E+08         0.70577E+06         0.00000E+00
    0.70577E+06        -0.60260E+08         0.00000E+00
    0.00000E+00         0.00000E+00        -0.59593E+08
 
   -0.59017E+08         0.70175E+06         0.00000E+00
    0.70175E+06        -0.60265E+08         0.00000E+00
    0.00000E+00         0.00000E+00        -0.59641E+08
 
   -0.59107E+08         0.69622E+06         0.00000E+00
    0.69622E+06        -0.60268E+08         0.00000E+00
    0.00000E+00         0.00000E+00        -0.59687E+08
 
   -0.59195E+08         0.68892E+06         0.00000E+00
    0.68892E+06        -0.60270E+08         0.00000E+00
    0.00000E+00         0.00000E+00        -0.59732E+08
 
   -0.59282E+08         0.67959E+06         0.00000E+00
    0.67959E+06        -0.60269E+08         0.00000E+00
    0.00000E+00         0.00000E+00        -0.59775E+08
 
   -0.59367E+08         0.66792E+06         0.00000E+00
    0.66792E+06        -0.60267E+08         0.00000E+00
    0.00000E+00         0.00000E+00        -0.59817E+08
 
   -0.59451E+08         0.65363E+06         0.00000E+00
    0.65363E+06        -0.60263E+08         0.00000E+00
    0.00000E+00         0.00000E+00        -0.59857E+08
 
   -0.59532E+08         0.63639E+06         0.00000E+00
    0.63639E+06        -0.60257E+08         0.00000E+00
    0.00000E+00         0.00000E+00        -0.59895E+08
 
   -0.59611E+08         0.61592E+06         0.00000E+00
    0.61592E+06        -0.60250E+08         0.00000E+00
    0.00000E+00         0.00000E+00        -0.59930E+08
 
   -0.59687E+08         0.59191E+06         0.00000E+00
    0.59191E+06        -0.60241E+08         0.00000E+00
    0.00000E+00         0.00000E+00        -0.59964E+08
 
   -0.59760E+08         0.56409E+06         0.00000E+00
    0.56409E+06        -0.60231E+08         0.00000E+00
    0.00000E+00         0.00000E+00        -0.59996E+08
 
   -0.59829E+08         0.53223E+06         0.00000E+00
    0.53223E+06        -0.60221E+08         0.00000E+00
    0.00000E+00         0.00000E+00        -0.60025E+08
 
   -0.59893E+08         0.49611E+06         0.00000E+00
    0.49611E+06        -0.60209E+08         0.00000E+00
    0.00000E+00         0.00000E+00        -0.60051E+08
 
   -0.59952E+08         0.45559E+06         0.00000E+00
    0.45559E+06        -0.60198E+08         0.00000E+00
    0.00000E+00         0.00000E+00        -0.60075E+08
 
   -0.60005E+08         0.41057E+06         0.00000E+00
    0.41057E+06        -0.60187E+08         0.00000E+00
    0.00000E+00         0.00000E+00        -0.60096E+08
 
   -0.60051E+08         0.36105E+06         0.00000E+00
    0.36105E+06        -0.60177E+08         0.00000E+00
    0.00000E+00         0.00000E+00        -0.60114E+08
 
   -0.60090E+08         0.30710E+06         0.00000E+00
    0.30710E+06        -0.60168E+08         0.00000E+00
    0.00000E+00         0.00000E+00        -0.60129E+08
 
   -0.60120E+08         0.24890E+06         0.00000E+00
    0.24890E+06        -0.60160E+08         0.00000E+00
    0.00000E+00         0.00000E+00        -0.60140E+08
 
   -0.60140E+08         0.18673E+06         0.00000E+00
    0.18673E+06        -0.60155E+08         0.00000E+00
    0.00000E+00         0.00000E+00        -0.60148E+08
 
   -0.60150E+08         0.12103E+06         0.00000E+00
    0.12103E+06        -0.60152E+08         0.00000E+00
    0.00000E+00         0.00000E+00        -0.60152E+08
 
   -0.55342E+08         0.38940E+05         0.00000E+00
    0.38940E+05        -0.60000E+08         0.00000E+00
    0.00000E+00         0.00000E+00        -0.57797E+08
 
   -0.55440E+08         0.11337E+06         0.00000E+00
    0.11337E+06        -0.60000E+08         0.00000E+00
    0.00000E+00         0.00000E+00        -0.57814E+08
 
   -0.55552E+08         0.18284E+06         0.00000E+00
    0.18284E+06        -0.60001E+08         0.00000E+00
    0.00000E+00         0.00000E+00        -0.57846E+08
 
   -0.55675E+08         0.24705E+06         0.00000E+00
    0.24705E+06        -0.60002E+08         0.00000E+00
    0.00000E+00         0.00000E+00        -0.57889E+08
 
   -0.55807E+08         0.30584E+06         0.00000E+00
    0.30584E+06        -0.60004E+08         0.00000E+00
    0.00000E+00         0.00000E+00        -0.57942E+08
 
   -0.55944E+08         0.35918E+06         0.00000E+00
    0.35918E+06        -0.60007E+08         0.00000E+00
    0.00000E+00         0.00000E+00        -0.58001E+08
 
   -0.56085E+08         0.40716E+06         0.00000E+00
    0.40716E+06        -0.60010E+08         0.00000E+00
    0.00000E+00         0.00000E+00        -0.58066E+08
 
   -0.56228E+08         0.44993E+06         0.00000E+00
    0.44993E+06        -0.60015E+08         0.00000E+00
    0.00000E+00         0.00000E+00        -0.58134E+08
 
   -0.56372E+08         0.48775E+06         0.00000E+00
    0.48775E+06        -0.60021E+08         0.00000E+00
    0.00000E+00         0.00000E+00        -0.58205E+08
 
   -0.56515E+08         0.52090E+06         0.00000E+00
    0.52090E+06        -0.60028E+08         0.00000E+00
    0.00000E+00         0.00000E+00        -0.58278E+08
 
   -0.56657E+08         0.54972E+06         0.00000E+00
    0.54972E+06        -0.60036E+08         0.00000E+00
    0.00000E+00         0.00000E+00        -0.58351E+08
 
   -0.56797E+08         0.57456E+06         0.00000E+00
    0.57456E+06        -0.60046E+08         0.00000E+00
    0.00000E+00         0.00000E+00        -0.58424E+08
 
   -0.56934E+08         0.59580E+06         0.00000E+00
    0.59580E+06        -0.60057E+08         0.00000E+00
    0.00000E+00         0.00000E+00        -0.58497E+08
 
   -0.57069E+08         0.61383E+06         0.00000E+00
    0.61383E+06        -0.60069E+08         0.00000E+00
    0.00000E+00         0.00000E+00        -0.58570E+08
 
   -0.57201E+08         0.62902E+06         0.00000E+00
    0.62902E+06        -0.60082E+08         0.00000E+00
    0.00000E+00         0.00000E+00        -0.58642E+08
 
   -0.57329E+08         0.64174E+06         0.00000E+00
    0.64174E+06        -0.60097E+08         0.00000E+00
    0.00000E+00         0.00000E+00        -0.58714E+08
 
   -0.57454E+08         0.65234E+06         0.00000E+00
    0.65234E+06        -0.60113E+08         0.00000E+00
    0.00000E+00         0.00000E+00        -0.58784E+08
 
   -0.57576E+08         0.66114E+06         0.00000E+00
    0.66114E+06        -0.60129E+08         0.00000E+00
    0.00000E+00         0.00000E+00        -0.58853E+08
 
   -0.57694E+08         0.66845E+06         0.00000E+00
    0.66845E+06        -0.60146E+08         0.00000E+00
    0.00000E+00         0.00000E+00        -0.58921E+08
 
   -0.57810E+08         0.67454E+06         0.00000E+00
    0.67454E+06        -0.60164E+08         0.00000E+00
    0.00000E+00         0.00000E+00        -0.58987E+08
 
   -0.57922E+08         0.67964E+06         0.00000E+00
    0.67964E+06        -0.60182E+08         0.00000E+00
    0.00000E+00         0.00000E+00        -0.59052E+08
 
   -0.58032E+08         0.68395E+06         0.00000E+00
    0.68395E+06        -0.60200E+08         0.00000E+00
    0.00000E+00         0.00000E+00        -0.59116E+08
 
   -0.58140E+08         0.68762E+06         0.00000E+00
    0.68762E+06        -0.60219E+08         0.00000E+00
    0.00000E+00         0.00000E+00        -0.59179E+08
 
   -0.58244E+08         0.69077E+06         0.00000E+00
    0.69077E+06        -0.60236E+08         0.00000E+00
    0.00000E+00         0.00000E+00        -0.59240E+08
 
   -0.58347E+08         0.69347E+06         0.00000E+00
    0.69347E+06        -0.60254E+08         0.00000E+00
    0.00000E+00         0.00000E+00        -0.59300E+08
 
   -0.58448E+08         0.69574E+06         0.00000E+00
    0.69574E+06        -0.60270E+08         0.00000E+00
    0.00000E+00         0.00000E+00        -0.59359E+08
 
   -0.58547E+08         0.69757E+06         0.00000E+00
    0.69757E+06        -0.60286E+08         0.00000E+00
    0.00000E+00         0.00000E+00        -0.59416E+08
 
   -0.58644E+08         0.69889E+06         0.00000E+00
    0.69889E+06        -0.60300E+08         0.00000E+00
    0.00000E+00         0.00000E+00        -0.59472E+08
 
   -0.58740E+08         0.69960E+06         0.00000E+00
    0.69960E+06        -0.60313E+08         0.00000E+00
    0.00000E+00         0.00000E+00        -0.59526E+08
 
   -0.58835E+08         0.69955E+06         0.00000E+00
    0.69955E+06        -0.60324E+08         0.00000E+00
    0.00000E+00         0.00000E+00        -0.59579E+08
 
   -0.58928E+08         0.69856E+06         0.00000E+00
    0.69856E+06        -0.60333E+08         0.00000E+00
    0.00000E+00         0.00000E+00        -0.59631E+08
 
   -0.59021E+08         0.69639E+06         0.00000E+00
    0.69639E+06        -0.60341E+08         0.00000E+00
    0.00000E+00         0.00000E+00        -0.59681E+08
 
   -0.59112E+08         0.69280E+06         0.00000E+00
    0.69280E+06        -0.60346E+08         0.00000E+00
    0.00000E+00         0.00000E+00        -0.59729E+08
 
   -0.59202E+08         0.68749E+06         0.00000E+00
    0.68749E+06        -0.60350E+08         0.00000E+00
    0.00000E+00         0.00000E+00        -0.59776E+08
 
   -0.59292E+08         0.68016E+06         0.00000E+00
    0.68016E+06        -0.60351E+08         0.00000E+00
    0.00000E+00         0.00000E+00        -0.59821E+08
 
   -0.59379E+08         0.67047E+06         0.00000E+00
    0.67047E+06        -0.60350E+08         0.00000E+00
    0.00000E+00         0.00000E+00        -0.59865E+08
 
   -0.59466E+08         0.65807E+06         0.00000E+00
    0.65807E+06        -0.60347E+08         0.00000E+00
    0.00000E+00         0.00000E+00        -0.59906E+08
 
   -0.59550E+08         0.64262E+06         0.00000E+00
    0.64262E+06        -0.60343E+08         0.00000E+00
    0.00000E+00         0.00000E+00        -0.59946E+08
 
   -0.59633E+08         0.62376E+06         0.00000E+00
    0.62376E+06        -0.60336E+08         0.00000E+00
    0.00000E+00         0.00000E+00        -0.59984E+08
 
   -0.59713E+08         0.60116E+06         0.00000E+00
    0.60116E+06        -0.60327E+08         0.00000E+00
    0.00000E+00         0.00000E+00        -0.60020E+08
 
   -0.59789E+08         0.57448E+06         0.00000E+00
    0.57448E+06        -0.60318E+08         0.00000E+00
    0.00000E+00         0.00000E+00        -0.60053E+08
 
   -0.59862E+08         0.54344E+06         0.00000E+00
    0.54344E+06        -0.60307E+08         0.00000E+00
    0.00000E+00         0.00000E+00        -0.60084E+08
 
   -0.59931E+08         0.50779E+06         0.00000E+00
    0.50779E+06        -0.60295E+08         0.00000E+00
    0.00000E+00         0.00000E+00        -0.60113E+08
 
   -0.59995E+08         0.46733E+06         0.00000E+00
    0.46733E+06        -0.60283E+08         0.00000E+00
    0.00000E+00         0.00000E+00        -0.60138E+08
 
   -0.60053E+08         0.42194E+06         0.00000E+00
    0.42194E+06        -0.60271E+08         0.00000E+00
    0.00000E+00         0.00000E+00        -0.60161E+08
 
   -0.60103E+08         0.37156E+06         0.00000E+00
    0.37156E+06        -0.60259E+08         0.00000E+00
    0.00000E+00         0.00000E+00        -0.60181E+08
 
   -0.60147E+08         0.31624E+06         0.00000E+00
    0.31624E+06        -0.60248E+08         0.00000E+00
    0.00000E+00         0.00000E+00        -0.60197E+08
 
   -0.60181E+08         0.25615E+06         0.00000E+00
    0.25615E+06        -0.60240E+08         0.00000E+00
    0.00000E+00         0.00000E+00        -0.60209E+08
 
   -0.60206E+08         0.19158E+06         0.00000E+00
    0.19158E+06        -0.60233E+08         0.00000E+00
    0.00000E+00         0.00000E+00        -0.60218E+08
 
   -0.60219E+08         0.12294E+06         0.00000E+00
    0.12294E+06        -0.60229E+08         0.00000E+00
    0.00000E+00         0.00000E+00        -0.60222E+08
 
   -0.55265E+08         0.38785E+05         0.00000E+00
    0.38785E+05        -0.60000E+08         0.00000E+00
    0.00000E+00         0.00000E+00        -0.57765E+08
 
   -0.55368E+08         0.11281E+06         0.00000E+00
    0.11281E+06        -0.60001E+08         0.00000E+00
    0.00000E+00         0.00000E+00        -0.57783E+08
 
   -0.55485E+08         0.18172E+06         0.00000E+00
    0.18172E+06        -0.60002E+08         0.00000E+00
    0.00000E+00         0.00000E+00        -0.57816E+08
 
   -0.55614E+08         0.24522E+06         0.00000E+00
    0.24522E+06        -0.60003E+08         0.00000E+00
    0.00000E+00         0.00000E+00        -0.57862E+08
 
   -0.55751E+08         0.30316E+06         0.00000E+00
    0.30316E+06        -0.60006E+08         0.00000E+00
    0.00000E+00         0.00000E+00        -0.57917E+08
 
   -0.55894E+08         0.35552E+06         0.00000E+00
    0.35552E+06        -0.60010E+08         0.00000E+00
    0.00000E+00         0.00000E+00        -0.57979E+08
 
   -0.56041E+08         0.40237E+06         0.00000E+00
    0.40237E+06        -0.60015E+08         0.00000E+00
    0.00000E+00         0.00000E+00        -0.58047E+08
 
   -0.56189E+08         0.44392E+06         0.00000E+00
    0.44392E+06        -0.60021E+08         0.00000E+00
    0.00000E+00         0.00000E+00        -0.58118E+08
 
   -0.56337E+08         0.48043E+06         0.00000E+00
    0.48043E+06        -0.60028E+08         0.00000E+00
    0.00000E+00         0.00000E+00        -0.58192E+08
 
   -0.56485E+08         0.51220E+06         0.00000E+00
    0.51220E+06        -0.60037E+08         0.00000E+00
    0.00000E+00         0.00000E+00        -0.58267E+08
 
   -0.56631E+08         0.53960E+06         0.00000E+00
    0.53960E+06        -0.60048E+08         0.00000E+00
    0.00000E+00         0.00000E+00        -0.58344E+08
 
   -0.56775E+08         0.56302E+06         0.00000E+00
    0.56302E+06        -0.60060E+08         0.00000E+00
    0.00000E+00         0.00000E+00        -0.58420E+08
 
   -0.56916E+08         0.58287E+06         0.00000E+00
    0.58287E+06        -0.60073E+08         0.00000E+00
    0.00000E+00         0.00000E+00        -0.58496E+08
 
   -0.57053E+08         0.59954E+06         0.00000E+00
    0.59954E+06        -0.60088E+08         0.00000E+00
    0.00000E+00         0.00000E+00        -0.58572E+08
 
   -0.57187E+08         0.61346E+06         0.00000E+00
    0.61346E+06        -0.60105E+08         0.00000E+00
    0.00000E+00         0.00000E+00        -0.58647E+08
 
   -0.57318E+08         0.62501E+06         0.00000E+00
    0.62501E+06        -0.60122E+08         0.00000E+00
    0.00000E+00         0.00000E+00        -0.58721E+08
 
   -0.57445E+08         0.63458E+06         0.00000E+00
    0.63458E+06        -0.60141E+08         0.00000E+00
    0.00000E+00         0.00000E+00        -0.58793E+08
 
   -0.57568E+08         0.64252E+06         0.00000E+00
    0.64252E+06        -0.60161E+08         0.00000E+00
    0.00000E+00         0.00000E+00        -0.58865E+08
 
   -0.57688E+08         0.64914E+06         0.00000E+00
    0.64914E+06        -0.60182E+08         0.00000E+00
    0.00000E+00         0.00000E+00        -0.58935E+08
 
   -0.57804E+08         0.65474E+06         0.00000E+00
    0.65474E+06        -0.60204E+08         0.00000E+00
    0.00000E+00         0.00000E+00        -0.59004E+08
 
   -0.57918E+08         0.65957E+06         0.00000E+00
    0.65957E+06        -0.60225E+08         0.00000E+00
    0.00000E+00         0.00000E+00        -0.59072E+08
 
   -0.58028E+08         0.66384E+06         0.00000E+00
    0.66384E+06        -0.60247E+08         0.00000E+00
    0.00000E+00         0.00000E+00        -0.59138E+08
 
   -0.58136E+08         0.66772E+06         0.00000E+00
    0.66772E+06        -0.60269E+08         0.00000E+00
    0.00000E+00         0.00000E+00        -0.59203E+08
 
   -0.58241E+08         0.67131E+06         0.00000E+00
    0.67131E+06        -0.60291E+08         0.00000E+00
    0.00000E+00         0.00000E+00        -0.59266E+08
 
   -0.58344E+08         0.67470E+06         0.00000E+00
    0.67470E+06        -0.60312E+08         0.00000E+00
    0.00000E+00         0.00000E+00        -0.59328E+08
 
   -0.58445E+08         0.67791E+06         0.00000E+00
    0.67791E+06        -0.60332E+08         0.00000E+00
    0.00000E+00         0.00000E+00        -0.59389E+08
 
   -0.58545E+08         0.68090E+06         0.00000E+00
    0.68090E+06        -0.60351E+08         0.00000E+00
    0.00000E+00         0.00000E+00        -0.59448E+08
 
   -0.58642E+08         0.68362E+06         0.00000E+00
    0.68362E+06        -0.60369E+08         0.00000E+00
    0.00000E+00         0.00000E+00        -0.59506E+08
 
   -0.58739E+08         0.68593E+06         0.00000E+00
    0.68593E+06        -0.60385E+08         0.00000E+00
    0.00000E+00         0.00000E+00        -0.59562E+08
 
   -0.58834E+08         0.68767E+06         0.00000E+00
    0.68767E+06        -0.60400E+08         0.00000E+00
    0.00000E+00         0.00000E+00        -0.59617E+08
 
   -0.58929E+08         0.68863E+06         0.00000E+00
    0.68863E+06        -0.60412E+08         0.00000E+00
    0.00000E+00         0.00000E+00        -0.59670E+08
 
   -0.59023E+08         0.68856E+06         0.00000E+00
    0.68856E+06        -0.60422E+08         0.00000E+00
    0.00000E+00         0.00000E+00        -0.59722E+08
 
   -0.59115E+08         0.68717E+06         0.00000E+00
    0.68717E+06        -0.60430E+08         0.00000E+00
    0.00000E+00         0.00000E+00        -0.59773E+08
 
   -0.59208E+08         0.68412E+06         0.00000E+00
    0.68412E+06        -0.60436E+08         0.00000E+00
    0.00000E+00         0.00000E+00        -0.59821E+08
 
   -0.59299E+08         0.67908E+06         0.00000E+00
    0.67908E+06        -0.60439E+08         0.00000E+00
    0.00000E+00         0.00000E+00        -0.59869E+08
 
   -0.59389E+08         0.67167E+06         0.00000E+00
    0.67167E+06        -0.60440E+08         0.00000E+00
    0.00000E+00         0.00000E+00        -0.59914E+08
 
   -0.59479E+08         0.66148E+06         0.00000E+00
    0.66148E+06        -0.60438E+08         0.00000E+00
    0.00000E+00         0.00000E+00        -0.59958E+08
 
   -0.59566E+08         0.64813E+06         0.00000E+00
    0.64813E+06        -0.60434E+08         0.00000E+00
    0.00000E+00         0.00000E+00        -0.60000E+08
 
   -0.59653E+08         0.63121E+06         0.00000E+00
    0.63121E+06        -0.60428E+08         0.00000E+00
    0.00000E+00         0.00000E+00        -0.60040E+08
 
   -0.59736E+08         0.61031E+06         0.00000E+00
    0.61031E+06        -0.60420E+08         0.00000E+00
    0.00000E+00         0.00000E+00        -0.60078E+08
 
   -0.59818E+08         0.58508E+06         0.00000E+00
    0.58508E+06        -0.60410E+08         0.00000E+00
    0.00000E+00         0.00000E+00        -0.60113E+08
 
   -0.59895E+08         0.55515E+06         0.00000E+00
    0.55515E+06        -0.60398E+08         0.00000E+00
    0.00000E+00         0.00000E+00        -0.60146E+08
 
   -0.59969E+08         0.52023E+06         0.00000E+00
    0.52023E+06        -0.60386E+08         0.00000E+00
    0.00000E+00         0.00000E+00        -0.60177E+08
 
   -0.60038E+08         0.48007E+06         0.00000E+00
    0.48007E+06        -0.60373E+08         0.00000E+00
    0.00000E+00         0.00000E+00        -0.60205E+08
 
   -0.60101E+08         0.43450E+06         0.00000E+00
    0.43450E+06        -0.60360E+08         0.00000E+00
    0.00000E+00         0.00000E+00        -0.60229E+08
 
   -0.60157E+08         0.38343E+06         0.00000E+00
    0.38343E+06        -0.60347E+08         0.00000E+00
    0.00000E+00         0.00000E+00        -0.60250E+08
 
   -0.60205E+08         0.32688E+06         0.00000E+00
    0.32688E+06        -0.60335E+08         0.00000E+00
    0.00000E+00         0.00000E+00        -0.60268E+08
 
   -0.60244E+08         0.26499E+06         0.00000E+00
    0.26499E+06        -0.60324E+08         0.00000E+00
    0.00000E+00         0.00000E+00        -0.60282E+08
 
   -0.60274E+08         0.19804E+06         0.00000E+00
    0.19804E+06        -0.60315E+08         0.00000E+00
    0.00000E+00         0.00000E+00        -0.60291E+08
 
   -0.60291E+08         0.12646E+06         0.00000E+00
    0.12646E+06        -0.60310E+08         0.00000E+00
    0.00000E+00         0.00000E+00        -0.60296E+08
 
   -0.55189E+08         0.38531E+05         0.00000E+00
    0.38531E+05        -0.60000E+08         0.00000E+00
    0.00000E+00         0.00000E+00        -0.57734E+08
 
   -0.55297E+08         0.11194E+06         0.00000E+00
    0.11194E+06        -0.60001E+08         0.00000E+00
    0.00000E+00         0.00000E+00        -0.57753E+08
 
   -0.55420E+08         0.18009E+06         0.00000E+00
    0.18009E+06        -0.60002E+08         0.00000E+00
    0.00000E+00         0.00000E+00        -0.57788E+08
 
   -0.55554E+08         0.24268E+06         0.00000E+00
    0.24268E+06        -0.60005E+08         0.00000E+00
    0.00000E+00         0.00000E+00        -0.57835E+08
 
   -0.55697E+08         0.29955E+06         0.00000E+00
    0.29955E+06        -0.60008E+08         0.00000E+00
    0.00000E+00         0.00000E+00        -0.57893E+08
 
   -0.55845E+08         0.35069E+06         0.00000E+00
    0.35069E+06        -0.60013E+08         0.00000E+00
    0.00000E+00         0.00000E+00        -0.57958E+08
 
   -0.55997E+08         0.39620E+06         0.00000E+00
    0.39620E+06        -0.60019E+08         0.00000E+00
    0.00000E+00         0.00000E+00        -0.58028E+08
 
   -0.56151E+08         0.43630E+06         0.00000E+00
    0.43630E+06        -0.60027E+08         0.00000E+00
    0.00000E+00         0.00000E+00        -0.58103E+08
 
   -0.56304E+08         0.47125E+06         0.00000E+00
    0.47125E+06        -0.60036E+08         0.00000E+00
    0.00000E+00         0.00000E+00        -0.58180E+08
 
   -0.56456E+08         0.50141E+06         0.00000E+00
    0.50141E+06        -0.60047E+08         0.00000E+00
    0.00000E+00         0.00000E+00        -0.58258E+08
 
   -0.56607E+08         0.52717E+06         0.00000E+00
    0.52717E+06        -0.60060E+08         0.00000E+00
    0.00000E+00         0.00000E+00        -0.58338E+08
 
   -0.56754E+08         0.54894E+06         0.00000E+00
    0.54894E+06        -0.60074E+08         0.00000E+00
    0.00000E+00         0.00000E+00        -0.58417E+08
 
   -0.56898E+08         0.56716E+06         0.00000E+00
    0.56716E+06        -0.60091E+08         0.00000E+00
    0.00000E+00         0.00000E+00        -0.58496E+08
 
   -0.57039E+08         0.58228E+06         0.00000E+00
    0.58228E+06        -0.60109E+08         0.00000E+00
    0.00000E+00         0.00000E+00        -0.58575E+08
 
   -0.57175E+08         0.59473E+06         0.00000E+00
    0.59473E+06        -0.60128E+08         0.00000E+00
    0.00000E+00         0.00000E+00        -0.58653E+08
 
   -0.57308E+08         0.60494E+06         0.00000E+00
    0.60494E+06        -0.60149E+08         0.00000E+00
    0.00000E+00         0.00000E+00        -0.58729E+08
 
   -0.57437E+08         0.61332E+06         0.00000E+00
    0.61332E+06        -0.60172E+08         0.00000E+00
    0.00000E+00         0.00000E+00        -0.58805E+08
 
   -0.57561E+08         0.62024E+06         0.00000E+00
    0.62024E+06        -0.60195E+08         0.00000E+00
    0.00000E+00         0.00000E+00        -0.58879E+08
 
   -0.57682E+08         0.62607E+06         0.00000E+00
    0.62607E+06        -0.60220E+08         0.00000E+00
    0.00000E+00         0.00000E+00        -0.58951E+08
 
   -0.57800E+08         0.63109E+06         0.00000E+00
    0.63109E+06        -0.60245E+08         0.00000E+00
    0.00000E+00         0.00000E+00        -0.59023E+08
 
   -0.57913E+08         0.63559E+06         0.00000E+00
    0.63559E+06        -0.60271E+08         0.00000E+00
    0.00000E+00         0.00000E+00        -0.59092E+08
 
   -0.58024E+08         0.63979E+06         0.00000E+00
    0.63979E+06        -0.60297E+08         0.00000E+00
    0.00000E+00         0.00000E+00        -0.59161E+08
 
   -0.58132E+08         0.64386E+06         0.00000E+00
    0.64386E+06        -0.60323E+08         0.00000E+00
    0.00000E+00         0.00000E+00        -0.59228E+08
 
   -0.58237E+08         0.64792E+06         0.00000E+00
    0.64792E+06        -0.60349E+08         0.00000E+00
    0.00000E+00         0.00000E+00        -0.59293E+08
 
   -0.58340E+08         0.65206E+06         0.00000E+00
    0.65206E+06        -0.60374E+08         0.00000E+00
    0.00000E+00         0.00000E+00        -0.59357E+08
 
   -0.58442E+08         0.65628E+06         0.00000E+00
    0.65628E+06        -0.60398E+08         0.00000E+00
    0.00000E+00         0.00000E+00        -0.59420E+08
 
   -0.58541E+08         0.66057E+06         0.00000E+00
    0.66057E+06        -0.60421E+08         0.00000E+00
    0.00000E+00         0.00000E+00        -0.59481E+08
 
   -0.58639E+08         0.66482E+06         0.00000E+00
    0.66482E+06        -0.60443E+08         0.00000E+00
    0.00000E+00         0.00000E+00        -0.59541E+08
 
   -0.58736E+08         0.66891E+06         0.00000E+00
    0.66891E+06        -0.60462E+08         0.00000E+00
    0.00000E+00         0.00000E+00        -0.59599E+08
 
   -0.58832E+08         0.67265E+06         0.00000E+00
    0.67265E+06        -0.60480E+08         0.00000E+00
    0.00000E+00         0.00000E+00        -0.59656E+08
 
   -0.58927E+08         0.67580E+06         0.00000E+00
    0.67580E+06        -0.60496E+08         0.00000E+00
    0.00000E+00         0.00000E+00        -0.59711E+08
 
   -0.59022E+08         0.67807E+06         0.00000E+00
    0.67807E+06        -0.60509E+08         0.00000E+00
    0.00000E+00         0.00000E+00        -0.59765E+08
 
   -0.59116E+08         0.67915E+06         0.00000E+00
    0.67915E+06        -0.60519E+08         0.00000E+00
    0.00000E+00         0.00000E+00        -0.59818E+08
 
   -0.59210E+08         0.67867E+06         0.00000E+00
    0.67867E+06        -0.60527E+08         0.00000E+00
    0.00000E+00         0.00000E+00        -0.59869E+08
 
   -0.59304E+08         0.67623E+06         0.00000E+00
    0.67623E+06        -0.60532E+08         0.00000E+00
    0.00000E+00         0.00000E+00        -0.59918E+08
 
   -0.59397E+08         0.67142E+06         0.00000E+00
    0.67142E+06        -0.60535E+08         0.00000E+00
    0.00000E+00         0.00000E+00        -0.59966E+08
 
   -0.59489E+08         0.66379E+06         0.00000E+00
    0.66379E+06        -0.60534E+08         0.00000E+00
    0.00000E+00         0.00000E+00        -0.60011E+08
 
   -0.59580E+08         0.65287E+06         0.00000E+00
    0.65287E+06        -0.60531E+08         0.00000E+00
    0.00000E+00         0.00000E+00        -0.60056E+08
 
   -0.59670E+08         0.63822E+06         0.00000E+00
    0.63822E+06        -0.60526E+08         0.00000E+00
    0.00000E+00         0.00000E+00        -0.60098E+08
 
   -0.59758E+08         0.61938E+06         0.00000E+00
    0.61938E+06        -0.60518E+08         0.00000E+00
    0.00000E+00         0.00000E+00        -0.60138E+08
 
   -0.59844E+08         0.59591E+06         0.00000E+00
    0.59591E+06        -0.60508E+08         0.00000E+00
    0.00000E+00         0.00000E+00        -0.60176E+08
 
   -0.59927E+08         0.56741E+06         0.00000E+00
    0.56741E+06        -0.60496E+08         0.00000E+00
    0.00000E+00         0.00000E+00        -0.60211E+08
 
   -0.60006E+08         0.53352E+06         0.00000E+00
    0.53352E+06        -0.60483E+08         0.00000E+00
    0.00000E+00         0.00000E+00        -0.60244E+08
 
   -0.60080E+08         0.49393E+06         0.00000E+00
    0.49393E+06        -0.60469E+08         0.00000E+00
    0.00000E+00         0.00000E+00        -0.60273E+08
 
   -0.60149E+08         0.44842E+06         0.00000E+00
    0.44842E+06        -0.60454E+08         0.00000E+00
    0.00000E+00         0.00000E+00        -0.60300E+08
 
   -0.60211E+08         0.39686E+06         0.00000E+00
    0.39686E+06        -0.60440E+08         0.00000E+00
    0.00000E+00         0.00000E+00        -0.60323E+08
 
   -0.60265E+08         0.33923E+06         0.00000E+00
    0.33923E+06        -0.60426E+08         0.00000E+00
    0.00000E+00         0.00000E+00        -0.60342E+08
 
   -0.60310E+08         0.27565E+06         0.00000E+00
    0.27565E+06        -0.60414E+08         0.00000E+00
    0.00000E+00         0.00000E+00        -0.60358E+08
 
   -0.60344E+08         0.20638E+06         0.00000E+00
    0.20638E+06        -0.60403E+08         0.00000E+00
    0.00000E+00         0.00000E+00        -0.60368E+08
 
   -0.60367E+08         0.13185E+06         0.00000E+00
    0.13185E+06        -0.60395E+08         0.00000E+00
    0.00000E+00         0.00000E+00        -0.60374E+08
 
   -0.55113E+08         0.38172E+05         0.00000E+00
    0.38172E+05        -0.60000E+08         0.00000E+00
    0.00000E+00         0.00000E+00        -0.57703E+08
 
   -0.55226E+08         0.11076E+06         0.00000E+00
    0.11076E+06        -0.60001E+08         0.00000E+00
    0.00000E+00         0.00000E+00        -0.57723E+08
 
   -0.55355E+08         0.17793E+06         0.00000E+00
    0.17793E+06        -0.60003E+08         0.00000E+00
    0.00000E+00         0.00000E+00        -0.57759E+08
 
   -0.55495E+08         0.23938E+06         0.00000E+00
    0.23938E+06        -0.60006E+08         0.00000E+00
    0.00000E+00         0.00000E+00        -0.57809E+08
 
   -0.55643E+08         0.29496E+06         0.00000E+00
    0.29496E+06        -0.60010E+08         0.00000E+00
    0.00000E+00         0.00000E+00        -0.57869E+08
 
   -0.55798E+08         0.34465E+06         0.00000E+00
    0.34465E+06        -0.60016E+08         0.00000E+00
    0.00000E+00         0.00000E+00        -0.57937E+08
 
   -0.55955E+08         0.38858E+06         0.00000E+00
    0.38858E+06        -0.60024E+08         0.00000E+00
    0.00000E+00         0.00000E+00        -0.58011E+08
 
   -0.56114E+08         0.42697E+06         0.00000E+00
    0.42697E+06        -0.60033E+08         0.00000E+00
    0.00000E+00         0.00000E+00        -0.58088E+08
 
   -0.56272E+08         0.46012E+06         0.00000E+00
    0.46012E+06        -0.60044E+08         0.00000E+00
    0.00000E+00         0.00000E+00        -0.58169E+08
 
   -0.56429E+08         0.48842E+06         0.00000E+00
    0.48842E+06        -0.60057E+08         0.00000E+00
    0.00000E+00         0.00000E+00        -0.58250E+08
 
   -0.56584E+08         0.51228E+06         0.00000E+00
    0.51228E+06        -0.60073E+08         0.00000E+00
    0.00000E+00         0.00000E+00        -0.58333E+08
 
   -0.56735E+08         0.53216E+06         0.00000E+00
    0.53216E+06        -0.60090E+08         0.00000E+00
    0.00000E+00         0.00000E+00        -0.58416E+08
 
   -0.56882E+08         0.54852E+06         0.00000E+00
    0.54852E+06        -0.60109E+08         0.00000E+00
    0.00000E+00         0.00000E+00        -0.58498E+08
 
   -0.57026E+08         0.56185E+06         0.00000E+00
    0.56185E+06        -0.60130E+08         0.00000E+00
    0.00000E+00         0.00000E+00        -0.58579E+08
 
   -0.57165E+08         0.57263E+06         0.00000E+00
    0.57263E+06        -0.60153E+08         0.00000E+00
    0.00000E+00         0.00000E+00        -0.58660E+08
 
   -0.57299E+08         0.58130E+06         0.00000E+00
    0.58130E+06        -0.60178E+08         0.00000E+00
    0.00000E+00         0.00000E+00        -0.58739E+08
 
   -0.57430E+08         0.58832E+06         0.00000E+00
    0.58832E+06        -0.60204E+08         0.00000E+00
    0.00000E+00         0.00000E+00        -0.58817E+08
 
   -0.57555E+08         0.59409E+06         0.00000E+00
    0.59409E+06        -0.60231E+08         0.00000E+00
    0.00000E+00         0.00000E+00        -0.58894E+08
 
   -0.57677E+08         0.59898E+06         0.00000E+00
    0.59898E+06        -0.60260E+08         0.00000E+00
    0.00000E+00         0.00000E+00        -0.58969E+08
 
   -0.57795E+08         0.60333E+06         0.00000E+00
    0.60333E+06        -0.60290E+08         0.00000E+00
    0.00000E+00         0.00000E+00        -0.59043E+08
 
   -0.57909E+08         0.60743E+06         0.00000E+00
    0.60743E+06        -0.60320E+08         0.00000E+00
    0.00000E+00         0.00000E+00        -0.59115E+08
 
   -0.58020E+08         0.61152E+06         0.00000E+00
    0.61152E+06        -0.60350E+08         0.00000E+00
    0.00000E+00         0.00000E+00        -0.59185E+08
 
   -0.58128E+08         0.61578E+06         0.00000E+00
    0.61578E+06        -0.60381E+08         0.00000E+00
    0.00000E+00         0.00000E+00        -0.59254E+08
 
   -0.58233E+08         0.62034E+06         0.00000E+00
    0.62034E+06        -0.60411E+08         0.00000E+00
    0.00000E+00         0.00000E+00        -0.59322E+08
 
   -0.58336E+08         0.62528E+06         0.00000E+00
    0.62528E+06        -0.60440E+08         0.00000E+00
    0.00000E+00         0.00000E+00        -0.59388E+08
 
   -0.58437E+08         0.63061E+06         0.00000E+00
    0.63061E+06        -0.60468E+08         0.00000E+00
    0.00000E+00         0.00000E+00        -0.59452E+08
 
   -0.58536E+08         0.63631E+06         0.00000E+00
    0.63631E+06        -0.60495E+08         0.00000E+00
    0.00000E+00         0.00000E+00        -0.59516E+08
 
   -0.58634E+08         0.64226E+06         0.00000E+00
    0.64226E+06        -0.60521E+08         0.00000E+00
    0.00000E+00         0.00000E+00        -0.59577E+08
 
   -0.58731E+08         0.64831E+06         0.00000E+00
    0.64831E+06        -0.60544E+08         0.00000E+00
    0.00000E+00         0.00000E+00        -0.59638E+08
 
   -0.58827E+08         0.65426E+06         0.00000E+00
    0.65426E+06        -0.60566E+08         0.00000E+00
    0.00000E+00         0.00000E+00        -0.59696E+08
 
   -0.58923E+08         0.65983E+06         0.00000E+00
    0.65983E+06        -0.60585E+08         0.00000E+00
    0.00000E+00         0.00000E+00        -0.59754E+08
 
   -0.59019E+08         0.66473E+06         0.00000E+00
    0.66473E+06        -0.60601E+08         0.00000E+00
    0.00000E+00         0.00000E+00        -0.59810E+08
 
   -0.59115E+08         0.66857E+06         0.00000E+00
    0.66857E+06        -0.60614E+08         0.00000E+00
    0.00000E+00         0.00000E+00        -0.59864E+08
 
   -0.59210E+08         0.67097E+06         0.00000E+00
    0.67097E+06        -0.60625E+08         0.00000E+00
    0.00000E+00         0.00000E+00        -0.59917E+08
 
   -0.59306E+08         0.67148E+06         0.00000E+00
    0.67148E+06        -0.60632E+08         0.00000E+00
    0.00000E+00         0.00000E+00        -0.59969E+08
 
   -0.59401E+08         0.66962E+06         0.00000E+00
    0.66962E+06        -0.60636E+08         0.00000E+00
    0.00000E+00         0.00000E+00        -0.60019E+08
 
   -0.59497E+08         0.66489E+06         0.00000E+00
    0.66489E+06        -0.60637E+08         0.00000E+00
    0.00000E+00         0.00000E+00        -0.60067E+08
 
   -0.59592E+08         0.65679E+06         0.00000E+00
    0.65679E+06        -0.60635E+08         0.00000E+00
    0.00000E+00         0.00000E+00        -0.60113E+08
 
   -0.59686E+08         0.64479E+06         0.00000E+00
    0.64479E+06        -0.60630E+08         0.00000E+00
    0.00000E+00         0.00000E+00        -0.60158E+08
 
   -0.59778E+08         0.62837E+06         0.00000E+00
    0.62837E+06        -0.60623E+08         0.00000E+00
    0.00000E+00         0.00000E+00        -0.60200E+08
 
   -0.59869E+08         0.60703E+06         0.00000E+00
    0.60703E+06        -0.60613E+08         0.00000E+00
    0.00000E+00         0.00000E+00        -0.60240E+08
 
   -0.59957E+08         0.58030E+06         0.00000E+00
    0.58030E+06        -0.60600E+08         0.00000E+00
    0.00000E+00         0.00000E+00        -0.60278E+08
 
   -0.60042E+08         0.54776E+06         0.00000E+00
    0.54776E+06        -0.60586E+08         0.00000E+00
    0.00000E+00         0.00000E+00        -0.60313E+08
 
   -0.60123E+08         0.50903E+06         0.00000E+00
    0.50903E+06        -0.60571E+08         0.00000E+00
    0.00000E+00         0.00000E+00        -0.60345E+08
 
   -0.60198E+08         0.46385E+06         0.00000E+00
    0.46385E+06        -0.60555E+08         0.00000E+00
    0.00000E+00         0.00000E+00        -0.60374E+08
 
   -0.60266E+08         0.41202E+06         0.00000E+00
    0.41202E+06        -0.60539E+08         0.00000E+00
    0.00000E+00         0.00000E+00        -0.60399E+08
 
   -0.60326E+08         0.35350E+06         0.00000E+00
    0.35350E+06        -0.60523E+08         0.00000E+00
    0.00000E+00         0.00000E+00        -0.60420E+08
 
   -0.60377E+08         0.28835E+06         0.00000E+00
    0.28835E+06        -0.60509E+08         0.00000E+00
    0.00000E+00         0.00000E+00        -0.60437E+08
 
   -0.60418E+08         0.21685E+06         0.00000E+00
    0.21685E+06        -0.60496E+08         0.00000E+00
    0.00000E+00         0.00000E+00        -0.60448E+08
 
   -0.60445E+08         0.13941E+06         0.00000E+00
    0.13941E+06        -0.60486E+08         0.00000E+00
    0.00000E+00         0.00000E+00        -0.60454E+08
 
   -0.55039E+08         0.37708E+05         0.00000E+00
    0.37708E+05        -0.60000E+08         0.00000E+00
    0.00000E+00         0.00000E+00        -0.57673E+08
 
   -0.55157E+08         0.10925E+06         0.00000E+00
    0.10925E+06        -0.60001E+08         0.00000E+00
    0.00000E+00         0.00000E+00        -0.57694E+08
 
   -0.55291E+08         0.17523E+06         0.00000E+00
    0.17523E+06        -0.60004E+08         0.00000E+00
    0.00000E+00         0.00000E+00        -0.57732E+08
 
   -0.55437E+08         0.23531E+06         0.00000E+00
    0.23531E+06        -0.60007E+08         0.00000E+00
    0.00000E+00         0.00000E+00        -0.57784E+08
 
   -0.55592E+08         0.28935E+06         0.00000E+00
    0.28935E+06        -0.60013E+08         0.00000E+00
    0.00000E+00         0.00000E+00        -0.57846E+08
 
   -0.55752E+08         0.33735E+06         0.00000E+00
    0.33735E+06        -0.60020E+08         0.00000E+00
    0.00000E+00         0.00000E+00        -0.57917E+08
 
   -0.55915E+08         0.37943E+06         0.00000E+00
    0.37943E+06        -0.60029E+08         0.00000E+00
    0.00000E+00         0.00000E+00        -0.57994E+08
 
   -0.56079E+08         0.41585E+06         0.00000E+00
    0.41585E+06        -0.60040E+08         0.00000E+00
    0.00000E+00         0.00000E+00        -0.58075E+08
 
   -0.56243E+08         0.44694E+06         0.00000E+00
    0.44694E+06        -0.60053E+08         0.00000E+00
    0.00000E+00         0.00000E+00        -0.58158E+08
 
   -0.56404E+08         0.47311E+06         0.00000E+00
    0.47311E+06        -0.60068E+08         0.00000E+00
    0.00000E+00         0.00000E+00        -0.58244E+08
 
   -0.56563E+08         0.49480E+06         0.00000E+00
    0.49480E+06        -0.60086E+08         0.00000E+00
    0.00000E+00         0.00000E+00        -0.58329E+08
 
   -0.56718E+08         0.51252E+06         0.00000E+00
    0.51252E+06        -0.60106E+08         0.00000E+00
    0.00000E+00         0.00000E+00        -0.58415E+08
 
   -0.56869E+08         0.52677E+06         0.00000E+00
    0.52677E+06        -0.60128E+08         0.00000E+00
    0.00000E+00         0.00000E+00        -0.58501E+08
 
   -0.57015E+08         0.53807E+06         0.00000E+00
    0.53807E+06        -0.60152E+08         0.00000E+00
    0.00000E+00         0.00000E+00        -0.58585E+08
 
   -0.57156E+08         0.54694E+06         0.00000E+00
    0.54694E+06        -0.60179E+08         0.00000E+00
    0.00000E+00         0.00000E+00        -0.58669E+08
 
   -0.57292E+08         0.55387E+06         0.00000E+00
    0.55387E+06        -0.60207E+08         0.00000E+00
    0.00000E+00         0.00000E+00        -0.58751E+08
 
   -0.57424E+08         0.55934E+06         0.00000E+00
    0.55934E+06        -0.60238E+08         0.00000E+00
    0.00000E+00         0.00000E+00        -0.58831E+08
 
   -0.57551E+08         0.56379E+06         0.00000E+00
    0.56379E+06        -0.60269E+08         0.00000E+00
    0.00000E+00         0.00000E+00        -0.58910E+08
 
   -0.57673E+08         0.56762E+06         0.00000E+00
    0.56762E+06        -0.60303E+08         0.00000E+00
    0.00000E+00         0.00000E+00        -0.58988E+08
 
   -0.57791E+08         0.57120E+06         0.00000E+00
    0.57120E+06        -0.60337E+08         0.00000E+00
    0.00000E+00         0.00000E+00        -0.59064E+08
 
   -0.57905E+08         0.57482E+06         0.00000E+00
    0.57482E+06        -0.60371E+08         0.00000E+00
    0.00000E+00         0.00000E+00        -0.59138E+08
 
   -0.58016E+08         0.57876E+06         0.00000E+00
    0.57876E+06        -0.60406E+08         0.00000E+00
    0.00000E+00         0.00000E+00        -0.59211E+08
 
   -0.58123E+08         0.58320E+06         0.00000E+00
    0.58320E+06        -0.60441E+08         0.00000E+00
    0.00000E+00         0.00000E+00        -0.59282E+08
 
   -0.58228E+08         0.58828E+06         0.00000E+00
    0.58828E+06        -0.60476E+08         0.00000E+00
    0.00000E+00         0.00000E+00        -0.59352E+08
 
   -0.58330E+08         0.59408E+06         0.00000E+00
    0.59408E+06        -0.60510E+08         0.00000E+00
    0.00000E+00         0.00000E+00        -0.59420E+08
 
   -0.58430E+08         0.60062E+06         0.00000E+00
    0.60062E+06        -0.60543E+08         0.00000E+00
    0.00000E+00         0.00000E+00        -0.59487E+08
 
   -0.58529E+08         0.60785E+06         0.00000E+00
    0.60785E+06        -0.60574E+08         0.00000E+00
    0.00000E+00         0.00000E+00        -0.59552E+08
 
   -0.58627E+08         0.61566E+06         0.00000E+00
    0.61566E+06        -0.60604E+08         0.00000E+00
    0.00000E+00         0.00000E+00        -0.59615E+08
 
   -0.58724E+08         0.62387E+06         0.00000E+00
    0.62387E+06        -0.60632E+08         0.00000E+00
    0.00000E+00         0.00000E+00        -0.59677E+08
 
   -0.58820E+08         0.63225E+06         0.00000E+00
    0.63225E+06        -0.60657E+08         0.00000E+00
    0.00000E+00         0.00000E+00        -0.59738E+08
 
   -0.58917E+08         0.64052E+06         0.00000E+00
    0.64052E+06        -0.60679E+08         0.00000E+00
    0.00000E+00         0.00000E+00        -0.59798E+08
 
   -0.59013E+08         0.64831E+06         0.00000E+00
    0.64831E+06        -0.60699E+08         0.00000E+00
    0.00000E+00         0.00000E+00        -0.59856E+08
 
   -0.59110E+08         0.65524E+06         0.00000E+00
    0.65524E+06        -0.60715E+08         0.00000E+00
    0.00000E+00         0.00000E+00        -0.59912E+08
 
   -0.59207E+08         0.66085E+06         0.00000E+00
    0.66085E+06        -0.60728E+08         0.00000E+00
    0.00000E+00         0.00000E+00        -0.59967E+08
 
   -0.59305E+08         0.66466E+06         0.00000E+00
    0.66466E+06        -0.60738E+08         0.00000E+00
    0.00000E+00         0.00000E+00        -0.60021E+08
 
   -0.59403E+08         0.66613E+06         0.00000E+00
    0.66613E+06        -0.60744E+08         0.00000E+00
    0.00000E+00         0.00000E+00        -0.60073E+08
 
   -0.59502E+08         0.66471E+06         0.00000E+00
    0.66471E+06        -0.60747E+08         0.00000E+00
    0.00000E+00         0.00000E+00        -0.60124E+08
 
   -0.59600E+08         0.65981E+06         0.00000E+00
    0.65981E+06        -0.60746E+08         0.00000E+00
    0.00000E+00         0.00000E+00        -0.60172E+08
 
   -0.59698E+08         0.65086E+06         0.00000E+00
    0.65086E+06        -0.60742E+08         0.00000E+00
    0.00000E+00         0.00000E+00        -0.60219E+08
 
   -0.59796E+08         0.63727E+06         0.00000E+00
    0.63727E+06        -0.60734E+08         0.00000E+00
    0.00000E+00         0.00000E+00        -0.60264E+08
 
   -0.59892E+08         0.61846E+06         0.00000E+00
    0.61846E+06        -0.60724E+08         0.00000E+00
    0.00000E+00         0.00000E+00        -0.60307E+08
 
   -0.59986E+08         0.59388E+06         0.00000E+00
    0.59388E+06        -0.60711E+08         0.00000E+00
    0.00000E+00         0.00000E+00        -0.60347E+08
 
   -0.60077E+08         0.56305E+06         0.00000E+00
    0.56305E+06        -0.60696E+08         0.00000E+00
    0.00000E+00         0.00000E+00        -0.60385E+08
 
   -0.60164E+08         0.52553E+06         0.00000E+00
    0.52553E+06        -0.60680E+08         0.00000E+00
    0.00000E+00         0.00000E+00        -0.60420E+08
 
   -0.60246E+08         0.48097E+06         0.00000E+00
    0.48097E+06        -0.60662E+08         0.00000E+00
    0.00000E+00         0.00000E+00        -0.60451E+08
 
   -0.60321E+08         0.42914E+06         0.00000E+00
    0.42914E+06        -0.60644E+08         0.00000E+00
    0.00000E+00         0.00000E+00        -0.60478E+08
 
   -0.60389E+08         0.36993E+06         0.00000E+00
    0.36993E+06        -0.60626E+08         0.00000E+00
    0.00000E+00         0.00000E+00        -0.60501E+08
 
   -0.60447E+08         0.30339E+06         0.00000E+00
    0.30339E+06        -0.60609E+08         0.00000E+00
    0.00000E+00         0.00000E+00        -0.60519E+08
 
   -0.60493E+08         0.22974E+06         0.00000E+00
    0.22974E+06        -0.60594E+08         0.00000E+00
    0.00000E+00         0.00000E+00        -0.60532E+08
 
   -0.60527E+08         0.14943E+06         0.00000E+00
    0.14943E+06        -0.60581E+08         0.00000E+00
    0.00000E+00         0.00000E+00        -0.60539E+08
 
   -0.54965E+08         0.37134E+05         0.00000E+00
    0.37134E+05        -0.60000E+08         0.00000E+00
    0.00000E+00         0.00000E+00        -0.57644E+08
 
   -0.55089E+08         0.10742E+06         0.00000E+00
    0.10742E+06        -0.60002E+08         0.00000E+00
    0.00000E+00         0.00000E+00        -0.57665E+08
 
   -0.55229E+08         0.17196E+06         0.00000E+00
    0.17196E+06        -0.60004E+08         0.00000E+00
    0.00000E+00         0.00000E+00        -0.57705E+08
 
   -0.55381E+08         0.23044E+06         0.00000E+00
    0.23044E+06        -0.60009E+08         0.00000E+00
    0.00000E+00         0.00000E+00        -0.57759E+08
 
   -0.55541E+08         0.28269E+06         0.00000E+00
    0.28269E+06        -0.60015E+08         0.00000E+00
    0.00000E+00         0.00000E+00        -0.57825E+08
 
   -0.55708E+08         0.32873E+06         0.00000E+00
    0.32873E+06        -0.60023E+08         0.00000E+00
    0.00000E+00         0.00000E+00        -0.57898E+08
 
   -0.55877E+08         0.36870E+06         0.00000E+00
    0.36870E+06        -0.60034E+08         0.00000E+00
    0.00000E+00         0.00000E+00        -0.57978E+08
 
   -0.56047E+08         0.40287E+06         0.00000E+00
    0.40287E+06        -0.60046E+08         0.00000E+00
    0.00000E+00         0.00000E+00        -0.58063E+08
 
   -0.56215E+08         0.43161E+06         0.00000E+00
    0.43161E+06        -0.60062E+08         0.00000E+00
    0.00000E+00         0.00000E+00        -0.58150E+08
 
   -0.56382E+08         0.45535E+06         0.00000E+00
    0.45535E+06        -0.60079E+08         0.00000E+00
    0.00000E+00         0.00000E+00        -0.58238E+08
 
   -0.56545E+08         0.47459E+06         0.00000E+00
    0.47459E+06        -0.60100E+08         0.00000E+00
    0.00000E+00         0.00000E+00        -0.58327E+08
 
   -0.56703E+08         0.48987E+06         0.00000E+00
    0.48987E+06        -0.60123E+08         0.00000E+00
    0.00000E+00         0.00000E+00        -0.58417E+08
 
   -0.56857E+08         0.50173E+06         0.00000E+00
    0.50173E+06        -0.60148E+08         0.00000E+00
    0.00000E+00         0.00000E+00        -0.58505E+08
 
   -0.57006E+08         0.51074E+06         0.00000E+00
    0.51074E+06        -0.60176E+08         0.00000E+00
    0.00000E+00         0.00000E+00        -0.58593E+08
 
   -0.57149E+08         0.51746E+06         0.00000E+00
    0.51746E+06        -0.60206E+08         0.00000E+00
    0.00000E+00         0.00000E+00        -0.58679E+08
 
   -0.57287E+08         0.52242E+06         0.00000E+00
    0.52242E+06        -0.60239E+08         0.00000E+00
    0.00000E+00         0.00000E+00        -0.58764E+08
 
   -0.57420E+08         0.52614E+06         0.00000E+00
    0.52614E+06        -0.60273E+08         0.00000E+00
    0.00000E+00         0.00000E+00        -0.58847E+08
 
   -0.57547E+08         0.52910E+06         0.00000E+00
    0.52910E+06        -0.60310E+08         0.00000E+00
    0.00000E+00         0.00000E+00        -0.58929E+08
 
   -0.57670E+08         0.53172E+06         0.00000E+00
    0.53172E+06        -0.60347E+08         0.00000E+00
    0.00000E+00         0.00000E+00        -0.59009E+08
 
   -0.57788E+08         0.53441E+06         0.00000E+00
    0.53441E+06        -0.60386E+08         0.00000E+00
    0.00000E+00         0.00000E+00        -0.59087E+08
 
   -0.57902E+08         0.53748E+06         0.00000E+00
    0.53748E+06        -0.60425E+08         0.00000E+00
    0.00000E+00         0.00000E+00        -0.59164E+08
 
   -0.58012E+08         0.54121E+06         0.00000E+00
    0.54121E+06        -0.60465E+08         0.00000E+00
    0.00000E+00         0.00000E+00        -0.59239E+08
 
   -0.58118E+08         0.54582E+06         0.00000E+00
    0.54582E+06        -0.60505E+08         0.00000E+00
    0.00000E+00         0.00000E+00        -0.59312E+08
 
   -0.58222E+08         0.55145E+06         0.00000E+00
    0.55145E+06        -0.60545E+08         0.00000E+00
    0.00000E+00         0.00000E+00        -0.59384E+08
 
   -0.58323E+08         0.55818E+06         0.00000E+00
    0.55818E+06        -0.60584E+08         0.00000E+00
    0.00000E+00         0.00000E+00        -0.59454E+08
 
   -0.58423E+08         0.56602E+06         0.00000E+00
    0.56602E+06        -0.60622E+08         0.00000E+00
    0.00000E+00         0.00000E+00        -0.59522E+08
 
   -0.58521E+08         0.57492E+06         0.00000E+00
    0.57492E+06        -0.60658E+08         0.00000E+00
    0.00000E+00         0.00000E+00        -0.59589E+08
 
   -0.58618E+08         0.58475E+06         0.00000E+00
    0.58475E+06        -0.60692E+08         0.00000E+00
    0.00000E+00         0.00000E+00        -0.59655E+08
 
   -0.58714E+08         0.59533E+06         0.00000E+00
    0.59533E+06        -0.60724E+08         0.00000E+00
    0.00000E+00         0.00000E+00        -0.59719E+08
 
   -0.58810E+08         0.60639E+06         0.00000E+00
    0.60639E+06        -0.60753E+08         0.00000E+00
    0.00000E+00         0.00000E+00        -0.59782E+08
 
   -0.58907E+08         0.61761E+06         0.00000E+00
    0.61761E+06        -0.60779E+08         0.00000E+00
    0.00000E+00         0.00000E+00        -0.59843E+08
 
   -0.59004E+08         0.62862E+06         0.00000E+00
    0.62862E+06        -0.60803E+08         0.00000E+00
    0.00000E+00         0.00000E+00        -0.59903E+08
 
   -0.59102E+08         0.63896E+06         0.00000E+00
    0.63896E+06        -0.60822E+08         0.00000E+00
    0.00000E+00         0.00000E+00        -0.59962E+08
 
   -0.59201E+08         0.64815E+06         0.00000E+00
    0.64815E+06        -0.60838E+08         0.00000E+00
    0.00000E+00         0.00000E+00        -0.60019E+08
 
   -0.59300E+08         0.65563E+06         0.00000E+00
    0.65563E+06        -0.60850E+08         0.00000E+00
    0.00000E+00         0.00000E+00        -0.60075E+08
 
   -0.59401E+08         0.66083E+06         0.00000E+00
    0.66083E+06        -0.60859E+08         0.00000E+00
    0.00000E+00         0.00000E+00        -0.60129E+08
 
   -0.59503E+08         0.66313E+06         0.00000E+00
    0.66313E+06        -0.60863E+08         0.00000E+00
    0.00000E+00         0.00000E+00        -0.60182E+08
 
   -0.59605E+08         0.66188E+06         0.00000E+00
    0.66188E+06        -0.60863E+08         0.00000E+00
    0.00000E+00         0.00000E+00        -0.60234E+08
 
   -0.59708E+08         0.65642E+06         0.00000E+00
    0.65642E+06        -0.60860E+08         0.00000E+00
    0.00000E+00         0.00000E+00        -0.60283E+08
 
   -0.59810E+08         0.64608E+06         0.00000E+00
    0.64608E+06        -0.60853E+08         0.00000E+00
    0.00000E+00         0.00000E+00        -0.60331E+08
 
   -0.59912E+08         0.63023E+06         0.00000E+00
    0.63023E+06        -0.60842E+08         0.00000E+00
    0.00000E+00         0.00000E+00        -0.60376E+08
 
   -0.60012E+08         0.60823E+06         0.00000E+00
    0.60823E+06        -0.60829E+08         0.00000E+00
    0.00000E+00         0.00000E+00        -0.60419E+08
 
   -0.60110E+08         0.57951E+06         0.00000E+00
    0.57951E+06        -0.60813E+08         0.00000E+00
    0.00000E+00         0.00000E+00        -0.60459E+08
 
   -0.60204E+08         0.54356E+06         0.00000E+00
    0.54356E+06        -0.60795E+08         0.00000E+00
    0.00000E+00         0.00000E+00        -0.60497E+08
 
   -0.60294E+08         0.49997E+06         0.00000E+00
    0.49997E+06        -0.60776E+08         0.00000E+00
    0.00000E+00         0.00000E+00        -0.60530E+08
 
   -0.60377E+08         0.44843E+06         0.00000E+00
    0.44843E+06        -0.60755E+08         0.00000E+00
    0.00000E+00         0.00000E+00        -0.60560E+08
 
   -0.60452E+08         0.38878E+06         0.00000E+00
    0.38878E+06        -0.60735E+08         0.00000E+00
    0.00000E+00         0.00000E+00        -0.60585E+08
 
   -0.60518E+08         0.32103E+06         0.00000E+00
    0.32103E+06        -0.60715E+08         0.00000E+00
    0.00000E+00         0.00000E+00        -0.60605E+08
 
   -0.60572E+08         0.24538E+06         0.00000E+00
    0.24538E+06        -0.60697E+08         0.00000E+00
    0.00000E+00         0.00000E+00        -0.60620E+08
 
   -0.60612E+08         0.16227E+06         0.00000E+00
    0.16227E+06        -0.60682E+08         0.00000E+00
    0.00000E+00         0.00000E+00        -0.60627E+08
 
   -0.54893E+08         0.36449E+05         0.00000E+00
    0.36449E+05        -0.60000E+08         0.00000E+00
    0.00000E+00         0.00000E+00        -0.57616E+08
 
   -0.55022E+08         0.10524E+06         0.00000E+00
    0.10524E+06        -0.60002E+08         0.00000E+00
    0.00000E+00         0.00000E+00        -0.57638E+08
 
   -0.55168E+08         0.16813E+06         0.00000E+00
    0.16813E+06        -0.60005E+08         0.00000E+00
    0.00000E+00         0.00000E+00        -0.57679E+08
 
   -0.55326E+08         0.22475E+06         0.00000E+00
    0.22475E+06        -0.60010E+08         0.00000E+00
    0.00000E+00         0.00000E+00        -0.57736E+08
 
   -0.55493E+08         0.27495E+06         0.00000E+00
    0.27495E+06        -0.60017E+08         0.00000E+00
    0.00000E+00         0.00000E+00        -0.57804E+08
 
   -0.55666E+08         0.31875E+06         0.00000E+00
    0.31875E+06        -0.60027E+08         0.00000E+00
    0.00000E+00         0.00000E+00        -0.57881E+08
 
   -0.55841E+08         0.35631E+06         0.00000E+00
    0.35631E+06        -0.60039E+08         0.00000E+00
    0.00000E+00         0.00000E+00        -0.57964E+08
 
   -0.56017E+08         0.38794E+06         0.00000E+00
    0.38794E+06        -0.60053E+08         0.00000E+00
    0.00000E+00         0.00000E+00        -0.58052E+08
 
   -0.56191E+08         0.41401E+06         0.00000E+00
    0.41401E+06        -0.60071E+08         0.00000E+00
    0.00000E+00         0.00000E+00        -0.58142E+08
 
   -0.56362E+08         0.43502E+06         0.00000E+00
    0.43502E+06        -0.60091E+08         0.00000E+00
    0.00000E+00         0.00000E+00        -0.58234E+08
 
   -0.56529E+08         0.45150E+06         0.00000E+00
    0.45150E+06        -0.60114E+08         0.00000E+00
    0.00000E+00         0.00000E+00        -0.58327E+08
 
   -0.56691E+08         0.46403E+06         0.00000E+00
    0.46403E+06        -0.60140E+08         0.00000E+00
    0.00000E+00         0.00000E+00        -0.58419E+08
 
   -0.56848E+08         0.47321E+06         0.00000E+00
    0.47321E+06        -0.60169E+08         0.00000E+00
    0.00000E+00         0.00000E+00        -0.58511E+08
 
   -0.56999E+08         0.47965E+06         0.00000E+00
    0.47965E+06        -0.60201E+08         0.00000E+00
    0.00000E+00         0.00000E+00        -0.58602E+08
 
   -0.57145E+08         0.48395E+06         0.00000E+00
    0.48395E+06        -0.60235E+08         0.00000E+00
    0.00000E+00         0.00000E+00        -0.58691E+08
 
   -0.57284E+08         0.48670E+06         0.00000E+00
    0.48670E+06        -0.60272E+08         0.00000E+00
    0.00000E+00         0.00000E+00        -0.58779E+08
 
   -0.57418E+08         0.48846E+06         0.00000E+00
    0.48846E+06        -0.60311E+08         0.00000E+00
    0.00000E+00         0.00000E+00        -0.58865E+08
 
   -0.57545E+08         0.48973E+06         0.00000E+00
    0.48973E+06        -0.60352E+08         0.00000E+00
    0.00000E+00         0.00000E+00        -0.58949E+08
 
   -0.57668E+08         0.49100E+06         0.00000E+00
    0.49100E+06        -0.60394E+08         0.00000E+00
    0.00000E+00         0.00000E+00        -0.59031E+08
 
   -0.57786E+08         0.49266E+06         0.00000E+00
    0.49266E+06        -0.60438E+08         0.00000E+00
    0.00000E+00         0.00000E+00        -0.59112E+08
 
   -0.57899E+08         0.49509E+06         0.00000E+00
    0.49509E+06        -0.60483E+08         0.00000E+00
    0.00000E+00         0.00000E+00        -0.59191E+08
 
   -0.58008E+08         0.49858E+06         0.00000E+00
    0.49858E+06        -0.60528E+08         0.00000E+00
    0.00000E+00         0.00000E+00        -0.59268E+08
 
   -0.58113E+08         0.50334E+06         0.00000E+00
    0.50334E+06        -0.60573E+08         0.00000E+00
    0.00000E+00         0.00000E+00        -0.59343E+08
 
   -0.58216E+08         0.50954E+06         0.00000E+00
    0.50954E+06        -0.60618E+08         0.00000E+00
    0.00000E+00         0.00000E+00        -0.59417E+08
 
   -0.58316E+08         0.51726E+06         0.00000E+00
    0.51726E+06        -0.60662E+08         0.00000E+00
    0.00000E+00         0.00000E+00        -0.59489E+08
 
   -0.58414E+08         0.52651E+06         0.00000E+00
    0.52651E+06        -0.60705E+08         0.00000E+00
    0.00000E+00         0.00000E+00        -0.59559E+08
 
   -0.58510E+08         0.53722E+06         0.00000E+00
    0.53722E+06        -0.60746E+08         0.00000E+00
    0.00000E+00         0.00000E+00        -0.59628E+08
 
   -0.58606E+08         0.54926E+06         0.00000E+00
    0.54926E+06        -0.60785E+08         0.00000E+00
    0.00000E+00         0.00000E+00        -0.59695E+08
 
   -0.58702E+08         0.56242E+06         0.00000E+00
    0.56242E+06        -0.60822E+08         0.00000E+00
    0.00000E+00         0.00000E+00        -0.59762E+08
 
   -0.58798E+08         0.57641E+06         0.00000E+00
    0.57641E+06        -0.60855E+08         0.00000E+00
    0.00000E+00         0.00000E+00        -0.59826E+08
 
   -0.58894E+08         0.59088E+06         0.00000E+00
    0.59088E+06        -0.60886E+08         0.00000E+00
    0.00000E+00         0.00000E+00        -0.59890E+08
 
   -0.58991E+08         0.60541E+06         0.00000E+00
    0.60541E+06        -0.60913E+08         0.00000E+00
    0.00000E+00         0.00000E+00        -0.59952E+08
 
   -0.59090E+08         0.61952E+06         0.00000E+00
    0.61952E+06        -0.60936E+08         0.00000E+00
    0.00000E+00         0.00000E+00        -0.60012E+08
 
   -0.59190E+08         0.63266E+06         0.00000E+00
    0.63266E+06        -0.60955E+08         0.00000E+00
    0.00000E+00         0.00000E+00        -0.60072E+08
 
   -0.59292E+08         0.64423E+06         0.00000E+00
    0.64423E+06        -0.60970E+08         0.00000E+00
    0.00000E+00         0.00000E+00        -0.60130E+08
 
   -0.59395E+08         0.65359E+06         0.00000E+00
    0.65359E+06        -0.60980E+08         0.00000E+00
    0.00000E+00         0.00000E+00        -0.60187E+08
 
   -0.59500E+08         0.66006E+06         0.00000E+00
    0.66006E+06        -0.60986E+08         0.00000E+00
    0.00000E+00         0.00000E+00        -0.60242E+08
 
   -0.59606E+08         0.66291E+06         0.00000E+00
    0.66291E+06        -0.60988E+08         0.00000E+00
    0.00000E+00         0.00000E+00        -0.60296E+08
 
   -0.59714E+08         0.66141E+06         0.00000E+00
    0.66141E+06        -0.60985E+08         0.00000E+00
    0.00000E+00         0.00000E+00        -0.60349E+08
 
   -0.59822E+08         0.65481E+06         0.00000E+00
    0.65481E+06        -0.60978E+08         0.00000E+00
    0.00000E+00         0.00000E+00        -0.60399E+08
 
   -0.59929E+08         0.64239E+06         0.00000E+00
    0.64239E+06        -0.60968E+08         0.00000E+00
    0.00000E+00         0.00000E+00        -0.60447E+08
 
   -0.60036E+08         0.62342E+06         0.00000E+00
    0.62342E+06        -0.60954E+08         0.00000E+00
    0.00000E+00         0.00000E+00        -0.60493E+08
 
   -0.60141E+08         0.59726E+06         0.00000E+00
    0.59726E+06        -0.60937E+08         0.00000E+00
    0.00000E+00         0.00000E+00        -0.60536E+08
 
   -0.60243E+08         0.56330E+06         0.00000E+00
    0.56330E+06        -0.60917E+08         0.00000E+00
    0.00000E+00         0.00000E+00        -0.60576E+08
 
   -0.60341E+08         0.52105E+06         0.00000E+00
    0.52105E+06        -0.60896E+08         0.00000E+00
    0.00000E+00         0.00000E+00        -0.60613E+08
 
   -0.60432E+08         0.47014E+06         0.00000E+00
    0.47014E+06        -0.60873E+08         0.00000E+00
    0.00000E+00         0.00000E+00        -0.60645E+08
 
   -0.60516E+08         0.41033E+06         0.00000E+00
    0.41033E+06        -0.60850E+08         0.00000E+00
    0.00000E+00         0.00000E+00        -0.60673E+08
 
   -0.60590E+08         0.34160E+06         0.00000E+00
    0.34160E+06        -0.60828E+08         0.00000E+00
    0.00000E+00         0.00000E+00        -0.60695E+08
 
   -0.60652E+08         0.26412E+06         0.00000E+00
    0.26412E+06        -0.60806E+08         0.00000E+00
    0.00000E+00         0.00000E+00        -0.60710E+08
 
   -0.60700E+08         0.17829E+06         0.00000E+00
    0.17829E+06        -0.60787E+08         0.00000E+00
    0.00000E+00         0.00000E+00        -0.60719E+08
 
   -0.54822E+08         0.35652E+05         0.00000E+00
    0.35652E+05        -0.60000E+08         0.00000E+00
    0.00000E+00         0.00000E+00        -0.57588E+08
 
   -0.54957E+08         0.10273E+06         0.00000E+00
    0.10273E+06        -0.60002E+08         0.00000E+00
    0.00000E+00         0.00000E+00        -0.57611E+08
 
   -0.55109E+08         0.16370E+06         0.00000E+00
    0.16370E+06        -0.60006E+08         0.00000E+00
    0.00000E+00         0.00000E+00        -0.57655E+08
 
   -0.55274E+08         0.21821E+06         0.00000E+00
    0.21821E+06        -0.60012E+08         0.00000E+00
    0.00000E+00         0.00000E+00        -0.57713E+08
 
   -0.55448E+08         0.26608E+06         0.00000E+00
    0.26608E+06        -0.60020E+08         0.00000E+00
    0.00000E+00         0.00000E+00        -0.57785E+08
 
   -0.55627E+08         0.30736E+06         0.00000E+00
    0.30736E+06        -0.60031E+08         0.00000E+00
    0.00000E+00         0.00000E+00        -0.57865E+08
 
   -0.55808E+08         0.34221E+06         0.00000E+00
    0.34221E+06        -0.60044E+08         0.00000E+00
    0.00000E+00         0.00000E+00        -0.57952E+08
 
   -0.55989E+08         0.37096E+06         0.00000E+00
    0.37096E+06        -0.60061E+08         0.00000E+00
    0.00000E+00         0.00000E+00        -0.58043E+08
 
   -0.56169E+08         0.39405E+06         0.00000E+00
    0.39405E+06        -0.60080E+08         0.00000E+00
    0.00000E+00         0.00000E+00        -0.58137E+08
 
   -0.56345E+08         0.41200E+06         0.00000E+00
    0.41200E+06        -0.60103E+08         0.00000E+00
    0.00000E+00         0.00000E+00        -0.58232E+08
 
   -0.56516E+08         0.42538E+06         0.00000E+00
    0.42538E+06        -0.60129E+08         0.00000E+00
    0.00000E+00         0.00000E+00        -0.58328E+08
 
   -0.56682E+08         0.43483E+06         0.00000E+00
    0.43483E+06        -0.60159E+08         0.00000E+00
    0.00000E+00         0.00000E+00        -0.58424E+08
 
   -0.56842E+08         0.44101E+06         0.00000E+00
    0.44101E+06        -0.60191E+08         0.00000E+00
    0.00000E+00         0.00000E+00        -0.58519E+08
 
   -0.56995E+08         0.44457E+06         0.00000E+00
    0.44457E+06        -0.60227E+08         0.00000E+00
    0.00000E+00         0.00000E+00        -0.58613E+08
 
   -0.57142E+08         0.44618E+06         0.00000E+00
    0.44618E+06        -0.60265E+08         0.00000E+00
    0.00000E+00         0.00000E+00        -0.58705E+08
 
   -0.57283E+08         0.44646E+06         0.00000E+00
    0.44646E+06        -0.60307E+08         0.00000E+00
    0.00000E+00         0.00000E+00        -0.58796E+08
 
   -0.57417E+08         0.44602E+06         0.00000E+00
    0.44602E+06        -0.60350E+08         0.00000E+00
    0.00000E+00         0.00000E+00        -0.58884E+08
 
   -0.57545E+08         0.44541E+06         0.00000E+00
    0.44541E+06        -0.60396E+08         0.00000E+00
    0.00000E+00         0.00000E+00        -0.58971E+08
 
   -0.57667E+08         0.44515E+06         0.00000E+00
    0.44515E+06        -0.60444E+08         0.00000E+00
    0.00000E+00         0.00000E+00        -0.59056E+08
 
   -0.57784E+08         0.44567E+06         0.00000E+00
    0.44567E+06        -0.60493E+08         0.00000E+00
    0.00000E+00         0.00000E+00        -0.59139E+08
 
   -0.57896E+08         0.44737E+06         0.00000E+00
    0.44737E+06        -0.60543E+08         0.00000E+00
    0.00000E+00         0.00000E+00        -0.59220E+08
 
   -0.58004E+08         0.45055E+06         0.00000E+00
    0.45055E+06        -0.60594E+08         0.00000E+00
    0.00000E+00         0.00000E+00        -0.59299E+08
 
   -0.58107E+08         0.45546E+06         0.00000E+00
    0.45546E+06        -0.60645E+08         0.00000E+00
    0.00000E+00         0.00000E+00        -0.59376E+08
 
   -0.58208E+08         0.46226E+06         0.00000E+00
    0.46226E+06        -0.60695E+08         0.00000E+00
    0.00000E+00         0.00000E+00        -0.59452E+08
 
   -0.58306E+08         0.47104E+06         0.00000E+00
    0.47104E+06        -0.60745E+08         0.00000E+00
    0.00000E+00         0.00000E+00        -0.59525E+08
 
   -0.58403E+08         0.48180E+06         0.00000E+00
    0.48180E+06        -0.60793E+08         0.00000E+00
    0.00000E+00         0.00000E+00        -0.59598E+08
 
   -0.58498E+08         0.49447E+06         0.00000E+00
    0.49447E+06        -0.60839E+08         0.00000E+00
    0.00000E+00         0.00000E+00        -0.59668E+08
 
   -0.58592E+08         0.50890E+06         0.00000E+00
    0.50890E+06        -0.60883E+08         0.00000E+00
    0.00000E+00         0.00000E+00        -0.59738E+08
 
   -0.58687E+08         0.52486E+06         0.00000E+00
    0.52486E+06        -0.60925E+08         0.00000E+00
    0.00000E+00         0.00000E+00        -0.59806E+08
 
   -0.58782E+08         0.54205E+06         0.00000E+00
    0.54205E+06        -0.60963E+08         0.00000E+00
    0.00000E+00         0.00000E+00        -0.59872E+08
 
   -0.58878E+08         0.56006E+06         0.00000E+00
    0.56006E+06        -0.60998E+08         0.00000E+00
    0.00000E+00         0.00000E+00        -0.59938E+08
 
   -0.58975E+08         0.57846E+06         0.00000E+00
    0.57846E+06        -0.61029E+08         0.00000E+00
    0.00000E+00         0.00000E+00        -0.60002E+08
 
   -0.59074E+08         0.59670E+06         0.00000E+00
    0.59670E+06        -0.61056E+08         0.00000E+00
    0.00000E+00         0.00000E+00        -0.60065E+08
 
   -0.59175E+08         0.61419E+06         0.00000E+00
    0.61419E+06        -0.61078E+08         0.00000E+00
    0.00000E+00         0.00000E+00        -0.60126E+08
 
   -0.59279E+08         0.63028E+06         0.00000E+00
    0.63028E+06        -0.61096E+08         0.00000E+00
    0.00000E+00         0.00000E+00        -0.60187E+08
 
   -0.59385E+08         0.64427E+06         0.00000E+00
    0.64427E+06        -0.61109E+08         0.00000E+00
    0.00000E+00         0.00000E+00        -0.60246E+08
 
   -0.59493E+08         0.65538E+06         0.00000E+00
    0.65538E+06        -0.61117E+08         0.00000E+00
    0.00000E+00         0.00000E+00        -0.60304E+08
 
   -0.59603E+08         0.66283E+06         0.00000E+00
    0.66283E+06        -0.61120E+08         0.00000E+00
    0.00000E+00         0.00000E+00        -0.60361E+08
 
   -0.59716E+08         0.66579E+06         0.00000E+00
    0.66579E+06        -0.61118E+08         0.00000E+00
    0.00000E+00         0.00000E+00        -0.60416E+08
 
   -0.59829E+08         0.66345E+06         0.00000E+00
    0.66345E+06        -0.61112E+08         0.00000E+00
    0.00000E+00         0.00000E+00        -0.60469E+08
 
   -0.59943E+08         0.65496E+06         0.00000E+00
    0.65496E+06        -0.61101E+08         0.00000E+00
    0.00000E+00         0.00000E+00        -0.60520E+08
 
   -0.60057E+08         0.63954E+06         0.00000E+00
    0.63954E+06        -0.61086E+08         0.00000E+00
    0.00000E+00         0.00000E+00        -0.60569E+08
 
   -0.60170E+08         0.61641E+06         0.00000E+00
    0.61641E+06        -0.61068E+08         0.00000E+00
    0.00000E+00         0.00000E+00        -0.60616E+08
 
   -0.60280E+08         0.58490E+06         0.00000E+00
    0.58490E+06        -0.61047E+08         0.00000E+00
    0.00000E+00         0.00000E+00        -0.60659E+08
 
   -0.60387E+08         0.54442E+06         0.00000E+00
    0.54442E+06        -0.61023E+08         0.00000E+00
    0.00000E+00         0.00000E+00        -0.60698E+08
 
   -0.60487E+08         0.49451E+06         0.00000E+00
    0.49451E+06        -0.60998E+08         0.00000E+00
    0.00000E+00         0.00000E+00        -0.60733E+08
 
   -0.60580E+08         0.43488E+06         0.00000E+00
    0.43488E+06        -0.60972E+08         0.00000E+00
    0.00000E+00         0.00000E+00        -0.60763E+08
 
   -0.60664E+08         0.36544E+06         0.00000E+00
    0.36544E+06        -0.60946E+08         0.00000E+00
    0.00000E+00         0.00000E+00        -0.60788E+08
 
   -0.60735E+08         0.28631E+06         0.00000E+00
    0.28631E+06        -0.60921E+08         0.00000E+00
    0.00000E+00         0.00000E+00        -0.60805E+08
 
   -0.60792E+08         0.19791E+06         0.00000E+00
    0.19791E+06        -0.60898E+08         0.00000E+00
    0.00000E+00         0.00000E+00        -0.60814E+08
 
   -0.54753E+08         0.34742E+05         0.00000E+00
    0.34742E+05        -0.60000E+08         0.00000E+00
    0.00000E+00         0.00000E+00        -0.57562E+08
 
   -0.54894E+08         0.99862E+05         0.00000E+00
    0.99862E+05        -0.60002E+08         0.00000E+00
    0.00000E+00         0.00000E+00        -0.57586E+08
 
   -0.55053E+08         0.15868E+06         0.00000E+00
    0.15868E+06        -0.60007E+08         0.00000E+00
    0.00000E+00         0.00000E+00        -0.57631E+08
 
   -0.55224E+08         0.21080E+06         0.00000E+00
    0.21080E+06        -0.60013E+08         0.00000E+00
    0.00000E+00         0.00000E+00        -0.57693E+08
 
   -0.55404E+08         0.25607E+06         0.00000E+00
    0.25607E+06        -0.60022E+08         0.00000E+00
    0.00000E+00         0.00000E+00        -0.57767E+08
 
   -0.55590E+08         0.29451E+06         0.00000E+00
    0.29451E+06        -0.60035E+08         0.00000E+00
    0.00000E+00         0.00000E+00        -0.57850E+08
 
   -0.55778E+08         0.32632E+06         0.00000E+00
    0.32632E+06        -0.60050E+08         0.00000E+00
    0.00000E+00         0.00000E+00        -0.57940E+08
 
   -0.55965E+08         0.35187E+06         0.00000E+00
    0.35187E+06        -0.60068E+08         0.00000E+00
    0.00000E+00         0.00000E+00        -0.58035E+08
 
   -0.56150E+08         0.37161E+06         0.00000E+00
    0.37161E+06        -0.60090E+08         0.00000E+00
    0.00000E+00         0.00000E+00        -0.58133E+08
 
   -0.56331E+08         0.38613E+06         0.00000E+00
    0.38613E+06        -0.60116E+08         0.00000E+00
    0.00000E+00         0.00000E+00        -0.58232E+08
 
   -0.56506E+08         0.39606E+06         0.00000E+00
    0.39606E+06        -0.60145E+08         0.00000E+00
    0.00000E+00         0.00000E+00        -0.58332E+08
 
   -0.56676E+08         0.40208E+06         0.00000E+00
    0.40208E+06        -0.60178E+08         0.00000E+00
    0.00000E+00         0.00000E+00        -0.58431E+08
 
   -0.56839E+08         0.40492E+06         0.00000E+00
    0.40492E+06        -0.60214E+08         0.00000E+00
    0.00000E+00         0.00000E+00        -0.58529E+08
 
   -0.56994E+08         0.40528E+06         0.00000E+00
    0.40528E+06        -0.60254E+08         0.00000E+00
    0.00000E+00         0.00000E+00        -0.58626E+08
 
   -0.57143E+08         0.40388E+06         0.00000E+00
    0.40388E+06        -0.60297E+08         0.00000E+00
    0.00000E+00         0.00000E+00        -0.58721E+08
 
   -0.57284E+08         0.40142E+06         0.00000E+00
    0.40142E+06        -0.60343E+08         0.00000E+00
    0.00000E+00         0.00000E+00        -0.58815E+08
 
   -0.57419E+08         0.39853E+06         0.00000E+00
    0.39853E+06        -0.60392E+08         0.00000E+00
    0.00000E+00         0.00000E+00        -0.58906E+08
 
   -0.57547E+08         0.39583E+06         0.00000E+00
    0.39583E+06        -0.60443E+08         0.00000E+00
    0.00000E+00         0.00000E+00        -0.58995E+08
 
   -0.57668E+08         0.39386E+06         0.00000E+00
    0.39386E+06        -0.60496E+08         0.00000E+00
    0.00000E+00         0.00000E+00        -0.59082E+08
 
   -0.57784E+08         0.39311E+06         0.00000E+00
    0.39311E+06        -0.60551E+08         0.00000E+00
    0.00000E+00         0.00000E+00        -0.59167E+08
 
   -0.57894E+08         0.39398E+06         0.00000E+00
    0.39398E+06        -0.60607E+08         0.00000E+00
    0.00000E+00         0.00000E+00        -0.59251E+08
 
   -0.58000E+08         0.39680E+06         0.00000E+00
    0.39680E+06        -0.60663E+08         0.00000E+00
    0.00000E+00         0.00000E+00        -0.59332E+08
 
   -0.58101E+08         0.40184E+06         0.00000E+00
    0.40184E+06        -0.60720E+08         0.00000E+00
    0.00000E+00         0.00000E+00        -0.59411E+08
 
   -0.58200E+08         0.40927E+06         0.00000E+00
    0.40927E+06        -0.60776E+08         0.00000E+00
    0.00000E+00         0.00000E+00        -0.59488E+08
 
   -0.58296E+08         0.41918E+06         0.00000E+00
    0.41918E+06        -0.60832E+08         0.00000E+00
    0.00000E+00         0.00000E+00        -0.59564E+08
 
   -0.58390E+08         0.43156E+06         0.00000E+00
    0.43156E+06        -0.60886E+08         0.00000E+00
    0.00000E+00         0.00000E+00        -0.59638E+08
 
   -0.58483E+08         0.44635E+06         0.00000E+00
    0.44635E+06        -0.60938E+08         0.00000E+00
    0.00000E+00         0.00000E+00        -0.59710E+08
 
   -0.58576E+08         0.46337E+06         0.00000E+00
    0.46337E+06        -0.60987E+08         0.00000E+00
    0.00000E+00         0.00000E+00        -0.59781E+08
 
   -0.58669E+08         0.48238E+06         0.00000E+00
    0.48238E+06        -0.61034E+08         0.00000E+00
    0.00000E+00         0.00000E+00        -0.59851E+08
 
   -0.58762E+08         0.50303E+06         0.00000E+00
    0.50303E+06        -0.61077E+08         0.00000E+00
    0.00000E+00         0.00000E+00        -0.59919E+08
 
   -0.58857E+08         0.52490E+06         0.00000E+00
    0.52490E+06        -0.61117E+08         0.00000E+00
    0.00000E+00         0.00000E+00        -0.59987E+08
 
   -0.58954E+08         0.54751E+06         0.00000E+00
    0.54751E+06        -0.61152E+08         0.00000E+00
    0.00000E+00         0.00000E+00        -0.60053E+08
 
   -0.59054E+08         0.57028E+06         0.00000E+00
    0.57028E+06        -0.61183E+08         0.00000E+00
    0.00000E+00         0.00000E+00        -0.60118E+08
 
   -0.59156E+08         0.59255E+06         0.00000E+00
    0.59255E+06        -0.61208E+08         0.00000E+00
    0.00000E+00         0.00000E+00        -0.60182E+08
 
   -0.59261E+08         0.61362E+06         0.00000E+00
    0.61362E+06        -0.61229E+08         0.00000E+00
    0.00000E+00         0.00000E+00        -0.60245E+08
 
   -0.59370E+08         0.63270E+06         0.00000E+00
    0.63270E+06        -0.61245E+08         0.00000E+00
    0.00000E+00         0.00000E+00        -0.60306E+08
 
   -0.59481E+08         0.64897E+06         0.00000E+00
    0.64897E+06        -0.61255E+08         0.00000E+00
    0.00000E+00         0.00000E+00        -0.60367E+08
 
   -0.59596E+08         0.66154E+06         0.00000E+00
    0.66154E+06        -0.61259E+08         0.00000E+00
    0.00000E+00         0.00000E+00        -0.60426E+08
 
   -0.59713E+08         0.66952E+06         0.00000E+00
    0.66952E+06        -0.61258E+08         0.00000E+00
    0.00000E+00         0.00000E+00        -0.60484E+08
 
   -0.59832E+08         0.67198E+06         0.00000E+00
    0.67198E+06        -0.61252E+08         0.00000E+00
    0.00000E+00         0.00000E+00        -0.60541E+08
 
   -0.59953E+08         0.66800E+06         0.00000E+00
    0.66800E+06        -0.61242E+08         0.00000E+00
    0.00000E+00         0.00000E+00        -0.60595E+08
 
   -0.60074E+08         0.65666E+06         0.00000E+00
    0.65666E+06        -0.61226E+08         0.00000E+00
    0.00000E+00         0.00000E+00        -0.60647E+08
 
   -0.60196E+08         0.63711E+06         0.00000E+00
    0.63711E+06        -0.61207E+08         0.00000E+00
    0.00000E+00         0.00000E+00        -0.60697E+08
 
   -0.60315E+08         0.60855E+06         0.00000E+00
    0.60855E+06        -0.61183E+08         0.00000E+00
    0.00000E+00         0.00000E+00        -0.60743E+08
 
   -0.60431E+08         0.57031E+06         0.00000E+00
    0.57031E+06        -0.61157E+08         0.00000E+00
    0.00000E+00         0.00000E+00        -0.60786E+08
 
   -0.60542E+08         0.52184E+06         0.00000E+00
    0.52184E+06        -0.61129E+08         0.00000E+00
    0.00000E+00         0.00000E+00        -0.60824E+08
 
   -0.60645E+08         0.46276E+06         0.00000E+00
    0.46276E+06        -0.61100E+08         0.00000E+00
    0.00000E+00         0.00000E+00        -0.60857E+08
 
   -0.60739E+08         0.39291E+06         0.00000E+00
    0.39291E+06        -0.61070E+08         0.00000E+00
    0.00000E+00         0.00000E+00        -0.60884E+08
 
   -0.60820E+08         0.31239E+06         0.00000E+00
    0.31239E+06        -0.61042E+08         0.00000E+00
    0.00000E+00         0.00000E+00        -0.60902E+08
 
   -0.60886E+08         0.22156E+06         0.00000E+00
    0.22156E+06        -0.61015E+08         0.00000E+00
    0.00000E+00         0.00000E+00        -0.60912E+08
 
   -0.54686E+08         0.33719E+05         0.00000E+00
    0.33719E+05        -0.60000E+08         0.00000E+00
    0.00000E+00         0.00000E+00        -0.57537E+08
 
   -0.54833E+08         0.96650E+05         0.00000E+00
    0.96650E+05        -0.60003E+08         0.00000E+00
    0.00000E+00         0.00000E+00        -0.57562E+08
 
   -0.54998E+08         0.15305E+06         0.00000E+00
    0.15305E+06        -0.60007E+08         0.00000E+00
    0.00000E+00         0.00000E+00        -0.57609E+08
 
   -0.55177E+08         0.20252E+06         0.00000E+00
    0.20252E+06        -0.60015E+08         0.00000E+00
    0.00000E+00         0.00000E+00        -0.57673E+08
 
   -0.55364E+08         0.24487E+06         0.00000E+00
    0.24487E+06        -0.60025E+08         0.00000E+00
    0.00000E+00         0.00000E+00        -0.57750E+08
 
   -0.55557E+08         0.28015E+06         0.00000E+00
    0.28015E+06        -0.60038E+08         0.00000E+00
    0.00000E+00         0.00000E+00        -0.57837E+08
 
   -0.55751E+08         0.30858E+06         0.00000E+00
    0.30858E+06        -0.60055E+08         0.00000E+00
    0.00000E+00         0.00000E+00        -0.57931E+08
 
   -0.55944E+08         0.33055E+06         0.00000E+00
    0.33055E+06        -0.60076E+08         0.00000E+00
    0.00000E+00         0.00000E+00        -0.58030E+08
 
   -0.56135E+08         0.34658E+06         0.00000E+00
    0.34658E+06        -0.60100E+08         0.00000E+00
    0.00000E+00         0.00000E+00        -0.58131E+08
 
   -0.56321E+08         0.35729E+06         0.00000E+00
    0.35729E+06        -0.60129E+08         0.00000E+00
    0.00000E+00         0.00000E+00        -0.58234E+08
 
   -0.56500E+08         0.36338E+06         0.00000E+00
    0.36338E+06        -0.60161E+08         0.00000E+00
    0.00000E+00         0.00000E+00        -0.58337E+08
 
   -0.56673E+08         0.36559E+06         0.00000E+00
    0.36559E+06        -0.60198E+08         0.00000E+00
    0.00000E+00         0.00000E+00        -0.58440E+08
 
   -0.56839E+08         0.36471E+06         0.00000E+00
    0.36471E+06        -0.60238E+08         0.00000E+00
    0.00000E+00         0.00000E+00        -0.58541E+08
 
   -0.56997E+08         0.36152E+06         0.00000E+00
    0.36152E+06        -0.60282E+08         0.00000E+00
    0.00000E+00         0.00000E+00        -0.58642E+08
 
   -0.57147E+08         0.35680E+06         0.00000E+00
    0.35680E+06        -0.60330E+08         0.00000E+00
    0.00000E+00         0.00000E+00        -0.58740E+08
 
   -0.57289E+08         0.35130E+06         0.00000E+00
    0.35130E+06        -0.60381E+08         0.00000E+00
    0.00000E+00         0.00000E+00        -0.58836E+08
 
   -0.57423E+08         0.34571E+06         0.00000E+00
    0.34571E+06        -0.60435E+08         0.00000E+00
    0.00000E+00         0.00000E+00        -0.58930E+08
 
   -0.57550E+08         0.34069E+06         0.00000E+00
    0.34069E+06        -0.60492E+08         0.00000E+00
    0.00000E+00         0.00000E+00        -0.59022E+08
 
   -0.57670E+08         0.33684E+06         0.00000E+00
    0.33684E+06        -0.60551E+08         0.00000E+00
    0.00000E+00         0.00000E+00        -0.59111E+08
 
   -0.57784E+08         0.33466E+06         0.00000E+00
    0.33466E+06        -0.60612E+08         0.00000E+00
    0.00000E+00         0.00000E+00        -0.59198E+08
 
   -0.57892E+08         0.33460E+06         0.00000E+00
    0.33460E+06        -0.60674E+08         0.00000E+00
    0.00000E+00         0.00000E+00        -0.59283E+08
 
   -0.57996E+08         0.33701E+06         0.00000E+00
    0.33701E+06        -0.60737E+08         0.00000E+00
    0.00000E+00         0.00000E+00        -0.59366E+08
 
   -0.58095E+08         0.34217E+06         0.00000E+00
    0.34217E+06        -0.60800E+08         0.00000E+00
    0.00000E+00         0.00000E+00        -0.59447E+08
 
   -0.58191E+08         0.35026E+06         0.00000E+00
    0.35026E+06        -0.60862E+08         0.00000E+00
    0.00000E+00         0.00000E+00        -0.59526E+08
 
   -0.58284E+08         0.36137E+06         0.00000E+00
    0.36137E+06        -0.60924E+08         0.00000E+00
    0.00000E+00         0.00000E+00        -0.59604E+08
 
   -0.58376E+08         0.37550E+06         0.00000E+00
    0.37550E+06        -0.60984E+08         0.00000E+00
    0.00000E+00         0.00000E+00        -0.59679E+08
 
   -0.58466E+08         0.39257E+06         0.00000E+00
    0.39257E+06        -0.61042E+08         0.00000E+00
    0.00000E+00         0.00000E+00        -0.59754E+08
 
   -0.58556E+08         0.41238E+06         0.00000E+00
    0.41238E+06        -0.61097E+08         0.00000E+00
    0.00000E+00         0.00000E+00        -0.59826E+08
 
   -0.58647E+08         0.43467E+06         0.00000E+00
    0.43467E+06        -0.61149E+08         0.00000E+00
    0.00000E+00         0.00000E+00        -0.59898E+08
 
   -0.58739E+08         0.45908E+06         0.00000E+00
    0.45908E+06        -0.61197E+08         0.00000E+00
    0.00000E+00         0.00000E+00        -0.59968E+08
 
   -0.58833E+08         0.48514E+06         0.00000E+00
    0.48514E+06        -0.61242E+08         0.00000E+00
    0.00000E+00         0.00000E+00        -0.60037E+08
 
   -0.58929E+08         0.51233E+06         0.00000E+00
    0.51233E+06        -0.61282E+08         0.00000E+00
    0.00000E+00         0.00000E+00        -0.60105E+08
 
   -0.59029E+08         0.54003E+06         0.00000E+00
    0.54003E+06        -0.61316E+08         0.00000E+00
    0.00000E+00         0.00000E+00        -0.60172E+08
 
   -0.59132E+08         0.56752E+06         0.00000E+00
    0.56752E+06        -0.61346E+08         0.00000E+00
    0.00000E+00         0.00000E+00        -0.60238E+08
 
   -0.59238E+08         0.59404E+06         0.00000E+00
    0.59404E+06        -0.61370E+08         0.00000E+00
    0.00000E+00         0.00000E+00        -0.60303E+08
 
   -0.59349E+08         0.61873E+06         0.00000E+00
    0.61873E+06        -0.61388E+08         0.00000E+00
    0.00000E+00         0.00000E+00        -0.60368E+08
 
   -0.59464E+08         0.64070E+06         0.00000E+00
    0.64070E+06        -0.61400E+08         0.00000E+00
    0.00000E+00         0.00000E+00        -0.60431E+08
 
   -0.59582E+08         0.65897E+06         0.00000E+00
    0.65897E+06        -0.61407E+08         0.00000E+00
    0.00000E+00         0.00000E+00        -0.60493E+08
 
   -0.59705E+08         0.67254E+06         0.00000E+00
    0.67254E+06        -0.61407E+08         0.00000E+00
    0.00000E+00         0.00000E+00        -0.60554E+08
 
   -0.59830E+08         0.68040E+06         0.00000E+00
    0.68040E+06        -0.61401E+08         0.00000E+00
    0.00000E+00         0.00000E+00        -0.60614E+08
 
   -0.59958E+08         0.68151E+06         0.00000E+00
    0.68151E+06        -0.61390E+08         0.00000E+00
    0.00000E+00         0.00000E+00        -0.60672E+08
 
   -0.60088E+08         0.67486E+06         0.00000E+00
    0.67486E+06        -0.61374E+08         0.00000E+00
    0.00000E+00         0.00000E+00        -0.60727E+08
 
   -0.60218E+08         0.65947E+06         0.00000E+00
    0.65947E+06        -0.61353E+08         0.00000E+00
    0.00000E+00         0.00000E+00        -0.60780E+08
 
   -0.60347E+08         0.63444E+06         0.00000E+00
    0.63444E+06        -0.61328E+08         0.00000E+00
    0.00000E+00         0.00000E+00        -0.60830E+08
 
   -0.60473E+08         0.59897E+06         0.00000E+00
    0.59897E+06        -0.61299E+08         0.00000E+00
    0.00000E+00         0.00000E+00        -0.60876E+08
 
   -0.60595E+08         0.55241E+06         0.00000E+00
    0.55241E+06        -0.61268E+08         0.00000E+00
    0.00000E+00         0.00000E+00        -0.60918E+08
 
   -0.60709E+08         0.49431E+06         0.00000E+00
    0.49431E+06        -0.61235E+08         0.00000E+00
    0.00000E+00         0.00000E+00        -0.60954E+08
 
   -0.60814E+08         0.42441E+06         0.00000E+00
    0.42441E+06        -0.61201E+08         0.00000E+00
    0.00000E+00         0.00000E+00        -0.60983E+08
 
   -0.60907E+08         0.34277E+06         0.00000E+00
    0.34277E+06        -0.61168E+08         0.00000E+00
    0.00000E+00         0.00000E+00        -0.61003E+08
 
   -0.60983E+08         0.24974E+06         0.00000E+00
    0.24974E+06        -0.61137E+08         0.00000E+00
    0.00000E+00         0.00000E+00        -0.61014E+08
 
   -0.54621E+08         0.32586E+05         0.00000E+00
    0.32586E+05        -0.60001E+08         0.00000E+00
    0.00000E+00         0.00000E+00        -0.57513E+08
 
   -0.54774E+08         0.93091E+05         0.00000E+00
    0.93091E+05        -0.60003E+08         0.00000E+00
    0.00000E+00         0.00000E+00        -0.57539E+08
 
   -0.54947E+08         0.14682E+06         0.00000E+00
    0.14682E+06        -0.60008E+08         0.00000E+00
    0.00000E+00         0.00000E+00        -0.57588E+08
 
   -0.55132E+08         0.19334E+06         0.00000E+00
    0.19334E+06        -0.60016E+08         0.00000E+00
    0.00000E+00         0.00000E+00        -0.57655E+08
 
   -0.55327E+08         0.23247E+06         0.00000E+00
    0.23247E+06        -0.60028E+08         0.00000E+00
    0.00000E+00         0.00000E+00        -0.57735E+08
 
   -0.55526E+08         0.26424E+06         0.00000E+00
    0.26424E+06        -0.60042E+08         0.00000E+00
    0.00000E+00         0.00000E+00        -0.57826E+08
 
   -0.55728E+08         0.28892E+06         0.00000E+00
    0.28892E+06        -0.60061E+08         0.00000E+00
    0.00000E+00         0.00000E+00        -0.57923E+08
 
   -0.55927E+08         0.30692E+06         0.00000E+00
    0.30692E+06        -0.60084E+08         0.00000E+00
    0.00000E+00         0.00000E+00        -0.58026E+08
 
   -0.56124E+08         0.31883E+06         0.00000E+00
    0.31883E+06        -0.60111E+08         0.00000E+00
    0.00000E+00         0.00000E+00        -0.58131E+08
 
   -0.56314E+08         0.32531E+06         0.00000E+00
    0.32531E+06        -0.60142E+08         0.00000E+00
    0.00000E+00         0.00000E+00        -0.58238E+08
 
   -0.56498E+08         0.32714E+06         0.00000E+00
    0.32714E+06        -0.60178E+08         0.00000E+00
    0.00000E+00         0.00000E+00        -0.58345E+08
 
   -0.56675E+08         0.32514E+06         0.00000E+00
    0.32514E+06        -0.60218E+08         0.00000E+00
    0.00000E+00         0.00000E+00        -0.58451E+08
 
   -0.56843E+08         0.32015E+06         0.00000E+00
    0.32015E+06        -0.60263E+08         0.00000E+00
    0.00000E+00         0.00000E+00        -0.58556E+08
 
   -0.57003E+08         0.31305E+06         0.00000E+00
    0.31305E+06        -0.60312E+08         0.00000E+00
    0.00000E+00         0.00000E+00        -0.58659E+08
 
   -0.57154E+08         0.30466E+06         0.00000E+00
    0.30466E+06        -0.60365E+08         0.00000E+00
    0.00000E+00         0.00000E+00        -0.58761E+08
 
   -0.57296E+08         0.29580E+06         0.00000E+00
    0.29580E+06        -0.60421E+08         0.00000E+00
    0.00000E+00         0.00000E+00        -0.58860E+08
 
   -0.57430E+08         0.28723E+06         0.00000E+00
    0.28723E+06        -0.60481E+08         0.00000E+00
    0.00000E+00         0.00000E+00        -0.58956E+08
 
   -0.57556E+08         0.27966E+06         0.00000E+00
    0.27966E+06        -0.60544E+08         0.00000E+00
    0.00000E+00         0.00000E+00        -0.59050E+08
 
   -0.57674E+08         0.27373E+06         0.00000E+00
    0.27373E+06        -0.60609E+08         0.00000E+00
    0.00000E+00         0.00000E+00        -0.59142E+08
 
   -0.57786E+08         0.26998E+06         0.00000E+00
    0.26998E+06        -0.60676E+08         0.00000E+00
    0.00000E+00         0.00000E+00        -0.59231E+08
 
   -0.57892E+08         0.26889E+06         0.00000E+00
    0.26889E+06        -0.60745E+08         0.00000E+00
    0.00000E+00         0.00000E+00        -0.59318E+08
 
   -0.57992E+08         0.27084E+06         0.00000E+00
    0.27084E+06        -0.60814E+08         0.00000E+00
    0.00000E+00         0.00000E+00        -0.59403E+08
 
   -0.58088E+08         0.27611E+06         0.00000E+00
    0.27611E+06        -0.60883E+08         0.00000E+00
    0.00000E+00         0.00000E+00        -0.59486E+08
 
   -0.58181E+08         0.28490E+06         0.00000E+00
    0.28490E+06        -0.60952E+08         0.00000E+00
    0.00000E+00         0.00000E+00        -0.59566E+08
 
   -0.58271E+08         0.29729E+06         0.00000E+00
    0.29729E+06        -0.61020E+08         0.00000E+00
    0.00000E+00         0.00000E+00        -0.59645E+08
 
   -0.58359E+08         0.31330E+06         0.00000E+00
    0.31330E+06        -0.61087E+08         0.00000E+00
    0.00000E+00         0.00000E+00        -0.59723E+08
 
   -0.58446E+08         0.33281E+06         0.00000E+00
    0.33281E+06        -0.61151E+08         0.00000E+00
    0.00000E+00         0.00000E+00        -0.59798E+08
 
   -0.58533E+08         0.35563E+06         0.00000E+00
    0.35563E+06        -0.61212E+08         0.00000E+00
    0.00000E+00         0.00000E+00        -0.59872E+08
 
   -0.58622E+08         0.38146E+06         0.00000E+00
    0.38146E+06        -0.61270E+08         0.00000E+00
    0.00000E+00         0.00000E+00        -0.59945E+08
 
   -0.58711E+08         0.40992E+06         0.00000E+00
    0.40992E+06        -0.61324E+08         0.00000E+00
    0.00000E+00         0.00000E+00        -0.60017E+08
 
   -0.58804E+08         0.44052E+06         0.00000E+00
    0.44052E+06        -0.61373E+08         0.00000E+00
    0.00000E+00         0.00000E+00        -0.60088E+08
 
   -0.58899E+08         0.47267E+06         0.00000E+00
    0.47267E+06        -0.61418E+08         0.00000E+00
    0.00000E+00         0.00000E+00        -0.60158E+08
 
   -0.58998E+08         0.50572E+06         0.00000E+00
    0.50572E+06        -0.61457E+08         0.00000E+00
    0.00000E+00         0.00000E+00        -0.60227E+08
 
   -0.59102E+08         0.53890E+06         0.00000E+00
    0.53890E+06        -0.61491E+08         0.00000E+00
    0.00000E+00         0.00000E+00        -0.60296E+08
 
   -0.59210E+08         0.57136E+06         0.00000E+00
    0.57136E+06        -0.61518E+08         0.00000E+00
    0.00000E+00         0.00000E+00        -0.60363E+08
 
   -0.59322E+08         0.60221E+06         0.00000E+00
    0.60221E+06        -0.61539E+08         0.00000E+00
    0.00000E+00         0.00000E+00        -0.60430E+08
 
   -0.59440E+08         0.63043E+06         0.00000E+00
    0.63043E+06        -0.61554E+08         0.00000E+00
    0.00000E+00         0.00000E+00        -0.60496E+08
 
   -0.59563E+08         0.65499E+06         0.00000E+00
    0.65499E+06        -0.61562E+08         0.00000E+00
    0.00000E+00         0.00000E+00        -0.60561E+08
 
   -0.59691E+08         0.67479E+06         0.00000E+00
    0.67479E+06        -0.61563E+08         0.00000E+00
    0.00000E+00         0.00000E+00        -0.60625E+08
 
   -0.59822E+08         0.68869E+06         0.00000E+00
    0.68869E+06        -0.61558E+08         0.00000E+00
    0.00000E+00         0.00000E+00        -0.60688E+08
 
   -0.59958E+08         0.69555E+06         0.00000E+00
    0.69555E+06        -0.61547E+08         0.00000E+00
    0.00000E+00         0.00000E+00        -0.60749E+08
 
   -0.60096E+08         0.69423E+06         0.00000E+00
    0.69423E+06        -0.61530E+08         0.00000E+00
    0.00000E+00         0.00000E+00        -0.60809E+08
 
   -0.60235E+08         0.68364E+06         0.00000E+00
    0.68364E+06        -0.61507E+08         0.00000E+00
    0.00000E+00         0.00000E+00        -0.60866E+08
 
   -0.60375E+08         0.66274E+06         0.00000E+00
    0.66274E+06        -0.61480E+08         0.00000E+00
    0.00000E+00         0.00000E+00        -0.60919E+08
 
   -0.60513E+08         0.63063E+06         0.00000E+00
    0.63063E+06        -0.61448E+08         0.00000E+00
    0.00000E+00         0.00000E+00        -0.60969E+08
 
   -0.60646E+08         0.58654E+06         0.00000E+00
    0.58654E+06        -0.61414E+08         0.00000E+00
    0.00000E+00         0.00000E+00        -0.61014E+08
 
   -0.60773E+08         0.52989E+06         0.00000E+00
    0.52989E+06        -0.61377E+08         0.00000E+00
    0.00000E+00         0.00000E+00        -0.61053E+08
 
   -0.60890E+08         0.46037E+06         0.00000E+00
    0.46037E+06        -0.61339E+08         0.00000E+00
    0.00000E+00         0.00000E+00        -0.61085E+08
 
   -0.60995E+08         0.37795E+06         0.00000E+00
    0.37795E+06        -0.61301E+08         0.00000E+00
    0.00000E+00         0.00000E+00        -0.61107E+08
 
   -0.61083E+08         0.28295E+06         0.00000E+00
    0.28295E+06        -0.61264E+08         0.00000E+00
    0.00000E+00         0.00000E+00        -0.61120E+08
 
   -0.54559E+08         0.31343E+05         0.00000E+00
    0.31343E+05        -0.60001E+08         0.00000E+00
    0.00000E+00         0.00000E+00        -0.57491E+08
 
   -0.54719E+08         0.89189E+05         0.00000E+00
    0.89189E+05        -0.60003E+08         0.00000E+00
    0.00000E+00         0.00000E+00        -0.57518E+08
 
   -0.54898E+08         0.13999E+06         0.00000E+00
    0.13999E+06        -0.60009E+08         0.00000E+00
    0.00000E+00         0.00000E+00        -0.57569E+08
 
   -0.55091E+08         0.18327E+06         0.00000E+00
    0.18327E+06        -0.60018E+08         0.00000E+00
    0.00000E+00         0.00000E+00        -0.57639E+08
 
   -0.55293E+08         0.21883E+06         0.00000E+00
    0.21883E+06        -0.60030E+08         0.00000E+00
    0.00000E+00         0.00000E+00        -0.57722E+08
 
   -0.55500E+08         0.24674E+06         0.00000E+00
    0.24674E+06        -0.60046E+08         0.00000E+00
    0.00000E+00         0.00000E+00        -0.57817E+08
 
   -0.55708E+08         0.26726E+06         0.00000E+00
    0.26726E+06        -0.60067E+08         0.00000E+00
    0.00000E+00         0.00000E+00        -0.57918E+08
 
   -0.55915E+08         0.28088E+06         0.00000E+00
    0.28088E+06        -0.60092E+08         0.00000E+00
    0.00000E+00         0.00000E+00        -0.58025E+08
 
   -0.56117E+08         0.28822E+06         0.00000E+00
    0.28822E+06        -0.60122E+08         0.00000E+00
    0.00000E+00         0.00000E+00        -0.58134E+08
 
   -0.56313E+08         0.29004E+06         0.00000E+00
    0.29004E+06        -0.60156E+08         0.00000E+00
    0.00000E+00         0.00000E+00        -0.58245E+08
 
   -0.56501E+08         0.28716E+06         0.00000E+00
    0.28716E+06        -0.60196E+08         0.00000E+00
    0.00000E+00         0.00000E+00        -0.58355E+08
 
   -0.56681E+08         0.28051E+06         0.00000E+00
    0.28051E+06        -0.60240E+08         0.00000E+00
    0.00000E+00         0.00000E+00        -0.58465E+08
 
   -0.56852E+08         0.27100E+06         0.00000E+00
    0.27100E+06        -0.60289E+08         0.00000E+00
    0.00000E+00         0.00000E+00        -0.58574E+08
 
   -0.57013E+08         0.25957E+06         0.00000E+00
    0.25957E+06        -0.60343E+08         0.00000E+00
    0.00000E+00         0.00000E+00        -0.58680E+08
 
   -0.57164E+08         0.24714E+06         0.00000E+00
    0.24714E+06        -0.60401E+08         0.00000E+00
    0.00000E+00         0.00000E+00        -0.58784E+08
 
   -0.57306E+08         0.23460E+06         0.00000E+00
    0.23460E+06        -0.60463E+08         0.00000E+00
    0.00000E+00         0.00000E+00        -0.58886E+08
 
   -0.57439E+08         0.22278E+06         0.00000E+00
    0.22278E+06        -0.60529E+08         0.00000E+00
    0.00000E+00         0.00000E+00        -0.58985E+08
 
   -0.57564E+08         0.21242E+06         0.00000E+00
    0.21242E+06        -0.60598E+08         0.00000E+00
    0.00000E+00         0.00000E+00        -0.59082E+08
 
   -0.57680E+08         0.20421E+06         0.00000E+00
    0.20421E+06        -0.60670E+08         0.00000E+00
    0.00000E+00         0.00000E+00        -0.59175E+08
 
   -0.57789E+08         0.19874E+06         0.00000E+00
    0.19874E+06        -0.60744E+08         0.00000E+00
    0.00000E+00         0.00000E+00        -0.59267E+08
 
   -0.57892E+08         0.19653E+06         0.00000E+00
    0.19653E+06        -0.60819E+08         0.00000E+00
    0.00000E+00         0.00000E+00        -0.59355E+08
 
   -0.57989E+08         0.19795E+06         0.00000E+00
    0.19795E+06        -0.60895E+08         0.00000E+00
    0.00000E+00         0.00000E+00        -0.59442E+08
 
   -0.58081E+08         0.20333E+06         0.00000E+00
    0.20333E+06        -0.60971E+08         0.00000E+00
    0.00000E+00         0.00000E+00        -0.59526E+08
 
   -0.58170E+08         0.21286E+06         0.00000E+00
    0.21286E+06        -0.61047E+08         0.00000E+00
    0.00000E+00         0.00000E+00        -0.59608E+08
 
   -0.58256E+08         0.22663E+06         0.00000E+00
    0.22663E+06        -0.61122E+08         0.00000E+00
    0.00000E+00         0.00000E+00        -0.59689E+08
 
   -0.58340E+08         0.24464E+06         0.00000E+00
    0.24464E+06        -0.61195E+08         0.00000E+00
    0.00000E+00         0.00000E+00        -0.59767E+08
 
   -0.58423E+08         0.26678E+06         0.00000E+00
    0.26678E+06        -0.61266E+08         0.00000E+00
    0.00000E+00         0.00000E+00        -0.59844E+08
 
   -0.58507E+08         0.29283E+06         0.00000E+00
    0.29283E+06        -0.61333E+08         0.00000E+00
    0.00000E+00         0.00000E+00        -0.59920E+08
 
   -0.58592E+08         0.32247E+06         0.00000E+00
    0.32247E+06        -0.61397E+08         0.00000E+00
    0.00000E+00         0.00000E+00        -0.59994E+08
 
   -0.58680E+08         0.35529E+06         0.00000E+00
    0.35529E+06        -0.61457E+08         0.00000E+00
    0.00000E+00         0.00000E+00        -0.60068E+08
 
   -0.58770E+08         0.39077E+06         0.00000E+00
    0.39077E+06        -0.61512E+08         0.00000E+00
    0.00000E+00         0.00000E+00        -0.60140E+08
 
   -0.58864E+08         0.42828E+06         0.00000E+00
    0.42828E+06        -0.61562E+08         0.00000E+00
    0.00000E+00         0.00000E+00        -0.60212E+08
 
   -0.58962E+08         0.46711E+06         0.00000E+00
    0.46711E+06        -0.61605E+08         0.00000E+00
    0.00000E+00         0.00000E+00        -0.60283E+08
 
   -0.59066E+08         0.50645E+06         0.00000E+00
    0.50645E+06        -0.61643E+08         0.00000E+00
    0.00000E+00         0.00000E+00        -0.60354E+08
 
   -0.59175E+08         0.54539E+06         0.00000E+00
    0.54539E+06        -0.61674E+08         0.00000E+00
    0.00000E+00         0.00000E+00        -0.60424E+08
 
   -0.59289E+08         0.58294E+06         0.00000E+00
    0.58294E+06        -0.61698E+08         0.00000E+00
    0.00000E+00         0.00000E+00        -0.60493E+08
 
   -0.59410E+08         0.61803E+06         0.00000E+00
    0.61803E+06        -0.61715E+08         0.00000E+00
    0.00000E+00         0.00000E+00        -0.60562E+08
 
   -0.59537E+08         0.64952E+06         0.00000E+00
    0.64952E+06        -0.61725E+08         0.00000E+00
    0.00000E+00         0.00000E+00        -0.60630E+08
 
   -0.59670E+08         0.67619E+06         0.00000E+00
    0.67619E+06        -0.61728E+08         0.00000E+00
    0.00000E+00         0.00000E+00        -0.60697E+08
 
   -0.59809E+08         0.69682E+06         0.00000E+00
    0.69682E+06        -0.61723E+08         0.00000E+00
    0.00000E+00         0.00000E+00        -0.60763E+08
 
   -0.59952E+08         0.71012E+06         0.00000E+00
    0.71012E+06        -0.61712E+08         0.00000E+00
    0.00000E+00         0.00000E+00        -0.60828E+08
 
   -0.60099E+08         0.71484E+06         0.00000E+00
    0.71484E+06        -0.61694E+08         0.00000E+00
    0.00000E+00         0.00000E+00        -0.60892E+08
 
   -0.60249E+08         0.70975E+06         0.00000E+00
    0.70975E+06        -0.61670E+08         0.00000E+00
    0.00000E+00         0.00000E+00        -0.60952E+08
 
   -0.60399E+08         0.69368E+06         0.00000E+00
    0.69368E+06        -0.61640E+08         0.00000E+00
    0.00000E+00         0.00000E+00        -0.61010E+08
 
   -0.60549E+08         0.66558E+06         0.00000E+00
    0.66558E+06        -0.61606E+08         0.00000E+00
    0.00000E+00         0.00000E+00        -0.61064E+08
 
   -0.60695E+08         0.62455E+06         0.00000E+00
    0.62455E+06        -0.61567E+08         0.00000E+00
    0.00000E+00         0.00000E+00        -0.61112E+08
 
   -0.60835E+08         0.56991E+06         0.00000E+00
    0.56991E+06        -0.61526E+08         0.00000E+00
    0.00000E+00         0.00000E+00        -0.61155E+08
 
   -0.60966E+08         0.50125E+06         0.00000E+00
    0.50125E+06        -0.61483E+08         0.00000E+00
    0.00000E+00         0.00000E+00        -0.61189E+08
 
   -0.61084E+08         0.41844E+06         0.00000E+00
    0.41844E+06        -0.61439E+08         0.00000E+00
    0.00000E+00         0.00000E+00        -0.61214E+08
 
   -0.61185E+08         0.32178E+06         0.00000E+00
    0.32178E+06        -0.61397E+08         0.00000E+00
    0.00000E+00         0.00000E+00        -0.61228E+08
 
   -0.54499E+08         0.29994E+05         0.00000E+00
    0.29994E+05        -0.60001E+08         0.00000E+00
    0.00000E+00         0.00000E+00        -0.57470E+08
 
   -0.54666E+08         0.84948E+05         0.00000E+00
    0.84948E+05        -0.60004E+08         0.00000E+00
    0.00000E+00         0.00000E+00        -0.57499E+08
 
   -0.54853E+08         0.13255E+06         0.00000E+00
    0.13255E+06        -0.60010E+08         0.00000E+00
    0.00000E+00         0.00000E+00        -0.57552E+08
 
   -0.55054E+08         0.17228E+06         0.00000E+00
    0.17228E+06        -0.60019E+08         0.00000E+00
    0.00000E+00         0.00000E+00        -0.57624E+08
 
   -0.55264E+08         0.20393E+06         0.00000E+00
    0.20393E+06        -0.60033E+08         0.00000E+00
    0.00000E+00         0.00000E+00        -0.57712E+08
 
   -0.55478E+08         0.22758E+06         0.00000E+00
    0.22758E+06        -0.60050E+08         0.00000E+00
    0.00000E+00         0.00000E+00        -0.57810E+08
 
   -0.55694E+08         0.24354E+06         0.00000E+00
    0.24354E+06        -0.60073E+08         0.00000E+00
    0.00000E+00         0.00000E+00        -0.57915E+08
 
   -0.55907E+08         0.25232E+06         0.00000E+00
    0.25232E+06        -0.60100E+08         0.00000E+00
    0.00000E+00         0.00000E+00        -0.58026E+08
 
   -0.56115E+08         0.25463E+06         0.00000E+00
    0.25463E+06        -0.60133E+08         0.00000E+00
    0.00000E+00         0.00000E+00        -0.58139E+08
 
   -0.56316E+08         0.25129E+06         0.00000E+00
    0.25129E+06        -0.60170E+08         0.00000E+00
    0.00000E+00         0.00000E+00        -0.58254E+08
 
   -0.56509E+08         0.24323E+06         0.00000E+00
    0.24323E+06        -0.60214E+08         0.00000E+00
    0.00000E+00         0.00000E+00        -0.58369E+08
 
   -0.56692E+08         0.23145E+06         0.00000E+00
    0.23145E+06        -0.60262E+08         0.00000E+00
    0.00000E+00         0.00000E+00        -0.58482E+08
 
   -0.56865E+08         0.21696E+06         0.00000E+00
    0.21696E+06        -0.60316E+08         0.00000E+00
    0.00000E+00         0.00000E+00        -0.58594E+08
 
   -0.57027E+08         0.20080E+06         0.00000E+00
    0.20080E+06        -0.60375E+08         0.00000E+00
    0.00000E+00         0.00000E+00        -0.58704E+08
 
   -0.57179E+08         0.18395E+06         0.00000E+00
    0.18395E+06        -0.60439E+08         0.00000E+00
    0.00000E+00         0.00000E+00        -0.58811E+08
 
   -0.57321E+08         0.16739E+06         0.00000E+00
    0.16739E+06        -0.60508E+08         0.00000E+00
    0.00000E+00         0.00000E+00        -0.58915E+08
 
   -0.57452E+08         0.15200E+06         0.00000E+00
    0.15200E+06        -0.60580E+08         0.00000E+00
    0.00000E+00         0.00000E+00        -0.59017E+08
 
   -0.57575E+08         0.13860E+06         0.00000E+00
    0.13860E+06        -0.60655E+08         0.00000E+00
    0.00000E+00         0.00000E+00        -0.59116E+08
 
   -0.57688E+08         0.12792E+06         0.00000E+00
    0.12792E+06        -0.60734E+08         0.00000E+00
    0.00000E+00         0.00000E+00        -0.59211E+08
 
   -0.57794E+08         0.12060E+06         0.00000E+00
    0.12060E+06        -0.60815E+08         0.00000E+00
    0.00000E+00         0.00000E+00        -0.59305E+08
 
   -0.57893E+08         0.11716E+06         0.00000E+00
    0.11716E+06        -0.60897E+08         0.00000E+00
    0.00000E+00         0.00000E+00        -0.59395E+08
 
   -0.57985E+08         0.11802E+06         0.00000E+00
    0.11802E+06        -0.60980E+08         0.00000E+00
    0.00000E+00         0.00000E+00        -0.59483E+08
 
   -0.58073E+08         0.12352E+06         0.00000E+00
    0.12352E+06        -0.61064E+08         0.00000E+00
    0.00000E+00         0.00000E+00        -0.59569E+08
 
   -0.58157E+08         0.13384E+06         0.00000E+00
    0.13384E+06        -0.61147E+08         0.00000E+00
    0.00000E+00         0.00000E+00        -0.59652E+08
 
   -0.58239E+08         0.14908E+06         0.00000E+00
    0.14908E+06        -0.61229E+08         0.00000E+00
    0.00000E+00         0.00000E+00        -0.59734E+08
 
   -0.58319E+08         0.16924E+06         0.00000E+00
    0.16924E+06        -0.61309E+08         0.00000E+00
    0.00000E+00         0.00000E+00        -0.59814E+08
 
   -0.58398E+08         0.19419E+06         0.00000E+00
    0.19419E+06        -0.61386E+08         0.00000E+00
    0.00000E+00         0.00000E+00        -0.59892E+08
 
   -0.58478E+08         0.22370E+06         0.00000E+00
    0.22370E+06        -0.61461E+08         0.00000E+00
    0.00000E+00         0.00000E+00        -0.59969E+08
 
   -0.58559E+08         0.25742E+06         0.00000E+00
    0.25742E+06        -0.61531E+08         0.00000E+00
    0.00000E+00         0.00000E+00        -0.60044E+08
 
   -0.58643E+08         0.29492E+06         0.00000E+00
    0.29492E+06        -0.61597E+08         0.00000E+00
    0.00000E+00         0.00000E+00        -0.60119E+08
 
   -0.58730E+08         0.33563E+06         0.00000E+00
    0.33563E+06        -0.61657E+08         0.00000E+00
    0.00000E+00         0.00000E+00        -0.60193E+08
 
   -0.58822E+08         0.37891E+06         0.00000E+00
    0.37891E+06        -0.61712E+08         0.00000E+00
    0.00000E+00         0.00000E+00        -0.60267E+08
 
   -0.58920E+08         0.42398E+06         0.00000E+00
    0.42398E+06        -0.61761E+08         0.00000E+00
    0.00000E+00         0.00000E+00        -0.60340E+08
 
   -0.59023E+08         0.46997E+06         0.00000E+00
    0.46997E+06        -0.61803E+08         0.00000E+00
    0.00000E+00         0.00000E+00        -0.60412E+08
 
   -0.59133E+08         0.51593E+06         0.00000E+00
    0.51593E+06        -0.61838E+08         0.00000E+00
    0.00000E+00         0.00000E+00        -0.60484E+08
 
   -0.59249E+08         0.56077E+06         0.00000E+00
    0.56077E+06        -0.61865E+08         0.00000E+00
    0.00000E+00         0.00000E+00        -0.60556E+08
 
   -0.59373E+08         0.60334E+06         0.00000E+00
    0.60334E+06        -0.61885E+08         0.00000E+00
    0.00000E+00         0.00000E+00        -0.60628E+08
 
   -0.59504E+08         0.64241E+06         0.00000E+00
    0.64241E+06        -0.61897E+08         0.00000E+00
    0.00000E+00         0.00000E+00        -0.60699E+08
 
   -0.59643E+08         0.67667E+06         0.00000E+00
    0.67667E+06        -0.61901E+08         0.00000E+00
    0.00000E+00         0.00000E+00        -0.60770E+08
 
   -0.59788E+08         0.70475E+06         0.00000E+00
    0.70475E+06        -0.61897E+08         0.00000E+00
    0.00000E+00         0.00000E+00        -0.60839E+08
 
   -0.59939E+08         0.72525E+06         0.00000E+00
    0.72525E+06        -0.61886E+08         0.00000E+00
    0.00000E+00         0.00000E+00        -0.60908E+08
 
   -0.60096E+08         0.73677E+06         0.00000E+00
    0.73677E+06        -0.61867E+08         0.00000E+00
    0.00000E+00         0.00000E+00        -0.60975E+08
 
   -0.60256E+08         0.73794E+06         0.00000E+00
    0.73794E+06        -0.61841E+08         0.00000E+00
    0.00000E+00         0.00000E+00        -0.61040E+08
 
   -0.60419E+08         0.72745E+06         0.00000E+00
    0.72745E+06        -0.61808E+08         0.00000E+00
    0.00000E+00         0.00000E+00        -0.61102E+08
 
   -0.60581E+08         0.70408E+06         0.00000E+00
    0.70408E+06        -0.61770E+08         0.00000E+00
    0.00000E+00         0.00000E+00        -0.61160E+08
 
   -0.60741E+08         0.66680E+06         0.00000E+00
    0.66680E+06        -0.61728E+08         0.00000E+00
    0.00000E+00         0.00000E+00        -0.61213E+08
 
   -0.60896E+08         0.61479E+06         0.00000E+00
    0.61479E+06        -0.61682E+08         0.00000E+00
    0.00000E+00         0.00000E+00        -0.61259E+08
 
   -0.61041E+08         0.54752E+06         0.00000E+00
    0.54752E+06        -0.61634E+08         0.00000E+00
    0.00000E+00         0.00000E+00        -0.61297E+08
 
   -0.61174E+08         0.46480E+06         0.00000E+00
    0.46480E+06        -0.61584E+08         0.00000E+00
    0.00000E+00         0.00000E+00        -0.61324E+08
 
   -0.61290E+08         0.36683E+06         0.00000E+00
    0.36683E+06        -0.61535E+08         0.00000E+00
    0.00000E+00         0.00000E+00        -0.61339E+08
 
   -0.54442E+08         0.28544E+05         0.00000E+00
    0.28544E+05        -0.60001E+08         0.00000E+00
    0.00000E+00         0.00000E+00        -0.57451E+08
 
   -0.54616E+08         0.80378E+05         0.00000E+00
    0.80378E+05        -0.60004E+08         0.00000E+00
    0.00000E+00         0.00000E+00        -0.57481E+08
 
   -0.54811E+08         0.12450E+06         0.00000E+00
    0.12450E+06        -0.60010E+08         0.00000E+00
    0.00000E+00         0.00000E+00        -0.57537E+08
 
   -0.55020E+08         0.16037E+06         0.00000E+00
    0.16037E+06        -0.60021E+08         0.00000E+00
    0.00000E+00         0.00000E+00        -0.57612E+08
 
   -0.55238E+08         0.18775E+06         0.00000E+00
    0.18775E+06        -0.60035E+08         0.00000E+00
    0.00000E+00         0.00000E+00        -0.57703E+08
 
   -0.55461E+08         0.20673E+06         0.00000E+00
    0.20673E+06        -0.60055E+08         0.00000E+00
    0.00000E+00         0.00000E+00        -0.57805E+08
 
   -0.55684E+08         0.21766E+06         0.00000E+00
    0.21766E+06        -0.60079E+08         0.00000E+00
    0.00000E+00         0.00000E+00        -0.57915E+08
 
   -0.55904E+08         0.22111E+06         0.00000E+00
    0.22111E+06        -0.60109E+08         0.00000E+00
    0.00000E+00         0.00000E+00        -0.58030E+08
 
   -0.56118E+08         0.21787E+06         0.00000E+00
    0.21787E+06        -0.60144E+08         0.00000E+00
    0.00000E+00         0.00000E+00        -0.58147E+08
 
   -0.56325E+08         0.20886E+06         0.00000E+00
    0.20886E+06        -0.60185E+08         0.00000E+00
    0.00000E+00         0.00000E+00        -0.58266E+08
 
   -0.56521E+08         0.19510E+06         0.00000E+00
    0.19510E+06        -0.60233E+08         0.00000E+00
    0.00000E+00         0.00000E+00        -0.58385E+08
 
   -0.56708E+08         0.17769E+06         0.00000E+00
    0.17769E+06        -0.60286E+08         0.00000E+00
    0.00000E+00         0.00000E+00        -0.58502E+08
 
   -0.56883E+08         0.15775E+06         0.00000E+00
    0.15775E+06        -0.60345E+08         0.00000E+00
    0.00000E+00         0.00000E+00        -0.58618E+08
 
   -0.57046E+08         0.13640E+06         0.00000E+00
    0.13640E+06        -0.60410E+08         0.00000E+00
    0.00000E+00         0.00000E+00        -0.58731E+08
 
   -0.57198E+08         0.11474E+06         0.00000E+00
    0.11474E+06        -0.60480E+08         0.00000E+00
    0.00000E+00         0.00000E+00        -0.58841E+08
 
   -0.57339E+08         0.93801E+05         0.00000E+00
    0.93801E+05        -0.60554E+08         0.00000E+00
    0.00000E+00         0.00000E+00        -0.58948E+08
 
   -0.57469E+08         0.74548E+05         0.00000E+00
    0.74548E+05        -0.60633E+08         0.00000E+00
    0.00000E+00         0.00000E+00        -0.59052E+08
 
   -0.57588E+08         0.57862E+05         0.00000E+00
    0.57862E+05        -0.60716E+08         0.00000E+00
    0.00000E+00         0.00000E+00        -0.59153E+08
 
   -0.57698E+08         0.44520E+05         0.00000E+00
    0.44520E+05        -0.60802E+08         0.00000E+00
    0.00000E+00         0.00000E+00        -0.59250E+08
 
   -0.57800E+08         0.35195E+05         0.00000E+00
    0.35195E+05        -0.60890E+08         0.00000E+00
    0.00000E+00         0.00000E+00        -0.59345E+08
 
   -0.57894E+08         0.30447E+05         0.00000E+00
    0.30447E+05        -0.60980E+08         0.00000E+00
    0.00000E+00         0.00000E+00        -0.59437E+08
 
   -0.57982E+08         0.30719E+05         0.00000E+00
    0.30719E+05        -0.61070E+08         0.00000E+00
    0.00000E+00         0.00000E+00        -0.59526E+08
 
   -0.58065E+08         0.36339E+05         0.00000E+00
    0.36339E+05        -0.61161E+08         0.00000E+00
    0.00000E+00         0.00000E+00        -0.59613E+08
 
   -0.58144E+08         0.47517E+05         0.00000E+00
    0.47517E+05        -0.61252E+08         0.00000E+00
    0.00000E+00         0.00000E+00        -0.59698E+08
 
   -0.58220E+08         0.64348E+05         0.00000E+00
    0.64348E+05        -0.61341E+08         0.00000E+00
    0.00000E+00         0.00000E+00        -0.59780E+08
 
   -0.58295E+08         0.86810E+05         0.00000E+00
    0.86810E+05        -0.61428E+08         0.00000E+00
    0.00000E+00         0.00000E+00        -0.59861E+08
 
   -0.58369E+08         0.11477E+06         0.00000E+00
    0.11477E+06        -0.61513E+08         0.00000E+00
    0.00000E+00         0.00000E+00        -0.59941E+08
 
   -0.58444E+08         0.14797E+06         0.00000E+00
    0.14797E+06        -0.61594E+08         0.00000E+00
    0.00000E+00         0.00000E+00        -0.60019E+08
 
   -0.58521E+08         0.18606E+06         0.00000E+00
    0.18606E+06        -0.61671E+08         0.00000E+00
    0.00000E+00         0.00000E+00        -0.60095E+08
 
   -0.58601E+08         0.22856E+06         0.00000E+00
    0.22856E+06        -0.61743E+08         0.00000E+00
    0.00000E+00         0.00000E+00        -0.60171E+08
 
   -0.58685E+08         0.27488E+06         0.00000E+00
    0.27488E+06        -0.61809E+08         0.00000E+00
    0.00000E+00         0.00000E+00        -0.60247E+08
 
   -0.58775E+08         0.32433E+06         0.00000E+00
    0.32433E+06        -0.61870E+08         0.00000E+00
    0.00000E+00         0.00000E+00        -0.60322E+08
 
   -0.58871E+08         0.37609E+06         0.00000E+00
    0.37609E+06        -0.61924E+08         0.00000E+00
    0.00000E+00         0.00000E+00        -0.60396E+08
 
   -0.58973E+08         0.42924E+06         0.00000E+00
    0.42924E+06        -0.61970E+08         0.00000E+00
    0.00000E+00         0.00000E+00        -0.60471E+08
 
   -0.59083E+08         0.48276E+06         0.00000E+00
    0.48276E+06        -0.62009E+08         0.00000E+00
    0.00000E+00         0.00000E+00        -0.60545E+08
 
   -0.59201E+08         0.53549E+06         0.00000E+00
    0.53549E+06        -0.62040E+08         0.00000E+00
    0.00000E+00         0.00000E+00        -0.60620E+08
 
   -0.59328E+08         0.58621E+06         0.00000E+00
    0.58621E+06        -0.62063E+08         0.00000E+00
    0.00000E+00         0.00000E+00        -0.60694E+08
 
   -0.59463E+08         0.63356E+06         0.00000E+00
    0.63356E+06        -0.62077E+08         0.00000E+00
    0.00000E+00         0.00000E+00        -0.60768E+08
 
   -0.59607E+08         0.67613E+06         0.00000E+00
    0.67613E+06        -0.62083E+08         0.00000E+00
    0.00000E+00         0.00000E+00        -0.60842E+08
 
   -0.59759E+08         0.71244E+06         0.00000E+00
    0.71244E+06        -0.62079E+08         0.00000E+00
    0.00000E+00         0.00000E+00        -0.60916E+08
 
   -0.59919E+08         0.74094E+06         0.00000E+00
    0.74094E+06        -0.62068E+08         0.00000E+00
    0.00000E+00         0.00000E+00        -0.60989E+08
 
   -0.60085E+08         0.76009E+06         0.00000E+00
    0.76009E+06        -0.62048E+08         0.00000E+00
    0.00000E+00         0.00000E+00        -0.61060E+08
 
   -0.60257E+08         0.76836E+06         0.00000E+00
    0.76836E+06        -0.62020E+08         0.00000E+00
    0.00000E+00         0.00000E+00        -0.61129E+08
 
   -0.60432E+08         0.76425E+06         0.00000E+00
    0.76425E+06        -0.61985E+08         0.00000E+00
    0.00000E+00         0.00000E+00        -0.61196E+08
 
   -0.60609E+08         0.74642E+06         0.00000E+00
    0.74642E+06        -0.61943E+08         0.00000E+00
    0.00000E+00         0.00000E+00        -0.61258E+08
 
   -0.60784E+08         0.71365E+06         0.00000E+00
    0.71365E+06        -0.61896E+08         0.00000E+00
    0.00000E+00         0.00000E+00        -0.61315E+08
 
   -0.60954E+08         0.66498E+06         0.00000E+00
    0.66498E+06        -0.61845E+08         0.00000E+00
    0.00000E+00         0.00000E+00        -0.61365E+08
 
   -0.61116E+08         0.59973E+06         0.00000E+00
    0.59973E+06        -0.61791E+08         0.00000E+00
    0.00000E+00         0.00000E+00        -0.61406E+08
 
   -0.61265E+08         0.51762E+06         0.00000E+00
    0.51762E+06        -0.61735E+08         0.00000E+00
    0.00000E+00         0.00000E+00        -0.61436E+08
 
   -0.61396E+08         0.41877E+06         0.00000E+00
    0.41877E+06        -0.61679E+08         0.00000E+00
    0.00000E+00         0.00000E+00        -0.61452E+08
 
   -0.54388E+08         0.26997E+05         0.00000E+00
    0.26997E+05        -0.60001E+08         0.00000E+00
    0.00000E+00         0.00000E+00        -0.57435E+08
 
   -0.54570E+08         0.75488E+05         0.00000E+00
    0.75488E+05        -0.60004E+08         0.00000E+00
    0.00000E+00         0.00000E+00        -0.57466E+08
 
   -0.54773E+08         0.11587E+06         0.00000E+00
    0.11587E+06        -0.60011E+08         0.00000E+00
    0.00000E+00         0.00000E+00        -0.57524E+08
 
   -0.54990E+08         0.14754E+06         0.00000E+00
    0.14754E+06        -0.60022E+08         0.00000E+00
    0.00000E+00         0.00000E+00        -0.57602E+08
 
   -0.55218E+08         0.17026E+06         0.00000E+00
    0.17026E+06        -0.60038E+08         0.00000E+00
    0.00000E+00         0.00000E+00        -0.57697E+08
 
   -0.55449E+08         0.18412E+06         0.00000E+00
    0.18412E+06        -0.60059E+08         0.00000E+00
    0.00000E+00         0.00000E+00        -0.57803E+08
 
   -0.55680E+08         0.18952E+06         0.00000E+00
    0.18952E+06        -0.60085E+08         0.00000E+00
    0.00000E+00         0.00000E+00        -0.57917E+08
 
   -0.55907E+08         0.18712E+06         0.00000E+00
    0.18712E+06        -0.60117E+08         0.00000E+00
    0.00000E+00         0.00000E+00        -0.58037E+08
 
   -0.56128E+08         0.17779E+06         0.00000E+00
    0.17779E+06        -0.60156E+08         0.00000E+00
    0.00000E+00         0.00000E+00        -0.58159E+08
 
   -0.56339E+08         0.16254E+06         0.00000E+00
    0.16254E+06        -0.60201E+08         0.00000E+00
    0.00000E+00         0.00000E+00        -0.58282E+08
 
   -0.56540E+08         0.14253E+06         0.00000E+00
    0.14253E+06        -0.60253E+08         0.00000E+00
    0.00000E+00         0.00000E+00        -0.58405E+08
 
   -0.56730E+08         0.11895E+06         0.00000E+00
    0.11895E+06        -0.60311E+08         0.00000E+00
    0.00000E+00         0.00000E+00        -0.58526E+08
 
   -0.56906E+08         0.93048E+05         0.00000E+00
    0.93048E+05        -0.60375E+08         0.00000E+00
    0.00000E+00         0.00000E+00        -0.58645E+08
 
   -0.57071E+08         0.66052E+05         0.00000E+00
    0.66052E+05        -0.60446E+08         0.00000E+00
    0.00000E+00         0.00000E+00        -0.58761E+08
 
   -0.57222E+08         0.39150E+05         0.00000E+00
    0.39150E+05        -0.60522E+08         0.00000E+00
    0.00000E+00         0.00000E+00        -0.58874E+08
 
   -0.57361E+08         0.13469E+05         0.00000E+00
    0.13469E+05        -0.60603E+08         0.00000E+00
    0.00000E+00         0.00000E+00        -0.58984E+08
 
   -0.57489E+08        -0.99512E+04         0.00000E+00
   -0.99512E+04        -0.60690E+08         0.00000E+00
    0.00000E+00         0.00000E+00        -0.59090E+08
 
   -0.57605E+08        -0.30171E+05         0.00000E+00
   -0.30171E+05        -0.60780E+08         0.00000E+00
    0.00000E+00         0.00000E+00        -0.59193E+08
 
   -0.57711E+08        -0.46361E+05         0.00000E+00
   -0.46361E+05        -0.60873E+08         0.00000E+00
    0.00000E+00         0.00000E+00        -0.59292E+08
 
   -0.57808E+08        -0.57812E+05         0.00000E+00
   -0.57812E+05        -0.60969E+08         0.00000E+00
    0.00000E+00         0.00000E+00        -0.59389E+08
 
   -0.57897E+08        -0.63939E+05         0.00000E+00
   -0.63939E+05        -0.61066E+08         0.00000E+00
    0.00000E+00         0.00000E+00        -0.59482E+08
 
   -0.57980E+08        -0.64279E+05         0.00000E+00
   -0.64279E+05        -0.61165E+08         0.00000E+00
    0.00000E+00         0.00000E+00        -0.59572E+08
 
   -0.58057E+08        -0.58497E+05         0.00000E+00
   -0.58497E+05        -0.61264E+08         0.00000E+00
    0.00000E+00         0.00000E+00        -0.59660E+08
 
   -0.58129E+08        -0.46381E+05         0.00000E+00
   -0.46381E+05        -0.61362E+08         0.00000E+00
    0.00000E+00         0.00000E+00        -0.59746E+08
 
   -0.58199E+08        -0.27842E+05         0.00000E+00
   -0.27842E+05        -0.61459E+08         0.00000E+00
    0.00000E+00         0.00000E+00        -0.59829E+08
 
   -0.58268E+08        -0.29108E+04         0.00000E+00
   -0.29108E+04        -0.61554E+08         0.00000E+00
    0.00000E+00         0.00000E+00        -0.59911E+08
 
   -0.58336E+08         0.28262E+05         0.00000E+00
    0.28262E+05        -0.61646E+08         0.00000E+00
    0.00000E+00         0.00000E+00        -0.59991E+08
 
   -0.58406E+08         0.65409E+05         0.00000E+00
    0.65409E+05        -0.61734E+08         0.00000E+00
    0.00000E+00         0.00000E+00        -0.60069E+08
 
   -0.58478E+08         0.10815E+06         0.00000E+00
    0.10815E+06        -0.61817E+08         0.00000E+00
    0.00000E+00         0.00000E+00        -0.60147E+08
 
   -0.58554E+08         0.15597E+06         0.00000E+00
    0.15597E+06        -0.61896E+08         0.00000E+00
    0.00000E+00         0.00000E+00        -0.60224E+08
 
   -0.58634E+08         0.20827E+06         0.00000E+00
    0.20827E+06        -0.61969E+08         0.00000E+00
    0.00000E+00         0.00000E+00        -0.60301E+08
 
   -0.58721E+08         0.26431E+06         0.00000E+00
    0.26431E+06        -0.62035E+08         0.00000E+00
    0.00000E+00         0.00000E+00        -0.60377E+08
 
   -0.58814E+08         0.32323E+06         0.00000E+00
    0.32323E+06        -0.62094E+08         0.00000E+00
    0.00000E+00         0.00000E+00        -0.60453E+08
 
   -0.58916E+08         0.38405E+06         0.00000E+00
    0.38405E+06        -0.62145E+08         0.00000E+00
    0.00000E+00         0.00000E+00        -0.60530E+08
 
   -0.59026E+08         0.44570E+06         0.00000E+00
    0.44570E+06        -0.62189E+08         0.00000E+00
    0.00000E+00         0.00000E+00        -0.60606E+08
 
   -0.59145E+08         0.50694E+06         0.00000E+00
    0.50694E+06        -0.62223E+08         0.00000E+00
    0.00000E+00         0.00000E+00        -0.60683E+08
 
   -0.59274E+08         0.56646E+06         0.00000E+00
    0.56646E+06        -0.62249E+08         0.00000E+00
    0.00000E+00         0.00000E+00        -0.60760E+08
 
   -0.59414E+08         0.62282E+06         0.00000E+00
    0.62282E+06        -0.62266E+08         0.00000E+00
    0.00000E+00         0.00000E+00        -0.60837E+08
 
   -0.59563E+08         0.67448E+06         0.00000E+00
    0.67448E+06        -0.62273E+08         0.00000E+00
    0.00000E+00         0.00000E+00        -0.60915E+08
 
   -0.59722E+08         0.71983E+06         0.00000E+00
    0.71983E+06        -0.62270E+08         0.00000E+00
    0.00000E+00         0.00000E+00        -0.60992E+08
 
   -0.59891E+08         0.75719E+06         0.00000E+00
    0.75719E+06        -0.62258E+08         0.00000E+00
    0.00000E+00         0.00000E+00        -0.61069E+08
 
   -0.60067E+08         0.78486E+06         0.00000E+00
    0.78486E+06        -0.62237E+08         0.00000E+00
    0.00000E+00         0.00000E+00        -0.61145E+08
 
   -0.60251E+08         0.80111E+06         0.00000E+00
    0.80111E+06        -0.62207E+08         0.00000E+00
    0.00000E+00         0.00000E+00        -0.61219E+08
 
   -0.60440E+08         0.80431E+06         0.00000E+00
    0.80431E+06        -0.62169E+08         0.00000E+00
    0.00000E+00         0.00000E+00        -0.61290E+08
 
   -0.60631E+08         0.79289E+06         0.00000E+00
    0.79289E+06        -0.62124E+08         0.00000E+00
    0.00000E+00         0.00000E+00        -0.61357E+08
 
   -0.60822E+08         0.76548E+06         0.00000E+00
    0.76548E+06        -0.62073E+08         0.00000E+00
    0.00000E+00         0.00000E+00        -0.61419E+08
 
   -0.61009E+08         0.72094E+06         0.00000E+00
    0.72094E+06        -0.62016E+08         0.00000E+00
    0.00000E+00         0.00000E+00        -0.61473E+08
 
   -0.61188E+08         0.65844E+06         0.00000E+00
    0.65844E+06        -0.61955E+08         0.00000E+00
    0.00000E+00         0.00000E+00        -0.61518E+08
 
   -0.61355E+08         0.57755E+06         0.00000E+00
    0.57755E+06        -0.61892E+08         0.00000E+00
    0.00000E+00         0.00000E+00        -0.61550E+08
 
   -0.61504E+08         0.47834E+06         0.00000E+00
    0.47834E+06        -0.61829E+08         0.00000E+00
    0.00000E+00         0.00000E+00        -0.61568E+08
 
   -0.54337E+08         0.25362E+05         0.00000E+00
    0.25362E+05        -0.60001E+08         0.00000E+00
    0.00000E+00         0.00000E+00        -0.57420E+08
 
   -0.54527E+08         0.70292E+05         0.00000E+00
    0.70292E+05        -0.60004E+08         0.00000E+00
    0.00000E+00         0.00000E+00        -0.57453E+08
 
   -0.54739E+08         0.10665E+06         0.00000E+00
    0.10665E+06        -0.60012E+08         0.00000E+00
    0.00000E+00         0.00000E+00        -0.57513E+08
 
   -0.54966E+08         0.13378E+06         0.00000E+00
    0.13378E+06        -0.60024E+08         0.00000E+00
    0.00000E+00         0.00000E+00        -0.57595E+08
 
   -0.55202E+08         0.15141E+06         0.00000E+00
    0.15141E+06        -0.60040E+08         0.00000E+00
    0.00000E+00         0.00000E+00        -0.57694E+08
 
   -0.55442E+08         0.15968E+06         0.00000E+00
    0.15968E+06        -0.60063E+08         0.00000E+00
    0.00000E+00         0.00000E+00        -0.57804E+08
 
   -0.55682E+08         0.15902E+06         0.00000E+00
    0.15902E+06        -0.60091E+08         0.00000E+00
    0.00000E+00         0.00000E+00        -0.57923E+08
 
   -0.55916E+08         0.15020E+06         0.00000E+00
    0.15020E+06        -0.60126E+08         0.00000E+00
    0.00000E+00         0.00000E+00        -0.58047E+08
 
   -0.56143E+08         0.13416E+06         0.00000E+00
    0.13416E+06        -0.60168E+08         0.00000E+00
    0.00000E+00         0.00000E+00        -0.58174E+08
 
   -0.56360E+08         0.11208E+06         0.00000E+00
    0.11208E+06        -0.60218E+08         0.00000E+00
    0.00000E+00         0.00000E+00        -0.58301E+08
 
   -0.56566E+08         0.85205E+05         0.00000E+00
    0.85205E+05        -0.60274E+08         0.00000E+00
    0.00000E+00         0.00000E+00        -0.58428E+08
 
   -0.56758E+08         0.54888E+05         0.00000E+00
    0.54888E+05        -0.60337E+08         0.00000E+00
    0.00000E+00         0.00000E+00        -0.58553E+08
 
   -0.56936E+08         0.22490E+05         0.00000E+00
    0.22490E+05        -0.60407E+08         0.00000E+00
    0.00000E+00         0.00000E+00        -0.58676E+08
 
   -0.57101E+08        -0.10642E+05         0.00000E+00
   -0.10642E+05        -0.60484E+08         0.00000E+00
    0.00000E+00         0.00000E+00        -0.58795E+08
 
   -0.57251E+08        -0.43210E+05         0.00000E+00
   -0.43210E+05        -0.60567E+08         0.00000E+00
    0.00000E+00         0.00000E+00        -0.58911E+08
 
   -0.57388E+08        -0.73998E+05         0.00000E+00
   -0.73998E+05        -0.60656E+08         0.00000E+00
    0.00000E+00         0.00000E+00        -0.59023E+08
 
   -0.57513E+08        -0.10189E+06         0.00000E+00
   -0.10189E+06        -0.60749E+08         0.00000E+00
    0.00000E+00         0.00000E+00        -0.59132E+08
 
   -0.57625E+08        -0.12587E+06         0.00000E+00
   -0.12587E+06        -0.60847E+08         0.00000E+00
    0.00000E+00         0.00000E+00        -0.59237E+08
 
   -0.57726E+08        -0.14508E+06         0.00000E+00
   -0.14508E+06        -0.60948E+08         0.00000E+00
    0.00000E+00         0.00000E+00        -0.59338E+08
 
   -0.57818E+08        -0.15877E+06         0.00000E+00
   -0.15877E+06        -0.61052E+08         0.00000E+00
    0.00000E+00         0.00000E+00        -0.59435E+08
 
   -0.57901E+08        -0.16632E+06         0.00000E+00
   -0.16632E+06        -0.61158E+08         0.00000E+00
    0.00000E+00         0.00000E+00        -0.59530E+08
 
   -0.57977E+08        -0.16727E+06         0.00000E+00
   -0.16727E+06        -0.61265E+08         0.00000E+00
    0.00000E+00         0.00000E+00        -0.59621E+08
 
   -0.58047E+08        -0.16127E+06         0.00000E+00
   -0.16127E+06        -0.61372E+08         0.00000E+00
    0.00000E+00         0.00000E+00        -0.59709E+08
 
   -0.58113E+08        -0.14812E+06         0.00000E+00
   -0.14812E+06        -0.61478E+08         0.00000E+00
    0.00000E+00         0.00000E+00        -0.59796E+08
 
   -0.58177E+08        -0.12773E+06         0.00000E+00
   -0.12773E+06        -0.61583E+08         0.00000E+00
    0.00000E+00         0.00000E+00        -0.59879E+08
 
   -0.58238E+08        -0.10015E+06         0.00000E+00
   -0.10015E+06        -0.61685E+08         0.00000E+00
    0.00000E+00         0.00000E+00        -0.59962E+08
 
   -0.58300E+08        -0.65539E+05         0.00000E+00
   -0.65539E+05        -0.61784E+08         0.00000E+00
    0.00000E+00         0.00000E+00        -0.60042E+08
 
   -0.58364E+08        -0.24192E+05         0.00000E+00
   -0.24192E+05        -0.61880E+08         0.00000E+00
    0.00000E+00         0.00000E+00        -0.60121E+08
 
   -0.58430E+08         0.23487E+05         0.00000E+00
    0.23487E+05        -0.61970E+08         0.00000E+00
    0.00000E+00         0.00000E+00        -0.60200E+08
 
   -0.58501E+08         0.76973E+05         0.00000E+00
    0.76973E+05        -0.62056E+08         0.00000E+00
    0.00000E+00         0.00000E+00        -0.60278E+08
 
   -0.58577E+08         0.13562E+06         0.00000E+00
    0.13562E+06        -0.62135E+08         0.00000E+00
    0.00000E+00         0.00000E+00        -0.60355E+08
 
   -0.58659E+08         0.19866E+06         0.00000E+00
    0.19866E+06        -0.62207E+08         0.00000E+00
    0.00000E+00         0.00000E+00        -0.60432E+08
 
   -0.58750E+08         0.26519E+06         0.00000E+00
    0.26519E+06        -0.62271E+08         0.00000E+00
    0.00000E+00         0.00000E+00        -0.60510E+08
 
   -0.58850E+08         0.33420E+06         0.00000E+00
    0.33420E+06        -0.62328E+08         0.00000E+00
    0.00000E+00         0.00000E+00        -0.60588E+08
 
   -0.58960E+08         0.40454E+06         0.00000E+00
    0.40454E+06        -0.62376E+08         0.00000E+00
    0.00000E+00         0.00000E+00        -0.60666E+08
 
   -0.59080E+08         0.47491E+06         0.00000E+00
    0.47491E+06        -0.62414E+08         0.00000E+00
    0.00000E+00         0.00000E+00        -0.60746E+08
 
   -0.59211E+08         0.54392E+06         0.00000E+00
    0.54392E+06        -0.62443E+08         0.00000E+00
    0.00000E+00         0.00000E+00        -0.60825E+08
 
   -0.59354E+08         0.61003E+06         0.00000E+00
    0.61003E+06        -0.62462E+08         0.00000E+00
    0.00000E+00         0.00000E+00        -0.60906E+08
 
   -0.59509E+08         0.67159E+06         0.00000E+00
    0.67159E+06        -0.62471E+08         0.00000E+00
    0.00000E+00         0.00000E+00        -0.60987E+08
 
   -0.59676E+08         0.72685E+06         0.00000E+00
    0.72685E+06        -0.62469E+08         0.00000E+00
    0.00000E+00         0.00000E+00        -0.61068E+08
 
   -0.59853E+08         0.77398E+06         0.00000E+00
    0.77398E+06        -0.62457E+08         0.00000E+00
    0.00000E+00         0.00000E+00        -0.61149E+08
 
   -0.60041E+08         0.81111E+06         0.00000E+00
    0.81111E+06        -0.62435E+08         0.00000E+00
    0.00000E+00         0.00000E+00        -0.61229E+08
 
   -0.60237E+08         0.83634E+06         0.00000E+00
    0.83634E+06        -0.62404E+08         0.00000E+00
    0.00000E+00         0.00000E+00        -0.61308E+08
 
   -0.60440E+08         0.84782E+06         0.00000E+00
    0.84782E+06        -0.62363E+08         0.00000E+00
    0.00000E+00         0.00000E+00        -0.61384E+08
 
   -0.60647E+08         0.84380E+06         0.00000E+00
    0.84380E+06        -0.62313E+08         0.00000E+00
    0.00000E+00         0.00000E+00        -0.61456E+08
 
   -0.60855E+08         0.82270E+06         0.00000E+00
    0.82270E+06        -0.62257E+08         0.00000E+00
    0.00000E+00         0.00000E+00        -0.61523E+08
 
   -0.61061E+08         0.78317E+06         0.00000E+00
    0.78317E+06        -0.62194E+08         0.00000E+00
    0.00000E+00         0.00000E+00        -0.61582E+08
 
   -0.61259E+08         0.72423E+06         0.00000E+00
    0.72423E+06        -0.62126E+08         0.00000E+00
    0.00000E+00         0.00000E+00        -0.61631E+08
 
   -0.61445E+08         0.64530E+06         0.00000E+00
    0.64530E+06        -0.62055E+08         0.00000E+00
    0.00000E+00         0.00000E+00        -0.61666E+08
 
   -0.61612E+08         0.54631E+06         0.00000E+00
    0.54631E+06        -0.61983E+08         0.00000E+00
    0.00000E+00         0.00000E+00        -0.61686E+08
 
   -0.54290E+08         0.23644E+05         0.00000E+00
    0.23644E+05        -0.60001E+08         0.00000E+00
    0.00000E+00         0.00000E+00        -0.57408E+08
 
   -0.54488E+08         0.64805E+05         0.00000E+00
    0.64805E+05        -0.60004E+08         0.00000E+00
    0.00000E+00         0.00000E+00        -0.57442E+08
 
   -0.54709E+08         0.96858E+05         0.00000E+00
    0.96858E+05        -0.60012E+08         0.00000E+00
    0.00000E+00         0.00000E+00        -0.57505E+08
 
   -0.54946E+08         0.11907E+06         0.00000E+00
    0.11907E+06        -0.60025E+08         0.00000E+00
    0.00000E+00         0.00000E+00        -0.57590E+08
 
   -0.55192E+08         0.13118E+06         0.00000E+00
    0.13118E+06        -0.60043E+08         0.00000E+00
    0.00000E+00         0.00000E+00        -0.57693E+08
 
   -0.55442E+08         0.13332E+06         0.00000E+00
    0.13332E+06        -0.60067E+08         0.00000E+00
    0.00000E+00         0.00000E+00        -0.57808E+08
 
   -0.55690E+08         0.12603E+06         0.00000E+00
    0.12603E+06        -0.60098E+08         0.00000E+00
    0.00000E+00         0.00000E+00        -0.57932E+08
 
   -0.55932E+08         0.11014E+06         0.00000E+00
    0.11014E+06        -0.60136E+08         0.00000E+00
    0.00000E+00         0.00000E+00        -0.58061E+08
 
   -0.56166E+08         0.86761E+05         0.00000E+00
    0.86761E+05        -0.60181E+08         0.00000E+00
    0.00000E+00         0.00000E+00        -0.58193E+08
 
   -0.56389E+08         0.57175E+05         0.00000E+00
    0.57175E+05        -0.60235E+08         0.00000E+00
    0.00000E+00         0.00000E+00        -0.58325E+08
 
   -0.56598E+08         0.22804E+05         0.00000E+00
    0.22804E+05        -0.60296E+08         0.00000E+00
    0.00000E+00         0.00000E+00        -0.58456E+08
 
   -0.56793E+08        -0.14863E+05         0.00000E+00
   -0.14863E+05        -0.60365E+08         0.00000E+00
    0.00000E+00         0.00000E+00        -0.58585E+08
 
   -0.56973E+08        -0.54319E+05         0.00000E+00
   -0.54319E+05        -0.60441E+08         0.00000E+00
    0.00000E+00         0.00000E+00        -0.58711E+08
 
   -0.57137E+08        -0.94088E+05         0.00000E+00
   -0.94088E+05        -0.60525E+08         0.00000E+00
    0.00000E+00         0.00000E+00        -0.58834E+08
 
   -0.57286E+08        -0.13276E+06         0.00000E+00
   -0.13276E+06        -0.60615E+08         0.00000E+00
    0.00000E+00         0.00000E+00        -0.58952E+08
 
   -0.57420E+08        -0.16902E+06         0.00000E+00
   -0.16902E+06        -0.60711E+08         0.00000E+00
    0.00000E+00         0.00000E+00        -0.59067E+08
 
   -0.57541E+08        -0.20166E+06         0.00000E+00
   -0.20166E+06        -0.60813E+08         0.00000E+00
    0.00000E+00         0.00000E+00        -0.59178E+08
 
   -0.57648E+08        -0.22963E+06         0.00000E+00
   -0.22963E+06        -0.60918E+08         0.00000E+00
    0.00000E+00         0.00000E+00        -0.59284E+08
 
   -0.57744E+08        -0.25200E+06         0.00000E+00
   -0.25200E+06        -0.61028E+08         0.00000E+00
    0.00000E+00         0.00000E+00        -0.59386E+08
 
   -0.57829E+08        -0.26800E+06         0.00000E+00
   -0.26800E+06        -0.61140E+08         0.00000E+00
    0.00000E+00         0.00000E+00        -0.59485E+08
 
   -0.57906E+08        -0.27700E+06         0.00000E+00
   -0.27700E+06        -0.61255E+08         0.00000E+00
    0.00000E+00         0.00000E+00        -0.59580E+08
 
   -0.57975E+08        -0.27852E+06         0.00000E+00
   -0.27852E+06        -0.61370E+08         0.00000E+00
    0.00000E+00         0.00000E+00        -0.59672E+08
 
   -0.58037E+08        -0.27223E+06         0.00000E+00
   -0.27223E+06        -0.61485E+08         0.00000E+00
    0.00000E+00         0.00000E+00        -0.59761E+08
 
   -0.58096E+08        -0.25791E+06         0.00000E+00
   -0.25791E+06        -0.61600E+08         0.00000E+00
    0.00000E+00         0.00000E+00        -0.59848E+08
 
   -0.58151E+08        -0.23551E+06         0.00000E+00
   -0.23551E+06        -0.61712E+08         0.00000E+00
    0.00000E+00         0.00000E+00        -0.59932E+08
 
   -0.58206E+08        -0.20508E+06         0.00000E+00
   -0.20508E+06        -0.61823E+08         0.00000E+00
    0.00000E+00         0.00000E+00        -0.60014E+08
 
   -0.58260E+08        -0.16681E+06         0.00000E+00
   -0.16681E+06        -0.61930E+08         0.00000E+00
    0.00000E+00         0.00000E+00        -0.60095E+08
 
   -0.58317E+08        -0.12100E+06         0.00000E+00
   -0.12100E+06        -0.62032E+08         0.00000E+00
    0.00000E+00         0.00000E+00        -0.60174E+08
 
   -0.58377E+08        -0.68084E+05         0.00000E+00
   -0.68084E+05        -0.62130E+08         0.00000E+00
    0.00000E+00         0.00000E+00        -0.60253E+08
 
   -0.58441E+08        -0.86106E+04         0.00000E+00
   -0.86106E+04        -0.62222E+08         0.00000E+00
    0.00000E+00         0.00000E+00        -0.60331E+08
 
   -0.58512E+08         0.56749E+05         0.00000E+00
    0.56749E+05        -0.62308E+08         0.00000E+00
    0.00000E+00         0.00000E+00        -0.60409E+08
 
   -0.58591E+08         0.12720E+06         0.00000E+00
    0.12720E+06        -0.62386E+08         0.00000E+00
    0.00000E+00         0.00000E+00        -0.60488E+08
 
   -0.58678E+08         0.20180E+06         0.00000E+00
    0.20180E+06        -0.62456E+08         0.00000E+00
    0.00000E+00         0.00000E+00        -0.60566E+08
 
   -0.58776E+08         0.27950E+06         0.00000E+00
    0.27950E+06        -0.62518E+08         0.00000E+00
    0.00000E+00         0.00000E+00        -0.60646E+08
 
   -0.58884E+08         0.35909E+06         0.00000E+00
    0.35909E+06        -0.62570E+08         0.00000E+00
    0.00000E+00         0.00000E+00        -0.60726E+08
 
   -0.59005E+08         0.43923E+06         0.00000E+00
    0.43923E+06        -0.62613E+08         0.00000E+00
    0.00000E+00         0.00000E+00        -0.60807E+08
 
   -0.59138E+08         0.51842E+06         0.00000E+00
    0.51842E+06        -0.62645E+08         0.00000E+00
    0.00000E+00         0.00000E+00        -0.60890E+08
 
   -0.59285E+08         0.59505E+06         0.00000E+00
    0.59505E+06        -0.62667E+08         0.00000E+00
    0.00000E+00         0.00000E+00        -0.60973E+08
 
   -0.59445E+08         0.66734E+06         0.00000E+00
    0.66734E+06        -0.62677E+08         0.00000E+00
    0.00000E+00         0.00000E+00        -0.61058E+08
 
   -0.59619E+08         0.73341E+06         0.00000E+00
    0.73341E+06        -0.62677E+08         0.00000E+00
    0.00000E+00         0.00000E+00        -0.61143E+08
 
   -0.59805E+08         0.79127E+06         0.00000E+00
    0.79127E+06        -0.62665E+08         0.00000E+00
    0.00000E+00         0.00000E+00        -0.61228E+08
 
   -0.60004E+08         0.83888E+06         0.00000E+00
    0.83888E+06        -0.62642E+08         0.00000E+00
    0.00000E+00         0.00000E+00        -0.61313E+08
 
   -0.60213E+08         0.87413E+06         0.00000E+00
    0.87413E+06        -0.62608E+08         0.00000E+00
    0.00000E+00         0.00000E+00        -0.61397E+08
 
   -0.60431E+08         0.89498E+06         0.00000E+00
    0.89498E+06        -0.62564E+08         0.00000E+00
    0.00000E+00         0.00000E+00        -0.61478E+08
 
   -0.60655E+08         0.89944E+06         0.00000E+00
    0.89944E+06        -0.62510E+08         0.00000E+00
    0.00000E+00         0.00000E+00        -0.61556E+08
 
   -0.60882E+08         0.88570E+06         0.00000E+00
    0.88570E+06        -0.62448E+08         0.00000E+00
    0.00000E+00         0.00000E+00        -0.61628E+08
 
   -0.61107E+08         0.85221E+06         0.00000E+00
    0.85221E+06        -0.62379E+08         0.00000E+00
    0.00000E+00         0.00000E+00        -0.61691E+08
 
   -0.61326E+08         0.79776E+06         0.00000E+00
    0.79776E+06        -0.62304E+08         0.00000E+00
    0.00000E+00         0.00000E+00        -0.61744E+08
 
   -0.61533E+08         0.72160E+06         0.00000E+00
    0.72160E+06        -0.62225E+08         0.00000E+00
    0.00000E+00         0.00000E+00        -0.61783E+08
 
   -0.61721E+08         0.62354E+06         0.00000E+00
    0.62354E+06        -0.62143E+08         0.00000E+00
    0.00000E+00         0.00000E+00        -0.61804E+08
 
   -0.54247E+08         0.21854E+05         0.00000E+00
    0.21854E+05        -0.60001E+08         0.00000E+00
    0.00000E+00         0.00000E+00        -0.57398E+08
 
   -0.54454E+08         0.59042E+05         0.00000E+00
    0.59042E+05        -0.60005E+08         0.00000E+00
    0.00000E+00         0.00000E+00        -0.57433E+08
 
   -0.54684E+08         0.86496E+05         0.00000E+00
    0.86496E+05        -0.60013E+08         0.00000E+00
    0.00000E+00         0.00000E+00        -0.57499E+08
 
   -0.54931E+08         0.10341E+06         0.00000E+00
    0.10341E+06        -0.60026E+08         0.00000E+00
    0.00000E+00         0.00000E+00        -0.57589E+08
 
   -0.55188E+08         0.10950E+06         0.00000E+00
    0.10950E+06        -0.60046E+08         0.00000E+00
    0.00000E+00         0.00000E+00        -0.57696E+08
 
   -0.55448E+08         0.10495E+06         0.00000E+00
    0.10495E+06        -0.60071E+08         0.00000E+00
    0.00000E+00         0.00000E+00        -0.57816E+08
 
   -0.55705E+08         0.90378E+05         0.00000E+00
    0.90378E+05        -0.60105E+08         0.00000E+00
    0.00000E+00         0.00000E+00        -0.57945E+08
 
   -0.55956E+08         0.66741E+05         0.00000E+00
    0.66741E+05        -0.60146E+08         0.00000E+00
    0.00000E+00         0.00000E+00        -0.58079E+08
 
   -0.56197E+08         0.35296E+05         0.00000E+00
    0.35296E+05        -0.60195E+08         0.00000E+00
    0.00000E+00         0.00000E+00        -0.58216E+08
 
   -0.56425E+08        -0.25022E+04         0.00000E+00
   -0.25022E+04        -0.60253E+08         0.00000E+00
    0.00000E+00         0.00000E+00        -0.58353E+08
 
   -0.56638E+08        -0.45060E+05         0.00000E+00
   -0.45060E+05        -0.60320E+08         0.00000E+00
    0.00000E+00         0.00000E+00        -0.58488E+08
 
   -0.56836E+08        -0.90722E+05         0.00000E+00
   -0.90722E+05        -0.60394E+08         0.00000E+00
    0.00000E+00         0.00000E+00        -0.58621E+08
 
   -0.57016E+08        -0.13782E+06         0.00000E+00
   -0.13782E+06        -0.60478E+08         0.00000E+00
    0.00000E+00         0.00000E+00        -0.58751E+08
 
   -0.57180E+08        -0.18474E+06         0.00000E+00
   -0.18474E+06        -0.60568E+08         0.00000E+00
    0.00000E+00         0.00000E+00        -0.58877E+08
 
   -0.57327E+08        -0.22995E+06         0.00000E+00
   -0.22995E+06        -0.60666E+08         0.00000E+00
    0.00000E+00         0.00000E+00        -0.58999E+08
 
   -0.57458E+08        -0.27203E+06         0.00000E+00
   -0.27203E+06        -0.60770E+08         0.00000E+00
    0.00000E+00         0.00000E+00        -0.59115E+08
 
   -0.57574E+08        -0.30969E+06         0.00000E+00
   -0.30969E+06        -0.60880E+08         0.00000E+00
    0.00000E+00         0.00000E+00        -0.59228E+08
 
   -0.57676E+08        -0.34183E+06         0.00000E+00
   -0.34183E+06        -0.60995E+08         0.00000E+00
    0.00000E+00         0.00000E+00        -0.59336E+08
 
   -0.57765E+08        -0.36748E+06         0.00000E+00
   -0.36748E+06        -0.61113E+08         0.00000E+00
    0.00000E+00         0.00000E+00        -0.59439E+08
 
   -0.57843E+08        -0.38584E+06         0.00000E+00
   -0.38584E+06        -0.61234E+08         0.00000E+00
    0.00000E+00         0.00000E+00        -0.59539E+08
 
   -0.57912E+08        -0.39626E+06         0.00000E+00
   -0.39626E+06        -0.61357E+08         0.00000E+00
    0.00000E+00         0.00000E+00        -0.59634E+08
 
   -0.57972E+08        -0.39829E+06         0.00000E+00
   -0.39829E+06        -0.61481E+08         0.00000E+00
    0.00000E+00         0.00000E+00        -0.59726E+08
 
   -0.58027E+08        -0.39157E+06         0.00000E+00
   -0.39157E+06        -0.61605E+08         0.00000E+00
    0.00000E+00         0.00000E+00        -0.59816E+08
 
   -0.58077E+08        -0.37594E+06         0.00000E+00
   -0.37594E+06        -0.61727E+08         0.00000E+00
    0.00000E+00         0.00000E+00        -0.59902E+08
 
   -0.58124E+08        -0.35133E+06         0.00000E+00
   -0.35133E+06        -0.61848E+08         0.00000E+00
    0.00000E+00         0.00000E+00        -0.59986E+08
 
   -0.58170E+08        -0.31784E+06         0.00000E+00
   -0.31784E+06        -0.61967E+08         0.00000E+00
    0.00000E+00         0.00000E+00        -0.60068E+08
 
   -0.58216E+08        -0.27566E+06         0.00000E+00
   -0.27566E+06        -0.62081E+08         0.00000E+00
    0.00000E+00         0.00000E+00        -0.60148E+08
 
   -0.58265E+08        -0.22512E+06         0.00000E+00
   -0.22512E+06        -0.62192E+08         0.00000E+00
    0.00000E+00         0.00000E+00        -0.60228E+08
 
   -0.58317E+08        -0.16667E+06         0.00000E+00
   -0.16667E+06        -0.62297E+08         0.00000E+00
    0.00000E+00         0.00000E+00        -0.60306E+08
 
   -0.58375E+08        -0.10089E+06         0.00000E+00
   -0.10089E+06        -0.62396E+08         0.00000E+00
    0.00000E+00         0.00000E+00        -0.60385E+08
 
   -0.58440E+08        -0.28460E+05         0.00000E+00
   -0.28460E+05        -0.62488E+08         0.00000E+00
    0.00000E+00         0.00000E+00        -0.60463E+08
 
   -0.58514E+08         0.49791E+05         0.00000E+00
    0.49791E+05        -0.62572E+08         0.00000E+00
    0.00000E+00         0.00000E+00        -0.60542E+08
 
   -0.58597E+08         0.13291E+06         0.00000E+00
    0.13291E+06        -0.62648E+08         0.00000E+00
    0.00000E+00         0.00000E+00        -0.60622E+08
 
   -0.58692E+08         0.21979E+06         0.00000E+00
    0.21979E+06        -0.62715E+08         0.00000E+00
    0.00000E+00         0.00000E+00        -0.60702E+08
 
   -0.58799E+08         0.30919E+06         0.00000E+00
    0.30919E+06        -0.62772E+08         0.00000E+00
    0.00000E+00         0.00000E+00        -0.60784E+08
 
   -0.58920E+08         0.39971E+06         0.00000E+00
    0.39971E+06        -0.62819E+08         0.00000E+00
    0.00000E+00         0.00000E+00        -0.60868E+08
 
   -0.59055E+08         0.48978E+06         0.00000E+00
    0.48978E+06        -0.62855E+08         0.00000E+00
    0.00000E+00         0.00000E+00        -0.60953E+08
 
   -0.59205E+08         0.57769E+06         0.00000E+00
    0.57769E+06        -0.62880E+08         0.00000E+00
    0.00000E+00         0.00000E+00        -0.61039E+08
 
   -0.59370E+08         0.66157E+06         0.00000E+00
    0.66157E+06        -0.62892E+08         0.00000E+00
    0.00000E+00         0.00000E+00        -0.61127E+08
 
   -0.59551E+08         0.73938E+06         0.00000E+00
    0.73938E+06        -0.62893E+08         0.00000E+00
    0.00000E+00         0.00000E+00        -0.61216E+08
 
   -0.59747E+08         0.80900E+06         0.00000E+00
    0.80900E+06        -0.62881E+08         0.00000E+00
    0.00000E+00         0.00000E+00        -0.61306E+08
 
   -0.59957E+08         0.86816E+06         0.00000E+00
    0.86816E+06        -0.62857E+08         0.00000E+00
    0.00000E+00         0.00000E+00        -0.61396E+08
 
   -0.60180E+08         0.91459E+06         0.00000E+00
    0.91459E+06        -0.62821E+08         0.00000E+00
    0.00000E+00         0.00000E+00        -0.61485E+08
 
   -0.60413E+08         0.94598E+06         0.00000E+00
    0.94598E+06        -0.62774E+08         0.00000E+00
    0.00000E+00         0.00000E+00        -0.61572E+08
 
   -0.60655E+08         0.96011E+06         0.00000E+00
    0.96011E+06        -0.62715E+08         0.00000E+00
    0.00000E+00         0.00000E+00        -0.61655E+08
 
   -0.60901E+08         0.95491E+06         0.00000E+00
    0.95491E+06        -0.62648E+08         0.00000E+00
    0.00000E+00         0.00000E+00        -0.61732E+08
 
   -0.61148E+08         0.92859E+06         0.00000E+00
    0.92859E+06        -0.62571E+08         0.00000E+00
    0.00000E+00         0.00000E+00        -0.61801E+08
 
   -0.61389E+08         0.87969E+06         0.00000E+00
    0.87969E+06        -0.62488E+08         0.00000E+00
    0.00000E+00         0.00000E+00        -0.61858E+08
 
   -0.61618E+08         0.80726E+06         0.00000E+00
    0.80726E+06        -0.62399E+08         0.00000E+00
    0.00000E+00         0.00000E+00        -0.61901E+08
 
   -0.61830E+08         0.71095E+06         0.00000E+00
    0.71095E+06        -0.62307E+08         0.00000E+00
    0.00000E+00         0.00000E+00        -0.61924E+08
 
   -0.54207E+08         0.20001E+05         0.00000E+00
    0.20001E+05        -0.60001E+08         0.00000E+00
    0.00000E+00         0.00000E+00        -0.57390E+08
 
   -0.54423E+08         0.53022E+05         0.00000E+00
    0.53022E+05        -0.60005E+08         0.00000E+00
    0.00000E+00         0.00000E+00        -0.57428E+08
 
   -0.54665E+08         0.75573E+05         0.00000E+00
    0.75573E+05        -0.60013E+08         0.00000E+00
    0.00000E+00         0.00000E+00        -0.57497E+08
 
   -0.54923E+08         0.86769E+05         0.00000E+00
    0.86769E+05        -0.60028E+08         0.00000E+00
    0.00000E+00         0.00000E+00        -0.57590E+08
 
   -0.55191E+08         0.86309E+05         0.00000E+00
    0.86309E+05        -0.60048E+08         0.00000E+00
    0.00000E+00         0.00000E+00        -0.57702E+08
 
   -0.55461E+08         0.74434E+05         0.00000E+00
    0.74434E+05        -0.60076E+08         0.00000E+00
    0.00000E+00         0.00000E+00        -0.57828E+08
 
   -0.55729E+08         0.51865E+05         0.00000E+00
    0.51865E+05        -0.60112E+08         0.00000E+00
    0.00000E+00         0.00000E+00        -0.57962E+08
 
   -0.55988E+08         0.19720E+05         0.00000E+00
    0.19720E+05        -0.60156E+08         0.00000E+00
    0.00000E+00         0.00000E+00        -0.58102E+08
 
   -0.56236E+08        -0.20570E+05         0.00000E+00
   -0.20570E+05        -0.60210E+08         0.00000E+00
    0.00000E+00         0.00000E+00        -0.58244E+08
 
   -0.56470E+08        -0.67351E+05         0.00000E+00
   -0.67351E+05        -0.60273E+08         0.00000E+00
    0.00000E+00         0.00000E+00        -0.58386E+08
 
   -0.56687E+08        -0.11883E+06         0.00000E+00
   -0.11883E+06        -0.60345E+08         0.00000E+00
    0.00000E+00         0.00000E+00        -0.58526E+08
 
   -0.56886E+08        -0.17317E+06         0.00000E+00
   -0.17317E+06        -0.60426E+08         0.00000E+00
    0.00000E+00         0.00000E+00        -0.58663E+08
 
   -0.57067E+08        -0.22852E+06         0.00000E+00
   -0.22852E+06        -0.60517E+08         0.00000E+00
    0.00000E+00         0.00000E+00        -0.58797E+08
 
   -0.57230E+08        -0.28311E+06         0.00000E+00
   -0.28311E+06        -0.60615E+08         0.00000E+00
    0.00000E+00         0.00000E+00        -0.58926E+08
 
   -0.57374E+08        -0.33527E+06         0.00000E+00
   -0.33527E+06        -0.60721E+08         0.00000E+00
    0.00000E+00         0.00000E+00        -0.59050E+08
 
   -0.57501E+08        -0.38349E+06         0.00000E+00
   -0.38349E+06        -0.60834E+08         0.00000E+00
    0.00000E+00         0.00000E+00        -0.59169E+08
 
   -0.57611E+08        -0.42642E+06         0.00000E+00
   -0.42642E+06        -0.60952E+08         0.00000E+00
    0.00000E+00         0.00000E+00        -0.59283E+08
 
   -0.57706E+08        -0.46287E+06         0.00000E+00
   -0.46287E+06        -0.61076E+08         0.00000E+00
    0.00000E+00         0.00000E+00        -0.59392E+08
 
   -0.57788E+08        -0.49185E+06         0.00000E+00
   -0.49185E+06        -0.61203E+08         0.00000E+00
    0.00000E+00         0.00000E+00        -0.59496E+08
 
   -0.57858E+08        -0.51255E+06         0.00000E+00
   -0.51255E+06        -0.61333E+08         0.00000E+00
    0.00000E+00         0.00000E+00        -0.59596E+08
 
   -0.57918E+08        -0.52434E+06         0.00000E+00
   -0.52434E+06        -0.61465E+08         0.00000E+00
    0.00000E+00         0.00000E+00        -0.59692E+08
 
   -0.57970E+08        -0.52674E+06         0.00000E+00
   -0.52674E+06        -0.61598E+08         0.00000E+00
    0.00000E+00         0.00000E+00        -0.59784E+08
 
   -0.58015E+08        -0.51945E+06         0.00000E+00
   -0.51945E+06        -0.61730E+08         0.00000E+00
    0.00000E+00         0.00000E+00        -0.59873E+08
 
   -0.58055E+08        -0.50230E+06         0.00000E+00
   -0.50230E+06        -0.61862E+08         0.00000E+00
    0.00000E+00         0.00000E+00        -0.59958E+08
 
   -0.58093E+08        -0.47528E+06         0.00000E+00
   -0.47528E+06        -0.61991E+08         0.00000E+00
    0.00000E+00         0.00000E+00        -0.60042E+08
 
   -0.58130E+08        -0.43847E+06         0.00000E+00
   -0.43847E+06        -0.62117E+08         0.00000E+00
    0.00000E+00         0.00000E+00        -0.60123E+08
 
   -0.58167E+08        -0.39213E+06         0.00000E+00
   -0.39213E+06        -0.62240E+08         0.00000E+00
    0.00000E+00         0.00000E+00        -0.60203E+08
 
   -0.58207E+08        -0.33659E+06         0.00000E+00
   -0.33659E+06        -0.62358E+08         0.00000E+00
    0.00000E+00         0.00000E+00        -0.60282E+08
 
   -0.58252E+08        -0.27232E+06         0.00000E+00
   -0.27232E+06        -0.62470E+08         0.00000E+00
    0.00000E+00         0.00000E+00        -0.60360E+08
 
   -0.58303E+08        -0.19991E+06         0.00000E+00
   -0.19991E+06        -0.62576E+08         0.00000E+00
    0.00000E+00         0.00000E+00        -0.60438E+08
 
   -0.58361E+08        -0.12007E+06         0.00000E+00
   -0.12007E+06        -0.62674E+08         0.00000E+00
    0.00000E+00         0.00000E+00        -0.60517E+08
 
   -0.58429E+08        -0.33646E+05         0.00000E+00
   -0.33646E+05        -0.62765E+08         0.00000E+00
    0.00000E+00         0.00000E+00        -0.60596E+08
 
   -0.58508E+08         0.58396E+05         0.00000E+00
    0.58396E+05        -0.62847E+08         0.00000E+00
    0.00000E+00         0.00000E+00        -0.60676E+08
 
   -0.58599E+08         0.15493E+06         0.00000E+00
    0.15493E+06        -0.62919E+08         0.00000E+00
    0.00000E+00         0.00000E+00        -0.60758E+08
 
   -0.58704E+08         0.25467E+06         0.00000E+00
    0.25467E+06        -0.62981E+08         0.00000E+00
    0.00000E+00         0.00000E+00        -0.60841E+08
 
   -0.58824E+08         0.35617E+06         0.00000E+00
    0.35617E+06        -0.63033E+08         0.00000E+00
    0.00000E+00         0.00000E+00        -0.60926E+08
 
   -0.58960E+08         0.45781E+06         0.00000E+00
    0.45781E+06        -0.63072E+08         0.00000E+00
    0.00000E+00         0.00000E+00        -0.61013E+08
 
   -0.59112E+08         0.55778E+06         0.00000E+00
    0.55778E+06        -0.63100E+08         0.00000E+00
    0.00000E+00         0.00000E+00        -0.61103E+08
 
   -0.59283E+08         0.65411E+06         0.00000E+00
    0.65411E+06        -0.63115E+08         0.00000E+00
    0.00000E+00         0.00000E+00        -0.61194E+08
 
   -0.59470E+08         0.74464E+06         0.00000E+00
    0.74464E+06        -0.63116E+08         0.00000E+00
    0.00000E+00         0.00000E+00        -0.61287E+08
 
   -0.59675E+08         0.82707E+06         0.00000E+00
    0.82707E+06        -0.63105E+08         0.00000E+00
    0.00000E+00         0.00000E+00        -0.61381E+08
 
   -0.59897E+08         0.89895E+06         0.00000E+00
    0.89895E+06        -0.63080E+08         0.00000E+00
    0.00000E+00         0.00000E+00        -0.61476E+08
 
   -0.60134E+08         0.95777E+06         0.00000E+00
    0.95777E+06        -0.63042E+08         0.00000E+00
    0.00000E+00         0.00000E+00        -0.61571E+08
 
   -0.60385E+08         0.10010E+07         0.00000E+00
    0.10010E+07        -0.62991E+08         0.00000E+00
    0.00000E+00         0.00000E+00        -0.61663E+08
 
   -0.60645E+08         0.10261E+07         0.00000E+00
    0.10261E+07        -0.62928E+08         0.00000E+00
    0.00000E+00         0.00000E+00        -0.61752E+08
 
   -0.60912E+08         0.10308E+07         0.00000E+00
    0.10308E+07        -0.62854E+08         0.00000E+00
    0.00000E+00         0.00000E+00        -0.61835E+08
 
   -0.61181E+08         0.10129E+07         0.00000E+00
    0.10129E+07        -0.62770E+08         0.00000E+00
    0.00000E+00         0.00000E+00        -0.61910E+08
 
   -0.61447E+08         0.97075E+06         0.00000E+00
    0.97075E+06        -0.62678E+08         0.00000E+00
    0.00000E+00         0.00000E+00        -0.61972E+08
 
   -0.61701E+08         0.90316E+06         0.00000E+00
    0.90316E+06        -0.62579E+08         0.00000E+00
    0.00000E+00         0.00000E+00        -0.62018E+08
 
   -0.61937E+08         0.80954E+06         0.00000E+00
    0.80954E+06        -0.62477E+08         0.00000E+00
    0.00000E+00         0.00000E+00        -0.62043E+08
 
   -0.54171E+08         0.18096E+05         0.00000E+00
    0.18096E+05        -0.60001E+08         0.00000E+00
    0.00000E+00         0.00000E+00        -0.57386E+08
 
   -0.54398E+08         0.46760E+05         0.00000E+00
    0.46760E+05        -0.60005E+08         0.00000E+00
    0.00000E+00         0.00000E+00        -0.57426E+08
 
   -0.54651E+08         0.64088E+05         0.00000E+00
    0.64088E+05        -0.60014E+08         0.00000E+00
    0.00000E+00         0.00000E+00        -0.57498E+08
 
   -0.54921E+08         0.69103E+05         0.00000E+00
    0.69103E+05        -0.60029E+08         0.00000E+00
    0.00000E+00         0.00000E+00        -0.57596E+08
 
   -0.55201E+08         0.61500E+05         0.00000E+00
    0.61500E+05        -0.60051E+08         0.00000E+00
    0.00000E+00         0.00000E+00        -0.57713E+08
 
   -0.55483E+08         0.41594E+05         0.00000E+00
    0.41594E+05        -0.60081E+08         0.00000E+00
    0.00000E+00         0.00000E+00        -0.57844E+08
 
   -0.55761E+08         0.10241E+05         0.00000E+00
    0.10241E+05        -0.60119E+08         0.00000E+00
    0.00000E+00         0.00000E+00        -0.57984E+08
 
   -0.56030E+08        -0.31254E+05         0.00000E+00
   -0.31254E+05        -0.60168E+08         0.00000E+00
    0.00000E+00         0.00000E+00        -0.58129E+08
 
   -0.56285E+08        -0.81244E+05         0.00000E+00
   -0.81244E+05        -0.60226E+08         0.00000E+00
    0.00000E+00         0.00000E+00        -0.58277E+08
 
   -0.56524E+08        -0.13785E+06         0.00000E+00
   -0.13785E+06        -0.60294E+08         0.00000E+00
    0.00000E+00         0.00000E+00        -0.58424E+08
 
   -0.56745E+08        -0.19904E+06         0.00000E+00
   -0.19904E+06        -0.60373E+08         0.00000E+00
    0.00000E+00         0.00000E+00        -0.58569E+08
 
   -0.56946E+08        -0.26276E+06         0.00000E+00
   -0.26276E+06        -0.60461E+08         0.00000E+00
    0.00000E+00         0.00000E+00        -0.58711E+08
 
   -0.57127E+08        -0.32697E+06         0.00000E+00
   -0.32697E+06        -0.60559E+08         0.00000E+00
    0.00000E+00         0.00000E+00        -0.58848E+08
 
   -0.57287E+08        -0.38973E+06         0.00000E+00
   -0.38973E+06        -0.60666E+08         0.00000E+00
    0.00000E+00         0.00000E+00        -0.58980E+08
 
   -0.57428E+08        -0.44925E+06         0.00000E+00
   -0.44925E+06        -0.60781E+08         0.00000E+00
    0.00000E+00         0.00000E+00        -0.59106E+08
 
   -0.57549E+08        -0.50391E+06         0.00000E+00
   -0.50391E+06        -0.60903E+08         0.00000E+00
    0.00000E+00         0.00000E+00        -0.59227E+08
 
   -0.57653E+08        -0.55227E+06         0.00000E+00
   -0.55227E+06        -0.61030E+08         0.00000E+00
    0.00000E+00         0.00000E+00        -0.59343E+08
 
   -0.57741E+08        -0.59311E+06         0.00000E+00
   -0.59311E+06        -0.61163E+08         0.00000E+00
    0.00000E+00         0.00000E+00        -0.59453E+08
 
   -0.57815E+08        -0.62543E+06         0.00000E+00
   -0.62543E+06        -0.61300E+08         0.00000E+00
    0.00000E+00         0.00000E+00        -0.59558E+08
 
   -0.57876E+08        -0.64840E+06         0.00000E+00
   -0.64840E+06        -0.61439E+08         0.00000E+00
    0.00000E+00         0.00000E+00        -0.59658E+08
 
   -0.57926E+08        -0.66141E+06         0.00000E+00
   -0.66141E+06        -0.61580E+08         0.00000E+00
    0.00000E+00         0.00000E+00        -0.59753E+08
 
   -0.57967E+08        -0.66402E+06         0.00000E+00
   -0.66402E+06        -0.61722E+08         0.00000E+00
    0.00000E+00         0.00000E+00        -0.59845E+08
 
   -0.58002E+08        -0.65594E+06         0.00000E+00
   -0.65594E+06        -0.61863E+08         0.00000E+00
    0.00000E+00         0.00000E+00        -0.59933E+08
 
   -0.58032E+08        -0.63704E+06         0.00000E+00
   -0.63704E+06        -0.62003E+08         0.00000E+00
    0.00000E+00         0.00000E+00        -0.60017E+08
 
   -0.58060E+08        -0.60733E+06         0.00000E+00
   -0.60733E+06        -0.62141E+08         0.00000E+00
    0.00000E+00         0.00000E+00        -0.60100E+08
 
   -0.58086E+08        -0.56696E+06         0.00000E+00
   -0.56696E+06        -0.62275E+08         0.00000E+00
    0.00000E+00         0.00000E+00        -0.60180E+08
 
   -0.58114E+08        -0.51618E+06         0.00000E+00
   -0.51618E+06        -0.62405E+08         0.00000E+00
    0.00000E+00         0.00000E+00        -0.60259E+08
 
   -0.58145E+08        -0.45536E+06         0.00000E+00
   -0.45536E+06        -0.62530E+08         0.00000E+00
    0.00000E+00         0.00000E+00        -0.60337E+08
 
   -0.58180E+08        -0.38498E+06         0.00000E+00
   -0.38498E+06        -0.62649E+08         0.00000E+00
    0.00000E+00         0.00000E+00        -0.60414E+08
 
   -0.58223E+08        -0.30566E+06         0.00000E+00
   -0.30566E+06        -0.62762E+08         0.00000E+00
    0.00000E+00         0.00000E+00        -0.60492E+08
 
   -0.58274E+08        -0.21809E+06         0.00000E+00
   -0.21809E+06        -0.62867E+08         0.00000E+00
    0.00000E+00         0.00000E+00        -0.60570E+08
 
   -0.58335E+08        -0.12314E+06         0.00000E+00
   -0.12314E+06        -0.62964E+08         0.00000E+00
    0.00000E+00         0.00000E+00        -0.60649E+08
 
   -0.58408E+08        -0.21794E+05         0.00000E+00
   -0.21794E+05        -0.63052E+08         0.00000E+00
    0.00000E+00         0.00000E+00        -0.60729E+08
 
   -0.58495E+08         0.84819E+05         0.00000E+00
    0.84819E+05        -0.63130E+08         0.00000E+00
    0.00000E+00         0.00000E+00        -0.60811E+08
 
   -0.58597E+08         0.19539E+06         0.00000E+00
    0.19539E+06        -0.63197E+08         0.00000E+00
    0.00000E+00         0.00000E+00        -0.60895E+08
 
   -0.58716E+08         0.30845E+06         0.00000E+00
    0.30845E+06        -0.63253E+08         0.00000E+00
    0.00000E+00         0.00000E+00        -0.60982E+08
 
   -0.58852E+08         0.42232E+06         0.00000E+00
    0.42232E+06        -0.63296E+08         0.00000E+00
    0.00000E+00         0.00000E+00        -0.61071E+08
 
   -0.59007E+08         0.53512E+06         0.00000E+00
    0.53512E+06        -0.63327E+08         0.00000E+00
    0.00000E+00         0.00000E+00        -0.61163E+08
 
   -0.59182E+08         0.64478E+06         0.00000E+00
    0.64478E+06        -0.63344E+08         0.00000E+00
    0.00000E+00         0.00000E+00        -0.61258E+08
 
   -0.59377E+08         0.74901E+06         0.00000E+00
    0.74901E+06        -0.63348E+08         0.00000E+00
    0.00000E+00         0.00000E+00        -0.61355E+08
 
   -0.59591E+08         0.84535E+06         0.00000E+00
    0.84535E+06        -0.63337E+08         0.00000E+00
    0.00000E+00         0.00000E+00        -0.61454E+08
 
   -0.59825E+08         0.93116E+06         0.00000E+00
    0.93116E+06        -0.63311E+08         0.00000E+00
    0.00000E+00         0.00000E+00        -0.61554E+08
 
   -0.60076E+08         0.10037E+07         0.00000E+00
    0.10037E+07        -0.63271E+08         0.00000E+00
    0.00000E+00         0.00000E+00        -0.61654E+08
 
   -0.60344E+08         0.10601E+07         0.00000E+00
    0.10601E+07        -0.63217E+08         0.00000E+00
    0.00000E+00         0.00000E+00        -0.61752E+08
 
   -0.60624E+08         0.10977E+07         0.00000E+00
    0.10977E+07        -0.63149E+08         0.00000E+00
    0.00000E+00         0.00000E+00        -0.61847E+08
 
   -0.60913E+08         0.11137E+07         0.00000E+00
    0.11137E+07        -0.63068E+08         0.00000E+00
    0.00000E+00         0.00000E+00        -0.61937E+08
 
   -0.61207E+08         0.11057E+07         0.00000E+00
    0.11057E+07        -0.62976E+08         0.00000E+00
    0.00000E+00         0.00000E+00        -0.62017E+08
 
   -0.61498E+08         0.10717E+07         0.00000E+00
    0.10717E+07        -0.62874E+08         0.00000E+00
    0.00000E+00         0.00000E+00        -0.62084E+08
 
   -0.61779E+08         0.10102E+07         0.00000E+00
    0.10102E+07        -0.62765E+08         0.00000E+00
    0.00000E+00         0.00000E+00        -0.62134E+08
 
   -0.62043E+08         0.92041E+06         0.00000E+00
    0.92041E+06        -0.62650E+08         0.00000E+00
    0.00000E+00         0.00000E+00        -0.62161E+08
 
   -0.54139E+08         0.16151E+05         0.00000E+00
    0.16151E+05        -0.60001E+08         0.00000E+00
    0.00000E+00         0.00000E+00        -0.57385E+08
 
   -0.54377E+08         0.40273E+05         0.00000E+00
    0.40273E+05        -0.60005E+08         0.00000E+00
    0.00000E+00         0.00000E+00        -0.57426E+08
 
   -0.54642E+08         0.52032E+05         0.00000E+00
    0.52032E+05        -0.60015E+08         0.00000E+00
    0.00000E+00         0.00000E+00        -0.57502E+08
 
   -0.54926E+08         0.50355E+05         0.00000E+00
    0.50355E+05        -0.60030E+08         0.00000E+00
    0.00000E+00         0.00000E+00        -0.57605E+08
 
   -0.55219E+08         0.34942E+05         0.00000E+00
    0.34942E+05        -0.60054E+08         0.00000E+00
    0.00000E+00         0.00000E+00        -0.57728E+08
 
   -0.55513E+08         0.62087E+04         0.00000E+00
    0.62087E+04        -0.60086E+08         0.00000E+00
    0.00000E+00         0.00000E+00        -0.57865E+08
 
   -0.55802E+08        -0.34815E+05         0.00000E+00
   -0.34815E+05        -0.60128E+08         0.00000E+00
    0.00000E+00         0.00000E+00        -0.58011E+08
 
   -0.56081E+08        -0.86596E+05         0.00000E+00
   -0.86596E+05        -0.60180E+08         0.00000E+00
    0.00000E+00         0.00000E+00        -0.58163E+08
 
   -0.56344E+08        -0.14723E+06         0.00000E+00
   -0.14723E+06        -0.60243E+08         0.00000E+00
    0.00000E+00         0.00000E+00        -0.58316E+08
 
   -0.56589E+08        -0.21455E+06         0.00000E+00
   -0.21455E+06        -0.60318E+08         0.00000E+00
    0.00000E+00         0.00000E+00        -0.58469E+08
 
   -0.56813E+08        -0.28629E+06         0.00000E+00
   -0.28629E+06        -0.60403E+08         0.00000E+00
    0.00000E+00         0.00000E+00        -0.58619E+08
 
   -0.57015E+08        -0.36012E+06         0.00000E+00
   -0.36012E+06        -0.60500E+08         0.00000E+00
    0.00000E+00         0.00000E+00        -0.58765E+08
 
   -0.57195E+08        -0.43381E+06         0.00000E+00
   -0.43381E+06        -0.60606E+08         0.00000E+00
    0.00000E+00         0.00000E+00        -0.58906E+08
 
   -0.57353E+08        -0.50524E+06         0.00000E+00
   -0.50524E+06        -0.60722E+08         0.00000E+00
    0.00000E+00         0.00000E+00        -0.59041E+08
 
   -0.57489E+08        -0.57247E+06         0.00000E+00
   -0.57247E+06        -0.60846E+08         0.00000E+00
    0.00000E+00         0.00000E+00        -0.59170E+08
 
   -0.57604E+08        -0.63378E+06         0.00000E+00
   -0.63378E+06        -0.60977E+08         0.00000E+00
    0.00000E+00         0.00000E+00        -0.59292E+08
 
   -0.57701E+08        -0.68769E+06         0.00000E+00
   -0.68769E+06        -0.61115E+08         0.00000E+00
    0.00000E+00         0.00000E+00        -0.59409E+08
 
   -0.57780E+08        -0.73293E+06         0.00000E+00
   -0.73293E+06        -0.61257E+08         0.00000E+00
    0.00000E+00         0.00000E+00        -0.59519E+08
 
   -0.57844E+08        -0.76850E+06         0.00000E+00
   -0.76850E+06        -0.61404E+08         0.00000E+00
    0.00000E+00         0.00000E+00        -0.59624E+08
 
   -0.57894E+08        -0.79359E+06         0.00000E+00
   -0.79359E+06        -0.61553E+08         0.00000E+00
    0.00000E+00         0.00000E+00        -0.59724E+08
 
   -0.57934E+08        -0.80761E+06         0.00000E+00
   -0.80761E+06        -0.61703E+08         0.00000E+00
    0.00000E+00         0.00000E+00        -0.59818E+08
 
   -0.57964E+08        -0.81016E+06         0.00000E+00
   -0.81016E+06        -0.61854E+08         0.00000E+00
    0.00000E+00         0.00000E+00        -0.59909E+08
 
   -0.57988E+08        -0.80101E+06         0.00000E+00
   -0.80101E+06        -0.62004E+08         0.00000E+00
    0.00000E+00         0.00000E+00        -0.59996E+08
 
   -0.58007E+08        -0.78007E+06         0.00000E+00
   -0.78007E+06        -0.62152E+08         0.00000E+00
    0.00000E+00         0.00000E+00        -0.60079E+08
 
   -0.58023E+08        -0.74740E+06         0.00000E+00
   -0.74740E+06        -0.62298E+08         0.00000E+00
    0.00000E+00         0.00000E+00        -0.60160E+08
 
   -0.58038E+08        -0.70317E+06         0.00000E+00
   -0.70317E+06        -0.62440E+08         0.00000E+00
    0.00000E+00         0.00000E+00        -0.60238E+08
 
   -0.58055E+08        -0.64766E+06         0.00000E+00
   -0.64766E+06        -0.62577E+08         0.00000E+00
    0.00000E+00         0.00000E+00        -0.60316E+08
 
   -0.58076E+08        -0.58128E+06         0.00000E+00
   -0.58128E+06        -0.62709E+08         0.00000E+00
    0.00000E+00         0.00000E+00        -0.60392E+08
 
   -0.58102E+08        -0.50452E+06         0.00000E+00
   -0.50452E+06        -0.62836E+08         0.00000E+00
    0.00000E+00         0.00000E+00        -0.60468E+08
 
   -0.58135E+08        -0.41800E+06         0.00000E+00
   -0.41800E+06        -0.62955E+08         0.00000E+00
    0.00000E+00         0.00000E+00        -0.60544E+08
 
   -0.58178E+08        -0.32243E+06         0.00000E+00
   -0.32243E+06        -0.63066E+08         0.00000E+00
    0.00000E+00         0.00000E+00        -0.60621E+08
 
   -0.58232E+08        -0.21865E+06         0.00000E+00
   -0.21865E+06        -0.63169E+08         0.00000E+00
    0.00000E+00         0.00000E+00        -0.60700E+08
 
   -0.58299E+08        -0.10766E+06         0.00000E+00
   -0.10766E+06        -0.63263E+08         0.00000E+00
    0.00000E+00         0.00000E+00        -0.60780E+08
 
   -0.58381E+08         0.94168E+04         0.00000E+00
    0.94168E+04        -0.63346E+08         0.00000E+00
    0.00000E+00         0.00000E+00        -0.60862E+08
 
   -0.58479E+08         0.13127E+06         0.00000E+00
    0.13127E+06        -0.63419E+08         0.00000E+00
    0.00000E+00         0.00000E+00        -0.60947E+08
 
   -0.58596E+08         0.25641E+06         0.00000E+00
    0.25641E+06        -0.63479E+08         0.00000E+00
    0.00000E+00         0.00000E+00        -0.61035E+08
 
   -0.58732E+08         0.38313E+06         0.00000E+00
    0.38313E+06        -0.63527E+08         0.00000E+00
    0.00000E+00         0.00000E+00        -0.61126E+08
 
   -0.58889E+08         0.50950E+06         0.00000E+00
    0.50950E+06        -0.63561E+08         0.00000E+00
    0.00000E+00         0.00000E+00        -0.61221E+08
 
   -0.59067E+08         0.63335E+06         0.00000E+00
    0.63335E+06        -0.63581E+08         0.00000E+00
    0.00000E+00         0.00000E+00        -0.61318E+08
 
   -0.59268E+08         0.75229E+06         0.00000E+00
    0.75229E+06        -0.63586E+08         0.00000E+00
    0.00000E+00         0.00000E+00        -0.61419E+08
 
   -0.59492E+08         0.86369E+06         0.00000E+00
    0.86369E+06        -0.63575E+08         0.00000E+00
    0.00000E+00         0.00000E+00        -0.61522E+08
 
   -0.59737E+08         0.96470E+06         0.00000E+00
    0.96470E+06        -0.63549E+08         0.00000E+00
    0.00000E+00         0.00000E+00        -0.61627E+08
 
   -0.60004E+08         0.10523E+07         0.00000E+00
    0.10523E+07        -0.63507E+08         0.00000E+00
    0.00000E+00         0.00000E+00        -0.61733E+08
 
   -0.60289E+08         0.11235E+07         0.00000E+00
    0.11235E+07        -0.63449E+08         0.00000E+00
    0.00000E+00         0.00000E+00        -0.61838E+08
 
   -0.60590E+08         0.11751E+07         0.00000E+00
    0.11751E+07        -0.63376E+08         0.00000E+00
    0.00000E+00         0.00000E+00        -0.61939E+08
 
   -0.60903E+08         0.12040E+07         0.00000E+00
    0.12040E+07        -0.63289E+08         0.00000E+00
    0.00000E+00         0.00000E+00        -0.62035E+08
 
   -0.61222E+08         0.12076E+07         0.00000E+00
    0.12076E+07        -0.63188E+08         0.00000E+00
    0.00000E+00         0.00000E+00        -0.62121E+08
 
   -0.61541E+08         0.11833E+07         0.00000E+00
    0.11833E+07        -0.63076E+08         0.00000E+00
    0.00000E+00         0.00000E+00        -0.62194E+08
 
   -0.61852E+08         0.11294E+07         0.00000E+00
    0.11294E+07        -0.62955E+08         0.00000E+00
    0.00000E+00         0.00000E+00        -0.62248E+08
 
   -0.62145E+08         0.10447E+07         0.00000E+00
    0.10447E+07        -0.62826E+08         0.00000E+00
    0.00000E+00         0.00000E+00        -0.62278E+08
 
   -0.54112E+08         0.14177E+05         0.00000E+00
    0.14177E+05        -0.60001E+08         0.00000E+00
    0.00000E+00         0.00000E+00        -0.57387E+08
 
   -0.54361E+08         0.33571E+05         0.00000E+00
    0.33571E+05        -0.60005E+08         0.00000E+00
    0.00000E+00         0.00000E+00        -0.57431E+08
 
   -0.54640E+08         0.39381E+05         0.00000E+00
    0.39381E+05        -0.60015E+08         0.00000E+00
    0.00000E+00         0.00000E+00        -0.57511E+08
 
   -0.54938E+08         0.30433E+05         0.00000E+00
    0.30433E+05        -0.60032E+08         0.00000E+00
    0.00000E+00         0.00000E+00        -0.57619E+08
 
   -0.55245E+08         0.64503E+04         0.00000E+00
    0.64503E+04        -0.60057E+08         0.00000E+00
    0.00000E+00         0.00000E+00        -0.57748E+08
 
   -0.55553E+08        -0.32016E+05         0.00000E+00
   -0.32016E+05        -0.60091E+08         0.00000E+00
    0.00000E+00         0.00000E+00        -0.57891E+08
 
   -0.55854E+08        -0.83711E+05         0.00000E+00
   -0.83711E+05        -0.60137E+08         0.00000E+00
    0.00000E+00         0.00000E+00        -0.58045E+08
 
   -0.56143E+08        -0.14682E+06         0.00000E+00
   -0.14682E+06        -0.60194E+08         0.00000E+00
    0.00000E+00         0.00000E+00        -0.58203E+08
 
   -0.56414E+08        -0.21913E+06         0.00000E+00
   -0.21913E+06        -0.60263E+08         0.00000E+00
    0.00000E+00         0.00000E+00        -0.58362E+08
 
   -0.56664E+08        -0.29815E+06         0.00000E+00
   -0.29815E+06        -0.60344E+08         0.00000E+00
    0.00000E+00         0.00000E+00        -0.58521E+08
 
   -0.56892E+08        -0.38130E+06         0.00000E+00
   -0.38130E+06        -0.60437E+08         0.00000E+00
    0.00000E+00         0.00000E+00        -0.58676E+08
 
   -0.57095E+08        -0.46600E+06         0.00000E+00
   -0.46600E+06        -0.60542E+08         0.00000E+00
    0.00000E+00         0.00000E+00        -0.58826E+08
 
   -0.57273E+08        -0.54977E+06         0.00000E+00
   -0.54977E+06        -0.60658E+08         0.00000E+00
    0.00000E+00         0.00000E+00        -0.58971E+08
 
   -0.57427E+08        -0.63031E+06         0.00000E+00
   -0.63031E+06        -0.60783E+08         0.00000E+00
    0.00000E+00         0.00000E+00        -0.59108E+08
 
   -0.57557E+08        -0.70554E+06         0.00000E+00
   -0.70554E+06        -0.60917E+08         0.00000E+00
    0.00000E+00         0.00000E+00        -0.59239E+08
 
   -0.57665E+08        -0.77365E+06         0.00000E+00
   -0.77365E+06        -0.61059E+08         0.00000E+00
    0.00000E+00         0.00000E+00        -0.59364E+08
 
   -0.57753E+08        -0.83312E+06         0.00000E+00
   -0.83312E+06        -0.61207E+08         0.00000E+00
    0.00000E+00         0.00000E+00        -0.59481E+08
 
   -0.57822E+08        -0.88266E+06         0.00000E+00
   -0.88266E+06        -0.61360E+08         0.00000E+00
    0.00000E+00         0.00000E+00        -0.59591E+08
 
   -0.57875E+08        -0.92129E+06         0.00000E+00
   -0.92129E+06        -0.61516E+08         0.00000E+00
    0.00000E+00         0.00000E+00        -0.59696E+08
 
   -0.57915E+08        -0.94824E+06         0.00000E+00
   -0.94824E+06        -0.61675E+08         0.00000E+00
    0.00000E+00         0.00000E+00        -0.59795E+08
 
   -0.57942E+08        -0.96296E+06         0.00000E+00
   -0.96296E+06        -0.61834E+08         0.00000E+00
    0.00000E+00         0.00000E+00        -0.59888E+08
 
   -0.57961E+08        -0.96513E+06         0.00000E+00
   -0.96513E+06        -0.61994E+08         0.00000E+00
    0.00000E+00         0.00000E+00        -0.59977E+08
 
   -0.57972E+08        -0.95455E+06         0.00000E+00
   -0.95455E+06        -0.62152E+08         0.00000E+00
    0.00000E+00         0.00000E+00        -0.60062E+08
 
   -0.57978E+08        -0.93122E+06         0.00000E+00
   -0.93122E+06        -0.62309E+08         0.00000E+00
    0.00000E+00         0.00000E+00        -0.60143E+08
 
   -0.57982E+08        -0.89523E+06         0.00000E+00
   -0.89523E+06        -0.62462E+08         0.00000E+00
    0.00000E+00         0.00000E+00        -0.60222E+08
 
   -0.57986E+08        -0.84681E+06         0.00000E+00
   -0.84681E+06        -0.62612E+08         0.00000E+00
    0.00000E+00         0.00000E+00        -0.60298E+08
 
   -0.57992E+08        -0.78629E+06         0.00000E+00
   -0.78629E+06        -0.62756E+08         0.00000E+00
    0.00000E+00         0.00000E+00        -0.60373E+08
 
   -0.58001E+08        -0.71407E+06         0.00000E+00
   -0.71407E+06        -0.62895E+08         0.00000E+00
    0.00000E+00         0.00000E+00        -0.60447E+08
 
   -0.58017E+08        -0.63067E+06         0.00000E+00
   -0.63067E+06        -0.63028E+08         0.00000E+00
    0.00000E+00         0.00000E+00        -0.60521E+08
 
   -0.58040E+08        -0.53671E+06         0.00000E+00
   -0.53671E+06        -0.63154E+08         0.00000E+00
    0.00000E+00         0.00000E+00        -0.60596E+08
 
   -0.58074E+08        -0.43289E+06         0.00000E+00
   -0.43289E+06        -0.63271E+08         0.00000E+00
    0.00000E+00         0.00000E+00        -0.60672E+08
 
   -0.58120E+08        -0.32004E+06         0.00000E+00
   -0.32004E+06        -0.63380E+08         0.00000E+00
    0.00000E+00         0.00000E+00        -0.60749E+08
 
   -0.58180E+08        -0.19913E+06         0.00000E+00
   -0.19913E+06        -0.63479E+08         0.00000E+00
    0.00000E+00         0.00000E+00        -0.60828E+08
 
   -0.58256E+08        -0.71269E+05         0.00000E+00
   -0.71269E+05        -0.63568E+08         0.00000E+00
    0.00000E+00         0.00000E+00        -0.60910E+08
 
   -0.58350E+08         0.62250E+05         0.00000E+00
    0.62250E+05        -0.63646E+08         0.00000E+00
    0.00000E+00         0.00000E+00        -0.60995E+08
 
   -0.58463E+08         0.19994E+06         0.00000E+00
    0.19994E+06        -0.63711E+08         0.00000E+00
    0.00000E+00         0.00000E+00        -0.61084E+08
 
   -0.58598E+08         0.34008E+06         0.00000E+00
    0.34008E+06        -0.63763E+08         0.00000E+00
    0.00000E+00         0.00000E+00        -0.61177E+08
 
   -0.58756E+08         0.48070E+06         0.00000E+00
    0.48070E+06        -0.63800E+08         0.00000E+00
    0.00000E+00         0.00000E+00        -0.61273E+08
 
   -0.58938E+08         0.61959E+06         0.00000E+00
    0.61959E+06        -0.63823E+08         0.00000E+00
    0.00000E+00         0.00000E+00        -0.61374E+08
 
   -0.59145E+08         0.75423E+06         0.00000E+00
    0.75423E+06        -0.63830E+08         0.00000E+00
    0.00000E+00         0.00000E+00        -0.61478E+08
 
   -0.59377E+08         0.88185E+06         0.00000E+00
    0.88185E+06        -0.63820E+08         0.00000E+00
    0.00000E+00         0.00000E+00        -0.61586E+08
 
   -0.59634E+08         0.99941E+06         0.00000E+00
    0.99941E+06        -0.63794E+08         0.00000E+00
    0.00000E+00         0.00000E+00        -0.61696E+08
 
   -0.59916E+08         0.11037E+07         0.00000E+00
    0.11037E+07        -0.63750E+08         0.00000E+00
    0.00000E+00         0.00000E+00        -0.61808E+08
 
   -0.60219E+08         0.11912E+07         0.00000E+00
    0.11912E+07        -0.63689E+08         0.00000E+00
    0.00000E+00         0.00000E+00        -0.61919E+08
 
   -0.60542E+08         0.12585E+07         0.00000E+00
    0.12585E+07        -0.63611E+08         0.00000E+00
    0.00000E+00         0.00000E+00        -0.62027E+08
 
   -0.60879E+08         0.13023E+07         0.00000E+00
    0.13023E+07        -0.63516E+08         0.00000E+00
    0.00000E+00         0.00000E+00        -0.62129E+08
 
   -0.61226E+08         0.13192E+07         0.00000E+00
    0.13192E+07        -0.63407E+08         0.00000E+00
    0.00000E+00         0.00000E+00        -0.62222E+08
 
   -0.61575E+08         0.13065E+07         0.00000E+00
    0.13065E+07        -0.63284E+08         0.00000E+00
    0.00000E+00         0.00000E+00        -0.62300E+08
 
   -0.61917E+08         0.12618E+07         0.00000E+00
    0.12618E+07        -0.63149E+08         0.00000E+00
    0.00000E+00         0.00000E+00        -0.62359E+08
 
   -0.62243E+08         0.11838E+07         0.00000E+00
    0.11838E+07        -0.63006E+08         0.00000E+00
    0.00000E+00         0.00000E+00        -0.62391E+08
 
   -0.54088E+08         0.12186E+05         0.00000E+00
    0.12186E+05        -0.60001E+08         0.00000E+00
    0.00000E+00         0.00000E+00        -0.57394E+08
 
   -0.54351E+08         0.26659E+05         0.00000E+00
    0.26659E+05        -0.60005E+08         0.00000E+00
    0.00000E+00         0.00000E+00        -0.57439E+08
 
   -0.54645E+08         0.26091E+05         0.00000E+00
    0.26091E+05        -0.60016E+08         0.00000E+00
    0.00000E+00         0.00000E+00        -0.57524E+08
 
   -0.54959E+08         0.92020E+04         0.00000E+00
    0.92020E+04        -0.60033E+08         0.00000E+00
    0.00000E+00         0.00000E+00        -0.57637E+08
 
   -0.55282E+08        -0.24229E+05         0.00000E+00
   -0.24229E+05        -0.60060E+08         0.00000E+00
    0.00000E+00         0.00000E+00        -0.57773E+08
 
   -0.55604E+08        -0.73466E+05         0.00000E+00
   -0.73466E+05        -0.60098E+08         0.00000E+00
    0.00000E+00         0.00000E+00        -0.57924E+08
 
   -0.55918E+08        -0.13697E+06         0.00000E+00
   -0.13697E+06        -0.60147E+08         0.00000E+00
    0.00000E+00         0.00000E+00        -0.58084E+08
 
   -0.56217E+08        -0.21258E+06         0.00000E+00
   -0.21258E+06        -0.60209E+08         0.00000E+00
    0.00000E+00         0.00000E+00        -0.58250E+08
 
   -0.56497E+08        -0.29769E+06         0.00000E+00
   -0.29769E+06        -0.60285E+08         0.00000E+00
    0.00000E+00         0.00000E+00        -0.58416E+08
 
   -0.56752E+08        -0.38946E+06         0.00000E+00
   -0.38946E+06        -0.60374E+08         0.00000E+00
    0.00000E+00         0.00000E+00        -0.58580E+08
 
   -0.56982E+08        -0.48494E+06         0.00000E+00
   -0.48494E+06        -0.60476E+08         0.00000E+00
    0.00000E+00         0.00000E+00        -0.58741E+08
 
   -0.57185E+08        -0.58125E+06         0.00000E+00
   -0.58125E+06        -0.60590E+08         0.00000E+00
    0.00000E+00         0.00000E+00        -0.58895E+08
 
   -0.57360E+08        -0.67566E+06         0.00000E+00
   -0.67566E+06        -0.60716E+08         0.00000E+00
    0.00000E+00         0.00000E+00        -0.59043E+08
 
   -0.57509E+08        -0.76568E+06         0.00000E+00
   -0.76568E+06        -0.60852E+08         0.00000E+00
    0.00000E+00         0.00000E+00        -0.59184E+08
 
   -0.57632E+08        -0.84910E+06         0.00000E+00
   -0.84910E+06        -0.60997E+08         0.00000E+00
    0.00000E+00         0.00000E+00        -0.59317E+08
 
   -0.57732E+08        -0.92406E+06         0.00000E+00
   -0.92406E+06        -0.61149E+08         0.00000E+00
    0.00000E+00         0.00000E+00        -0.59442E+08
 
   -0.57810E+08        -0.98897E+06         0.00000E+00
   -0.98897E+06        -0.61308E+08         0.00000E+00
    0.00000E+00         0.00000E+00        -0.59560E+08
 
   -0.57868E+08        -0.10426E+07         0.00000E+00
   -0.10426E+07        -0.61471E+08         0.00000E+00
    0.00000E+00         0.00000E+00        -0.59670E+08
 
   -0.57909E+08        -0.10840E+07         0.00000E+00
   -0.10840E+07        -0.61637E+08         0.00000E+00
    0.00000E+00         0.00000E+00        -0.59773E+08
 
   -0.57936E+08        -0.11124E+07         0.00000E+00
   -0.11124E+07        -0.61806E+08         0.00000E+00
    0.00000E+00         0.00000E+00        -0.59871E+08
 
   -0.57951E+08        -0.11274E+07         0.00000E+00
   -0.11274E+07        -0.61975E+08         0.00000E+00
    0.00000E+00         0.00000E+00        -0.59962E+08
 
   -0.57956E+08        -0.11287E+07         0.00000E+00
   -0.11287E+07        -0.62143E+08         0.00000E+00
    0.00000E+00         0.00000E+00        -0.60049E+08
 
   -0.57954E+08        -0.11163E+07         0.00000E+00
   -0.11163E+07        -0.62310E+08         0.00000E+00
    0.00000E+00         0.00000E+00        -0.60131E+08
 
   -0.57947E+08        -0.10901E+07         0.00000E+00
   -0.10901E+07        -0.62474E+08         0.00000E+00
    0.00000E+00         0.00000E+00        -0.60210E+08
 
   -0.57938E+08        -0.10505E+07         0.00000E+00
   -0.10505E+07        -0.62635E+08         0.00000E+00
    0.00000E+00         0.00000E+00        -0.60286E+08
 
   -0.57929E+08        -0.99749E+06         0.00000E+00
   -0.99749E+06        -0.62791E+08         0.00000E+00
    0.00000E+00         0.00000E+00        -0.60359E+08
 
   -0.57922E+08        -0.93163E+06         0.00000E+00
   -0.93163E+06        -0.62942E+08         0.00000E+00
    0.00000E+00         0.00000E+00        -0.60431E+08
 
   -0.57920E+08        -0.85330E+06         0.00000E+00
   -0.85330E+06        -0.63088E+08         0.00000E+00
    0.00000E+00         0.00000E+00        -0.60503E+08
 
   -0.57924E+08        -0.76303E+06         0.00000E+00
   -0.76303E+06        -0.63227E+08         0.00000E+00
    0.00000E+00         0.00000E+00        -0.60574E+08
 
   -0.57937E+08        -0.66142E+06         0.00000E+00
   -0.66142E+06        -0.63358E+08         0.00000E+00
    0.00000E+00         0.00000E+00        -0.60646E+08
 
   -0.57961E+08        -0.54917E+06         0.00000E+00
   -0.54917E+06        -0.63481E+08         0.00000E+00
    0.00000E+00         0.00000E+00        -0.60720E+08
 
   -0.57998E+08        -0.42706E+06         0.00000E+00
   -0.42706E+06        -0.63596E+08         0.00000E+00
    0.00000E+00         0.00000E+00        -0.60795E+08
 
   -0.58050E+08        -0.29603E+06         0.00000E+00
   -0.29603E+06        -0.63700E+08         0.00000E+00
    0.00000E+00         0.00000E+00        -0.60873E+08
 
   -0.58119E+08        -0.15715E+06         0.00000E+00
   -0.15715E+06        -0.63794E+08         0.00000E+00
    0.00000E+00         0.00000E+00        -0.60955E+08
 
   -0.58208E+08        -0.11674E+05         0.00000E+00
   -0.11674E+05        -0.63877E+08         0.00000E+00
    0.00000E+00         0.00000E+00        -0.61040E+08
 
   -0.58317E+08         0.13894E+06         0.00000E+00
    0.13894E+06        -0.63947E+08         0.00000E+00
    0.00000E+00         0.00000E+00        -0.61129E+08
 
   -0.58450E+08         0.29299E+06         0.00000E+00
    0.29299E+06        -0.64003E+08         0.00000E+00
    0.00000E+00         0.00000E+00        -0.61223E+08
 
   -0.58608E+08         0.44851E+06         0.00000E+00
    0.44851E+06        -0.64044E+08         0.00000E+00
    0.00000E+00         0.00000E+00        -0.61321E+08
 
   -0.58793E+08         0.60323E+06         0.00000E+00
    0.60323E+06        -0.64070E+08         0.00000E+00
    0.00000E+00         0.00000E+00        -0.61424E+08
 
   -0.59005E+08         0.75455E+06         0.00000E+00
    0.75455E+06        -0.64079E+08         0.00000E+00
    0.00000E+00         0.00000E+00        -0.61532E+08
 
   -0.59245E+08         0.89957E+06         0.00000E+00
    0.89957E+06        -0.64071E+08         0.00000E+00
    0.00000E+00         0.00000E+00        -0.61644E+08
 
   -0.59514E+08         0.10351E+07         0.00000E+00
    0.10351E+07        -0.64044E+08         0.00000E+00
    0.00000E+00         0.00000E+00        -0.61759E+08
 
   -0.59810E+08         0.11575E+07         0.00000E+00
    0.11575E+07        -0.63999E+08         0.00000E+00
    0.00000E+00         0.00000E+00        -0.61876E+08
 
   -0.60132E+08         0.12632E+07         0.00000E+00
    0.12632E+07        -0.63934E+08         0.00000E+00
    0.00000E+00         0.00000E+00        -0.61994E+08
 
   -0.60477E+08         0.13482E+07         0.00000E+00
    0.13482E+07        -0.63851E+08         0.00000E+00
    0.00000E+00         0.00000E+00        -0.62109E+08
 
   -0.60841E+08         0.14088E+07         0.00000E+00
    0.14088E+07        -0.63749E+08         0.00000E+00
    0.00000E+00         0.00000E+00        -0.62218E+08
 
   -0.61216E+08         0.14412E+07         0.00000E+00
    0.14412E+07        -0.63630E+08         0.00000E+00
    0.00000E+00         0.00000E+00        -0.62317E+08
 
   -0.61597E+08         0.14420E+07         0.00000E+00
    0.14420E+07        -0.63495E+08         0.00000E+00
    0.00000E+00         0.00000E+00        -0.62401E+08
 
   -0.61973E+08         0.14086E+07         0.00000E+00
    0.14086E+07        -0.63347E+08         0.00000E+00
    0.00000E+00         0.00000E+00        -0.62465E+08
 
   -0.62334E+08         0.13390E+07         0.00000E+00
    0.13390E+07        -0.63188E+08         0.00000E+00
    0.00000E+00         0.00000E+00        -0.62500E+08
 
   -0.54069E+08         0.10189E+05         0.00000E+00
    0.10189E+05        -0.60001E+08         0.00000E+00
    0.00000E+00         0.00000E+00        -0.57404E+08
 
   -0.54347E+08         0.19530E+05         0.00000E+00
    0.19530E+05        -0.60005E+08         0.00000E+00
    0.00000E+00         0.00000E+00        -0.57452E+08
 
   -0.54658E+08         0.12083E+05         0.00000E+00
    0.12083E+05        -0.60016E+08         0.00000E+00
    0.00000E+00         0.00000E+00        -0.57541E+08
 
   -0.54989E+08        -0.13532E+05         0.00000E+00
   -0.13532E+05        -0.60035E+08         0.00000E+00
    0.00000E+00         0.00000E+00        -0.57661E+08
 
   -0.55329E+08        -0.57439E+05         0.00000E+00
   -0.57439E+05        -0.60064E+08         0.00000E+00
    0.00000E+00         0.00000E+00        -0.57805E+08
 
   -0.55667E+08        -0.11865E+06         0.00000E+00
   -0.11865E+06        -0.60105E+08         0.00000E+00
    0.00000E+00         0.00000E+00        -0.57963E+08
 
   -0.55995E+08        -0.19527E+06         0.00000E+00
   -0.19527E+06        -0.60159E+08         0.00000E+00
    0.00000E+00         0.00000E+00        -0.58132E+08
 
   -0.56305E+08        -0.28468E+06         0.00000E+00
   -0.28468E+06        -0.60228E+08         0.00000E+00
    0.00000E+00         0.00000E+00        -0.58305E+08
 
   -0.56592E+08        -0.38385E+06         0.00000E+00
   -0.38385E+06        -0.60311E+08         0.00000E+00
    0.00000E+00         0.00000E+00        -0.58478E+08
 
   -0.56853E+08        -0.48946E+06         0.00000E+00
   -0.48946E+06        -0.60408E+08         0.00000E+00
    0.00000E+00         0.00000E+00        -0.58649E+08
 
   -0.57085E+08        -0.59820E+06         0.00000E+00
   -0.59820E+06        -0.60520E+08         0.00000E+00
    0.00000E+00         0.00000E+00        -0.58815E+08
 
   -0.57286E+08        -0.70684E+06         0.00000E+00
   -0.70684E+06        -0.60645E+08         0.00000E+00
    0.00000E+00         0.00000E+00        -0.58974E+08
 
   -0.57458E+08        -0.81239E+06         0.00000E+00
   -0.81239E+06        -0.60782E+08         0.00000E+00
    0.00000E+00         0.00000E+00        -0.59125E+08
 
   -0.57601E+08        -0.91217E+06         0.00000E+00
   -0.91217E+06        -0.60929E+08         0.00000E+00
    0.00000E+00         0.00000E+00        -0.59268E+08
 
   -0.57716E+08        -0.10039E+07         0.00000E+00
   -0.10039E+07        -0.61086E+08         0.00000E+00
    0.00000E+00         0.00000E+00        -0.59403E+08
 
   -0.57805E+08        -0.10855E+07         0.00000E+00
   -0.10855E+07        -0.61250E+08         0.00000E+00
    0.00000E+00         0.00000E+00        -0.59529E+08
 
   -0.57871E+08        -0.11556E+07         0.00000E+00
   -0.11556E+07        -0.61419E+08         0.00000E+00
    0.00000E+00         0.00000E+00        -0.59646E+08
 
   -0.57917E+08        -0.12130E+07         0.00000E+00
   -0.12130E+07        -0.61593E+08         0.00000E+00
    0.00000E+00         0.00000E+00        -0.59755E+08
 
   -0.57945E+08        -0.12566E+07         0.00000E+00
   -0.12566E+07        -0.61770E+08         0.00000E+00
    0.00000E+00         0.00000E+00        -0.59857E+08
 
   -0.57958E+08        -0.12860E+07         0.00000E+00
   -0.12860E+07        -0.61948E+08         0.00000E+00
    0.00000E+00         0.00000E+00        -0.59952E+08
 
   -0.57958E+08        -0.13007E+07         0.00000E+00
   -0.13007E+07        -0.62126E+08         0.00000E+00
    0.00000E+00         0.00000E+00        -0.60041E+08
 
   -0.57949E+08        -0.13006E+07         0.00000E+00
   -0.13006E+07        -0.62302E+08         0.00000E+00
    0.00000E+00         0.00000E+00        -0.60125E+08
 
   -0.57933E+08        -0.12858E+07         0.00000E+00
   -0.12858E+07        -0.62477E+08         0.00000E+00
    0.00000E+00         0.00000E+00        -0.60204E+08
 
   -0.57912E+08        -0.12563E+07         0.00000E+00
   -0.12563E+07        -0.62648E+08         0.00000E+00
    0.00000E+00         0.00000E+00        -0.60279E+08
 
   -0.57890E+08        -0.12125E+07         0.00000E+00
   -0.12125E+07        -0.62816E+08         0.00000E+00
    0.00000E+00         0.00000E+00        -0.60352E+08
 
   -0.57867E+08        -0.11546E+07         0.00000E+00
   -0.11546E+07        -0.62978E+08         0.00000E+00
    0.00000E+00         0.00000E+00        -0.60422E+08
 
   -0.57847E+08        -0.10831E+07         0.00000E+00
   -0.10831E+07        -0.63136E+08         0.00000E+00
    0.00000E+00         0.00000E+00        -0.60490E+08
 
   -0.57832E+08        -0.99839E+06         0.00000E+00
   -0.99839E+06        -0.63287E+08         0.00000E+00
    0.00000E+00         0.00000E+00        -0.60558E+08
 
   -0.57825E+08        -0.90104E+06         0.00000E+00
   -0.90104E+06        -0.63431E+08         0.00000E+00
    0.00000E+00         0.00000E+00        -0.60626E+08
 
   -0.57826E+08        -0.79162E+06         0.00000E+00
   -0.79162E+06        -0.63567E+08         0.00000E+00
    0.00000E+00         0.00000E+00        -0.60695E+08
 
   -0.57839E+08        -0.67081E+06         0.00000E+00
   -0.67081E+06        -0.63696E+08         0.00000E+00
    0.00000E+00         0.00000E+00        -0.60766E+08
 
   -0.57866E+08        -0.53934E+06         0.00000E+00
   -0.53934E+06        -0.63815E+08         0.00000E+00
    0.00000E+00         0.00000E+00        -0.60839E+08
 
   -0.57909E+08        -0.39808E+06         0.00000E+00
   -0.39808E+06        -0.63925E+08         0.00000E+00
    0.00000E+00         0.00000E+00        -0.60915E+08
 
   -0.57971E+08        -0.24805E+06         0.00000E+00
   -0.24805E+06        -0.64024E+08         0.00000E+00
    0.00000E+00         0.00000E+00        -0.60995E+08
 
   -0.58053E+08        -0.90425E+05         0.00000E+00
   -0.90425E+05        -0.64111E+08         0.00000E+00
    0.00000E+00         0.00000E+00        -0.61079E+08
 
   -0.58158E+08         0.73394E+05         0.00000E+00
    0.73394E+05        -0.64186E+08         0.00000E+00
    0.00000E+00         0.00000E+00        -0.61168E+08
 
   -0.58288E+08         0.24175E+06         0.00000E+00
    0.24175E+06        -0.64246E+08         0.00000E+00
    0.00000E+00         0.00000E+00        -0.61262E+08
 
   -0.58445E+08         0.41271E+06         0.00000E+00
    0.41271E+06        -0.64292E+08         0.00000E+00
    0.00000E+00         0.00000E+00        -0.61362E+08
 
   -0.58631E+08         0.58398E+06         0.00000E+00
    0.58398E+06        -0.64321E+08         0.00000E+00
    0.00000E+00         0.00000E+00        -0.61468E+08
 
   -0.58847E+08         0.75292E+06         0.00000E+00
    0.75292E+06        -0.64333E+08         0.00000E+00
    0.00000E+00         0.00000E+00        -0.61579E+08
 
   -0.59095E+08         0.91651E+06         0.00000E+00
    0.91651E+06        -0.64326E+08         0.00000E+00
    0.00000E+00         0.00000E+00        -0.61694E+08
 
   -0.59375E+08         0.10713E+07         0.00000E+00
    0.10713E+07        -0.64300E+08         0.00000E+00
    0.00000E+00         0.00000E+00        -0.61815E+08
 
   -0.59686E+08         0.12137E+07         0.00000E+00
    0.12137E+07        -0.64253E+08         0.00000E+00
    0.00000E+00         0.00000E+00        -0.61938E+08
 
   -0.60027E+08         0.13394E+07         0.00000E+00
    0.13394E+07        -0.64185E+08         0.00000E+00
    0.00000E+00         0.00000E+00        -0.62061E+08
 
   -0.60394E+08         0.14442E+07         0.00000E+00
    0.14442E+07        -0.64096E+08         0.00000E+00
    0.00000E+00         0.00000E+00        -0.62183E+08
 
   -0.60784E+08         0.15239E+07         0.00000E+00
    0.15239E+07        -0.63987E+08         0.00000E+00
    0.00000E+00         0.00000E+00        -0.62300E+08
 
   -0.61191E+08         0.15741E+07         0.00000E+00
    0.15741E+07        -0.63858E+08         0.00000E+00
    0.00000E+00         0.00000E+00        -0.62406E+08
 
   -0.61606E+08         0.15909E+07         0.00000E+00
    0.15909E+07        -0.63711E+08         0.00000E+00
    0.00000E+00         0.00000E+00        -0.62496E+08
 
   -0.62019E+08         0.15710E+07         0.00000E+00
    0.15710E+07        -0.63547E+08         0.00000E+00
    0.00000E+00         0.00000E+00        -0.62564E+08
 
   -0.62418E+08         0.15119E+07         0.00000E+00
    0.15119E+07        -0.63371E+08         0.00000E+00
    0.00000E+00         0.00000E+00        -0.62602E+08
 
   -0.54055E+08         0.81956E+04         0.00000E+00
    0.81956E+04        -0.60001E+08         0.00000E+00
    0.00000E+00         0.00000E+00        -0.57419E+08
 
   -0.54349E+08         0.12161E+05         0.00000E+00
    0.12161E+05        -0.60006E+08         0.00000E+00
    0.00000E+00         0.00000E+00        -0.57470E+08
 
   -0.54679E+08        -0.27659E+04         0.00000E+00
   -0.27659E+04        -0.60017E+08         0.00000E+00
    0.00000E+00         0.00000E+00        -0.57565E+08
 
   -0.55029E+08        -0.38046E+05         0.00000E+00
   -0.38046E+05        -0.60037E+08         0.00000E+00
    0.00000E+00         0.00000E+00        -0.57692E+08
 
   -0.55388E+08        -0.93650E+05         0.00000E+00
   -0.93650E+05        -0.60069E+08         0.00000E+00
    0.00000E+00         0.00000E+00        -0.57843E+08
 
   -0.55743E+08        -0.16825E+06         0.00000E+00
   -0.16825E+06        -0.60114E+08         0.00000E+00
    0.00000E+00         0.00000E+00        -0.58011E+08
 
   -0.56086E+08        -0.25946E+06         0.00000E+00
   -0.25946E+06        -0.60174E+08         0.00000E+00
    0.00000E+00         0.00000E+00        -0.58188E+08
 
   -0.56407E+08        -0.36415E+06         0.00000E+00
   -0.36415E+06        -0.60249E+08         0.00000E+00
    0.00000E+00         0.00000E+00        -0.58369E+08
 
   -0.56703E+08        -0.47871E+06         0.00000E+00
   -0.47871E+06        -0.60341E+08         0.00000E+00
    0.00000E+00         0.00000E+00        -0.58550E+08
 
   -0.56968E+08        -0.59935E+06         0.00000E+00
   -0.59935E+06        -0.60448E+08         0.00000E+00
    0.00000E+00         0.00000E+00        -0.58727E+08
 
   -0.57201E+08        -0.72228E+06         0.00000E+00
   -0.72228E+06        -0.60571E+08         0.00000E+00
    0.00000E+00         0.00000E+00        -0.58899E+08
 
   -0.57400E+08        -0.84391E+06         0.00000E+00
   -0.84391E+06        -0.60708E+08         0.00000E+00
    0.00000E+00         0.00000E+00        -0.59062E+08
 
   -0.57566E+08        -0.96098E+06         0.00000E+00
   -0.96098E+06        -0.60857E+08         0.00000E+00
    0.00000E+00         0.00000E+00        -0.59217E+08
 
   -0.57701E+08        -0.10707E+07         0.00000E+00
   -0.10707E+07        -0.61017E+08         0.00000E+00
    0.00000E+00         0.00000E+00        -0.59362E+08
 
   -0.57806E+08        -0.11705E+07         0.00000E+00
   -0.11705E+07        -0.61186E+08         0.00000E+00
    0.00000E+00         0.00000E+00        -0.59498E+08
 
   -0.57884E+08        -0.12586E+07         0.00000E+00
   -0.12586E+07        -0.61362E+08         0.00000E+00
    0.00000E+00         0.00000E+00        -0.59624E+08
 
   -0.57937E+08        -0.13334E+07         0.00000E+00
   -0.13334E+07        -0.61543E+08         0.00000E+00
    0.00000E+00         0.00000E+00        -0.59740E+08
 
   -0.57969E+08        -0.13939E+07         0.00000E+00
   -0.13939E+07        -0.61728E+08         0.00000E+00
    0.00000E+00         0.00000E+00        -0.59848E+08
 
   -0.57982E+08        -0.14391E+07         0.00000E+00
   -0.14391E+07        -0.61915E+08         0.00000E+00
    0.00000E+00         0.00000E+00        -0.59948E+08
 
   -0.57980E+08        -0.14687E+07         0.00000E+00
   -0.14687E+07        -0.62102E+08         0.00000E+00
    0.00000E+00         0.00000E+00        -0.60040E+08
 
   -0.57965E+08        -0.14824E+07         0.00000E+00
   -0.14824E+07        -0.62288E+08         0.00000E+00
    0.00000E+00         0.00000E+00        -0.60126E+08
 
   -0.57941E+08        -0.14803E+07         0.00000E+00
   -0.14803E+07        -0.62473E+08         0.00000E+00
    0.00000E+00         0.00000E+00        -0.60206E+08
 
   -0.57909E+08        -0.14624E+07         0.00000E+00
   -0.14624E+07        -0.62655E+08         0.00000E+00
    0.00000E+00         0.00000E+00        -0.60281E+08
 
   -0.57874E+08        -0.14291E+07         0.00000E+00
   -0.14291E+07        -0.62833E+08         0.00000E+00
    0.00000E+00         0.00000E+00        -0.60352E+08
 
   -0.57836E+08        -0.13806E+07         0.00000E+00
   -0.13806E+07        -0.63006E+08         0.00000E+00
    0.00000E+00         0.00000E+00        -0.60419E+08
 
   -0.57799E+08        -0.13174E+07         0.00000E+00
   -0.13174E+07        -0.63174E+08         0.00000E+00
    0.00000E+00         0.00000E+00        -0.60485E+08
 
   -0.57766E+08        -0.12398E+07         0.00000E+00
   -0.12398E+07        -0.63336E+08         0.00000E+00
    0.00000E+00         0.00000E+00        -0.60549E+08
 
   -0.57738E+08        -0.11485E+07         0.00000E+00
   -0.11485E+07        -0.63492E+08         0.00000E+00
    0.00000E+00         0.00000E+00        -0.60613E+08
 
   -0.57717E+08        -0.10439E+07         0.00000E+00
   -0.10439E+07        -0.63640E+08         0.00000E+00
    0.00000E+00         0.00000E+00        -0.60677E+08
 
   -0.57707E+08        -0.92662E+06         0.00000E+00
   -0.92662E+06        -0.63781E+08         0.00000E+00
    0.00000E+00         0.00000E+00        -0.60742E+08
 
   -0.57709E+08        -0.79720E+06         0.00000E+00
   -0.79720E+06        -0.63914E+08         0.00000E+00
    0.00000E+00         0.00000E+00        -0.60809E+08
 
   -0.57725E+08        -0.65635E+06         0.00000E+00
   -0.65635E+06        -0.64038E+08         0.00000E+00
    0.00000E+00         0.00000E+00        -0.60879E+08
 
   -0.57758E+08        -0.50488E+06         0.00000E+00
   -0.50488E+06        -0.64152E+08         0.00000E+00
    0.00000E+00         0.00000E+00        -0.60953E+08
 
   -0.57811E+08        -0.34368E+06         0.00000E+00
   -0.34368E+06        -0.64256E+08         0.00000E+00
    0.00000E+00         0.00000E+00        -0.61030E+08
 
   -0.57886E+08        -0.17384E+06         0.00000E+00
   -0.17384E+06        -0.64347E+08         0.00000E+00
    0.00000E+00         0.00000E+00        -0.61113E+08
 
   -0.57985E+08         0.33235E+04         0.00000E+00
    0.33235E+04        -0.64426E+08         0.00000E+00
    0.00000E+00         0.00000E+00        -0.61201E+08
 
   -0.58110E+08         0.18626E+06         0.00000E+00
    0.18626E+06        -0.64491E+08         0.00000E+00
    0.00000E+00         0.00000E+00        -0.61295E+08
 
   -0.58265E+08         0.37308E+06         0.00000E+00
    0.37308E+06        -0.64541E+08         0.00000E+00
    0.00000E+00         0.00000E+00        -0.61396E+08
 
   -0.58451E+08         0.56153E+06         0.00000E+00
    0.56153E+06        -0.64574E+08         0.00000E+00
    0.00000E+00         0.00000E+00        -0.61503E+08
 
   -0.58671E+08         0.74896E+06         0.00000E+00
    0.74896E+06        -0.64589E+08         0.00000E+00
    0.00000E+00         0.00000E+00        -0.61617E+08
 
   -0.58925E+08         0.93227E+06         0.00000E+00
    0.93227E+06        -0.64584E+08         0.00000E+00
    0.00000E+00         0.00000E+00        -0.61736E+08
 
   -0.59215E+08         0.11079E+07         0.00000E+00
    0.11079E+07        -0.64558E+08         0.00000E+00
    0.00000E+00         0.00000E+00        -0.61861E+08
 
   -0.59540E+08         0.12718E+07         0.00000E+00
    0.12718E+07        -0.64510E+08         0.00000E+00
    0.00000E+00         0.00000E+00        -0.61990E+08
 
   -0.59900E+08         0.14196E+07         0.00000E+00
    0.14196E+07        -0.64440E+08         0.00000E+00
    0.00000E+00         0.00000E+00        -0.62120E+08
 
   -0.60290E+08         0.15466E+07         0.00000E+00
    0.15466E+07        -0.64346E+08         0.00000E+00
    0.00000E+00         0.00000E+00        -0.62249E+08
 
   -0.60708E+08         0.16478E+07         0.00000E+00
    0.16478E+07        -0.64229E+08         0.00000E+00
    0.00000E+00         0.00000E+00        -0.62372E+08
 
   -0.61147E+08         0.17185E+07         0.00000E+00
    0.17185E+07        -0.64090E+08         0.00000E+00
    0.00000E+00         0.00000E+00        -0.62485E+08
 
   -0.61598E+08         0.17540E+07         0.00000E+00
    0.17540E+07        -0.63929E+08         0.00000E+00
    0.00000E+00         0.00000E+00        -0.62582E+08
 
   -0.62051E+08         0.17503E+07         0.00000E+00
    0.17503E+07        -0.63750E+08         0.00000E+00
    0.00000E+00         0.00000E+00        -0.62656E+08
 
   -0.62492E+08         0.17042E+07         0.00000E+00
    0.17042E+07        -0.63554E+08         0.00000E+00
    0.00000E+00         0.00000E+00        -0.62697E+08
 
   -0.54044E+08         0.62101E+04         0.00000E+00
    0.62101E+04        -0.60001E+08         0.00000E+00
    0.00000E+00         0.00000E+00        -0.57439E+08
 
   -0.54357E+08         0.45036E+04         0.00000E+00
    0.45036E+04        -0.60006E+08         0.00000E+00
    0.00000E+00         0.00000E+00        -0.57494E+08
 
   -0.54708E+08        -0.18642E+05         0.00000E+00
   -0.18642E+05        -0.60018E+08         0.00000E+00
    0.00000E+00         0.00000E+00        -0.57595E+08
 
   -0.55081E+08        -0.64734E+05         0.00000E+00
   -0.64734E+05        -0.60040E+08         0.00000E+00
    0.00000E+00         0.00000E+00        -0.57730E+08
 
   -0.55460E+08        -0.13350E+06         0.00000E+00
   -0.13350E+06        -0.60075E+08         0.00000E+00
    0.00000E+00         0.00000E+00        -0.57890E+08
 
   -0.55835E+08        -0.22313E+06         0.00000E+00
   -0.22313E+06        -0.60125E+08         0.00000E+00
    0.00000E+00         0.00000E+00        -0.58067E+08
 
   -0.56193E+08        -0.33065E+06         0.00000E+00
   -0.33065E+06        -0.60191E+08         0.00000E+00
    0.00000E+00         0.00000E+00        -0.58254E+08
 
   -0.56526E+08        -0.45225E+06         0.00000E+00
   -0.45225E+06        -0.60275E+08         0.00000E+00
    0.00000E+00         0.00000E+00        -0.58444E+08
 
   -0.56829E+08        -0.58368E+06         0.00000E+00
   -0.58368E+06        -0.60377E+08         0.00000E+00
    0.00000E+00         0.00000E+00        -0.58633E+08
 
   -0.57098E+08        -0.72054E+06         0.00000E+00
   -0.72054E+06        -0.60496E+08         0.00000E+00
    0.00000E+00         0.00000E+00        -0.58817E+08
 
   -0.57331E+08        -0.85855E+06         0.00000E+00
   -0.85855E+06        -0.60631E+08         0.00000E+00
    0.00000E+00         0.00000E+00        -0.58994E+08
 
   -0.57526E+08        -0.99373E+06         0.00000E+00
   -0.99373E+06        -0.60781E+08         0.00000E+00
    0.00000E+00         0.00000E+00        -0.59162E+08
 
   -0.57686E+08        -0.11226E+07         0.00000E+00
   -0.11226E+07        -0.60944E+08         0.00000E+00
    0.00000E+00         0.00000E+00        -0.59320E+08
 
   -0.57811E+08        -0.12421E+07         0.00000E+00
   -0.12421E+07        -0.61117E+08         0.00000E+00
    0.00000E+00         0.00000E+00        -0.59467E+08
 
   -0.57904E+08        -0.13498E+07         0.00000E+00
   -0.13498E+07        -0.61299E+08         0.00000E+00
    0.00000E+00         0.00000E+00        -0.59603E+08
 
   -0.57968E+08        -0.14438E+07         0.00000E+00
   -0.14438E+07        -0.61488E+08         0.00000E+00
    0.00000E+00         0.00000E+00        -0.59728E+08
 
   -0.58007E+08        -0.15226E+07         0.00000E+00
   -0.15226E+07        -0.61681E+08         0.00000E+00
    0.00000E+00         0.00000E+00        -0.59843E+08
 
   -0.58023E+08        -0.15853E+07         0.00000E+00
   -0.15853E+07        -0.61877E+08         0.00000E+00
    0.00000E+00         0.00000E+00        -0.59949E+08
 
   -0.58020E+08        -0.16313E+07         0.00000E+00
   -0.16313E+07        -0.62074E+08         0.00000E+00
    0.00000E+00         0.00000E+00        -0.60045E+08
 
   -0.58001E+08        -0.16602E+07         0.00000E+00
   -0.16602E+07        -0.62270E+08         0.00000E+00
    0.00000E+00         0.00000E+00        -0.60134E+08
 
   -0.57970E+08        -0.16721E+07         0.00000E+00
   -0.16721E+07        -0.62464E+08         0.00000E+00
    0.00000E+00         0.00000E+00        -0.60215E+08
 
   -0.57929E+08        -0.16670E+07         0.00000E+00
   -0.16670E+07        -0.62656E+08         0.00000E+00
    0.00000E+00         0.00000E+00        -0.60291E+08
 
   -0.57881E+08        -0.16453E+07         0.00000E+00
   -0.16453E+07        -0.62844E+08         0.00000E+00
    0.00000E+00         0.00000E+00        -0.60361E+08
 
   -0.57830E+08        -0.16074E+07         0.00000E+00
   -0.16074E+07        -0.63027E+08         0.00000E+00
    0.00000E+00         0.00000E+00        -0.60426E+08
 
   -0.57777E+08        -0.15537E+07         0.00000E+00
   -0.15537E+07        -0.63205E+08         0.00000E+00
    0.00000E+00         0.00000E+00        -0.60489E+08
 
   -0.57726E+08        -0.14847E+07         0.00000E+00
   -0.14847E+07        -0.63377E+08         0.00000E+00
    0.00000E+00         0.00000E+00        -0.60549E+08
 
   -0.57678E+08        -0.14009E+07         0.00000E+00
   -0.14009E+07        -0.63543E+08         0.00000E+00
    0.00000E+00         0.00000E+00        -0.60608E+08
 
   -0.57636E+08        -0.13027E+07         0.00000E+00
   -0.13027E+07        -0.63703E+08         0.00000E+00
    0.00000E+00         0.00000E+00        -0.60667E+08
 
   -0.57602E+08        -0.11907E+07         0.00000E+00
   -0.11907E+07        -0.63855E+08         0.00000E+00
    0.00000E+00         0.00000E+00        -0.60726E+08
 
   -0.57579E+08        -0.10655E+07         0.00000E+00
   -0.10655E+07        -0.63999E+08         0.00000E+00
    0.00000E+00         0.00000E+00        -0.60787E+08
 
   -0.57569E+08        -0.92753E+06         0.00000E+00
   -0.92753E+06        -0.64135E+08         0.00000E+00
    0.00000E+00         0.00000E+00        -0.60849E+08
 
   -0.57574E+08        -0.77742E+06         0.00000E+00
   -0.77742E+06        -0.64263E+08         0.00000E+00
    0.00000E+00         0.00000E+00        -0.60915E+08
 
   -0.57597E+08        -0.61585E+06         0.00000E+00
   -0.61585E+06        -0.64381E+08         0.00000E+00
    0.00000E+00         0.00000E+00        -0.60985E+08
 
   -0.57640E+08        -0.44361E+06         0.00000E+00
   -0.44361E+06        -0.64488E+08         0.00000E+00
    0.00000E+00         0.00000E+00        -0.61060E+08
 
   -0.57706E+08        -0.26166E+06         0.00000E+00
   -0.26166E+06        -0.64584E+08         0.00000E+00
    0.00000E+00         0.00000E+00        -0.61140E+08
 
   -0.57797E+08        -0.71159E+05         0.00000E+00
   -0.71159E+05        -0.64667E+08         0.00000E+00
    0.00000E+00         0.00000E+00        -0.61227E+08
 
   -0.57917E+08         0.12646E+06         0.00000E+00
    0.12646E+06        -0.64736E+08         0.00000E+00
    0.00000E+00         0.00000E+00        -0.61321E+08
 
   -0.58069E+08         0.32942E+06         0.00000E+00
    0.32942E+06        -0.64790E+08         0.00000E+00
    0.00000E+00         0.00000E+00        -0.61421E+08
 
   -0.58254E+08         0.53556E+06         0.00000E+00
    0.53556E+06        -0.64827E+08         0.00000E+00
    0.00000E+00         0.00000E+00        -0.61529E+08
 
   -0.58475E+08         0.74225E+06         0.00000E+00
    0.74225E+06        -0.64845E+08         0.00000E+00
    0.00000E+00         0.00000E+00        -0.61645E+08
 
   -0.58734E+08         0.94636E+06         0.00000E+00
    0.94636E+06        -0.64843E+08         0.00000E+00
    0.00000E+00         0.00000E+00        -0.61768E+08
 
   -0.59033E+08         0.11442E+07         0.00000E+00
    0.11442E+07        -0.64818E+08         0.00000E+00
    0.00000E+00         0.00000E+00        -0.61897E+08
 
   -0.59372E+08         0.13315E+07         0.00000E+00
    0.13315E+07        -0.64770E+08         0.00000E+00
    0.00000E+00         0.00000E+00        -0.62031E+08
 
   -0.59749E+08         0.15036E+07         0.00000E+00
    0.15036E+07        -0.64697E+08         0.00000E+00
    0.00000E+00         0.00000E+00        -0.62167E+08
 
   -0.60163E+08         0.16552E+07         0.00000E+00
    0.16552E+07        -0.64598E+08         0.00000E+00
    0.00000E+00         0.00000E+00        -0.62303E+08
 
   -0.60610E+08         0.17808E+07         0.00000E+00
    0.17808E+07        -0.64474E+08         0.00000E+00
    0.00000E+00         0.00000E+00        -0.62434E+08
 
   -0.61082E+08         0.18750E+07         0.00000E+00
    0.18750E+07        -0.64324E+08         0.00000E+00
    0.00000E+00         0.00000E+00        -0.62554E+08
 
   -0.61571E+08         0.19323E+07         0.00000E+00
    0.19323E+07        -0.64149E+08         0.00000E+00
    0.00000E+00         0.00000E+00        -0.62658E+08
 
   -0.62066E+08         0.19478E+07         0.00000E+00
    0.19478E+07        -0.63952E+08         0.00000E+00
    0.00000E+00         0.00000E+00        -0.62736E+08
 
   -0.62553E+08         0.19177E+07         0.00000E+00
    0.19177E+07        -0.63736E+08         0.00000E+00
    0.00000E+00         0.00000E+00        -0.62780E+08
 
   -0.54039E+08         0.42330E+04         0.00000E+00
    0.42330E+04        -0.60001E+08         0.00000E+00
    0.00000E+00         0.00000E+00        -0.57465E+08
 
   -0.54373E+08        -0.35300E+04         0.00000E+00
   -0.35300E+04        -0.60006E+08         0.00000E+00
    0.00000E+00         0.00000E+00        -0.57524E+08
 
   -0.54748E+08        -0.35825E+05         0.00000E+00
   -0.35825E+05        -0.60019E+08         0.00000E+00
    0.00000E+00         0.00000E+00        -0.57632E+08
 
   -0.55145E+08        -0.94143E+05         0.00000E+00
   -0.94143E+05        -0.60043E+08         0.00000E+00
    0.00000E+00         0.00000E+00        -0.57776E+08
 
   -0.55548E+08        -0.17783E+06         0.00000E+00
   -0.17783E+06        -0.60082E+08         0.00000E+00
    0.00000E+00         0.00000E+00        -0.57946E+08
 
   -0.55942E+08        -0.28445E+06         0.00000E+00
   -0.28445E+06        -0.60138E+08         0.00000E+00
    0.00000E+00         0.00000E+00        -0.58134E+08
 
   -0.56317E+08        -0.41025E+06         0.00000E+00
   -0.41025E+06        -0.60213E+08         0.00000E+00
    0.00000E+00         0.00000E+00        -0.58331E+08
 
   -0.56663E+08        -0.55059E+06         0.00000E+00
   -0.55059E+06        -0.60307E+08         0.00000E+00
    0.00000E+00         0.00000E+00        -0.58531E+08
 
   -0.56973E+08        -0.70044E+06         0.00000E+00
   -0.70044E+06        -0.60421E+08         0.00000E+00
    0.00000E+00         0.00000E+00        -0.58728E+08
 
   -0.57244E+08        -0.85472E+06         0.00000E+00
   -0.85472E+06        -0.60553E+08         0.00000E+00
    0.00000E+00         0.00000E+00        -0.58920E+08
 
   -0.57475E+08        -0.10086E+07         0.00000E+00
   -0.10086E+07        -0.60703E+08         0.00000E+00
    0.00000E+00         0.00000E+00        -0.59103E+08
 
   -0.57665E+08        -0.11578E+07         0.00000E+00
   -0.11578E+07        -0.60868E+08         0.00000E+00
    0.00000E+00         0.00000E+00        -0.59275E+08
 
   -0.57815E+08        -0.12984E+07         0.00000E+00
   -0.12984E+07        -0.61045E+08         0.00000E+00
    0.00000E+00         0.00000E+00        -0.59435E+08
 
   -0.57929E+08        -0.14274E+07         0.00000E+00
   -0.14274E+07        -0.61233E+08         0.00000E+00
    0.00000E+00         0.00000E+00        -0.59583E+08
 
   -0.58008E+08        -0.15423E+07         0.00000E+00
   -0.15423E+07        -0.61429E+08         0.00000E+00
    0.00000E+00         0.00000E+00        -0.59719E+08
 
   -0.58057E+08        -0.16413E+07         0.00000E+00
   -0.16413E+07        -0.61631E+08         0.00000E+00
    0.00000E+00         0.00000E+00        -0.59843E+08
 
   -0.58079E+08        -0.17232E+07         0.00000E+00
   -0.17232E+07        -0.61836E+08         0.00000E+00
    0.00000E+00         0.00000E+00        -0.59956E+08
 
   -0.58077E+08        -0.17871E+07         0.00000E+00
   -0.17871E+07        -0.62043E+08         0.00000E+00
    0.00000E+00         0.00000E+00        -0.60058E+08
 
   -0.58057E+08        -0.18326E+07         0.00000E+00
   -0.18326E+07        -0.62249E+08         0.00000E+00
    0.00000E+00         0.00000E+00        -0.60150E+08
 
   -0.58020E+08        -0.18598E+07         0.00000E+00
   -0.18598E+07        -0.62454E+08         0.00000E+00
    0.00000E+00         0.00000E+00        -0.60234E+08
 
   -0.57971E+08        -0.18687E+07         0.00000E+00
   -0.18687E+07        -0.62655E+08         0.00000E+00
    0.00000E+00         0.00000E+00        -0.60310E+08
 
   -0.57913E+08        -0.18598E+07         0.00000E+00
   -0.18598E+07        -0.62853E+08         0.00000E+00
    0.00000E+00         0.00000E+00        -0.60380E+08
 
   -0.57849E+08        -0.18334E+07         0.00000E+00
   -0.18334E+07        -0.63045E+08         0.00000E+00
    0.00000E+00         0.00000E+00        -0.60444E+08
 
   -0.57781E+08        -0.17902E+07         0.00000E+00
   -0.17902E+07        -0.63233E+08         0.00000E+00
    0.00000E+00         0.00000E+00        -0.60504E+08
 
   -0.57713E+08        -0.17306E+07         0.00000E+00
   -0.17306E+07        -0.63414E+08         0.00000E+00
    0.00000E+00         0.00000E+00        -0.60560E+08
 
   -0.57646E+08        -0.16554E+07         0.00000E+00
   -0.16554E+07        -0.63589E+08         0.00000E+00
    0.00000E+00         0.00000E+00        -0.60614E+08
 
   -0.57584E+08        -0.15649E+07         0.00000E+00
   -0.15649E+07        -0.63757E+08         0.00000E+00
    0.00000E+00         0.00000E+00        -0.60667E+08
 
   -0.57527E+08        -0.14597E+07         0.00000E+00
   -0.14597E+07        -0.63919E+08         0.00000E+00
    0.00000E+00         0.00000E+00        -0.60720E+08
 
   -0.57480E+08        -0.13403E+07         0.00000E+00
   -0.13403E+07        -0.64073E+08         0.00000E+00
    0.00000E+00         0.00000E+00        -0.60773E+08
 
   -0.57443E+08        -0.12072E+07         0.00000E+00
   -0.12072E+07        -0.64219E+08         0.00000E+00
    0.00000E+00         0.00000E+00        -0.60828E+08
 
   -0.57420E+08        -0.10608E+07         0.00000E+00
   -0.10608E+07        -0.64358E+08         0.00000E+00
    0.00000E+00         0.00000E+00        -0.60885E+08
 
   -0.57413E+08        -0.90164E+06         0.00000E+00
   -0.90164E+06        -0.64488E+08         0.00000E+00
    0.00000E+00         0.00000E+00        -0.60947E+08
 
   -0.57424E+08        -0.73025E+06         0.00000E+00
   -0.73025E+06        -0.64608E+08         0.00000E+00
    0.00000E+00         0.00000E+00        -0.61012E+08
 
   -0.57457E+08        -0.54727E+06         0.00000E+00
   -0.54727E+06        -0.64719E+08         0.00000E+00
    0.00000E+00         0.00000E+00        -0.61083E+08
 
   -0.57513E+08        -0.35347E+06         0.00000E+00
   -0.35347E+06        -0.64818E+08         0.00000E+00
    0.00000E+00         0.00000E+00        -0.61160E+08
 
   -0.57596E+08        -0.14984E+06         0.00000E+00
   -0.14984E+06        -0.64906E+08         0.00000E+00
    0.00000E+00         0.00000E+00        -0.61245E+08
 
   -0.57709E+08         0.62372E+05         0.00000E+00
    0.62372E+05        -0.64979E+08         0.00000E+00
    0.00000E+00         0.00000E+00        -0.61336E+08
 
   -0.57855E+08         0.28157E+06         0.00000E+00
    0.28157E+06        -0.65037E+08         0.00000E+00
    0.00000E+00         0.00000E+00        -0.61436E+08
 
   -0.58038E+08         0.50573E+06         0.00000E+00
    0.50573E+06        -0.65078E+08         0.00000E+00
    0.00000E+00         0.00000E+00        -0.61545E+08
 
   -0.58259E+08         0.73232E+06         0.00000E+00
    0.73232E+06        -0.65100E+08         0.00000E+00
    0.00000E+00         0.00000E+00        -0.61662E+08
 
   -0.58522E+08         0.95823E+06         0.00000E+00
    0.95823E+06        -0.65101E+08         0.00000E+00
    0.00000E+00         0.00000E+00        -0.61787E+08
 
   -0.58828E+08         0.11797E+07         0.00000E+00
    0.11797E+07        -0.65078E+08         0.00000E+00
    0.00000E+00         0.00000E+00        -0.61920E+08
 
   -0.59178E+08         0.13923E+07         0.00000E+00
    0.13923E+07        -0.65030E+08         0.00000E+00
    0.00000E+00         0.00000E+00        -0.62059E+08
 
   -0.59573E+08         0.15909E+07         0.00000E+00
    0.15909E+07        -0.64955E+08         0.00000E+00
    0.00000E+00         0.00000E+00        -0.62201E+08
 
   -0.60010E+08         0.17699E+07         0.00000E+00
    0.17699E+07        -0.64852E+08         0.00000E+00
    0.00000E+00         0.00000E+00        -0.62343E+08
 
   -0.60486E+08         0.19231E+07         0.00000E+00
    0.19231E+07        -0.64720E+08         0.00000E+00
    0.00000E+00         0.00000E+00        -0.62481E+08
 
   -0.60993E+08         0.20441E+07         0.00000E+00
    0.20441E+07        -0.64559E+08         0.00000E+00
    0.00000E+00         0.00000E+00        -0.62609E+08
 
   -0.61522E+08         0.21268E+07         0.00000E+00
    0.21268E+07        -0.64369E+08         0.00000E+00
    0.00000E+00         0.00000E+00        -0.62719E+08
 
   -0.62063E+08         0.21652E+07         0.00000E+00
    0.21652E+07        -0.64154E+08         0.00000E+00
    0.00000E+00         0.00000E+00        -0.62803E+08
 
   -0.62599E+08         0.21543E+07         0.00000E+00
    0.21543E+07        -0.63916E+08         0.00000E+00
    0.00000E+00         0.00000E+00        -0.62850E+08
 
   -0.54038E+08         0.22550E+04         0.00000E+00
    0.22550E+04        -0.60001E+08         0.00000E+00
    0.00000E+00         0.00000E+00        -0.57499E+08
 
   -0.54397E+08        -0.12081E+05         0.00000E+00
   -0.12081E+05        -0.60006E+08         0.00000E+00
    0.00000E+00         0.00000E+00        -0.57562E+08
 
   -0.54799E+08        -0.54724E+05         0.00000E+00
   -0.54724E+05        -0.60020E+08         0.00000E+00
    0.00000E+00         0.00000E+00        -0.57677E+08
 
   -0.55224E+08        -0.12704E+06         0.00000E+00
   -0.12704E+06        -0.60048E+08         0.00000E+00
    0.00000E+00         0.00000E+00        -0.57832E+08
 
   -0.55653E+08        -0.22780E+06         0.00000E+00
   -0.22780E+06        -0.60092E+08         0.00000E+00
    0.00000E+00         0.00000E+00        -0.58014E+08
 
   -0.56069E+08        -0.35372E+06         0.00000E+00
   -0.35372E+06        -0.60156E+08         0.00000E+00
    0.00000E+00         0.00000E+00        -0.58213E+08
 
   -0.56461E+08        -0.50004E+06         0.00000E+00
   -0.50004E+06        -0.60240E+08         0.00000E+00
    0.00000E+00         0.00000E+00        -0.58421E+08
 
   -0.56819E+08        -0.66112E+06         0.00000E+00
   -0.66112E+06        -0.60347E+08         0.00000E+00
    0.00000E+00         0.00000E+00        -0.58631E+08
 
   -0.57135E+08        -0.83102E+06         0.00000E+00
   -0.83102E+06        -0.60475E+08         0.00000E+00
    0.00000E+00         0.00000E+00        -0.58838E+08
 
   -0.57408E+08        -0.10039E+07         0.00000E+00
   -0.10039E+07        -0.60623E+08         0.00000E+00
    0.00000E+00         0.00000E+00        -0.59037E+08
 
   -0.57635E+08        -0.11743E+07         0.00000E+00
   -0.11743E+07        -0.60789E+08         0.00000E+00
    0.00000E+00         0.00000E+00        -0.59225E+08
 
   -0.57817E+08        -0.13376E+07         0.00000E+00
   -0.13376E+07        -0.60970E+08         0.00000E+00
    0.00000E+00         0.00000E+00        -0.59401E+08
 
   -0.57956E+08        -0.14897E+07         0.00000E+00
   -0.14897E+07        -0.61164E+08         0.00000E+00
    0.00000E+00         0.00000E+00        -0.59563E+08
 
   -0.58055E+08        -0.16275E+07         0.00000E+00
   -0.16275E+07        -0.61368E+08         0.00000E+00
    0.00000E+00         0.00000E+00        -0.59712E+08
 
   -0.58118E+08        -0.17487E+07         0.00000E+00
   -0.17487E+07        -0.61578E+08         0.00000E+00
    0.00000E+00         0.00000E+00        -0.59847E+08
 
   -0.58149E+08        -0.18516E+07         0.00000E+00
   -0.18516E+07        -0.61794E+08         0.00000E+00
    0.00000E+00         0.00000E+00        -0.59969E+08
 
   -0.58152E+08        -0.19351E+07         0.00000E+00
   -0.19351E+07        -0.62011E+08         0.00000E+00
    0.00000E+00         0.00000E+00        -0.60078E+08
 
   -0.58132E+08        -0.19988E+07         0.00000E+00
   -0.19988E+07        -0.62228E+08         0.00000E+00
    0.00000E+00         0.00000E+00        -0.60176E+08
 
   -0.58092E+08        -0.20425E+07         0.00000E+00
   -0.20425E+07        -0.62443E+08         0.00000E+00
    0.00000E+00         0.00000E+00        -0.60263E+08
 
   -0.58036E+08        -0.20665E+07         0.00000E+00
   -0.20665E+07        -0.62654E+08         0.00000E+00
    0.00000E+00         0.00000E+00        -0.60341E+08
 
   -0.57969E+08        -0.20712E+07         0.00000E+00
   -0.20712E+07        -0.62862E+08         0.00000E+00
    0.00000E+00         0.00000E+00        -0.60411E+08
 
   -0.57893E+08        -0.20572E+07         0.00000E+00
   -0.20572E+07        -0.63064E+08         0.00000E+00
    0.00000E+00         0.00000E+00        -0.60474E+08
 
   -0.57811E+08        -0.20252E+07         0.00000E+00
   -0.20252E+07        -0.63260E+08         0.00000E+00
    0.00000E+00         0.00000E+00        -0.60531E+08
 
   -0.57727E+08        -0.19758E+07         0.00000E+00
   -0.19758E+07        -0.63450E+08         0.00000E+00
    0.00000E+00         0.00000E+00        -0.60583E+08
 
   -0.57642E+08        -0.19098E+07         0.00000E+00
   -0.19098E+07        -0.63633E+08         0.00000E+00
    0.00000E+00         0.00000E+00        -0.60632E+08
 
   -0.57560E+08        -0.18277E+07         0.00000E+00
   -0.18277E+07        -0.63809E+08         0.00000E+00
    0.00000E+00         0.00000E+00        -0.60679E+08
 
   -0.57482E+08        -0.17303E+07         0.00000E+00
   -0.17303E+07        -0.63978E+08         0.00000E+00
    0.00000E+00         0.00000E+00        -0.60725E+08
 
   -0.57411E+08        -0.16179E+07         0.00000E+00
   -0.16179E+07        -0.64140E+08         0.00000E+00
    0.00000E+00         0.00000E+00        -0.60770E+08
 
   -0.57350E+08        -0.14911E+07         0.00000E+00
   -0.14911E+07        -0.64294E+08         0.00000E+00
    0.00000E+00         0.00000E+00        -0.60817E+08
 
   -0.57300E+08        -0.13503E+07         0.00000E+00
   -0.13503E+07        -0.64441E+08         0.00000E+00
    0.00000E+00         0.00000E+00        -0.60865E+08
 
   -0.57263E+08        -0.11957E+07         0.00000E+00
   -0.11957E+07        -0.64580E+08         0.00000E+00
    0.00000E+00         0.00000E+00        -0.60917E+08
 
   -0.57243E+08        -0.10279E+07         0.00000E+00
   -0.10279E+07        -0.64712E+08         0.00000E+00
    0.00000E+00         0.00000E+00        -0.60972E+08
 
   -0.57242E+08        -0.84716E+06         0.00000E+00
   -0.84716E+06        -0.64834E+08         0.00000E+00
    0.00000E+00         0.00000E+00        -0.61032E+08
 
   -0.57263E+08        -0.65391E+06         0.00000E+00
   -0.65391E+06        -0.64947E+08         0.00000E+00
    0.00000E+00         0.00000E+00        -0.61098E+08
 
   -0.57308E+08        -0.44873E+06         0.00000E+00
   -0.44873E+06        -0.65049E+08         0.00000E+00
    0.00000E+00         0.00000E+00        -0.61171E+08
 
   -0.57381E+08        -0.23238E+06         0.00000E+00
   -0.23238E+06        -0.65139E+08         0.00000E+00
    0.00000E+00         0.00000E+00        -0.61252E+08
 
   -0.57486E+08        -0.58756E+04         0.00000E+00
   -0.58756E+04        -0.65217E+08         0.00000E+00
    0.00000E+00         0.00000E+00        -0.61341E+08
 
   -0.57625E+08         0.22943E+06         0.00000E+00
    0.22943E+06        -0.65279E+08         0.00000E+00
    0.00000E+00         0.00000E+00        -0.61440E+08
 
   -0.57802E+08         0.47173E+06         0.00000E+00
    0.47173E+06        -0.65324E+08         0.00000E+00
    0.00000E+00         0.00000E+00        -0.61548E+08
 
   -0.58021E+08         0.71867E+06         0.00000E+00
    0.71867E+06        -0.65350E+08         0.00000E+00
    0.00000E+00         0.00000E+00        -0.61665E+08
 
   -0.58285E+08         0.96723E+06         0.00000E+00
    0.96723E+06        -0.65355E+08         0.00000E+00
    0.00000E+00         0.00000E+00        -0.61793E+08
 
   -0.58597E+08         0.12137E+07         0.00000E+00
    0.12137E+07        -0.65335E+08         0.00000E+00
    0.00000E+00         0.00000E+00        -0.61928E+08
 
   -0.58958E+08         0.14534E+07         0.00000E+00
    0.14534E+07        -0.65288E+08         0.00000E+00
    0.00000E+00         0.00000E+00        -0.62071E+08
 
   -0.59369E+08         0.16810E+07         0.00000E+00
    0.16810E+07        -0.65212E+08         0.00000E+00
    0.00000E+00         0.00000E+00        -0.62219E+08
 
   -0.59828E+08         0.18903E+07         0.00000E+00
    0.18903E+07        -0.65105E+08         0.00000E+00
    0.00000E+00         0.00000E+00        -0.62367E+08
 
   -0.60332E+08         0.20745E+07         0.00000E+00
    0.20745E+07        -0.64965E+08         0.00000E+00
    0.00000E+00         0.00000E+00        -0.62512E+08
 
   -0.60875E+08         0.22263E+07         0.00000E+00
    0.22263E+07        -0.64793E+08         0.00000E+00
    0.00000E+00         0.00000E+00        -0.62647E+08
 
   -0.61447E+08         0.23384E+07         0.00000E+00
    0.23384E+07        -0.64588E+08         0.00000E+00
    0.00000E+00         0.00000E+00        -0.62764E+08
 
   -0.62036E+08         0.24038E+07         0.00000E+00
    0.24038E+07        -0.64353E+08         0.00000E+00
    0.00000E+00         0.00000E+00        -0.62853E+08
 
   -0.62625E+08         0.24163E+07         0.00000E+00
    0.24163E+07        -0.64090E+08         0.00000E+00
    0.00000E+00         0.00000E+00        -0.62904E+08
 
   -0.54041E+08         0.25269E+03         0.00000E+00
    0.25269E+03        -0.60001E+08         0.00000E+00
    0.00000E+00         0.00000E+00        -0.57540E+08
 
   -0.54430E+08        -0.21374E+05         0.00000E+00
   -0.21374E+05        -0.60006E+08         0.00000E+00
    0.00000E+00         0.00000E+00        -0.57609E+08
 
   -0.54864E+08        -0.75928E+05         0.00000E+00
   -0.75928E+05        -0.60023E+08         0.00000E+00
    0.00000E+00         0.00000E+00        -0.57733E+08
 
   -0.55320E+08        -0.16447E+06         0.00000E+00
   -0.16447E+06        -0.60054E+08         0.00000E+00
    0.00000E+00         0.00000E+00        -0.57899E+08
 
   -0.55777E+08        -0.28494E+06         0.00000E+00
   -0.28494E+06        -0.60105E+08         0.00000E+00
    0.00000E+00         0.00000E+00        -0.58093E+08
 
   -0.56217E+08        -0.43289E+06         0.00000E+00
   -0.43289E+06        -0.60178E+08         0.00000E+00
    0.00000E+00         0.00000E+00        -0.58306E+08
 
   -0.56627E+08        -0.60229E+06         0.00000E+00
   -0.60229E+06        -0.60275E+08         0.00000E+00
    0.00000E+00         0.00000E+00        -0.58526E+08
 
   -0.56996E+08        -0.78629E+06         0.00000E+00
   -0.78629E+06        -0.60397E+08         0.00000E+00
    0.00000E+00         0.00000E+00        -0.58747E+08
 
   -0.57318E+08        -0.97785E+06         0.00000E+00
   -0.97785E+06        -0.60541E+08         0.00000E+00
    0.00000E+00         0.00000E+00        -0.58963E+08
 
   -0.57590E+08        -0.11703E+07         0.00000E+00
   -0.11703E+07        -0.60707E+08         0.00000E+00
    0.00000E+00         0.00000E+00        -0.59170E+08
 
   -0.57810E+08        -0.13577E+07         0.00000E+00
   -0.13577E+07        -0.60892E+08         0.00000E+00
    0.00000E+00         0.00000E+00        -0.59363E+08
 
   -0.57981E+08        -0.15349E+07         0.00000E+00
   -0.15349E+07        -0.61092E+08         0.00000E+00
    0.00000E+00         0.00000E+00        -0.59542E+08
 
   -0.58106E+08        -0.16978E+07         0.00000E+00
   -0.16978E+07        -0.61304E+08         0.00000E+00
    0.00000E+00         0.00000E+00        -0.59706E+08
 
   -0.58188E+08        -0.18433E+07         0.00000E+00
   -0.18433E+07        -0.61524E+08         0.00000E+00
    0.00000E+00         0.00000E+00        -0.59855E+08
 
   -0.58232E+08        -0.19694E+07         0.00000E+00
   -0.19694E+07        -0.61750E+08         0.00000E+00
    0.00000E+00         0.00000E+00        -0.59987E+08
 
   -0.58243E+08        -0.20744E+07         0.00000E+00
   -0.20744E+07        -0.61979E+08         0.00000E+00
    0.00000E+00         0.00000E+00        -0.60106E+08
 
   -0.58225E+08        -0.21579E+07         0.00000E+00
   -0.21579E+07        -0.62207E+08         0.00000E+00
    0.00000E+00         0.00000E+00        -0.60210E+08
 
   -0.58184E+08        -0.22196E+07         0.00000E+00
   -0.22196E+07        -0.62434E+08         0.00000E+00
    0.00000E+00         0.00000E+00        -0.60302E+08
 
   -0.58123E+08        -0.22598E+07         0.00000E+00
   -0.22598E+07        -0.62657E+08         0.00000E+00
    0.00000E+00         0.00000E+00        -0.60383E+08
 
   -0.58048E+08        -0.22790E+07         0.00000E+00
   -0.22790E+07        -0.62875E+08         0.00000E+00
    0.00000E+00         0.00000E+00        -0.60454E+08
 
   -0.57961E+08        -0.22780E+07         0.00000E+00
   -0.22780E+07        -0.63086E+08         0.00000E+00
    0.00000E+00         0.00000E+00        -0.60516E+08
 
   -0.57867E+08        -0.22576E+07         0.00000E+00
   -0.22576E+07        -0.63291E+08         0.00000E+00
    0.00000E+00         0.00000E+00        -0.60571E+08
 
   -0.57767E+08        -0.22188E+07         0.00000E+00
   -0.22188E+07        -0.63488E+08         0.00000E+00
    0.00000E+00         0.00000E+00        -0.60620E+08
 
   -0.57665E+08        -0.21624E+07         0.00000E+00
   -0.21624E+07        -0.63678E+08         0.00000E+00
    0.00000E+00         0.00000E+00        -0.60664E+08
 
   -0.57564E+08        -0.20892E+07         0.00000E+00
   -0.20892E+07        -0.63861E+08         0.00000E+00
    0.00000E+00         0.00000E+00        -0.60705E+08
 
   -0.57466E+08        -0.19999E+07         0.00000E+00
   -0.19999E+07        -0.64036E+08         0.00000E+00
    0.00000E+00         0.00000E+00        -0.60744E+08
 
   -0.57374E+08        -0.18952E+07         0.00000E+00
   -0.18952E+07        -0.64204E+08         0.00000E+00
    0.00000E+00         0.00000E+00        -0.60781E+08
 
   -0.57288E+08        -0.17755E+07         0.00000E+00
   -0.17755E+07        -0.64364E+08         0.00000E+00
    0.00000E+00         0.00000E+00        -0.60818E+08
 
   -0.57212E+08        -0.16414E+07         0.00000E+00
   -0.16414E+07        -0.64517E+08         0.00000E+00
    0.00000E+00         0.00000E+00        -0.60857E+08
 
   -0.57148E+08        -0.14931E+07         0.00000E+00
   -0.14931E+07        -0.64663E+08         0.00000E+00
    0.00000E+00         0.00000E+00        -0.60898E+08
 
   -0.57098E+08        -0.13309E+07         0.00000E+00
   -0.13309E+07        -0.64801E+08         0.00000E+00
    0.00000E+00         0.00000E+00        -0.60942E+08
 
   -0.57065E+08        -0.11549E+07         0.00000E+00
   -0.11549E+07        -0.64932E+08         0.00000E+00
    0.00000E+00         0.00000E+00        -0.60990E+08
 
   -0.57051E+08        -0.96540E+06         0.00000E+00
   -0.96540E+06        -0.65054E+08         0.00000E+00
    0.00000E+00         0.00000E+00        -0.61044E+08
 
   -0.57058E+08        -0.76256E+06         0.00000E+00
   -0.76256E+06        -0.65168E+08         0.00000E+00
    0.00000E+00         0.00000E+00        -0.61104E+08
 
   -0.57091E+08        -0.54670E+06         0.00000E+00
   -0.54670E+06        -0.65272E+08         0.00000E+00
    0.00000E+00         0.00000E+00        -0.61172E+08
 
   -0.57153E+08        -0.31829E+06         0.00000E+00
   -0.31829E+06        -0.65366E+08         0.00000E+00
    0.00000E+00         0.00000E+00        -0.61249E+08
 
   -0.57247E+08        -0.78049E+05         0.00000E+00
   -0.78049E+05        -0.65446E+08         0.00000E+00
    0.00000E+00         0.00000E+00        -0.61334E+08
 
   -0.57377E+08         0.17298E+06         0.00000E+00
    0.17298E+06        -0.65513E+08         0.00000E+00
    0.00000E+00         0.00000E+00        -0.61430E+08
 
   -0.57548E+08         0.43328E+06         0.00000E+00
    0.43328E+06        -0.65563E+08         0.00000E+00
    0.00000E+00         0.00000E+00        -0.61536E+08
 
   -0.57762E+08         0.70078E+06         0.00000E+00
    0.70078E+06        -0.65593E+08         0.00000E+00
    0.00000E+00         0.00000E+00        -0.61653E+08
 
   -0.58025E+08         0.97266E+06         0.00000E+00
    0.97266E+06        -0.65602E+08         0.00000E+00
    0.00000E+00         0.00000E+00        -0.61781E+08
 
   -0.58340E+08         0.12453E+07         0.00000E+00
    0.12453E+07        -0.65585E+08         0.00000E+00
    0.00000E+00         0.00000E+00        -0.61919E+08
 
   -0.58708E+08         0.15140E+07         0.00000E+00
    0.15140E+07        -0.65540E+08         0.00000E+00
    0.00000E+00         0.00000E+00        -0.62065E+08
 
   -0.59133E+08         0.17731E+07         0.00000E+00
    0.17731E+07        -0.65464E+08         0.00000E+00
    0.00000E+00         0.00000E+00        -0.62217E+08
 
   -0.59613E+08         0.20160E+07         0.00000E+00
    0.20160E+07        -0.65353E+08         0.00000E+00
    0.00000E+00         0.00000E+00        -0.62371E+08
 
   -0.60146E+08         0.22350E+07         0.00000E+00
    0.22350E+07        -0.65207E+08         0.00000E+00
    0.00000E+00         0.00000E+00        -0.62523E+08
 
   -0.60725E+08         0.24219E+07         0.00000E+00
    0.24219E+07        -0.65023E+08         0.00000E+00
    0.00000E+00         0.00000E+00        -0.62665E+08
 
   -0.61341E+08         0.25682E+07         0.00000E+00
    0.25682E+07        -0.64802E+08         0.00000E+00
    0.00000E+00         0.00000E+00        -0.62788E+08
 
   -0.61981E+08         0.26654E+07         0.00000E+00
    0.26654E+07        -0.64546E+08         0.00000E+00
    0.00000E+00         0.00000E+00        -0.62883E+08
 
   -0.62628E+08         0.27060E+07         0.00000E+00
    0.27060E+07        -0.64257E+08         0.00000E+00
    0.00000E+00         0.00000E+00        -0.62936E+08
 
   -0.54051E+08        -0.18203E+04         0.00000E+00
   -0.18203E+04        -0.60001E+08         0.00000E+00
    0.00000E+00         0.00000E+00        -0.57592E+08
 
   -0.54473E+08        -0.31751E+05         0.00000E+00
   -0.31751E+05        -0.60007E+08         0.00000E+00
    0.00000E+00         0.00000E+00        -0.57666E+08
 
   -0.54944E+08        -0.10028E+06         0.00000E+00
   -0.10028E+06        -0.60026E+08         0.00000E+00
    0.00000E+00         0.00000E+00        -0.57800E+08
 
   -0.55435E+08        -0.20789E+06         0.00000E+00
   -0.20789E+06        -0.60062E+08         0.00000E+00
    0.00000E+00         0.00000E+00        -0.57979E+08
 
   -0.55924E+08        -0.35128E+06         0.00000E+00
   -0.35128E+06        -0.60122E+08         0.00000E+00
    0.00000E+00         0.00000E+00        -0.58188E+08
 
   -0.56390E+08        -0.52448E+06         0.00000E+00
   -0.52448E+06        -0.60207E+08         0.00000E+00
    0.00000E+00         0.00000E+00        -0.58415E+08
 
   -0.56818E+08        -0.71984E+06         0.00000E+00
   -0.71984E+06        -0.60320E+08         0.00000E+00
    0.00000E+00         0.00000E+00        -0.58649E+08
 
   -0.57197E+08        -0.92903E+06         0.00000E+00
   -0.92903E+06        -0.60460E+08         0.00000E+00
    0.00000E+00         0.00000E+00        -0.58881E+08
 
   -0.57522E+08        -0.11438E+07         0.00000E+00
   -0.11438E+07        -0.60624E+08         0.00000E+00
    0.00000E+00         0.00000E+00        -0.59107E+08
 
   -0.57790E+08        -0.13567E+07         0.00000E+00
   -0.13567E+07        -0.60811E+08         0.00000E+00
    0.00000E+00         0.00000E+00        -0.59320E+08
 
   -0.58001E+08        -0.15610E+07         0.00000E+00
   -0.15610E+07        -0.61017E+08         0.00000E+00
    0.00000E+00         0.00000E+00        -0.59519E+08
 
   -0.58158E+08        -0.17514E+07         0.00000E+00
   -0.17514E+07        -0.61238E+08         0.00000E+00
    0.00000E+00         0.00000E+00        -0.59700E+08
 
   -0.58264E+08        -0.19239E+07         0.00000E+00
   -0.19239E+07        -0.61469E+08         0.00000E+00
    0.00000E+00         0.00000E+00        -0.59865E+08
 
   -0.58326E+08        -0.20756E+07         0.00000E+00
   -0.20756E+07        -0.61707E+08         0.00000E+00
    0.00000E+00         0.00000E+00        -0.60011E+08
 
   -0.58348E+08        -0.22044E+07         0.00000E+00
   -0.22044E+07        -0.61949E+08         0.00000E+00
    0.00000E+00         0.00000E+00        -0.60141E+08
 
   -0.58336E+08        -0.23096E+07         0.00000E+00
   -0.23096E+07        -0.62190E+08         0.00000E+00
    0.00000E+00         0.00000E+00        -0.60254E+08
 
   -0.58296E+08        -0.23908E+07         0.00000E+00
   -0.23908E+07        -0.62430E+08         0.00000E+00
    0.00000E+00         0.00000E+00        -0.60353E+08
 
   -0.58232E+08        -0.24484E+07         0.00000E+00
   -0.24484E+07        -0.62665E+08         0.00000E+00
    0.00000E+00         0.00000E+00        -0.60438E+08
 
   -0.58150E+08        -0.24830E+07         0.00000E+00
   -0.24830E+07        -0.62894E+08         0.00000E+00
    0.00000E+00         0.00000E+00        -0.60511E+08
 
   -0.58054E+08        -0.24955E+07         0.00000E+00
   -0.24955E+07        -0.63115E+08         0.00000E+00
    0.00000E+00         0.00000E+00        -0.60573E+08
 
   -0.57947E+08        -0.24871E+07         0.00000E+00
   -0.24871E+07        -0.63329E+08         0.00000E+00
    0.00000E+00         0.00000E+00        -0.60626E+08
 
   -0.57833E+08        -0.24590E+07         0.00000E+00
   -0.24590E+07        -0.63534E+08         0.00000E+00
    0.00000E+00         0.00000E+00        -0.60672E+08
 
   -0.57715E+08        -0.24121E+07         0.00000E+00
   -0.24121E+07        -0.63731E+08         0.00000E+00
    0.00000E+00         0.00000E+00        -0.60711E+08
 
   -0.57597E+08        -0.23477E+07         0.00000E+00
   -0.23477E+07        -0.63919E+08         0.00000E+00
    0.00000E+00         0.00000E+00        -0.60746E+08
 
   -0.57479E+08        -0.22666E+07         0.00000E+00
   -0.22666E+07        -0.64099E+08         0.00000E+00
    0.00000E+00         0.00000E+00        -0.60777E+08
 
   -0.57366E+08        -0.21696E+07         0.00000E+00
   -0.21696E+07        -0.64270E+08         0.00000E+00
    0.00000E+00         0.00000E+00        -0.60806E+08
 
   -0.57258E+08        -0.20574E+07         0.00000E+00
   -0.20574E+07        -0.64434E+08         0.00000E+00
    0.00000E+00         0.00000E+00        -0.60834E+08
 
   -0.57158E+08        -0.19305E+07         0.00000E+00
   -0.19305E+07        -0.64590E+08         0.00000E+00
    0.00000E+00         0.00000E+00        -0.60862E+08
 
   -0.57067E+08        -0.17893E+07         0.00000E+00
   -0.17893E+07        -0.64740E+08         0.00000E+00
    0.00000E+00         0.00000E+00        -0.60892E+08
 
   -0.56989E+08        -0.16339E+07         0.00000E+00
   -0.16339E+07        -0.64882E+08         0.00000E+00
    0.00000E+00         0.00000E+00        -0.60924E+08
 
   -0.56925E+08        -0.14645E+07         0.00000E+00
   -0.14645E+07        -0.65018E+08         0.00000E+00
    0.00000E+00         0.00000E+00        -0.60960E+08
 
   -0.56878E+08        -0.12810E+07         0.00000E+00
   -0.12810E+07        -0.65146E+08         0.00000E+00
    0.00000E+00         0.00000E+00        -0.61000E+08
 
   -0.56850E+08        -0.10836E+07         0.00000E+00
   -0.10836E+07        -0.65267E+08         0.00000E+00
    0.00000E+00         0.00000E+00        -0.61047E+08
 
   -0.56844E+08        -0.87203E+06         0.00000E+00
   -0.87203E+06        -0.65381E+08         0.00000E+00
    0.00000E+00         0.00000E+00        -0.61100E+08
 
   -0.56864E+08        -0.64642E+06         0.00000E+00
   -0.64642E+06        -0.65486E+08         0.00000E+00
    0.00000E+00         0.00000E+00        -0.61161E+08
 
   -0.56913E+08        -0.40688E+06         0.00000E+00
   -0.40688E+06        -0.65581E+08         0.00000E+00
    0.00000E+00         0.00000E+00        -0.61232E+08
 
   -0.56994E+08        -0.15375E+06         0.00000E+00
   -0.15375E+06        -0.65664E+08         0.00000E+00
    0.00000E+00         0.00000E+00        -0.61312E+08
 
   -0.57113E+08         0.11230E+06         0.00000E+00
    0.11230E+06        -0.65734E+08         0.00000E+00
    0.00000E+00         0.00000E+00        -0.61404E+08
 
   -0.57274E+08         0.39016E+06         0.00000E+00
    0.39016E+06        -0.65788E+08         0.00000E+00
    0.00000E+00         0.00000E+00        -0.61507E+08
 
   -0.57481E+08         0.67813E+06         0.00000E+00
    0.67813E+06        -0.65824E+08         0.00000E+00
    0.00000E+00         0.00000E+00        -0.61622E+08
 
   -0.57739E+08         0.97373E+06         0.00000E+00
    0.97373E+06        -0.65837E+08         0.00000E+00
    0.00000E+00         0.00000E+00        -0.61750E+08
 
   -0.58054E+08         0.12735E+07         0.00000E+00
    0.12735E+07        -0.65825E+08         0.00000E+00
    0.00000E+00         0.00000E+00        -0.61888E+08
 
   -0.58427E+08         0.15730E+07         0.00000E+00
    0.15730E+07        -0.65783E+08         0.00000E+00
    0.00000E+00         0.00000E+00        -0.62037E+08
 
   -0.58863E+08         0.18662E+07         0.00000E+00
    0.18662E+07        -0.65708E+08         0.00000E+00
    0.00000E+00         0.00000E+00        -0.62192E+08
 
   -0.59362E+08         0.21461E+07         0.00000E+00
    0.21461E+07        -0.65595E+08         0.00000E+00
    0.00000E+00         0.00000E+00        -0.62351E+08
 
   -0.59922E+08         0.24042E+07         0.00000E+00
    0.24042E+07        -0.65442E+08         0.00000E+00
    0.00000E+00         0.00000E+00        -0.62509E+08
 
   -0.60537E+08         0.26312E+07         0.00000E+00
    0.26312E+07        -0.65248E+08         0.00000E+00
    0.00000E+00         0.00000E+00        -0.62657E+08
 
   -0.61199E+08         0.28170E+07         0.00000E+00
    0.28170E+07        -0.65010E+08         0.00000E+00
    0.00000E+00         0.00000E+00        -0.62787E+08
 
   -0.61894E+08         0.29517E+07         0.00000E+00
    0.29517E+07        -0.64731E+08         0.00000E+00
    0.00000E+00         0.00000E+00        -0.62887E+08
 
   -0.62603E+08         0.30260E+07         0.00000E+00
    0.30260E+07        -0.64414E+08         0.00000E+00
    0.00000E+00         0.00000E+00        -0.62943E+08
 
   -0.54066E+08        -0.40463E+04         0.00000E+00
   -0.40463E+04        -0.60001E+08         0.00000E+00
    0.00000E+00         0.00000E+00        -0.57655E+08
 
   -0.54528E+08        -0.43729E+05         0.00000E+00
   -0.43729E+05        -0.60008E+08         0.00000E+00
    0.00000E+00         0.00000E+00        -0.57736E+08
 
   -0.55042E+08        -0.12899E+06         0.00000E+00
   -0.12899E+06        -0.60030E+08         0.00000E+00
    0.00000E+00         0.00000E+00        -0.57882E+08
 
   -0.55574E+08        -0.25926E+06         0.00000E+00
   -0.25926E+06        -0.60074E+08         0.00000E+00
    0.00000E+00         0.00000E+00        -0.58076E+08
 
   -0.56097E+08        -0.42951E+06         0.00000E+00
   -0.42951E+06        -0.60145E+08         0.00000E+00
    0.00000E+00         0.00000E+00        -0.58300E+08
 
   -0.56590E+08        -0.63171E+06         0.00000E+00
   -0.63171E+06        -0.60246E+08         0.00000E+00
    0.00000E+00         0.00000E+00        -0.58542E+08
 
   -0.57035E+08        -0.85619E+06         0.00000E+00
   -0.85619E+06        -0.60378E+08         0.00000E+00
    0.00000E+00         0.00000E+00        -0.58790E+08
 
   -0.57423E+08        -0.10929E+07         0.00000E+00
   -0.10929E+07        -0.60539E+08         0.00000E+00
    0.00000E+00         0.00000E+00        -0.59035E+08
 
   -0.57748E+08        -0.13323E+07         0.00000E+00
   -0.13323E+07        -0.60728E+08         0.00000E+00
    0.00000E+00         0.00000E+00        -0.59270E+08
 
   -0.58008E+08        -0.15658E+07         0.00000E+00
   -0.15658E+07        -0.60939E+08         0.00000E+00
    0.00000E+00         0.00000E+00        -0.59490E+08
 
   -0.58206E+08        -0.17866E+07         0.00000E+00
   -0.17866E+07        -0.61169E+08         0.00000E+00
    0.00000E+00         0.00000E+00        -0.59693E+08
 
   -0.58344E+08        -0.19890E+07         0.00000E+00
   -0.19890E+07        -0.61412E+08         0.00000E+00
    0.00000E+00         0.00000E+00        -0.59876E+08
 
   -0.58430E+08        -0.21692E+07         0.00000E+00
   -0.21692E+07        -0.61664E+08         0.00000E+00
    0.00000E+00         0.00000E+00        -0.60039E+08
 
   -0.58468E+08        -0.23246E+07         0.00000E+00
   -0.23246E+07        -0.61921E+08         0.00000E+00
    0.00000E+00         0.00000E+00        -0.60183E+08
 
   -0.58465E+08        -0.24538E+07         0.00000E+00
   -0.24538E+07        -0.62178E+08         0.00000E+00
    0.00000E+00         0.00000E+00        -0.60307E+08
 
   -0.58428E+08        -0.25563E+07         0.00000E+00
   -0.25563E+07        -0.62432E+08         0.00000E+00
    0.00000E+00         0.00000E+00        -0.60414E+08
 
   -0.58362E+08        -0.26326E+07         0.00000E+00
   -0.26326E+07        -0.62681E+08         0.00000E+00
    0.00000E+00         0.00000E+00        -0.60505E+08
 
   -0.58275E+08        -0.26835E+07         0.00000E+00
   -0.26835E+07        -0.62922E+08         0.00000E+00
    0.00000E+00         0.00000E+00        -0.60581E+08
 
   -0.58169E+08        -0.27101E+07         0.00000E+00
   -0.27101E+07        -0.63155E+08         0.00000E+00
    0.00000E+00         0.00000E+00        -0.60644E+08
 
   -0.58051E+08        -0.27138E+07         0.00000E+00
   -0.27138E+07        -0.63378E+08         0.00000E+00
    0.00000E+00         0.00000E+00        -0.60697E+08
 
   -0.57924E+08        -0.26962E+07         0.00000E+00
   -0.26962E+07        -0.63591E+08         0.00000E+00
    0.00000E+00         0.00000E+00        -0.60739E+08
 
   -0.57791E+08        -0.26587E+07         0.00000E+00
   -0.26587E+07        -0.63794E+08         0.00000E+00
    0.00000E+00         0.00000E+00        -0.60774E+08
 
   -0.57655E+08        -0.26025E+07         0.00000E+00
   -0.26025E+07        -0.63987E+08         0.00000E+00
    0.00000E+00         0.00000E+00        -0.60803E+08
 
   -0.57519E+08        -0.25291E+07         0.00000E+00
   -0.25291E+07        -0.64170E+08         0.00000E+00
    0.00000E+00         0.00000E+00        -0.60827E+08
 
   -0.57386E+08        -0.24394E+07         0.00000E+00
   -0.24394E+07        -0.64344E+08         0.00000E+00
    0.00000E+00         0.00000E+00        -0.60847E+08
 
   -0.57257E+08        -0.23343E+07         0.00000E+00
   -0.23343E+07        -0.64509E+08         0.00000E+00
    0.00000E+00         0.00000E+00        -0.60865E+08
 
   -0.57134E+08        -0.22145E+07         0.00000E+00
   -0.22145E+07        -0.64667E+08         0.00000E+00
    0.00000E+00         0.00000E+00        -0.60883E+08
 
   -0.57020E+08        -0.20804E+07         0.00000E+00
   -0.20804E+07        -0.64817E+08         0.00000E+00
    0.00000E+00         0.00000E+00        -0.60901E+08
 
   -0.56916E+08        -0.19323E+07         0.00000E+00
   -0.19323E+07        -0.64960E+08         0.00000E+00
    0.00000E+00         0.00000E+00        -0.60920E+08
 
   -0.56824E+08        -0.17703E+07         0.00000E+00
   -0.17703E+07        -0.65096E+08         0.00000E+00
    0.00000E+00         0.00000E+00        -0.60942E+08
 
   -0.56746E+08        -0.15945E+07         0.00000E+00
   -0.15945E+07        -0.65227E+08         0.00000E+00
    0.00000E+00         0.00000E+00        -0.60969E+08
 
   -0.56684E+08        -0.14044E+07         0.00000E+00
   -0.14044E+07        -0.65351E+08         0.00000E+00
    0.00000E+00         0.00000E+00        -0.61000E+08
 
   -0.56642E+08        -0.12000E+07         0.00000E+00
   -0.12000E+07        -0.65469E+08         0.00000E+00
    0.00000E+00         0.00000E+00        -0.61037E+08
 
   -0.56622E+08        -0.98089E+06         0.00000E+00
   -0.98089E+06        -0.65581E+08         0.00000E+00
    0.00000E+00         0.00000E+00        -0.61082E+08
 
   -0.56627E+08        -0.74671E+06         0.00000E+00
   -0.74671E+06        -0.65685E+08         0.00000E+00
    0.00000E+00         0.00000E+00        -0.61136E+08
 
   -0.56661E+08        -0.49722E+06         0.00000E+00
   -0.49722E+06        -0.65780E+08         0.00000E+00
    0.00000E+00         0.00000E+00        -0.61199E+08
 
   -0.56728E+08        -0.23237E+06         0.00000E+00
   -0.23237E+06        -0.65866E+08         0.00000E+00
    0.00000E+00         0.00000E+00        -0.61274E+08
 
   -0.56833E+08         0.47669E+05         0.00000E+00
    0.47669E+05        -0.65939E+08         0.00000E+00
    0.00000E+00         0.00000E+00        -0.61360E+08
 
   -0.56981E+08         0.34228E+06         0.00000E+00
    0.34228E+06        -0.65997E+08         0.00000E+00
    0.00000E+00         0.00000E+00        -0.61458E+08
 
   -0.57178E+08         0.65026E+06         0.00000E+00
    0.65026E+06        -0.66038E+08         0.00000E+00
    0.00000E+00         0.00000E+00        -0.61570E+08
 
   -0.57428E+08         0.96963E+06         0.00000E+00
    0.96963E+06        -0.66057E+08         0.00000E+00
    0.00000E+00         0.00000E+00        -0.61695E+08
 
   -0.57738E+08         0.12974E+07         0.00000E+00
    0.12974E+07        -0.66050E+08         0.00000E+00
    0.00000E+00         0.00000E+00        -0.61833E+08
 
   -0.58113E+08         0.16291E+07         0.00000E+00
    0.16291E+07        -0.66012E+08         0.00000E+00
    0.00000E+00         0.00000E+00        -0.61982E+08
 
   -0.58556E+08         0.19591E+07         0.00000E+00
    0.19591E+07        -0.65939E+08         0.00000E+00
    0.00000E+00         0.00000E+00        -0.62140E+08
 
   -0.59071E+08         0.22797E+07         0.00000E+00
    0.22797E+07        -0.65825E+08         0.00000E+00
    0.00000E+00         0.00000E+00        -0.62303E+08
 
   -0.59656E+08         0.25816E+07         0.00000E+00
    0.25816E+07        -0.65667E+08         0.00000E+00
    0.00000E+00         0.00000E+00        -0.62465E+08
 
   -0.60306E+08         0.28542E+07         0.00000E+00
    0.28542E+07        -0.65462E+08         0.00000E+00
    0.00000E+00         0.00000E+00        -0.62619E+08
 
   -0.61015E+08         0.30858E+07         0.00000E+00
    0.30858E+07        -0.65208E+08         0.00000E+00
    0.00000E+00         0.00000E+00        -0.62754E+08
 
   -0.61767E+08         0.32645E+07         0.00000E+00
    0.32645E+07        -0.64905E+08         0.00000E+00
    0.00000E+00         0.00000E+00        -0.62859E+08
 
   -0.62544E+08         0.33790E+07         0.00000E+00
    0.33790E+07        -0.64556E+08         0.00000E+00
    0.00000E+00         0.00000E+00        -0.62919E+08
 
   -0.54087E+08        -0.65645E+04         0.00000E+00
   -0.65645E+04        -0.60001E+08         0.00000E+00
    0.00000E+00         0.00000E+00        -0.57732E+08
 
   -0.54598E+08        -0.58084E+05         0.00000E+00
   -0.58084E+05        -0.60010E+08         0.00000E+00
    0.00000E+00         0.00000E+00        -0.57821E+08
 
   -0.55162E+08        -0.16375E+06         0.00000E+00
   -0.16375E+06        -0.60037E+08         0.00000E+00
    0.00000E+00         0.00000E+00        -0.57980E+08
 
   -0.55740E+08        -0.32128E+06         0.00000E+00
   -0.32128E+06        -0.60091E+08         0.00000E+00
    0.00000E+00         0.00000E+00        -0.58190E+08
 
   -0.56301E+08        -0.52315E+06         0.00000E+00
   -0.52315E+06        -0.60176E+08         0.00000E+00
    0.00000E+00         0.00000E+00        -0.58433E+08
 
   -0.56821E+08        -0.75864E+06         0.00000E+00
   -0.75864E+06        -0.60297E+08         0.00000E+00
    0.00000E+00         0.00000E+00        -0.58691E+08
 
   -0.57283E+08        -0.10156E+07         0.00000E+00
   -0.10156E+07        -0.60453E+08         0.00000E+00
    0.00000E+00         0.00000E+00        -0.58954E+08
 
   -0.57676E+08        -0.12821E+07         0.00000E+00
   -0.12821E+07        -0.60641E+08         0.00000E+00
    0.00000E+00         0.00000E+00        -0.59211E+08
 
   -0.57997E+08        -0.15470E+07         0.00000E+00
   -0.15470E+07        -0.60858E+08         0.00000E+00
    0.00000E+00         0.00000E+00        -0.59455E+08
 
   -0.58245E+08        -0.18010E+07         0.00000E+00
   -0.18010E+07        -0.61097E+08         0.00000E+00
    0.00000E+00         0.00000E+00        -0.59681E+08
 
   -0.58424E+08        -0.20369E+07         0.00000E+00
   -0.20369E+07        -0.61354E+08         0.00000E+00
    0.00000E+00         0.00000E+00        -0.59887E+08
 
   -0.58540E+08        -0.22491E+07         0.00000E+00
   -0.22491E+07        -0.61621E+08         0.00000E+00
    0.00000E+00         0.00000E+00        -0.60069E+08
 
   -0.58599E+08        -0.24343E+07         0.00000E+00
   -0.24343E+07        -0.61895E+08         0.00000E+00
    0.00000E+00         0.00000E+00        -0.60230E+08
 
   -0.58609E+08        -0.25903E+07         0.00000E+00
   -0.25903E+07        -0.62170E+08         0.00000E+00
    0.00000E+00         0.00000E+00        -0.60368E+08
 
   -0.58579E+08        -0.27165E+07         0.00000E+00
   -0.27165E+07        -0.62441E+08         0.00000E+00
    0.00000E+00         0.00000E+00        -0.60486E+08
 
   -0.58514E+08        -0.28132E+07         0.00000E+00
   -0.28132E+07        -0.62706E+08         0.00000E+00
    0.00000E+00         0.00000E+00        -0.60584E+08
 
   -0.58421E+08        -0.28814E+07         0.00000E+00
   -0.28814E+07        -0.62962E+08         0.00000E+00
    0.00000E+00         0.00000E+00        -0.60665E+08
 
   -0.58308E+08        -0.29226E+07         0.00000E+00
   -0.29226E+07        -0.63208E+08         0.00000E+00
    0.00000E+00         0.00000E+00        -0.60731E+08
 
   -0.58179E+08        -0.29385E+07         0.00000E+00
   -0.29385E+07        -0.63442E+08         0.00000E+00
    0.00000E+00         0.00000E+00        -0.60783E+08
 
   -0.58038E+08        -0.29311E+07         0.00000E+00
   -0.29311E+07        -0.63664E+08         0.00000E+00
    0.00000E+00         0.00000E+00        -0.60823E+08
 
   -0.57890E+08        -0.29022E+07         0.00000E+00
   -0.29022E+07        -0.63873E+08         0.00000E+00
    0.00000E+00         0.00000E+00        -0.60854E+08
 
   -0.57738E+08        -0.28536E+07         0.00000E+00
   -0.28536E+07        -0.64070E+08         0.00000E+00
    0.00000E+00         0.00000E+00        -0.60876E+08
 
   -0.57585E+08        -0.27869E+07         0.00000E+00
   -0.27869E+07        -0.64256E+08         0.00000E+00
    0.00000E+00         0.00000E+00        -0.60893E+08
 
   -0.57433E+08        -0.27035E+07         0.00000E+00
   -0.27035E+07        -0.64431E+08         0.00000E+00
    0.00000E+00         0.00000E+00        -0.60904E+08
 
   -0.57284E+08        -0.26046E+07         0.00000E+00
   -0.26046E+07        -0.64596E+08         0.00000E+00
    0.00000E+00         0.00000E+00        -0.60913E+08
 
   -0.57140E+08        -0.24910E+07         0.00000E+00
   -0.24910E+07        -0.64752E+08         0.00000E+00
    0.00000E+00         0.00000E+00        -0.60919E+08
 
   -0.57004E+08        -0.23634E+07         0.00000E+00
   -0.23634E+07        -0.64899E+08         0.00000E+00
    0.00000E+00         0.00000E+00        -0.60924E+08
 
   -0.56876E+08        -0.22224E+07         0.00000E+00
   -0.22224E+07        -0.65040E+08         0.00000E+00
    0.00000E+00         0.00000E+00        -0.60931E+08
 
   -0.56758E+08        -0.20679E+07         0.00000E+00
   -0.20679E+07        -0.65174E+08         0.00000E+00
    0.00000E+00         0.00000E+00        -0.60939E+08
 
   -0.56652E+08        -0.19000E+07         0.00000E+00
   -0.19000E+07        -0.65302E+08         0.00000E+00
    0.00000E+00         0.00000E+00        -0.60950E+08
 
   -0.56560E+08        -0.17185E+07         0.00000E+00
   -0.17185E+07        -0.65425E+08         0.00000E+00
    0.00000E+00         0.00000E+00        -0.60965E+08
 
   -0.56484E+08        -0.15230E+07         0.00000E+00
   -0.15230E+07        -0.65543E+08         0.00000E+00
    0.00000E+00         0.00000E+00        -0.60986E+08
 
   -0.56427E+08        -0.13128E+07         0.00000E+00
   -0.13128E+07        -0.65655E+08         0.00000E+00
    0.00000E+00         0.00000E+00        -0.61014E+08
 
   -0.56392E+08        -0.10874E+07         0.00000E+00
   -0.10874E+07        -0.65763E+08         0.00000E+00
    0.00000E+00         0.00000E+00        -0.61049E+08
 
   -0.56381E+08        -0.84610E+06         0.00000E+00
   -0.84610E+06        -0.65864E+08         0.00000E+00
    0.00000E+00         0.00000E+00        -0.61094E+08
 
   -0.56399E+08        -0.58817E+06         0.00000E+00
   -0.58817E+06        -0.65959E+08         0.00000E+00
    0.00000E+00         0.00000E+00        -0.61149E+08
 
   -0.56450E+08        -0.31307E+06         0.00000E+00
   -0.31307E+06        -0.66045E+08         0.00000E+00
    0.00000E+00         0.00000E+00        -0.61215E+08
 
   -0.56539E+08        -0.20445E+05         0.00000E+00
   -0.20445E+05        -0.66121E+08         0.00000E+00
    0.00000E+00         0.00000E+00        -0.61294E+08
 
   -0.56671E+08         0.28969E+06         0.00000E+00
    0.28969E+06        -0.66183E+08         0.00000E+00
    0.00000E+00         0.00000E+00        -0.61386E+08
 
   -0.56853E+08         0.61680E+06         0.00000E+00
    0.61680E+06        -0.66228E+08         0.00000E+00
    0.00000E+00         0.00000E+00        -0.61493E+08
 
   -0.57091E+08         0.95956E+06         0.00000E+00
    0.95956E+06        -0.66253E+08         0.00000E+00
    0.00000E+00         0.00000E+00        -0.61614E+08
 
   -0.57392E+08         0.13156E+07         0.00000E+00
    0.13156E+07        -0.66253E+08         0.00000E+00
    0.00000E+00         0.00000E+00        -0.61749E+08
 
   -0.57763E+08         0.16810E+07         0.00000E+00
    0.16810E+07        -0.66221E+08         0.00000E+00
    0.00000E+00         0.00000E+00        -0.61897E+08
 
   -0.58209E+08         0.20502E+07         0.00000E+00
    0.20502E+07        -0.66152E+08         0.00000E+00
    0.00000E+00         0.00000E+00        -0.62055E+08
 
   -0.58735E+08         0.24153E+07         0.00000E+00
    0.24153E+07        -0.66039E+08         0.00000E+00
    0.00000E+00         0.00000E+00        -0.62220E+08
 
   -0.59341E+08         0.27662E+07         0.00000E+00
    0.27662E+07        -0.65877E+08         0.00000E+00
    0.00000E+00         0.00000E+00        -0.62385E+08
 
   -0.60027E+08         0.30908E+07         0.00000E+00
    0.30908E+07        -0.65662E+08         0.00000E+00
    0.00000E+00         0.00000E+00        -0.62544E+08
 
   -0.60782E+08         0.33753E+07         0.00000E+00
    0.33753E+07        -0.65390E+08         0.00000E+00
    0.00000E+00         0.00000E+00        -0.62684E+08
 
   -0.61594E+08         0.36056E+07         0.00000E+00
    0.36056E+07        -0.65062E+08         0.00000E+00
    0.00000E+00         0.00000E+00        -0.62793E+08
 
   -0.62443E+08         0.37678E+07         0.00000E+00
    0.37678E+07        -0.64680E+08         0.00000E+00
    0.00000E+00         0.00000E+00        -0.62856E+08
 
   -0.54117E+08        -0.96045E+04         0.00000E+00
   -0.96045E+04        -0.60001E+08         0.00000E+00
    0.00000E+00         0.00000E+00        -0.57827E+08
 
   -0.54687E+08        -0.75963E+05         0.00000E+00
   -0.75963E+05        -0.60013E+08         0.00000E+00
    0.00000E+00         0.00000E+00        -0.57924E+08
 
   -0.55309E+08        -0.20695E+06         0.00000E+00
   -0.20695E+06        -0.60047E+08         0.00000E+00
    0.00000E+00         0.00000E+00        -0.58099E+08
 
   -0.55938E+08        -0.39754E+06         0.00000E+00
   -0.39754E+06        -0.60114E+08         0.00000E+00
    0.00000E+00         0.00000E+00        -0.58327E+08
 
   -0.56540E+08        -0.63674E+06         0.00000E+00
   -0.63674E+06        -0.60219E+08         0.00000E+00
    0.00000E+00         0.00000E+00        -0.58588E+08
 
   -0.57088E+08        -0.91036E+06         0.00000E+00
   -0.91036E+06        -0.60365E+08         0.00000E+00
    0.00000E+00         0.00000E+00        -0.58865E+08
 
   -0.57563E+08        -0.12033E+07         0.00000E+00
   -0.12033E+07        -0.60550E+08         0.00000E+00
    0.00000E+00         0.00000E+00        -0.59142E+08
 
   -0.57958E+08        -0.15013E+07         0.00000E+00
   -0.15013E+07        -0.60770E+08         0.00000E+00
    0.00000E+00         0.00000E+00        -0.59411E+08
 
   -0.58269E+08        -0.17920E+07         0.00000E+00
   -0.17920E+07        -0.61020E+08         0.00000E+00
    0.00000E+00         0.00000E+00        -0.59663E+08
 
   -0.58499E+08        -0.20654E+07         0.00000E+00
   -0.20654E+07        -0.61291E+08         0.00000E+00
    0.00000E+00         0.00000E+00        -0.59894E+08
 
   -0.58654E+08        -0.23140E+07         0.00000E+00
   -0.23140E+07        -0.61576E+08         0.00000E+00
    0.00000E+00         0.00000E+00        -0.60100E+08
 
   -0.58741E+08        -0.25329E+07         0.00000E+00
   -0.25329E+07        -0.61870E+08         0.00000E+00
    0.00000E+00         0.00000E+00        -0.60280E+08
 
   -0.58769E+08        -0.27193E+07         0.00000E+00
   -0.27193E+07        -0.62166E+08         0.00000E+00
    0.00000E+00         0.00000E+00        -0.60436E+08
 
   -0.58748E+08        -0.28719E+07         0.00000E+00
   -0.28719E+07        -0.62458E+08         0.00000E+00
    0.00000E+00         0.00000E+00        -0.60566E+08
 
   -0.58686E+08        -0.29911E+07         0.00000E+00
   -0.29911E+07        -0.62742E+08         0.00000E+00
    0.00000E+00         0.00000E+00        -0.60675E+08
 
   -0.58590E+08        -0.30779E+07         0.00000E+00
   -0.30779E+07        -0.63016E+08         0.00000E+00
    0.00000E+00         0.00000E+00        -0.60762E+08
 
   -0.58470E+08        -0.31343E+07         0.00000E+00
   -0.31343E+07        -0.63277E+08         0.00000E+00
    0.00000E+00         0.00000E+00        -0.60831E+08
 
   -0.58330E+08        -0.31625E+07         0.00000E+00
   -0.31625E+07        -0.63523E+08         0.00000E+00
    0.00000E+00         0.00000E+00        -0.60884E+08
 
   -0.58176E+08        -0.31649E+07         0.00000E+00
   -0.31649E+07        -0.63755E+08         0.00000E+00
    0.00000E+00         0.00000E+00        -0.60922E+08
 
   -0.58013E+08        -0.31438E+07         0.00000E+00
   -0.31438E+07        -0.63971E+08         0.00000E+00
    0.00000E+00         0.00000E+00        -0.60949E+08
 
   -0.57845E+08        -0.31015E+07         0.00000E+00
   -0.31015E+07        -0.64173E+08         0.00000E+00
    0.00000E+00         0.00000E+00        -0.60966E+08
 
   -0.57674E+08        -0.30402E+07         0.00000E+00
   -0.30402E+07        -0.64361E+08         0.00000E+00
    0.00000E+00         0.00000E+00        -0.60975E+08
 
   -0.57504E+08        -0.29617E+07         0.00000E+00
   -0.29617E+07        -0.64535E+08         0.00000E+00
    0.00000E+00         0.00000E+00        -0.60977E+08
 
   -0.57336E+08        -0.28674E+07         0.00000E+00
   -0.28674E+07        -0.64698E+08         0.00000E+00
    0.00000E+00         0.00000E+00        -0.60975E+08
 
   -0.57173E+08        -0.27587E+07         0.00000E+00
   -0.27587E+07        -0.64850E+08         0.00000E+00
    0.00000E+00         0.00000E+00        -0.60970E+08
 
   -0.57016E+08        -0.26364E+07         0.00000E+00
   -0.26364E+07        -0.64993E+08         0.00000E+00
    0.00000E+00         0.00000E+00        -0.60963E+08
 
   -0.56866E+08        -0.25012E+07         0.00000E+00
   -0.25012E+07        -0.65128E+08         0.00000E+00
    0.00000E+00         0.00000E+00        -0.60955E+08
 
   -0.56725E+08        -0.23535E+07         0.00000E+00
   -0.23535E+07        -0.65256E+08         0.00000E+00
    0.00000E+00         0.00000E+00        -0.60949E+08
 
   -0.56594E+08        -0.21932E+07         0.00000E+00
   -0.21932E+07        -0.65378E+08         0.00000E+00
    0.00000E+00         0.00000E+00        -0.60944E+08
 
   -0.56475E+08        -0.20203E+07         0.00000E+00
   -0.20203E+07        -0.65494E+08         0.00000E+00
    0.00000E+00         0.00000E+00        -0.60943E+08
 
   -0.56369E+08        -0.18342E+07         0.00000E+00
   -0.18342E+07        -0.65607E+08         0.00000E+00
    0.00000E+00         0.00000E+00        -0.60947E+08
 
   -0.56279E+08        -0.16343E+07         0.00000E+00
   -0.16343E+07        -0.65715E+08         0.00000E+00
    0.00000E+00         0.00000E+00        -0.60956E+08
 
   -0.56207E+08        -0.14198E+07         0.00000E+00
   -0.14198E+07        -0.65820E+08         0.00000E+00
    0.00000E+00         0.00000E+00        -0.60972E+08
 
   -0.56156E+08        -0.11897E+07         0.00000E+00
   -0.11897E+07        -0.65922E+08         0.00000E+00
    0.00000E+00         0.00000E+00        -0.60997E+08
 
   -0.56128E+08        -0.94286E+06         0.00000E+00
   -0.94286E+06        -0.66019E+08         0.00000E+00
    0.00000E+00         0.00000E+00        -0.61031E+08
 
   -0.56129E+08        -0.67824E+06         0.00000E+00
   -0.67824E+06        -0.66111E+08         0.00000E+00
    0.00000E+00         0.00000E+00        -0.61075E+08
 
   -0.56161E+08        -0.39470E+06         0.00000E+00
   -0.39470E+06        -0.66196E+08         0.00000E+00
    0.00000E+00         0.00000E+00        -0.61132E+08
 
   -0.56231E+08        -0.91280E+05         0.00000E+00
   -0.91280E+05        -0.66273E+08         0.00000E+00
    0.00000E+00         0.00000E+00        -0.61202E+08
 
   -0.56345E+08         0.23273E+06         0.00000E+00
    0.23273E+06        -0.66338E+08         0.00000E+00
    0.00000E+00         0.00000E+00        -0.61286E+08
 
   -0.56508E+08         0.57757E+06         0.00000E+00
    0.57757E+06        -0.66389E+08         0.00000E+00
    0.00000E+00         0.00000E+00        -0.61385E+08
 
   -0.56729E+08         0.94278E+06         0.00000E+00
    0.94278E+06        -0.66420E+08         0.00000E+00
    0.00000E+00         0.00000E+00        -0.61500E+08
 
   -0.57015E+08         0.13269E+07         0.00000E+00
    0.13269E+07        -0.66427E+08         0.00000E+00
    0.00000E+00         0.00000E+00        -0.61630E+08
 
   -0.57376E+08         0.17267E+07         0.00000E+00
    0.17267E+07        -0.66402E+08         0.00000E+00
    0.00000E+00         0.00000E+00        -0.61774E+08
 
   -0.57818E+08         0.21374E+07         0.00000E+00
    0.21374E+07        -0.66339E+08         0.00000E+00
    0.00000E+00         0.00000E+00        -0.61931E+08
 
   -0.58349E+08         0.25510E+07         0.00000E+00
    0.25510E+07        -0.66230E+08         0.00000E+00
    0.00000E+00         0.00000E+00        -0.62095E+08
 
   -0.58973E+08         0.29567E+07         0.00000E+00
    0.29567E+07        -0.66066E+08         0.00000E+00
    0.00000E+00         0.00000E+00        -0.62263E+08
 
   -0.59690E+08         0.33405E+07         0.00000E+00
    0.33405E+07        -0.65842E+08         0.00000E+00
    0.00000E+00         0.00000E+00        -0.62424E+08
 
   -0.60492E+08         0.36862E+07         0.00000E+00
    0.36862E+07        -0.65553E+08         0.00000E+00
    0.00000E+00         0.00000E+00        -0.62569E+08
 
   -0.61367E+08         0.39768E+07         0.00000E+00
    0.39768E+07        -0.65198E+08         0.00000E+00
    0.00000E+00         0.00000E+00        -0.62682E+08
 
   -0.62293E+08         0.41957E+07         0.00000E+00
    0.41957E+07        -0.64781E+08         0.00000E+00
    0.00000E+00         0.00000E+00        -0.62747E+08
 
   -0.54157E+08        -0.13538E+05         0.00000E+00
   -0.13538E+05        -0.60001E+08         0.00000E+00
    0.00000E+00         0.00000E+00        -0.57942E+08
 
   -0.54798E+08        -0.99057E+05         0.00000E+00
   -0.99057E+05        -0.60017E+08         0.00000E+00
    0.00000E+00         0.00000E+00        -0.58050E+08
 
   -0.55489E+08        -0.26190E+06         0.00000E+00
   -0.26190E+06        -0.60061E+08         0.00000E+00
    0.00000E+00         0.00000E+00        -0.58241E+08
 
   -0.56176E+08        -0.49283E+06         0.00000E+00
   -0.49283E+06        -0.60146E+08         0.00000E+00
    0.00000E+00         0.00000E+00        -0.58489E+08
 
   -0.56821E+08        -0.77608E+06         0.00000E+00
   -0.77608E+06        -0.60277E+08         0.00000E+00
    0.00000E+00         0.00000E+00        -0.58770E+08
 
   -0.57394E+08        -0.10931E+07         0.00000E+00
   -0.10931E+07        -0.60455E+08         0.00000E+00
    0.00000E+00         0.00000E+00        -0.59064E+08
 
   -0.57879E+08        -0.14253E+07         0.00000E+00
   -0.14253E+07        -0.60676E+08         0.00000E+00
    0.00000E+00         0.00000E+00        -0.59357E+08
 
   -0.58268E+08        -0.17560E+07         0.00000E+00
   -0.17560E+07        -0.60934E+08         0.00000E+00
    0.00000E+00         0.00000E+00        -0.59636E+08
 
   -0.58563E+08        -0.20717E+07         0.00000E+00
   -0.20717E+07        -0.61221E+08         0.00000E+00
    0.00000E+00         0.00000E+00        -0.59894E+08
 
   -0.58768E+08        -0.23620E+07         0.00000E+00
   -0.23620E+07        -0.61527E+08         0.00000E+00
    0.00000E+00         0.00000E+00        -0.60127E+08
 
   -0.58891E+08        -0.26198E+07         0.00000E+00
   -0.26198E+07        -0.61844E+08         0.00000E+00
    0.00000E+00         0.00000E+00        -0.60331E+08
 
   -0.58944E+08        -0.28409E+07         0.00000E+00
   -0.28409E+07        -0.62165E+08         0.00000E+00
    0.00000E+00         0.00000E+00        -0.60506E+08
 
   -0.58936E+08        -0.30236E+07         0.00000E+00
   -0.30236E+07        -0.62481E+08         0.00000E+00
    0.00000E+00         0.00000E+00        -0.60654E+08
 
   -0.58879E+08        -0.31678E+07         0.00000E+00
   -0.31678E+07        -0.62789E+08         0.00000E+00
    0.00000E+00         0.00000E+00        -0.60774E+08
 
   -0.58782E+08        -0.32750E+07         0.00000E+00
   -0.32750E+07        -0.63084E+08         0.00000E+00
    0.00000E+00         0.00000E+00        -0.60870E+08
 
   -0.58654E+08        -0.33474E+07         0.00000E+00
   -0.33474E+07        -0.63363E+08         0.00000E+00
    0.00000E+00         0.00000E+00        -0.60944E+08
 
   -0.58504E+08        -0.33879E+07         0.00000E+00
   -0.33879E+07        -0.63624E+08         0.00000E+00
    0.00000E+00         0.00000E+00        -0.60998E+08
 
   -0.58336E+08        -0.33994E+07         0.00000E+00
   -0.33994E+07        -0.63867E+08         0.00000E+00
    0.00000E+00         0.00000E+00        -0.61035E+08
 
   -0.58158E+08        -0.33850E+07         0.00000E+00
   -0.33850E+07        -0.64091E+08         0.00000E+00
    0.00000E+00         0.00000E+00        -0.61058E+08
 
   -0.57973E+08        -0.33476E+07         0.00000E+00
   -0.33476E+07        -0.64298E+08         0.00000E+00
    0.00000E+00         0.00000E+00        -0.61069E+08
 
   -0.57785E+08        -0.32899E+07         0.00000E+00
   -0.32899E+07        -0.64487E+08         0.00000E+00
    0.00000E+00         0.00000E+00        -0.61070E+08
 
   -0.57597E+08        -0.32143E+07         0.00000E+00
   -0.32143E+07        -0.64661E+08         0.00000E+00
    0.00000E+00         0.00000E+00        -0.61064E+08
 
   -0.57411E+08        -0.31227E+07         0.00000E+00
   -0.31227E+07        -0.64820E+08         0.00000E+00
    0.00000E+00         0.00000E+00        -0.61051E+08
 
   -0.57229E+08        -0.30169E+07         0.00000E+00
   -0.30169E+07        -0.64967E+08         0.00000E+00
    0.00000E+00         0.00000E+00        -0.61033E+08
 
   -0.57053E+08        -0.28979E+07         0.00000E+00
   -0.28979E+07        -0.65103E+08         0.00000E+00
    0.00000E+00         0.00000E+00        -0.61013E+08
 
   -0.56883E+08        -0.27669E+07         0.00000E+00
   -0.27669E+07        -0.65229E+08         0.00000E+00
    0.00000E+00         0.00000E+00        -0.60992E+08
 
   -0.56721E+08        -0.26243E+07         0.00000E+00
   -0.26243E+07        -0.65347E+08         0.00000E+00
    0.00000E+00         0.00000E+00        -0.60970E+08
 
   -0.56568E+08        -0.24704E+07         0.00000E+00
   -0.24704E+07        -0.65458E+08         0.00000E+00
    0.00000E+00         0.00000E+00        -0.60950E+08
 
   -0.56425E+08        -0.23051E+07         0.00000E+00
   -0.23051E+07        -0.65565E+08         0.00000E+00
    0.00000E+00         0.00000E+00        -0.60932E+08
 
   -0.56293E+08        -0.21281E+07         0.00000E+00
   -0.21281E+07        -0.65667E+08         0.00000E+00
    0.00000E+00         0.00000E+00        -0.60917E+08
 
   -0.56175E+08        -0.19386E+07         0.00000E+00
   -0.19386E+07        -0.65766E+08         0.00000E+00
    0.00000E+00         0.00000E+00        -0.60908E+08
 
   -0.56071E+08        -0.17357E+07         0.00000E+00
   -0.17357E+07        -0.65863E+08         0.00000E+00
    0.00000E+00         0.00000E+00        -0.60904E+08
 
   -0.55984E+08        -0.15184E+07         0.00000E+00
   -0.15184E+07        -0.65957E+08         0.00000E+00
    0.00000E+00         0.00000E+00        -0.60908E+08
 
   -0.55916E+08        -0.12854E+07         0.00000E+00
   -0.12854E+07        -0.66050E+08         0.00000E+00
    0.00000E+00         0.00000E+00        -0.60920E+08
 
   -0.55871E+08        -0.10350E+07         0.00000E+00
   -0.10350E+07        -0.66140E+08         0.00000E+00
    0.00000E+00         0.00000E+00        -0.60941E+08
 
   -0.55852E+08        -0.76568E+06         0.00000E+00
   -0.76568E+06        -0.66227E+08         0.00000E+00
    0.00000E+00         0.00000E+00        -0.60974E+08
 
   -0.55864E+08        -0.47582E+06         0.00000E+00
   -0.47582E+06        -0.66310E+08         0.00000E+00
    0.00000E+00         0.00000E+00        -0.61019E+08
 
   -0.55913E+08        -0.16374E+06         0.00000E+00
   -0.16374E+06        -0.66387E+08         0.00000E+00
    0.00000E+00         0.00000E+00        -0.61078E+08
 
   -0.56003E+08         0.17204E+06         0.00000E+00
    0.17204E+06        -0.66454E+08         0.00000E+00
    0.00000E+00         0.00000E+00        -0.61152E+08
 
   -0.56144E+08         0.53268E+06         0.00000E+00
    0.53268E+06        -0.66509E+08         0.00000E+00
    0.00000E+00         0.00000E+00        -0.61241E+08
 
   -0.56342E+08         0.91877E+06         0.00000E+00
    0.91877E+06        -0.66547E+08         0.00000E+00
    0.00000E+00         0.00000E+00        -0.61347E+08
 
   -0.56608E+08         0.13300E+07         0.00000E+00
    0.13300E+07        -0.66562E+08         0.00000E+00
    0.00000E+00         0.00000E+00        -0.61469E+08
 
   -0.56950E+08         0.17645E+07         0.00000E+00
    0.17645E+07        -0.66546E+08         0.00000E+00
    0.00000E+00         0.00000E+00        -0.61607E+08
 
   -0.57381E+08         0.22182E+07         0.00000E+00
    0.22182E+07        -0.66491E+08         0.00000E+00
    0.00000E+00         0.00000E+00        -0.61759E+08
 
   -0.57910E+08         0.26841E+07         0.00000E+00
    0.26841E+07        -0.66388E+08         0.00000E+00
    0.00000E+00         0.00000E+00        -0.61921E+08
 
   -0.58544E+08         0.31508E+07         0.00000E+00
    0.31508E+07        -0.66225E+08         0.00000E+00
    0.00000E+00         0.00000E+00        -0.62088E+08
 
   -0.59288E+08         0.36023E+07         0.00000E+00
    0.36023E+07        -0.65994E+08         0.00000E+00
    0.00000E+00         0.00000E+00        -0.62251E+08
 
   -0.60136E+08         0.40191E+07         0.00000E+00
    0.40191E+07        -0.65689E+08         0.00000E+00
    0.00000E+00         0.00000E+00        -0.62399E+08
 
   -0.61076E+08         0.43802E+07         0.00000E+00
    0.43802E+07        -0.65307E+08         0.00000E+00
    0.00000E+00         0.00000E+00        -0.62515E+08
 
   -0.62084E+08         0.46657E+07         0.00000E+00
    0.46657E+07        -0.64851E+08         0.00000E+00
    0.00000E+00         0.00000E+00        -0.62583E+08
 
   -0.54211E+08        -0.18962E+05         0.00000E+00
   -0.18962E+05        -0.60002E+08         0.00000E+00
    0.00000E+00         0.00000E+00        -0.58082E+08
 
   -0.54940E+08        -0.12983E+06         0.00000E+00
   -0.12983E+06        -0.60023E+08         0.00000E+00
    0.00000E+00         0.00000E+00        -0.58201E+08
 
   -0.55710E+08        -0.33319E+06         0.00000E+00
   -0.33319E+06        -0.60082E+08         0.00000E+00
    0.00000E+00         0.00000E+00        -0.58411E+08
 
   -0.56461E+08        -0.61345E+06         0.00000E+00
   -0.61345E+06        -0.60191E+08         0.00000E+00
    0.00000E+00         0.00000E+00        -0.58680E+08
 
   -0.57149E+08        -0.94843E+06         0.00000E+00
   -0.94843E+06        -0.60355E+08         0.00000E+00
    0.00000E+00         0.00000E+00        -0.58981E+08
 
   -0.57744E+08        -0.13142E+07         0.00000E+00
   -0.13142E+07        -0.60573E+08         0.00000E+00
    0.00000E+00         0.00000E+00        -0.59293E+08
 
   -0.58231E+08        -0.16882E+07         0.00000E+00
   -0.16882E+07        -0.60838E+08         0.00000E+00
    0.00000E+00         0.00000E+00        -0.59598E+08
 
   -0.58607E+08        -0.20517E+07         0.00000E+00
   -0.20517E+07        -0.61140E+08         0.00000E+00
    0.00000E+00         0.00000E+00        -0.59886E+08
 
   -0.58876E+08        -0.23901E+07         0.00000E+00
   -0.23901E+07        -0.61469E+08         0.00000E+00
    0.00000E+00         0.00000E+00        -0.60147E+08
 
   -0.59047E+08        -0.26932E+07         0.00000E+00
   -0.26932E+07        -0.61814E+08         0.00000E+00
    0.00000E+00         0.00000E+00        -0.60378E+08
 
   -0.59131E+08        -0.29549E+07         0.00000E+00
   -0.29549E+07        -0.62163E+08         0.00000E+00
    0.00000E+00         0.00000E+00        -0.60577E+08
 
   -0.59142E+08        -0.31722E+07         0.00000E+00
   -0.31722E+07        -0.62509E+08         0.00000E+00
    0.00000E+00         0.00000E+00        -0.60743E+08
 
   -0.59093E+08        -0.33450E+07         0.00000E+00
   -0.33450E+07        -0.62845E+08         0.00000E+00
    0.00000E+00         0.00000E+00        -0.60879E+08
 
   -0.58996E+08        -0.34748E+07         0.00000E+00
   -0.34748E+07        -0.63165E+08         0.00000E+00
    0.00000E+00         0.00000E+00        -0.60985E+08
 
   -0.58862E+08        -0.35644E+07         0.00000E+00
   -0.35644E+07        -0.63466E+08         0.00000E+00
    0.00000E+00         0.00000E+00        -0.61065E+08
 
   -0.58700E+08        -0.36172E+07         0.00000E+00
   -0.36172E+07        -0.63745E+08         0.00000E+00
    0.00000E+00         0.00000E+00        -0.61122E+08
 
   -0.58519E+08        -0.36372E+07         0.00000E+00
   -0.36372E+07        -0.64002E+08         0.00000E+00
    0.00000E+00         0.00000E+00        -0.61159E+08
 
   -0.58324E+08        -0.36282E+07         0.00000E+00
   -0.36282E+07        -0.64235E+08         0.00000E+00
    0.00000E+00         0.00000E+00        -0.61179E+08
 
   -0.58122E+08        -0.35939E+07         0.00000E+00
   -0.35939E+07        -0.64447E+08         0.00000E+00
    0.00000E+00         0.00000E+00        -0.61184E+08
 
   -0.57916E+08        -0.35377E+07         0.00000E+00
   -0.35377E+07        -0.64638E+08         0.00000E+00
    0.00000E+00         0.00000E+00        -0.61177E+08
 
   -0.57710E+08        -0.34626E+07         0.00000E+00
   -0.34626E+07        -0.64810E+08         0.00000E+00
    0.00000E+00         0.00000E+00        -0.61160E+08
 
   -0.57506E+08        -0.33712E+07         0.00000E+00
   -0.33712E+07        -0.64965E+08         0.00000E+00
    0.00000E+00         0.00000E+00        -0.61136E+08
 
   -0.57306E+08        -0.32656E+07         0.00000E+00
   -0.32656E+07        -0.65104E+08         0.00000E+00
    0.00000E+00         0.00000E+00        -0.61106E+08
 
   -0.57111E+08        -0.31476E+07         0.00000E+00
   -0.31476E+07        -0.65230E+08         0.00000E+00
    0.00000E+00         0.00000E+00        -0.61072E+08
 
   -0.56923E+08        -0.30183E+07         0.00000E+00
   -0.30183E+07        -0.65344E+08         0.00000E+00
    0.00000E+00         0.00000E+00        -0.61036E+08
 
   -0.56742E+08        -0.28787E+07         0.00000E+00
   -0.28787E+07        -0.65449E+08         0.00000E+00
    0.00000E+00         0.00000E+00        -0.60999E+08
 
   -0.56570E+08        -0.27291E+07         0.00000E+00
   -0.27291E+07        -0.65547E+08         0.00000E+00
    0.00000E+00         0.00000E+00        -0.60962E+08
 
   -0.56406E+08        -0.25698E+07         0.00000E+00
   -0.25698E+07        -0.65639E+08         0.00000E+00
    0.00000E+00         0.00000E+00        -0.60926E+08
 
   -0.56252E+08        -0.24004E+07         0.00000E+00
   -0.24004E+07        -0.65726E+08         0.00000E+00
    0.00000E+00         0.00000E+00        -0.60893E+08
 
   -0.56109E+08        -0.22203E+07         0.00000E+00
   -0.22203E+07        -0.65811E+08         0.00000E+00
    0.00000E+00         0.00000E+00        -0.60864E+08
 
   -0.55978E+08        -0.20288E+07         0.00000E+00
   -0.20288E+07        -0.65893E+08         0.00000E+00
    0.00000E+00         0.00000E+00        -0.60841E+08
 
   -0.55860E+08        -0.18245E+07         0.00000E+00
   -0.18245E+07        -0.65975E+08         0.00000E+00
    0.00000E+00         0.00000E+00        -0.60823E+08
 
   -0.55758E+08        -0.16062E+07         0.00000E+00
   -0.16062E+07        -0.66056E+08         0.00000E+00
    0.00000E+00         0.00000E+00        -0.60812E+08
 
   -0.55674E+08        -0.13720E+07         0.00000E+00
   -0.13720E+07        -0.66138E+08         0.00000E+00
    0.00000E+00         0.00000E+00        -0.60811E+08
 
   -0.55610E+08        -0.11201E+07         0.00000E+00
   -0.11201E+07        -0.66219E+08         0.00000E+00
    0.00000E+00         0.00000E+00        -0.60819E+08
 
   -0.55571E+08        -0.84842E+06         0.00000E+00
   -0.84842E+06        -0.66299E+08         0.00000E+00
    0.00000E+00         0.00000E+00        -0.60838E+08
 
   -0.55561E+08        -0.55460E+06         0.00000E+00
   -0.55460E+06        -0.66377E+08         0.00000E+00
    0.00000E+00         0.00000E+00        -0.60869E+08
 
   -0.55585E+08        -0.23635E+06         0.00000E+00
   -0.23635E+06        -0.66452E+08         0.00000E+00
    0.00000E+00         0.00000E+00        -0.60915E+08
 
   -0.55650E+08         0.10868E+06         0.00000E+00
    0.10868E+06        -0.66520E+08         0.00000E+00
    0.00000E+00         0.00000E+00        -0.60976E+08
 
   -0.55762E+08         0.48263E+06         0.00000E+00
    0.48263E+06        -0.66578E+08         0.00000E+00
    0.00000E+00         0.00000E+00        -0.61053E+08
 
   -0.55932E+08         0.88732E+06         0.00000E+00
    0.88732E+06        -0.66622E+08         0.00000E+00
    0.00000E+00         0.00000E+00        -0.61147E+08
 
   -0.56170E+08         0.13238E+07         0.00000E+00
    0.13238E+07        -0.66645E+08         0.00000E+00
    0.00000E+00         0.00000E+00        -0.61258E+08
 
   -0.56486E+08         0.17920E+07         0.00000E+00
    0.17920E+07        -0.66640E+08         0.00000E+00
    0.00000E+00         0.00000E+00        -0.61386E+08
 
   -0.56895E+08         0.22897E+07         0.00000E+00
    0.22897E+07        -0.66597E+08         0.00000E+00
    0.00000E+00         0.00000E+00        -0.61530E+08
 
   -0.57411E+08         0.28111E+07         0.00000E+00
    0.28111E+07        -0.66503E+08         0.00000E+00
    0.00000E+00         0.00000E+00        -0.61687E+08
 
   -0.58046E+08         0.33452E+07         0.00000E+00
    0.33452E+07        -0.66346E+08         0.00000E+00
    0.00000E+00         0.00000E+00        -0.61851E+08
 
   -0.58811E+08         0.38743E+07         0.00000E+00
    0.38743E+07        -0.66112E+08         0.00000E+00
    0.00000E+00         0.00000E+00        -0.62014E+08
 
   -0.59703E+08         0.43741E+07         0.00000E+00
    0.43741E+07        -0.65791E+08         0.00000E+00
    0.00000E+00         0.00000E+00        -0.62163E+08
 
   -0.60710E+08         0.48178E+07         0.00000E+00
    0.48178E+07        -0.65380E+08         0.00000E+00
    0.00000E+00         0.00000E+00        -0.62283E+08
 
   -0.61806E+08         0.51810E+07         0.00000E+00
    0.51810E+07        -0.64883E+08         0.00000E+00
    0.00000E+00         0.00000E+00        -0.62352E+08
 
   -0.54284E+08        -0.26816E+05         0.00000E+00
   -0.26816E+05        -0.60003E+08         0.00000E+00
    0.00000E+00         0.00000E+00        -0.58251E+08
 
   -0.55120E+08        -0.17186E+06         0.00000E+00
   -0.17186E+06        -0.60033E+08         0.00000E+00
    0.00000E+00         0.00000E+00        -0.58383E+08
 
   -0.55983E+08        -0.42701E+06         0.00000E+00
   -0.42701E+06        -0.60112E+08         0.00000E+00
    0.00000E+00         0.00000E+00        -0.58612E+08
 
   -0.56803E+08        -0.76748E+06         0.00000E+00
   -0.76748E+06        -0.60253E+08         0.00000E+00
    0.00000E+00         0.00000E+00        -0.58902E+08
 
   -0.57531E+08        -0.11627E+07         0.00000E+00
   -0.11627E+07        -0.60460E+08         0.00000E+00
    0.00000E+00         0.00000E+00        -0.59222E+08
 
   -0.58141E+08        -0.15822E+07         0.00000E+00
   -0.15822E+07        -0.60727E+08         0.00000E+00
    0.00000E+00         0.00000E+00        -0.59549E+08
 
   -0.58621E+08        -0.19996E+07         0.00000E+00
   -0.19996E+07        -0.61044E+08         0.00000E+00
    0.00000E+00         0.00000E+00        -0.59865E+08
 
   -0.58972E+08        -0.23940E+07         0.00000E+00
   -0.23940E+07        -0.61397E+08         0.00000E+00
    0.00000E+00         0.00000E+00        -0.60156E+08
 
   -0.59204E+08        -0.27507E+07         0.00000E+00
   -0.27507E+07        -0.61772E+08         0.00000E+00
    0.00000E+00         0.00000E+00        -0.60417E+08
 
   -0.59330E+08        -0.30604E+07         0.00000E+00
   -0.30604E+07        -0.62156E+08         0.00000E+00
    0.00000E+00         0.00000E+00        -0.60642E+08
 
   -0.59367E+08        -0.33187E+07         0.00000E+00
   -0.33187E+07        -0.62538E+08         0.00000E+00
    0.00000E+00         0.00000E+00        -0.60831E+08
 
   -0.59330E+08        -0.35246E+07         0.00000E+00
   -0.35246E+07        -0.62907E+08         0.00000E+00
    0.00000E+00         0.00000E+00        -0.60983E+08
 
   -0.59234E+08        -0.36800E+07         0.00000E+00
   -0.36800E+07        -0.63258E+08         0.00000E+00
    0.00000E+00         0.00000E+00        -0.61102E+08
 
   -0.59094E+08        -0.37882E+07         0.00000E+00
   -0.37882E+07        -0.63585E+08         0.00000E+00
    0.00000E+00         0.00000E+00        -0.61190E+08
 
   -0.58920E+08        -0.38538E+07         0.00000E+00
   -0.38538E+07        -0.63886E+08         0.00000E+00
    0.00000E+00         0.00000E+00        -0.61251E+08
 
   -0.58724E+08        -0.38814E+07         0.00000E+00
   -0.38814E+07        -0.64159E+08         0.00000E+00
    0.00000E+00         0.00000E+00        -0.61288E+08
 
   -0.58511E+08        -0.38762E+07         0.00000E+00
   -0.38762E+07        -0.64404E+08         0.00000E+00
    0.00000E+00         0.00000E+00        -0.61304E+08
 
   -0.58290E+08        -0.38428E+07         0.00000E+00
   -0.38428E+07        -0.64622E+08         0.00000E+00
    0.00000E+00         0.00000E+00        -0.61302E+08
 
   -0.58065E+08        -0.37855E+07         0.00000E+00
   -0.37855E+07        -0.64814E+08         0.00000E+00
    0.00000E+00         0.00000E+00        -0.61287E+08
 
   -0.57840E+08        -0.37081E+07         0.00000E+00
   -0.37081E+07        -0.64984E+08         0.00000E+00
    0.00000E+00         0.00000E+00        -0.61260E+08
 
   -0.57617E+08        -0.36138E+07         0.00000E+00
   -0.36138E+07        -0.65132E+08         0.00000E+00
    0.00000E+00         0.00000E+00        -0.61223E+08
 
   -0.57399E+08        -0.35055E+07         0.00000E+00
   -0.35055E+07        -0.65262E+08         0.00000E+00
    0.00000E+00         0.00000E+00        -0.61180E+08
 
   -0.57187E+08        -0.33853E+07         0.00000E+00
   -0.33853E+07        -0.65376E+08         0.00000E+00
    0.00000E+00         0.00000E+00        -0.61132E+08
 
   -0.56982E+08        -0.32549E+07         0.00000E+00
   -0.32549E+07        -0.65476E+08         0.00000E+00
    0.00000E+00         0.00000E+00        -0.61080E+08
 
   -0.56784E+08        -0.31154E+07         0.00000E+00
   -0.31154E+07        -0.65564E+08         0.00000E+00
    0.00000E+00         0.00000E+00        -0.61026E+08
 
   -0.56594E+08        -0.29676E+07         0.00000E+00
   -0.29676E+07        -0.65644E+08         0.00000E+00
    0.00000E+00         0.00000E+00        -0.60972E+08
 
   -0.56412E+08        -0.28117E+07         0.00000E+00
   -0.28117E+07        -0.65717E+08         0.00000E+00
    0.00000E+00         0.00000E+00        -0.60919E+08
 
   -0.56240E+08        -0.26479E+07         0.00000E+00
   -0.26479E+07        -0.65786E+08         0.00000E+00
    0.00000E+00         0.00000E+00        -0.60867E+08
 
   -0.56076E+08        -0.24755E+07         0.00000E+00
   -0.24755E+07        -0.65850E+08         0.00000E+00
    0.00000E+00         0.00000E+00        -0.60819E+08
 
   -0.55923E+08        -0.22938E+07         0.00000E+00
   -0.22938E+07        -0.65914E+08         0.00000E+00
    0.00000E+00         0.00000E+00        -0.60774E+08
 
   -0.55780E+08        -0.21017E+07         0.00000E+00
   -0.21017E+07        -0.65977E+08         0.00000E+00
    0.00000E+00         0.00000E+00        -0.60735E+08
 
   -0.55650E+08        -0.18977E+07         0.00000E+00
   -0.18977E+07        -0.66041E+08         0.00000E+00
    0.00000E+00         0.00000E+00        -0.60702E+08
 
   -0.55533E+08        -0.16802E+07         0.00000E+00
   -0.16802E+07        -0.66106E+08         0.00000E+00
    0.00000E+00         0.00000E+00        -0.60677E+08
 
   -0.55432E+08        -0.14470E+07         0.00000E+00
   -0.14470E+07        -0.66173E+08         0.00000E+00
    0.00000E+00         0.00000E+00        -0.60660E+08
 
   -0.55349E+08        -0.11958E+07         0.00000E+00
   -0.11958E+07        -0.66242E+08         0.00000E+00
    0.00000E+00         0.00000E+00        -0.60652E+08
 
   -0.55288E+08        -0.92411E+06         0.00000E+00
   -0.92411E+06        -0.66313E+08         0.00000E+00
    0.00000E+00         0.00000E+00        -0.60656E+08
 
   -0.55254E+08        -0.62892E+06         0.00000E+00
   -0.62892E+06        -0.66384E+08         0.00000E+00
    0.00000E+00         0.00000E+00        -0.60673E+08
 
   -0.55251E+08        -0.30724E+06         0.00000E+00
   -0.30724E+06        -0.66454E+08         0.00000E+00
    0.00000E+00         0.00000E+00        -0.60703E+08
 
   -0.55286E+08         0.44149E+05         0.00000E+00
    0.44149E+05        -0.66521E+08         0.00000E+00
    0.00000E+00         0.00000E+00        -0.60748E+08
 
   -0.55367E+08         0.42847E+06         0.00000E+00
    0.42847E+06        -0.66582E+08         0.00000E+00
    0.00000E+00         0.00000E+00        -0.60810E+08
 
   -0.55502E+08         0.84881E+06         0.00000E+00
    0.84881E+06        -0.66630E+08         0.00000E+00
    0.00000E+00         0.00000E+00        -0.60889E+08
 
   -0.55704E+08         0.13079E+07         0.00000E+00
    0.13079E+07        -0.66662E+08         0.00000E+00
    0.00000E+00         0.00000E+00        -0.60986E+08
 
   -0.55984E+08         0.18075E+07         0.00000E+00
    0.18075E+07        -0.66668E+08         0.00000E+00
    0.00000E+00         0.00000E+00        -0.61101E+08
 
   -0.56360E+08         0.23481E+07         0.00000E+00
    0.23481E+07        -0.66638E+08         0.00000E+00
    0.00000E+00         0.00000E+00        -0.61233E+08
 
   -0.56848E+08         0.29267E+07         0.00000E+00
    0.29267E+07        -0.66559E+08         0.00000E+00
    0.00000E+00         0.00000E+00        -0.61380E+08
 
   -0.57471E+08         0.35344E+07         0.00000E+00
    0.35344E+07        -0.66414E+08         0.00000E+00
    0.00000E+00         0.00000E+00        -0.61538E+08
 
   -0.58246E+08         0.41525E+07         0.00000E+00
    0.41525E+07        -0.66183E+08         0.00000E+00
    0.00000E+00         0.00000E+00        -0.61698E+08
 
   -0.59179E+08         0.47504E+07         0.00000E+00
    0.47504E+07        -0.65851E+08         0.00000E+00
    0.00000E+00         0.00000E+00        -0.61849E+08
 
   -0.60257E+08         0.52916E+07         0.00000E+00
    0.52916E+07        -0.65411E+08         0.00000E+00
    0.00000E+00         0.00000E+00        -0.61973E+08
 
   -0.61447E+08         0.57450E+07         0.00000E+00
    0.57450E+07        -0.64870E+08         0.00000E+00
    0.00000E+00         0.00000E+00        -0.62045E+08
 
   -0.54384E+08        -0.38571E+05         0.00000E+00
   -0.38571E+05        -0.60006E+08         0.00000E+00
    0.00000E+00         0.00000E+00        -0.58453E+08
 
   -0.55351E+08        -0.23022E+06         0.00000E+00
   -0.23022E+06        -0.60048E+08         0.00000E+00
    0.00000E+00         0.00000E+00        -0.58597E+08
 
   -0.56320E+08        -0.55168E+06         0.00000E+00
   -0.55168E+06        -0.60154E+08         0.00000E+00
    0.00000E+00         0.00000E+00        -0.58846E+08
 
   -0.57210E+08        -0.96513E+06         0.00000E+00
   -0.96513E+06        -0.60338E+08         0.00000E+00
    0.00000E+00         0.00000E+00        -0.59155E+08
 
   -0.57974E+08        -0.14293E+07         0.00000E+00
   -0.14293E+07        -0.60599E+08         0.00000E+00
    0.00000E+00         0.00000E+00        -0.59492E+08
 
   -0.58588E+08        -0.19066E+07         0.00000E+00
   -0.19066E+07        -0.60926E+08         0.00000E+00
    0.00000E+00         0.00000E+00        -0.59830E+08
 
   -0.59046E+08        -0.23667E+07         0.00000E+00
   -0.23667E+07        -0.61303E+08         0.00000E+00
    0.00000E+00         0.00000E+00        -0.60151E+08
 
   -0.59359E+08        -0.27875E+07         0.00000E+00
   -0.27875E+07        -0.61712E+08         0.00000E+00
    0.00000E+00         0.00000E+00        -0.60441E+08
 
   -0.59540E+08        -0.31553E+07         0.00000E+00
   -0.31553E+07        -0.62136E+08         0.00000E+00
    0.00000E+00         0.00000E+00        -0.60694E+08
 
   -0.59611E+08        -0.34628E+07         0.00000E+00
   -0.34628E+07        -0.62560E+08         0.00000E+00
    0.00000E+00         0.00000E+00        -0.60907E+08
 
   -0.59591E+08        -0.37083E+07         0.00000E+00
   -0.37083E+07        -0.62970E+08         0.00000E+00
    0.00000E+00         0.00000E+00        -0.61079E+08
 
   -0.59498E+08        -0.38934E+07         0.00000E+00
   -0.38934E+07        -0.63357E+08         0.00000E+00
    0.00000E+00         0.00000E+00        -0.61212E+08
 
   -0.59352E+08        -0.40225E+07         0.00000E+00
   -0.40225E+07        -0.63716E+08         0.00000E+00
    0.00000E+00         0.00000E+00        -0.61310E+08
 
   -0.59165E+08        -0.41012E+07         0.00000E+00
   -0.41012E+07        -0.64043E+08         0.00000E+00
    0.00000E+00         0.00000E+00        -0.61375E+08
 
   -0.58951E+08        -0.41358E+07         0.00000E+00
   -0.41358E+07        -0.64335E+08         0.00000E+00
    0.00000E+00         0.00000E+00        -0.61411E+08
 
   -0.58719E+08        -0.41325E+07         0.00000E+00
   -0.41325E+07        -0.64593E+08         0.00000E+00
    0.00000E+00         0.00000E+00        -0.61424E+08
 
   -0.58477E+08        -0.40974E+07         0.00000E+00
   -0.40974E+07        -0.64819E+08         0.00000E+00
    0.00000E+00         0.00000E+00        -0.61416E+08
 
   -0.58231E+08        -0.40359E+07         0.00000E+00
   -0.40359E+07        -0.65013E+08         0.00000E+00
    0.00000E+00         0.00000E+00        -0.61391E+08
 
   -0.57985E+08        -0.39528E+07         0.00000E+00
   -0.39528E+07        -0.65179E+08         0.00000E+00
    0.00000E+00         0.00000E+00        -0.61352E+08
 
   -0.57743E+08        -0.38523E+07         0.00000E+00
   -0.38523E+07        -0.65319E+08         0.00000E+00
    0.00000E+00         0.00000E+00        -0.61303E+08
 
   -0.57506E+08        -0.37376E+07         0.00000E+00
   -0.37376E+07        -0.65437E+08         0.00000E+00
    0.00000E+00         0.00000E+00        -0.61245E+08
 
   -0.57277E+08        -0.36117E+07         0.00000E+00
   -0.36117E+07        -0.65536E+08         0.00000E+00
    0.00000E+00         0.00000E+00        -0.61181E+08
 
   -0.57055E+08        -0.34766E+07         0.00000E+00
   -0.34766E+07        -0.65619E+08         0.00000E+00
    0.00000E+00         0.00000E+00        -0.61113E+08
 
   -0.56841E+08        -0.33339E+07         0.00000E+00
   -0.33339E+07        -0.65688E+08         0.00000E+00
    0.00000E+00         0.00000E+00        -0.61042E+08
 
   -0.56636E+08        -0.31847E+07         0.00000E+00
   -0.31847E+07        -0.65746E+08         0.00000E+00
    0.00000E+00         0.00000E+00        -0.60970E+08
 
   -0.56439E+08        -0.30295E+07         0.00000E+00
   -0.30295E+07        -0.65797E+08         0.00000E+00
    0.00000E+00         0.00000E+00        -0.60898E+08
 
   -0.56250E+08        -0.28684E+07         0.00000E+00
   -0.28684E+07        -0.65841E+08         0.00000E+00
    0.00000E+00         0.00000E+00        -0.60827E+08
 
   -0.56070E+08        -0.27011E+07         0.00000E+00
   -0.27011E+07        -0.65882E+08         0.00000E+00
    0.00000E+00         0.00000E+00        -0.60758E+08
 
   -0.55899E+08        -0.25271E+07         0.00000E+00
   -0.25271E+07        -0.65921E+08         0.00000E+00
    0.00000E+00         0.00000E+00        -0.60693E+08
 
   -0.55736E+08        -0.23452E+07         0.00000E+00
   -0.23452E+07        -0.65960E+08         0.00000E+00
    0.00000E+00         0.00000E+00        -0.60632E+08
 
   -0.55583E+08        -0.21542E+07         0.00000E+00
   -0.21542E+07        -0.66000E+08         0.00000E+00
    0.00000E+00         0.00000E+00        -0.60577E+08
 
   -0.55440E+08        -0.19524E+07         0.00000E+00
   -0.19524E+07        -0.66043E+08         0.00000E+00
    0.00000E+00         0.00000E+00        -0.60528E+08
 
   -0.55309E+08        -0.17376E+07         0.00000E+00
   -0.17376E+07        -0.66090E+08         0.00000E+00
    0.00000E+00         0.00000E+00        -0.60486E+08
 
   -0.55191E+08        -0.15076E+07         0.00000E+00
   -0.15076E+07        -0.66140E+08         0.00000E+00
    0.00000E+00         0.00000E+00        -0.60452E+08
 
   -0.55089E+08        -0.12595E+07         0.00000E+00
   -0.12595E+07        -0.66194E+08         0.00000E+00
    0.00000E+00         0.00000E+00        -0.60429E+08
 
   -0.55006E+08        -0.99022E+06         0.00000E+00
   -0.99022E+06        -0.66253E+08         0.00000E+00
    0.00000E+00         0.00000E+00        -0.60416E+08
 
   -0.54946E+08        -0.69640E+06         0.00000E+00
   -0.69640E+06        -0.66315E+08         0.00000E+00
    0.00000E+00         0.00000E+00        -0.60415E+08
 
   -0.54914E+08        -0.37422E+06         0.00000E+00
   -0.37422E+06        -0.66378E+08         0.00000E+00
    0.00000E+00         0.00000E+00        -0.60427E+08
 
   -0.54916E+08        -0.19607E+05         0.00000E+00
   -0.19607E+05        -0.66442E+08         0.00000E+00
    0.00000E+00         0.00000E+00        -0.60455E+08
 
   -0.54960E+08         0.37175E+06         0.00000E+00
    0.37175E+06        -0.66502E+08         0.00000E+00
    0.00000E+00         0.00000E+00        -0.60499E+08
 
   -0.55055E+08         0.80426E+06         0.00000E+00
    0.80426E+06        -0.66554E+08         0.00000E+00
    0.00000E+00         0.00000E+00        -0.60559E+08
 
   -0.55213E+08         0.12823E+07         0.00000E+00
    0.12823E+07        -0.66593E+08         0.00000E+00
    0.00000E+00         0.00000E+00        -0.60638E+08
 
   -0.55447E+08         0.18099E+07         0.00000E+00
    0.18099E+07        -0.66610E+08         0.00000E+00
    0.00000E+00         0.00000E+00        -0.60735E+08
 
   -0.55776E+08         0.23902E+07         0.00000E+00
    0.23902E+07        -0.66596E+08         0.00000E+00
    0.00000E+00         0.00000E+00        -0.60851E+08
 
   -0.56221E+08         0.30246E+07         0.00000E+00
    0.30246E+07        -0.66536E+08         0.00000E+00
    0.00000E+00         0.00000E+00        -0.60984E+08
 
   -0.56810E+08         0.37093E+07         0.00000E+00
    0.37093E+07        -0.66411E+08         0.00000E+00
    0.00000E+00         0.00000E+00        -0.61133E+08
 
   -0.57577E+08         0.44285E+07         0.00000E+00
    0.44285E+07        -0.66195E+08         0.00000E+00
    0.00000E+00         0.00000E+00        -0.61289E+08
 
   -0.58544E+08         0.51450E+07         0.00000E+00
    0.51450E+07        -0.65860E+08         0.00000E+00
    0.00000E+00         0.00000E+00        -0.61443E+08
 
   -0.59701E+08         0.58042E+07         0.00000E+00
    0.58042E+07        -0.65393E+08         0.00000E+00
    0.00000E+00         0.00000E+00        -0.61572E+08
 
   -0.60997E+08         0.63608E+07         0.00000E+00
    0.63608E+07        -0.64805E+08         0.00000E+00
    0.00000E+00         0.00000E+00        -0.61650E+08
 
   -0.54523E+08        -0.56481E+05         0.00000E+00
   -0.56481E+05        -0.60010E+08         0.00000E+00
    0.00000E+00         0.00000E+00        -0.58689E+08
 
   -0.55650E+08        -0.31205E+06         0.00000E+00
   -0.31205E+06        -0.60069E+08         0.00000E+00
    0.00000E+00         0.00000E+00        -0.58846E+08
 
   -0.56736E+08        -0.71802E+06         0.00000E+00
   -0.71802E+06        -0.60214E+08         0.00000E+00
    0.00000E+00         0.00000E+00        -0.59111E+08
 
   -0.57696E+08        -0.12188E+07         0.00000E+00
   -0.12188E+07        -0.60454E+08         0.00000E+00
    0.00000E+00         0.00000E+00        -0.59437E+08
 
   -0.58484E+08        -0.17602E+07         0.00000E+00
   -0.17602E+07        -0.60782E+08         0.00000E+00
    0.00000E+00         0.00000E+00        -0.59785E+08
 
   -0.59085E+08        -0.22970E+07         0.00000E+00
   -0.22970E+07        -0.61179E+08         0.00000E+00
    0.00000E+00         0.00000E+00        -0.60127E+08
 
   -0.59504E+08        -0.27958E+07         0.00000E+00
   -0.27958E+07        -0.61624E+08         0.00000E+00
    0.00000E+00         0.00000E+00        -0.60444E+08
 
   -0.59759E+08        -0.32351E+07         0.00000E+00
   -0.32351E+07        -0.62093E+08         0.00000E+00
    0.00000E+00         0.00000E+00        -0.60725E+08
 
   -0.59875E+08        -0.36034E+07         0.00000E+00
   -0.36034E+07        -0.62565E+08         0.00000E+00
    0.00000E+00         0.00000E+00        -0.60963E+08
 
   -0.59878E+08        -0.38970E+07         0.00000E+00
   -0.38970E+07        -0.63023E+08         0.00000E+00
    0.00000E+00         0.00000E+00        -0.61155E+08
 
   -0.59791E+08        -0.41177E+07         0.00000E+00
   -0.41177E+07        -0.63456E+08         0.00000E+00
    0.00000E+00         0.00000E+00        -0.61304E+08
 
   -0.59638E+08        -0.42709E+07         0.00000E+00
   -0.42709E+07        -0.63853E+08         0.00000E+00
    0.00000E+00         0.00000E+00        -0.61411E+08
 
   -0.59436E+08        -0.43637E+07         0.00000E+00
   -0.43637E+07        -0.64210E+08         0.00000E+00
    0.00000E+00         0.00000E+00        -0.61480E+08
 
   -0.59202E+08        -0.44044E+07         0.00000E+00
   -0.44044E+07        -0.64526E+08         0.00000E+00
    0.00000E+00         0.00000E+00        -0.61516E+08
 
   -0.58947E+08        -0.44010E+07         0.00000E+00
   -0.44010E+07        -0.64799E+08         0.00000E+00
    0.00000E+00         0.00000E+00        -0.61524E+08
 
   -0.58681E+08        -0.43612E+07         0.00000E+00
   -0.43612E+07        -0.65032E+08         0.00000E+00
    0.00000E+00         0.00000E+00        -0.61508E+08
 
   -0.58412E+08        -0.42919E+07         0.00000E+00
   -0.42919E+07        -0.65228E+08         0.00000E+00
    0.00000E+00         0.00000E+00        -0.61473E+08
 
   -0.58143E+08        -0.41992E+07         0.00000E+00
   -0.41992E+07        -0.65389E+08         0.00000E+00
    0.00000E+00         0.00000E+00        -0.61421E+08
 
   -0.57880E+08        -0.40881E+07         0.00000E+00
   -0.40881E+07        -0.65519E+08         0.00000E+00
    0.00000E+00         0.00000E+00        -0.61357E+08
 
   -0.57624E+08        -0.39631E+07         0.00000E+00
   -0.39631E+07        -0.65623E+08         0.00000E+00
    0.00000E+00         0.00000E+00        -0.61283E+08
 
   -0.57376E+08        -0.38274E+07         0.00000E+00
   -0.38274E+07        -0.65704E+08         0.00000E+00
    0.00000E+00         0.00000E+00        -0.61202E+08
 
   -0.57138E+08        -0.36837E+07         0.00000E+00
   -0.36837E+07        -0.65765E+08         0.00000E+00
    0.00000E+00         0.00000E+00        -0.61116E+08
 
   -0.56909E+08        -0.35341E+07         0.00000E+00
   -0.35341E+07        -0.65811E+08         0.00000E+00
    0.00000E+00         0.00000E+00        -0.61027E+08
 
   -0.56690E+08        -0.33798E+07         0.00000E+00
   -0.33798E+07        -0.65844E+08         0.00000E+00
    0.00000E+00         0.00000E+00        -0.60935E+08
 
   -0.56480E+08        -0.32218E+07         0.00000E+00
   -0.32218E+07        -0.65868E+08         0.00000E+00
    0.00000E+00         0.00000E+00        -0.60844E+08
 
   -0.56278E+08        -0.30603E+07         0.00000E+00
   -0.30603E+07        -0.65884E+08         0.00000E+00
    0.00000E+00         0.00000E+00        -0.60754E+08
 
   -0.56085E+08        -0.28952E+07         0.00000E+00
   -0.28952E+07        -0.65896E+08         0.00000E+00
    0.00000E+00         0.00000E+00        -0.60665E+08
 
   -0.55899E+08        -0.27260E+07         0.00000E+00
   -0.27260E+07        -0.65906E+08         0.00000E+00
    0.00000E+00         0.00000E+00        -0.60579E+08
 
   -0.55722E+08        -0.25519E+07         0.00000E+00
   -0.25519E+07        -0.65916E+08         0.00000E+00
    0.00000E+00         0.00000E+00        -0.60496E+08
 
   -0.55551E+08        -0.23716E+07         0.00000E+00
   -0.23716E+07        -0.65928E+08         0.00000E+00
    0.00000E+00         0.00000E+00        -0.60419E+08
 
   -0.55389E+08        -0.21835E+07         0.00000E+00
   -0.21835E+07        -0.65942E+08         0.00000E+00
    0.00000E+00         0.00000E+00        -0.60346E+08
 
   -0.55234E+08        -0.19856E+07         0.00000E+00
   -0.19856E+07        -0.65961E+08         0.00000E+00
    0.00000E+00         0.00000E+00        -0.60280E+08
 
   -0.55090E+08        -0.17757E+07         0.00000E+00
   -0.17757E+07        -0.65986E+08         0.00000E+00
    0.00000E+00         0.00000E+00        -0.60221E+08
 
   -0.54955E+08        -0.15509E+07         0.00000E+00
   -0.15509E+07        -0.66016E+08         0.00000E+00
    0.00000E+00         0.00000E+00        -0.60170E+08
 
   -0.54834E+08        -0.13083E+07         0.00000E+00
   -0.13083E+07        -0.66054E+08         0.00000E+00
    0.00000E+00         0.00000E+00        -0.60128E+08
 
   -0.54728E+08        -0.10441E+07         0.00000E+00
   -0.10441E+07        -0.66097E+08         0.00000E+00
    0.00000E+00         0.00000E+00        -0.60097E+08
 
   -0.54641E+08        -0.75451E+06         0.00000E+00
   -0.75451E+06        -0.66147E+08         0.00000E+00
    0.00000E+00         0.00000E+00        -0.60077E+08
 
   -0.54577E+08        -0.43489E+06         0.00000E+00
   -0.43489E+06        -0.66202E+08         0.00000E+00
    0.00000E+00         0.00000E+00        -0.60070E+08
 
   -0.54543E+08        -0.80352E+05         0.00000E+00
   -0.80352E+05        -0.66259E+08         0.00000E+00
    0.00000E+00         0.00000E+00        -0.60078E+08
 
   -0.54546E+08         0.31449E+06         0.00000E+00
    0.31449E+06        -0.66317E+08         0.00000E+00
    0.00000E+00         0.00000E+00        -0.60101E+08
 
   -0.54595E+08         0.75537E+06         0.00000E+00
    0.75537E+06        -0.66370E+08         0.00000E+00
    0.00000E+00         0.00000E+00        -0.60140E+08
 
   -0.54701E+08         0.12482E+07         0.00000E+00
    0.12482E+07        -0.66414E+08         0.00000E+00
    0.00000E+00         0.00000E+00        -0.60197E+08
 
   -0.54879E+08         0.17992E+07         0.00000E+00
    0.17992E+07        -0.66442E+08         0.00000E+00
    0.00000E+00         0.00000E+00        -0.60272E+08
 
   -0.55147E+08         0.24142E+07         0.00000E+00
    0.24142E+07        -0.66443E+08         0.00000E+00
    0.00000E+00         0.00000E+00        -0.60367E+08
 
   -0.55529E+08         0.30989E+07         0.00000E+00
    0.30989E+07        -0.66404E+08         0.00000E+00
    0.00000E+00         0.00000E+00        -0.60482E+08
 
   -0.56060E+08         0.38574E+07         0.00000E+00
    0.38574E+07        -0.66309E+08         0.00000E+00
    0.00000E+00         0.00000E+00        -0.60616E+08
 
   -0.56789E+08         0.46855E+07         0.00000E+00
    0.46855E+07        -0.66126E+08         0.00000E+00
    0.00000E+00         0.00000E+00        -0.60767E+08
 
   -0.57773E+08         0.55466E+07         0.00000E+00
    0.55466E+07        -0.65809E+08         0.00000E+00
    0.00000E+00         0.00000E+00        -0.60926E+08
 
   -0.59021E+08         0.63565E+07         0.00000E+00
    0.63565E+07        -0.65326E+08         0.00000E+00
    0.00000E+00         0.00000E+00        -0.61070E+08
 
   -0.60447E+08         0.70314E+07         0.00000E+00
    0.70314E+07        -0.64690E+08         0.00000E+00
    0.00000E+00         0.00000E+00        -0.61161E+08
 
   -0.54719E+08        -0.83930E+05         0.00000E+00
   -0.83930E+05        -0.60016E+08         0.00000E+00
    0.00000E+00         0.00000E+00        -0.58957E+08
 
   -0.56037E+08        -0.42710E+06         0.00000E+00
   -0.42710E+06        -0.60101E+08         0.00000E+00
    0.00000E+00         0.00000E+00        -0.59124E+08
 
   -0.57250E+08        -0.93973E+06         0.00000E+00
   -0.93973E+06        -0.60298E+08         0.00000E+00
    0.00000E+00         0.00000E+00        -0.59402E+08
 
   -0.58271E+08        -0.15429E+07         0.00000E+00
   -0.15429E+07        -0.60608E+08         0.00000E+00
    0.00000E+00         0.00000E+00        -0.59736E+08
 
   -0.59064E+08        -0.21678E+07         0.00000E+00
   -0.21678E+07        -0.61017E+08         0.00000E+00
    0.00000E+00         0.00000E+00        -0.60085E+08
 
   -0.59628E+08        -0.27620E+07         0.00000E+00
   -0.27620E+07        -0.61495E+08         0.00000E+00
    0.00000E+00         0.00000E+00        -0.60421E+08
 
   -0.59984E+08        -0.32912E+07         0.00000E+00
   -0.32912E+07        -0.62013E+08         0.00000E+00
    0.00000E+00         0.00000E+00        -0.60724E+08
 
   -0.60162E+08        -0.37363E+07         0.00000E+00
   -0.37363E+07        -0.62541E+08         0.00000E+00
    0.00000E+00         0.00000E+00        -0.60985E+08
 
   -0.60195E+08        -0.40905E+07         0.00000E+00
   -0.40905E+07        -0.63056E+08         0.00000E+00
    0.00000E+00         0.00000E+00        -0.61196E+08
 
   -0.60117E+08        -0.43552E+07         0.00000E+00
   -0.43552E+07        -0.63541E+08         0.00000E+00
    0.00000E+00         0.00000E+00        -0.61359E+08
 
   -0.59956E+08        -0.45371E+07         0.00000E+00
   -0.45371E+07        -0.63984E+08         0.00000E+00
    0.00000E+00         0.00000E+00        -0.61475E+08
 
   -0.59737E+08        -0.46458E+07         0.00000E+00
   -0.46458E+07        -0.64378E+08         0.00000E+00
    0.00000E+00         0.00000E+00        -0.61548E+08
 
   -0.59478E+08        -0.46918E+07         0.00000E+00
   -0.46918E+07        -0.64720E+08         0.00000E+00
    0.00000E+00         0.00000E+00        -0.61583E+08
 
   -0.59197E+08        -0.46858E+07         0.00000E+00
   -0.46858E+07        -0.65010E+08         0.00000E+00
    0.00000E+00         0.00000E+00        -0.61585E+08
 
   -0.58903E+08        -0.46376E+07         0.00000E+00
   -0.46376E+07        -0.65252E+08         0.00000E+00
    0.00000E+00         0.00000E+00        -0.61559E+08
 
   -0.58606E+08        -0.45563E+07         0.00000E+00
   -0.45563E+07        -0.65447E+08         0.00000E+00
    0.00000E+00         0.00000E+00        -0.61510E+08
 
   -0.58312E+08        -0.44493E+07         0.00000E+00
   -0.44493E+07        -0.65602E+08         0.00000E+00
    0.00000E+00         0.00000E+00        -0.61444E+08
 
   -0.58025E+08        -0.43231E+07         0.00000E+00
   -0.43231E+07        -0.65719E+08         0.00000E+00
    0.00000E+00         0.00000E+00        -0.61363E+08
 
   -0.57748E+08        -0.41829E+07         0.00000E+00
   -0.41829E+07        -0.65805E+08         0.00000E+00
    0.00000E+00         0.00000E+00        -0.61271E+08
 
   -0.57481E+08        -0.40329E+07         0.00000E+00
   -0.40329E+07        -0.65864E+08         0.00000E+00
    0.00000E+00         0.00000E+00        -0.61171E+08
 
   -0.57226E+08        -0.38763E+07         0.00000E+00
   -0.38763E+07        -0.65900E+08         0.00000E+00
    0.00000E+00         0.00000E+00        -0.61065E+08
 
   -0.56983E+08        -0.37156E+07         0.00000E+00
   -0.37156E+07        -0.65918E+08         0.00000E+00
    0.00000E+00         0.00000E+00        -0.60955E+08
 
   -0.56751E+08        -0.35524E+07         0.00000E+00
   -0.35524E+07        -0.65921E+08         0.00000E+00
    0.00000E+00         0.00000E+00        -0.60844E+08
 
   -0.56529E+08        -0.33878E+07         0.00000E+00
   -0.33878E+07        -0.65913E+08         0.00000E+00
    0.00000E+00         0.00000E+00        -0.60732E+08
 
   -0.56317E+08        -0.32223E+07         0.00000E+00
   -0.32223E+07        -0.65897E+08         0.00000E+00
    0.00000E+00         0.00000E+00        -0.60621E+08
 
   -0.56113E+08        -0.30561E+07         0.00000E+00
   -0.30561E+07        -0.65876E+08         0.00000E+00
    0.00000E+00         0.00000E+00        -0.60511E+08
 
   -0.55917E+08        -0.28886E+07         0.00000E+00
   -0.28886E+07        -0.65852E+08         0.00000E+00
    0.00000E+00         0.00000E+00        -0.60404E+08
 
   -0.55728E+08        -0.27193E+07         0.00000E+00
   -0.27193E+07        -0.65828E+08         0.00000E+00
    0.00000E+00         0.00000E+00        -0.60300E+08
 
   -0.55546E+08        -0.25469E+07         0.00000E+00
   -0.25469E+07        -0.65806E+08         0.00000E+00
    0.00000E+00         0.00000E+00        -0.60200E+08
 
   -0.55369E+08        -0.23699E+07         0.00000E+00
   -0.23699E+07        -0.65787E+08         0.00000E+00
    0.00000E+00         0.00000E+00        -0.60105E+08
 
   -0.55199E+08        -0.21866E+07         0.00000E+00
   -0.21866E+07        -0.65773E+08         0.00000E+00
    0.00000E+00         0.00000E+00        -0.60015E+08
 
   -0.55034E+08        -0.19947E+07         0.00000E+00
   -0.19947E+07        -0.65766E+08         0.00000E+00
    0.00000E+00         0.00000E+00        -0.59931E+08
 
   -0.54876E+08        -0.17917E+07         0.00000E+00
   -0.17917E+07        -0.65766E+08         0.00000E+00
    0.00000E+00         0.00000E+00        -0.59855E+08
 
   -0.54726E+08        -0.15746E+07         0.00000E+00
   -0.15746E+07        -0.65775E+08         0.00000E+00
    0.00000E+00         0.00000E+00        -0.59785E+08
 
   -0.54585E+08        -0.13398E+07         0.00000E+00
   -0.13398E+07        -0.65792E+08         0.00000E+00
    0.00000E+00         0.00000E+00        -0.59725E+08
 
   -0.54455E+08        -0.10833E+07         0.00000E+00
   -0.10833E+07        -0.65818E+08         0.00000E+00
    0.00000E+00         0.00000E+00        -0.59674E+08
 
   -0.54340E+08        -0.80076E+06         0.00000E+00
   -0.80076E+06        -0.65854E+08         0.00000E+00
    0.00000E+00         0.00000E+00        -0.59634E+08
 
   -0.54243E+08        -0.48684E+06         0.00000E+00
   -0.48684E+06        -0.65897E+08         0.00000E+00
    0.00000E+00         0.00000E+00        -0.59607E+08
 
   -0.54170E+08        -0.13579E+06         0.00000E+00
   -0.13579E+06        -0.65946E+08         0.00000E+00
    0.00000E+00         0.00000E+00        -0.59592E+08
 
   -0.54128E+08         0.25885E+06         0.00000E+00
    0.25885E+06        -0.65999E+08         0.00000E+00
    0.00000E+00         0.00000E+00        -0.59591E+08
 
   -0.54125E+08         0.70413E+06         0.00000E+00
    0.70413E+06        -0.66052E+08         0.00000E+00
    0.00000E+00         0.00000E+00        -0.59606E+08
 
   -0.54173E+08         0.12076E+07         0.00000E+00
    0.12076E+07        -0.66100E+08         0.00000E+00
    0.00000E+00         0.00000E+00        -0.59638E+08
 
   -0.54285E+08         0.17772E+07         0.00000E+00
    0.17772E+07        -0.66135E+08         0.00000E+00
    0.00000E+00         0.00000E+00        -0.59688E+08
 
   -0.54480E+08         0.24211E+07         0.00000E+00
    0.24211E+07        -0.66149E+08         0.00000E+00
    0.00000E+00         0.00000E+00        -0.59758E+08
 
   -0.54782E+08         0.31481E+07         0.00000E+00
    0.31481E+07        -0.66130E+08         0.00000E+00
    0.00000E+00         0.00000E+00        -0.59849E+08
 
   -0.55225E+08         0.39686E+07         0.00000E+00
    0.39686E+07        -0.66065E+08         0.00000E+00
    0.00000E+00         0.00000E+00        -0.59965E+08
 
   -0.55870E+08         0.48954E+07         0.00000E+00
    0.48954E+07        -0.65928E+08         0.00000E+00
    0.00000E+00         0.00000E+00        -0.60108E+08
 
   -0.56827E+08         0.59231E+07         0.00000E+00
    0.59231E+07        -0.65671E+08         0.00000E+00
    0.00000E+00         0.00000E+00        -0.60278E+08
 
   -0.58184E+08         0.69351E+07         0.00000E+00
    0.69351E+07        -0.65210E+08         0.00000E+00
    0.00000E+00         0.00000E+00        -0.60454E+08
 
   -0.59789E+08         0.77493E+07         0.00000E+00
    0.77493E+07        -0.64570E+08         0.00000E+00
    0.00000E+00         0.00000E+00        -0.60575E+08
 
   -0.54997E+08        -0.12587E+06         0.00000E+00
   -0.12587E+06        -0.60026E+08         0.00000E+00
    0.00000E+00         0.00000E+00        -0.59245E+08
 
   -0.56540E+08        -0.58835E+06         0.00000E+00
   -0.58835E+06        -0.60147E+08         0.00000E+00
    0.00000E+00         0.00000E+00        -0.59418E+08
 
   -0.57882E+08        -0.12334E+07         0.00000E+00
   -0.12334E+07        -0.60411E+08         0.00000E+00
    0.00000E+00         0.00000E+00        -0.59699E+08
 
   -0.58944E+08        -0.19534E+07         0.00000E+00
   -0.19534E+07        -0.60810E+08         0.00000E+00
    0.00000E+00         0.00000E+00        -0.60030E+08
 
   -0.59713E+08        -0.26637E+07         0.00000E+00
   -0.26637E+07        -0.61313E+08         0.00000E+00
    0.00000E+00         0.00000E+00        -0.60367E+08
 
   -0.60209E+08        -0.33075E+07         0.00000E+00
   -0.33075E+07        -0.61879E+08         0.00000E+00
    0.00000E+00         0.00000E+00        -0.60682E+08
 
   -0.60473E+08        -0.38524E+07         0.00000E+00
   -0.38524E+07        -0.62469E+08         0.00000E+00
    0.00000E+00         0.00000E+00        -0.60957E+08
 
   -0.60550E+08        -0.42853E+07         0.00000E+00
   -0.42853E+07        -0.63050E+08         0.00000E+00
    0.00000E+00         0.00000E+00        -0.61183E+08
 
   -0.60484E+08        -0.46065E+07         0.00000E+00
   -0.46065E+07        -0.63597E+08         0.00000E+00
    0.00000E+00         0.00000E+00        -0.61356E+08
 
   -0.60314E+08        -0.48243E+07         0.00000E+00
   -0.48243E+07        -0.64093E+08         0.00000E+00
    0.00000E+00         0.00000E+00        -0.61478E+08
 
   -0.60072E+08        -0.49515E+07         0.00000E+00
   -0.49515E+07        -0.64530E+08         0.00000E+00
    0.00000E+00         0.00000E+00        -0.61551E+08
 
   -0.59784E+08        -0.50024E+07         0.00000E+00
   -0.50024E+07        -0.64902E+08         0.00000E+00
    0.00000E+00         0.00000E+00        -0.61581E+08
 
   -0.59469E+08        -0.49910E+07         0.00000E+00
   -0.49910E+07        -0.65212E+08         0.00000E+00
    0.00000E+00         0.00000E+00        -0.61574E+08
 
   -0.59142E+08        -0.49303E+07         0.00000E+00
   -0.49303E+07        -0.65461E+08         0.00000E+00
    0.00000E+00         0.00000E+00        -0.61536E+08
 
   -0.58813E+08        -0.48318E+07         0.00000E+00
   -0.48318E+07        -0.65654E+08         0.00000E+00
    0.00000E+00         0.00000E+00        -0.61472E+08
 
   -0.58490E+08        -0.47050E+07         0.00000E+00
   -0.47050E+07        -0.65798E+08         0.00000E+00
    0.00000E+00         0.00000E+00        -0.61387E+08
 
   -0.58176E+08        -0.45581E+07         0.00000E+00
   -0.45581E+07        -0.65898E+08         0.00000E+00
    0.00000E+00         0.00000E+00        -0.61286E+08
 
   -0.57875E+08        -0.43975E+07         0.00000E+00
   -0.43975E+07        -0.65961E+08         0.00000E+00
    0.00000E+00         0.00000E+00        -0.61173E+08
 
   -0.57589E+08        -0.42281E+07         0.00000E+00
   -0.42281E+07        -0.65993E+08         0.00000E+00
    0.00000E+00         0.00000E+00        -0.61052E+08
 
   -0.57317E+08        -0.40538E+07         0.00000E+00
   -0.40538E+07        -0.65998E+08         0.00000E+00
    0.00000E+00         0.00000E+00        -0.60924E+08
 
   -0.57059E+08        -0.38776E+07         0.00000E+00
   -0.38776E+07        -0.65982E+08         0.00000E+00
    0.00000E+00         0.00000E+00        -0.60793E+08
 
   -0.56814E+08        -0.37013E+07         0.00000E+00
   -0.37013E+07        -0.65950E+08         0.00000E+00
    0.00000E+00         0.00000E+00        -0.60659E+08
 
   -0.56582E+08        -0.35263E+07         0.00000E+00
   -0.35263E+07        -0.65906E+08         0.00000E+00
    0.00000E+00         0.00000E+00        -0.60526E+08
 
   -0.56361E+08        -0.33533E+07         0.00000E+00
   -0.33533E+07        -0.65852E+08         0.00000E+00
    0.00000E+00         0.00000E+00        -0.60393E+08
 
   -0.56149E+08        -0.31825E+07         0.00000E+00
   -0.31825E+07        -0.65793E+08         0.00000E+00
    0.00000E+00         0.00000E+00        -0.60262E+08
 
   -0.55946E+08        -0.30135E+07         0.00000E+00
   -0.30135E+07        -0.65731E+08         0.00000E+00
    0.00000E+00         0.00000E+00        -0.60133E+08
 
   -0.55749E+08        -0.28457E+07         0.00000E+00
   -0.28457E+07        -0.65668E+08         0.00000E+00
    0.00000E+00         0.00000E+00        -0.60007E+08
 
   -0.55559E+08        -0.26781E+07         0.00000E+00
   -0.26781E+07        -0.65607E+08         0.00000E+00
    0.00000E+00         0.00000E+00        -0.59885E+08
 
   -0.55374E+08        -0.25094E+07         0.00000E+00
   -0.25094E+07        -0.65551E+08         0.00000E+00
    0.00000E+00         0.00000E+00        -0.59768E+08
 
   -0.55192E+08        -0.23378E+07         0.00000E+00
   -0.23378E+07        -0.65499E+08         0.00000E+00
    0.00000E+00         0.00000E+00        -0.59655E+08
 
   -0.55015E+08        -0.21613E+07         0.00000E+00
   -0.21613E+07        -0.65455E+08         0.00000E+00
    0.00000E+00         0.00000E+00        -0.59548E+08
 
   -0.54841E+08        -0.19774E+07         0.00000E+00
   -0.19774E+07        -0.65419E+08         0.00000E+00
    0.00000E+00         0.00000E+00        -0.59446E+08
 
   -0.54671E+08        -0.17835E+07         0.00000E+00
   -0.17835E+07        -0.65393E+08         0.00000E+00
    0.00000E+00         0.00000E+00        -0.59352E+08
 
   -0.54505E+08        -0.15761E+07         0.00000E+00
   -0.15761E+07        -0.65377E+08         0.00000E+00
    0.00000E+00         0.00000E+00        -0.59264E+08
 
   -0.54345E+08        -0.13516E+07         0.00000E+00
   -0.13516E+07        -0.65373E+08         0.00000E+00
    0.00000E+00         0.00000E+00        -0.59184E+08
 
   -0.54191E+08        -0.11055E+07         0.00000E+00
   -0.11055E+07        -0.65380E+08         0.00000E+00
    0.00000E+00         0.00000E+00        -0.59113E+08
 
   -0.54047E+08        -0.83289E+06         0.00000E+00
   -0.83289E+06        -0.65399E+08         0.00000E+00
    0.00000E+00         0.00000E+00        -0.59052E+08
 
   -0.53915E+08        -0.52789E+06         0.00000E+00
   -0.52789E+06        -0.65428E+08         0.00000E+00
    0.00000E+00         0.00000E+00        -0.59002E+08
 
   -0.53801E+08        -0.18389E+06         0.00000E+00
   -0.18389E+06        -0.65468E+08         0.00000E+00
    0.00000E+00         0.00000E+00        -0.58964E+08
 
   -0.53710E+08         0.20666E+06         0.00000E+00
    0.20666E+06        -0.65515E+08         0.00000E+00
    0.00000E+00         0.00000E+00        -0.58938E+08
 
   -0.53650E+08         0.65219E+06         0.00000E+00
    0.65219E+06        -0.65566E+08         0.00000E+00
    0.00000E+00         0.00000E+00        -0.58927E+08
 
   -0.53632E+08         0.11619E+07         0.00000E+00
    0.11619E+07        -0.65616E+08         0.00000E+00
    0.00000E+00         0.00000E+00        -0.58932E+08
 
   -0.53670E+08         0.17456E+07         0.00000E+00
    0.17456E+07        -0.65658E+08         0.00000E+00
    0.00000E+00         0.00000E+00        -0.58954E+08
 
   -0.53781E+08         0.24135E+07         0.00000E+00
    0.24135E+07        -0.65683E+08         0.00000E+00
    0.00000E+00         0.00000E+00        -0.58995E+08
 
   -0.53988E+08         0.31764E+07         0.00000E+00
    0.31764E+07        -0.65681E+08         0.00000E+00
    0.00000E+00         0.00000E+00        -0.59060E+08
 
   -0.54323E+08         0.40476E+07         0.00000E+00
    0.40476E+07        -0.65637E+08         0.00000E+00
    0.00000E+00         0.00000E+00        -0.59153E+08
 
   -0.54835E+08         0.50471E+07         0.00000E+00
    0.50471E+07        -0.65536E+08         0.00000E+00
    0.00000E+00         0.00000E+00        -0.59287E+08
 
   -0.55680E+08         0.62157E+07         0.00000E+00
    0.62157E+07        -0.65329E+08         0.00000E+00
    0.00000E+00         0.00000E+00        -0.59477E+08
 
   -0.57129E+08         0.74706E+07         0.00000E+00
    0.74706E+07        -0.65012E+08         0.00000E+00
    0.00000E+00         0.00000E+00        -0.59718E+08
 
   -0.59077E+08         0.83588E+07         0.00000E+00
    0.83588E+07        -0.64597E+08         0.00000E+00
    0.00000E+00         0.00000E+00        -0.59969E+08
 
   -0.55394E+08        -0.18931E+06         0.00000E+00
   -0.18931E+06        -0.60041E+08         0.00000E+00
    0.00000E+00         0.00000E+00        -0.59530E+08
 
   -0.57192E+08        -0.81235E+06         0.00000E+00
   -0.81235E+06        -0.60211E+08         0.00000E+00
    0.00000E+00         0.00000E+00        -0.59700E+08
 
   -0.58650E+08        -0.16182E+07         0.00000E+00
   -0.16182E+07        -0.60563E+08         0.00000E+00
    0.00000E+00         0.00000E+00        -0.59972E+08
 
   -0.59721E+08        -0.24657E+07         0.00000E+00
   -0.24657E+07        -0.61067E+08         0.00000E+00
    0.00000E+00         0.00000E+00        -0.60281E+08
 
   -0.60424E+08        -0.32567E+07         0.00000E+00
   -0.32567E+07        -0.61673E+08         0.00000E+00
    0.00000E+00         0.00000E+00        -0.60587E+08
 
   -0.60813E+08        -0.39340E+07         0.00000E+00
   -0.39340E+07        -0.62328E+08         0.00000E+00
    0.00000E+00         0.00000E+00        -0.60862E+08
 
   -0.60952E+08        -0.44724E+07         0.00000E+00
   -0.44724E+07        -0.62983E+08         0.00000E+00
    0.00000E+00         0.00000E+00        -0.61090E+08
 
   -0.60903E+08        -0.48689E+07         0.00000E+00
   -0.48689E+07        -0.63602E+08         0.00000E+00
    0.00000E+00         0.00000E+00        -0.61265E+08
 
   -0.60721E+08        -0.51339E+07         0.00000E+00
   -0.51339E+07        -0.64161E+08         0.00000E+00
    0.00000E+00         0.00000E+00        -0.61385E+08
 
   -0.60450E+08        -0.52845E+07         0.00000E+00
   -0.52845E+07        -0.64646E+08         0.00000E+00
    0.00000E+00         0.00000E+00        -0.61453E+08
 
   -0.60123E+08        -0.53403E+07         0.00000E+00
   -0.53403E+07        -0.65053E+08         0.00000E+00
    0.00000E+00         0.00000E+00        -0.61473E+08
 
   -0.59767E+08        -0.53203E+07         0.00000E+00
   -0.53203E+07        -0.65381E+08         0.00000E+00
    0.00000E+00         0.00000E+00        -0.61452E+08
 
   -0.59399E+08        -0.52420E+07         0.00000E+00
   -0.52420E+07        -0.65635E+08         0.00000E+00
    0.00000E+00         0.00000E+00        -0.61397E+08
 
   -0.59032E+08        -0.51203E+07         0.00000E+00
   -0.51203E+07        -0.65822E+08         0.00000E+00
    0.00000E+00         0.00000E+00        -0.61312E+08
 
   -0.58674E+08        -0.49674E+07         0.00000E+00
   -0.49674E+07        -0.65950E+08         0.00000E+00
    0.00000E+00         0.00000E+00        -0.61206E+08
 
   -0.58330E+08        -0.47935E+07         0.00000E+00
   -0.47935E+07        -0.66027E+08         0.00000E+00
    0.00000E+00         0.00000E+00        -0.61081E+08
 
   -0.58003E+08        -0.46063E+07         0.00000E+00
   -0.46063E+07        -0.66060E+08         0.00000E+00
    0.00000E+00         0.00000E+00        -0.60944E+08
 
   -0.57694E+08        -0.44119E+07         0.00000E+00
   -0.44119E+07        -0.66057E+08         0.00000E+00
    0.00000E+00         0.00000E+00        -0.60798E+08
 
   -0.57404E+08        -0.42148E+07         0.00000E+00
   -0.42148E+07        -0.66024E+08         0.00000E+00
    0.00000E+00         0.00000E+00        -0.60645E+08
 
   -0.57131E+08        -0.40184E+07         0.00000E+00
   -0.40184E+07        -0.65968E+08         0.00000E+00
    0.00000E+00         0.00000E+00        -0.60490E+08
 
   -0.56875E+08        -0.38248E+07         0.00000E+00
   -0.38248E+07        -0.65894E+08         0.00000E+00
    0.00000E+00         0.00000E+00        -0.60332E+08
 
   -0.56633E+08        -0.36356E+07         0.00000E+00
   -0.36356E+07        -0.65807E+08         0.00000E+00
    0.00000E+00         0.00000E+00        -0.60175E+08
 
   -0.56404E+08        -0.34515E+07         0.00000E+00
   -0.34515E+07        -0.65710E+08         0.00000E+00
    0.00000E+00         0.00000E+00        -0.60019E+08
 
   -0.56186E+08        -0.32727E+07         0.00000E+00
   -0.32727E+07        -0.65607E+08         0.00000E+00
    0.00000E+00         0.00000E+00        -0.59866E+08
 
   -0.55978E+08        -0.30990E+07         0.00000E+00
   -0.30990E+07        -0.65501E+08         0.00000E+00
    0.00000E+00         0.00000E+00        -0.59715E+08
 
   -0.55778E+08        -0.29297E+07         0.00000E+00
   -0.29297E+07        -0.65396E+08         0.00000E+00
    0.00000E+00         0.00000E+00        -0.59568E+08
 
   -0.55583E+08        -0.27639E+07         0.00000E+00
   -0.27639E+07        -0.65292E+08         0.00000E+00
    0.00000E+00         0.00000E+00        -0.59424E+08
 
   -0.55393E+08        -0.26004E+07         0.00000E+00
   -0.26004E+07        -0.65193E+08         0.00000E+00
    0.00000E+00         0.00000E+00        -0.59285E+08
 
   -0.55207E+08        -0.24375E+07         0.00000E+00
   -0.24375E+07        -0.65100E+08         0.00000E+00
    0.00000E+00         0.00000E+00        -0.59151E+08
 
   -0.55023E+08        -0.22733E+07         0.00000E+00
   -0.22733E+07        -0.65014E+08         0.00000E+00
    0.00000E+00         0.00000E+00        -0.59021E+08
 
   -0.54840E+08        -0.21056E+07         0.00000E+00
   -0.21056E+07        -0.64938E+08         0.00000E+00
    0.00000E+00         0.00000E+00        -0.58897E+08
 
   -0.54658E+08        -0.19319E+07         0.00000E+00
   -0.19319E+07        -0.64873E+08         0.00000E+00
    0.00000E+00         0.00000E+00        -0.58778E+08
 
   -0.54477E+08        -0.17491E+07         0.00000E+00
   -0.17491E+07        -0.64819E+08         0.00000E+00
    0.00000E+00         0.00000E+00        -0.58665E+08
 
   -0.54296E+08        -0.15538E+07         0.00000E+00
   -0.15538E+07        -0.64777E+08         0.00000E+00
    0.00000E+00         0.00000E+00        -0.58559E+08
 
   -0.54117E+08        -0.13419E+07         0.00000E+00
   -0.13419E+07        -0.64749E+08         0.00000E+00
    0.00000E+00         0.00000E+00        -0.58460E+08
 
   -0.53939E+08        -0.11088E+07         0.00000E+00
   -0.11088E+07        -0.64735E+08         0.00000E+00
    0.00000E+00         0.00000E+00        -0.58369E+08
 
   -0.53765E+08        -0.84907E+06         0.00000E+00
   -0.84907E+06        -0.64736E+08         0.00000E+00
    0.00000E+00         0.00000E+00        -0.58286E+08
 
   -0.53598E+08        -0.55632E+06         0.00000E+00
   -0.55632E+06        -0.64751E+08         0.00000E+00
    0.00000E+00         0.00000E+00        -0.58213E+08
 
   -0.53440E+08        -0.22315E+06         0.00000E+00
   -0.22315E+06        -0.64779E+08         0.00000E+00
    0.00000E+00         0.00000E+00        -0.58150E+08
 
   -0.53296E+08         0.15904E+06         0.00000E+00
    0.15904E+06        -0.64819E+08         0.00000E+00
    0.00000E+00         0.00000E+00        -0.58099E+08
 
   -0.53175E+08         0.60012E+06         0.00000E+00
    0.60012E+06        -0.64867E+08         0.00000E+00
    0.00000E+00         0.00000E+00        -0.58061E+08
 
   -0.53085E+08         0.11112E+07         0.00000E+00
    0.11112E+07        -0.64921E+08         0.00000E+00
    0.00000E+00         0.00000E+00        -0.58036E+08
 
   -0.53039E+08         0.17042E+07         0.00000E+00
    0.17042E+07        -0.64971E+08         0.00000E+00
    0.00000E+00         0.00000E+00        -0.58029E+08
 
   -0.53054E+08         0.23918E+07         0.00000E+00
    0.23918E+07        -0.65010E+08         0.00000E+00
    0.00000E+00         0.00000E+00        -0.58041E+08
 
   -0.53154E+08         0.31869E+07         0.00000E+00
    0.31869E+07        -0.65026E+08         0.00000E+00
    0.00000E+00         0.00000E+00        -0.58079E+08
 
   -0.53363E+08         0.41040E+07         0.00000E+00
    0.41040E+07        -0.65004E+08         0.00000E+00
    0.00000E+00         0.00000E+00        -0.58152E+08
 
   -0.53721E+08         0.51688E+07         0.00000E+00
    0.51688E+07        -0.64929E+08         0.00000E+00
    0.00000E+00         0.00000E+00        -0.58279E+08
 
   -0.54250E+08         0.64678E+07         0.00000E+00
    0.64678E+07        -0.64786E+08         0.00000E+00
    0.00000E+00         0.00000E+00        -0.58502E+08
 
   -0.56085E+08         0.77162E+07         0.00000E+00
    0.77162E+07        -0.64644E+08         0.00000E+00
    0.00000E+00         0.00000E+00        -0.59111E+08
 
   -0.58487E+08         0.85897E+07         0.00000E+00
    0.85897E+07        -0.64503E+08         0.00000E+00
    0.00000E+00         0.00000E+00        -0.59575E+08
 
   -0.55962E+08        -0.28379E+06         0.00000E+00
   -0.28379E+06        -0.60062E+08         0.00000E+00
    0.00000E+00         0.00000E+00        -0.59763E+08
 
   -0.58030E+08        -0.11191E+07         0.00000E+00
   -0.11191E+07        -0.60299E+08         0.00000E+00
    0.00000E+00         0.00000E+00        -0.59919E+08
 
   -0.59574E+08        -0.21139E+07         0.00000E+00
   -0.21139E+07        -0.60757E+08         0.00000E+00
    0.00000E+00         0.00000E+00        -0.60160E+08
 
   -0.60599E+08        -0.30923E+07         0.00000E+00
   -0.30923E+07        -0.61381E+08         0.00000E+00
    0.00000E+00         0.00000E+00        -0.60426E+08
 
   -0.61181E+08        -0.39486E+07         0.00000E+00
   -0.39486E+07        -0.62094E+08         0.00000E+00
    0.00000E+00         0.00000E+00        -0.60675E+08
 
   -0.61414E+08        -0.46327E+07         0.00000E+00
   -0.46327E+07        -0.62828E+08         0.00000E+00
    0.00000E+00         0.00000E+00        -0.60887E+08
 
   -0.61392E+08        -0.51338E+07         0.00000E+00
   -0.51338E+07        -0.63529E+08         0.00000E+00
    0.00000E+00         0.00000E+00        -0.61047E+08
 
   -0.61194E+08        -0.54638E+07         0.00000E+00
   -0.54638E+07        -0.64159E+08         0.00000E+00
    0.00000E+00         0.00000E+00        -0.61153E+08
 
   -0.60883E+08        -0.56462E+07         0.00000E+00
   -0.56462E+07        -0.64700E+08         0.00000E+00
    0.00000E+00         0.00000E+00        -0.61205E+08
 
   -0.60506E+08        -0.57082E+07         0.00000E+00
   -0.57082E+07        -0.65142E+08         0.00000E+00
    0.00000E+00         0.00000E+00        -0.61206E+08
 
   -0.60096E+08        -0.56765E+07         0.00000E+00
   -0.56765E+07        -0.65488E+08         0.00000E+00
    0.00000E+00         0.00000E+00        -0.61164E+08
 
   -0.59677E+08        -0.55746E+07         0.00000E+00
   -0.55746E+07        -0.65743E+08         0.00000E+00
    0.00000E+00         0.00000E+00        -0.61084E+08
 
   -0.59263E+08        -0.54224E+07         0.00000E+00
   -0.54224E+07        -0.65917E+08         0.00000E+00
    0.00000E+00         0.00000E+00        -0.60974E+08
 
   -0.58863E+08        -0.52358E+07         0.00000E+00
   -0.52358E+07        -0.66020E+08         0.00000E+00
    0.00000E+00         0.00000E+00        -0.60839E+08
 
   -0.58484E+08        -0.50275E+07         0.00000E+00
   -0.50275E+07        -0.66063E+08         0.00000E+00
    0.00000E+00         0.00000E+00        -0.60686E+08
 
   -0.58127E+08        -0.48070E+07         0.00000E+00
   -0.48070E+07        -0.66056E+08         0.00000E+00
    0.00000E+00         0.00000E+00        -0.60521E+08
 
   -0.57794E+08        -0.45815E+07         0.00000E+00
   -0.45815E+07        -0.66009E+08         0.00000E+00
    0.00000E+00         0.00000E+00        -0.60346E+08
 
   -0.57484E+08        -0.43563E+07         0.00000E+00
   -0.43563E+07        -0.65929E+08         0.00000E+00
    0.00000E+00         0.00000E+00        -0.60165E+08
 
   -0.57196E+08        -0.41349E+07         0.00000E+00
   -0.41349E+07        -0.65824E+08         0.00000E+00
    0.00000E+00         0.00000E+00        -0.59982E+08
 
   -0.56928E+08        -0.39199E+07         0.00000E+00
   -0.39199E+07        -0.65700E+08         0.00000E+00
    0.00000E+00         0.00000E+00        -0.59799E+08
 
   -0.56677E+08        -0.37127E+07         0.00000E+00
   -0.37127E+07        -0.65562E+08         0.00000E+00
    0.00000E+00         0.00000E+00        -0.59616E+08
 
   -0.56442E+08        -0.35141E+07         0.00000E+00
   -0.35141E+07        -0.65415E+08         0.00000E+00
    0.00000E+00         0.00000E+00        -0.59436E+08
 
   -0.56221E+08        -0.33244E+07         0.00000E+00
   -0.33244E+07        -0.65263E+08         0.00000E+00
    0.00000E+00         0.00000E+00        -0.59259E+08
 
   -0.56010E+08        -0.31431E+07         0.00000E+00
   -0.31431E+07        -0.65108E+08         0.00000E+00
    0.00000E+00         0.00000E+00        -0.59086E+08
 
   -0.55808E+08        -0.29696E+07         0.00000E+00
   -0.29696E+07        -0.64954E+08         0.00000E+00
    0.00000E+00         0.00000E+00        -0.58917E+08
 
   -0.55612E+08        -0.28029E+07         0.00000E+00
   -0.28029E+07        -0.64804E+08         0.00000E+00
    0.00000E+00         0.00000E+00        -0.58752E+08
 
   -0.55422E+08        -0.26419E+07         0.00000E+00
   -0.26419E+07        -0.64658E+08         0.00000E+00
    0.00000E+00         0.00000E+00        -0.58592E+08
 
   -0.55234E+08        -0.24848E+07         0.00000E+00
   -0.24848E+07        -0.64519E+08         0.00000E+00
    0.00000E+00         0.00000E+00        -0.58437E+08
 
   -0.55048E+08        -0.23300E+07         0.00000E+00
   -0.23300E+07        -0.64389E+08         0.00000E+00
    0.00000E+00         0.00000E+00        -0.58286E+08
 
   -0.54862E+08        -0.21755E+07         0.00000E+00
   -0.21755E+07        -0.64269E+08         0.00000E+00
    0.00000E+00         0.00000E+00        -0.58141E+08
 
   -0.54675E+08        -0.20187E+07         0.00000E+00
   -0.20187E+07        -0.64160E+08         0.00000E+00
    0.00000E+00         0.00000E+00        -0.58000E+08
 
   -0.54487E+08        -0.18571E+07         0.00000E+00
   -0.18571E+07        -0.64064E+08         0.00000E+00
    0.00000E+00         0.00000E+00        -0.57865E+08
 
   -0.54295E+08        -0.16875E+07         0.00000E+00
   -0.16875E+07        -0.63982E+08         0.00000E+00
    0.00000E+00         0.00000E+00        -0.57736E+08
 
   -0.54101E+08        -0.15064E+07         0.00000E+00
   -0.15064E+07        -0.63914E+08         0.00000E+00
    0.00000E+00         0.00000E+00        -0.57612E+08
 
   -0.53903E+08        -0.13095E+07         0.00000E+00
   -0.13095E+07        -0.63862E+08         0.00000E+00
    0.00000E+00         0.00000E+00        -0.57494E+08
 
   -0.53701E+08        -0.10919E+07         0.00000E+00
   -0.10919E+07        -0.63826E+08         0.00000E+00
    0.00000E+00         0.00000E+00        -0.57383E+08
 
   -0.53498E+08        -0.84803E+06         0.00000E+00
   -0.84803E+06        -0.63807E+08         0.00000E+00
    0.00000E+00         0.00000E+00        -0.57280E+08
 
   -0.53294E+08        -0.57100E+06         0.00000E+00
   -0.57100E+06        -0.63806E+08         0.00000E+00
    0.00000E+00         0.00000E+00        -0.57184E+08
 
   -0.53090E+08        -0.25279E+06         0.00000E+00
   -0.25279E+06        -0.63822E+08         0.00000E+00
    0.00000E+00         0.00000E+00        -0.57097E+08
 
   -0.52892E+08         0.11616E+06         0.00000E+00
    0.11616E+06        -0.63855E+08         0.00000E+00
    0.00000E+00         0.00000E+00        -0.57019E+08
 
   -0.52704E+08         0.54710E+06         0.00000E+00
    0.54710E+06        -0.63902E+08         0.00000E+00
    0.00000E+00         0.00000E+00        -0.56953E+08
 
   -0.52535E+08         0.10531E+07         0.00000E+00
    0.10531E+07        -0.63961E+08         0.00000E+00
    0.00000E+00         0.00000E+00        -0.56900E+08
 
   -0.52396E+08         0.16488E+07         0.00000E+00
    0.16488E+07        -0.64025E+08         0.00000E+00
    0.00000E+00         0.00000E+00        -0.56864E+08
 
   -0.52305E+08         0.23498E+07         0.00000E+00
    0.23498E+07        -0.64086E+08         0.00000E+00
    0.00000E+00         0.00000E+00        -0.56848E+08
 
   -0.52282E+08         0.31719E+07         0.00000E+00
    0.31719E+07        -0.64132E+08         0.00000E+00
    0.00000E+00         0.00000E+00        -0.56861E+08
 
   -0.52354E+08         0.41307E+07         0.00000E+00
    0.41307E+07        -0.64149E+08         0.00000E+00
    0.00000E+00         0.00000E+00        -0.56918E+08
 
   -0.52529E+08         0.52471E+07         0.00000E+00
    0.52471E+07        -0.64130E+08         0.00000E+00
    0.00000E+00         0.00000E+00        -0.57046E+08
 
   -0.52834E+08         0.65473E+07         0.00000E+00
    0.65473E+07        -0.64104E+08         0.00000E+00
    0.00000E+00         0.00000E+00        -0.57325E+08
 
   -0.55035E+08         0.77730E+07         0.00000E+00
    0.77730E+07        -0.64073E+08         0.00000E+00
    0.00000E+00         0.00000E+00        -0.58336E+08
 
   -0.57749E+08         0.88217E+07         0.00000E+00
    0.88217E+07        -0.63938E+08         0.00000E+00
    0.00000E+00         0.00000E+00        -0.59038E+08
 
   -0.56769E+08        -0.42154E+06         0.00000E+00
   -0.42154E+06        -0.60093E+08         0.00000E+00
    0.00000E+00         0.00000E+00        -0.59863E+08
 
   -0.59098E+08        -0.15311E+07         0.00000E+00
   -0.15311E+07        -0.60413E+08         0.00000E+00
    0.00000E+00         0.00000E+00        -0.59989E+08
 
   -0.60663E+08        -0.27381E+07         0.00000E+00
   -0.27381E+07        -0.60997E+08         0.00000E+00
    0.00000E+00         0.00000E+00        -0.60175E+08
 
   -0.61565E+08        -0.38381E+07         0.00000E+00
   -0.38381E+07        -0.61746E+08         0.00000E+00
    0.00000E+00         0.00000E+00        -0.60367E+08
 
   -0.61954E+08        -0.47294E+07         0.00000E+00
   -0.47294E+07        -0.62557E+08         0.00000E+00
    0.00000E+00         0.00000E+00        -0.60532E+08
 
   -0.61978E+08        -0.53813E+07         0.00000E+00
   -0.53813E+07        -0.63346E+08         0.00000E+00
    0.00000E+00         0.00000E+00        -0.60654E+08
 
   -0.61759E+08        -0.58054E+07         0.00000E+00
   -0.58054E+07        -0.64056E+08         0.00000E+00
    0.00000E+00         0.00000E+00        -0.60725E+08
 
   -0.61393E+08        -0.60342E+07         0.00000E+00
   -0.60342E+07        -0.64657E+08         0.00000E+00
    0.00000E+00         0.00000E+00        -0.60743E+08
 
   -0.60946E+08        -0.61064E+07         0.00000E+00
   -0.61064E+07        -0.65136E+08         0.00000E+00
    0.00000E+00         0.00000E+00        -0.60712E+08
 
   -0.60465E+08        -0.60598E+07         0.00000E+00
   -0.60598E+07        -0.65495E+08         0.00000E+00
    0.00000E+00         0.00000E+00        -0.60636E+08
 
   -0.59979E+08        -0.59275E+07         0.00000E+00
   -0.59275E+07        -0.65742E+08         0.00000E+00
    0.00000E+00         0.00000E+00        -0.60522E+08
 
   -0.59506E+08        -0.57362E+07         0.00000E+00
   -0.57362E+07        -0.65892E+08         0.00000E+00
    0.00000E+00         0.00000E+00        -0.60377E+08
 
   -0.59056E+08        -0.55071E+07         0.00000E+00
   -0.55071E+07        -0.65957E+08         0.00000E+00
    0.00000E+00         0.00000E+00        -0.60208E+08
 
   -0.58635E+08        -0.52560E+07         0.00000E+00
   -0.52560E+07        -0.65953E+08         0.00000E+00
    0.00000E+00         0.00000E+00        -0.60021E+08
 
   -0.58244E+08        -0.49947E+07         0.00000E+00
   -0.49947E+07        -0.65893E+08         0.00000E+00
    0.00000E+00         0.00000E+00        -0.59821E+08
 
   -0.57884E+08        -0.47316E+07         0.00000E+00
   -0.47316E+07        -0.65787E+08         0.00000E+00
    0.00000E+00         0.00000E+00        -0.59613E+08
 
   -0.57553E+08        -0.44726E+07         0.00000E+00
   -0.44726E+07        -0.65648E+08         0.00000E+00
    0.00000E+00         0.00000E+00        -0.59401E+08
 
   -0.57249E+08        -0.42217E+07         0.00000E+00
   -0.42217E+07        -0.65482E+08         0.00000E+00
    0.00000E+00         0.00000E+00        -0.59188E+08
 
   -0.56969E+08        -0.39814E+07         0.00000E+00
   -0.39814E+07        -0.65297E+08         0.00000E+00
    0.00000E+00         0.00000E+00        -0.58976E+08
 
   -0.56711E+08        -0.37530E+07         0.00000E+00
   -0.37530E+07        -0.65100E+08         0.00000E+00
    0.00000E+00         0.00000E+00        -0.58766E+08
 
   -0.56471E+08        -0.35373E+07         0.00000E+00
   -0.35373E+07        -0.64895E+08         0.00000E+00
    0.00000E+00         0.00000E+00        -0.58560E+08
 
   -0.56247E+08        -0.33341E+07         0.00000E+00
   -0.33341E+07        -0.64686E+08         0.00000E+00
    0.00000E+00         0.00000E+00        -0.58359E+08
 
   -0.56035E+08        -0.31430E+07         0.00000E+00
   -0.31430E+07        -0.64476E+08         0.00000E+00
    0.00000E+00         0.00000E+00        -0.58163E+08
 
   -0.55834E+08        -0.29631E+07         0.00000E+00
   -0.29631E+07        -0.64269E+08         0.00000E+00
    0.00000E+00         0.00000E+00        -0.57972E+08
 
   -0.55640E+08        -0.27935E+07         0.00000E+00
   -0.27935E+07        -0.64067E+08         0.00000E+00
    0.00000E+00         0.00000E+00        -0.57787E+08
 
   -0.55452E+08        -0.26327E+07         0.00000E+00
   -0.26327E+07        -0.63871E+08         0.00000E+00
    0.00000E+00         0.00000E+00        -0.57607E+08
 
   -0.55267E+08        -0.24791E+07         0.00000E+00
   -0.24791E+07        -0.63684E+08         0.00000E+00
    0.00000E+00         0.00000E+00        -0.57432E+08
 
   -0.55083E+08        -0.23312E+07         0.00000E+00
   -0.23312E+07        -0.63506E+08         0.00000E+00
    0.00000E+00         0.00000E+00        -0.57263E+08
 
   -0.54899E+08        -0.21869E+07         0.00000E+00
   -0.21869E+07        -0.63340E+08         0.00000E+00
    0.00000E+00         0.00000E+00        -0.57098E+08
 
   -0.54713E+08        -0.20441E+07         0.00000E+00
   -0.20441E+07        -0.63185E+08         0.00000E+00
    0.00000E+00         0.00000E+00        -0.56939E+08
 
   -0.54523E+08        -0.19003E+07         0.00000E+00
   -0.19003E+07        -0.63044E+08         0.00000E+00
    0.00000E+00         0.00000E+00        -0.56784E+08
 
   -0.54329E+08        -0.17528E+07         0.00000E+00
   -0.17528E+07        -0.62918E+08         0.00000E+00
    0.00000E+00         0.00000E+00        -0.56634E+08
 
   -0.54128E+08        -0.15985E+07         0.00000E+00
   -0.15985E+07        -0.62807E+08         0.00000E+00
    0.00000E+00         0.00000E+00        -0.56489E+08
 
   -0.53920E+08        -0.14335E+07         0.00000E+00
   -0.14335E+07        -0.62713E+08         0.00000E+00
    0.00000E+00         0.00000E+00        -0.56349E+08
 
   -0.53705E+08        -0.12538E+07         0.00000E+00
   -0.12538E+07        -0.62637E+08         0.00000E+00
    0.00000E+00         0.00000E+00        -0.56214E+08
 
   -0.53481E+08        -0.10544E+07         0.00000E+00
   -0.10544E+07        -0.62579E+08         0.00000E+00
    0.00000E+00         0.00000E+00        -0.56085E+08
 
   -0.53248E+08        -0.82926E+06         0.00000E+00
   -0.82926E+06        -0.62541E+08         0.00000E+00
    0.00000E+00         0.00000E+00        -0.55961E+08
 
   -0.53007E+08        -0.57152E+06         0.00000E+00
   -0.57152E+06        -0.62524E+08         0.00000E+00
    0.00000E+00         0.00000E+00        -0.55844E+08
 
   -0.52758E+08        -0.27271E+06         0.00000E+00
   -0.27271E+06        -0.62529E+08         0.00000E+00
    0.00000E+00         0.00000E+00        -0.55734E+08
 
   -0.52503E+08         0.77392E+05         0.00000E+00
    0.77392E+05        -0.62555E+08         0.00000E+00
    0.00000E+00         0.00000E+00        -0.55632E+08
 
   -0.52245E+08         0.49119E+06         0.00000E+00
    0.49119E+06        -0.62602E+08         0.00000E+00
    0.00000E+00         0.00000E+00        -0.55539E+08
 
   -0.51991E+08         0.98354E+06         0.00000E+00
    0.98354E+06        -0.62670E+08         0.00000E+00
    0.00000E+00         0.00000E+00        -0.55459E+08
 
   -0.51751E+08         0.15717E+07         0.00000E+00
    0.15717E+07        -0.62754E+08         0.00000E+00
    0.00000E+00         0.00000E+00        -0.55394E+08
 
   -0.51541E+08         0.22748E+07         0.00000E+00
    0.22748E+07        -0.62847E+08         0.00000E+00
    0.00000E+00         0.00000E+00        -0.55352E+08
 
   -0.51383E+08         0.31118E+07         0.00000E+00
    0.31118E+07        -0.62941E+08         0.00000E+00
    0.00000E+00         0.00000E+00        -0.55343E+08
 
   -0.51304E+08         0.40982E+07         0.00000E+00
    0.40982E+07        -0.63023E+08         0.00000E+00
    0.00000E+00         0.00000E+00        -0.55387E+08
 
   -0.51326E+08         0.52347E+07         0.00000E+00
    0.52347E+07        -0.63091E+08         0.00000E+00
    0.00000E+00         0.00000E+00        -0.55517E+08
 
   -0.51491E+08         0.64880E+07         0.00000E+00
    0.64880E+07        -0.63166E+08         0.00000E+00
    0.00000E+00         0.00000E+00        -0.55817E+08
 
   -0.53733E+08         0.78433E+07         0.00000E+00
    0.78433E+07        -0.63146E+08         0.00000E+00
    0.00000E+00         0.00000E+00        -0.57059E+08
 
   -0.56839E+08         0.91428E+07         0.00000E+00
    0.91428E+07        -0.62951E+08         0.00000E+00
    0.00000E+00         0.00000E+00        -0.58182E+08
 
   -0.57906E+08        -0.61724E+06         0.00000E+00
   -0.61724E+06        -0.60133E+08         0.00000E+00
    0.00000E+00         0.00000E+00        -0.59707E+08
 
   -0.60435E+08        -0.20700E+07         0.00000E+00
   -0.20700E+07        -0.60554E+08         0.00000E+00
    0.00000E+00         0.00000E+00        -0.59782E+08
 
   -0.61914E+08        -0.35004E+07         0.00000E+00
   -0.35004E+07        -0.61275E+08         0.00000E+00
    0.00000E+00         0.00000E+00        -0.59881E+08
 
   -0.62587E+08        -0.46932E+07         0.00000E+00
   -0.46932E+07        -0.62141E+08         0.00000E+00
    0.00000E+00         0.00000E+00        -0.59967E+08
 
   -0.62700E+08        -0.55709E+07         0.00000E+00
   -0.55709E+07        -0.63019E+08         0.00000E+00
    0.00000E+00         0.00000E+00        -0.60018E+08
 
   -0.62459E+08        -0.61382E+07         0.00000E+00
   -0.61382E+07        -0.63815E+08         0.00000E+00
    0.00000E+00         0.00000E+00        -0.60026E+08
 
   -0.62014E+08        -0.64390E+07         0.00000E+00
   -0.64390E+07        -0.64480E+08         0.00000E+00
    0.00000E+00         0.00000E+00        -0.59986E+08
 
   -0.61469E+08        -0.65302E+07         0.00000E+00
   -0.65302E+07        -0.64994E+08         0.00000E+00
    0.00000E+00         0.00000E+00        -0.59902E+08
 
   -0.60889E+08        -0.64670E+07         0.00000E+00
   -0.64670E+07        -0.65357E+08         0.00000E+00
    0.00000E+00         0.00000E+00        -0.59776E+08
 
   -0.60313E+08        -0.62965E+07         0.00000E+00
   -0.62965E+07        -0.65583E+08         0.00000E+00
    0.00000E+00         0.00000E+00        -0.59614E+08
 
   -0.59764E+08        -0.60561E+07         0.00000E+00
   -0.60561E+07        -0.65690E+08         0.00000E+00
    0.00000E+00         0.00000E+00        -0.59424E+08
 
   -0.59252E+08        -0.57740E+07         0.00000E+00
   -0.57740E+07        -0.65698E+08         0.00000E+00
    0.00000E+00         0.00000E+00        -0.59211E+08
 
   -0.58780E+08        -0.54707E+07         0.00000E+00
   -0.54707E+07        -0.65627E+08         0.00000E+00
    0.00000E+00         0.00000E+00        -0.58982E+08
 
   -0.58351E+08        -0.51604E+07         0.00000E+00
   -0.51604E+07        -0.65494E+08         0.00000E+00
    0.00000E+00         0.00000E+00        -0.58743E+08
 
   -0.57961E+08        -0.48530E+07         0.00000E+00
   -0.48530E+07        -0.65313E+08         0.00000E+00
    0.00000E+00         0.00000E+00        -0.58497E+08
 
   -0.57607E+08        -0.45550E+07         0.00000E+00
   -0.45550E+07        -0.65097E+08         0.00000E+00
    0.00000E+00         0.00000E+00        -0.58250E+08
 
   -0.57287E+08        -0.42704E+07         0.00000E+00
   -0.42704E+07        -0.64856E+08         0.00000E+00
    0.00000E+00         0.00000E+00        -0.58003E+08
 
   -0.56996E+08        -0.40016E+07         0.00000E+00
   -0.40016E+07        -0.64598E+08         0.00000E+00
    0.00000E+00         0.00000E+00        -0.57760E+08
 
   -0.56730E+08        -0.37496E+07         0.00000E+00
   -0.37496E+07        -0.64329E+08         0.00000E+00
    0.00000E+00         0.00000E+00        -0.57521E+08
 
   -0.56487E+08        -0.35148E+07         0.00000E+00
   -0.35148E+07        -0.64056E+08         0.00000E+00
    0.00000E+00         0.00000E+00        -0.57289E+08
 
   -0.56261E+08        -0.32967E+07         0.00000E+00
   -0.32967E+07        -0.63783E+08         0.00000E+00
    0.00000E+00         0.00000E+00        -0.57063E+08
 
   -0.56051E+08        -0.30946E+07         0.00000E+00
   -0.30946E+07        -0.63512E+08         0.00000E+00
    0.00000E+00         0.00000E+00        -0.56844E+08
 
   -0.55852E+08        -0.29072E+07         0.00000E+00
   -0.29072E+07        -0.63246E+08         0.00000E+00
    0.00000E+00         0.00000E+00        -0.56632E+08
 
   -0.55662E+08        -0.27333E+07         0.00000E+00
   -0.27333E+07        -0.62988E+08         0.00000E+00
    0.00000E+00         0.00000E+00        -0.56427E+08
 
   -0.55479E+08        -0.25714E+07         0.00000E+00
   -0.25714E+07        -0.62738E+08         0.00000E+00
    0.00000E+00         0.00000E+00        -0.56229E+08
 
   -0.55300E+08        -0.24198E+07         0.00000E+00
   -0.24198E+07        -0.62500E+08         0.00000E+00
    0.00000E+00         0.00000E+00        -0.56037E+08
 
   -0.55122E+08        -0.22769E+07         0.00000E+00
   -0.22769E+07        -0.62272E+08         0.00000E+00
    0.00000E+00         0.00000E+00        -0.55851E+08
 
   -0.54944E+08        -0.21407E+07         0.00000E+00
   -0.21407E+07        -0.62058E+08         0.00000E+00
    0.00000E+00         0.00000E+00        -0.55670E+08
 
   -0.54763E+08        -0.20093E+07         0.00000E+00
   -0.20093E+07        -0.61857E+08         0.00000E+00
    0.00000E+00         0.00000E+00        -0.55494E+08
 
   -0.54577E+08        -0.18804E+07         0.00000E+00
   -0.18804E+07        -0.61670E+08         0.00000E+00
    0.00000E+00         0.00000E+00        -0.55323E+08
 
   -0.54386E+08        -0.17515E+07         0.00000E+00
   -0.17515E+07        -0.61499E+08         0.00000E+00
    0.00000E+00         0.00000E+00        -0.55157E+08
 
   -0.54187E+08        -0.16200E+07         0.00000E+00
   -0.16200E+07        -0.61344E+08         0.00000E+00
    0.00000E+00         0.00000E+00        -0.54995E+08
 
   -0.53978E+08        -0.14826E+07         0.00000E+00
   -0.14826E+07        -0.61206E+08         0.00000E+00
    0.00000E+00         0.00000E+00        -0.54837E+08
 
   -0.53758E+08        -0.13359E+07         0.00000E+00
   -0.13359E+07        -0.61087E+08         0.00000E+00
    0.00000E+00         0.00000E+00        -0.54683E+08
 
   -0.53526E+08        -0.11754E+07         0.00000E+00
   -0.11754E+07        -0.60987E+08         0.00000E+00
    0.00000E+00         0.00000E+00        -0.54533E+08
 
   -0.53280E+08        -0.99644E+06         0.00000E+00
   -0.99644E+06        -0.60909E+08         0.00000E+00
    0.00000E+00         0.00000E+00        -0.54388E+08
 
   -0.53019E+08        -0.79301E+06         0.00000E+00
   -0.79301E+06        -0.60853E+08         0.00000E+00
    0.00000E+00         0.00000E+00        -0.54246E+08
 
   -0.52742E+08        -0.55815E+06         0.00000E+00
   -0.55815E+06        -0.60820E+08         0.00000E+00
    0.00000E+00         0.00000E+00        -0.54110E+08
 
   -0.52447E+08        -0.28338E+06         0.00000E+00
   -0.28338E+06        -0.60813E+08         0.00000E+00
    0.00000E+00         0.00000E+00        -0.53978E+08
 
   -0.52135E+08         0.41747E+05         0.00000E+00
    0.41747E+05        -0.60833E+08         0.00000E+00
    0.00000E+00         0.00000E+00        -0.53854E+08
 
   -0.51807E+08         0.43024E+06         0.00000E+00
    0.43024E+06        -0.60883E+08         0.00000E+00
    0.00000E+00         0.00000E+00        -0.53737E+08
 
   -0.51465E+08         0.89822E+06         0.00000E+00
    0.89822E+06        -0.60962E+08         0.00000E+00
    0.00000E+00         0.00000E+00        -0.53631E+08
 
   -0.51117E+08         0.14651E+07         0.00000E+00
    0.14651E+07        -0.61070E+08         0.00000E+00
    0.00000E+00         0.00000E+00        -0.53541E+08
 
   -0.50778E+08         0.21533E+07         0.00000E+00
    0.21533E+07        -0.61206E+08         0.00000E+00
    0.00000E+00         0.00000E+00        -0.53475E+08
 
   -0.50471E+08         0.29858E+07         0.00000E+00
    0.29858E+07        -0.61362E+08         0.00000E+00
    0.00000E+00         0.00000E+00        -0.53445E+08
 
   -0.50234E+08         0.39795E+07         0.00000E+00
    0.39795E+07        -0.61528E+08         0.00000E+00
    0.00000E+00         0.00000E+00        -0.53474E+08
 
   -0.50123E+08         0.51279E+07         0.00000E+00
    0.51279E+07        -0.61686E+08         0.00000E+00
    0.00000E+00         0.00000E+00        -0.53596E+08
 
   -0.50168E+08         0.63949E+07         0.00000E+00
    0.63949E+07        -0.61828E+08         0.00000E+00
    0.00000E+00         0.00000E+00        -0.53854E+08
 
   -0.52094E+08         0.79142E+07         0.00000E+00
    0.79142E+07        -0.61813E+08         0.00000E+00
    0.00000E+00         0.00000E+00        -0.55165E+08
 
   -0.55670E+08         0.95316E+07         0.00000E+00
    0.95316E+07        -0.61587E+08         0.00000E+00
    0.00000E+00         0.00000E+00        -0.56905E+08
 
   -0.59483E+08        -0.88651E+06         0.00000E+00
   -0.88651E+06        -0.60184E+08         0.00000E+00
    0.00000E+00         0.00000E+00        -0.59109E+08
 
   -0.62073E+08        -0.27512E+07         0.00000E+00
   -0.27512E+07        -0.60718E+08         0.00000E+00
    0.00000E+00         0.00000E+00        -0.59111E+08
 
   -0.63303E+08        -0.43938E+07         0.00000E+00
   -0.43938E+07        -0.61570E+08         0.00000E+00
    0.00000E+00         0.00000E+00        -0.59094E+08
 
   -0.63611E+08        -0.56238E+07         0.00000E+00
   -0.56238E+07        -0.62517E+08         0.00000E+00
    0.00000E+00         0.00000E+00        -0.59043E+08
 
   -0.63358E+08        -0.64190E+07         0.00000E+00
   -0.64190E+07        -0.63401E+08         0.00000E+00
    0.00000E+00         0.00000E+00        -0.58954E+08
 
   -0.62804E+08        -0.68382E+07         0.00000E+00
   -0.68382E+07        -0.64131E+08         0.00000E+00
    0.00000E+00         0.00000E+00        -0.58826E+08
 
   -0.62116E+08        -0.69668E+07         0.00000E+00
   -0.69668E+07        -0.64672E+08         0.00000E+00
    0.00000E+00         0.00000E+00        -0.58662E+08
 
   -0.61394E+08        -0.68880E+07         0.00000E+00
   -0.68880E+07        -0.65024E+08         0.00000E+00
    0.00000E+00         0.00000E+00        -0.58464E+08
 
   -0.60695E+08        -0.66714E+07         0.00000E+00
   -0.66714E+07        -0.65206E+08         0.00000E+00
    0.00000E+00         0.00000E+00        -0.58238E+08
 
   -0.60044E+08        -0.63703E+07         0.00000E+00
   -0.63703E+07        -0.65244E+08         0.00000E+00
    0.00000E+00         0.00000E+00        -0.57989E+08
 
   -0.59452E+08        -0.60235E+07         0.00000E+00
   -0.60235E+07        -0.65168E+08         0.00000E+00
    0.00000E+00         0.00000E+00        -0.57722E+08
 
   -0.58919E+08        -0.56574E+07         0.00000E+00
   -0.56574E+07        -0.65002E+08         0.00000E+00
    0.00000E+00         0.00000E+00        -0.57444E+08
 
   -0.58444E+08        -0.52897E+07         0.00000E+00
   -0.52897E+07        -0.64769E+08         0.00000E+00
    0.00000E+00         0.00000E+00        -0.57158E+08
 
   -0.58020E+08        -0.49316E+07         0.00000E+00
   -0.49316E+07        -0.64488E+08         0.00000E+00
    0.00000E+00         0.00000E+00        -0.56870E+08
 
   -0.57643E+08        -0.45899E+07         0.00000E+00
   -0.45899E+07        -0.64174E+08         0.00000E+00
    0.00000E+00         0.00000E+00        -0.56584E+08
 
   -0.57306E+08        -0.42686E+07         0.00000E+00
   -0.42686E+07        -0.63839E+08         0.00000E+00
    0.00000E+00         0.00000E+00        -0.56302E+08
 
   -0.57004E+08        -0.39694E+07         0.00000E+00
   -0.39694E+07        -0.63492E+08         0.00000E+00
    0.00000E+00         0.00000E+00        -0.56026E+08
 
   -0.56733E+08        -0.36928E+07         0.00000E+00
   -0.36928E+07        -0.63139E+08         0.00000E+00
    0.00000E+00         0.00000E+00        -0.55759E+08
 
   -0.56487E+08        -0.34385E+07         0.00000E+00
   -0.34385E+07        -0.62787E+08         0.00000E+00
    0.00000E+00         0.00000E+00        -0.55500E+08
 
   -0.56262E+08        -0.32054E+07         0.00000E+00
   -0.32054E+07        -0.62440E+08         0.00000E+00
    0.00000E+00         0.00000E+00        -0.55250E+08
 
   -0.56054E+08        -0.29923E+07         0.00000E+00
   -0.29923E+07        -0.62100E+08         0.00000E+00
    0.00000E+00         0.00000E+00        -0.55009E+08
 
   -0.55860E+08        -0.27975E+07         0.00000E+00
   -0.27975E+07        -0.61770E+08         0.00000E+00
    0.00000E+00         0.00000E+00        -0.54778E+08
 
   -0.55677E+08        -0.26194E+07         0.00000E+00
   -0.26194E+07        -0.61452E+08         0.00000E+00
    0.00000E+00         0.00000E+00        -0.54555E+08
 
   -0.55500E+08        -0.24562E+07         0.00000E+00
   -0.24562E+07        -0.61146E+08         0.00000E+00
    0.00000E+00         0.00000E+00        -0.54341E+08
 
   -0.55329E+08        -0.23061E+07         0.00000E+00
   -0.23061E+07        -0.60854E+08         0.00000E+00
    0.00000E+00         0.00000E+00        -0.54134E+08
 
   -0.55159E+08        -0.21674E+07         0.00000E+00
   -0.21674E+07        -0.60576E+08         0.00000E+00
    0.00000E+00         0.00000E+00        -0.53934E+08
 
   -0.54990E+08        -0.20380E+07         0.00000E+00
   -0.20380E+07        -0.60312E+08         0.00000E+00
    0.00000E+00         0.00000E+00        -0.53740E+08
 
   -0.54817E+08        -0.19162E+07         0.00000E+00
   -0.19162E+07        -0.60065E+08         0.00000E+00
    0.00000E+00         0.00000E+00        -0.53552E+08
 
   -0.54641E+08        -0.17999E+07         0.00000E+00
   -0.17999E+07        -0.59832E+08         0.00000E+00
    0.00000E+00         0.00000E+00        -0.53369E+08
 
   -0.54457E+08        -0.16868E+07         0.00000E+00
   -0.16868E+07        -0.59617E+08         0.00000E+00
    0.00000E+00         0.00000E+00        -0.53190E+08
 
   -0.54265E+08        -0.15746E+07         0.00000E+00
   -0.15746E+07        -0.59418E+08         0.00000E+00
    0.00000E+00         0.00000E+00        -0.53016E+08
 
   -0.54062E+08        -0.14607E+07         0.00000E+00
   -0.14607E+07        -0.59238E+08         0.00000E+00
    0.00000E+00         0.00000E+00        -0.52845E+08
 
   -0.53846E+08        -0.13420E+07         0.00000E+00
   -0.13420E+07        -0.59076E+08         0.00000E+00
    0.00000E+00         0.00000E+00        -0.52678E+08
 
   -0.53615E+08        -0.12151E+07         0.00000E+00
   -0.12151E+07        -0.58934E+08         0.00000E+00
    0.00000E+00         0.00000E+00        -0.52513E+08
 
   -0.53368E+08        -0.10759E+07         0.00000E+00
   -0.10759E+07        -0.58813E+08         0.00000E+00
    0.00000E+00         0.00000E+00        -0.52352E+08
 
   -0.53101E+08        -0.91958E+06         0.00000E+00
   -0.91958E+06        -0.58716E+08         0.00000E+00
    0.00000E+00         0.00000E+00        -0.52193E+08
 
   -0.52813E+08        -0.74052E+06         0.00000E+00
   -0.74052E+06        -0.58643E+08         0.00000E+00
    0.00000E+00         0.00000E+00        -0.52037E+08
 
   -0.52502E+08        -0.53196E+06         0.00000E+00
   -0.53196E+06        -0.58597E+08         0.00000E+00
    0.00000E+00         0.00000E+00        -0.51885E+08
 
   -0.52164E+08        -0.28574E+06         0.00000E+00
   -0.28574E+06        -0.58580E+08         0.00000E+00
    0.00000E+00         0.00000E+00        -0.51736E+08
 
   -0.51797E+08         0.82380E+04         0.00000E+00
    0.82380E+04        -0.58596E+08         0.00000E+00
    0.00000E+00         0.00000E+00        -0.51592E+08
 
   -0.51399E+08         0.36284E+06         0.00000E+00
    0.36284E+06        -0.58647E+08         0.00000E+00
    0.00000E+00         0.00000E+00        -0.51455E+08
 
   -0.50969E+08         0.79461E+06         0.00000E+00
    0.79461E+06        -0.58739E+08         0.00000E+00
    0.00000E+00         0.00000E+00        -0.51327E+08
 
   -0.50511E+08         0.13244E+07         0.00000E+00
    0.13244E+07        -0.58874E+08         0.00000E+00
    0.00000E+00         0.00000E+00        -0.51214E+08
 
   -0.50036E+08         0.19773E+07         0.00000E+00
    0.19773E+07        -0.59055E+08         0.00000E+00
    0.00000E+00         0.00000E+00        -0.51126E+08
 
   -0.49570E+08         0.27813E+07         0.00000E+00
    0.27813E+07        -0.59279E+08         0.00000E+00
    0.00000E+00         0.00000E+00        -0.51075E+08
 
   -0.49158E+08         0.37628E+07         0.00000E+00
    0.37628E+07        -0.59536E+08         0.00000E+00
    0.00000E+00         0.00000E+00        -0.51084E+08
 
   -0.48886E+08         0.49369E+07         0.00000E+00
    0.49369E+07        -0.59795E+08         0.00000E+00
    0.00000E+00         0.00000E+00        -0.51182E+08
 
   -0.48846E+08         0.62610E+07         0.00000E+00
    0.62610E+07        -0.59995E+08         0.00000E+00
    0.00000E+00         0.00000E+00        -0.51400E+08
 
   -0.50068E+08         0.79767E+07         0.00000E+00
    0.79767E+07        -0.60024E+08         0.00000E+00
    0.00000E+00         0.00000E+00        -0.52559E+08
 
   -0.54124E+08         0.99608E+07         0.00000E+00
    0.99608E+07        -0.59779E+08         0.00000E+00
    0.00000E+00         0.00000E+00        -0.55062E+08
 
   -0.61625E+08        -0.12427E+07         0.00000E+00
   -0.12427E+07        -0.60242E+08         0.00000E+00
    0.00000E+00         0.00000E+00        -0.57824E+08
 
   -0.64023E+08        -0.35740E+07         0.00000E+00
   -0.35740E+07        -0.60886E+08         0.00000E+00
    0.00000E+00         0.00000E+00        -0.57734E+08
 
   -0.64774E+08        -0.53814E+07         0.00000E+00
   -0.53814E+07        -0.61832E+08         0.00000E+00
    0.00000E+00         0.00000E+00        -0.57573E+08
 
   -0.64559E+08        -0.65605E+07         0.00000E+00
   -0.65605E+07        -0.62785E+08         0.00000E+00
    0.00000E+00         0.00000E+00        -0.57363E+08
 
   -0.63855E+08        -0.71853E+07         0.00000E+00
   -0.71853E+07        -0.63575E+08         0.00000E+00
    0.00000E+00         0.00000E+00        -0.57118E+08
 
   -0.62956E+08        -0.73886E+07         0.00000E+00
   -0.73886E+07        -0.64130E+08         0.00000E+00
    0.00000E+00         0.00000E+00        -0.56846E+08
 
   -0.62028E+08        -0.73020E+07         0.00000E+00
   -0.73020E+07        -0.64446E+08         0.00000E+00
    0.00000E+00         0.00000E+00        -0.56552E+08
 
   -0.61151E+08        -0.70323E+07         0.00000E+00
   -0.70323E+07        -0.64550E+08         0.00000E+00
    0.00000E+00         0.00000E+00        -0.56242E+08
 
   -0.60360E+08        -0.66580E+07         0.00000E+00
   -0.66580E+07        -0.64481E+08         0.00000E+00
    0.00000E+00         0.00000E+00        -0.55919E+08
 
   -0.59662E+08        -0.62333E+07         0.00000E+00
   -0.62333E+07        -0.64278E+08         0.00000E+00
    0.00000E+00         0.00000E+00        -0.55587E+08
 
   -0.59052E+08        -0.57934E+07         0.00000E+00
   -0.57934E+07        -0.63978E+08         0.00000E+00
    0.00000E+00         0.00000E+00        -0.55251E+08
 
   -0.58522E+08        -0.53602E+07         0.00000E+00
   -0.53602E+07        -0.63610E+08         0.00000E+00
    0.00000E+00         0.00000E+00        -0.54915E+08
 
   -0.58061E+08        -0.49461E+07         0.00000E+00
   -0.49461E+07        -0.63198E+08         0.00000E+00
    0.00000E+00         0.00000E+00        -0.54582E+08
 
   -0.57658E+08        -0.45580E+07         0.00000E+00
   -0.45580E+07        -0.62759E+08         0.00000E+00
    0.00000E+00         0.00000E+00        -0.54255E+08
 
   -0.57304E+08        -0.41987E+07         0.00000E+00
   -0.41987E+07        -0.62307E+08         0.00000E+00
    0.00000E+00         0.00000E+00        -0.53937E+08
 
   -0.56993E+08        -0.38693E+07         0.00000E+00
   -0.38693E+07        -0.61851E+08         0.00000E+00
    0.00000E+00         0.00000E+00        -0.53630E+08
 
   -0.56717E+08        -0.35691E+07         0.00000E+00
   -0.35691E+07        -0.61399E+08         0.00000E+00
    0.00000E+00         0.00000E+00        -0.53334E+08
 
   -0.56471E+08        -0.32969E+07         0.00000E+00
   -0.32969E+07        -0.60956E+08         0.00000E+00
    0.00000E+00         0.00000E+00        -0.53051E+08
 
   -0.56248E+08        -0.30508E+07         0.00000E+00
   -0.30508E+07        -0.60526E+08         0.00000E+00
    0.00000E+00         0.00000E+00        -0.52779E+08
 
   -0.56045E+08        -0.28286E+07         0.00000E+00
   -0.28286E+07        -0.60110E+08         0.00000E+00
    0.00000E+00         0.00000E+00        -0.52520E+08
 
   -0.55857E+08        -0.26284E+07         0.00000E+00
   -0.26284E+07        -0.59710E+08         0.00000E+00
    0.00000E+00         0.00000E+00        -0.52272E+08
 
   -0.55681E+08        -0.24477E+07         0.00000E+00
   -0.24477E+07        -0.59328E+08         0.00000E+00
    0.00000E+00         0.00000E+00        -0.52035E+08
 
   -0.55514E+08        -0.22846E+07         0.00000E+00
   -0.22846E+07        -0.58963E+08         0.00000E+00
    0.00000E+00         0.00000E+00        -0.51808E+08
 
   -0.55352E+08        -0.21369E+07         0.00000E+00
   -0.21369E+07        -0.58617E+08         0.00000E+00
    0.00000E+00         0.00000E+00        -0.51590E+08
 
   -0.55193E+08        -0.20028E+07         0.00000E+00
   -0.20028E+07        -0.58288E+08         0.00000E+00
    0.00000E+00         0.00000E+00        -0.51381E+08
 
   -0.55034E+08        -0.18802E+07         0.00000E+00
   -0.18802E+07        -0.57977E+08         0.00000E+00
    0.00000E+00         0.00000E+00        -0.51178E+08
 
   -0.54873E+08        -0.17673E+07         0.00000E+00
   -0.17673E+07        -0.57683E+08         0.00000E+00
    0.00000E+00         0.00000E+00        -0.50982E+08
 
   -0.54707E+08        -0.16622E+07         0.00000E+00
   -0.16622E+07        -0.57408E+08         0.00000E+00
    0.00000E+00         0.00000E+00        -0.50792E+08
 
   -0.54535E+08        -0.15629E+07         0.00000E+00
   -0.15629E+07        -0.57150E+08         0.00000E+00
    0.00000E+00         0.00000E+00        -0.50606E+08
 
   -0.54354E+08        -0.14674E+07         0.00000E+00
   -0.14674E+07        -0.56910E+08         0.00000E+00
    0.00000E+00         0.00000E+00        -0.50425E+08
 
   -0.54161E+08        -0.13734E+07         0.00000E+00
   -0.13734E+07        -0.56689E+08         0.00000E+00
    0.00000E+00         0.00000E+00        -0.50247E+08
 
   -0.53956E+08        -0.12785E+07         0.00000E+00
   -0.12785E+07        -0.56487E+08         0.00000E+00
    0.00000E+00         0.00000E+00        -0.50073E+08
 
   -0.53734E+08        -0.11798E+07         0.00000E+00
   -0.11798E+07        -0.56305E+08         0.00000E+00
    0.00000E+00         0.00000E+00        -0.49900E+08
 
   -0.53494E+08        -0.10742E+07         0.00000E+00
   -0.10742E+07        -0.56145E+08         0.00000E+00
    0.00000E+00         0.00000E+00        -0.49730E+08
 
   -0.53233E+08        -0.95789E+06         0.00000E+00
   -0.95789E+06        -0.56007E+08         0.00000E+00
    0.00000E+00         0.00000E+00        -0.49561E+08
 
   -0.52947E+08        -0.82631E+06         0.00000E+00
   -0.82631E+06        -0.55894E+08         0.00000E+00
    0.00000E+00         0.00000E+00        -0.49394E+08
 
   -0.52635E+08        -0.67411E+06         0.00000E+00
   -0.67411E+06        -0.55807E+08         0.00000E+00
    0.00000E+00         0.00000E+00        -0.49229E+08
 
   -0.52291E+08        -0.49496E+06         0.00000E+00
   -0.49496E+06        -0.55751E+08         0.00000E+00
    0.00000E+00         0.00000E+00        -0.49065E+08
 
   -0.51912E+08        -0.28134E+06         0.00000E+00
   -0.28134E+06        -0.55726E+08         0.00000E+00
    0.00000E+00         0.00000E+00        -0.48903E+08
 
   -0.51494E+08        -0.24084E+05         0.00000E+00
   -0.24084E+05        -0.55739E+08         0.00000E+00
    0.00000E+00         0.00000E+00        -0.48745E+08
 
   -0.51030E+08         0.28866E+06         0.00000E+00
    0.28866E+06        -0.55793E+08         0.00000E+00
    0.00000E+00         0.00000E+00        -0.48591E+08
 
   -0.50516E+08         0.67292E+06         0.00000E+00
    0.67292E+06        -0.55897E+08         0.00000E+00
    0.00000E+00         0.00000E+00        -0.48446E+08
 
   -0.49950E+08         0.11500E+07         0.00000E+00
    0.11500E+07        -0.56056E+08         0.00000E+00
    0.00000E+00         0.00000E+00        -0.48315E+08
 
   -0.49339E+08         0.17472E+07         0.00000E+00
    0.17472E+07        -0.56278E+08         0.00000E+00
    0.00000E+00         0.00000E+00        -0.48206E+08
 
   -0.48704E+08         0.24980E+07         0.00000E+00
    0.24980E+07        -0.56565E+08         0.00000E+00
    0.00000E+00         0.00000E+00        -0.48134E+08
 
   -0.48091E+08         0.34420E+07         0.00000E+00
    0.34420E+07        -0.56910E+08         0.00000E+00
    0.00000E+00         0.00000E+00        -0.48118E+08
 
   -0.47594E+08         0.46237E+07         0.00000E+00
    0.46237E+07        -0.57287E+08         0.00000E+00
    0.00000E+00         0.00000E+00        -0.48181E+08
 
   -0.47426E+08         0.60651E+07         0.00000E+00
    0.60651E+07        -0.57616E+08         0.00000E+00
    0.00000E+00         0.00000E+00        -0.48345E+08
 
   -0.47730E+08         0.80233E+07         0.00000E+00
    0.80233E+07        -0.57728E+08         0.00000E+00
    0.00000E+00         0.00000E+00        -0.49122E+08
 
   -0.52037E+08         0.10381E+08         0.00000E+00
    0.10381E+08        -0.57485E+08         0.00000E+00
    0.00000E+00         0.00000E+00        -0.52469E+08
 
   -0.64457E+08        -0.16897E+07         0.00000E+00
   -0.16897E+07        -0.60300E+08         0.00000E+00
    0.00000E+00         0.00000E+00        -0.55545E+08
 
   -0.66253E+08        -0.45040E+07         0.00000E+00
   -0.45040E+07        -0.61020E+08         0.00000E+00
    0.00000E+00         0.00000E+00        -0.55351E+08
 
   -0.66231E+08        -0.63786E+07         0.00000E+00
   -0.63786E+07        -0.61971E+08         0.00000E+00
    0.00000E+00         0.00000E+00        -0.55037E+08
 
   -0.65329E+08        -0.73853E+07         0.00000E+00
   -0.73853E+07        -0.62799E+08         0.00000E+00
    0.00000E+00         0.00000E+00        -0.54662E+08
 
   -0.64111E+08        -0.77412E+07         0.00000E+00
   -0.77412E+07        -0.63346E+08         0.00000E+00
    0.00000E+00         0.00000E+00        -0.54262E+08
 
   -0.62868E+08        -0.76691E+07         0.00000E+00
   -0.76691E+07        -0.63586E+08         0.00000E+00
    0.00000E+00         0.00000E+00        -0.53851E+08
 
   -0.61729E+08        -0.73430E+07         0.00000E+00
   -0.73430E+07        -0.63558E+08         0.00000E+00
    0.00000E+00         0.00000E+00        -0.53439E+08
 
   -0.60738E+08        -0.68833E+07         0.00000E+00
   -0.68833E+07        -0.63322E+08         0.00000E+00
    0.00000E+00         0.00000E+00        -0.53029E+08
 
   -0.59894E+08        -0.63679E+07         0.00000E+00
   -0.63679E+07        -0.62935E+08         0.00000E+00
    0.00000E+00         0.00000E+00        -0.52624E+08
 
   -0.59185E+08        -0.58439E+07         0.00000E+00
   -0.58439E+07        -0.62447E+08         0.00000E+00
    0.00000E+00         0.00000E+00        -0.52226E+08
 
   -0.58587E+08        -0.53386E+07         0.00000E+00
   -0.53386E+07        -0.61896E+08         0.00000E+00
    0.00000E+00         0.00000E+00        -0.51837E+08
 
   -0.58083E+08        -0.48660E+07         0.00000E+00
   -0.48660E+07        -0.61312E+08         0.00000E+00
    0.00000E+00         0.00000E+00        -0.51459E+08
 
   -0.57652E+08        -0.44316E+07         0.00000E+00
   -0.44316E+07        -0.60714E+08         0.00000E+00
    0.00000E+00         0.00000E+00        -0.51094E+08
 
   -0.57283E+08        -0.40369E+07         0.00000E+00
   -0.40369E+07        -0.60118E+08         0.00000E+00
    0.00000E+00         0.00000E+00        -0.50744E+08
 
   -0.56963E+08        -0.36807E+07         0.00000E+00
   -0.36807E+07        -0.59532E+08         0.00000E+00
    0.00000E+00         0.00000E+00        -0.50409E+08
 
   -0.56685E+08        -0.33613E+07         0.00000E+00
   -0.33613E+07        -0.58963E+08         0.00000E+00
    0.00000E+00         0.00000E+00        -0.50090E+08
 
   -0.56439E+08        -0.30758E+07         0.00000E+00
   -0.30758E+07        -0.58416E+08         0.00000E+00
    0.00000E+00         0.00000E+00        -0.49787E+08
 
   -0.56221E+08        -0.28213E+07         0.00000E+00
   -0.28213E+07        -0.57893E+08         0.00000E+00
    0.00000E+00         0.00000E+00        -0.49499E+08
 
   -0.56024E+08        -0.25947E+07         0.00000E+00
   -0.25947E+07        -0.57394E+08         0.00000E+00
    0.00000E+00         0.00000E+00        -0.49227E+08
 
   -0.55844E+08        -0.23931E+07         0.00000E+00
   -0.23931E+07        -0.56921E+08         0.00000E+00
    0.00000E+00         0.00000E+00        -0.48968E+08
 
   -0.55677E+08        -0.22136E+07         0.00000E+00
   -0.22136E+07        -0.56472E+08         0.00000E+00
    0.00000E+00         0.00000E+00        -0.48723E+08
 
   -0.55520E+08        -0.20538E+07         0.00000E+00
   -0.20538E+07        -0.56048E+08         0.00000E+00
    0.00000E+00         0.00000E+00        -0.48489E+08
 
   -0.55369E+08        -0.19111E+07         0.00000E+00
   -0.19111E+07        -0.55648E+08         0.00000E+00
    0.00000E+00         0.00000E+00        -0.48266E+08
 
   -0.55221E+08        -0.17836E+07         0.00000E+00
   -0.17836E+07        -0.55270E+08         0.00000E+00
    0.00000E+00         0.00000E+00        -0.48053E+08
 
   -0.55074E+08        -0.16690E+07         0.00000E+00
   -0.16690E+07        -0.54913E+08         0.00000E+00
    0.00000E+00         0.00000E+00        -0.47848E+08
 
   -0.54926E+08        -0.15657E+07         0.00000E+00
   -0.15657E+07        -0.54578E+08         0.00000E+00
    0.00000E+00         0.00000E+00        -0.47650E+08
 
   -0.54773E+08        -0.14716E+07         0.00000E+00
   -0.14716E+07        -0.54263E+08         0.00000E+00
    0.00000E+00         0.00000E+00        -0.47458E+08
 
   -0.54614E+08        -0.13852E+07         0.00000E+00
   -0.13852E+07        -0.53967E+08         0.00000E+00
    0.00000E+00         0.00000E+00        -0.47272E+08
 
   -0.54447E+08        -0.13046E+07         0.00000E+00
   -0.13046E+07        -0.53691E+08         0.00000E+00
    0.00000E+00         0.00000E+00        -0.47091E+08
 
   -0.54269E+08        -0.12279E+07         0.00000E+00
   -0.12279E+07        -0.53434E+08         0.00000E+00
    0.00000E+00         0.00000E+00        -0.46913E+08
 
   -0.54077E+08        -0.11532E+07         0.00000E+00
   -0.11532E+07        -0.53197E+08         0.00000E+00
    0.00000E+00         0.00000E+00        -0.46738E+08
 
   -0.53869E+08        -0.10783E+07         0.00000E+00
   -0.10783E+07        -0.52980E+08         0.00000E+00
    0.00000E+00         0.00000E+00        -0.46565E+08
 
   -0.53643E+08        -0.10007E+07         0.00000E+00
   -0.10007E+07        -0.52783E+08         0.00000E+00
    0.00000E+00         0.00000E+00        -0.46393E+08
 
   -0.53395E+08        -0.91755E+06         0.00000E+00
   -0.91755E+06        -0.52609E+08         0.00000E+00
    0.00000E+00         0.00000E+00        -0.46223E+08
 
   -0.53122E+08        -0.82550E+06         0.00000E+00
   -0.82550E+06        -0.52459E+08         0.00000E+00
    0.00000E+00         0.00000E+00        -0.46053E+08
 
   -0.52820E+08        -0.72043E+06         0.00000E+00
   -0.72043E+06        -0.52334E+08         0.00000E+00
    0.00000E+00         0.00000E+00        -0.45883E+08
 
   -0.52485E+08        -0.59738E+06         0.00000E+00
   -0.59738E+06        -0.52239E+08         0.00000E+00
    0.00000E+00         0.00000E+00        -0.45714E+08
 
   -0.52113E+08        -0.45043E+06         0.00000E+00
   -0.45043E+06        -0.52175E+08         0.00000E+00
    0.00000E+00         0.00000E+00        -0.45544E+08
 
   -0.51697E+08        -0.27279E+06         0.00000E+00
   -0.27279E+06        -0.52147E+08         0.00000E+00
    0.00000E+00         0.00000E+00        -0.45376E+08
 
   -0.51233E+08        -0.56687E+05         0.00000E+00
   -0.56687E+05        -0.52159E+08         0.00000E+00
    0.00000E+00         0.00000E+00        -0.45209E+08
 
   -0.50710E+08         0.20781E+06         0.00000E+00
    0.20781E+06        -0.52218E+08         0.00000E+00
    0.00000E+00         0.00000E+00        -0.45045E+08
 
   -0.50119E+08         0.53523E+06         0.00000E+00
    0.53523E+06        -0.52332E+08         0.00000E+00
    0.00000E+00         0.00000E+00        -0.44889E+08
 
   -0.49452E+08         0.94684E+06         0.00000E+00
    0.94684E+06        -0.52512E+08         0.00000E+00
    0.00000E+00         0.00000E+00        -0.44743E+08
 
   -0.48708E+08         0.14712E+07         0.00000E+00
    0.14712E+07        -0.52767E+08         0.00000E+00
    0.00000E+00         0.00000E+00        -0.44618E+08
 
   -0.47899E+08         0.21459E+07         0.00000E+00
    0.21459E+07        -0.53104E+08         0.00000E+00
    0.00000E+00         0.00000E+00        -0.44525E+08
 
   -0.47061E+08         0.30237E+07         0.00000E+00
    0.30237E+07        -0.53524E+08         0.00000E+00
    0.00000E+00         0.00000E+00        -0.44481E+08
 
   -0.46275E+08         0.41759E+07         0.00000E+00
    0.41759E+07        -0.54005E+08         0.00000E+00
    0.00000E+00         0.00000E+00        -0.44503E+08
 
   -0.45758E+08         0.57109E+07         0.00000E+00
    0.57109E+07        -0.54458E+08         0.00000E+00
    0.00000E+00         0.00000E+00        -0.44604E+08
 
   -0.45213E+08         0.79735E+07         0.00000E+00
    0.79735E+07        -0.54861E+08         0.00000E+00
    0.00000E+00         0.00000E+00        -0.44820E+08
 
   -0.49235E+08         0.10716E+08         0.00000E+00
    0.10716E+08        -0.54759E+08         0.00000E+00
    0.00000E+00         0.00000E+00        -0.48904E+08
 
   -0.68071E+08        -0.22073E+07         0.00000E+00
   -0.22073E+07        -0.60335E+08         0.00000E+00
    0.00000E+00         0.00000E+00        -0.51928E+08
 
   -0.68676E+08        -0.54426E+07         0.00000E+00
   -0.54426E+07        -0.61033E+08         0.00000E+00
    0.00000E+00         0.00000E+00        -0.51636E+08
 
   -0.67535E+08        -0.72371E+07         0.00000E+00
   -0.72371E+07        -0.61826E+08         0.00000E+00
    0.00000E+00         0.00000E+00        -0.51180E+08
 
   -0.65800E+08        -0.79199E+07         0.00000E+00
   -0.79199E+07        -0.62331E+08         0.00000E+00
    0.00000E+00         0.00000E+00        -0.50659E+08
 
   -0.64057E+08        -0.79171E+07         0.00000E+00
   -0.79171E+07        -0.62436E+08         0.00000E+00
    0.00000E+00         0.00000E+00        -0.50126E+08
 
   -0.62516E+08        -0.75391E+07         0.00000E+00
   -0.75391E+07        -0.62194E+08         0.00000E+00
    0.00000E+00         0.00000E+00        -0.49604E+08
 
   -0.61228E+08        -0.69844E+07         0.00000E+00
   -0.69844E+07        -0.61699E+08         0.00000E+00
    0.00000E+00         0.00000E+00        -0.49102E+08
 
   -0.60179E+08        -0.63691E+07         0.00000E+00
   -0.63691E+07        -0.61042E+08         0.00000E+00
    0.00000E+00         0.00000E+00        -0.48622E+08
 
   -0.59332E+08        -0.57557E+07         0.00000E+00
   -0.57557E+07        -0.60291E+08         0.00000E+00
    0.00000E+00         0.00000E+00        -0.48163E+08
 
   -0.58648E+08        -0.51768E+07         0.00000E+00
   -0.51768E+07        -0.59494E+08         0.00000E+00
    0.00000E+00         0.00000E+00        -0.47727E+08
 
   -0.58091E+08        -0.46480E+07         0.00000E+00
   -0.46480E+07        -0.58686E+08         0.00000E+00
    0.00000E+00         0.00000E+00        -0.47312E+08
 
   -0.57631E+08        -0.41735E+07         0.00000E+00
   -0.41735E+07        -0.57889E+08         0.00000E+00
    0.00000E+00         0.00000E+00        -0.46917E+08
 
   -0.57246E+08        -0.37514E+07         0.00000E+00
   -0.37514E+07        -0.57117E+08         0.00000E+00
    0.00000E+00         0.00000E+00        -0.46544E+08
 
   -0.56919E+08        -0.33776E+07         0.00000E+00
   -0.33776E+07        -0.56378E+08         0.00000E+00
    0.00000E+00         0.00000E+00        -0.46191E+08
 
   -0.56640E+08        -0.30480E+07         0.00000E+00
   -0.30480E+07        -0.55676E+08         0.00000E+00
    0.00000E+00         0.00000E+00        -0.45859E+08
 
   -0.56398E+08        -0.27581E+07         0.00000E+00
   -0.27581E+07        -0.55013E+08         0.00000E+00
    0.00000E+00         0.00000E+00        -0.45547E+08
 
   -0.56185E+08        -0.25035E+07         0.00000E+00
   -0.25035E+07        -0.54388E+08         0.00000E+00
    0.00000E+00         0.00000E+00        -0.45254E+08
 
   -0.55996E+08        -0.22801E+07         0.00000E+00
   -0.22801E+07        -0.53802E+08         0.00000E+00
    0.00000E+00         0.00000E+00        -0.44978E+08
 
   -0.55825E+08        -0.20841E+07         0.00000E+00
   -0.20841E+07        -0.53253E+08         0.00000E+00
    0.00000E+00         0.00000E+00        -0.44718E+08
 
   -0.55669E+08        -0.19121E+07         0.00000E+00
   -0.19121E+07        -0.52739E+08         0.00000E+00
    0.00000E+00         0.00000E+00        -0.44473E+08
 
   -0.55522E+08        -0.17609E+07         0.00000E+00
   -0.17609E+07        -0.52257E+08         0.00000E+00
    0.00000E+00         0.00000E+00        -0.44241E+08
 
   -0.55382E+08        -0.16278E+07         0.00000E+00
   -0.16278E+07        -0.51805E+08         0.00000E+00
    0.00000E+00         0.00000E+00        -0.44022E+08
 
   -0.55246E+08        -0.15105E+07         0.00000E+00
   -0.15105E+07        -0.51382E+08         0.00000E+00
    0.00000E+00         0.00000E+00        -0.43813E+08
 
   -0.55112E+08        -0.14069E+07         0.00000E+00
   -0.14069E+07        -0.50985E+08         0.00000E+00
    0.00000E+00         0.00000E+00        -0.43613E+08
 
   -0.54977E+08        -0.13151E+07         0.00000E+00
   -0.13151E+07        -0.50614E+08         0.00000E+00
    0.00000E+00         0.00000E+00        -0.43422E+08
 
   -0.54838E+08        -0.12333E+07         0.00000E+00
   -0.12333E+07        -0.50265E+08         0.00000E+00
    0.00000E+00         0.00000E+00        -0.43237E+08
 
   -0.54693E+08        -0.11600E+07         0.00000E+00
   -0.11600E+07        -0.49938E+08         0.00000E+00
    0.00000E+00         0.00000E+00        -0.43058E+08
 
   -0.54541E+08        -0.10937E+07         0.00000E+00
   -0.10937E+07        -0.49633E+08         0.00000E+00
    0.00000E+00         0.00000E+00        -0.42884E+08
 
   -0.54378E+08        -0.10328E+07         0.00000E+00
   -0.10328E+07        -0.49347E+08         0.00000E+00
    0.00000E+00         0.00000E+00        -0.42714E+08
 
   -0.54203E+08        -0.97576E+06         0.00000E+00
   -0.97576E+06        -0.49082E+08         0.00000E+00
    0.00000E+00         0.00000E+00        -0.42547E+08
 
   -0.54013E+08        -0.92100E+06         0.00000E+00
   -0.92100E+06        -0.48837E+08         0.00000E+00
    0.00000E+00         0.00000E+00        -0.42381E+08
 
   -0.53804E+08        -0.86666E+06         0.00000E+00
   -0.86666E+06        -0.48611E+08         0.00000E+00
    0.00000E+00         0.00000E+00        -0.42217E+08
 
   -0.53574E+08        -0.81071E+06         0.00000E+00
   -0.81071E+06        -0.48408E+08         0.00000E+00
    0.00000E+00         0.00000E+00        -0.42054E+08
 
   -0.53320E+08        -0.75078E+06         0.00000E+00
   -0.75078E+06        -0.48226E+08         0.00000E+00
    0.00000E+00         0.00000E+00        -0.41890E+08
 
   -0.53037E+08        -0.68404E+06         0.00000E+00
   -0.68404E+06        -0.48070E+08         0.00000E+00
    0.00000E+00         0.00000E+00        -0.41726E+08
 
   -0.52722E+08        -0.60699E+06         0.00000E+00
   -0.60699E+06        -0.47940E+08         0.00000E+00
    0.00000E+00         0.00000E+00        -0.41561E+08
 
   -0.52368E+08        -0.51521E+06         0.00000E+00
   -0.51521E+06        -0.47841E+08         0.00000E+00
    0.00000E+00         0.00000E+00        -0.41395E+08
 
   -0.51970E+08        -0.40326E+06         0.00000E+00
   -0.40326E+06        -0.47776E+08         0.00000E+00
    0.00000E+00         0.00000E+00        -0.41228E+08
 
   -0.51522E+08        -0.26468E+06         0.00000E+00
   -0.26468E+06        -0.47750E+08         0.00000E+00
    0.00000E+00         0.00000E+00        -0.41059E+08
 
   -0.51018E+08        -0.92721E+05         0.00000E+00
   -0.92721E+05        -0.47767E+08         0.00000E+00
    0.00000E+00         0.00000E+00        -0.40891E+08
 
   -0.50445E+08         0.11925E+06         0.00000E+00
    0.11925E+06        -0.47833E+08         0.00000E+00
    0.00000E+00         0.00000E+00        -0.40726E+08
 
   -0.49787E+08         0.38304E+06         0.00000E+00
    0.38304E+06        -0.47960E+08         0.00000E+00
    0.00000E+00         0.00000E+00        -0.40565E+08
 
   -0.49028E+08         0.72031E+06         0.00000E+00
    0.72031E+06        -0.48158E+08         0.00000E+00
    0.00000E+00         0.00000E+00        -0.40413E+08
 
   -0.48159E+08         0.11607E+07         0.00000E+00
    0.11607E+07        -0.48438E+08         0.00000E+00
    0.00000E+00         0.00000E+00        -0.40277E+08
 
   -0.47180E+08         0.17417E+07         0.00000E+00
    0.17417E+07        -0.48811E+08         0.00000E+00
    0.00000E+00         0.00000E+00        -0.40168E+08
 
   -0.46098E+08         0.25241E+07         0.00000E+00
    0.25241E+07        -0.49291E+08         0.00000E+00
    0.00000E+00         0.00000E+00        -0.40098E+08
 
   -0.44959E+08         0.36208E+07         0.00000E+00
    0.36208E+07        -0.49870E+08         0.00000E+00
    0.00000E+00         0.00000E+00        -0.40080E+08
 
   -0.43827E+08         0.52346E+07         0.00000E+00
    0.52346E+07        -0.50491E+08         0.00000E+00
    0.00000E+00         0.00000E+00        -0.40122E+08
 
   -0.42761E+08         0.74819E+07         0.00000E+00
    0.74819E+07        -0.51121E+08         0.00000E+00
    0.00000E+00         0.00000E+00        -0.40225E+08
 
   -0.45346E+08         0.10861E+08         0.00000E+00
    0.10861E+08        -0.51399E+08         0.00000E+00
    0.00000E+00         0.00000E+00        -0.44292E+08
 
   -0.72456E+08        -0.26678E+07         0.00000E+00
   -0.26678E+07        -0.60200E+08         0.00000E+00
    0.00000E+00         0.00000E+00        -0.46646E+08
 
   -0.71156E+08        -0.62576E+07         0.00000E+00
   -0.62576E+07        -0.60748E+08         0.00000E+00
    0.00000E+00         0.00000E+00        -0.46282E+08
 
   -0.68485E+08        -0.77095E+07         0.00000E+00
   -0.77095E+07        -0.61156E+08         0.00000E+00
    0.00000E+00         0.00000E+00        -0.45785E+08
 
   -0.65863E+08        -0.79209E+07         0.00000E+00
   -0.79209E+07        -0.61055E+08         0.00000E+00
    0.00000E+00         0.00000E+00        -0.45094E+08
 
   -0.63662E+08        -0.75089E+07         0.00000E+00
   -0.75089E+07        -0.60474E+08         0.00000E+00
    0.00000E+00         0.00000E+00        -0.44475E+08
 
   -0.61922E+08        -0.68529E+07         0.00000E+00
   -0.68529E+07        -0.59571E+08         0.00000E+00
    0.00000E+00         0.00000E+00        -0.43891E+08
 
   -0.60574E+08        -0.61381E+07         0.00000E+00
   -0.61381E+07        -0.58508E+08         0.00000E+00
    0.00000E+00         0.00000E+00        -0.43347E+08
 
   -0.59534E+08        -0.54442E+07         0.00000E+00
   -0.54442E+07        -0.57385E+08         0.00000E+00
    0.00000E+00         0.00000E+00        -0.42843E+08
 
   -0.58729E+08        -0.48048E+07         0.00000E+00
   -0.48048E+07        -0.56259E+08         0.00000E+00
    0.00000E+00         0.00000E+00        -0.42375E+08
 
   -0.58103E+08        -0.42340E+07         0.00000E+00
   -0.42340E+07        -0.55166E+08         0.00000E+00
    0.00000E+00         0.00000E+00        -0.41940E+08
 
   -0.57608E+08        -0.37349E+07         0.00000E+00
   -0.37349E+07        -0.54125E+08         0.00000E+00
    0.00000E+00         0.00000E+00        -0.41535E+08
 
   -0.57206E+08        -0.33027E+07         0.00000E+00
   -0.33027E+07        -0.53146E+08         0.00000E+00
    0.00000E+00         0.00000E+00        -0.41159E+08
 
   -0.56873E+08        -0.29280E+07         0.00000E+00
   -0.29280E+07        -0.52232E+08         0.00000E+00
    0.00000E+00         0.00000E+00        -0.40808E+08
 
   -0.56593E+08        -0.26040E+07         0.00000E+00
   -0.26040E+07        -0.51382E+08         0.00000E+00
    0.00000E+00         0.00000E+00        -0.40482E+08
 
   -0.56355E+08        -0.23244E+07         0.00000E+00
   -0.23244E+07        -0.50594E+08         0.00000E+00
    0.00000E+00         0.00000E+00        -0.40179E+08
 
   -0.56150E+08        -0.20831E+07         0.00000E+00
   -0.20831E+07        -0.49865E+08         0.00000E+00
    0.00000E+00         0.00000E+00        -0.39897E+08
 
   -0.55969E+08        -0.18746E+07         0.00000E+00
   -0.18746E+07        -0.49192E+08         0.00000E+00
    0.00000E+00         0.00000E+00        -0.39633E+08
 
   -0.55808E+08        -0.16944E+07         0.00000E+00
   -0.16944E+07        -0.48569E+08         0.00000E+00
    0.00000E+00         0.00000E+00        -0.39387E+08
 
   -0.55661E+08        -0.15387E+07         0.00000E+00
   -0.15387E+07        -0.47992E+08         0.00000E+00
    0.00000E+00         0.00000E+00        -0.39157E+08
 
   -0.55525E+08        -0.14039E+07         0.00000E+00
   -0.14039E+07        -0.47458E+08         0.00000E+00
    0.00000E+00         0.00000E+00        -0.38941E+08
 
   -0.55396E+08        -0.12870E+07         0.00000E+00
   -0.12870E+07        -0.46962E+08         0.00000E+00
    0.00000E+00         0.00000E+00        -0.38737E+08
 
   -0.55272E+08        -0.11855E+07         0.00000E+00
   -0.11855E+07        -0.46501E+08         0.00000E+00
    0.00000E+00         0.00000E+00        -0.38544E+08
 
   -0.55150E+08        -0.10973E+07         0.00000E+00
   -0.10973E+07        -0.46072E+08         0.00000E+00
    0.00000E+00         0.00000E+00        -0.38360E+08
 
   -0.55027E+08        -0.10205E+07         0.00000E+00
   -0.10205E+07        -0.45672E+08         0.00000E+00
    0.00000E+00         0.00000E+00        -0.38185E+08
 
   -0.54902E+08        -0.95354E+06         0.00000E+00
   -0.95354E+06        -0.45299E+08         0.00000E+00
    0.00000E+00         0.00000E+00        -0.38017E+08
 
   -0.54772E+08        -0.89494E+06         0.00000E+00
   -0.89494E+06        -0.44951E+08         0.00000E+00
    0.00000E+00         0.00000E+00        -0.37855E+08
 
   -0.54634E+08        -0.84347E+06         0.00000E+00
   -0.84347E+06        -0.44625E+08         0.00000E+00
    0.00000E+00         0.00000E+00        -0.37698E+08
 
   -0.54488E+08        -0.79794E+06         0.00000E+00
   -0.79794E+06        -0.44320E+08         0.00000E+00
    0.00000E+00         0.00000E+00        -0.37545E+08
 
   -0.54330E+08        -0.75721E+06         0.00000E+00
   -0.75721E+06        -0.44037E+08         0.00000E+00
    0.00000E+00         0.00000E+00        -0.37395E+08
 
   -0.54157E+08        -0.72012E+06         0.00000E+00
   -0.72012E+06        -0.43773E+08         0.00000E+00
    0.00000E+00         0.00000E+00        -0.37246E+08
 
   -0.53969E+08        -0.68541E+06         0.00000E+00
   -0.68541E+06        -0.43529E+08         0.00000E+00
    0.00000E+00         0.00000E+00        -0.37099E+08
 
   -0.53760E+08        -0.65173E+06         0.00000E+00
   -0.65173E+06        -0.43305E+08         0.00000E+00
    0.00000E+00         0.00000E+00        -0.36952E+08
 
   -0.53528E+08        -0.61750E+06         0.00000E+00
   -0.61750E+06        -0.43102E+08         0.00000E+00
    0.00000E+00         0.00000E+00        -0.36805E+08
 
   -0.53270E+08        -0.58097E+06         0.00000E+00
   -0.58097E+06        -0.42922E+08         0.00000E+00
    0.00000E+00         0.00000E+00        -0.36658E+08
 
   -0.52980E+08        -0.54007E+06         0.00000E+00
   -0.54007E+06        -0.42766E+08         0.00000E+00
    0.00000E+00         0.00000E+00        -0.36508E+08
 
   -0.52653E+08        -0.49214E+06         0.00000E+00
   -0.49214E+06        -0.42638E+08         0.00000E+00
    0.00000E+00         0.00000E+00        -0.36356E+08
 
   -0.52284E+08        -0.43355E+06         0.00000E+00
   -0.43355E+06        -0.42542E+08         0.00000E+00
    0.00000E+00         0.00000E+00        -0.36202E+08
 
   -0.51866E+08        -0.35959E+06         0.00000E+00
   -0.35959E+06        -0.42482E+08         0.00000E+00
    0.00000E+00         0.00000E+00        -0.36046E+08
 
   -0.51391E+08        -0.26423E+06         0.00000E+00
   -0.26423E+06        -0.42465E+08         0.00000E+00
    0.00000E+00         0.00000E+00        -0.35887E+08
 
   -0.50852E+08        -0.13999E+06         0.00000E+00
   -0.13999E+06        -0.42497E+08         0.00000E+00
    0.00000E+00         0.00000E+00        -0.35726E+08
 
   -0.50240E+08         0.18914E+05         0.00000E+00
    0.18914E+05        -0.42582E+08         0.00000E+00
    0.00000E+00         0.00000E+00        -0.35566E+08
 
   -0.49528E+08         0.21441E+06         0.00000E+00
    0.21441E+06        -0.42725E+08         0.00000E+00
    0.00000E+00         0.00000E+00        -0.35410E+08
 
   -0.48685E+08         0.47085E+06         0.00000E+00
    0.47085E+06        -0.42947E+08         0.00000E+00
    0.00000E+00         0.00000E+00        -0.35261E+08
 
   -0.47700E+08         0.82536E+06         0.00000E+00
    0.82536E+06        -0.43251E+08         0.00000E+00
    0.00000E+00         0.00000E+00        -0.35124E+08
 
   -0.46568E+08         0.13026E+07         0.00000E+00
    0.13026E+07        -0.43649E+08         0.00000E+00
    0.00000E+00         0.00000E+00        -0.35008E+08
 
   -0.45248E+08         0.19536E+07         0.00000E+00
    0.19536E+07        -0.44175E+08         0.00000E+00
    0.00000E+00         0.00000E+00        -0.34921E+08
 
   -0.43689E+08         0.29177E+07         0.00000E+00
    0.29177E+07        -0.44873E+08         0.00000E+00
    0.00000E+00         0.00000E+00        -0.34873E+08
 
   -0.41919E+08         0.44344E+07         0.00000E+00
    0.44344E+07        -0.45760E+08         0.00000E+00
    0.00000E+00         0.00000E+00        -0.34869E+08
 
   -0.40167E+08         0.67162E+07         0.00000E+00
    0.67162E+07        -0.46718E+08         0.00000E+00
    0.00000E+00         0.00000E+00        -0.34912E+08
 
   -0.40361E+08         0.10729E+08         0.00000E+00
    0.10729E+08        -0.47300E+08         0.00000E+00
    0.00000E+00         0.00000E+00        -0.38457E+08
 
   -0.77526E+08        -0.31802E+07         0.00000E+00
   -0.31802E+07        -0.60053E+08         0.00000E+00
    0.00000E+00         0.00000E+00        -0.41886E+08
 
   -0.73292E+08        -0.65228E+07         0.00000E+00
   -0.65228E+07        -0.60331E+08         0.00000E+00
    0.00000E+00         0.00000E+00        -0.41011E+08
 
   -0.68893E+08        -0.73294E+07         0.00000E+00
   -0.73294E+07        -0.59799E+08         0.00000E+00
    0.00000E+00         0.00000E+00        -0.39469E+08
 
   -0.65470E+08        -0.70007E+07         0.00000E+00
   -0.70007E+07        -0.58536E+08         0.00000E+00
    0.00000E+00         0.00000E+00        -0.38040E+08
 
   -0.62987E+08        -0.62926E+07         0.00000E+00
   -0.62926E+07        -0.56941E+08         0.00000E+00
    0.00000E+00         0.00000E+00        -0.37135E+08
 
   -0.61186E+08        -0.55028E+07         0.00000E+00
   -0.55028E+07        -0.55257E+08         0.00000E+00
    0.00000E+00         0.00000E+00        -0.36558E+08
 
   -0.59870E+08        -0.47685E+07         0.00000E+00
   -0.47685E+07        -0.53603E+08         0.00000E+00
    0.00000E+00         0.00000E+00        -0.36039E+08
 
   -0.58892E+08        -0.41108E+07         0.00000E+00
   -0.41108E+07        -0.52030E+08         0.00000E+00
    0.00000E+00         0.00000E+00        -0.35573E+08
 
   -0.58163E+08        -0.35430E+07         0.00000E+00
   -0.35430E+07        -0.50575E+08         0.00000E+00
    0.00000E+00         0.00000E+00        -0.35151E+08
 
   -0.57611E+08        -0.30577E+07         0.00000E+00
   -0.30577E+07        -0.49246E+08         0.00000E+00
    0.00000E+00         0.00000E+00        -0.34769E+08
 
   -0.57186E+08        -0.26454E+07         0.00000E+00
   -0.26454E+07        -0.48042E+08         0.00000E+00
    0.00000E+00         0.00000E+00        -0.34422E+08
 
   -0.56845E+08        -0.22982E+07         0.00000E+00
   -0.22982E+07        -0.46941E+08         0.00000E+00
    0.00000E+00         0.00000E+00        -0.34107E+08
 
   -0.56563E+08        -0.20033E+07         0.00000E+00
   -0.20033E+07        -0.45938E+08         0.00000E+00
    0.00000E+00         0.00000E+00        -0.33821E+08
 
   -0.56329E+08        -0.17551E+07         0.00000E+00
   -0.17551E+07        -0.45027E+08         0.00000E+00
    0.00000E+00         0.00000E+00        -0.33558E+08
 
   -0.56129E+08        -0.15462E+07         0.00000E+00
   -0.15462E+07        -0.44197E+08         0.00000E+00
    0.00000E+00         0.00000E+00        -0.33313E+08
 
   -0.55956E+08        -0.13693E+07         0.00000E+00
   -0.13693E+07        -0.43443E+08         0.00000E+00
    0.00000E+00         0.00000E+00        -0.33086E+08
 
   -0.55803E+08        -0.12191E+07         0.00000E+00
   -0.12191E+07        -0.42754E+08         0.00000E+00
    0.00000E+00         0.00000E+00        -0.32875E+08
 
   -0.55665E+08        -0.10915E+07         0.00000E+00
   -0.10915E+07        -0.42126E+08         0.00000E+00
    0.00000E+00         0.00000E+00        -0.32679E+08
 
   -0.55539E+08        -0.98312E+06         0.00000E+00
   -0.98312E+06        -0.41550E+08         0.00000E+00
    0.00000E+00         0.00000E+00        -0.32496E+08
 
   -0.55420E+08        -0.89092E+06         0.00000E+00
   -0.89092E+06        -0.41021E+08         0.00000E+00
    0.00000E+00         0.00000E+00        -0.32324E+08
 
   -0.55306E+08        -0.81245E+06         0.00000E+00
   -0.81245E+06        -0.40534E+08         0.00000E+00
    0.00000E+00         0.00000E+00        -0.32162E+08
 
   -0.55194E+08        -0.74564E+06         0.00000E+00
   -0.74564E+06        -0.40085E+08         0.00000E+00
    0.00000E+00         0.00000E+00        -0.32009E+08
 
   -0.55083E+08        -0.68873E+06         0.00000E+00
   -0.68873E+06        -0.39669E+08         0.00000E+00
    0.00000E+00         0.00000E+00        -0.31864E+08
 
   -0.54969E+08        -0.64027E+06         0.00000E+00
   -0.64027E+06        -0.39284E+08         0.00000E+00
    0.00000E+00         0.00000E+00        -0.31725E+08
 
   -0.54852E+08        -0.59908E+06         0.00000E+00
   -0.59908E+06        -0.38926E+08         0.00000E+00
    0.00000E+00         0.00000E+00        -0.31592E+08
 
   -0.54728E+08        -0.56419E+06         0.00000E+00
   -0.56419E+06        -0.38592E+08         0.00000E+00
    0.00000E+00         0.00000E+00        -0.31463E+08
 
   -0.54597E+08        -0.53475E+06         0.00000E+00
   -0.53475E+06        -0.38281E+08         0.00000E+00
    0.00000E+00         0.00000E+00        -0.31338E+08
 
   -0.54455E+08        -0.50997E+06         0.00000E+00
   -0.50997E+06        -0.37991E+08         0.00000E+00
    0.00000E+00         0.00000E+00        -0.31215E+08
 
   -0.54301E+08        -0.48913E+06         0.00000E+00
   -0.48913E+06        -0.37721E+08         0.00000E+00
    0.00000E+00         0.00000E+00        -0.31094E+08
 
   -0.54132E+08        -0.47149E+06         0.00000E+00
   -0.47149E+06        -0.37471E+08         0.00000E+00
    0.00000E+00         0.00000E+00        -0.30974E+08
 
   -0.53944E+08        -0.45637E+06         0.00000E+00
   -0.45637E+06        -0.37239E+08         0.00000E+00
    0.00000E+00         0.00000E+00        -0.30855E+08
 
   -0.53736E+08        -0.44286E+06         0.00000E+00
   -0.44286E+06        -0.37027E+08         0.00000E+00
    0.00000E+00         0.00000E+00        -0.30735E+08
 
   -0.53504E+08        -0.42997E+06         0.00000E+00
   -0.42997E+06        -0.36835E+08         0.00000E+00
    0.00000E+00         0.00000E+00        -0.30613E+08
 
   -0.53243E+08        -0.41653E+06         0.00000E+00
   -0.41653E+06        -0.36665E+08         0.00000E+00
    0.00000E+00         0.00000E+00        -0.30491E+08
 
   -0.52950E+08        -0.40133E+06         0.00000E+00
   -0.40133E+06        -0.36519E+08         0.00000E+00
    0.00000E+00         0.00000E+00        -0.30366E+08
 
   -0.52617E+08        -0.38305E+06         0.00000E+00
   -0.38305E+06        -0.36400E+08         0.00000E+00
    0.00000E+00         0.00000E+00        -0.30238E+08
 
   -0.52237E+08        -0.35910E+06         0.00000E+00
   -0.35910E+06        -0.36314E+08         0.00000E+00
    0.00000E+00         0.00000E+00        -0.30107E+08
 
   -0.51804E+08        -0.32580E+06         0.00000E+00
   -0.32580E+06        -0.36266E+08         0.00000E+00
    0.00000E+00         0.00000E+00        -0.29972E+08
 
   -0.51309E+08        -0.27900E+06         0.00000E+00
   -0.27900E+06        -0.36264E+08         0.00000E+00
    0.00000E+00         0.00000E+00        -0.29833E+08
 
   -0.50741E+08        -0.21235E+06         0.00000E+00
   -0.21235E+06        -0.36319E+08         0.00000E+00
    0.00000E+00         0.00000E+00        -0.29692E+08
 
   -0.50094E+08        -0.11368E+06         0.00000E+00
   -0.11368E+06        -0.36445E+08         0.00000E+00
    0.00000E+00         0.00000E+00        -0.29548E+08
 
   -0.49341E+08         0.21340E+05         0.00000E+00
    0.21340E+05        -0.36649E+08         0.00000E+00
    0.00000E+00         0.00000E+00        -0.29404E+08
 
   -0.48424E+08         0.19984E+06         0.00000E+00
    0.19984E+06        -0.36881E+08         0.00000E+00
    0.00000E+00         0.00000E+00        -0.29267E+08
 
   -0.47337E+08         0.46772E+06         0.00000E+00
    0.46772E+06        -0.37200E+08         0.00000E+00
    0.00000E+00         0.00000E+00        -0.29142E+08
 
   -0.46081E+08         0.83257E+06         0.00000E+00
    0.83257E+06        -0.37636E+08         0.00000E+00
    0.00000E+00         0.00000E+00        -0.29033E+08
 
   -0.44566E+08         0.13236E+07         0.00000E+00
    0.13236E+07        -0.38211E+08         0.00000E+00
    0.00000E+00         0.00000E+00        -0.28946E+08
 
   -0.42624E+08         0.20406E+07         0.00000E+00
    0.20406E+07        -0.39004E+08         0.00000E+00
    0.00000E+00         0.00000E+00        -0.28886E+08
 
   -0.40131E+08         0.32767E+07         0.00000E+00
    0.32767E+07        -0.40132E+08         0.00000E+00
    0.00000E+00         0.00000E+00        -0.28855E+08
 
   -0.37374E+08         0.55374E+07         0.00000E+00
    0.55374E+07        -0.41551E+08         0.00000E+00
    0.00000E+00         0.00000E+00        -0.28856E+08
 
   -0.34348E+08         0.10141E+08         0.00000E+00
    0.10141E+08        -0.42764E+08         0.00000E+00
    0.00000E+00         0.00000E+00        -0.31306E+08
 
   -0.82670E+08        -0.34045E+07         0.00000E+00
   -0.34045E+07        -0.59861E+08         0.00000E+00
    0.00000E+00         0.00000E+00        -0.37533E+08
 
   -0.74588E+08        -0.56984E+07         0.00000E+00
   -0.56984E+07        -0.59019E+08         0.00000E+00
    0.00000E+00         0.00000E+00        -0.34420E+08
 
   -0.68659E+08        -0.55189E+07         0.00000E+00
   -0.55189E+07        -0.56668E+08         0.00000E+00
    0.00000E+00         0.00000E+00        -0.31897E+08
 
   -0.64837E+08        -0.48409E+07         0.00000E+00
   -0.48409E+07        -0.53902E+08         0.00000E+00
    0.00000E+00         0.00000E+00        -0.30043E+08
 
   -0.62258E+08        -0.41301E+07         0.00000E+00
   -0.41301E+07        -0.51218E+08         0.00000E+00
    0.00000E+00         0.00000E+00        -0.28654E+08
 
   -0.60496E+08        -0.34867E+07         0.00000E+00
   -0.34867E+07        -0.48783E+08         0.00000E+00
    0.00000E+00         0.00000E+00        -0.27684E+08
 
   -0.59259E+08        -0.29210E+07         0.00000E+00
   -0.29210E+07        -0.46622E+08         0.00000E+00
    0.00000E+00         0.00000E+00        -0.27133E+08
 
   -0.58369E+08        -0.24444E+07         0.00000E+00
   -0.24444E+07        -0.44721E+08         0.00000E+00
    0.00000E+00         0.00000E+00        -0.26784E+08
 
   -0.57724E+08        -0.20521E+07         0.00000E+00
   -0.20521E+07        -0.43052E+08         0.00000E+00
    0.00000E+00         0.00000E+00        -0.26476E+08
 
   -0.57243E+08        -0.17329E+07         0.00000E+00
   -0.17329E+07        -0.41590E+08         0.00000E+00
    0.00000E+00         0.00000E+00        -0.26202E+08
 
   -0.56892E+08        -0.14741E+07         0.00000E+00
   -0.14741E+07        -0.40312E+08         0.00000E+00
    0.00000E+00         0.00000E+00        -0.25966E+08
 
   -0.56590E+08        -0.12589E+07         0.00000E+00
   -0.12589E+07        -0.39217E+08         0.00000E+00
    0.00000E+00         0.00000E+00        -0.25902E+08
 
   -0.56348E+08        -0.10812E+07         0.00000E+00
   -0.10812E+07        -0.38275E+08         0.00000E+00
    0.00000E+00         0.00000E+00        -0.25917E+08
 
   -0.56149E+08        -0.93529E+06         0.00000E+00
   -0.93529E+06        -0.37460E+08         0.00000E+00
    0.00000E+00         0.00000E+00        -0.25953E+08
 
   -0.55978E+08        -0.81455E+06         0.00000E+00
   -0.81455E+06        -0.36751E+08         0.00000E+00
    0.00000E+00         0.00000E+00        -0.25996E+08
 
   -0.55828E+08        -0.71401E+06         0.00000E+00
   -0.71401E+06        -0.36130E+08         0.00000E+00
    0.00000E+00         0.00000E+00        -0.26041E+08
 
   -0.55695E+08        -0.63009E+06         0.00000E+00
   -0.63009E+06        -0.35584E+08         0.00000E+00
    0.00000E+00         0.00000E+00        -0.26086E+08
 
   -0.55574E+08        -0.55992E+06         0.00000E+00
   -0.55992E+06        -0.35101E+08         0.00000E+00
    0.00000E+00         0.00000E+00        -0.26128E+08
 
   -0.55461E+08        -0.50120E+06         0.00000E+00
   -0.50120E+06        -0.34670E+08         0.00000E+00
    0.00000E+00         0.00000E+00        -0.26166E+08
 
   -0.55354E+08        -0.45200E+06         0.00000E+00
   -0.45200E+06        -0.34285E+08         0.00000E+00
    0.00000E+00         0.00000E+00        -0.26196E+08
 
   -0.55250E+08        -0.41072E+06         0.00000E+00
   -0.41072E+06        -0.33937E+08         0.00000E+00
    0.00000E+00         0.00000E+00        -0.26220E+08
 
   -0.55147E+08        -0.37611E+06         0.00000E+00
   -0.37611E+06        -0.33621E+08         0.00000E+00
    0.00000E+00         0.00000E+00        -0.26237E+08
 
   -0.55043E+08        -0.34719E+06         0.00000E+00
   -0.34719E+06        -0.33330E+08         0.00000E+00
    0.00000E+00         0.00000E+00        -0.26245E+08
 
   -0.54935E+08        -0.32312E+06         0.00000E+00
   -0.32312E+06        -0.33061E+08         0.00000E+00
    0.00000E+00         0.00000E+00        -0.26246E+08
 
   -0.54823E+08        -0.30323E+06         0.00000E+00
   -0.30323E+06        -0.32810E+08         0.00000E+00
    0.00000E+00         0.00000E+00        -0.26237E+08
 
   -0.54704E+08        -0.28702E+06         0.00000E+00
   -0.28702E+06        -0.32575E+08         0.00000E+00
    0.00000E+00         0.00000E+00        -0.26218E+08
 
   -0.54577E+08        -0.27402E+06         0.00000E+00
   -0.27402E+06        -0.32351E+08         0.00000E+00
    0.00000E+00         0.00000E+00        -0.26188E+08
 
   -0.54439E+08        -0.26384E+06         0.00000E+00
   -0.26384E+06        -0.32138E+08         0.00000E+00
    0.00000E+00         0.00000E+00        -0.26146E+08
 
   -0.54287E+08        -0.25615E+06         0.00000E+00
   -0.25615E+06        -0.31932E+08         0.00000E+00
    0.00000E+00         0.00000E+00        -0.26092E+08
 
   -0.54120E+08        -0.25059E+06         0.00000E+00
   -0.25059E+06        -0.31733E+08         0.00000E+00
    0.00000E+00         0.00000E+00        -0.26022E+08
 
   -0.53935E+08        -0.24685E+06         0.00000E+00
   -0.24685E+06        -0.31538E+08         0.00000E+00
    0.00000E+00         0.00000E+00        -0.25936E+08
 
   -0.53728E+08        -0.24450E+06         0.00000E+00
   -0.24450E+06        -0.31346E+08         0.00000E+00
    0.00000E+00         0.00000E+00        -0.25830E+08
 
   -0.53496E+08        -0.24304E+06         0.00000E+00
   -0.24304E+06        -0.31156E+08         0.00000E+00
    0.00000E+00         0.00000E+00        -0.25703E+08
 
   -0.53234E+08        -0.24178E+06         0.00000E+00
   -0.24178E+06        -0.30969E+08         0.00000E+00
    0.00000E+00         0.00000E+00        -0.25551E+08
 
   -0.52939E+08        -0.23984E+06         0.00000E+00
   -0.23984E+06        -0.30783E+08         0.00000E+00
    0.00000E+00         0.00000E+00        -0.25370E+08
 
   -0.52603E+08        -0.23672E+06         0.00000E+00
   -0.23672E+06        -0.30599E+08         0.00000E+00
    0.00000E+00         0.00000E+00        -0.25155E+08
 
   -0.52218E+08        -0.23184E+06         0.00000E+00
   -0.23184E+06        -0.30416E+08         0.00000E+00
    0.00000E+00         0.00000E+00        -0.24900E+08
 
   -0.51776E+08        -0.22233E+06         0.00000E+00
   -0.22233E+06        -0.30237E+08         0.00000E+00
    0.00000E+00         0.00000E+00        -0.24597E+08
 
   -0.51269E+08        -0.20803E+06         0.00000E+00
   -0.20803E+06        -0.30068E+08         0.00000E+00
    0.00000E+00         0.00000E+00        -0.24240E+08
 
   -0.50685E+08        -0.18826E+06         0.00000E+00
   -0.18826E+06        -0.29918E+08         0.00000E+00
    0.00000E+00         0.00000E+00        -0.23815E+08
 
   -0.50009E+08        -0.16129E+06         0.00000E+00
   -0.16129E+06        -0.29807E+08         0.00000E+00
    0.00000E+00         0.00000E+00        -0.23302E+08
 
   -0.49271E+08        -0.12340E+06         0.00000E+00
   -0.12340E+06        -0.29774E+08         0.00000E+00
    0.00000E+00         0.00000E+00        -0.22704E+08
 
   -0.48263E+08        -0.57097E+05         0.00000E+00
   -0.57097E+05        -0.29948E+08         0.00000E+00
    0.00000E+00         0.00000E+00        -0.22469E+08
 
   -0.47098E+08         0.67001E+05         0.00000E+00
    0.67001E+05        -0.30298E+08         0.00000E+00
    0.00000E+00         0.00000E+00        -0.22376E+08
 
   -0.45732E+08         0.28304E+06         0.00000E+00
    0.28304E+06        -0.30829E+08         0.00000E+00
    0.00000E+00         0.00000E+00        -0.22295E+08
 
   -0.44087E+08         0.61934E+06         0.00000E+00
    0.61934E+06        -0.31553E+08         0.00000E+00
    0.00000E+00         0.00000E+00        -0.22228E+08
 
   -0.41866E+08         0.10662E+07         0.00000E+00
    0.10662E+07        -0.32461E+08         0.00000E+00
    0.00000E+00         0.00000E+00        -0.22177E+08
 
   -0.38718E+08         0.18863E+07         0.00000E+00
    0.18863E+07        -0.33603E+08         0.00000E+00
    0.00000E+00         0.00000E+00        -0.22144E+08
 
   -0.34467E+08         0.36430E+07         0.00000E+00
    0.36430E+07        -0.35364E+08         0.00000E+00
    0.00000E+00         0.00000E+00        -0.22128E+08
 
   -0.27588E+08         0.83353E+07         0.00000E+00
    0.83353E+07        -0.38228E+08         0.00000E+00
    0.00000E+00         0.00000E+00        -0.22834E+08
 
   -0.86717E+08        -0.22845E+07         0.00000E+00
   -0.22845E+07        -0.58430E+08         0.00000E+00
    0.00000E+00         0.00000E+00        -0.31047E+08
 
   -0.74550E+08        -0.24634E+07         0.00000E+00
   -0.24634E+07        -0.54281E+08         0.00000E+00
    0.00000E+00         0.00000E+00        -0.25805E+08
 
   -0.68201E+08        -0.20555E+07         0.00000E+00
   -0.20555E+07        -0.50046E+08         0.00000E+00
    0.00000E+00         0.00000E+00        -0.23402E+08
 
   -0.64311E+08        -0.16953E+07         0.00000E+00
   -0.16953E+07        -0.46394E+08         0.00000E+00
    0.00000E+00         0.00000E+00        -0.22023E+08
 
   -0.61781E+08        -0.13880E+07         0.00000E+00
   -0.13880E+07        -0.43349E+08         0.00000E+00
    0.00000E+00         0.00000E+00        -0.21205E+08
 
   -0.60080E+08        -0.11368E+07         0.00000E+00
   -0.11368E+07        -0.40831E+08         0.00000E+00
    0.00000E+00         0.00000E+00        -0.20740E+08
 
   -0.58908E+08        -0.92752E+06         0.00000E+00
   -0.92752E+06        -0.38758E+08         0.00000E+00
    0.00000E+00         0.00000E+00        -0.20532E+08
 
   -0.58075E+08        -0.75821E+06         0.00000E+00
   -0.75821E+06        -0.37062E+08         0.00000E+00
    0.00000E+00         0.00000E+00        -0.20512E+08
 
   -0.57484E+08        -0.61978E+06         0.00000E+00
   -0.61978E+06        -0.35671E+08         0.00000E+00
    0.00000E+00         0.00000E+00        -0.20576E+08
 
   -0.57051E+08        -0.51218E+06         0.00000E+00
   -0.51218E+06        -0.34525E+08         0.00000E+00
    0.00000E+00         0.00000E+00        -0.20683E+08
 
   -0.56723E+08        -0.42902E+06         0.00000E+00
   -0.42902E+06        -0.33570E+08         0.00000E+00
    0.00000E+00         0.00000E+00        -0.20814E+08
 
   -0.56459E+08        -0.36490E+06         0.00000E+00
   -0.36490E+06        -0.32759E+08         0.00000E+00
    0.00000E+00         0.00000E+00        -0.20952E+08
 
   -0.56242E+08        -0.31413E+06         0.00000E+00
   -0.31413E+06        -0.32062E+08         0.00000E+00
    0.00000E+00         0.00000E+00        -0.21088E+08
 
   -0.56062E+08        -0.27129E+06         0.00000E+00
   -0.27129E+06        -0.31461E+08         0.00000E+00
    0.00000E+00         0.00000E+00        -0.21216E+08
 
   -0.55906E+08        -0.23559E+06         0.00000E+00
   -0.23559E+06        -0.30939E+08         0.00000E+00
    0.00000E+00         0.00000E+00        -0.21337E+08
 
   -0.55768E+08        -0.20618E+06         0.00000E+00
   -0.20618E+06        -0.30483E+08         0.00000E+00
    0.00000E+00         0.00000E+00        -0.21449E+08
 
   -0.55645E+08        -0.18179E+06         0.00000E+00
   -0.18179E+06        -0.30081E+08         0.00000E+00
    0.00000E+00         0.00000E+00        -0.21551E+08
 
   -0.55532E+08        -0.16157E+06         0.00000E+00
   -0.16157E+06        -0.29724E+08         0.00000E+00
    0.00000E+00         0.00000E+00        -0.21642E+08
 
   -0.55427E+08        -0.14474E+06         0.00000E+00
   -0.14474E+06        -0.29406E+08         0.00000E+00
    0.00000E+00         0.00000E+00        -0.21721E+08
 
   -0.55325E+08        -0.13065E+06         0.00000E+00
   -0.13065E+06        -0.29118E+08         0.00000E+00
    0.00000E+00         0.00000E+00        -0.21790E+08
 
   -0.55226E+08        -0.11879E+06         0.00000E+00
   -0.11879E+06        -0.28857E+08         0.00000E+00
    0.00000E+00         0.00000E+00        -0.21848E+08
 
   -0.55127E+08        -0.10879E+06         0.00000E+00
   -0.10879E+06        -0.28619E+08         0.00000E+00
    0.00000E+00         0.00000E+00        -0.21896E+08
 
   -0.55026E+08        -0.10042E+06         0.00000E+00
   -0.10042E+06        -0.28399E+08         0.00000E+00
    0.00000E+00         0.00000E+00        -0.21935E+08
 
   -0.54921E+08        -0.93488E+05         0.00000E+00
   -0.93488E+05        -0.28195E+08         0.00000E+00
    0.00000E+00         0.00000E+00        -0.21963E+08
 
   -0.54812E+08        -0.87823E+05         0.00000E+00
   -0.87823E+05        -0.28004E+08         0.00000E+00
    0.00000E+00         0.00000E+00        -0.21982E+08
 
   -0.54695E+08        -0.83180E+05         0.00000E+00
   -0.83180E+05        -0.27823E+08         0.00000E+00
    0.00000E+00         0.00000E+00        -0.21991E+08
 
   -0.54569E+08        -0.79457E+05         0.00000E+00
   -0.79457E+05        -0.27652E+08         0.00000E+00
    0.00000E+00         0.00000E+00        -0.21989E+08
 
   -0.54433E+08        -0.76560E+05         0.00000E+00
   -0.76560E+05        -0.27486E+08         0.00000E+00
    0.00000E+00         0.00000E+00        -0.21975E+08
 
   -0.54283E+08        -0.74385E+05         0.00000E+00
   -0.74385E+05        -0.27326E+08         0.00000E+00
    0.00000E+00         0.00000E+00        -0.21950E+08
 
   -0.54117E+08        -0.72887E+05         0.00000E+00
   -0.72887E+05        -0.27170E+08         0.00000E+00
    0.00000E+00         0.00000E+00        -0.21910E+08
 
   -0.53933E+08        -0.71857E+05         0.00000E+00
   -0.71857E+05        -0.27016E+08         0.00000E+00
    0.00000E+00         0.00000E+00        -0.21856E+08
 
   -0.53727E+08        -0.71258E+05         0.00000E+00
   -0.71258E+05        -0.26863E+08         0.00000E+00
    0.00000E+00         0.00000E+00        -0.21784E+08
 
   -0.53495E+08        -0.70925E+05         0.00000E+00
   -0.70925E+05        -0.26712E+08         0.00000E+00
    0.00000E+00         0.00000E+00        -0.21692E+08
 
   -0.53233E+08        -0.70598E+05         0.00000E+00
   -0.70598E+05        -0.26560E+08         0.00000E+00
    0.00000E+00         0.00000E+00        -0.21578E+08
 
   -0.52937E+08        -0.69813E+05         0.00000E+00
   -0.69813E+05        -0.26409E+08         0.00000E+00
    0.00000E+00         0.00000E+00        -0.21436E+08
 
   -0.52601E+08        -0.68250E+05         0.00000E+00
   -0.68250E+05        -0.26260E+08         0.00000E+00
    0.00000E+00         0.00000E+00        -0.21263E+08
 
   -0.52213E+08        -0.66460E+05         0.00000E+00
   -0.66460E+05        -0.26115E+08         0.00000E+00
    0.00000E+00         0.00000E+00        -0.21066E+08
 
   -0.51768E+08        -0.63106E+05         0.00000E+00
   -0.63106E+05        -0.25974E+08         0.00000E+00
    0.00000E+00         0.00000E+00        -0.20836E+08
 
   -0.51259E+08        -0.58701E+05         0.00000E+00
   -0.58701E+05        -0.25841E+08         0.00000E+00
    0.00000E+00         0.00000E+00        -0.20557E+08
 
   -0.50674E+08        -0.54708E+05         0.00000E+00
   -0.54708E+05        -0.25716E+08         0.00000E+00
    0.00000E+00         0.00000E+00        -0.20227E+08
 
   -0.50007E+08        -0.60045E+05         0.00000E+00
   -0.60045E+05        -0.25594E+08         0.00000E+00
    0.00000E+00         0.00000E+00        -0.19830E+08
 
   -0.49218E+08        -0.75449E+05         0.00000E+00
   -0.75449E+05        -0.25468E+08         0.00000E+00
    0.00000E+00         0.00000E+00        -0.19349E+08
 
   -0.48218E+08        -0.81853E+05         0.00000E+00
   -0.81853E+05        -0.25290E+08         0.00000E+00
    0.00000E+00         0.00000E+00        -0.18781E+08
 
   -0.46987E+08        -0.72526E+05         0.00000E+00
   -0.72526E+05        -0.25114E+08         0.00000E+00
    0.00000E+00         0.00000E+00        -0.18092E+08
 
   -0.45531E+08        -0.12312E+05         0.00000E+00
   -0.12312E+05        -0.25009E+08         0.00000E+00
    0.00000E+00         0.00000E+00        -0.17188E+08
 
   -0.43797E+08         0.11821E+06         0.00000E+00
    0.11821E+06        -0.25069E+08         0.00000E+00
    0.00000E+00         0.00000E+00        -0.16015E+08
 
   -0.41554E+08         0.28901E+06         0.00000E+00
    0.28901E+06        -0.25438E+08         0.00000E+00
    0.00000E+00         0.00000E+00        -0.14921E+08
 
   -0.37919E+08         0.58749E+06         0.00000E+00
    0.58749E+06        -0.26365E+08         0.00000E+00
    0.00000E+00         0.00000E+00        -0.14862E+08
 
   -0.32403E+08         0.12963E+07         0.00000E+00
    0.12963E+07        -0.28232E+08         0.00000E+00
    0.00000E+00         0.00000E+00        -0.14854E+08
 
   -0.21901E+08         0.33208E+07         0.00000E+00
    0.33208E+07        -0.32658E+08         0.00000E+00
    0.00000E+00         0.00000E+00        -0.14849E+08
 
SCALARS stresss double 
LOOKUP_TABLE default
  -58847582.4841415     
  -59023987.9325593     
  -59125550.1981673     
  -59194090.3055810     
  -59243903.0874052     
  -59282081.3945129     
  -59312555.3923141     
  -59337698.2172955     
  -59359026.4018717     
  -59377551.7444487     
  -59393972.2883577     
  -59408782.7996188     
  -59422341.8362423     
  -59434914.0961805     
  -59446698.0411360     
  -59457844.4248961     
  -59468469.0286933     
  -59478661.6093929     
  -59488492.3148971     
  -59498016.3713714     
  -59507277.5701251     
  -59516310.9076248     
  -59525144.6200269     
  -59533801.7802823     
  -59542301.5771884     
  -59550660.3630834     
  -59558892.5348160     
  -59567011.2977843     
  -59575029.3530958     
  -59582959.5419322     
  -59590815.4782681     
  -59598612.2008738     
  -59606366.8780863     
  -59614099.6046543     
  -59621834.3400580     
  -59629600.0539100     
  -59637432.1694879     
  -59645374.4365344     
  -59653481.4286608     
  -59661821.9661964     
  -59670483.9445328     
  -59679581.3650444     
  -59689264.9538412     
  -59699738.9147480     
  -59711288.7963663     
  -59724331.2654551     
  -59739510.3976128     
  -59757919.6207912     
  -59781631.9171539     
  -59816998.4825208     
  -58735995.5790691     
  -58830195.5904699     
  -58912480.7368671     
  -58975792.3907496     
  -59025867.0770834     
  -59066554.1416307     
  -59100500.6419793     
  -59129503.5481005     
  -59154809.8768991     
  -59177302.6663313     
  -59197619.6053945     
  -59216229.4210224     
  -59233482.1463452     
  -59249642.8613560     
  -59264914.7778285     
  -59279455.3243772     
  -59293387.5551029     
  -59306808.3845969     
  -59319794.6367430     
  -59332407.5655742     
  -59344696.2931345     
  -59356700.4694197     
  -59368452.3667486     
  -59379978.5588681     
  -59391301.2932071     
  -59402439.6362076     
  -59413410.4522106     
  -59424229.2631252     
  -59434911.0272424     
  -59445470.8699015     
  -59455924.7955964     
  -59466290.4101538     
  -59476587.6827517     
  -59486839.7809760     
  -59497074.0183378     
  -59507322.9636441     
  -59517625.7769209     
  -59528029.8598813     
  -59538592.9446514     
  -59549385.8002360     
  -59560495.8254549     
  -59572031.9437566     
  -59584131.4649345     
  -59596970.0025462     
  -59610776.3324831     
  -59625854.9350835     
  -59642622.9465743     
  -59661641.3522966     
  -59683750.4730161     
  -59707031.4485822     
  -58698627.3696429     
  -58731123.0075527     
  -58779230.8515779     
  -58826751.8363460     
  -58869282.6055465     
  -58906737.8806205     
  -58939810.9405008     
  -58969294.4507777     
  -58995882.4360525     
  -59020139.6992724     
  -59042513.8146167     
  -59063356.6512671     
  -59082944.8467672     
  -59101496.6742034     
  -59119185.2034467     
  -59136148.3582531     
  -59152496.5621695     
  -59168318.5729274     
  -59183685.9746448     
  -59198656.6788025     
  -59213277.6909413     
  -59227587.3298012     
  -59241617.0348621     
  -59255392.8622035     
  -59268936.7432346     
  -59282267.5630663     
  -59295402.1028323     
  -59308355.8815576     
  -59321143.9271146     
  -59333781.5016954     
  -59346284.8045590     
  -59358671.6732892     
  -59370962.3041991     
  -59383180.0127020     
  -59395352.0552988     
  -59407510.5360940     
  -59419693.4220404     
  -59431945.6915215     
  -59444320.6384032     
  -59456881.3438520     
  -59469702.3007281     
  -59482871.1061831     
  -59496489.9645253     
  -59510676.3150067     
  -59525560.6610719     
  -59541276.7744208     
  -59557925.0755407     
  -59575477.2240496     
  -59593192.5217253     
  -59609146.5111213     
  -58683775.1733395     
  -58682877.3311729     
  -58703147.5534767     
  -58732266.8299741     
  -58763560.1828615     
  -58794253.2773951     
  -58823410.8352226     
  -58850818.0712886     
  -58876544.5183221     
  -58900757.6007403     
  -58923645.9762791     
  -58945389.0171004     
  -58966146.2059442     
  -58986054.9226465     
  -59005231.5826096     
  -59023773.9306115     
  -59041763.5642641     
  -59059268.3253854     
  -59076344.4424011     
  -59093038.4078952     
  -59109388.6129363     
  -59125426.7704828     
  -59141179.1603953     
  -59156667.7254165     
  -59171911.0437266     
  -59186925.2002947     
  -59201724.5764471     
  -59216322.5747863     
  -59230732.2946800     
  -59244967.1718294     
  -59259041.5937578     
  -59272971.5012062     
  -59286774.9830993     
  -59300472.8694957     
  -59314089.3220003     
  -59327652.4132427     
  -59341194.6739620     
  -59354753.5639939     
  -59368371.7846481     
  -59382097.2805602     
  -59395982.6517047     
  -59410083.4544078     
  -59424454.3961155     
  -59439141.4382215     
  -59454165.7679294     
  -59469490.2504500     
  -59484950.6517876     
  -59500083.7735845     
  -59513901.7636604     
  -59524637.1229124     
  -58679713.6246607     
  -58661734.9162031     
  -58663536.1213436     
  -58677145.8458606     
  -58696947.4118789     
  -58719574.0208931     
  -58743219.9187215     
  -58766968.2742733     
  -58790370.8363686     
  -58813225.2699295     
  -58835457.2449252     
  -58857058.2762222     
  -58878052.5953593     
  -58898479.3323442     
  -58918382.8754377     
  -58937807.6814254     
  -58956795.5588594     
  -58975384.3559164     
  -58993607.4619304     
  -59011493.7864415     
  -59029068.0186042     
  -59046351.0479516     
  -59063360.4730927     
  -59080111.1526012     
  -59096615.7697960     
  -59112885.3944072     
  -59128930.0314709     
  -59144759.1524756     
  -59160382.2064843     
  -59175809.1100636     
  -59191050.7145154     
  -59206119.2470413     
  -59221028.7187653     
  -59235795.2863506     
  -59250437.5441138     
  -59264976.7081256     
  -59279436.6294734     
  -59293843.5349733     
  -59308225.3302618     
  -59322610.1948045     
  -59337024.0189798     
  -59351485.9212943     
  -59366000.5257151     
  -59380544.6782030     
  -59395044.3738226     
  -59409334.8123126     
  -59423089.4543084     
  -59435718.8578981     
  -59446251.1118471     
  -59453261.8259855     
  -58680662.5962317     
  -58655354.2406241     
  -58646061.4799505     
  -58648395.5455702     
  -58658458.8626225     
  -58673351.1372135     
  -58691124.7724572     
  -58710542.1542234     
  -58730833.6131374     
  -58751523.7082014     
  -58772320.4120525     
  -58793046.2680997     
  -58813595.8035528     
  -58833908.9245104     
  -58853954.0618104     
  -58873717.3462722     
  -58893195.5884525     
  -58912391.7130459     
  -58931311.8105078     
  -58949963.2724386     
  -58968353.6616266     
  -58986490.0827256     
  -59004378.8936919     
  -59022025.6473271     
  -59039435.1857503     
  -59056611.8337246     
  -59073559.6527194     
  -59090282.7284196     
  -59106785.4713365     
  -59123072.9140116     
  -59139150.9894074     
  -59155026.7735287     
  -59170708.6708378     
  -59186206.5129419     
  -59201531.5280953     
  -59216696.1191912     
  -59231713.3577032     
  -59246596.0548984     
  -59261355.2004777     
  -59275997.4476347     
  -59290521.1480228     
  -59304910.1610971     
  -59319124.2235272     
  -59333083.9856622     
  -59346647.9520014     
  -59359577.5080678     
  -59371488.8400498     
  -59381796.0021419     
  -59389664.3263103     
  -59394000.7789586     
  -58683326.9458403     
  -58656319.9954595     
  -58641215.4959519     
  -58636176.5117355     
  -58638913.2768242     
  -58647319.4579938     
  -58659710.3844415     
  -58674835.0607831     
  -58691799.0111280     
  -58709973.3233561     
  -58728918.7476108     
  -58748329.3992123     
  -58767992.7149864     
  -58787761.3677119     
  -58807533.5909706     
  -58827239.3520870     
  -58846830.6028083     
  -58866274.3980400     
  -58885548.0511654     
  -58904635.7468301     
  -58923526.2017501     
  -58942211.0801810     
  -58960683.9517167     
  -58978939.6366748     
  -58996973.8257648     
  -59014782.8906827     
  -59032363.8237912     
  -59049714.2601797     
  -59066832.5455254     
  -59083717.8192059     
  -59100370.0845584     
  -59116790.2372115     
  -59132980.0178922     
  -59148941.8474529     
  -59164678.4880649     
  -59180192.4538627     
  -59195485.0641660     
  -59210554.9887376     
  -59225396.0714130     
  -59239994.1274248     
  -59254322.2797927     
  -59268334.2203242     
  -59281954.5488703     
  -59295065.1112497     
  -59307486.1688882     
  -59318952.0501340     
  -59329083.1366809     
  -59337360.8456852     
  -59343117.2376148     
  -59345554.4287713     
  -58685716.4354086     
  -58660089.1981518     
  -58642724.6733929     
  -58633448.5560647     
  -58631219.8706708     
  -58634721.3289141     
  -58642682.6717049     
  -58654017.8995925     
  -58667855.6692452     
  -58683520.8176492     
  -58700500.1801397     
  -58718407.9453689     
  -58736955.8786625     
  -58755929.4084238     
  -58775169.0360309     
  -58794556.1304244     
  -58814002.1877098     
  -58833440.7762502     
  -58852821.5418984     
  -58872105.7830584     
  -58891263.2150271     
  -58910269.6298483     
  -58929105.2257717     
  -58947753.4331512     
  -58966200.1043288     
  -58984432.9661449     
  -59002441.2570655     
  -59020215.4879611     
  -59037747.2774085     
  -59055029.2197928     
  -59072054.7479778     
  -59088817.9521178     
  -59105313.3122934     
  -59121535.2947488     
  -59137477.7489802     
  -59153133.0248175     
  -59168490.7035925     
  -59183535.8037850     
  -59198246.2772965     
  -59212589.5564594     
  -59226517.8457172     
  -59239961.7858001     
  -59252822.0858568     
  -59264958.8009662     
  -59276178.3364991     
  -59286219.2327187     
  -59294739.6386512     
  -59301311.7938610     
  -59305431.0918702     
  -59306547.6224689     
  -58686703.0749700     
  -58663948.5661699     
  -58646577.3682185     
  -58635388.3980666     
  -58630207.3968029     
  -58630365.6008784     
  -58635014.4572978     
  -58643305.8611132     
  -58654478.8235828     
  -58667889.6897189     
  -58683012.7960947     
  -58699428.0527877     
  -58716804.3076201     
  -58734882.7227384     
  -58753461.9236297     
  -58772385.4692316     
  -58791531.6357091     
  -58810805.2763893     
  -58830131.4462559     
  -58849450.4772606     
  -58868714.2194076     
  -58887883.2021809     
  -58906924.5117842     
  -58925810.2173992     
  -58944516.2123537     
  -58963021.3631814     
  -58981306.8811635     
  -58999355.8474814     
  -59017152.8350694     
  -59034683.5781179     
  -59051934.6443044     
  -59068893.0654717     
  -59085545.8797423     
  -59101879.5319375     
  -59117879.0695722     
  -59133527.0585058     
  -59148802.1256089     
  -59163677.0160773     
  -59178116.0319741     
  -59192071.7004391     
  -59205480.5142970     
  -59218257.6148075     
  -59230290.3855672     
  -59241431.1722029     
  -59251489.8338486     
  -59260227.6744549     
  -59267355.4606570     
  -59272539.4712746     
  -59275420.2521260     
  -59275648.3621178     
  -58685728.9474155     
  -58666392.1248325     
  -58650339.1956764     
  -58638851.5364950     
  -58632294.3119821     
  -58630472.6942683     
  -58632897.8530455     
  -58638965.0556498     
  -58648060.5842580     
  -58659618.0972698     
  -58673142.7367782     
  -58688216.5795908     
  -58704494.3805039     
  -58721694.9954878     
  -58739591.5012902     
  -58758001.5791481     
  -58776778.8916053     
  -58795805.7154204     
  -58814986.8467388     
  -58834244.6737897     
  -58853515.2622729     
  -58872745.2870819     
  -58891889.6523045     
  -58910909.6586693     
  -58929771.5976170     
  -58948445.6705776     
  -58966905.1491216     
  -58985125.7056639     
  -59003084.8550941     
  -59020761.4551457     
  -59038135.2176353     
  -59055186.1841192     
  -59071894.1182340     
  -59088237.7632787     
  -59104193.9078496     
  -59119736.1952209     
  -59134833.6048979     
  -59149448.5295621     
  -59163534.3714736     
  -59177032.5963291     
  -59189869.2217819     
  -59201950.8024836     
  -59213160.1351497     
  -59223352.1867901     
  -59232351.1868784     
  -59239950.4210414     
  -59245916.9401411     
  -59250003.9423070     
  -59251973.6935512     
  -59251633.2218439     
  -58682598.3601298     
  -58666692.3910421     
  -58652650.0993254     
  -58641911.9475867     
  -58635132.8690285     
  -58632429.7563545     
  -58633587.7920658     
  -58638214.9767604     
  -58645847.6280059     
  -58656016.0961926     
  -58668281.5008055     
  -58682253.1019773     
  -58697593.7011613     
  -58714018.2326816     
  -58731288.9026959     
  -58749208.9325097     
  -58767616.0922038     
  -58786376.6547097     
  -58805380.0598370     
  -58824534.3779311     
  -58843762.5523643     
  -58862999.3446721     
  -58882188.8835820     
  -58901282.7151929     
  -58920238.2572423     
  -58939017.5703087     
  -58957586.3697145     
  -58975913.2120313     
  -58993968.7985141     
  -59011725.3440986     
  -59029155.9647071     
  -59046234.0376282     
  -59062932.4899498     
  -59079222.9689051     
  -59095074.8462944     
  -59110454.0080955     
  -59125321.3819426     
  -59139631.1624594     
  -59153328.7123776     
  -59166348.1534639     
  -59178609.7265476     
  -59190017.1096708     
  -59200455.0560169     
  -59209787.9656793     
  -59217860.3402074     
  -59224500.4562847     
  -59229528.9505954     
  -59232774.1904845     
  -59234096.1395336     
  -59233419.7717329     
  -58677327.7777610     
  -58664598.8608596     
  -58652851.1364362     
  -58643489.0703424     
  -58637282.6783073     
  -58634529.0098793     
  -58635202.4127049     
  -58639078.3247321     
  -58645826.2431360     
  -58655074.0959347     
  -58666449.3038915     
  -58679602.5097163     
  -58694219.3428545     
  -58710024.4723197     
  -58726781.0448778     
  -58744287.6252933     
  -58762374.0071570     
  -58780896.7296506     
  -58799734.7742847     
  -58818785.6811710     
  -58837962.1788580     
  -58857189.3361900     
  -58876402.1980865     
  -58895543.8449623     
  -58914563.8078555     
  -58933416.7717144     
  -58952061.5035930     
  -58970459.9481899     
  -58988576.4387651     
  -59006376.9762111     
  -59023828.5326246     
  -59040898.3381348     
  -59057553.1112840     
  -59073758.1945263     
  -59089476.5583698     
  -59104667.6418512     
  -59119286.0056802     
  -59133279.7908395     
  -59146589.0044280     
  -59159143.7025306     
  -59170862.2151186     
  -59181649.6696746     
  -59191397.2264210     
  -59199982.6403658     
  -59207273.0012314     
  -59213130.7348427     
  -59217424.1115722     
  -59220043.5048309     
  -59220924.3736999     
  -59220077.3293616     
  -58670042.7931617     
  -58660130.7641930     
  -58650715.0738621     
  -58643059.8201248     
  -58637937.5269943     
  -58635728.0058900     
  -58636522.2620689     
  -58640216.1658290     
  -58646586.6930407     
  -58655349.1440220     
  -58666197.0372336     
  -58678827.8638365     
  -58692958.1947138     
  -58708331.2892301     
  -58724719.7486061     
  -58741925.1163990     
  -58759775.7665947     
  -58778123.9743738     
  -58796842.7346610     
  -58815822.6614596     
  -58834969.1448812     
  -58854199.8424014     
  -58873442.5195015     
  -58892633.2197412     
  -58911714.7261114     
  -58930635.2677442     
  -58949347.4242766     
  -58967807.1815118     
  -58985973.0947115     
  -59003805.5188472     
  -59021265.8679642     
  -59038315.8683711     
  -59054916.7729411     
  -59071028.5070001     
  -59086608.7211307     
  -59101611.7342737     
  -59115987.3639952     
  -59129679.6627322     
  -59142625.6131850     
  -59154753.8875816     
  -59165983.8494705     
  -59176225.0773619     
  -59185377.8181439     
  -59193334.9291437     
  -59199986.0237790     
  -59205224.6640415     
  -59208959.4936352     
  -59211130.1161561     
  -59211728.2293019     
  -59210823.9771374     
  -58660912.0604596     
  -58653441.3422484     
  -58646260.1433406     
  -58640447.2129628     
  -58636711.6613455     
  -58635449.3241582     
  -58636811.4121416     
  -58640772.3059452     
  -58647188.9222511     
  -58655848.3847873     
  -58666503.6337041     
  -58678898.2633256     
  -58692782.6004063     
  -58707923.1506624     
  -58724107.3247386     
  -58741145.0000285     
  -58758868.1001120     
  -58777129.0394997     
  -58795798.6108649     
  -58814763.6869074     
  -58833924.9613691     
  -58853194.8520781     
  -58872495.6218941     
  -58891757.7312682     
  -58910918.4110867     
  -58929920.4307067     
  -58948711.0294730     
  -58967240.9776537     
  -58985463.7327876     
  -59003334.6587515     
  -59020810.2768510     
  -59037847.5207429     
  -59054402.9702347     
  -59070432.0435453     
  -59085888.1344172     
  -59100721.6909730     
  -59114879.2493237     
  -59128302.4591426     
  -59140927.1736536     
  -59152682.7258516     
  -59163491.5789682     
  -59173269.6232560     
  -59181927.4907358     
  -59189373.3664474     
  -59195517.8725432     
  -59200281.6639248     
  -59203606.3652025     
  -59205469.3562270     
  -59205902.6337441     
  -59205015.5003473     
  -58650108.5193649     
  -58644734.4849335     
  -58639627.9469692     
  -58635673.0479763     
  -58633481.9395944     
  -58633424.2146543     
  -58635670.4202652     
  -58640239.3663572     
  -58647042.5240456     
  -58655921.8736499     
  -58666679.8516187     
  -58679101.5416613     
  -58692970.0817133     
  -58708076.5942383     
  -58724225.9694036     
  -58741239.6821031     
  -58758956.6052438     
  -58777232.5549531     
  -58795939.1007501     
  -58814962.0080940     
  -58834199.5535321     
  -58853560.8597121     
  -58872964.3324227     
  -58892336.2380710     
  -58911609.4318195     
  -58930722.2293363     
  -58949617.4052133     
  -58968241.2960102     
  -58986542.9838385     
  -59004473.5362735     
  -59021985.2795797     
  -59039031.0845249     
  -59055563.6476145     
  -59071534.7558679     
  -59086894.5311230     
  -59101590.6614663     
  -59115567.6442827     
  -59128766.0894206     
  -59141122.1640380     
  -59152567.3045770     
  -59163028.3769279     
  -59172428.5323813     
  -59180689.0806153     
  -59187732.7735690     
  -59193488.9518946     
  -59197901.0289519     
  -59200936.7505681     
  -59202601.5423564     
  -59202955.0080670     
  -59202130.2383565     
  -58637789.3305852     
  -58634217.6821664     
  -58631008.2894580     
  -58628860.6718431     
  -58628277.3071821     
  -58629577.2499569     
  -58632922.7006192     
  -58638351.0230930     
  -58645806.8584160     
  -58655171.0225854     
  -58666284.5430249     
  -58678967.3891833     
  -58693032.2112771     
  -58708293.8004412     
  -58724575.1261737     
  -58741710.7883782     
  -58759548.6168791     
  -58777950.0134289     
  -58796789.4920712     
  -58815953.7501676     
  -58835340.5011083     
  -58854857.2213593     
  -58874419.9065873     
  -58893951.8904894     
  -58913382.7518542     
  -58932647.3169129     
  -58951684.7524689     
  -58970437.7385105     
  -58988851.7055198     
  -59006874.1204836     
  -59024453.8061149     
  -59041540.2797891     
  -59058083.1022690     
  -59074031.2318302     
  -59089332.3875428     
  -59103932.4371338     
  -59117774.8411532     
  -59130800.2073314     
  -59142946.0381922     
  -59154146.7919258     
  -59164334.4210877     
  -59173439.6042079     
  -59181393.9378885     
  -59188133.4044464     
  -59193603.4620620     
  -59197766.1064141     
  -59200609.2069662     
  -59202158.3059063     
  -59202490.8576459     
  -59201752.5507228     
  -58624087.6726343     
  -58622078.6336721     
  -58620596.4335728     
  -58620174.5643019     
  -58621205.4144612     
  -58623945.4956718     
  -58628531.1888044     
  -58634999.8656475     
  -58643312.4424903     
  -58653374.6919837     
  -58665055.7677330     
  -58678203.2783037     
  -58692654.8603424     
  -58708246.5720174     
  -58724818.6102412     
  -58742218.9056096     
  -58760305.1185945     
  -58778945.4885141     
  -58798018.9000858     
  -58817414.4473447     
  -58837030.6998763     
  -58856774.8149628     
  -58876561.5914814     
  -58896312.5257712     
  -58915954.9040693     
  -58935420.9483660     
  -58954647.0206963     
  -58973572.8834296     
  -58992141.0088435     
  -59010295.9293743     
  -59027983.6199165     
  -59045150.9052099     
  -59061744.8887301     
  -59077712.4048873     
  -59092999.5041889     
  -59107550.9919927     
  -59121310.0563088     
  -59134218.0395216     
  -59146214.4334645     
  -59157237.2070825     
  -59167223.6102686     
  -59176111.6344799     
  -59183842.3469252     
  -59190363.3449980     
  -59195633.5936042     
  -59199629.9001264     
  -59202355.2374121     
  -59203849.0282338     
  -59204199.3336900     
  -59203556.6134694     
  -58609111.4112450     
  -58608476.2239202     
  -58608571.4612352     
  -58609785.4804641     
  -58612406.6176573     
  -58616624.6648237     
  -58622540.0864539     
  -58630177.6699503     
  -58639501.9204562     
  -58650432.2420135     
  -58662856.6527762     
  -58676643.3765951     
  -58691650.1003373     
  -58707730.9855287     
  -58724741.6955666     
  -58742542.7762162     
  -58761001.7381847     
  -58779994.1625399     
  -58799404.1024304     
  -58819124.0014123     
  -58839054.2977898     
  -58859102.8398904     
  -58879184.2006613     
  -58899218.9513381     
  -58919132.9323693     
  -58938856.5441002     
  -58958324.0687556     
  -58977473.0279744     
  -58996243.5756949     
  -59014577.9239858     
  -59032419.7990750     
  -59049713.9261786     
  -59066405.5448038     
  -59082439.9611675     
  -59097762.1515639     
  -59112316.4403402     
  -59126046.2890371     
  -59138894.2495814     
  -59150802.1543197     
  -59161711.6388803     
  -59171565.1194398     
  -59180307.3722037     
  -59187887.8869960     
  -59194264.1848667     
  -59199406.2964191     
  -59203302.5865321     
  -59205967.0735800     
  -59207448.3147221     
  -59207839.7945456     
  -59207291.5337314     
  -58592945.2979846     
  -58593539.4998153     
  -58595087.5092180     
  -58597852.3555540     
  -58602027.0759756     
  -58607735.1487687     
  -58615036.0303380     
  -58623933.8458701     
  -58634387.5693132     
  -58646321.4054989     
  -58659634.4828710     
  -58674209.3244382     
  -58689918.8555841     
  -58706631.9194188     
  -58724217.4076422     
  -58742547.1900998     
  -58761498.0551903     
  -58780952.8713268     
  -58800801.1595055     
  -58820939.2382396     
  -58841270.0711077     
  -58861702.9178422     
  -58882152.8642515     
  -58902540.2850866     
  -58922790.2771965     
  -58942832.0875633     
  -58962598.5514822     
  -58982025.5496683     
  -59001051.4889361     
  -59019616.8089115     
  -59037663.5167525     
  -59055134.7529668     
  -59071974.3941141     
  -59088126.7026044     
  -59103536.0401359     
  -59118146.6697962     
  -59131902.6826859     
  -59144748.0982105     
  -59156627.2028070     
  -59167485.2093556     
  -59177269.3379613     
  -59185930.4367001     
  -59193425.2762880     
  -59199719.6628525     
  -59204792.5149138     
  -59208641.0402563     
  -59211287.1196995     
  -59212784.9480546     
  -59213229.8808772     
  -59212768.2610913     
  -58575654.6322471     
  -58577370.5870339     
  -58580272.2694379     
  -58584514.5661318     
  -58590204.4770587     
  -58597401.9457700     
  -58606123.5106700     
  -58616347.7887772     
  -58628021.9230527     
  -58641068.2809648     
  -58655390.8705406     
  -58670881.1180339     
  -58687422.8093490     
  -58704896.1240673     
  -58723180.7826164     
  -58742158.3859265     
  -58761714.0583569     
  -58781737.5155417     
  -58802123.6757140     
  -58822772.9216199     
  -58843591.1046090     
  -58864489.3658621     
  -58885383.8338661     
  -58906195.2432061     
  -58926848.5079619     
  -58947272.2735476     
  -58967398.4635998     
  -58987161.8332715     
  -59006499.5368148     
  -59025350.7154363     
  -59043656.1109561     
  -59061357.7117485     
  -59078398.4397933     
  -59094721.8915010     
  -59110272.1504040     
  -59124993.6969217     
  -59138831.4492711     
  -59151730.9801202     
  -59163638.9655019     
  -59174503.9352812     
  -59184277.4072559     
  -59192915.4986229     
  -59200381.1177148     
  -59206646.8440999     
  -59211698.6047451     
  -59215540.2458418     
  -59218199.0802743     
  -59219732.4517313     
  -59220235.2826395     
  -59219848.4371424     
  -58557289.2202385     
  -58560049.1326679     
  -58564229.1631037     
  -58569890.1575482     
  -58577061.6666942     
  -58585743.8393348     
  -58595910.2536157     
  -58607511.3644807     
  -58620478.2968351     
  -58634726.7401357     
  -58650160.7319305     
  -58666676.1615131     
  -58684163.8758407     
  -58702512.3209583     
  -58721609.6973042     
  -58741345.6428491     
  -58761612.4828665     
  -58782306.0999021     
  -58803326.4838780     
  -58824578.0223625     
  -58845969.5869141     
  -58867414.4648719     
  -58888830.1783802     
  -58910138.2248076     
  -58931263.7656762     
  -58952135.2851186     
  -58972684.2339251     
  -58992844.6714633     
  -59012552.9151675     
  -59031747.2058676     
  -59050367.3969487     
  -59068354.6761983     
  -59085651.3312581     
  -59102200.5728804     
  -59117946.4347601     
  -59132833.7745830     
  -59146808.4080403     
  -59159817.4157294     
  -59171809.6717361     
  -59182736.6517203     
  -59192553.5867772     
  -59201221.0363598     
  -59208706.9583308     
  -59214989.3561256     
  -59220059.5816286     
  -59223926.3670292     
  -59226620.6474288     
  -59228201.2119780     
  -59228761.1705516     
  -59228435.1188321     
  -58537887.0471450     
  -58541636.9625767     
  -58547041.0368871     
  -58554077.1968695     
  -58562704.9228660     
  -58572868.4285855     
  -58584499.2620653     
  -58597518.4656448     
  -58611838.4690776     
  -58627364.8424589     
  -58643997.9700570     
  -58661634.6524340     
  -58680169.6118584     
  -58699496.8637501     
  -58719510.9192452     
  -58740107.7946581     
  -58761185.8173824     
  -58782646.2309719     
  -58804393.6127383     
  -58826336.1244007     
  -58848385.6202227     
  -58870457.6382124     
  -58892471.2990817     
  -58914349.1355136     
  -58936016.8714973     
  -58957403.1685629     
  -58978439.3530555     
  -58999059.1363594     
  -59019198.3384030     
  -59038794.6239375     
  -59057787.2610760     
  -59076116.9124640     
  -59093725.4712843     
  -59110555.9571212     
  -59126552.4905404     
  -59141660.3700417     
  -59155826.2806904     
  -59168998.6699900     
  -59181128.3330230     
  -59192169.2550251     
  -59202079.7647267     
  -59210824.0553886     
  -59218374.1320764     
  -59224712.2433796     
  -59229833.8539481     
  -59233751.2113418     
  -59236497.5558247     
  -59238132.0098065     
  -59238745.1514336     
  -59238465.1986474     
  -58517477.4269052     
  -58522182.3251397     
  -58528774.1878432     
  -58537156.5184764     
  -58547224.7400843     
  -58558870.6535948     
  -58571985.1022923     
  -58586459.3016304     
  -58602185.3405021     
  -58619056.2723747     
  -58636966.0842439     
  -58655809.7071905     
  -58675483.1358242     
  -58695883.6600765     
  -58716910.1779857     
  -58738463.5451133     
  -58760446.9173550     
  -58782766.0526174     
  -58805329.5483161     
  -58828049.0028532     
  -58850839.0985326     
  -58873617.6101871     
  -58896305.3481862     
  -58918826.0468692     
  -58941106.2103416     
  -58963074.9274966     
  -58984663.6675572     
  -59005806.0667293     
  -59026437.7160082     
  -59046495.9599952     
  -59065919.7169186     
  -59084649.3310274     
  -59102626.4702205     
  -59119794.0842451     
  -59136096.4420315     
  -59151479.2706838     
  -59165890.0231432     
  -59179278.3063127     
  -59191596.5060611     
  -59202800.6494828     
  -59212851.5475172     
  -59221716.2620610     
  -59229369.9409586     
  -59235798.0621819     
  -59240999.1262571     
  -59244987.8348637     
  -59247798.7936159     
  -59249490.7743503     
  -59250151.5546545     
  -59249903.2952259     
  -58496083.5842969     
  -58501723.4869425     
  -58509482.1232737     
  -58519194.8745839     
  -58530697.7993500     
  -58543833.2575495     
  -58558452.7582121     
  -58574417.7228214     
  -58591598.9245293     
  -58609875.2531044     
  -58629132.2804126     
  -58649260.9249688     
  -58670156.3679837     
  -58691717.2679042     
  -58713845.2542560     
  -58736444.6473720     
  -58759422.3392268     
  -58782687.7735891     
  -58806152.9741929     
  -58829732.5828030     
  -58853343.8818836     
  -58876906.7875199     
  -58900343.8067083     
  -58923579.9591706     
  -58946542.6678358     
  -58969161.6245486     
  -58991368.6389123     
  -59013097.4788969     
  -59034283.7122982     
  -59054864.5586124     
  -59074778.7616167     
  -59093966.4940706     
  -59112369.3076001     
  -59129930.1430496     
  -59146593.4193962     
  -59162305.2226319     
  -59177013.6196668     
  -59190669.1259837     
  -59203225.3590539     
  -59214639.9118829     
  -59224875.4819523     
  -59233901.2899079     
  -59241694.8196887     
  -59248243.9081852     
  -59253549.2095833     
  -59257627.0592802     
  -59260512.7656204     
  -59262264.3617196     
  -59262966.8432840     
  -59262736.8782026     
  -58473724.7159783     
  -58480291.6534819     
  -58489208.8128406     
  -58500247.9762842     
  -58513189.3491756     
  -58527828.2042971     
  -58543977.9359544     
  -58561470.3969183     
  -58580154.4803335     
  -58599893.7848136     
  -58620563.9927754     
  -58642050.3755803     
  -58664245.6535486     
  -58687048.2996188     
  -58710361.2829719     
  -58734091.1962816     
  -58758147.6874340     
  -58782443.1136315     
  -58806892.3444178     
  -58831412.6540983     
  -58855923.6591667     
  -58880347.2702852     
  -58904607.6399708     
  -58928631.0961232     
  -58952346.0580865     
  -58975682.9364788     
  -58998574.0210662     
  -59020953.3629649     
  -59042756.6588540     
  -59063921.1460097     
  -59084385.5180987     
  -59104089.8730001     
  -59122975.7055915     
  -59140985.9605348     
  -59158065.1626189     
  -59174159.6451049     
  -59189217.8995757     
  -59203191.0737126     
  -59216033.6457499     
  -59227704.3055626     
  -59238167.0718692     
  -59247392.6725637     
  -59255360.2108900     
  -59262059.1350294     
  -59267491.5246642     
  -59271674.7077683     
  -59274644.2259821     
  -59276457.1754670     
  -59277195.9521858     
  -59276972.4042251     
  -58450417.6123816     
  -58457913.2836869     
  -58467991.3805361     
  -58480363.1945945     
  -58494755.5781681     
  -58510918.4651630     
  -58528628.1069381     
  -58547687.0464206     
  -58567921.9623454     
  -58589180.3806779     
  -58611327.0151360     
  -58634240.2491478     
  -58657809.0534827     
  -58681930.4662407     
  -58706507.6472618     
  -58731448.4505285     
  -58756664.4251836     
  -58782070.1473311     
  -58807582.7912867     
  -58833121.8630453     
  -58858609.0354244     
  -58883968.0405145     
  -58909124.5891364     
  -58934006.2983670     
  -58958542.6168800     
  -58982664.7441969     
  -59006305.5444522     
  -59029399.4584274     
  -59051882.4198687     
  -59073691.7838419     
  -59094766.2764172     
  -59115045.9765399     
  -59134472.3427051     
  -59152988.2991183     
  -59170538.3984057     
  -59187069.0805754     
  -59202529.0506300     
  -59216869.7996656     
  -59230046.2959930     
  -59242017.8731958     
  -59252749.3405265     
  -59262212.3372758     
  -59270386.9469202     
  -59277263.5800654     
  -59282845.1296897     
  -59287149.4009865     
  -59290211.8236355     
  -59292088.4655513     
  -59292859.3753532     
  -59292632.2656856     
  -58426177.9277631     
  -58434611.9004191     
  -58445862.2765124     
  -58459581.8503558     
  -58475445.7774374     
  -58493159.8475870     
  -58512463.8572642     
  -58533131.2392580     
  -58554966.2323541     
  -58577799.7279198     
  -58601484.6708243     
  -58625891.6133339     
  -58650904.7741194     
  -58676418.7625131     
  -58702335.9943983     
  -58728564.7439677     
  -58755017.7338230     
  -58781611.1525515     
  -58808263.9934073     
  -58834897.6217956     
  -58861435.4970992     
  -58887802.9923420     
  -58913927.2712540     
  -58939737.1956301     
  -58965163.2463464     
  -58990137.4492895     
  -59014593.3032251     
  -59038465.7107965     
  -59061690.9168735     
  -59084206.4607840     
  -59105951.1508974     
  -59126865.0718540     
  -59146889.6366385     
  -59165967.6978135     
  -59184043.7345830     
  -59201064.1348948     
  -59216977.5943201     
  -59231735.6556201     
  -59245293.4142189     
  -59257610.4146147     
  -59268651.7604239     
  -59278389.4558516     
  -59286803.9890596     
  -59293886.1593135     
  -59299639.1423646     
  -59304080.7856919     
  -59307246.1300840     
  -59309190.1664598     
  -59309990.8493466     
  -59309752.3824983     
  -58401021.1773144     
  -58410409.5008043     
  -58422851.0052985     
  -58437941.1037502     
  -58455304.2172411     
  -58474602.6997312     
  -58495540.2960818     
  -58517861.4201526     
  -58541347.6762334     
  -58565812.8893659     
  -58591097.6267448     
  -58617063.8861780     
  -58643590.3550049     
  -58670568.4288123     
  -58697899.0285261     
  -58725490.1603016     
  -58753255.1132336     
  -58781111.1723744     
  -58808978.7273580     
  -58836780.6710003     
  -58864442.0010970     
  -58891889.5581351     
  -58919051.8494188     
  -58945858.9251311     
  -58972242.2838627     
  -58998134.7943599     
  -59023470.6271235     
  -59048185.1945411     
  -59072215.1019585     
  -59095498.1149385     
  -59117973.1502716     
  -59139580.3004036     
  -59160260.9030371     
  -59179957.6698966     
  -59198614.8910700     
  -59216178.7339030     
  -59232597.6579274     
  -59247822.9693848     
  -59261809.5400082     
  -59274516.7141486     
  -59285909.4253314     
  -59295959.5373845     
  -59304647.4164576     
  -59311963.7297139     
  -59317911.4567851     
  -59322508.0950279     
  -59325788.0429281     
  -59327805.1584584     
  -59328635.5045999     
  -59328380.2958745     
  -58374963.5269077     
  -58385327.6580017     
  -58398985.4939698     
  -58415475.4905604     
  -58434371.7302531     
  -58455293.4212720     
  -58477908.3927805     
  -58501932.0005433     
  -58527123.0029880     
  -58553277.7959690     
  -58580224.0867708     
  -58607814.7546516     
  -58635922.3476137     
  -58664434.4302999     
  -58693249.8314918     
  -58722275.7347135     
  -58751425.4993344     
  -58780617.0784873     
  -58809771.9016381     
  -58838814.1038861     
  -58867670.0039602     
  -58896267.7538128     
  -58924537.1020766     
  -58952409.2301878     
  -58979816.6333642     
  -59006693.0290268     
  -59032973.2831152     
  -59058593.3505886     
  -59083490.2307581     
  -59107601.9414137     
  -59130867.5184039     
  -59153227.0497007     
  -59174621.7552904     
  -59194994.1266360     
  -59214288.1420158     
  -59232449.5767300     
  -59249426.4297561     
  -59265169.4905490     
  -59279633.0707130     
  -59292775.9244342     
  -59304562.3780006     
  -59314963.6818104     
  -59323959.5879361     
  -59331540.1436950     
  -59337707.6794508     
  -59342478.9611547     
  -59345887.4792351     
  -59347985.8570626     
  -59348848.3794059     
  -59348573.6491906     
  -58348022.4272909     
  -58359388.3893969     
  -58374293.1769760     
  -58392218.1635363     
  -58412687.0266420     
  -58435275.7642772     
  -58459616.1839496     
  -58485394.4084370     
  -58512346.0945838     
  -58540249.8741094     
  -58568920.1920567     
  -58598200.3578449     
  -58627956.3014167     
  -58658071.2720253     
  -58688441.5358719     
  -58718973.0137991     
  -58749578.7381220     
  -58780176.9836122     
  -58810689.9282734     
  -58841042.7142037     
  -58871162.7998667     
  -58900979.5175009     
  -58930423.7702798     
  -58959427.8218175     
  -58987925.1452711     
  -59015850.3107745     
  -59043138.8986919     
  -59069727.4327414     
  -59095553.3319620     
  -59120554.8842653     
  -59144671.2473581     
  -59167842.4854800     
  -59190009.6529416     
  -59211114.9380615     
  -59231101.8838524     
  -59249915.7046803     
  -59267503.7208798     
  -59283815.9355499     
  -59298805.7788062     
  -59312431.0437590     
  -59324655.0344371     
  -59335447.9380107     
  -59344788.4218133     
  -59352665.4408857     
  -59359080.2268285     
  -59364048.4180603     
  -59367602.2900255     
  -59369793.0540304     
  -59370693.2115182     
  -59370398.9636857     
  -58320217.1323360     
  -58332614.8498589     
  -58348801.8622585     
  -58368201.8957747     
  -58390287.7788162     
  -58414591.9355796     
  -58440709.8319341     
  -58468298.0510280     
  -58497068.8337574     
  -58526782.7141859     
  -58557240.5196835     
  -58588275.6165524     
  -58619746.9342034     
  -58651533.0258737     
  -58683527.2279409     
  -58715633.8553024     
  -58747765.3026347     
  -58779839.8947367     
  -58811780.3292467     
  -58843512.5703541     
  -58874965.0744634     
  -58906068.2527211     
  -58936754.0977542     
  -58966955.9213657     
  -58996608.1658195     
  -59025646.2638578     
  -59054006.5321849     
  -59081626.0903782     
  -59108442.8026452     
  -59134395.2440280     
  -59159422.6960418     
  -59183465.1796699     
  -59206463.5364278     
  -59228359.5710467     
  -59249096.2723169     
  -59268618.1317283     
  -59286871.5825382     
  -59303805.5843201     
  -59319372.3791870     
  -59333528.4447674     
  -59346235.6645348     
  -59357462.7273156     
  -59367186.7544462     
  -59375395.1360788     
  -59382087.5404100     
  -59387278.0457793     
  -59390997.3411044     
  -59393294.9483608     
  -59394241.4392552     
  -59393930.6356387     
  -58291569.1308850     
  -58305031.8945416     
  -58322540.4304073     
  -58343459.8960285     
  -58367211.5155995     
  -58393283.5241072     
  -58421234.5386976     
  -58450691.1732224     
  -58481341.8736616     
  -58512928.7278397     
  -58545238.6140152     
  -58578094.6344147     
  -58611348.4061150     
  -58644873.4861374     
  -58678559.9970805     
  -58712310.3856372     
  -58746036.1734697     
  -58779655.5310967     
  -58813091.5053059     
  -58846270.7468650     
  -58879122.6091428     
  -58911578.5138748     
  -58943571.5043628     
  -58975035.9272447     
  -59005907.2010757     
  -59036121.6434859     
  -59065616.3390685     
  -59094329.0380251     
  -59122198.0815464     
  -59149162.3544938     
  -59175161.2696528     
  -59200134.7910409     
  -59224023.5067940     
  -59246768.7652365     
  -59268312.8909785     
  -59288599.5012464     
  -59307573.9458975     
  -59325183.8972227     
  -59341380.1169091     
  -59356117.4263519     
  -59369355.9016403     
  -59381062.3049131     
  -59391211.7489470     
  -59399789.5727237     
  -59406793.3852038     
  -59412235.2175557     
  -59416143.7165737     
  -59418566.3181333     
  -59419571.3578517     
  -59419250.0970408     
  -58262102.5138341     
  -58276666.5442549     
  -58295539.4069494     
  -58318026.4771987     
  -58343496.3623341     
  -58371392.2800717     
  -58401235.3291067     
  -58432621.6119673     
  -58465215.3351928     
  -58498739.7669532     
  -58532967.5133188     
  -58567711.1250527     
  -58602814.6461986     
  -58638146.3991714     
  -58673593.0756591     
  -58709055.0592934     
  -58744442.8281100     
  -58779674.2540398     
  -58814672.6165597     
  -58849365.1650644     
  -58883682.0900481     
  -58917555.7906279     
  -58950920.3517119     
  -58983711.1664590     
  -59015864.6580395     
  -59047318.0692352     
  -59078009.2996053     
  -59107876.7784412     
  -59136859.3681673     
  -59164896.2978162     
  -59191927.1302260     
  -59217891.7700856     
  -59242730.5232478     
  -59266384.2210528     
  -59288794.4269100     
  -59309903.7460081     
  -59329656.2625558     
  -59347998.1318408     
  -59364878.3558200     
  -59380249.7697339     
  -59394070.2620308     
  -59406304.2394474     
  -59416924.3328675     
  -59425913.3184031     
  -59433266.2049381     
  -59438992.4193446     
  -59443118.0100897     
  -59445687.7938827     
  -59446767.3879157     
  -59446445.0940164     
  -58231844.2920257     
  -58247548.3775133     
  -58267831.4381146     
  -58291937.6108470     
  -58319181.6581278     
  -58348960.7719391     
  -58380757.7215529     
  -58414137.4547405     
  -58448739.4303569     
  -58484267.6932830     
  -58520480.2521804     
  -58557178.8389522     
  -58594199.7001694     
  -58631405.7323961     
  -58668680.0326913     
  -58705920.7827051     
  -58743037.3018497     
  -58779947.0724434     
  -58816573.5398588     
  -58852844.5095257     
  -58888690.9900449     
  -58924046.3610897     
  -58958845.7723696     
  -58993025.7038528     
  -59026523.6371064     
  -59059277.8031766     
  -59091226.9844220     
  -59122310.3568326     
  -59152467.3662762     
  -59181637.6374624     
  -59209760.9187314     
  -59236777.0695206     
  -59262626.1008929     
  -59287248.2830800     
  -59310584.3377503     
  -59332575.7366077     
  -59353165.1317272     
  -59372296.9461698     
  -59389918.1550019     
  -59405979.2856124     
  -59420435.6607065     
  -59433248.8961832     
  -59444388.6485908     
  -59453834.5837704     
  -59461578.5126140     
  -59467626.6169990     
  -59472001.6757035     
  -59474745.2019534     
  -59475919.4215870     
  -59475609.0468113     
  -58200824.6759471     
  -58217709.8666094     
  -58239451.6926502     
  -58265231.3932059     
  -58294308.4758140     
  -58326032.9441433     
  -58359848.3040792     
  -58395287.6141123     
  -58431965.0166482     
  -58469564.8967767     
  -58507830.3313963     
  -58546551.9763370     
  -58585558.0812849     
  -58624705.9613785     
  -58663874.9979265     
  -58702961.0781001     
  -58741872.2954850     
  -58780525.6991002     
  -58818844.8790405     
  -58856758.1972932     
  -58894197.5017549     
  -58931097.1930199     
  -58967393.5430610     
  -59003024.1905192     
  -59037927.7583350     
  -59072043.5560897     
  -59105311.3422464     
  -59137671.1312173     
  -59169063.0375827     
  -59199427.1554909     
  -59228703.4758933     
  -59256831.8482560     
  -59283751.9971574     
  -59309403.6079810     
  -59333726.4999080     
  -59356660.9085688     
  -59378147.9047712     
  -59398129.9790935     
  -59416551.8238739     
  -59433361.3428954     
  -59448510.9132916     
  -59461958.9123774     
  -59473671.5034618     
  -59483624.6499192     
  -59491806.2989312     
  -59498218.6509571     
  -59502880.4153165     
  -59505828.9522754     
  -59507122.2187725     
  -59506840.4625404     
  -58169077.3247997     
  -58187186.6699960     
  -58210438.2062311     
  -58237948.4420878     
  -58268920.0649967     
  -58302654.5949304     
  -58338555.2327045     
  -58376122.3311209     
  -58414944.0904867     
  -58454684.7656840     
  -58495072.1537032     
  -58535885.5801418     
  -58576945.1148925     
  -58618102.3627820     
  -58659232.9021690     
  -58700230.2718627     
  -58741001.3136491     
  -58781462.6417915     
  -58821538.0119749     
  -58861156.3843102     
  -58900250.5067212     
  -58938755.8788726     
  -58976609.9884182     
  -59013751.7387153     
  -59050121.0095940     
  -59085658.3105245     
  -59120304.4991991     
  -59154000.5489273     
  -59186687.3561196     
  -59218305.5852102     
  -59248795.5532757     
  -59278097.1608431     
  -59306149.8793543     
  -59332892.8097784     
  -59358264.8310666     
  -59382204.8615398     
  -59404652.2605830     
  -59425547.4016100     
  -59444832.4491489     
  -59462452.3716816     
  -59478356.2158809     
  -59492498.6555347     
  -59504841.8088390     
  -59515357.2915625     
  -59524028.4439136     
  -59530852.6415688     
  -59535843.5837245     
  -59539033.4495932     
  -59540474.8310041     
  -59540242.3774766     
  -58136639.5699357     
  -58156017.8894996     
  -58180832.1804182     
  -58210132.2392568     
  -58243062.2341014     
  -58278873.7902165     
  -58316928.6665001     
  -58356693.6196364     
  -58397730.2288100     
  -58439682.1141296     
  -58482261.4275547     
  -58525235.9080618     
  -58568417.2727947     
  -58611651.3070060     
  -58654809.7258669     
  -58697783.6981895     
  -58740478.8237858     
  -58782811.3186537     
  -58824705.1639492     
  -58866089.9987509     
  -58906899.5707351     
  -58947070.5951407     
  -58986541.9062374     
  -59025253.8147377     
  -59063147.6085435     
  -59100165.1531412     
  -59136248.5625208     
  -59171339.9225387     
  -59205381.0570072     
  -59238313.3332414     
  -59270077.5089751     
  -59300613.6270233     
  -59329860.9682442     
  -59357758.0775568     
  -59384242.8821741     
  -59409252.9257941     
  -59432725.7469766     
  -59454599.4337027     
  -59474813.3881288     
  -59493309.3343480     
  -59510032.5958300     
  -59524933.6564416     
  -59537969.9986200     
  -59549108.1850316     
  -59558326.1190569     
  -59565615.3906418     
  -59570983.5951632     
  -59574456.5106159     
  -59576080.0343459     
  -59575921.8098388     
  -58103552.6157221     
  -58124246.2980987     
  -58150678.2446605     
  -58181829.4290607     
  -58216783.6837123     
  -58254741.2262457     
  -58295021.1517314     
  -58337055.6627257     
  -58380378.9879010     
  -58424613.5739157     
  -58469455.5432556     
  -58514660.7855858     
  -58560032.4971472     
  -58605410.5483408     
  -58650662.7522648     
  -58695677.9131693     
  -58740360.4300746     
  -58784626.1916454     
  -58828399.5009417     
  -58871610.7947579     
  -58914194.9589259     
  -58956090.0798001     
  -58997236.5083038     
  -59037576.1441168     
  -59077051.8731096     
  -59115607.1112852     
  -59153185.4239698     
  -59189730.2007256     
  -59225184.3753210     
  -59259490.1869079     
  -59292588.9840093     
  -59324421.0775991     
  -59354925.6539050     
  -59384040.7619270     
  -59411703.3952189     
  -59437849.6922137     
  -59462415.2840114     
  -59485335.8224549     
  -59506547.7234316     
  -59525989.1591711     
  -59543601.3270690     
  -59559330.0095417     
  -59573127.4186277     
  -59584954.2911734     
  -59594782.1687005     
  -59602595.7665402     
  -59608395.3174167     
  -59612198.7720960     
  -59614043.7556338     
  -59613989.2070927     
  -58069861.7194247     
  -58091918.5419248     
  -58120024.6872444     
  -58153090.0812359     
  -58190136.3005944     
  -58230310.5512420     
  -58272887.9653358     
  -58317265.1706985     
  -58362948.2680151     
  -58409537.9576344     
  -58456713.9268454     
  -58504219.9436673     
  -58551850.5158760     
  -58599439.5131271     
  -58646850.8243317     
  -58693970.9174664     
  -58740703.0597027     
  -58786962.9149482     
  -58832675.2392614     
  -58877771.4228608     
  -58922187.6668181     
  -58965863.6240812     
  -59008741.3730968     
  -59050764.6255612     
  -59091878.0970261     
  -59132026.9905124     
  -59171156.5597382     
  -59209211.7310003     
  -59246136.7721241     
  -59281875.0040785     
  -59316368.5565679     
  -59349558.1737879     
  -59381383.0810251     
  -59411780.9272664     
  -59440687.8236429     
  -59468038.5023646     
  -59493766.6255371     
  -59517805.2772402     
  -59540087.6744286     
  -59560548.1310773     
  -59579123.3037326     
  -59595753.7335154     
  -59610385.6786906     
  -59622973.2038879     
  -59633480.4602467     
  -59641884.0613803     
  -59648175.4410707     
  -59652363.0766511     
  -59654474.4783738     
  -59654557.8739519     
  -58035616.3505688     
  -58059085.3185952     
  -58088923.6591580     
  -58123967.9236182     
  -58163175.4195633     
  -58205638.6541730     
  -58250587.4262749     
  -58297381.7092793     
  -58345498.6517089     
  -58394516.6001068     
  -58444098.3776396     
  -58493975.3457260     
  -58543933.1530827     
  -58593799.5882251     
  -58643434.6067265     
  -58692722.3879788     
  -58741565.1611246     
  -58789878.4973754     
  -58837587.7702006     
  -58884625.5154287     
  -58930929.4655109     
  -58976441.0766070     
  -59021104.4083547     
  -59064865.2516126     
  -59107670.4284005     
  -59149467.2110278     
  -59190202.8248554     
  -59229824.0123010     
  -59268276.6455962     
  -59305505.3833466     
  -59341453.3719221     
  -59376061.9977428     
  -59409270.7011416     
  -59441016.8670458     
  -59471235.8124302     
  -59499860.8953651     
  -59526823.7752430     
  -59552054.8577799     
  -59575483.9605915     
  -59597041.2340424     
  -59616658.3658562     
  -59634270.0849739     
  -59649815.9594299     
  -59663242.4553902     
  -59674505.1934041     
  -59683571.3096537     
  -59690421.8125118     
  -59695053.8243719     
  -59697482.6160173     
  -59697743.3687513     
  -58000870.3293632     
  -58025801.5328191     
  -58057431.3534010     
  -58094520.5488636     
  -58135960.0586795     
  -58180785.9271453     
  -58228181.1819232     
  -58277468.0053055     
  -58328093.7231394     
  -58379613.6849786     
  -58431673.3955948     
  -58483991.5093327     
  -58536344.6389096     
  -58588554.4133841     
  -58640476.8555550     
  -58691993.9204639     
  -58743006.9156404     
  -58793431.4795585     
  -58843193.8000142     
  -58892227.7871011     
  -58940472.9606414     
  -58987872.8593318     
  -59034373.8227579     
  -59079924.0351246     
  -59124472.7502982     
  -59167969.6419208     
  -59210364.2408469     
  -59251605.4360746     
  -59291641.0257711     
  -59330417.3128987     
  -59367878.7461622     
  -59403967.6121835     
  -59438623.7895060     
  -59471784.5796178     
  -59503384.6348883     
  -59533356.0081445     
  -59561628.3533280     
  -59588129.3106321     
  -59612785.1117034     
  -59635521.4394186     
  -59656264.5706844     
  -59674942.8180380     
  -59691488.2657292     
  -59705838.7693881     
  -59717940.1588943     
  -59727748.5580423     
  -59735232.7198802     
  -59740376.2790295     
  -59743179.8412190     
  -59743662.8568048     
  -57965681.9430710     
  -57992126.4293472     
  -58025608.1612104     
  -58064809.5980919     
  -58108553.1320072     
  -58155816.5067666     
  -58205734.4756325     
  -58257590.2365672     
  -58310800.3751133     
  -58364896.5631427     
  -58419506.5048332     
  -58474335.8284192     
  -58529151.9241020     
  -58583770.1820918     
  -58638042.6998283     
  -58691849.2863986     
  -58745090.4649579     
  -58797682.1280343     
  -58849551.5068683     
  -58900634.1514228     
  -58950871.6659881     
  -59000209.9958264     
  -59048598.1070002     
  -59095986.9415908     
  -59142328.5631409     
  -59187575.4327747     
  -59231679.7760135     
  -59274593.0149967     
  -59316265.2517899     
  -59356644.7967216     
  -59395677.7421286     
  -59433307.5871915     
  -59469474.9242789     
  -59504117.2017736     
  -59537168.5829849     
  -59568559.9254649     
  -59598218.9096220     
  -59626070.3493555     
  -59652036.7195353     
  -59676038.9341100     
  -59697997.4028078     
  -59717833.3822970     
  -59735470.6186660     
  -59750837.2532639     
  -59763867.9370810     
  -59774506.0763416     
  -59782706.1214639     
  -59788435.8180786     
  -59791678.3601473     
  -59792434.4098646     
  -57930114.0386755     
  -57958123.7026730     
  -57993518.8059066     
  -58034900.9235213     
  -58081021.6433113     
  -58130798.4989953     
  -58183316.4009093     
  -58237818.3118855     
  -58293689.1103749     
  -58350436.0696154     
  -58407668.5798735     
  -58465078.9022976     
  -58522425.0051643     
  -58579515.9563183     
  -58636199.9395065     
  -58692354.7084019     
  -58747880.1585173     
  -58802692.6494820     
  -58856720.7175055     
  -58909901.8559650     
  -58962180.0935771     
  -59013504.1533775     
  -59063826.0253541     
  -59113099.8280906     
  -59161280.8693686     
  -59208324.8427902     
  -59254187.1181591     
  -59298822.0988443     
  -59342182.6308575     
  -59384219.4569929     
  -59424880.7160114     
  -59464111.4922413     
  -59501853.4256895     
  -59538044.3972278     
  -59572618.3078859     
  -59605504.9757930     
  -59636630.1786470     
  -59665915.8731960     
  -59693280.6251699     
  -59718640.2820917     
  -59741908.9159210     
  -59763000.0512486     
  -59781828.1773384     
  -59798310.5200792     
  -59812369.0267931     
  -59823932.4993102     
  -59832938.8060134     
  -59839337.1157299     
  -59843090.1210525     
  -59844176.2409514     
  -57894234.0897531     
  -57923861.5824212     
  -57961232.4545300     
  -58004864.7316006     
  -58053436.8635138     
  -58105804.1915027     
  -58161000.1472538     
  -58218226.1472802     
  -58276834.3435465     
  -58336306.8456104     
  -58396234.1814257     
  -58456294.8782779     
  -58516237.2666669     
  -58575864.0013658     
  -58635019.3659044     
  -58693579.1595093     
  -58751442.8253488     
  -58808527.4293511     
  -58864763.1073487     
  -58920089.6391494     
  -58974453.8630159     
  -59027807.7011660     
  -59080106.6195551     
  -59131308.3902557     
  -59181372.0613637     
  -59230257.0680236     
  -59277922.4399769     
  -59324326.0773328     
  -59369424.0783068     
  -59413170.1116306     
  -59455514.8331433     
  -59496405.3515128     
  -59535784.7526904     
  -59573591.6970119     
  -59609760.1070831     
  -59644218.9687844     
  -59676892.2717193     
  -59707699.1187109     
  -59736554.0356808     
  -59763367.5122622     
  -59788046.7984878     
  -59810496.9728234     
  -59830622.2815560     
  -59848327.7307936     
  -59863520.8942405     
  -59876113.8889515     
  -59886025.4742056     
  -59893183.2481636     
  -59897525.9461325     
  -59899005.8636877     
  -57858114.2351446     
  -57889412.8930204     
  -57928822.8071081     
  -57974775.7078254     
  -58025874.4944526     
  -58080910.2573653     
  -58138863.2426048     
  -58198891.9440996     
  -58260314.7103052     
  -58322587.6728789     
  -58385281.9090825     
  -58448061.8152763     
  -58510665.8479896     
  -58572890.1478555     
  -58634575.1111246     
  -58695594.6925146     
  -58755848.0761730     
  -58815253.3000511     
  -58873742.4286559     
  -58931257.9128289     
  -58987749.8335654     
  -59043173.7874999     
  -59097489.2274671     
  -59150658.1192234     
  -59202643.8141179     
  -59253410.0677501     
  -59302920.1576333     
  -59351136.0699846     
  -59398017.7383550     
  -59443522.3260875     
  -59487603.5515454     
  -59530211.0604905     
  -59571289.8545231     
  -59610779.7885632     
  -59648615.1542377     
  -59684724.3698073     
  -59719029.8007919     
  -59751447.7382820     
  -59781888.5633585     
  -59810257.1250709     
  -59836453.3550192     
  -59860373.1330048     
  -59881909.4057630     
  -59900953.5465068     
  -59917396.9313656     
  -59931132.7062152     
  -59942057.7300057     
  -59950074.7095202     
  -59955094.5753347     
  -59957039.1648692     
  -57821831.2867824     
  -57854855.0860637     
  -57896368.1632315     
  -57944713.1243257     
  -57998414.8214617     
  -58056197.9539706     
  -58116987.7975078     
  -58179898.4752840     
  -58244213.3908054     
  -58309361.8279293     
  -58374894.7789017     
  -58440462.0765762     
  -58505792.0426322     
  -58570674.1887856     
  -58634945.0341192     
  -58698476.8065402     
  -58761168.6423850     
  -58822939.8447713     
  -58883724.7721935     
  -58943468.9754792     
  -59002126.2631872     
  -59059656.4397366     
  -59116023.5195723     
  -59171194.2710484     
  -59225136.9845598     
  -59277820.3913245     
  -59329212.6833860     
  -59379280.6033257     
  -59427988.5852973     
  -59475297.9385673     
  -59521166.0718120     
  -59565545.7618080     
  -59608384.4744923     
  -59649623.7501095     
  -59689198.6675984     
  -59727037.4065921     
  -59763060.9283229     
  -59797182.7989819     
  -59829309.1801233     
  -59859339.0097446     
  -59887164.3940063     
  -59912671.2228541     
  -59935740.0138471     
  -59956246.9798055     
  -59974065.3122504     
  -59989066.6803939     
  -60001122.9699877     
  -60010108.3266341     
  -60015901.6100816     
  -60018389.3783811     
  -57785466.7038951     
  -57820270.2436901     
  -57863951.4656349     
  -57914760.9314183     
  -57971142.8574995     
  -58031753.3213525     
  -58095460.7565788     
  -58161333.3865081     
  -58228618.4550431     
  -58296717.4645418     
  -58365160.6347627     
  -58433582.7608571     
  -58501701.7392271     
  -58569300.3206235     
  -58636211.1520087     
  -58702304.8590005     
  -58767480.7595282     
  -58831659.7439093     
  -58894778.8687366     
  -58956787.2616194     
  -59017642.9994941     
  -59077310.6911403     
  -59135759.5568703     
  -59192961.8515146     
  -59248891.5198625     
  -59303523.0072501     
  -59356830.1733455     
  -59408785.2759220     
  -59459358.0050453     
  -59508514.5579429     
  -59556216.7519586     
  -59602421.1782746     
  -59647078.4031544     
  -59690132.2267774     
  -59731519.0126059     
  -59771167.1027595     
  -59808996.3370335     
  -59844917.6947502     
  -59878833.0791736     
  -59910635.2632683     
  -59940208.0128099     
  -59967426.3984480     
  -59992157.3036279     
  -60014260.1334056     
  -60033587.7352844     
  -60049987.5635722     
  -60063303.1577584     
  -60073376.0595797     
  -60080048.3440329     
  -60083165.9477105     
  -57749106.5307771     
  -57785745.0513827     
  -57831660.3206589     
  -57885007.8346350     
  -57944148.4820202     
  -58007667.3847746     
  -58074374.1635810     
  -58143289.5198218     
  -58213623.2388517     
  -58284748.0340680     
  -58356172.6035246     
  -58427516.1817938     
  -58498485.9145832     
  -58568857.6385738     
  -58638460.1264282     
  -58707162.5322115     
  -58774864.6038790     
  -58841489.1720199     
  -58906976.4375520     
  -58971279.6338394     
  -59034361.7082021     
  -59096192.7395073     
  -59156747.8742757     
  -59216005.6197208     
  -59273946.3774141     
  -59330551.1364764     
  -59385800.2717528     
  -59439672.4119797     
  -59492143.3570757     
  -59543185.0337681     
  -59592764.4859184     
  -59640842.9010196     
  -59687374.6780569     
  -59732306.5447125     
  -59775576.7340683     
  -59817114.2326630     
  -59856838.1130028     
  -59894656.9643172     
  -59930468.4352894     
  -59964158.9015443     
  -59995603.2689724     
  -60024664.9223093     
  -60051195.8288192     
  -60075036.8132136     
  -60096018.0376892     
  -60113959.7563475     
  -60128673.4694854     
  -60139963.6739621     
  -60147630.4668774     
  -60151473.2632095     
  -57712841.2953859     
  -57751370.7387936     
  -57799586.9958416     
  -57855547.3592854     
  -57917526.5785045     
  -57984036.3672861     
  -58053825.4474958     
  -58125865.2686166     
  -58199326.7605303     
  -58273552.7544013     
  -58348029.6054493     
  -58422360.4079698     
  -58496241.1905127     
  -58569440.6975323     
  -58641783.8159654     
  -58713138.3650941     
  -58783404.7918498     
  -58852508.2541682     
  -58920392.5898728     
  -58987015.7245522     
  -59052346.1453165     
  -59116360.1429327     
  -59179039.5940634     
  -59240370.1142078     
  -59300339.4594767     
  -59358936.0922344     
  -59416147.8533868     
  -59471960.7044398     
  -59526357.5170307     
  -59579316.8979095     
  -59630812.0444615     
  -59680809.6307261     
  -59729268.7271423     
  -59776139.7593985     
  -59821363.5131020     
  -59864870.1916870     
  -59906578.5351394     
  -59946395.0067764     
  -59984213.0545443     
  -60019912.4523484     
  -60053358.7264870     
  -60084402.6738583     
  -60112879.9850892     
  -60138611.0016683     
  -60161400.6676599     
  -60181038.7896563     
  -60197300.7951174     
  -60209949.2694679     
  -60218736.6257527     
  -60223409.2589035     
  -57676765.8662348     
  -57717242.9875763     
  -57767828.3954644     
  -57826477.9054109     
  -57891377.1755932     
  -57960961.9192081     
  -58033917.7383935     
  -58109164.9743144     
  -58185834.1897913     
  -58263237.1402527     
  -58340836.9331222     
  -58418219.8765952     
  -58495070.4678715     
  -58571150.1518202     
  -58646279.9072104     
  -58720326.3617379     
  -58793190.9530883     
  -58864801.5915859     
  -58935106.2962445     
  -59004068.3353220     
  -59071662.4798987     
  -59137872.0585979     
  -59202686.5743301     
  -59266099.7057388     
  -59328107.5658452     
  -59388707.1289706     
  -59447894.7659446     
  -59505664.8487043     
  -59562008.4003945     
  -59616911.7774860     
  -59670355.3774442     
  -59722312.3700200     
  -59772747.4529597     
  -59821615.6343162     
  -59868861.0438934     
  -59914415.7758878     
  -59958198.7636783     
  -60000114.6861689     
  -60040052.9034805     
  -60077886.4188354     
  -60113470.8645173     
  -60146643.5151979     
  -60177222.3454814     
  -60205005.1757307     
  -60229768.9977811     
  -60251269.6458619     
  -60269242.0781664     
  -60283401.6474639     
  -60293446.8271784     
  -60299063.8519699     
  -57640979.2654090     
  -57683461.8057761     
  -57736486.0156999     
  -57797902.7970814     
  -57865805.5981317     
  -57938551.3731293     
  -58014760.2237435     
  -58093299.3771829     
  -58173257.3828288     
  -58253913.6095319     
  -58334706.9142599     
  -58415206.0966104     
  -58495083.6532206     
  -58574093.4886175     
  -58652052.6385865     
  -58728826.6900396     
  -58804318.3893946     
  -58878458.8675797     
  -58951200.9274850     
  -59022513.9023159     
  -59092379.6748067     
  -59160789.5308925     
  -59227741.5977829     
  -59293238.6811276     
  -59357286.3680593     
  -59419891.3031564     
  -59481059.5744395     
  -59540795.1683303     
  -59599098.4678732     
  -59655964.7790025     
  -59711382.8764773     
  -59765333.5652287     
  -59817788.2549339     
  -59868707.5461152     
  -59918039.8252637     
  -59965719.8646622     
  -60011667.4199964     
  -60055785.8159062     
  -60097960.5070615     
  -60138057.6013940     
  -60175922.3348900     
  -60211377.4971712     
  -60244221.8288768     
  -60274228.4521266     
  -60301143.4614620     
  -60324684.9002353     
  -60344542.4748243     
  -60360378.4983107     
  -60371830.6602882     
  -60378517.2059647     
  -57605584.4360673     
  -57650131.3691262     
  -57705665.8821148     
  -57769930.3314300     
  -57840922.6362097     
  -57916918.0350659     
  -57996468.5581338     
  -58078386.1361950     
  -58161715.4999326     
  -58245702.1832848     
  -58329759.6763958     
  -58413438.4592427     
  -58496398.4958336     
  -58578385.8721106     
  -58659213.6329800     
  -58738746.4852251     
  -58816888.8329087     
  -58893575.5457173     
  -58968764.8798460     
  -59042433.0370705     
  -59114569.9332874     
  -59185175.8355294     
  -59254258.6064165     
  -59321831.3626951     
  -59387910.4088805     
  -59452513.3489025     
  -59515657.3098302     
  -59577357.2342222     
  -59637624.2133221     
  -59696463.8438049     
  -59753874.5973550     
  -59809846.1959648     
  -59864357.9871353     
  -59917377.3125954     
  -59968857.8620407     
  -60018738.0000083     
  -60066939.0497371     
  -60113363.5133404     
  -60157893.2039581     
  -60200387.2646272     
  -60240680.0533843     
  -60278578.8890430     
  -60313861.6833298     
  -60346274.5403554     
  -60375529.4918463     
  -60401302.6615113     
  -60423233.3106382     
  -60440924.3864645     
  -60453945.3195623     
  -60461837.7963571     
  -57570687.9635531     
  -57617359.8306679     
  -57675478.4737380     
  -57742673.8346858     
  -57816844.7425488     
  -57896181.5250695     
  -57979165.3422850     
  -58064550.4359632     
  -58151335.7252879     
  -58238731.2998598     
  -58326124.0345648     
  -58413045.1770328     
  -58499141.5554700     
  -58584151.1177707     
  -58667882.8572565     
  -58750200.7747804     
  -58831011.3184059     
  -58910253.6733858     
  -58987892.2957517     
  -59063911.1523105     
  -59138309.2196418     
  -59211096.8865220     
  -59282292.9877536     
  -59351922.2679992     
  -59420013.1307936     
  -59486595.5713791     
  -59551699.2242090     
  -59615351.4790249     
  -59677575.6353029     
  -59738389.0752707     
  -59797801.4419083     
  -59855812.8113281     
  -59912411.8493173     
  -59967573.9400530     
  -60021259.2713846     
  -60073410.8559228     
  -60123952.4610073     
  -60172786.4143088     
  -60219791.2469470     
  -60264819.1351256     
  -60307693.1083841     
  -60348204.0133509     
  -60386107.2639541     
  -60421119.4815077     
  -60452915.2398930     
  -60481124.2872288     
  -60505329.8098407     
  -60525068.5082379     
  -60539833.4020697     
  -60549080.2538124     
  -57536399.7502535     
  -57585259.1015226     
  -57646038.6397820     
  -57716251.7348497     
  -57793694.2714607     
  -57876468.1838647     
  -57962980.6908805     
  -58051925.7026412     
  -58142254.1125521     
  -58233138.7678786     
  -58323938.5268463     
  -58414164.3758240     
  -58503449.3244676     
  -58591522.8189026     
  -58678189.7290374     
  -58763313.5431716     
  -58846803.1859559     
  -58928602.8048421     
  -59008683.8921711     
  -59087039.1829527     
  -59163677.8623642     
  -59238621.7129012     
  -59311901.9182419     
  -59383556.3143651     
  -59453626.9371945     
  -59522157.7609975     
  -59589192.5549167     
  -59654772.8085610     
  -59718935.6935967     
  -59781712.0384999     
  -59843124.2993769     
  -59903184.5119879     
  -59961892.2094504     
  -60019232.2869568     
  -60075172.7895183     
  -60129662.5916122     
  -60182628.9292988     
  -60233974.7370635     
  -60283575.7354183     
  -60331277.2145184     
  -60376890.4688332     
  -60420188.8653874     
  -60460903.5825060     
  -60498719.1479771     
  -60533269.0450058     
  -60564131.8459343     
  -60590828.5685913     
  -60612822.1931320     
  -60629520.4502484     
  -60640282.9567776     
  -57502832.6456922     
  -57553944.6074669     
  -57617465.5175130     
  -57690787.6636841     
  -57771599.7762204     
  -57857911.5662338     
  -57948052.9132549     
  -58040654.4554302     
  -58134616.5846111     
  -58229072.8873077     
  -58323352.6270977     
  -58416945.3682954     
  -58509469.5313155     
  -58600645.6506766     
  -58690274.3936167     
  -58778218.9566644     
  -58864391.2316030     
  -58948741.0587926     
  -59031247.9091755     
  -59111914.4125834     
  -59190761.2480536     
  -59267823.0117946     
  -59343144.7690521     
  -59416779.0723829     
  -59488783.2896132     
  -59559217.1310987     
  -59628140.2998790     
  -59695610.2122444     
  -59761679.7522550     
  -59826395.0336736     
  -59889793.1479232     
  -59951899.8780292     
  -60012727.3566425     
  -60072271.6415468     
  -60130510.1748263     
  -60187399.0825104     
  -60242870.2608284     
  -60296828.1846793     
  -60349146.3662390     
  -60399663.3910263     
  -60448178.4716268     
  -60494446.4943910     
  -60538172.6028440     
  -60579006.4756320     
  -60616536.6275610     
  -60650285.2938906     
  -60679704.7386271     
  -60704176.1147146     
  -60723012.2062741     
  -60735465.3400292     
  -57470102.0350779     
  -57523535.0282975     
  -57589882.4628275     
  -57666410.6045188     
  -57750696.3862577     
  -57840653.0470358     
  -57934529.3365968     
  -58030889.3261907     
  -58128580.1218033     
  -58226693.7736159     
  -58324528.1695225     
  -58421550.1424107     
  -58517362.6570208     
  -58611676.8802929     
  -58704289.1965966     
  -58795062.7705332     
  -58883913.0250264     
  -58970796.3262395     
  -59055701.1914386     
  -59138641.4155096     
  -59219650.6139289     
  -59298777.7838341     
  -59376083.5788027     
  -59451637.0718382     
  -59525512.8437195     
  -59597788.2814547     
  -59668541.0062282     
  -59737846.3743989     
  -59805775.0110054     
  -59872390.3447135     
  -59937746.1175714     
  -60001883.8432493     
  -60064830.1842089     
  -60126594.2118169     
  -60187164.5040545     
  -60246506.0236628     
  -60304556.7062383     
  -60361223.6748545     
  -60416378.9885121     
  -60469854.8314205     
  -60521438.0665587     
  -60570864.1207732     
  -60617810.2529445     
  -60661888.3957855     
  -60702637.9677878     
  -60739519.3284557     
  -60771908.8819166     
  -60799097.1708283     
  -60820291.5377798     
  -60834624.8796586     
  -57438325.3917613     
  -57494152.0299524     
  -57563417.0089873     
  -57643255.1072306     
  -57731126.2913182     
  -57824842.5722280     
  -57922567.3083109     
  -58022794.2868765     
  -58124314.1800725     
  -58226174.9268729     
  -58327641.0260384     
  -58428155.1037312     
  -58527303.7002930     
  -58624788.1157065     
  -58720400.3806513     
  -58814003.9428703     
  -58905518.4142251     
  -58994907.6446951     
  -59082170.4151957     
  -59167333.1237863     
  -59250443.9457609     
  -59331568.0556772     
  -59410783.5965027     
  -59488178.1623785     
  -59563845.6258611     
  -59637883.1891288     
  -59710388.5738030     
  -59781457.2882713     
  -59851179.9270204     
  -59919639.4653818     
  -59986908.5166430     
  -60053046.5175934     
  -60118096.8037995     
  -60182083.5275172     
  -60245008.3594361     
  -60306846.9009096     
  -60367544.7171196     
  -60427012.8860441     
  -60485122.9471568     
  -60541701.1339188     
  -60596521.7947129     
  -60649299.9605467     
  -60699683.1200279     
  -60747242.4292182     
  -60791463.8294823     
  -60831739.8735512     
  -60867363.4495340     
  -60897524.9851289     
  -60921314.9867252     
  -60937733.7070803     
  -57407621.8018941     
  -57465920.0031518     
  -57538200.8739172     
  -57621461.5979053     
  -57713039.3669961     
  -57810639.5953931     
  -57912335.4228814     
  -58016546.1334235     
  -58122002.3892684     
  -58227705.0958936     
  -58332883.0848754     
  -58436953.1170074     
  -58539484.2328806     
  -58640167.3294303     
  -58738790.0376993     
  -58835216.4809238     
  -58929371.2379577     
  -59021226.7546658     
  -59110793.4722758     
  -59198112.0271955     
  -59283246.9862755     
  -59366281.6924973     
  -59447313.8960709     
  -59526451.9294189     
  -59603811.2503325     
  -59679511.2270309     
  -59753672.0743192     
  -59826411.8741598     
  -59897843.6291422     
  -59968072.3054795     
  -60037191.8246606     
  -60105281.9606395     
  -60172405.0929191     
  -60238602.7553374     
  -60303891.9060337     
  -60368260.8265519     
  -60431664.5386720     
  -60494019.6091364     
  -60555198.1997551     
  -60615021.2211413     
  -60673250.4737113     
  -60729579.7244700     
  -60783624.7904605     
  -60834912.8983844     
  -60882871.8797248     
  -60926820.1442639     
  -60965958.8287375     
  -60999367.9721066     
  -61026008.8830725     
  -61044734.7945626     
  -57378111.4731963     
  -57438965.8271604     
  -57514370.0427876     
  -57601176.8185297     
  -57696593.9852430     
  -57798214.2505105     
  -57904015.0294411     
  -58012336.2857258     
  -58121844.5924844     
  -58231490.4974501     
  -58340464.5876268     
  -58448155.8998682     
  -58554114.7922665     
  -58658021.1982107     
  -58759658.3504908     
  -58858891.5471776     
  -58955651.2666806     
  -59049919.8532622     
  -59141721.0209485     
  -59231111.5116936     
  -59318174.3562637     
  -59403013.3003438     
  -59485748.0608975     
  -59566510.1631174     
  -59645439.1752621     
  -59722679.2086606     
  -59798375.5856960     
  -59872671.6023643     
  -59945705.3265356     
  -60017606.3802513     
  -60088492.6556675     
  -60158466.9104458     
  -60227613.1799099     
  -60295992.9303291     
  -60363640.8604843     
  -60430560.2378655     
  -60496717.6330701     
  -60562036.8944759     
  -60626392.1908010     
  -60689599.9508255     
  -60751409.5604891     
  -60811492.7552047     
  -60869431.7903046     
  -60924706.7065248     
  -60976682.3468009     
  -61024596.2272326     
  -61067548.8906419     
  -61104498.8952741     
  -61134264.9519762     
  -61155537.6418196     
  -57349915.2443365     
  -57413418.6834570     
  -57492064.9606934     
  -57582554.4420720     
  -57681958.0651430     
  -57787748.8246380     
  -57897802.0898249     
  -58010372.9769271     
  -58124059.3003121     
  -58237757.4624070     
  -58350616.8922318     
  -58461996.8298023     
  -58571427.6652554     
  -58678577.8036348     
  -58783226.1598969     
  -58885239.8528717     
  -58984556.3916662     
  -59081169.5574687     
  -59175118.2100464     
  -59266477.3379184     
  -59355350.7863567     
  -59441865.2139085     
  -59526164.9326864     
  -59608407.3743754     
  -59688758.9916349     
  -59767391.4547862     
  -59844478.0389958     
  -59920190.1203938     
  -59994693.7132433     
  -60068145.9863629     
  -60140691.6968552     
  -60212459.4736200     
  -60283557.8724521     
  -60354071.1088995     
  -60424054.3546709     
  -60493528.4589917     
  -60562473.9298103     
  -60630823.9849950     
  -60698456.4673979     
  -60765184.4205576     
  -60830745.1592132     
  -60894787.7608905     
  -60956859.0754964     
  -61016388.6234395     
  -61072673.1475076     
  -61124862.1005365     
  -61171945.9562971     
  -61212749.8323690     
  -61245935.3266205     
  -61270013.3765159     
  -57323154.1172924     
  -57389409.9520522     
  -57471430.8806598     
  -57565755.9211749     
  -57669310.4341838     
  -57779439.6105305     
  -57893909.4738767     
  -58010883.9220256     
  -58128886.6496420     
  -58246755.5946772     
  -58363595.7411756     
  -58478734.2348743     
  -58591680.1225392     
  -58702089.7425963     
  -58809737.8955536     
  -58914494.3657980     
  -59016305.0792363     
  -59115177.0853765     
  -59211166.5775202     
  -59304369.2553464     
  -59394912.4510963     
  -59482948.5589029     
  -59568649.4127684     
  -59652201.3462665     
  -59733800.7351049     
  -59813649.8737744     
  -59891953.0723227     
  -59968912.8817304     
  -60044726.3689752     
  -60119581.3676350     
  -60193652.6281101     
  -60267097.7839671     
  -60340053.0377835     
  -60412628.4512748     
  -60484902.7005919     
  -60556917.1293578     
  -60628668.9014825     
  -60700103.0275559     
  -60771103.0205752     
  -60841479.9413106     
  -60910959.6385267     
  -60979168.0978298     
  -61045615.0123972     
  -61109676.0067831     
  -61170574.4014549     
  -61227364.0006954     
  -61278915.0806316     
  -61323906.4413049     
  -61360826.8576168     
  -61387989.1600261     
  -57297948.8425706     
  -57367073.2334711     
  -57452618.4257092     
  -57550951.6453006     
  -57658842.5893962     
  -57773499.2399775     
  -57892569.8000454     
  -58014119.5764288     
  -58136591.9756142     
  -58258761.5453602     
  -58379685.1275364     
  -58498655.2484847     
  -58615158.1706088     
  -58728837.6993828     
  -58839464.9071869     
  -58946913.3561361     
  -59051139.1017385     
  -59152164.6566546     
  -59250066.1163499     
  -59344962.7387643     
  -59437008.3877446     
  -59526384.3691903     
  -59613293.2954611     
  -59697953.7014060     
  -59780595.2032789     
  -59861454.0413816     
  -59940768.8812941     
  -60018776.7699575     
  -60095709.1542197     
  -60171787.8726999     
  -60247221.0282226     
  -60322198.6382471     
  -60396887.9448617     
  -60471428.2439912     
  -60545925.0656920     
  -60620443.5047608     
  -60695000.4659659     
  -60769555.5562781     
  -60844000.3366993     
  -60918145.6530013     
  -60991706.8183713     
  -61064286.5482461     
  -61135355.7795901     
  -61204232.8744850     
  -61270062.2332560     
  -61331794.0243188     
  -61388167.5306272     
  -61437701.3950568     
  -61478694.5826899     
  -61509241.7620588     
  -57274419.5968555     
  -57346544.5528143     
  -57435784.4413368     
  -57538322.5027341     
  -57650760.9723542     
  -57770159.6249957     
  -57894038.9558690     
  -58020357.1203665     
  -58147470.1279593     
  -58274083.5233804     
  -58399201.8660951     
  -58522080.3183673     
  -58642180.8925682     
  -58759134.5318958     
  -58872709.2307378     
  -58982783.7975536     
  -59089326.5476913     
  -59192378.1023815     
  -59292037.4883124     
  -59388450.8206229     
  -59481801.9690561     
  -59572304.7259289     
  -59660196.1008636     
  -59745730.4545685     
  -59829174.2511592     
  -59910801.2571956     
  -59990888.0485576     
  -60069709.7064468     
  -60147535.5937097     
  -60224625.1042249     
  -60301223.2724444     
  -60377556.1178468     
  -60453825.5801251     
  -60530203.8752986     
  -60606827.0708199     
  -60683787.6403001     
  -60761125.7187617     
  -60838818.7434436     
  -60916769.1437474     
  -60994789.7534193     
  -61072586.6819734     
  -61149739.5310272     
  -61225679.1098444     
  -61299663.2276922     
  -61370751.7428593     
  -61437782.8269261     
  -61499353.3050425     
  -61553806.8212446     
  -61599234.1856129     
  -61633490.1320286     
  -57252685.8052355     
  -57327962.8198984     
  -57421093.2378741     
  -57528061.9719820     
  -57645289.9037766     
  -57769675.6674608     
  -57898600.4659993     
  -58029905.3357155     
  -58161850.6895311     
  -58293066.6851689     
  -58422500.9918651     
  -58549368.4688216     
  -58673105.4520363     
  -58793329.9214884     
  -58909807.8154742     
  -59022425.1288383     
  -59131165.0984987     
  -59236089.6571840     
  -59337324.3476292     
  -59435045.9738271     
  -59529472.3803205     
  -59620853.8676794     
  -59709465.8572006     
  -59795602.5039294     
  -59879571.0230686     
  -59961686.5422764     
  -60042267.3240149     
  -60121630.2208906     
  -60200086.2352802     
  -60277936.0542409     
  -60355465.4228026     
  -60432940.2036078     
  -60510600.9484699     
  -60588656.7775806     
  -60667278.3250803     
  -60746589.4668739     
  -60826657.5015483     
  -60907481.4150961     
  -60988977.8371378     
  -61070964.3093698     
  -61153139.5628122     
  -61235060.6735303     
  -61316117.2765787     
  -61395503.5037396     
  -61472188.9987634     
  -61544891.2503039     
  -61612052.5065213     
  -61671825.5411312     
  -61722073.2289790     
  -61760386.7491433     
  -57232866.1766235     
  -57311470.6427573     
  -57408718.3527918     
  -57520378.9039269     
  -57642675.3644036     
  -57772329.9400734     
  -57906570.9162170     
  -58043110.5784469     
  -58180104.2852145     
  -58316099.5686094     
  -58449982.1226401     
  -58580923.4209016     
  -58708332.8320101     
  -58831815.6264362     
  -58951137.2227904     
  -59066193.3610975     
  -59176985.5354198     
  -59283600.8806401     
  -59386195.7093288     
  -59484981.9720428     
  -59580216.0239647     
  -59672189.1944555     
  -59761219.7583256     
  -59847645.9915865     
  -59931820.0586625     
  -60014102.5239767     
  -60094857.3110884     
  -60174446.9499274     
  -60253227.9594356     
  -60331546.2107149     
  -60409732.1054440     
  -60488095.3860859     
  -60566919.3680906     
  -60646454.3496528     
  -60726909.9119546     
  -60808445.7738731     
  -60891160.8141081     
  -60975079.8288528     
  -61060137.5685912     
  -61146159.6150109     
  -61232839.7487959     
  -61319713.6601663     
  -61406129.2110655     
  -61491214.0140615     
  -61573841.8772445     
  -61652600.6709595     
  -61725765.3312006     
  -61791280.8509347     
  -61846760.8889508     
  -61889507.4743430     
  -57215079.0427180     
  -57297215.6228493     
  -57398845.0036019     
  -57515501.2043974     
  -57643189.8615504     
  -57778438.5947565     
  -57918306.6916234     
  -58060364.0927327     
  -58202650.2027529     
  -58343621.7587716     
  -58482096.9328180     
  -58617200.6745890     
  -58748314.3694775     
  -58875031.3590151     
  -58997118.7800863     
  -59114485.4827507     
  -59227155.4038889     
  -59335245.6160689     
  -59438948.2574080     
  -59538515.6150045     
  -59634247.7364091     
  -59726482.0517159     
  -59815584.5870720     
  -59901942.4314450     
  -59985957.1805932     
  -60068039.1265225     
  -60148601.9896720     
  -60228058.0071663     
  -60306813.1957770     
  -60385262.6041166     
  -60463785.3556746     
  -60542739.2626248     
  -60622454.7595260     
  -60703227.8658459     
  -60785311.8370738     
  -60868907.1081288     
  -60954149.0748490     
  -61041093.2092068     
  -61129696.9778077     
  -61219798.0559212     
  -61311088.4353169     
  -61403084.2574281     
  -61495091.6138011     
  -61586169.1912933     
  -61675089.5314364     
  -61760301.8139432     
  -61839900.3838074     
  -61911604.5232176     
  -61972755.8486956     
  -62020339.5522227     
  -57199443.1197349     
  -57285352.3020229     
  -57391673.4561663     
  -57513680.6901677     
  -57647138.6883135     
  -57788358.8207443     
  -57934212.3465909     
  -58082110.9610163     
  -58229965.5811266     
  -58376132.9913054     
  -58519357.8881619     
  -58658715.6443541     
  -58793559.1206576     
  -58923471.2692035     
  -59048224.1275790     
  -59167744.0628617     
  -59282082.7066949     
  -59391392.8372957     
  -59495908.4299838     
  -59595928.1493113     
  -59691801.6466720     
  -59783918.1275257     
  -59872696.7451906     
  -59958578.4556453     
  -60042019.0276415     
  -60123482.9453859     
  -60203437.9690765     
  -60282350.1338182     
  -60360678.9716082     
  -60438872.7352135     
  -60517363.3871962     
  -60596561.0918412     
  -60676847.9117923     
  -60758570.3644816     
  -60842030.4365488     
  -60927474.5899490     
  -61015080.2273618     
  -61104939.0281498     
  -61197036.5382474     
  -61291227.4263086     
  -61387205.9433485     
  -61484471.3933931     
  -61582288.8940325     
  -61679646.4311301     
  -61775210.2250542     
  -61867281.7162491     
  -61953760.9551089     
  -62032122.6247222     
  -62099411.9173819     
  -62152267.3160594     
  -57186078.8507774     
  -57276044.9876076     
  -57387423.6055319     
  -57515199.4742538     
  -57654867.9682566     
  -57802498.2554811     
  -57954750.9927835     
  -58108861.0354869     
  -58262596.4523081     
  -58414203.9073470     
  -58562348.3774932     
  -58706052.9061782     
  -58844642.0416748     
  -58977690.9546217     
  -59104981.0226503     
  -59226461.8735549     
  -59342219.4140891     
  -59452449.1492974     
  -59557434.0345901     
  -59657526.1331710     
  -59753131.4271418     
  -59844697.2205503     
  -59932701.6588508     
  -60017644.9628539     
  -60100042.0331654     
  -60180416.1233443     
  -60259293.3079144     
  -60337197.4865250     
  -60414645.6692022     
  -60492143.2803677     
  -60570179.2010881     
  -60649220.2393095     
  -60729704.6759162     
  -60812034.4799839     
  -60896565.7203862     
  -60983596.6261835     
  -61073352.6721855     
  -61165968.0020656     
  -61261462.4712018     
  -61359713.6274888     
  -61460423.0951426     
  -61563077.1395536     
  -61666901.7325449     
  -61770813.2650192     
  -61873367.2039603     
  -61972708.4493066     
  -62066528.8104639     
  -62152038.6460489     
  -62225960.8296735     
  -62284555.0298145     
  -57175110.5386577     
  -57269471.7582451     
  -57386341.1628763     
  -57520378.3439956     
  -57666774.9858756     
  -57821326.8475728     
  -57980457.1669836     
  -58141202.2446110     
  -58301170.9398469     
  -58458488.6604117     
  -58611734.3349090     
  -58759876.5463669     
  -58902212.8810547     
  -59038314.8122343     
  -59167979.1514549     
  -59291186.2309594     
  -59408064.4548296     
  -59518860.5847115     
  -59623915.0251040     
  -59723641.3755798     
  -59818509.5735047     
  -59909032.0280767     
  -59995752.2252677     
  -60079235.3532690     
  -60160060.5549780     
  -60238814.4568958     
  -60316085.6529767     
  -60392459.8383386     
  -60468515.2918682     
  -60544818.3987111     
  -60621918.8829052     
  -60700344.3860933     
  -60780593.9793839     
  -60863130.1316335     
  -60948368.5798210     
  -61036665.4597559     
  -61128300.9668470     
  -61223458.7428157     
  -61322200.1505164     
  -61424432.6428050     
  -61529871.6033050     
  -61637995.3994405     
  -61747994.0101286     
  -61858712.5354130     
  -61968592.2008322     
  -62075613.1171886     
  -62177244.9296765     
  -62270413.3145918     
  -62351491.5428353     
  -62416326.1531321     
  -57166669.5489574     
  -57265830.0563506     
  -57388705.9701962     
  -57529587.7335274     
  -57683321.4345646     
  -57845391.7803393     
  -58011952.7157405     
  -58179816.7023074     
  -58346414.9076422     
  -58509739.5229688     
  -58668277.3550280     
  -58820941.4793806     
  -58967005.5324828     
  -59106043.3817681     
  -59237875.5209174     
  -59362522.5721548     
  -59480165.6693350     
  -59591113.1578251     
  -59695772.8961674     
  -59794629.4109031     
  -59888225.1880467     
  -59977145.4473388     
  -60062005.8167122     
  -60143442.3920628     
  -60222103.7253233     
  -60298644.3294819     
  -60373719.3218290     
  -60447979.8462042     
  -60522068.9211194     
  -60596617.3527554     
  -60672239.3288846     
  -60749527.2704277     
  -60829045.4603539     
  -60911321.8945556     
  -60996837.7076070     
  -61086013.4228950     
  -61179191.1720174     
  -61276611.9413642     
  -61378386.8643147     
  -61484461.6289175     
  -61594573.2712760     
  -61708199.0447608     
  -61824497.7711075     
  -61942245.1601257     
  -62059766.0686255     
  -62174868.5315631     
  -62284786.5056370     
  -62386140.3119092     
  -62474925.1817147     
  -62546538.1352117     
  -57160898.9573463     
  -57265344.4125004     
  -57394843.1327223     
  -57543262.0660588     
  -57705050.3686587     
  -57875336.1795918     
  -58049966.2946529     
  -58225500.0464957     
  -58399170.2890453     
  -58568823.5194275     
  -58732849.1332896     
  -58890105.3920903     
  -59039847.3577813     
  -59181660.0736989     
  -59315398.7373041     
  -59441136.5158876     
  -59559119.9389634     
  -59669731.3767129     
  -59773457.8984444     
  -59870865.7267879     
  -59962579.5071793     
  -60049265.6593334     
  -60131619.1425958     
  -60210353.0350464     
  -60286190.3884078     
  -60359857.8727133     
  -60432080.7639887     
  -60503578.8535387     
  -60575062.8676109     
  -60647230.9798425     
  -60720764.9742756     
  -60796325.5719798     
  -60874546.3678364     
  -60956025.7352622     
  -61041315.9473675     
  -61130908.6392231     
  -61225215.6102233     
  -61324543.8604184     
  -61429063.7055026     
  -61538768.8728424     
  -61653427.7126692     
  -61772525.1448849     
  -61895195.7881063     
  -62020149.9575856     
  -62145595.9099158     
  -62269163.8203588     
  -62387839.3484403     
  -62497916.9379936     
  -62594984.5846418     
  -62673951.6293886     
  -57157960.1414666     
  -57268277.0337232     
  -57405137.8767960     
  -57561918.4534897     
  -57732607.8176075     
  -57911922.4329562     
  -58095357.0994476     
  -58279184.3630202     
  -58460416.1691077     
  -58636740.8785341     
  -58806446.7673952     
  -58968340.6294580     
  -59121667.6165163     
  -59266036.2836364     
  -59401351.0802565     
  -59527753.2597900     
  -59645570.3186107     
  -59755273.5392444     
  -59857442.9167884     
  -59952738.6161492     
  -60041878.0803653     
  -60125617.9429550     
  -60204739.9597981     
  -60280040.2490897     
  -60352321.1995279     
  -60422385.4700147     
  -60491031.5545471     
  -60559050.4208307     
  -60627222.7481896     
  -60696316.2873350     
  -60767082.8390699     
  -60840254.2985758     
  -60916537.1344548     
  -60996604.5664017     
  -61081085.5742598     
  -61170549.7212990     
  -61265486.6209007     
  -61366278.7451719     
  -61473166.2084913     
  -61586202.2190546     
  -61705198.1561746     
  -61829657.7936792     
  -61958701.1464787     
  -62090979.8476780     
  -62224587.9009984     
  -62356974.0471236     
  -62484864.6491110     
  -62604208.5577578     
  -62710157.1784140     
  -62797092.7754748     
  -57158041.9853326     
  -57274942.2341067     
  -57420055.3153583     
  -57586180.9870362     
  -57766770.1894816     
  -57956061.0062769     
  -58149143.3765456     
  -58341964.8528080     
  -58531292.3772588     
  -58714644.6845006     
  -58890207.9671545     
  -59056744.7960464     
  -59213503.5676218     
  -59360133.3113306     
  -59496606.6987722     
  -59623152.5953587     
  -59740198.4453671     
  -59848322.1043628     
  -59948212.3400335     
  -60040637.0307922     
  -60126418.0328055     
  -60206411.7085028     
  -60281494.1761452     
  -60352550.4256798     
  -60420466.5346536     
  -60486124.2991639     
  -60550397.6621707     
  -60614150.3705942     
  -60678234.3200788     
  -60743488.0490055     
  -60810734.8181523     
  -60880779.6561723     
  -60954404.6610735     
  -61032361.7229073     
  -61115361.6748836     
  -61204058.6970045     
  -61299028.6055408     
  -61400739.4947928     
  -61509513.1049374     
  -61625475.3439078     
  -61748494.6870311     
  -61878107.8263761     
  -62013433.0539267     
  -62153073.5250402     
  -62295014.7867656     
  -62436523.6922377     
  -62574058.8297547     
  -62703205.4340453     
  -62818649.6685755     
  -62914206.9342174     
  -57161373.5830411     
  -57285726.0040151     
  -57440166.6349886     
  -57616812.1141863     
  -57808478.7168172     
  -58008845.5931401     
  -58212536.0231199     
  -58415129.9835129     
  -58613124.7768677     
  -58803860.4142110     
  -58985424.4423708     
  -59156548.0178775     
  -59316501.9548149     
  -59464998.6475322     
  -59602103.4152279     
  -59728157.0063339     
  -59843709.7104592     
  -59949466.6762338     
  -60046243.5280168     
  -60134931.1191109     
  -60216468.1735130     
  -60291820.5893077     
  -60361966.2582249     
  -60427884.3653360     
  -60490548.2487293     
  -60550921.0073010     
  -60609953.1365153     
  -60668581.5411540     
  -60727729.3162434     
  -60788305.6986671     
  -60851205.5686460     
  -60917307.8184188     
  -60987471.8015964     
  -61062530.9287849     
  -61143282.2846672     
  -61230470.9170155     
  -61324767.2085585     
  -61426735.5247172     
  -61536792.1936389     
  -61655150.9074595     
  -61781753.9515187     
  -61916188.4077011     
  -62057587.7744296     
  -62204521.3971847     
  -62354876.7233034     
  -62505742.5618826     
  -62653304.9433057     
  -62792770.3092210     
  -62918332.7972483     
  -63023202.0086197     
  -57168241.6067514     
  -57301112.4094394     
  -57466183.5925486     
  -57654752.8284143     
  -57858882.2015229     
  -58071595.1692702     
  -58286977.0532665     
  -58500194.0928168     
  -58707450.4695819     
  -58905902.9382041     
  -59093550.5399046     
  -59269113.5675411     
  -59431912.3392281     
  -59581752.9632186     
  -59718824.4314277     
  -59843609.1697080     
  -59956807.5839852     
  -60059276.0885053     
  -60151977.4743323     
  -60235942.1608670     
  -60312238.7724671     
  -60381952.5177479     
  -60446169.9621168     
  -60505968.9330427     
  -60562412.4544577     
  -60616545.7534220     
  -60669395.5072435     
  -60721970.5952884     
  -60775263.6815517     
  -60830252.9773616     
  -60887903.5140833     
  -60949167.1888245     
  -61014980.7275076     
  -61086260.5360439     
  -61163893.1820635     
  -61248719.9742466     
  -61341513.8041205     
  -61442946.1267212     
  -61553541.7510648     
  -61673619.0946717     
  -61803213.8732131     
  -61941985.0212431     
  -62089103.1485728     
  -62243124.1533583     
  -62401853.7390277     
  -62562212.3263636     
  -62720113.7862661     
  -62870374.8700248     
  -63006674.2454849     
  -63121579.3145969     
  -57179013.8425973     
  -57321718.9755390     
  -57499003.5787222     
  -57701173.5037103     
  -57919389.0567413     
  -58145902.8688649     
  -58374181.6808115     
  -58598930.0742202     
  -58816039.5647336     
  -59022486.8456669     
  -59216202.4071004     
  -59395926.7444890     
  -59561066.9583406     
  -59711562.4063846     
  -59847764.5718167     
  -59970333.5955543     
  -60080151.9729007     
  -60178254.6344868     
  -60265773.8807044     
  -60343897.2785462     
  -60413836.5366111     
  -60476805.4488251     
  -60534005.1657809     
  -60586615.2619493     
  -60635789.2822476     
  -60682653.6502194     
  -60728308.9887981     
  -60773833.0350765     
  -60820284.4173455     
  -60868706.6015947     
  -60920131.3012954     
  -60975580.5735706     
  -61036066.6913357     
  -61102588.6798411     
  -61176124.1354963     
  -61257614.6102657     
  -61347942.4653281     
  -61447896.7150340     
  -61558125.0733052     
  -61679069.3039751     
  -61810881.2447548     
  -61953317.7523666     
  -62105614.5503263     
  -62266341.7360574     
  -62433247.5282118     
  -62603101.4157313     
  -62771552.5529849     
  -62933023.0652079     
  -63080657.7353174     
  -63206349.9923711     
  -57194170.7818326     
  -57348343.6932393     
  -57539767.7625163     
  -57757537.0085606     
  -57991728.8853794     
  -58233690.2790904     
  -58476180.9581616     
  -58713397.5881489     
  -58940907.7249898     
  -59155523.3811434     
  -59355140.3503508     
  -59538564.3306705     
  -59705339.3027982     
  -59855588.4345260     
  -59989873.4416233     
  -60109075.0015239     
  -60214294.4591978     
  -60306775.5481858     
  -60387843.9950686     
  -60458862.5028689     
  -60521198.5606228     
  -60576202.6768544     
  -60625194.8905793     
  -60669457.7097685     
  -60710233.9214904     
  -60748727.9842380     
  -60786109.9364246     
  -60823520.9276154     
  -60862079.5961721     
  -60902888.5751329     
  -60947040.4034105     
  -60995622.0465878     
  -61049717.0842881     
  -61110404.3925279     
  -61178751.8347968     
  -61255803.0761521     
  -61342555.1648162     
  -61439924.0240454     
  -61548694.5415559     
  -61669451.6727821     
  -61802489.1066299     
  -61947692.8862124     
  -62104399.2988979     
  -62271229.6726962     
  -62445909.5214239     
  -62625085.3669161     
  -62804158.4861256     
  -62977159.2205889     
  -63136686.6880940     
  -63273935.4105915     
  -57214347.5323882     
  -57382026.6814069     
  -57589934.7619250     
  -57825674.9235236     
  -58078022.1975821     
  -58337263.3479286     
  -58595358.9000073     
  -58845958.8122843     
  -59084310.0404210     
  -59307093.5519113     
  -59512223.3801208     
  -59698633.3958157     
  -59866070.2327264     
  -60014904.2326564     
  -60145964.8868179     
  -60260403.1975163     
  -60359580.5920136     
  -60444982.2895855     
  -60518152.1109223     
  -60580645.3904467     
  -60633996.7049612     
  -60679699.4082085     
  -60719194.3455058     
  -60753865.5377776     
  -60785041.0211019     
  -60813997.3781222     
  -60841966.7869058     
  -60870145.6346334     
  -60899703.8953902     
  -60931794.5516992     
  -60967562.3456743     
  -61008151.0730698     
  -61054708.4749846     
  -61108387.5288118     
  -61170342.5836672     
  -61241718.3214494     
  -61323628.9588073     
  -61417124.4652220     
  -61523139.9255035     
  -61642423.6571103     
  -61775439.5484848     
  -61922239.7091753     
  -62082305.4696814     
  -62254358.6427179     
  -62436151.1121408     
  -62624248.8303974     
  -62813834.5361711     
  -62998559.1276458     
  -63170471.7161025     
  -63320051.3297625     
  -57240388.5714080     
  -57424129.6027184     
  -57651371.5038929     
  -57907875.7520151     
  -58180853.7727448     
  -58459362.0281379     
  -58734473.2549537     
  -58999268.5850591     
  -59248701.4930262     
  -59479381.7478831     
  -59689319.9258144     
  -59877663.5031250     
  -60044446.0428000     
  -60190362.6581069     
  -60316578.3092274     
  -60424570.6580790     
  -60516006.0025427     
  -60592644.9351542     
  -60656273.4896263     
  -60708655.3421122     
  -60751500.8665253     
  -60786449.3095409     
  -60815060.9137815     
  -60838816.3876667     
  -60859121.6443254     
  -60877316.1819914     
  -60894683.8427954     
  -60912464.9632007     
  -60931869.1188225     
  -60954087.7706789     
  -60980306.1388222     
  -61011713.5593834     
  -61049511.4153445     
  -61094917.4596027     
  -61149164.9590449     
  -61213494.5691626     
  -61289136.1945150     
  -61377277.3097182     
  -61479013.3477632     
  -61595274.9090932     
  -61726725.9306689     
  -61873627.0287509     
  -62035659.7745980     
  -62211711.8037073     
  -62399630.4529263     
  -62595964.1277778     
  -62795723.4197217     
  -62992202.9152938     
  -63176903.2694326     
  -63339578.5363793     
  -57273417.7597234     
  -57476435.2234328     
  -57726460.7830718     
  -58006980.1586389     
  -58303339.7778109     
  -58603189.2427391     
  -58896641.8763989     
  -59176218.3453151     
  -59436641.9269321     
  -59674547.2059024     
  -59888152.1597371     
  -60076930.3333827     
  -60241307.3503672     
  -60382395.5662625     
  -60501772.6832287     
  -60601304.5612436     
  -60683008.9517863     
  -60748954.9963748     
  -60801192.6209202     
  -60841706.0174237     
  -60872385.9186138     
  -60895016.1054282     
  -60911270.3841005     
  -60922717.0317264     
  -60930828.3833883     
  -60936993.7967334     
  -60942534.6758669     
  -60948720.5693942     
  -60956785.5846147     
  -60967944.4876987     
  -60983407.8915519     
  -61004395.8679598     
  -61032149.1526344     
  -61067936.8304709     
  -61113058.9794439     
  -61168842.1984193     
  -61236625.2293444     
  -61317730.9926259     
  -61413420.2799074     
  -61524821.1151765     
  -61652826.5176706     
  -61797952.4380955     
  -61960147.9242559     
  -62138552.9247519     
  -62331208.2794296     
  -62534739.1422685     
  -62744055.3098012     
  -62952129.6445745     
  -63149914.7892604     
  -63326428.6844135     
  -57314925.1626709     
  -57541267.2512690     
  -57818220.4533596     
  -58126471.3244410     
  -58449169.9318128     
  -58772394.7771994     
  -59085266.2217969     
  -59379802.9915854     
  -59650613.7053208     
  -59894501.6859608     
  -60110043.2533968     
  -60297181.4528037     
  -60456861.1236151     
  -60590718.4317264     
  -60700828.6744452     
  -60789510.0047042     
  -60859177.1323945     
  -60912237.3991326     
  -60951021.2840603     
  -60977739.8795900     
  -60994462.7950164     
  -61003111.0349768     
  -61005460.4874446     
  -61003152.6442971     
  -60997710.0199322     
  -60990554.4162435     
  -60983026.7104315     
  -60976407.2291038     
  -60971936.0331196     
  -60970832.5855540     
  -60974314.3181929     
  -60983613.5525521     
  -60999992.0661097     
  -61024752.3143095     
  -61059243.9103305     
  -61104863.4095954     
  -61163044.7207845     
  -61235236.5351931     
  -61322861.9761922     
  -61427254.1318761     
  -61549559.1402820     
  -61690596.0369799     
  -61850660.2021352     
  -62029257.3629405     
  -62224762.8243574     
  -62434023.7439301     
  -62651961.6381254     
  -62871274.9814900     
  -63082349.1386658     
  -63273426.0243398     
  -57366869.8580271     
  -57621625.5263228     
  -57930420.6227518     
  -58270536.8825590     
  -58622592.3693547     
  -58970975.2293562     
  -59303849.2033627     
  -59612866.3547837     
  -59892708.0808117     
  -60140550.9878746     
  -60355527.5211880     
  -60538226.7969233     
  -60690261.0223034     
  -60813907.8282578     
  -60911828.5053127     
  -60986855.7831302     
  -61041841.5145354     
  -61079553.5214489     
  -61102611.1610482     
  -61113450.2696241     
  -61114309.6013134     
  -61107232.4093069     
  -61094078.2456217     
  -61076541.2945197     
  -61056172.5731493     
  -61034404.1338600     
  -61012574.0059994     
  -60991951.0470719     
  -60973759.1592952     
  -60959200.4884439     
  -60949477.2714319     
  -60945811.9442137     
  -60949464.9624633     
  -60961749.5188223     
  -60984041.9529355     
  -61017786.1313827     
  -61064489.4054732     
  -61125706.9002646     
  -61203009.7665311     
  -61297931.4528471     
  -61411883.6361571     
  -61546029.5348032     
  -61701096.1240629     
  -61877098.9375520     
  -62072952.0010268     
  -62285957.4504801     
  -62511240.5065590     
  -62741293.1826734     
  -62965854.3979671     
  -63172249.3153809     
  -57431792.9518336     
  -57721321.8910778     
  -58067670.5208274     
  -58444060.6413709     
  -58828288.9493446     
  -59203031.3384404     
  -59555646.1726951     
  -59877664.6371762     
  -60164122.3277002     
  -60412846.2480661     
  -60623773.7329347     
  -60798348.4206125     
  -60939014.4769268     
  -61048813.5190029     
  -61131078.0521325     
  -61189209.3814794     
  -61226525.5664856     
  -61246164.8851808     
  -61251031.5352138     
  -61243772.2286918     
  -61226774.4694899     
  -61202179.3452231     
  -61171903.4668972     
  -61137666.1852787     
  -61101019.3997616     
  -61063378.1797858     
  -61026051.0806559     
  -60990269.4966033     
  -60957215.6911534     
  -60928049.3074642     
  -60903932.2096281     
  -60886051.4517814     
  -60875640.0198996     
  -60873994.7412840     
  -60882490.4072610     
  -60902588.7054223     
  -60935840.0105972     
  -60983875.4324223     
  -61048385.7117146     
  -61131082.4051876     
  -61233634.7588756     
  -61357571.3800472     
  -61504126.7022859     
  -61673993.4442842     
  -61866912.5941839     
  -62081031.1317364     
  -62312039.0213356     
  -62552357.8194332     
  -62790856.6660618     
  -63013527.4677930     
  -57512925.8773038     
  -57845085.0444060     
  -58235423.2460974     
  -58652475.4220438     
  -59071061.5312023     
  -59472298.7921593     
  -59843065.9901047     
  -60175169.2571084     
  -60464395.5891358     
  -60709580.2037566     
  -60911763.8277247     
  -61073478.0611186     
  -61198170.3859433     
  -61289763.3381078     
  -61352332.6977614     
  -61389885.2277589     
  -61406215.7435797     
  -61404824.7256726     
  -61388880.2402399     
  -61361210.8924865     
  -61324319.4392234     
  -61280409.2807530     
  -61231418.2240179     
  -61179055.6412617     
  -61124840.4745872     
  -61070138.5144867     
  -61016198.0730748     
  -60964183.6390623     
  -60915207.3905382     
  -60870358.5910674     
  -60830730.9310516     
  -60797447.8164527     
  -60771685.4601708     
  -60754693.4032810     
  -60747811.7915417     
  -60752484.3738024     
  -60770265.8066987     
  -60802821.4969919     
  -60851917.9403596     
  -60919401.2920979     
  -61007161.3451160     
  -61117075.9011626     
  -61250922.3720658     
  -61410220.9000493     
  -61595908.8709646     
  -61807618.1185655     
  -62042373.4916213     
  -62292887.8132304     
  -62546699.1957088     
  -62787287.1578837     
  -57614263.6995008     
  -57998575.3070924     
  -58439811.7822160     
  -58901371.5629844     
  -59355215.4670681     
  -59781339.5948258     
  -60166716.5061980     
  -60504014.2363071     
  -60790300.6129795     
  -61025857.2413024     
  -61213166.1516926     
  -61356090.1943150     
  -61459241.8703338     
  -61527520.4252068     
  -61565790.2475957     
  -61578672.1682743     
  -61570421.0393957     
  -61544866.4657477     
  -61505397.7001361     
  -61454977.8297819     
  -61396176.0854002     
  -61331210.2234430     
  -61261993.4262027     
  -61190182.0765828     
  -61117222.1762249     
  -61044393.1805237     
  -60972848.7098225     
  -60903654.0378468     
  -60837820.5160693     
  -60776337.2114371     
  -60720200.0467928     
  -60670438.6595971     
  -60628141.0488505     
  -60594475.8733934     
  -60570712.0129777     
  -60558234.7389633     
  -60558557.6297539     
  -60573329.3277207     
  -60604334.5661115     
  -60653489.8550713     
  -60722836.0321502     
  -60814532.0902393     
  -60930855.4438733     
  -61074199.6613295     
  -61247013.7552037     
  -61451376.7512719     
  -61687236.1418792     
  -61949029.5640671     
  -62222025.3941379     
  -62484256.3288833     
  -57740549.4953282     
  -58188209.6617169     
  -58687182.1325545     
  -59195709.8914174     
  -59683488.3167744     
  -60130252.9427448     
  -60523970.9504623     
  -60858984.4770695     
  -61134306.8945846     
  -61352169.5316361     
  -61516849.2167599     
  -61633767.1455719     
  -61708828.4175215     
  -61747962.6193562     
  -61756824.4171779     
  -61740616.0760859     
  -61703999.0035326     
  -61651067.3846395     
  -61585362.8498161     
  -61509914.3799678     
  -61427292.0797700     
  -61339666.9848581     
  -61248871.7750795     
  -61156459.2607376     
  -61063756.9276037     
  -60971916.7981606     
  -60881960.5006233     
  -60794819.8213377     
  -60711373.2176614     
  -60632478.8380016     
  -60559004.5698453     
  -60491855.5405442     
  -60431999.3469173     
  -60380489.1040389     
  -60338484.2030248     
  -60307268.4941644     
  -60288265.5492841     
  -60283050.8706452     
  -60293361.7124121     
  -60321107.1246660     
  -60368384.8162855     
  -60437519.0229278     
  -60531145.3348488     
  -60652389.9687435     
  -60805175.7030823     
  -60994707.5171421     
  -61227049.7217088     
  -61502603.7630320     
  -61805782.0677234     
  -62099176.2378153     
  -57897082.7140326     
  -58420642.8285175     
  -58983131.2786716     
  -59538438.6820987     
  -60055337.5757212     
  -60514746.6875691     
  -60906928.4358271     
  -61228949.3934997     
  -61482546.8436546     
  -61672432.6314219     
  -61805005.7071044     
  -61887417.5816304     
  -61926926.5281211     
  -61930478.0533263     
  -61904455.8375064     
  -61854556.0922996     
  -61785747.4281009     
  -61702286.8873036     
  -61607770.2796414     
  -61505201.1520052     
  -61397067.6352743     
  -61285420.1489390     
  -61171945.6856182     
  -61058036.3383970     
  -60944851.0610342     
  -60833370.5220385     
  -60724445.4506093     
  -60618839.1672827     
  -60517265.1144320     
  -60420420.2049328     
  -60329014.7314873     
  -60243799.4533996     
  -60165590.3239261     
  -60095291.1606402     
  -60033914.4219876     
  -59982600.1822639     
  -59942633.4787017     
  -59915460.5973849     
  -59902705.8900930     
  -59906193.0186388     
  -59927979.4658702     
  -59970423.1755365     
  -60036322.0873002     
  -60129204.5187489     
  -60253978.6887434     
  -60418128.0633845     
  -60635152.7349443     
  -60925635.1082209     
  -61282894.2676823     
  -61644414.0699513     
  -58089223.3092612     
  -58701685.7479912     
  -59330798.0072152     
  -59928274.4297866     
  -60464386.2969186     
  -60923418.5111479     
  -61299667.7516559     
  -61594184.4697102     
  -61812261.7314383     
  -61961582.2159746     
  -62050905.2957977     
  -62089177.5649481     
  -62084964.1094877     
  -62046115.1679537     
  -61979599.8284893     
  -61891453.6585626     
  -61786800.1983917     
  -61669916.9805089     
  -61544325.2932545     
  -61412889.5307060     
  -61277916.9516712     
  -61141252.2908123     
  -61004364.2044032     
  -60868422.2546905     
  -60734364.2662190     
  -60602954.5954518     
  -60474834.2590661     
  -60350564.0486593     
  -60230661.7847582     
  -60115634.7854788     
  -60006008.4893128     
  -59902352.0110584     
  -59805301.2520659     
  -59715580.0599876     
  -59634019.8799856     
  -59561578.4185824     
  -59499358.1338811     
  -59448625.9876493     
  -59410837.0481678     
  -59387666.6876615     
  -59381060.3298330     
  -59393318.7652666     
  -59427255.2901096     
  -59486513.1618550     
  -59576194.6928083     
  -59704606.3450757     
  -59886032.2105509     
  -60161986.4004161     
  -60619841.9596808     
  -61214503.6663899     
  -58321421.7147853     
  -59034382.5441386     
  -59728113.8467568     
  -60356400.0861296     
  -60894854.1700500     
  -61334152.1989929     
  -61674767.9586427     
  -61923107.0980560     
  -62088790.9239536     
  -62182819.1962914     
  -62216377.0473004     
  -62200101.3340285     
  -62143667.5874063     
  -62055595.2653571     
  -61943196.8763809     
  -61812617.6101114     
  -61668927.9123203     
  -61516243.1372411     
  -61357852.9682913     
  -61196349.5261397     
  -61033747.5505968     
  -60871593.1472010     
  -60711059.6550828     
  -60553030.5216033     
  -60398169.9083820     
  -60246982.2607804     
  -60099862.3317047     
  -59957137.2120713     
  -59819101.8372776     
  -59686049.2697173     
  -59558296.8541989     
  -59436209.1456626     
  -59320218.3489884     
  -59210842.9293890     
  -59108705.1156236     
  -59014548.3277578     
  -58929256.2369872     
  -58853876.2946298     
  -58789652.1921899     
  -58738071.8697964     
  -58700940.8120358     
  -58680495.4981874     
  -58679584.0133801     
  -58701957.4837776     
  -58752828.7475051     
  -58839643.9855080     
  -58976294.4676738     
  -59179349.9871296     
  -59946572.3150524     
  -60854852.1701215     
  -58595579.2794914     
  -59415939.2349853     
  -60163734.5482371     
  -60801897.7332702     
  -61316906.4220862     
  -61709665.6592109     
  -61989212.5624311     
  -62168597.4721105     
  -62262306.9073101     
  -62284720.9710070     
  -62249243.4649909     
  -62167861.6557961     
  -62050976.0190369     
  -61907395.0687048     
  -61744426.4786085     
  -61568019.8459917     
  -61382932.5308798     
  -61192900.4467365     
  -61000802.5323873     
  -60808812.3346527     
  -60618533.4344770     
  -60431117.6402492     
  -60247366.1994845     
  -60067815.0609454     
  -59892805.7166382     
  -59722543.4754726     
  -59557145.1615463     
  -59396678.1805516     
  -59241192.6993288     
  -59090748.4123952     
  -58945437.0952209     
  -58805401.9125566     
  -58670854.2929503     
  -58542089.1438531     
  -58419499.3677834     
  -58303591.2418935     
  -58195003.4973719     
  -58094535.1046156     
  -58003189.7444947     
  -57922248.3780324     
  -57853384.5508044     
  -57798840.4572700     
  -57761684.8811596     
  -57746188.7204763     
  -57758319.2702453     
  -57806688.8551581     
  -57901579.2599073     
  -58087536.4369898     
  -59148168.0233496     
  -60241645.0755474     
  -58908563.4205908     
  -59833247.0358913     
  -60611488.3494558     
  -61225909.5904854     
  -61681068.6957064     
  -61992478.1966587     
  -62180021.4194994     
  -62264288.4069506     
  -62264693.0944343     
  -62198612.4751449     
  -62081087.7705632     
  -61924825.6844593     
  -61740352.0651542     
  -61536234.4302779     
  -61319326.9410719     
  -61095013.9026779     
  -60867440.1585297     
  -60639722.5429293     
  -60414139.1658031     
  -60192295.2515316     
  -59975265.9202174     
  -59763717.3423278     
  -59558008.0633880     
  -59358272.3948670     
  -59164487.9511965     
  -58976529.6573982     
  -58794212.6598334     
  -58617326.4308509     
  -58445662.0276742     
  -58279034.0786078     
  -58117298.7278536     
  -57960368.5203307     
  -57808225.0663603     
  -57660930.3237140     
  -57518637.5808589     
  -57381604.0359399     
  -57250208.8313090     
  -57124984.1205342     
  -57006672.5533583     
  -56896331.2789202     
  -56795509.0541684     
  -56706527.0439716     
  -56632898.5662800     
  -56579923.3409084     
  -56555534.2745211     
  -56571280.1202732     
  -56644767.4519323     
  -56824778.4743377     
  -57979495.5168005     
  -59323795.9298305     
  -59248804.3064834     
  -60256922.6079564     
  -61023446.3050663     
  -61564850.0091691     
  -61912207.0885711     
  -62099904.7428225     
  -62160265.0509785     
  -62121481.5450457     
  -62007199.8177754     
  -61836799.4576816     
  -61625921.6090624     
  -61387040.4308767     
  -61129995.1578229     
  -60862450.8333678     
  -60590284.1061190     
  -60317904.9861290     
  -60048529.2864974     
  -59784411.6302254     
  -59527044.0265008     
  -59277323.2510624     
  -59035690.7606003     
  -58802248.9226389     
  -58576856.4492175     
  -58359205.1979733     
  -58148880.5244804     
  -57945407.8150392     
  -57748288.0385703     
  -57557024.9126976     
  -57371145.7642588     
  -57190217.6438403     
  -57013859.8624046     
  -56841753.8875290     
  -56673651.4567927     
  -56509381.8035888     
  -56348859.0889893     
  -56192091.7773632     
  -56039197.8329118     
  -55890435.1283898     
  -55746266.1187861     
  -55607490.0317891     
  -55475487.4573146     
  -55352631.8729133     
  -55242923.3938302     
  -55152911.0820855     
  -55092966.9268234     
  -55079024.5291401     
  -55134782.5043730     
  -55283216.6555202     
  -56357344.0894791     
  -58054182.4513151     
  -59592107.4605875     
  -60634129.8274850     
  -61322161.0667614     
  -61723481.9461972     
  -61904049.2068362     
  -61920113.1804524     
  -61816477.7809879     
  -61627646.7195618     
  -61379761.9669466     
  -61092476.7752352     
  -60780503.9172123     
  -60454827.0479656     
  -60123614.5369987     
  -59792886.4301655     
  -59466990.8380144     
  -59148955.5066982     
  -58840764.6474187     
  -58543588.1095812     
  -58257970.7164253     
  -57983986.1311427     
  -57721361.9561137     
  -57469582.2694473     
  -57227970.9195180     
  -56995756.8748260     
  -56772123.3489943     
  -56556243.5725257     
  -56347306.5180995     
  -56144535.3945519     
  -55947200.9360309     
  -55754630.8604101     
  -55566216.4768119     
  -55381417.2698053     
  -55199764.3608969     
  -55020863.9591788     
  -54844401.9877783     
  -54670151.0921735     
  -54497981.8593726     
  -54327885.1851500     
  -54160028.8392102     
  -53994893.3102428     
  -53833564.1264116     
  -53678258.8714209     
  -53533173.6731298     
  -53405705.1265789     
  -53308107.0915182     
  -53259606.1149301     
  -53287490.9764363     
  -53413920.4230615     
  -54217121.1372986     
  -56321624.7114956     
  -59897083.0526322     
  -60880868.3289362     
  -61393195.8452018     
  -61569257.1765134     
  -61515771.1793024     
  -61310720.6908912     
  -61008825.3512102     
  -60647715.2476721     
  -60253057.9142900     
  -59842282.6899001     
  -59427197.1788371     
  -59015803.4642926     
  -58613531.9672859     
  -58224019.9254889     
  -57849583.0855658     
  -57491512.1203641     
  -57150306.0827692     
  -56825873.8705870     
  -56517697.6572138     
  -56224957.0467771     
  -55946625.5058231     
  -55681550.2364177     
  -55428517.2908475     
  -55186300.6369766     
  -54953695.9418002     
  -54729542.5484547     
  -54512737.4254060     
  -54302243.8615330     
  -54097096.5662308     
  -53896404.1651123     
  -53699349.7297539     
  -53505189.9266851     
  -53313253.7517096     
  -53122942.4768277     
  -52933732.8974396     
  -52745184.7877996     
  -52556951.4283384     
  -52368789.3909964     
  -52180577.3278466     
  -51992410.7299539     
  -51804866.7017101     
  -51619610.2442498     
  -51440378.1807063     
  -51274408.2494293     
  -51134247.5939304     
  -51039780.3036142     
  -51020886.9533834     
  -51128840.4577810     
  -51526650.9445866     
  -53996941.2633099     
  -60100440.8281812     
  -60874746.1917966     
  -61079500.9495360     
  -60929956.9530367     
  -60572627.2082838     
  -60101734.9728448     
  -59575567.1420978     
  -59029480.3568509     
  -58484446.6087322     
  -57952504.9311333     
  -57440265.5546306     
  -56951178.0530574     
  -56486904.4274555     
  -56048098.8413246     
  -55634681.6121557     
  -55245961.3210635     
  -54880776.9169357     
  -54537670.0308317     
  -54215014.9471191     
  -53911090.6856433     
  -53624133.4594442     
  -53352385.2330732     
  -53094134.9408830     
  -52847745.8660639     
  -52611670.4160583     
  -52384456.5010641     
  -52164749.0688360     
  -51951288.8612286     
  -51742909.5271389     
  -51538533.5212131     
  -51337167.0184401     
  -51137893.7536581     
  -50939868.5560208     
  -50742313.3416762     
  -50544519.4236309     
  -50345860.3317880     
  -50145810.6887736     
  -49943957.7758671     
  -49739967.1018016     
  -49533509.7472667     
  -49324435.5183108     
  -49113263.8790247     
  -48902414.6017662     
  -48697589.9657824     
  -48509455.4546276     
  -48355450.2685981     
  -48261239.8719123     
  -48273433.3630155     
  -48298208.5204175     
  -50966089.4174151     
  -60111155.6047899     
  -60448092.6456179     
  -60180088.0003841     
  -59596804.7444085     
  -58872935.9399457     
  -58104606.7639724     
  -57343173.1912320     
  -56614274.6940115     
  -55928760.4750722     
  -55289720.9991686     
  -54696365.2598274     
  -54146002.2103031     
  -53635741.3450611     
  -53162917.2292733     
  -52724960.9245257     
  -52319099.8373310     
  -51942428.1743126     
  -51592121.9713019     
  -51265502.8891513     
  -50960029.9124667     
  -50673294.9542424     
  -50403034.3458345     
  -50147135.5696801     
  -49903636.6147136     
  -49670722.1386519     
  -49446716.4701294     
  -49230072.8822745     
  -49019363.6826205     
  -48813270.6982786     
  -48610575.3744665     
  -48410149.8304856     
  -48210946.9167103     
  -48011986.9120698     
  -47812346.4091043     
  -47611158.8886304     
  -47407632.1022077     
  -47201093.7937380     
  -46991030.4998847     
  -46777075.0129841     
  -46558715.7804279     
  -46334700.9216041     
  -46103902.5517109     
  -45866146.6946676     
  -45624708.1031117     
  -45386400.4007421     
  -45162269.4120244     
  -44969746.9331177     
  -44813306.0100783     
  -44702217.4426087     
  -47012209.6980267     
  -59767250.5742210     
  -59395337.4958580     
  -58475428.5980972     
  -57337048.8158482     
  -56203272.9300689     
  -55127784.4474483     
  -54143153.7180597     
  -53253778.7717956     
  -52454161.7988659     
  -51736248.0111353     
  -51089389.2263524     
  -50503756.0308514     
  -49971061.3139207     
  -49485634.1866718     
  -49042623.9837809     
  -48637138.1666005     
  -48264678.1816344     
  -47921266.6809746     
  -47603349.8201592     
  -47307735.2043594     
  -47031567.1215508     
  -46772262.0263293     
  -46527451.8860130     
  -46294967.0471769     
  -46072828.2461540     
  -45859226.1397957     
  -45652502.3465885     
  -45451130.2815673     
  -45253699.7704416     
  -45058906.0266382     
  -44865540.8397609     
  -44672479.4762410     
  -44478665.7714714     
  -44283085.0680408     
  -44084742.8888532     
  -43882703.9423456     
  -43676147.7163828     
  -43464500.7140547     
  -43247491.5734422     
  -43025117.6022051     
  -42796066.3849411     
  -42554294.9412424     
  -42297378.0512974     
  -42025003.0680362     
  -41741444.9818210     
  -41448021.0529600     
  -41144968.5074861     
  -40849010.3097897     
  -40598699.0562386     
  -42039160.4730857     
  -59821548.4881461     
  -58211269.1466346     
  -56053467.3343138     
  -54015332.3574979     
  -52354354.6477395     
  -51000184.0533440     
  -49837010.7928283     
  -48831756.5046934     
  -47963022.4917894     
  -47208642.8339232     
  -46549779.0266375     
  -45964339.6171356     
  -45440975.3503530     
  -44971210.6725694     
  -44546765.4694008     
  -44161647.4081923     
  -43811001.1966155     
  -43490236.6811405     
  -43195004.3160867     
  -42921747.7039488     
  -42667498.7674309     
  -42429526.7941719     
  -42205371.3894944     
  -41992809.8882040     
  -41789784.1825558     
  -41594471.7728271     
  -41405218.0704547     
  -41220463.2054317     
  -41038767.2183147     
  -40858798.5570293     
  -40679327.4605002     
  -40499218.1493727     
  -40317397.5041104     
  -40132878.6312708     
  -39944634.3456446     
  -39751510.1167215     
  -39552617.1293858     
  -39347289.6057612     
  -39135342.2655990     
  -38917405.0071722     
  -38695803.8673661     
  -38464757.5579329     
  -38190551.8065736     
  -37892815.7800568     
  -37583498.6267401     
  -37241102.7883691     
  -36837933.3785906     
  -36372496.5214742     
  -35927094.7054788     
  -36139231.2674551     
  -60021634.6739037     
  -56009151.1511735     
  -52408323.4175492     
  -49594150.6388356     
  -47376446.4021431     
  -45654522.1141277     
  -44337643.8302896     
  -43291501.5560563     
  -42417448.7217276     
  -41678341.5382886     
  -41056772.3360375     
  -40569431.4038875     
  -40179758.8930046     
  -39854184.3759414     
  -39574991.3948799     
  -39333105.1717134     
  -39121606.2930681     
  -38934296.0286059     
  -38765832.5732308     
  -38611953.7395440     
  -38469257.2820574     
  -38334741.6385953     
  -38205927.7635057     
  -38080563.2115526     
  -37956603.2463948     
  -37832161.1188772     
  -37705316.9728011     
  -37574233.6534651     
  -37436978.3299721     
  -37291648.9865108     
  -37136131.2193802     
  -36968068.8368127     
  -36785140.5489005     
  -36584708.3325799     
  -36363865.5765970     
  -36118862.7929511     
  -35844435.4119242     
  -35536670.9145337     
  -35192422.6804369     
  -34806071.0918037     
  -34372682.2877151     
  -33916175.5986044     
  -33559690.8368439     
  -33257409.3746413     
  -32952059.9505812     
  -32622698.9141600     
  -32168270.0873837     
  -31488096.1260166     
  -30652924.8450493     
  -29550122.2417288     
  -58731411.9165368     
  -51545192.7950059     
  -47216378.7858709     
  -44242997.5017337     
  -42111712.4505912     
  -40550512.0582303     
  -39399294.8887178     
  -38549686.5231021     
  -37910378.3792235     
  -37419614.1958484     
  -37035558.6416236     
  -36723302.3197441     
  -36463971.0072605     
  -36246466.4717995     
  -36060810.5978086     
  -35900027.1629914     
  -35758890.3934676     
  -35632773.8734512     
  -35517799.9271828     
  -35410980.3955746     
  -35310309.2758110     
  -35213790.3735195     
  -35119736.5598095     
  -35026521.4208401     
  -34932550.4291133     
  -34836428.7117798     
  -34736566.4062377     
  -34631552.2483304     
  -34519621.6409463     
  -34399147.9114850     
  -34268247.1402601     
  -34124718.8804685     
  -33966322.8706600     
  -33790344.7877822     
  -33593962.0674694     
  -33374636.5073418     
  -33131344.1711957     
  -32859560.1568614     
  -32552531.1181062     
  -32205390.8240666     
  -31810385.8313208     
  -31344898.9964173     
  -30762900.8416011     
  -30064320.7773997     
  -29242485.9685713     
  -28293935.4040405     
  -27304256.9572183     
  -26382105.6643679     
  -25163020.7944645     
  -23136145.4844279     
SCALARS 2waySource double 
LOOKUP_TABLE default
 -2.579503657193477E-004
 -2.242955692646859E-004
 -2.020297730632101E-004
 -1.857644263559224E-004
 -1.732567438067859E-004
 -1.632832000247296E-004
 -1.551043252034668E-004
 -1.482392735281603E-004
 -1.423600363001571E-004
 -1.372351272530709E-004
 -1.326970469764566E-004
 -1.286222135024137E-004
 -1.249179664286585E-004
 -1.215138437464957E-004
 -1.183555716117446E-004
 -1.154008424672087E-004
 -1.126163042578726E-004
 -1.099753853720692E-004
 -1.074567039049365E-004
 -1.050428894438277E-004
 -1.027196984149857E-004
 -1.004753398837956E-004
 -9.829995334655879E-005
 -9.618519710018950E-005
 -9.412391760381196E-005
 -9.210987844961177E-005
 -9.013753324279967E-005
 -8.820183061389211E-005
 -8.629804226786852E-005
 -8.442160677173668E-005
 -8.256798291917088E-005
 -8.073250713056124E-005
 -7.891024950874781E-005
 -7.709586287535291E-005
 -7.528341828251375E-005
 -7.346621895944842E-005
 -7.163658209295786E-005
 -6.978557369177678E-005
 -6.790267501733538E-005
 -6.597534780604653E-005
 -6.398844620446531E-005
 -6.192338909092171E-005
 -5.975694344071644E-005
 -5.745934817844141E-005
 -5.499126528540964E-005
 -5.229850680634967E-005
 -4.930232525049378E-005
 -4.587892640016716E-005
 -4.181686933111371E-005
 -3.659046204668654E-005
 -2.664367678253140E-004
 -2.409335956472015E-004
 -2.219089218491226E-004
 -2.072604568698354E-004
 -1.955169565463501E-004
 -1.858281759626045E-004
 -1.776483367934891E-004
 -1.706066513602480E-004
 -1.644403089863528E-004
 -1.589579742954543E-004
 -1.540178022169044E-004
 -1.495132060340838E-004
 -1.453631487283786E-004
 -1.415053083973760E-004
 -1.378911851993377E-004
 -1.344825699731867E-004
 -1.312489851229724E-004
 -1.281658233631894E-004
 -1.252129865761446E-004
 -1.223738815993754E-004
 -1.196346697924732E-004
 -1.169836967512217E-004
 -1.144110501067945E-004
 -1.119082088679037E-004
 -1.094677587465021E-004
 -1.070831555547288E-004
 -1.047485240180044E-004
 -1.024584829243517E-004
 -1.002079899506694E-004
 -9.799220113463039E-005
 -9.580634104573726E-005
 -9.364558040584806E-005
 -9.150491830099232E-005
 -8.937906622609297E-005
 -8.726233096960196E-005
 -8.514849263167707E-005
 -8.303067259784313E-005
 -8.090118352105789E-005
 -7.875134825824104E-005
 -7.657126526285511E-005
 -7.434948025501821E-005
 -7.207249049648136E-005
 -6.972394375176478E-005
 -6.728327005971733E-005
 -6.472323816609378E-005
 -6.200545912882736E-005
 -5.907173415826264E-005
 -5.582809856686264E-005
 -5.210552561769829E-005
 -4.766458490071156E-005
 -2.733229215587376E-004
 -2.567329562875757E-004
 -2.420272082145917E-004
 -2.295388356266364E-004
 -2.189341322817759E-004
 -2.098218461762956E-004
 -2.018839259052566E-004
 -1.948716252333126E-004
 -1.885930744268864E-004
 -1.829009195728060E-004
 -1.776822176431069E-004
 -1.728503407787497E-004
 -1.683385866517557E-004
 -1.640952160827690E-004
 -1.600796705147658E-004
 -1.562597409982411E-004
 -1.526094818446519E-004
 -1.491076894721143E-004
 -1.457367981733872E-004
 -1.424820758943502E-004
 -1.393310315938093E-004
 -1.362729696764662E-004
 -1.332986458694659E-004
 -1.303999930787311E-004
 -1.275698959573859E-004
 -1.248020000079795E-004
 -1.220905458385067E-004
 -1.194302223729091E-004
 -1.168160349121227E-004
 -1.142431853244354E-004
 -1.117069625813417E-004
 -1.092026425033215E-004
 -1.067253960336352E-004
 -1.042702056316212E-004
 -1.018317894367578E-004
 -9.940453256750924E-005
 -9.698242404068542E-005
 -9.455899583970624E-005
 -9.212725670036625E-005
 -8.967960545327418E-005
 -8.720769390472538E-005
 -8.470218101708823E-005
 -8.215226747604191E-005
 -7.954480305015049E-005
 -7.686259272417645E-005
 -7.408123153232699E-005
 -7.116355731997776E-005
 -6.804971788603061E-005
 -6.465037695144255E-005
 -6.084387907398180E-005
 -2.786106607308285E-004
 -2.699724556159233E-004
 -2.598587670876027E-004
 -2.499948355039015E-004
 -2.409283841365855E-004
 -2.327345266990866E-004
 -2.253322069483662E-004
 -2.186030139157104E-004
 -2.124317265399243E-004
 -2.067194516106247E-004
 -2.013859447623512E-004
 -1.963678778531528E-004
 -1.916158453220913E-004
 -1.870913085772021E-004
 -1.827639512305492E-004
 -1.786095773275720E-004
 -1.746085282900529E-004
 -1.707445322399143E-004
 -1.670038854551396E-004
 -1.633748745297486E-004
 -1.598473652550966E-004
 -1.564125028597746E-004
 -1.530624845741291E-004
 -1.497903783489610E-004
 -1.465899709746392E-004
 -1.434556353648600E-004
 -1.403822110784217E-004
 -1.373648949044316E-004
 -1.343991400526021E-004
 -1.314805635683667E-004
 -1.286048622881612E-004
 -1.257677381377379E-004
 -1.229648339307882E-004
 -1.201916810638771E-004
 -1.174436605816245E-004
 -1.147159788864929E-004
 -1.120036586895153E-004
 -1.093015442768880E-004
 -1.066043171804550E-004
 -1.039065127481973E-004
 -1.012025179663290E-004
 -9.848651299558349E-005
 -9.575228873325311E-005
 -9.299282688290361E-005
 -9.019946860110625E-005
 -8.736048555466119E-005
 -8.445892689275749E-005
 -8.147121956499939E-005
 -7.836878532828913E-005
 -7.513109639944191E-005
 -2.820087530940126E-004
 -2.797266117264737E-004
 -2.739173234468481E-004
 -2.668849942059275E-004
 -2.596822093359426E-004
 -2.527297990764148E-004
 -2.461572336834739E-004
 -2.399721637869786E-004
 -2.341381006232350E-004
 -2.286080169090019E-004
 -2.233377972046792E-004
 -2.182905267317022E-004
 -2.134368405340653E-004
 -2.087537982166015E-004
 -2.042234178819825E-004
 -1.998313441829160E-004
 -1.955658042922098E-004
 -1.914168581724773E-004
 -1.873758916649996E-004
 -1.834352873894593E-004
 -1.795882147140052E-004
 -1.758284931619376E-004
 -1.721504972102949E-004
 -1.685490818602921E-004
 -1.650195169070579E-004
 -1.615574237286819E-004
 -1.581587122041894E-004
 -1.548195176627164E-004
 -1.515361390772513E-004
 -1.483049804415000E-004
 -1.451224976646247E-004
 -1.419851535532511E-004
 -1.388893835881552E-004
 -1.358315752480322E-004
 -1.328080635372128E-004
 -1.298151450424480E-004
 -1.268491121505836E-004
 -1.239063078525097E-004
 -1.209831996669081E-004
 -1.180764684612571E-004
 -1.151831042814916E-004
 -1.123004972462676E-004
 -1.094265098895087E-004
 -1.065595269247112E-004
 -1.036985294408441E-004
 -1.008433899497329E-004
 -9.799609964154498E-005
 -9.516444256541178E-005
 -9.237155239888325E-005
 -8.967505365070858E-005
 -2.836725117732348E-004
 -2.859191732869299E-004
 -2.837699100399091E-004
 -2.794923388375048E-004
 -2.743069455784780E-004
 -2.688212241489839E-004
 -2.633126045092338E-004
 -2.578935346976136E-004
 -2.526001221395122E-004
 -2.474365882583337E-004
 -2.423961640187098E-004
 -2.374700646894773E-004
 -2.326507118253782E-004
 -2.279323907518876E-004
 -2.233109298540722E-004
 -2.187831421740245E-004
 -2.143463335085778E-004
 -2.099979672217629E-004
 -2.057354809728492E-004
 -2.015562168563386E-004
 -1.974574220000772E-004
 -1.934362841639818E-004
 -1.894899775270277E-004
 -1.856157036615341E-004
 -1.818107202703329E-004
 -1.780723554789227E-004
 -1.743980087313996E-004
 -1.707851411722056E-004
 -1.672312593028486E-004
 -1.637338960640848E-004
 -1.602905935655850E-004
 -1.568988916198331E-004
 -1.535563260897956E-004
 -1.502604408226026E-004
 -1.470088165717340E-004
 -1.437991197451531E-004
 -1.406291730464060E-004
 -1.374970492073969E-004
 -1.344011884106656E-004
 -1.313405405281818E-004
 -1.283147368005391E-004
 -1.253243058706232E-004
 -1.223709740848810E-004
 -1.194581467606371E-004
 -1.165917883158115E-004
 -1.137821803751308E-004
 -1.110474987696581E-004
 -1.084209627650329E-004
 -1.059641092692524E-004
 -1.037893971851902E-004
 -2.840367791398460E-004
 -2.890988412175699E-004
 -2.897748256624403E-004
 -2.879363282655746E-004
 -2.847228587015706E-004
 -2.807835918113802E-004
 -2.764693610349539E-004
 -2.719627324319174E-004
 -2.673572883633921E-004
 -2.627022249309790E-004
 -2.580257569608928E-004
 -2.533465651782040E-004
 -2.486789268099732E-004
 -2.440347395387478E-004
 -2.394241660957865E-004
 -2.348557690066087E-004
 -2.303365319411922E-004
 -2.258719177419134E-004
 -2.214659955561832E-004
 -2.171216215128751E-004
 -2.128406444284489E-004
 -2.086241106428715E-004
 -2.044724499664375E-004
 -2.003856329424872E-004
 -1.963632962400081E-004
 -1.924048375550547E-004
 -1.885094841626398E-004
 -1.846763406842961E-004
 -1.809044221796868E-004
 -1.771926787009337E-004
 -1.735400172080630E-004
 -1.699453263757167E-004
 -1.664075093718683E-004
 -1.629255291416574E-004
 -1.594984700564775E-004
 -1.561256189719258E-004
 -1.528065678951650E-004
 -1.495413399589671E-004
 -1.463305411008181E-004
 -1.431755434822043E-004
 -1.400787165024117E-004
 -1.370437430918576E-004
 -1.340761031486176E-004
 -1.311838900520366E-004
 -1.283792800524488E-004
 -1.256812338048436E-004
 -1.231204173557755E-004
 -1.207478389906689E-004
 -1.186491945207098E-004
 -1.169670839357388E-004
 -2.836206023921159E-004
 -2.900981758767491E-004
 -2.927336133767036E-004
 -2.928645331490839E-004
 -2.914069589042566E-004
 -2.889457674449264E-004
 -2.858381363864851E-004
 -2.822982182459101E-004
 -2.784561096479943E-004
 -2.743947836096414E-004
 -2.701714058128441E-004
 -2.658288005008897E-004
 -2.614012284707412E-004
 -2.569171372430970E-004
 -2.524004407865071E-004
 -2.478711695268703E-004
 -2.433459020375725E-004
 -2.388381514713439E-004
 -2.343587590723174E-004
 -2.299162939814103E-004
 -2.255174412263815E-004
 -2.211673593296836E-004
 -2.168699948719784E-004
 -2.126283483425638E-004
 -2.084446914509484E-004
 -2.043207401274562E-004
 -2.002577898299150E-004
 -1.962568208899051E-004
 -1.923185819023588E-004
 -1.884436589284972E-004
 -1.846325377841344E-004
 -1.808856660483421E-004
 -1.772035206977148E-004
 -1.735866864310451E-004
 -1.700359487858031E-004
 -1.665524050942291E-004
 -1.631375954086724E-004
 -1.597936553134519E-004
 -1.565234942526055E-004
 -1.533310088992433E-004
 -1.502213550955772E-004
 -1.472013304081467E-004
 -1.442799722863245E-004
 -1.414695686741883E-004
 -1.387874264868781E-004
 -1.362589658162553E-004
 -1.339229990831281E-004
 -1.318403694255091E-004
 -1.301073372051036E-004
 -1.288750536594911E-004
 -2.828965980817081E-004
 -2.897701521416120E-004
 -2.935846365652295E-004
 -2.951565423152600E-004
 -2.951276483504462E-004
 -2.939586622398430E-004
 -2.919644509296528E-004
 -2.893568301896231E-004
 -2.862804922771450E-004
 -2.828384644539988E-004
 -2.791082782229694E-004
 -2.751514321651446E-004
 -2.710185958487399E-004
 -2.667523737583684E-004
 -2.623888053350548E-004
 -2.579582823690976E-004
 -2.534862358373469E-004
 -2.489937479326836E-004
 -2.444981401605238E-004
 -2.400135401418195E-004
 -2.355514131978451E-004
 -2.311210438291643E-004
 -2.267299574129898E-004
 -2.223842788840580E-004
 -2.180890306259407E-004
 -2.138483756034360E-004
 -2.096658139728980E-004
 -2.055443423745739E-004
 -2.014865852302235E-004
 -1.974949069771307E-004
 -1.935715134897889E-004
 -1.897185500993478E-004
 -1.859382026594215E-004
 -1.822328070134596E-004
 -1.786049709968881E-004
 -1.750577118292972E-004
 -1.715946107108465E-004
 -1.682199863239993E-004
 -1.649390911223839E-004
 -1.617583411768243E-004
 -1.586856058420339E-004
 -1.557306134345144E-004
 -1.529055814522328E-004
 -1.502262640970327E-004
 -1.477137346288270E-004
 -1.453973863810812E-004
 -1.433198274622184E-004
 -1.415445110005531E-004
 -1.401669997867058E-004
 -1.393305919917662E-004
 -2.822291782398199E-004
 -2.888365977048614E-004
 -2.931985551272815E-004
 -2.957030123577806E-004
 -2.967298555976920E-004
 -2.965957678752506E-004
 -2.955460487601779E-004
 -2.937657980456042E-004
 -2.913955625122078E-004
 -2.885449550066385E-004
 -2.853024375761200E-004
 -2.817415856650460E-004
 -2.779248178311631E-004
 -2.739055596828336E-004
 -2.697295607733694E-004
 -2.654358143803711E-004
 -2.610573215505374E-004
 -2.566218051217693E-004
 -2.521524034516194E-004
 -2.476683383162973E-004
 -2.431855403233320E-004
 -2.387172163263937E-004
 -2.342743492958050E-004
 -2.298661277982100E-004
 -2.255003078139924E-004
 -2.211835134941394E-004
 -2.169214857183718E-004
 -2.127192883133110E-004
 -2.085814819044378E-004
 -2.045122749408720E-004
 -2.005156606654047E-004
 -1.965955478336689E-004
 -1.927558918539690E-004
 -1.890008317257847E-004
 -1.853348367066149E-004
 -1.817628651334599E-004
 -1.782905365793255E-004
 -1.749243182463534E-004
 -1.716717285190215E-004
 -1.685415671647486E-004
 -1.655441961742157E-004
 -1.626919223294218E-004
 -1.599995778154914E-004
 -1.574854637757936E-004
 -1.551729157314705E-004
 -1.530928636425395E-004
 -1.512878734617020E-004
 -1.498182328987047E-004
 -1.487706227673244E-004
 -1.482697229649609E-004
 -2.818618096697417E-004
 -2.878301488717042E-004
 -2.922749878031224E-004
 -2.952744017026738E-004
 -2.969927366158205E-004
 -2.976107898673313E-004
 -2.972957603166029E-004
 -2.961924911219683E-004
 -2.944241497362957E-004
 -2.920958560212665E-004
 -2.892983297349057E-004
 -2.861106234193269E-004
 -2.826019265445722E-004
 -2.788327298316755E-004
 -2.748556497741842E-004
 -2.707161230967944E-004
 -2.664530820211611E-004
 -2.620996480824198E-004
 -2.576838399062392E-004
 -2.532292723335918E-004
 -2.487558216381951E-004
 -2.442802367831340E-004
 -2.398166845710733E-004
 -2.353772242328489E-004
 -2.309722131416069E-004
 -2.266106495929129E-004
 -2.223004611304123E-004
 -2.180487480943854E-004
 -2.138619923242314E-004
 -2.097462405805672E-004
 -2.057072714959274E-004
 -2.017507538439238E-004
 -1.978824026806636E-004
 -1.941081384679177E-004
 -1.904342526489093E-004
 -1.868675814075434E-004
 -1.834156878062137E-004
 -1.800870517982108E-004
 -1.768912689257011E-004
 -1.738392637141822E-004
 -1.709435355391364E-004
 -1.682184764100873E-004
 -1.656808351287902E-004
 -1.633504528615426E-004
 -1.612514602182775E-004
 -1.594141981730071E-004
 -1.578781885199175E-004
 -1.566965079274532E-004
 -1.559418779800775E-004
 -1.557146310587134E-004
 -2.819321037449456E-004
 -2.870969031463115E-004
 -2.913147038902213E-004
 -2.944654827399805E-004
 -2.965557997101067E-004
 -2.976541985821076E-004
 -2.978545946675176E-004
 -2.972575409063178E-004
 -2.959616061012589E-004
 -2.940598204830263E-004
 -2.916383509380992E-004
 -2.887760354730103E-004
 -2.855442338130190E-004
 -2.820068403922697E-004
 -2.782204452157806E-004
 -2.742346499179667E-004
 -2.700925281832190E-004
 -2.658311984961637E-004
 -2.614824657809361E-004
 -2.570734878472674E-004
 -2.526274292735253E-004
 -2.481640754676664E-004
 -2.437003901453986E-004
 -2.392510085863605E-004
 -2.348286660466919E-004
 -2.304445655562826E-004
 -2.261086923098077E-004
 -2.218300833948326E-004
 -2.176170621002111E-004
 -2.134774458490386E-004
 -2.094187361338100E-004
 -2.054482978311085E-004
 -2.015735339967545E-004
 -1.978020606961118E-004
 -1.941418846268464E-004
 -1.906015843207508E-004
 -1.871904938209678E-004
 -1.839188864430559E-004
 -1.807981564816086E-004
 -1.778409999589586E-004
 -1.750616036653788E-004
 -1.724758670264284E-004
 -1.701017056656297E-004
 -1.679595195131842E-004
 -1.660729498976633E-004
 -1.644700932701597E-004
 -1.631853736370264E-004
 -1.622622873451357E-004
 -1.617572064123265E-004
 -1.617443436487069E-004
 -2.824981081994459E-004
 -2.868297675893954E-004
 -2.906371722124918E-004
 -2.936916494878370E-004
 -2.958968115652907E-004
 -2.972380636774303E-004
 -2.977484761626197E-004
 -2.974871567657532E-004
 -2.965260827744383E-004
 -2.949422011764971E-004
 -2.928126483433978E-004
 -2.902118015421341E-004
 -2.872094538117707E-004
 -2.838697377161760E-004
 -2.802505905800757E-004
 -2.764036267230444E-004
 -2.723743114881556E-004
 -2.682023461068478E-004
 -2.639221845171060E-004
 -2.595636169609235E-004
 -2.551523701952331E-004
 -2.507106888977502E-004
 -2.462578759344663E-004
 -2.418107797827200E-004
 -2.373842253773890E-004
 -2.329913901680864E-004
 -2.286441306695834E-004
 -2.243532667246871E-004
 -2.201288315077906E-004
 -2.159802953268057E-004
 -2.119167707621157E-004
 -2.079472057572520E-004
 -2.040805700075647E-004
 -2.003260383955480E-004
 -1.966931733020870E-004
 -1.931921054449518E-004
 -1.898337106409090E-004
 -1.866297779547560E-004
 -1.835931637715769E-004
 -1.807379274383292E-004
 -1.780794485663632E-004
 -1.756345352419911E-004
 -1.734215472413372E-004
 -1.714605788509904E-004
 -1.697737704103471E-004
 -1.683858427681913E-004
 -1.673249700268432E-004
 -1.666241193874387E-004
 -1.663229908044343E-004
 -1.664706839965383E-004
 -2.835652616750752E-004
 -2.871111022025625E-004
 -2.904185917316212E-004
 -2.932138133741155E-004
 -2.953422486289390E-004
 -2.967341679266407E-004
 -2.973771265422476E-004
 -2.972956692489549E-004
 -2.965369888962345E-004
 -2.951610192670763E-004
 -2.932336617714436E-004
 -2.908221917378577E-004
 -2.879921966492075E-004
 -2.848056162633451E-004
 -2.813195906804675E-004
 -2.775859026211082E-004
 -2.736508486636786E-004
 -2.695554073496725E-004
 -2.653355986170748E-004
 -2.610229524453828E-004
 -2.566450255949091E-004
 -2.522259235867572E-004
 -2.477868001917783E-004
 -2.433463185510894E-004
 -2.389210668319103E-004
 -2.345259274388796E-004
 -2.301744027727172E-004
 -2.258789028561032E-004
 -2.216510012776304E-004
 -2.175016661813225E-004
 -2.134414726893075E-004
 -2.094808023320298E-004
 -2.056300338438560E-004
 -2.018997280719032E-004
 -1.983008077566062E-004
 -1.948447305986644E-004
 -1.915436514593112E-004
 -1.884105670155789E-004
 -1.854594341755571E-004
 -1.827052527314546E-004
 -1.801641039065795E-004
 -1.778531404422079E-004
 -1.757905311719418E-004
 -1.739953735724598E-004
 -1.724876009035852E-004
 -1.712879255883688E-004
 -1.704178782580010E-004
 -1.699000266500277E-004
 -1.697584988878932E-004
 -1.700200033905833E-004
 -2.851087499481181E-004
 -2.879522626345281E-004
 -2.907337822846960E-004
 -2.931742863755602E-004
 -2.950938963029269E-004
 -2.963911665415861E-004
 -2.970231214529704E-004
 -2.969882633730958E-004
 -2.963130790827822E-004
 -2.950417731924089E-004
 -2.932286836587988E-004
 -2.909328184074883E-004
 -2.882140314231223E-004
 -2.851304519229124E-004
 -2.817368618089986E-004
 -2.780837796791491E-004
 -2.742170582559741E-004
 -2.701778411645693E-004
 -2.660027579129769E-004
 -2.617242642884493E-004
 -2.573710596494633E-004
 -2.529685328309993E-004
 -2.485392046548368E-004
 -2.441031475937942E-004
 -2.396783724029655E-004
 -2.352811780420813E-004
 -2.309264655283086E-004
 -2.266280190035087E-004
 -2.223987587056840E-004
 -2.182509710430871E-004
 -2.141965208079951E-004
 -2.102470498824935E-004
 -2.064141656500446E-004
 -2.027096207476658E-004
 -1.991454837813934E-004
 -1.957342981909736E-004
 -1.924892236613238E-004
 -1.894241515024568E-004
 -1.865537825493256E-004
 -1.838936537728970E-004
 -1.814600984290732E-004
 -1.792701246436408E-004
 -1.773411991416269E-004
 -1.756909265494766E-004
 -1.743366207867417E-004
 -1.732947753461898E-004
 -1.725804588252193E-004
 -1.722067012222408E-004
 -1.721840110648064E-004
 -1.725202922608111E-004
 -2.870896541207636E-004
 -2.893246565824911E-004
 -2.915929322076941E-004
 -2.936325894247897E-004
 -2.952600383599319E-004
 -2.963597793479314E-004
 -2.968711380757076E-004
 -2.967750400449464E-004
 -2.960823141258888E-004
 -2.948240513760248E-004
 -2.930440335351977E-004
 -2.907930139001849E-004
 -2.881245550516671E-004
 -2.850921239062628E-004
 -2.817471716092176E-004
 -2.781379631299207E-004
 -2.743089602258904E-004
 -2.703005982414511E-004
 -2.661493306222429E-004
 -2.618878444244687E-004
 -2.575453751563925E-004
 -2.531480699529441E-004
 -2.487193645356583E-004
 -2.442803520397746E-004
 -2.398501311213700E-004
 -2.354461273764055E-004
 -2.310843865710634E-004
 -2.267798410098590E-004
 -2.225465519659113E-004
 -2.183979317848541E-004
 -2.143469492697983E-004
 -2.104063213949511E-004
 -2.065886933502092E-004
 -2.029068074064799E-004
 -1.993736591101519E-004
 -1.960026368666923E-004
 -1.928076380859732E-004
 -1.898031518309290E-004
 -1.870042944908447E-004
 -1.844267816109953E-004
 -1.820868159036121E-004
 -1.800008688598345E-004
 -1.781853315232574E-004
 -1.766560093464554E-004
 -1.754274380702504E-004
 -1.745120060654653E-004
 -1.739188918436928E-004
 -1.736528781191632E-004
 -1.737132064861423E-004
 -1.740928123620115E-004
 -2.894653235275558E-004
 -2.911813718806103E-004
 -2.929697454384868E-004
 -2.945956088805577E-004
 -2.958844224432390E-004
 -2.967187812995230E-004
 -2.970302903145234E-004
 -2.967897174516219E-004
 -2.959973147316499E-004
 -2.946742599091170E-004
 -2.928555849917645E-004
 -2.905846233796913E-004
 -2.879088378789276E-004
 -2.848768212688315E-004
 -2.815362457944636E-004
 -2.779325512100126E-004
 -2.741081873629395E-004
 -2.701022581354469E-004
 -2.659504441366622E-004
 -2.616851094141310E-004
 -2.573355214807099E-004
 -2.529281337849723E-004
 -2.484868955159932E-004
 -2.440335657321263E-004
 -2.395880177771183E-004
 -2.351685263611666E-004
 -2.307920340844583E-004
 -2.264743970286495E-004
 -2.222306107203452E-004
 -2.180750185638004E-004
 -2.140215049489470E-004
 -2.100836747890717E-004
 -2.062750202961121E-004
 -2.026090743792699E-004
 -1.990995481565698E-004
 -1.957604476882623E-004
 -1.926061621915563E-004
 -1.896515127105869E-004
 -1.869117465712931E-004
 -1.844024590313900E-004
 -1.821394194323464E-004
 -1.801382749596040E-004
 -1.784141010244583E-004
 -1.769807640240016E-004
 -1.758500619796097E-004
 -1.750306165628128E-004
 -1.745265168483494E-004
 -1.743357783854808E-004
 -1.744488044645998E-004
 -1.748472445874723E-004
 -2.921952495478970E-004
 -2.934706861688967E-004
 -2.948208632455836E-004
 -2.960402980061474E-004
 -2.969698674058305E-004
 -2.974978357040021E-004
 -2.975552243260918E-004
 -2.971085864321041E-004
 -2.961521428445890E-004
 -2.947004007835606E-004
 -2.927818013212399E-004
 -2.904335774266238E-004
 -2.876977945176165E-004
 -2.846184389356372E-004
 -2.812393780218355E-004
 -2.776030114173777E-004
 -2.737494489974221E-004
 -2.697160753296795E-004
 -2.655373871585316E-004
 -2.612450155580362E-004
 -2.568678663527539E-004
 -2.524323305863806E-004
 -2.479625312621305E-004
 -2.434805836680665E-004
 -2.390068548443159E-004
 -2.345602136792653E-004
 -2.301582672323174E-004
 -2.258175815878091E-004
 -2.215538871816346E-004
 -2.173822693569561E-004
 -2.133173450730675E-004
 -2.093734263197275E-004
 -2.055646699345839E-004
 -2.019052122104287E-004
 -1.984092849077853E-004
 -1.950913070563610E-004
 -1.919659442361780E-004
 -1.890481238857132E-004
 -1.863529916094251E-004
 -1.838957894479360E-004
 -1.816916326049260E-004
 -1.797551561721246E-004
 -1.780999981114290E-004
 -1.767380799977292E-004
 -1.756786454131789E-004
 -1.749270236121879E-004
 -1.744831152190835E-004
 -1.743396668025218E-004
 -1.744805375772716E-004
 -1.748793895607896E-004
 -2.952438382115341E-004
 -2.961435303027347E-004
 -2.970980214141934E-004
 -2.979292834852153E-004
 -2.984957815368834E-004
 -2.986955897997036E-004
 -2.984638388312225E-004
 -2.977672833817978E-004
 -2.965978563706862E-004
 -2.949663433411272E-004
 -2.928967814260343E-004
 -2.904218322630828E-004
 -2.875791608979315E-004
 -2.844087336889572E-004
 -2.809508947127411E-004
 -2.772450669668388E-004
 -2.733289338837591E-004
 -2.692379764439944E-004
 -2.650052642385865E-004
 -2.606614211233088E-004
 -2.562347056673726E-004
 -2.517511627603124E-004
 -2.472348155192884E-004
 -2.427078764050055E-004
 -2.381909637018546E-004
 -2.337033147365994E-004
 -2.292629908469727E-004
 -2.248870715261232E-004
 -2.205918366512227E-004
 -2.163929364544985E-004
 -2.123055490630799E-004
 -2.083445251066066E-004
 -2.045245181185241E-004
 -2.008600982622683E-004
 -1.973658453032455E-004
 -1.940564147248968E-004
 -1.909465684555595E-004
 -1.880511588349383E-004
 -1.853850511863441E-004
 -1.829629666181859E-004
 -1.807992223269105E-004
 -1.789073415859471E-004
 -1.772994998316073E-004
 -1.759857676484493E-004
 -1.749731088208439E-004
 -1.742640986747541E-004
 -1.738553576822944E-004
 -1.737357684728848E-004
 -1.738846873026901E-004
 -1.742705986983414E-004
 -2.985812601862068E-004
 -2.991569147160846E-004
 -2.997548596420336E-004
 -3.002207022360737E-004
 -3.004301708875381E-004
 -3.002929226590494E-004
 -2.997509822561675E-004
 -2.987743629746377E-004
 -2.973555947399391E-004
 -2.955042295928079E-004
 -2.932419122514429E-004
 -2.905982735338849E-004
 -2.876076972816977E-004
 -2.843068950559815E-004
 -2.807331687103736E-004
 -2.769232259460174E-004
 -2.729124210544115E-004
 -2.687343106325349E-004
 -2.644204348732354E-004
 -2.600002550764212E-004
 -2.555011954172280E-004
 -2.509487511608986E-004
 -2.463666365380048E-004
 -2.417769538024822E-004
 -2.372003710916265E-004
 -2.326563010642259E-004
 -2.281630753174830E-004
 -2.237381115877051E-004
 -2.193980719647122E-004
 -2.151590109622799E-004
 -2.110365123951700E-004
 -2.070458136959316E-004
 -2.032019155926112E-004
 -1.995196739925658E-004
 -1.960138694869585E-004
 -1.926992481229973E-004
 -1.895905250010088E-004
 -1.867023398419350E-004
 -1.840491509114042E-004
 -1.816450504686039E-004
 -1.795034810285109E-004
 -1.776368269185166E-004
 -1.760558497797199E-004
 -1.747689305223999E-004
 -1.737810765773120E-004
 -1.730926590105287E-004
 -1.726978726929720E-004
 -1.725829856677962E-004
 -1.727245878611775E-004
 -1.730882884961414E-004
 -3.021832375952062E-004
 -3.024749186105522E-004
 -3.027501555673244E-004
 -3.028738136115138E-004
 -3.027372545777330E-004
 -3.022619888183871E-004
 -3.013983449706388E-004
 -3.001215529491023E-004
 -2.984268364345303E-004
 -2.963244958368201E-004
 -2.938355149838788E-004
 -2.909879205885311E-004
 -2.878139334548644E-004
 -2.843478447836854E-004
 -2.806245033326496E-004
 -2.766782879465956E-004
 -2.725424488838718E-004
 -2.682487193390944E-004
 -2.638271187753641E-004
 -2.593058884572814E-004
 -2.547115153504573E-004
 -2.500688129893374E-004
 -2.454010373005195E-004
 -2.407300222355251E-004
 -2.360763249675219E-004
 -2.314593738287275E-004
 -2.268976144903632E-004
 -2.224086513971316E-004
 -2.180093823608823E-004
 -2.137161246252329E-004
 -2.095447307171436E-004
 -2.055106920524296E-004
 -2.016292275949172E-004
 -1.979153539010351E-004
 -1.943839316410198E-004
 -1.910496822037738E-004
 -1.879271662941279E-004
 -1.850307145356729E-004
 -1.823742979615720E-004
 -1.799713237685327E-004
 -1.778343385302613E-004
 -1.759746168088928E-004
 -1.744016074591255E-004
 -1.731222033647661E-004
 -1.721397954749129E-004
 -1.714530756941187E-004
 -1.710545791492680E-004
 -1.709290264087624E-004
 -1.710516671706190E-004
 -1.713870617615167E-004
 -3.060303309906939E-004
 -3.060683674580162E-004
 -3.060488744455451E-004
 -3.058517691486250E-004
 -3.053818778656953E-004
 -3.045719714672700E-004
 -3.033811713053820E-004
 -3.017910579389826E-004
 -2.998009881182624E-004
 -2.974235157330326E-004
 -2.946803822974740E-004
 -2.915992577085501E-004
 -2.882112390566776E-004
 -2.845490234471052E-004
 -2.806456336051480E-004
 -2.765335711847003E-004
 -2.722442863842473E-004
 -2.678078730890502E-004
 -2.632529199580681E-004
 -2.586064664816120E-004
 -2.538940279049112E-004
 -2.491396640733618E-004
 -2.443660752569230E-004
 -2.395947135588015E-004
 -2.348459022646785E-004
 -2.301389579658655E-004
 -2.254923118811344E-004
 -2.209236277682216E-004
 -2.164499143251794E-004
 -2.120876301373415E-004
 -2.078527790823096E-004
 -2.037609936962270E-004
 -1.998276033570501E-004
 -1.960676832692132E-004
 -1.924960791824324E-004
 -1.891274015854767E-004
 -1.859759818414782E-004
 -1.830557814005531E-004
 -1.803802438053479E-004
 -1.779620775226606E-004
 -1.758129553022370E-004
 -1.739431122116729E-004
 -1.723608191650630E-004
 -1.710717018067920E-004
 -1.700778683071960E-004
 -1.693768106500094E-004
 -1.689600660772752E-004
 -1.688116904877736E-004
 -1.689067304419547E-004
 -1.692101066608306E-004
 -3.101070618891164E-004
 -3.099139165475099E-004
 -3.096220138684769E-004
 -3.091226165414792E-004
 -3.083317582296647E-004
 -3.071924506799176E-004
 -3.056725275709444E-004
 -3.037604759196640E-004
 -3.014607143807630E-004
 -2.987891468935746E-004
 -2.957693908663155E-004
 -2.924298048411058E-004
 -2.888012813847999E-004
 -2.849156927396711E-004
 -2.808048514187140E-004
 -2.764998534348154E-004
 -2.720306922854173E-004
 -2.674260567694794E-004
 -2.627132492625582E-004
 -2.579181805272795E-004
 -2.530654118355595E-004
 -2.481782255609243E-004
 -2.432787123395915E-004
 -2.383878673256324E-004
 -2.335256907674561E-004
 -2.287112897113961E-004
 -2.239629784984582E-004
 -2.192983761266437E-004
 -2.147344986499504E-004
 -2.102878446554213E-004
 -2.059744715400382E-004
 -2.018100598143850E-004
 -1.978099620065316E-004
 -1.939892319527280E-004
 -1.903626293858821E-004
 -1.869445938346393E-004
 -1.837491810002826E-004
 -1.807899540399070E-004
 -1.780798215165103E-004
 -1.756308129808469E-004
 -1.734537817492523E-004
 -1.715580216779123E-004
 -1.699507797723396E-004
 -1.686366390799050E-004
 -1.676167383706573E-004
 -1.668877929770047E-004
 -1.664408984689710E-004
 -1.662601576178996E-004
 -1.663212977989974E-004
 -1.665906607760016E-004
 -3.144010503101016E-004
 -3.139929571859022E-004
 -3.134458752128035E-004
 -3.126593003931020E-004
 -3.115583653705281E-004
 -3.100951527140624E-004
 -3.082458117666877E-004
 -3.060059125616163E-004
 -3.033854914568637E-004
 -3.004045720341699E-004
 -2.970895026496418E-004
 -2.934701796902821E-004
 -2.895780755142828E-004
 -2.854449236124909E-004
 -2.811018998856689E-004
 -2.765791545638708E-004
 -2.719055775993730E-004
 -2.671087108232144E-004
 -2.622147470989279E-004
 -2.572485778589102E-004
 -2.522338655988527E-004
 -2.471931279972394E-004
 -2.421478265455667E-004
 -2.371184561044804E-004
 -2.321246335938870E-004
 -2.271851847798854E-004
 -2.223182282878780E-004
 -2.175412558242329E-004
 -2.128712072676601E-004
 -2.083245388626139E-004
 -2.039172822283208E-004
 -1.996650912956107E-004
 -1.955832736064129E-004
 -1.916868016872006E-004
 -1.879902994950800E-004
 -1.845079983170159E-004
 -1.812536560826534E-004
 -1.782404339033834E-004
 -1.754807237527615E-004
 -1.729859213200421E-004
 -1.707661376388782E-004
 -1.688298411615350E-004
 -1.671834173747162E-004
 -1.658306251904814E-004
 -1.647719196085732E-004
 -1.640036045153705E-004
 -1.635167914063136E-004
 -1.632961913131595E-004
 -1.633188844228341E-004
 -1.635534133831838E-004
 -3.189022494653457E-004
 -3.182905619274259E-004
 -3.175011364382757E-004
 -3.164391594000660E-004
 -3.150370052174523E-004
 -3.132546678986748E-004
 -3.110760696879862E-004
 -3.085038106250376E-004
 -3.055538433120806E-004
 -3.022508330475889E-004
 -2.986244980659338E-004
 -2.947069468020217E-004
 -2.905308834982114E-004
 -2.861284963321704E-004
 -2.815308393586827E-004
 -2.767675453176425E-004
 -2.718667430412903E-004
 -2.668550898712893E-004
 -2.617578605666539E-004
 -2.565990577037222E-004
 -2.514015248027848E-004
 -2.461870536453215E-004
 -2.409764830668026E-004
 -2.357897893641381E-004
 -2.306461694936780E-004
 -2.255641182606424E-004
 -2.205615002272285E-004
 -2.156556163894478E-004
 -2.108632649421656E-004
 -2.062007947149495E-004
 -2.016841491342461E-004
 -1.973288978435773E-004
 -1.931502523928174E-004
 -1.891630617330856E-004
 -1.853817826796736E-004
 -1.818204201533928E-004
 -1.784924319979607E-004
 -1.754105936033138E-004
 -1.725868184305773E-004
 -1.700319315711451E-004
 -1.677553940229947E-004
 -1.657649742870518E-004
 -1.640663597058929E-004
 -1.626626916069566E-004
 -1.615539966885789E-004
 -1.607364777559137E-004
 -1.602016331056600E-004
 -1.599352175328935E-004
 -1.599161648767063E-004
 -1.601157791412379E-004
 -3.236023041491831E-004
 -3.227945633007601E-004
 -3.217719278875387E-004
 -3.204432240294917E-004
 -3.187464866405833E-004
 -3.166485561150900E-004
 -3.141405458498073E-004
 -3.112319093226041E-004
 -3.079446473805128E-004
 -3.043084109775498E-004
 -3.003567585133525E-004
 -2.961245378042431E-004
 -2.916462175363963E-004
 -2.869549427269815E-004
 -2.820820953317832E-004
 -2.770571766105212E-004
 -2.719078730242212E-004
 -2.666602107137994E-004
 -2.613387392877040E-004
 -2.559667120222640E-004
 -2.505662472815425E-004
 -2.451584666935466E-004
 -2.397636113146637E-004
 -2.344011394053341E-004
 -2.290898098635962E-004
 -2.238477547581406E-004
 -2.186925433489419E-004
 -2.136412388153329E-004
 -2.087104477825041E-004
 -2.039163617005634E-004
 -1.992747881895050E-004
 -1.948011696033443E-004
 -1.905105852940898E-004
 -1.864177334051505E-004
 -1.825368875754363E-004
 -1.788818238222601E-004
 -1.754657132448568E-004
 -1.723009771819201E-004
 -1.693991030686742E-004
 -1.667704211830985E-004
 -1.644238440030653E-004
 -1.623665696672272E-004
 -1.606037472538864E-004
 -1.591380927274874E-004
 -1.579694308569159E-004
 -1.570941252963741E-004
 -1.565043593312508E-004
 -1.561872654120380E-004
 -1.561239979274166E-004
 -1.562890158224852E-004
 -3.284940307298693E-004
 -3.274947926103629E-004
 -3.262450052478439E-004
 -3.246554850243295E-004
 -3.226686065178490E-004
 -3.202571209053188E-004
 -3.174187743055928E-004
 -3.141696444779839E-004
 -3.105378131340744E-004
 -3.065581390442936E-004
 -3.022683652013012E-004
 -2.977064885227156E-004
 -2.929091725386166E-004
 -2.879109378149628E-004
 -2.827438797087003E-004
 -2.774377076642852E-004
 -2.720199537974207E-004
 -2.665162485457444E-004
 -2.609506017486437E-004
 -2.553456570808851E-004
 -2.497229072628897E-004
 -2.441028689764797E-004
 -2.385052222151289E-004
 -2.329489208994465E-004
 -2.274522815341662E-004
 -2.220330555371540E-004
 -2.167084893026578E-004
 -2.114953744387845E-004
 -2.064100891161415E-004
 -2.014686301367577E-004
 -1.966866341751854E-004
 -1.920793856470991E-004
 -1.876618078166598E-004
 -1.834484331165279E-004
 -1.794533483074388E-004
 -1.756901102080216E-004
 -1.721716284594477E-004
 -1.689100133150186E-004
 -1.659163887766400E-004
 -1.632006742346936E-004
 -1.607713402660527E-004
 -1.586351448690539E-004
 -1.567968530410060E-004
 -1.552589332505979E-004
 -1.540212089020990E-004
 -1.530804260057239E-004
 -1.524296926974983E-004
 -1.520577738156463E-004
 -1.519483094026196E-004
 -1.520791830115908E-004
 -3.335710040323357E-004
 -3.323824715655353E-004
 -3.309090520970282E-004
 -3.290622179135609E-004
 -3.267875896619401E-004
 -3.240630300279670E-004
 -3.208924150702177E-004
 -3.172982098648284E-004
 -3.133145575535272E-004
 -3.089816684722312E-004
 -3.043417246425990E-004
 -2.994361912714786E-004
 -2.943042734840995E-004
 -2.889822136720197E-004
 -2.835031468058956E-004
 -2.778972842497596E-004
 -2.721922583258925E-004
 -2.664135167150649E-004
 -2.605847014341266E-004
 -2.547279801054468E-004
 -2.488643187538223E-004
 -2.430136978589031E-004
 -2.371952794743703E-004
 -2.314275351808938E-004
 -2.257283442151361E-004
 -2.201150695158298E-004
 -2.146046173995539E-004
 -2.092134845423738E-004
 -2.039577940901198E-004
 -1.988533211125807E-004
 -1.939155062496622E-004
 -1.891594552560639E-004
 -1.845999212325451E-004
 -1.802512656875423E-004
 -1.761273943126371E-004
 -1.722416636503528E-004
 -1.686067559010264E-004
 -1.652345211443507E-004
 -1.621357892767369E-004
 -1.593201576624829E-004
 -1.567957639457928E-004
 -1.545690549371666E-004
 -1.526445595338548E-004
 -1.510246638135464E-004
 -1.497093691298828E-004
 -1.486959934609245E-004
 -1.479787649269639E-004
 -1.475482760569463E-004
 -1.473908425689912E-004
 -1.474879524189424E-004
 -3.388272326083669E-004
 -3.374497355001323E-004
 -3.357541121932977E-004
 -3.336513980752210E-004
 -3.310895556323389E-004
 -3.280508881008029E-004
 -3.245449677798769E-004
 -3.206004285724221E-004
 -3.162574353757868E-004
 -3.115616473494541E-004
 -3.065598785318005E-004
 -3.012973144080053E-004
 -2.958159823318631E-004
 -2.901541323262899E-004
 -2.843462130023955E-004
 -2.784231886085069E-004
 -2.724130129183951E-004
 -2.663411392971651E-004
 -2.602309971156712E-004
 -2.541044012144625E-004
 -2.479818848244812E-004
 -2.418829599811984E-004
 -2.358263159678037E-004
 -2.298299682444443E-004
 -2.239113696125940E-004
 -2.180874933730411E-004
 -2.123748957975769E-004
 -2.067897628192714E-004
 -2.013479436641456E-004
 -1.960649722732333E-004
 -1.909560757925165E-004
 -1.860361681210367E-004
 -1.813198255057841E-004
 -1.768212405114700E-004
 -1.725541504983763E-004
 -1.685317372085241E-004
 -1.647664954352759E-004
 -1.612700712534625E-004
 -1.580530739749341E-004
 -1.551248705253689E-004
 -1.524933753123809E-004
 -1.501648509551968E-004
 -1.481437327155650E-004
 -1.464324792193749E-004
 -1.450314329644924E-004
 -1.439386499638326E-004
 -1.431496409754580E-004
 -1.426569788204715E-004
 -1.424497913752974E-004
 -1.425132871769807E-004
 -3.442569044600235E-004
 -3.426892635402454E-004
 -3.407711370649734E-004
 -3.384122130691334E-004
 -3.355620449802958E-004
 -3.322068192841480E-004
 -3.283614421932230E-004
 -3.240605302900064E-004
 -3.193502306420953E-004
 -3.142817245894417E-004
 -3.089066115355856E-004
 -3.032740011547800E-004
 -2.974289730096277E-004
 -2.914120216398606E-004
 -2.852591389822330E-004
 -2.790022549816803E-004
 -2.726698347898897E-004
 -2.662875013649407E-004
 -2.598786083587007E-004
 -2.534647283730887E-004
 -2.470660476691618E-004
 -2.407016732887700E-004
 -2.343898655594166E-004
 -2.281482109193210E-004
 -2.219937490763791E-004
 -2.159430661851834E-004
 -2.100123629194555E-004
 -2.042175035494904E-004
 -1.985740496459905E-004
 -1.930972799034765E-004
 -1.878021958058440E-004
 -1.827035114245590E-004
 -1.778156245499841E-004
 -1.731525656692869E-004
 -1.687279211598691E-004
 -1.645547276852030E-004
 -1.606453364351578E-004
 -1.570112487993440E-004
 -1.536629293770340E-004
 -1.506096075600624E-004
 -1.478590841931450E-004
 -1.454175629341623E-004
 -1.432895238280463E-004
 -1.414776459660276E-004
 -1.399827653083547E-004
 -1.388038261939183E-004
 -1.379377628615254E-004
 -1.373792521390736E-004
 -1.371203339764171E-004
 -1.371500098398929E-004
 -3.498541876848972E-004
 -3.480939927113035E-004
 -3.459516296701463E-004
 -3.433346652362101E-004
 -3.401936148629199E-004
 -3.365180881067434E-004
 -3.323280304158397E-004
 -3.276638931973799E-004
 -3.225777784063228E-004
 -3.171264544093758E-004
 -3.113664357936264E-004
 -3.053509273404385E-004
 -2.991282531475719E-004
 -2.927413506378447E-004
 -2.862279481220981E-004
 -2.796211210834886E-004
 -2.729500076501151E-004
 -2.662405409464616E-004
 -2.595161173926236E-004
 -2.527981639615686E-004
 -2.461065957883263E-004
 -2.394601717248988E-004
 -2.328767630235434E-004
 -2.263735524016375E-004
 -2.199671796461500E-004
 -2.136738472886470E-004
 -2.075093967323735E-004
 -2.014893621187084E-004
 -1.956290064395289E-004
 -1.899433420316539E-004
 -1.844471356257736E-004
 -1.791548965452442E-004
 -1.740808454698738E-004
 -1.692388604567655E-004
 -1.646423968035123E-004
 -1.603043780883452E-004
 -1.562370576335598E-004
 -1.524518529984592E-004
 -1.489591610150239E-004
 -1.457681669732944E-004
 -1.428866676933896E-004
 -1.403209321219922E-004
 -1.380756214009778E-004
 -1.361537793490205E-004
 -1.345568818930415E-004
 -1.332849032066559E-004
 -1.323363291239003E-004
 -1.317080464993064E-004
 -1.313950838245748E-004
 -1.313902786131900E-004
 -3.556130734003112E-004
 -3.536568965457239E-004
 -3.512873650765566E-004
 -3.484092520279364E-004
 -3.449735020719836E-004
 -3.409727688924963E-004
 -3.364318036407795E-004
 -3.313967841721931E-004
 -3.259257590653951E-004
 -3.200811501257452E-004
 -3.139245049592966E-004
 -3.075132729333305E-004
 -3.008991878995244E-004
 -2.941277989499938E-004
 -2.872387342464868E-004
 -2.802663668510778E-004
 -2.732406445543673E-004
 -2.661879297795474E-004
 -2.591317624064973E-004
 -2.520935061225663E-004
 -2.450928697412306E-004
 -2.381483125099213E-004
 -2.312773506441047E-004
 -2.244967845339687E-004
 -2.178228648377296E-004
 -2.112714127714939E-004
 -2.048579064393760E-004
 -1.985975416369949E-004
 -1.925052725056107E-004
 -1.865958348067237E-004
 -1.808837524368070E-004
 -1.753833260820130E-004
 -1.701086016379206E-004
 -1.650733152559572E-004
 -1.602908117965543E-004
 -1.557739343331444E-004
 -1.515348844954558E-004
 -1.475850571822276E-004
 -1.439348586337209E-004
 -1.405935236651042E-004
 -1.375689548041079E-004
 -1.348676107215521E-004
 -1.324944700473712E-004
 -1.304530853105531E-004
 -1.287457178164339E-004
 -1.273735104632229E-004
 -1.263366236802010E-004
 -1.256342516187207E-004
 -1.252644743252157E-004
 -1.252239898066053E-004
 -3.615272510491518E-004
 -3.593708126796111E-004
 -3.567701714505282E-004
 -3.536267104032986E-004
 -3.498913460859684E-004
 -3.455594645340667E-004
 -3.406604428448071E-004
 -3.352461149645223E-004
 -3.293804900053544E-004
 -3.231317174887027E-004
 -3.165664919444409E-004
 -3.097466439992084E-004
 -3.027274637001615E-004
 -2.955572584457000E-004
 -2.882776963452965E-004
 -2.809245770988618E-004
 -2.735287733927557E-004
 -2.661171768536556E-004
 -2.587135548510317E-004
 -2.513392761065020E-004
 -2.440138964155525E-004
 -2.367556147942399E-004
 -2.295816192378765E-004
 -2.225083436518571E-004
 -2.155516561619891E-004
 -2.087269958470330E-004
 -2.020494711625278E-004
 -1.955339296119393E-004
 -1.891950048941383E-004
 -1.830471449224926E-004
 -1.771046217745990E-004
 -1.713815227739384E-004
 -1.658917205327055E-004
 -1.606488189766404E-004
 -1.556660723073094E-004
 -1.509562748197816E-004
 -1.465316218472846E-004
 -1.424035461954048E-004
 -1.385825403979057E-004
 -1.350779826028561E-004
 -1.318979915896087E-004
 -1.290493417520573E-004
 -1.265374679399662E-004
 -1.243665783504670E-004
 -1.225398682944636E-004
 -1.210597910285993E-004
 -1.199283057922243E-004
 -1.191470096449087E-004
 -1.187170912627380E-004
 -1.186391224019378E-004
 -3.675900085346850E-004
 -3.652283074959134E-004
 -3.623917576317944E-004
 -3.589778126314189E-004
 -3.549369629623744E-004
 -3.502670705481254E-004
 -3.450020052790607E-004
 -3.391992221137213E-004
 -3.329287277433224E-004
 -3.262644852605522E-004
 -3.192784515617213E-004
 -3.120369687258549E-004
 -3.045990171064244E-004
 -2.970157929240426E-004
 -2.893311262103323E-004
 -2.815823536756308E-004
 -2.738013699551648E-004
 -2.660156788348202E-004
 -2.582493439153737E-004
 -2.505237938387803E-004
 -2.428584731245489E-004
 -2.352713501378035E-004
 -2.277793032683272E-004
 -2.203984089502831E-004
 -2.131441536890303E-004
 -2.060315888418767E-004
 -1.990754428226957E-004
 -1.922902013919731E-004
 -1.856901630996143E-004
 -1.792894738901073E-004
 -1.731021423643985E-004
 -1.671420351957168E-004
 -1.614228507294448E-004
 -1.559580679384754E-004
 -1.507608678498840E-004
 -1.458440256040567E-004
 -1.412197738470677E-004
 -1.368996425614444E-004
 -1.328942868728781E-004
 -1.292133224457901E-004
 -1.258651964528201E-004
 -1.228571280460859E-004
 -1.201951516085847E-004
 -1.178842839978713E-004
 -1.159288102553582E-004
 -1.143326430153130E-004
 -1.130996710044851E-004
 -1.122339937480280E-004
 -1.117399652965610E-004
 -1.116220384012746E-004
 -3.737941515273931E-004
 -3.712215688359134E-004
 -3.681435764722014E-004
 -3.644532026820607E-004
 -3.601001609904985E-004
 -3.550845784036503E-004
 -3.494447246199555E-004
 -3.432436726243141E-004
 -3.365574865779341E-004
 -3.294660425862481E-004
 -3.220466805137761E-004
 -3.143703821650035E-004
 -3.064999448947892E-004
 -2.984895729460805E-004
 -2.903853664878252E-004
 -2.822262946410153E-004
 -2.740453558226422E-004
 -2.658707341674784E-004
 -2.577268444010432E-004
 -2.496352173059172E-004
 -2.416152164914833E-004
 -2.336845991590606E-004
 -2.258599438117847E-004
 -2.181569705968943E-004
 -2.105907783940528E-004
 -2.031760190897253E-004
 -1.959270250979752E-004
 -1.888579018836970E-004
 -1.819825933854671E-004
 -1.753149249564746E-004
 -1.688686257489128E-004
 -1.626573303336775E-004
 -1.566945577865032E-004
 -1.509936655588521E-004
 -1.455677754002219E-004
 -1.404296697129975E-004
 -1.355916594207495E-004
 -1.310654291130685E-004
 -1.268618720648252E-004
 -1.229909363322427E-004
 -1.194615120857405E-004
 -1.162813967920336E-004
 -1.134573744155993E-004
 -1.109954323369830E-004
 -1.089011116314694E-004
 -1.071799447333980E-004
 -1.058378913649699E-004
 -1.048816614612024E-004
 -1.043188350246710E-004
 -1.041577505280108E-004
 -3.801319377631390E-004
 -3.773423201345512E-004
 -3.740167156245143E-004
 -3.700432643846697E-004
 -3.653705899950348E-004
 -3.600009117489579E-004
 -3.539768408512065E-004
 -3.473670942854084E-004
 -3.402538754970811E-004
 -3.327230875745191E-004
 -3.248575814550235E-004
 -3.167331082777311E-004
 -3.084164053909512E-004
 -2.999647967301789E-004
 -2.914267506230116E-004
 -2.828429521701715E-004
 -2.742475727778468E-004
 -2.656695323483974E-004
 -2.571336391711494E-004
 -2.486615565495475E-004
 -2.402725864878245E-004
 -2.319842842890361E-004
 -2.238129288932229E-004
 -2.157738767135656E-004
 -2.078818250395180E-004
 -2.001510071470184E-004
 -1.925953365667912E-004
 -1.852285133592820E-004
 -1.780641011216192E-004
 -1.711155799526711E-004
 -1.643963777334295E-004
 -1.579198798136574E-004
 -1.516994155391363E-004
 -1.457482190923358E-004
 -1.400793620589130E-004
 -1.347056563066110E-004
 -1.296395285969774E-004
 -1.248928732639618E-004
 -1.204768964719654E-004
 -1.164019746061307E-004
 -1.126775587818221E-004
 -1.093121642998513E-004
 -1.063134835203363E-004
 -1.036886476886579E-004
 -1.014446339163358E-004
 -9.958876976403258E-005
 -9.812924195730290E-005
 -9.707549072466642E-005
 -9.643838951955982E-005
 -9.623016701049334E-005
 -3.865950232792134E-004
 -3.835817511182074E-004
 -3.800018095030261E-004
 -3.757380143789704E-004
 -3.707376174384499E-004
 -3.650047895713654E-004
 -3.585864553898748E-004
 -3.515570279926481E-004
 -3.440049526971690E-004
 -3.360222883976878E-004
 -3.276975342091470E-004
 -3.191113438722369E-004
 -3.103345168162932E-004
 -3.014276037768940E-004
 -2.924415319533008E-004
 -2.834187767796297E-004
 -2.743947414576431E-004
 -2.653991260682571E-004
 -2.564571637273939E-004
 -2.475906696022071E-004
 -2.388188926946113E-004
 -2.301591854154968E-004
 -2.216275176883866E-004
 -2.132388654415469E-004
 -2.050075015423259E-004
 -1.969472130298783E-004
 -1.890714635024671E-004
 -1.813935146063047E-004
 -1.739265161851498E-004
 -1.666835709295697E-004
 -1.596777763215918E-004
 -1.529222442740427E-004
 -1.464300971159988E-004
 -1.402144375611121E-004
 -1.342882902267659E-004
 -1.286645134878579E-004
 -1.233556833899687E-004
 -1.183739564453135E-004
 -1.137309255803154E-004
 -1.094374928789067E-004
 -1.055037925399795E-004
 -1.019392045451712E-004
 -9.875249912393478E-005
 -9.595213860095019E-005
 -9.354673263813027E-005
 -9.154559723373616E-005
 -8.995931975451242E-005
 -8.880020543196546E-005
 -8.808249789583455E-005
 -8.782232162870434E-005
 -3.931744183801877E-004
 -3.899304615334656E-004
 -3.860889677267823E-004
 -3.815270144365646E-004
 -3.761902257197733E-004
 -3.700846110578773E-004
 -3.632614070583801E-004
 -3.558007988416079E-004
 -3.477975958319982E-004
 -3.393501564224826E-004
 -3.305527749808464E-004
 -3.214911464512765E-004
 -3.122402556528989E-004
 -3.028639849970271E-004
 -2.934158062848597E-004
 -2.839400525815019E-004
 -2.744734091640380E-004
 -2.650463912129517E-004
 -2.556846778815892E-004
 -2.464102452324043E-004
 -2.372422875083086E-004
 -2.281979429637312E-004
 -2.192928529491079E-004
 -2.105415862567023E-004
 -2.019579588065409E-004
 -1.935552742764645E-004
 -1.853465059585059E-004
 -1.773444349045345E-004
 -1.695617547658464E-004
 -1.620111497898426E-004
 -1.547053492233264E-004
 -1.476571588468495E-004
 -1.408794685285111E-004
 -1.343852336214543E-004
 -1.281874279445075E-004
 -1.222989673298956E-004
 -1.167326057401324E-004
 -1.115008111831028E-004
 -1.066156362848478E-004
 -1.020886079643825E-004
 -9.793067061783540E-005
 -9.415222434803353E-005
 -9.076329913788015E-005
 -8.777389167810799E-005
 -8.519445976134556E-005
 -8.303652187353745E-005
 -8.131326001221121E-005
 -8.003999634574737E-005
 -7.923443237892361E-005
 -7.891659595224993E-005
 -3.998604517559137E-004
 -3.963784153529885E-004
 -3.922677165604462E-004
 -3.873992989834271E-004
 -3.817169261737304E-004
 -3.752283577234615E-004
 -3.679891648895247E-004
 -3.600854026775393E-004
 -3.516183855563360E-004
 -3.426929299023835E-004
 -3.334092830563691E-004
 -3.238583263613644E-004
 -3.141193562056741E-004
 -3.042596911694766E-004
 -2.943354302854674E-004
 -2.843928262642460E-004
 -2.744698897722293E-004
 -2.645979777977445E-004
 -2.548032276453766E-004
 -2.451077756088133E-004
 -2.355307493389256E-004
 -2.260890513679085E-004
 -2.167979644967276E-004
 -2.076716132606173E-004
 -1.987233136275635E-004
 -1.899658383234860E-004
 -1.814116195224937E-004
 -1.730729051058452E-004
 -1.649618797585002E-004
 -1.570907580117498E-004
 -1.494718529559097E-004
 -1.421176216987897E-004
 -1.350406867274178E-004
 -1.282538312141672E-004
 -1.217699662097607E-004
 -1.156020689188137E-004
 -1.097630943161664E-004
 -1.042658676570930E-004
 -9.912297315031362E-005
 -9.434666371924656E-005
 -8.994882674214996E-005
 -8.594104763142175E-005
 -8.233481203011499E-005
 -7.914187238111230E-005
 -7.637477159988082E-005
 -7.404746794892045E-005
 -7.217595482138761E-005
 -7.077874253321907E-005
 -6.987709048914886E-005
 -6.949493971779029E-005
 -4.066427416344054E-004
 -4.029149036149743E-004
 -3.985269507651748E-004
 -3.933433146234195E-004
 -3.873056861884924E-004
 -3.804235091156483E-004
 -3.727567342286566E-004
 -3.643974049465691E-004
 -3.554534997567718E-004
 -3.460364662695120E-004
 -3.362526737136111E-004
 -3.261983426301305E-004
 -3.159572113559211E-004
 -3.056001402527052E-004
 -2.951859366506493E-004
 -2.847628310952466E-004
 -2.743701972778154E-004
 -2.640402535430842E-004
 -2.537995991426414E-004
 -2.436705207294547E-004
 -2.336720576470733E-004
 -2.238208447517968E-004
 -2.141317655523166E-004
 -2.046184521552353E-004
 -1.952936663080486E-004
 -1.861695907705297E-004
 -1.772580542490383E-004
 -1.685707072680620E-004
 -1.601191611410582E-004
 -1.519150978205386E-004
 -1.439703548566870E-004
 -1.362969869277500E-004
 -1.289073034082228E-004
 -1.218138802801138E-004
 -1.150295445697567E-004
 -1.085673307453388E-004
 -1.024404115720760E-004
 -9.666201122115843E-005
 -9.124531611432176E-005
 -8.620340855464080E-005
 -8.154925794924171E-005
 -7.729581099108853E-005
 -7.345622039013158E-005
 -7.004423570376752E-005
 -6.707474555056345E-005
 -6.456441080824712E-005
 -6.253227801571802E-005
 -6.100023793630513E-005
 -5.999322131514666E-005
 -5.953909455933877E-005
 -4.135101731898319E-004
 -4.095285145603935E-004
 -4.048548939237285E-004
 -3.993468691932619E-004
 -3.929438665808227E-004
 -3.856569690293285E-004
 -3.775505730566177E-004
 -3.687228489413144E-004
 -3.592886158738091E-004
 -3.493661408421443E-004
 -3.390680956231817E-004
 -3.284962012536184E-004
 -3.177387737321348E-004
 -3.068703231955881E-004
 -2.959524460540970E-004
 -2.850354062572270E-004
 -2.741599735325310E-004
 -2.633592408184974E-004
 -2.526602653976181E-004
 -2.420854655496673E-004
 -2.316537607986252E-004
 -2.213814758144046E-004
 -2.112830428968887E-004
 -2.013715418794305E-004
 -1.916591139427521E-004
 -1.821572804640983E-004
 -1.728771916773884E-004
 -1.638298237270559E-004
 -1.550261372062419E-004
 -1.464772056657436E-004
 -1.381943188683740E-004
 -1.301890626850127E-004
 -1.224733754605755E-004
 -1.150595794754085E-004
 -1.079603859806306E-004
 -1.011888735138822E-004
 -9.475844222815808E-005
 -8.868275218412974E-005
 -8.297566109033083E-005
 -7.765118627013905E-005
 -7.272352493740801E-005
 -6.820717272723848E-005
 -6.411717767048861E-005
 -6.046954952084404E-005
 -5.728180880932192E-005
 -5.457360958887275E-005
 -5.236732034289727E-005
 -5.068842732673697E-005
 -4.956566039856438E-005
 -4.903082578274805E-005
 -4.204508816610678E-004
 -4.162071100879997E-004
 -4.112390657691037E-004
 -4.053970884099285E-004
 -3.986181669105073E-004
 -3.909149996594823E-004
 -3.823565158509732E-004
 -3.730471707851995E-004
 -3.631088188075662E-004
 -3.526667496790633E-004
 -3.418401307753161E-004
 -3.307363543038216E-004
 -3.194484560098776E-004
 -3.080547072879809E-004
 -2.966195752228091E-004
 -2.851954111232530E-004
 -2.738244099968877E-004
 -2.625405469639571E-004
 -2.513713261494683E-004
 -2.403392700677045E-004
 -2.294631370742698E-004
 -2.187588883118417E-004
 -2.082404412897299E-004
 -1.979202513579909E-004
 -1.878097598357743E-004
 -1.779197418732451E-004
 -1.682605804145698E-004
 -1.588424860975297E-004
 -1.496756771516800E-004
 -1.407705285313839E-004
 -1.321376956530319E-004
 -1.237882151237052E-004
 -1.157335827173309E-004
 -1.079858076153709E-004
 -1.005574417536826E-004
 -9.346158430226292E-005
 -8.671186424568953E-005
 -8.032240908125465E-005
 -7.430781488995402E-005
 -6.868314184748812E-005
 -6.346396781578368E-005
 -5.866653749780841E-005
 -5.430804056416810E-005
 -5.040703338873046E-005
 -4.698398218258577E-005
 -4.406185452422061E-005
 -4.166663865607001E-005
 -3.982765567397470E-005
 -3.857757746785242E-005
 -3.795216653937853E-005
 -4.274522407990513E-004
 -4.229378077868328E-004
 -4.176662553610854E-004
 -4.114803785439443E-004
 -4.043145768029245E-004
 -3.961831614816069E-004
 -3.871597025983944E-004
 -3.773551186998830E-004
 -3.668985119823484E-004
 -3.559224142743614E-004
 -3.445526948064299E-004
 -3.329025979554916E-004
 -3.210700286882792E-004
 -3.091371356547910E-004
 -2.971713399882660E-004
 -2.852271335506611E-004
 -2.733481627953562E-004
 -2.615692874560560E-004
 -2.499184403145189E-004
 -2.384182121159286E-004
 -2.270871486848125E-004
 -2.159407830705761E-004
 -2.049924421461789E-004
 -1.942538714180059E-004
 -1.837357191495489E-004
 -1.734479148948332E-004
 -1.633999704569171E-004
 -1.536012244118921E-004
 -1.440610452786139E-004
 -1.347890033758403E-004
 -1.257950173890204E-004
 -1.170894785955985E-004
 -1.086833535118509E-004
 -1.005882644566340E-004
 -9.281654732019276E-005
 -8.538128694588593E-005
 -7.829633333500823E-005
 -7.157630666760145E-005
 -6.523660591219033E-005
 -5.929344389126303E-005
 -5.376393920043253E-005
 -4.866629882813304E-005
 -4.402011955315987E-005
 -3.984681564149960E-005
 -3.617014214364088E-005
 -3.301673229626736E-005
 -3.041652283796016E-005
 -2.840293486431244E-005
 -2.701274112234890E-005
 -2.628567858256596E-005
 -4.345008563558636E-004
 -4.297069679534569E-004
 -4.241224991580895E-004
 -4.175823937901426E-004
 -4.100183316037318E-004
 -4.014462568908128E-004
 -3.919445107710402E-004
 -3.816306742342457E-004
 -3.706413291997408E-004
 -3.591164857475179E-004
 -3.471889354721812E-004
 -3.349779673198675E-004
 -3.225865134070811E-004
 -3.101007211520543E-004
 -2.975910517777349E-004
 -2.851141908629869E-004
 -2.727152599388538E-004
 -2.604300009621803E-004
 -2.482867503013278E-004
 -2.363081222072863E-004
 -2.245123882683797E-004
 -2.129145771152335E-004
 -2.015273361495493E-004
 -1.903616016262292E-004
 -1.794271206081554E-004
 -1.687328619728073E-004
 -1.582873461939057E-004
 -1.480989163994009E-004
 -1.381759668624261E-004
 -1.285271398336910E-004
 -1.191614974628793E-004
 -1.100886724017391E-004
 -1.013189984550850E-004
 -9.286362135635785E-005
 -8.473458950120506E-005
 -7.694492550472889E-005
 -6.950868205058948E-005
 -6.244098990538854E-005
 -5.575811211317831E-005
 -4.947752549537599E-005
 -4.361805671927472E-005
 -3.820010183517486E-005
 -3.324595028965382E-005
 -2.878021174863102E-005
 -2.483030439533180E-005
 -2.142691296999808E-005
 -1.860428423517369E-005
 -1.640023174187770E-005
 -1.485580456949619E-005
 -1.401473376593743E-005
 -4.415825643749885E-004
 -4.365001850755374E-004
 -4.305930631365356E-004
 -4.236880071396023E-004
 -4.157138708288172E-004
 -4.066882757569038E-004
 -3.966944881747616E-004
 -3.858569731814580E-004
 -3.743200448954899E-004
 -3.622314461055774E-004
 -3.497311268693303E-004
 -3.369446257680078E-004
 -3.239800696105725E-004
 -3.109277326288138E-004
 -2.978612056840768E-004
 -2.848394218427190E-004
 -2.719089992240771E-004
 -2.591065549759411E-004
 -2.464607970453411E-004
 -2.339943094625710E-004
 -2.217250170385631E-004
 -2.096673552096007E-004
 -1.978331892118798E-004
 -1.862325315637049E-004
 -1.748741038612949E-004
 -1.637657822205122E-004
 -1.529149578598560E-004
 -1.423288367482425E-004
 -1.320146956179196E-004
 -1.219801061883206E-004
 -1.122331351597811E-004
 -1.027825243098663E-004
 -9.363785277611884E-005
 -8.480968230272393E-005
 -7.630968594954736E-005
 -6.815076167715706E-005
 -6.034713455965823E-005
 -5.291445527989355E-005
 -4.586990786269235E-005
 -3.923234543202080E-005
 -3.302247712907706E-005
 -2.726312868578876E-005
 -2.197958864923803E-005
 -1.720002708650799E-005
 -1.295593238762761E-005
 -9.282462225060531E-006
 -6.218569546116658E-006
 -3.806781591273249E-006
 -2.092616647688366E-006
 -1.123820555248860E-006
 -4.486824340355875E-004
 -4.433022832715183E-004
 -4.370624281350561E-004
 -4.297812835907349E-004
 -4.213847979069786E-004
 -4.118923410772987E-004
 -4.013922845754113E-004
 -3.900162238697782E-004
 -3.779164803321721E-004
 -3.652488040224656E-004
 -3.521605568286719E-004
 -3.387837462035024E-004
 -3.252318721052685E-004
 -3.115994712279935E-004
 -2.979633579465123E-004
 -2.843847677459137E-004
 -2.709118350095127E-004
 -2.575820404236355E-004
 -2.444244243387761E-004
 -2.314614773723103E-004
 -2.187106935035215E-004
 -2.061858128804073E-004
 -1.938978009865043E-004
 -1.818556158612026E-004
 -1.700668119411716E-004
 -1.585380220764769E-004
 -1.472753510564944E-004
 -1.362847060624553E-004
 -1.255720825622183E-004
 -1.151438185170202E-004
 -1.050068253660883E-004
 -9.516880098005960E-005
 -8.563842751231886E-005
 -7.642555577126465E-005
 -6.754137741431228E-005
 -5.899858703451404E-005
 -5.081153820957151E-005
 -4.299640084723039E-005
 -3.557133139369951E-005
 -2.855667169341403E-005
 -2.197519441444122E-005
 -1.585240950647535E-005
 -1.021693251866587E-005
 -5.100887519519203E-006
 -5.402744964344828E-007
  3.424817130844513E-006
  6.750295622752081E-006
  9.388568550398773E-006
  1.128943737139493E-005
  1.240111991980203E-005
 -4.557847747540551E-004
 -4.500973151274727E-004
 -4.435142775530112E-004
 -4.358454544885567E-004
 -4.270138396562147E-004
 -4.170406528307909E-004
 -4.060195799048063E-004
 -3.940896203786974E-004
 -3.814114030887696E-004
 -3.681489823722364E-004
 -3.544574046609121E-004
 -3.404753814745101E-004
 -3.263219767694602E-004
 -3.120961341010863E-004
 -2.978779903702948E-004
 -2.837311400485971E-004
 -2.697052517767280E-004
 -2.558386533578783E-004
 -2.421606707780954E-004
 -2.286936279135986E-004
 -2.154544914606070E-004
 -2.024561898008853E-004
 -1.897086549645107E-004
 -1.772196421647763E-004
 -1.649953781037213E-004
 -1.530410818945892E-004
 -1.413613938493014E-004
 -1.299607391151979E-004
 -1.188436459773318E-004
 -1.080150328165573E-004
 -9.748047321068285E-005
 -8.724644536111856E-005
 -7.732056977237549E-005
 -6.771183781765093E-005
 -5.843083345528120E-005
 -4.948995095267792E-005
 -4.090361305240770E-005
 -3.268849648604314E-005
 -2.486377465787597E-005
 -1.745138956379914E-005
 -1.047636442575988E-005
 -3.967161688920521E-006
  2.043926351977916E-006
  7.520398508205971E-006
  1.242126609165278E-005
  1.670101002127536E-005
  2.030992893727370E-005
  2.319498197293840E-005
  2.530106031147645E-005
  2.657232335642639E-005
 -4.628731471465380E-004
 -4.568685632619592E-004
 -4.499314864141191E-004
 -4.418628916474176E-004
 -4.325828037788749E-004
 -4.221144279595042E-004
 -4.105570066430065E-004
 -3.980572479937672E-004
 -3.847844169396735E-004
 -3.709111944602407E-004
 -3.566006061230422E-004
 -3.419983207890674E-004
 -3.272291713378704E-004
 -3.123966625781311E-004
 -2.975843588914837E-004
 -2.828582723287572E-004
 -2.682696221013428E-004
 -2.538575615931532E-004
 -2.396516474161952E-004
 -2.256739523345110E-004
 -2.119408057926930E-004
 -1.984641922518041E-004
 -1.852528590462424E-004
 -1.723131910761098E-004
 -1.596499062321355E-004
 -1.472666177659550E-004
 -1.351663008411666E-004
 -1.233516919028101E-004
 -1.118256420771223E-004
 -1.005914398234914E-004
 -8.965311348112549E-005
 -7.901572103716090E-005
 -6.868563222085016E-005
 -5.867080675680197E-005
 -4.898107219402445E-005
 -3.962840510315488E-005
 -3.062722050251583E-005
 -2.199467588009082E-005
 -1.375099750083412E-005
 -5.919836549378437E-006
  1.471341180466276E-006
  8.390839200522558E-006
  1.480231678392480E-005
  2.066444229728040E-005
  2.593072432308433E-005
  3.054967551956556E-005
  3.446547415426148E-005
  3.761921445372464E-005
  3.995062751627616E-005
  4.139979184320338E-005
 -4.699303773097417E-004
 -4.635985437844902E-004
 -4.562961106141135E-004
 -4.478150796928835E-004
 -4.380725324128185E-004
 -4.270938341210953E-004
 -4.149840636562054E-004
 -4.018979778666962E-004
 -3.880138388442051E-004
 -3.735133055031353E-004
 -3.585677020690823E-004
 -3.433299285914128E-004
 -3.279308077912289E-004
 -3.124785714576574E-004
 -2.970603231410596E-004
 -2.817445533680779E-004
 -2.665840463730396E-004
 -2.516187538906210E-004
 -2.368783989946160E-004
 -2.223847067396293E-004
 -2.081532444391949E-004
 -1.941949032527701E-004
 -1.805170753726311E-004
 -1.671245870179684E-004
 -1.540204438967387E-004
 -1.412064377869842E-004
 -1.286836535440822E-004
 -1.164529069174340E-004
 -1.045151358933204E-004
 -9.287176214662829E-005
 -8.152503455158565E-005
 -7.047836340365486E-005
 -5.973665183720830E-005
 -4.930662969330739E-005
 -3.919719462200606E-005
 -2.941976532469149E-005
 -1.998865229849901E-005
 -1.092145179942026E-005
 -2.239468162821751E-006
  6.031833351920717E-006
  1.386234871580752E-005
  2.121685340840995E-005
  2.805456487442978E-005
  3.432883711596262E-005
  3.998712406464915E-005
  4.497138942857461E-005
  4.921913883630524E-005
  5.266515050247573E-005
  5.524372501602130E-005
  5.689083729987451E-005
 -4.769385736732746E-004
 -4.702690105767320E-004
 -4.625893749016242E-004
 -4.536825847491664E-004
 -4.434628494192768E-004
 -4.319579144551164E-004
 -4.192790183284045E-004
 -4.055893473719994E-004
 -3.910765592671505E-004
 -3.759316753983502E-004
 -3.603346667408596E-004
 -3.444459618640824E-004
 -3.284026124099418E-004
 -3.123177556489950E-004
 -2.962821534733221E-004
 -2.803668382157174E-004
 -2.646261713128288E-004
 -2.491008690586901E-004
 -2.338207464373227E-004
 -2.188070704582192E-004
 -2.040745048006220E-004
 -1.896326788673869E-004
 -1.754874381318054E-004
 -1.616418389190391E-004
 -1.480969471096215E-004
 -1.348524919312059E-004
 -1.219074163050265E-004
 -1.092603559804817E-004
 -9.691007180578565E-005
 -8.485585322594970E-005
 -7.309790644381760E-005
 -6.163773742929535E-005
 -5.047853787837612E-005
 -3.962558104947052E-005
 -2.908663388221745E-005
 -1.887239162082033E-005
 -8.996940901694843E-006
  5.217437407915675E-007
  9.661267813381758E-006
  1.839425341071390E-005
  2.668776073071026E-005
  3.450273204919859E-005
  4.179352852589389E-005
  4.850767527455229E-005
  5.458598112144409E-005
  5.996323690077317E-005
  6.456968041683019E-005
  6.833328681966086E-005
  7.118263436381774E-005
  7.304957165392843E-005
 -4.838791454105171E-004
 -4.768609590194889E-004
 -4.687916577819964E-004
 -4.594450171787326E-004
 -4.487324986115562E-004
 -4.366845000718894E-004
 -4.234187932426598E-004
 -4.091074220325425E-004
 -3.939478814112191E-004
 -3.781409781790999E-004
 -3.618757110228502E-004
 -3.453203612190518E-004
 -3.286184689978690E-004
 -3.118882699007907E-004
 -2.952243114913465E-004
 -2.787002335949684E-004
 -2.623719840431299E-004
 -2.462810021080393E-004
 -2.304571081199977E-004
 -2.149209850618392E-004
 -1.996862327602997E-004
 -1.847610291436576E-004
 -1.701494580356001E-004
 -1.558525695990330E-004
 -1.418692358013559E-004
 -1.281968546615377E-004
 -1.148319470034338E-004
 -1.017706799181267E-004
 -8.900934305609585E-005
 -7.654479752390460E-005
 -6.437491251221133E-005
 -5.249900161290214E-005
 -4.091826881575487E-005
 -2.963627308063557E-005
 -1.865941979648169E-005
 -7.997486908027179E-006
  2.335807615080748E-006
  1.232219288647923E-005
  2.193818813522180E-005
  3.115441318289876E-005
  3.993489531734327E-005
  4.823642903651719E-005
  5.600808486491199E-005
  6.319101438069405E-005
  6.971875211536482E-005
  7.551824809413782E-005
  8.051183306836321E-005
  8.462015500243996E-005
  8.776575590528881E-005
  8.987633541828615E-005
 -4.907328210565123E-004
 -4.833546273911157E-004
 -4.748824710686987E-004
 -4.650809855407053E-004
 -4.538590695068244E-004
 -4.412501062796752E-004
 -4.273788329139568E-004
 -4.124266340904274E-004
 -3.966013341289602E-004
 -3.801139927444186E-004
 -3.631630552099992E-004
 -3.459250104186240E-004
 -3.285501701278745E-004
 -3.111620767816168E-004
 -2.938591996247283E-004
 -2.767178536482057E-004
 -2.597955781750280E-004
 -2.431344843958135E-004
 -2.267642973014387E-004
 -2.107049718332209E-004
 -1.949688624947955E-004
 -1.795624821717239E-004
 -1.644879121984986E-004
 -1.497439327799547E-004
 -1.353269390831924E-004
 -1.212316994368643E-004
 -1.074520017303919E-004
 -9.398122432082538E-005
 -8.081285950859658E-005
 -6.794101124038938E-005
 -5.536088409536263E-005
 -4.306927756508267E-005
 -3.106509781933176E-005
 -1.934989815912107E-005
 -7.928458708288018E-006
  3.190585037559698E-006
  1.399405726966781E-005
  2.446349742967652E-005
  3.457436162511844E-005
  4.429518988767662E-005
  5.358678272711416E-005
  6.240146529769247E-005
  7.068256505321670E-005
  7.836428637224629E-005
  8.537222194689017E-005
  9.162476878022183E-005
  9.703566659325047E-005
  1.015176741668279E-004
  1.049869607822246E-004
  1.073670548206747E-004
 -4.974796655538697E-004
 -4.897294936655049E-004
 -4.808404312155749E-004
 -4.705680382387097E-004
 -4.588189063877606E-004
 -4.456298076763049E-004
 -4.311329451151895E-004
 -4.155195917974402E-004
 -3.990084522657606E-004
 -3.818213584580381E-004
 -3.641666648929003E-004
 -3.462294581030477E-004
 -3.281671305007011E-004
 -3.101087574320583E-004
 -2.921568747942709E-004
 -2.743905416241451E-004
 -2.568688881039679E-004
 -2.396346345307675E-004
 -2.227172930349207E-004
 -2.061359254989315E-004
 -1.899014353095456E-004
 -1.740184298467920E-004
 -1.584867182785020E-004
 -1.433025167762142E-004
 -1.284594294703610E-004
 -1.139492643516355E-004
 -9.976273270072649E-005
 -8.589007062019332E-005
 -7.232161286232534E-005
 -5.904834272946244E-005
 -4.606243731038493E-005
 -3.335782443720543E-005
 -2.093076611902217E-005
 -8.780482347406541E-006
  3.090171550645956E-006
  1.467396223055366E-005
  2.595846174240238E-005
  3.692515501143726E-005
  4.754848127645960E-005
  5.779483915027139E-005
  6.762161533136859E-005
  7.697634024359277E-005
  8.579613035408112E-005
  9.400764206570087E-005
  1.015278214778833E-004
  1.082657565144520E-004
  1.141258670407821E-004
  1.190124224586934E-004
  1.228348601413050E-004
  1.255125157333227E-004
 -5.040990934172232E-004
 -4.959642648075229E-004
 -4.866432188134482E-004
 -4.758825884469165E-004
 -4.635869954441281E-004
 -4.497970861022684E-004
 -4.346531101226348E-004
 -4.183568522347675E-004
 -4.011385169192682E-004
 -3.832312879861566E-004
 -3.648539424252917E-004
 -3.462005944773337E-004
 -3.274360556268764E-004
 -3.086951788892679E-004
 -2.900847206467311E-004
 -2.716865527212342E-004
 -2.535613874716525E-004
 -2.357524767150187E-004
 -2.182889819001121E-004
 -2.011888821517602E-004
 -1.844613959212271E-004
 -1.681089541498413E-004
 -1.521287919806017E-004
 -1.365142341519349E-004
 -1.212557454515517E-004
 -1.063418083109142E-004
 -9.175967875978851E-005
 -7.749606176180176E-005
 -6.353773848754508E-005
 -4.987217169273195E-005
 -3.648811099540698E-005
 -2.337621718278811E-005
 -1.052972328630436E-005
  2.054850540479933E-006
  1.437691209691133E-005
  2.643092783868471E-005
  3.820545937416795E-005
  4.968210488348387E-005
  6.083436046650057E-005
  7.162644204912469E-005
  8.201214670066736E-005
  9.193388499166832E-005
  1.013220825912707E-004
  1.100952229564942E-004
  1.181608657811373E-004
  1.254179913952195E-004
  1.317609268953569E-004
  1.370848143263346E-004
  1.412919777324219E-004
  1.442975402579800E-004
 -5.105698750440842E-004
 -5.020368548783150E-004
 -4.922675216869157E-004
 -4.809998167779841E-004
 -4.681368234723386E-004
 -4.537236440152015E-004
 -4.379092496712855E-004
 -4.209066488927118E-004
 -4.029582465353710E-004
 -3.843092282510986E-004
 -3.651893650697995E-004
 -3.458022745126057E-004
 -3.263205580417726E-004
 -3.068851109999576E-004
 -2.876070722775892E-004
 -2.685711929525234E-004
 -2.498397475992448E-004
 -2.314564232184371E-004
 -2.134498680576625E-004
 -1.958367595633450E-004
 -1.786243649569175E-004
 -1.618126331517986E-004
 -1.453958874287449E-004
 -1.293641970246831E-004
 -1.137045021388621E-004
 -9.840155743376932E-005
 -8.343874805703362E-005
 -6.879882187266494E-005
 -5.446457308731305E-005
 -4.041950615160962E-005
 -2.664850463489386E-005
 -1.313852738157004E-005
  1.206468492420982E-007
  1.313560557238064E-005
  2.590839976971167E-005
  3.843553477857030E-005
  5.070684351107765E-005
  6.270424235148419E-005
  7.440039044990489E-005
  8.575730539044576E-005
  9.672503533886579E-005
  1.072405513288110E-004
  1.172271013148981E-004
  1.265943508378540E-004
  1.352397017650914E-004
  1.430511885240055E-004
  1.499122304051037E-004
  1.557081678309924E-004
  1.603338092334660E-004
  1.637000488253464E-004
 -5.168701323796190E-004
 -5.079243472724646E-004
 -4.976889558244997E-004
 -4.858935447241421E-004
 -4.724401999601437E-004
 -4.573791740203955E-004
 -4.408689454725312E-004
 -4.231345632653698E-004
 -4.044314278290142E-004
 -3.850174585664890E-004
 -3.651340592934938E-004
 -3.449948778273654E-004
 -3.247807121506928E-004
 -3.046387851131005E-004
 -2.846847868253317E-004
 -2.650064086345361E-004
 -2.456674516813346E-004
 -2.267119178788138E-004
 -2.081677494989094E-004
 -1.900500685843225E-004
 -1.723638870231996E-004
 -1.551063265748719E-004
 -1.382684205469725E-004
 -1.218365782983002E-004
 -1.057937902808146E-004
 -9.012064184116638E-005
 -7.479619282017611E-005
 -5.979876956752293E-005
 -4.510670750300741E-005
 -3.069907619111048E-005
 -1.655641496785697E-005
 -2.661505102305457E-006
  1.099979628878248E-005
  2.443763564016463E-005
  3.765713165883368E-005
  5.065721255707655E-005
  6.342930857697003E-005
  7.595590140041324E-005
  8.820895749195708E-005
  1.001483121707395E-004
  1.117201283845621E-004
  1.228556298561491E-004
  1.334703990611738E-004
  1.434646244471157E-004
  1.527247521566698E-004
  1.611269969748149E-004
  1.685430168453483E-004
  1.748476430686248E-004
  1.799277480930667E-004
  1.836899869113965E-004
 -5.229773191174694E-004
 -5.136029351612946E-004
 -5.028819568422032E-004
 -4.905360700686903E-004
 -4.764670322748614E-004
 -4.607310729704033E-004
 -4.434970947013172E-004
 -4.250031272528743E-004
 -4.055184731468377E-004
 -3.853146128390258E-004
 -3.646452987790655E-004
 -3.437347938471822E-004
 -3.227725376003047E-004
 -3.019123859295416E-004
 -2.812747528813112E-004
 -2.609503210139831E-004
 -2.410043607509870E-004
 -2.214810379991340E-004
 -2.024073590439654E-004
 -1.837965951595718E-004
 -1.656511546220246E-004
 -1.479649417084249E-004
 -1.307252765466667E-004
 -1.139144600190910E-004
 -9.751106474654821E-005
 -8.149102370055429E-005
 -6.582857674535950E-005
 -5.049712496834829E-005
 -3.547003425084867E-005
 -2.072142357070829E-005
 -6.226969920661711E-006
  8.035239927434362E-006
  2.208378094251249E-005
  3.593285478312642E-005
  4.959111933702494E-005
  6.306035794060936E-005
  7.633397280409686E-005
  8.939530547320384E-005
  1.022158183270453E-004
  1.147532192885781E-004
  1.269496803897038E-004
  1.387303901693622E-004
  1.500027850458253E-004
  1.606569107716904E-004
  1.705674406669287E-004
  1.795978673071818E-004
  1.876072011298578E-004
  1.944590288367569E-004
  2.000318532857137E-004
  2.042280907829113E-004
 -5.288681793326823E-004
 -5.190478326255391E-004
 -5.078196327123185E-004
 -4.948979531023179E-004
 -4.801850409619969E-004
 -4.637440860842496E-004
 -4.457554867769993E-004
 -4.264713401053273E-004
 -4.061758879981517E-004
 -3.851551101285230E-004
 -3.636759115221319E-004
 -3.419738191112532E-004
 -3.202473998527663E-004
 -2.986574671735148E-004
 -2.773293314337201E-004
 -2.563567007600789E-004
 -2.358062280196817E-004
 -2.157220529194267E-004
 -1.961299697872043E-004
 -1.770410537952480E-004
 -1.584547095939613E-004
 -1.403611819119837E-004
 -1.227436040303035E-004
 -1.055796713903254E-004
 -8.884302481940348E-005
 -7.250441848174596E-005
 -5.653273642969040E-005
 -4.089591123223411E-005
 -2.556178989666007E-005
 -1.049898660878099E-005
  4.322241393094541E-006
  1.892905967712820E-005
  3.334502896249129E-005
  4.758894839477928E-005
  6.167353529094054E-005
  7.560391164295205E-005
  8.937587916980105E-005
  1.029739869230783E-004
  1.163694330231593E-004
  1.295178997214741E-004
  1.423575020973389E-004
  1.548071352945625E-004
  1.667656264449438E-004
  1.781122168164080E-004
  1.887089806114140E-004
  1.984057663369371E-004
  2.070480270836784E-004
  2.144873498491179E-004
  2.205934289314374E-004
  2.252644608385593E-004
 -5.345186768229059E-004
 -5.242331469282913E-004
 -5.124735659434216E-004
 -4.989477394189723E-004
 -4.835593986684531E-004
 -4.663798627540738E-004
 -4.476022818792309E-004
 -4.274940798614925E-004
 -4.063556289926166E-004
 -3.844884748247030E-004
 -3.621735789287229E-004
 -3.396584517931967E-004
 -3.171513155158777E-004
 -2.948202812980888E-004
 -2.727957212352694E-004
 -2.511743777754347E-004
 -2.300241593866681E-004
 -2.093889391000490E-004
 -1.892929665181684E-004
 -1.697447153226635E-004
 -1.507401258706600E-004
 -1.322652820579501E-004
 -1.142986002897088E-004
 -9.681262094073047E-005
 -7.977549044732721E-005
 -6.315221300093958E-005
 -4.690573967709774E-005
 -3.099795254839011E-005
 -1.539059328441084E-005
 -4.618039437282946E-008
  1.507104347381072E-005
  2.999409338858288E-005
  4.475211169152031E-005
  5.936908311989047E-005
  7.386235451647576E-005
  8.824092380525419E-005
  1.025034767067792E-004
  1.166361762394633E-004
  1.306102547738441E-004
  1.443795265682149E-004
  1.578780339441200E-004
  1.710181618912618E-004
  1.836896950660063E-004
  1.957604255102910E-004
  2.070790062528207E-004
  2.174807139137941E-004
  2.267965237397476E-004
  2.348652609069881E-004
  2.415473790318404E-004
  2.467369038590312E-004
 -5.399038853696437E-004
 -5.291316997425167E-004
 -5.168135500776108E-004
 -5.026516010782105E-004
 -4.865522716866400E-004
 -4.685964008840436E-004
 -4.489913667754115E-004
 -4.280213846032140E-004
 -4.060043282771646E-004
 -3.832585242425744E-004
 -3.600800072017266E-004
 -3.367290667815620E-004
 -3.134241491810939E-004
 -2.903410135135660E-004
 -2.676152423543101E-004
 -2.453465833322087E-004
 -2.236040200252679E-004
 -2.024308540940201E-004
 -1.818493874894616E-004
 -1.618650148308193E-004
 -1.424696804230915E-004
 -1.236447383562721E-004
 -1.053632953806162E-004
 -8.759213019761712E-005
 -7.029328125013928E-005
 -5.342538624101615E-005
 -3.694484564834318E-005
 -2.080687240815671E-005
 -4.966482169499378E-006
  1.062052640574260E-005
  2.599655402013722E-005
  4.120109849744016E-005
  5.626951932444343E-005
  7.123161925829221E-005
  8.610999448420289E-005
  1.009181114543703E-004
  1.156580848670489E-004
  1.303181626560035E-004
  1.448699765297032E-004
  1.592656964956670E-004
  1.734353387502665E-004
  1.872846169034706E-004
  2.006938856406497E-004
  2.135188769545146E-004
  2.255940225973572E-004
  2.367391117424836E-004
  2.467697290763122E-004
  2.555111872854411E-004
  2.628142923703761E-004
  2.685689965252565E-004
 -5.449978274863338E-004
 -5.337147817074085E-004
 -5.208072410070008E-004
 -5.059728727027467E-004
 -4.891222372659447E-004
 -4.703473504587186E-004
 -4.498715574765584E-004
 -4.279975732531991E-004
 -4.050623557594845E-004
 -3.814023976678225E-004
 -3.573299487213481E-004
 -3.331189533315899E-004
 -3.089986884131872E-004
 -2.851529114556197E-004
 -2.617225337033321E-004
 -2.388102244126089E-004
 -2.164857904862232E-004
 -1.947915758041133E-004
 -1.737474452419963E-004
 -1.533551501510233E-004
 -1.336020238520915E-004
 -1.144640445070852E-004
 -9.590834691476776E-005
 -7.789528036360722E-005
 -6.038010897231764E-005
 -4.331444252147556E-005
 -2.664747507481728E-005
 -1.032709884289419E-005
  5.699046684739300E-006
  2.148253476309312E-005
  3.707306656052582E-005
  5.251728670904874E-005
  6.785744244726268E-005
  8.312982792048392E-005
  9.836295643033932E-005
  1.135754111332205E-004
  1.287733437991933E-004
  1.439476279987308E-004
  1.590707345648168E-004
  1.740934900907324E-004
  1.889420076159426E-004
  2.035152402907063E-004
  2.176837901015912E-004
  2.312907733029237E-004
  2.441556452223422E-004
  2.560818287181709E-004
  2.668686385256547E-004
  2.763271619902065E-004
  2.842982026579621E-004
  2.906678115930624E-004
 -5.497732457967815E-004
 -5.379518201541453E-004
 -5.244196978407779E-004
 -5.088714522242022E-004
 -4.912235422735627E-004
 -4.715811392630826E-004
 -4.501856107945681E-004
 -4.273601690333578E-004
 -4.034626850440990E-004
 -3.788493970584427E-004
 -3.538500489893947E-004
 -3.287531968778479E-004
 -3.037995847432421E-004
 -2.791813044873634E-004
 -2.550446642618451E-004
 -2.314950950640355E-004
 -2.086028814509439E-004
 -1.864089196419743E-004
 -1.649300417363823E-004
 -1.441636879568352E-004
 -1.240918687378089E-004
 -1.046844526720019E-004
 -8.590186383910505E-005
 -6.769728953885258E-005
 -5.001849977118716E-005
 -3.280937191437395E-005
 -1.601120367112205E-005
  4.361121968085183E-007
  1.659298486406491E-005
  3.251903159407851E-005
  4.827193133583911E-005
  6.390616246847918E-005
  7.947155853824626E-005
  9.501161357061222E-005
  1.105614697502790E-004
  1.261455290931781E-004
  1.417746528840360E-004
  1.574429552886934E-004
  1.731242687565573E-004
  1.887684661441974E-004
  2.042979722022384E-004
  2.196049820217737E-004
  2.345501098866243E-004
  2.489633821014910E-004
  2.626485968297559E-004
  2.753920007036841E-004
  2.869758272157945E-004
  2.971963002971509E-004
  3.058839570284047E-004
  3.129212348029816E-004
 -5.542012867255319E-004
 -5.418099338148071E-004
 -5.276127803770147E-004
 -5.113030269770506E-004
 -4.928051590323532E-004
 -4.722398739298263E-004
 -4.498689978943353E-004
 -4.260385811607070E-004
 -4.011295234146483E-004
 -3.755196062794387E-004
 -3.495574937592836E-004
 -3.235473879783353E-004
 -2.977421520413818E-004
 -2.723425120142872E-004
 -2.475001646275823E-004
 -2.233230376779001E-004
 -1.998814252149348E-004
 -1.772141556972859E-004
 -1.553343028161936E-004
 -1.342342043854106E-004
 -1.138897236089294E-004
 -9.426378726888813E-005
 -7.530928666541397E-005
 -5.697144683735213E-005
 -3.918977110606489E-005
 -2.189966071148338E-005
 -5.033799295016656E-006
  1.147661725168045E-005
  2.770073167774688E-005
  4.370688643635600E-005
  5.956142443400924E-005
  7.532735646713097E-005
  9.106281853325169E-005
  1.068192392183061E-004
  1.226391384825050E-004
  1.385534891776884E-004
  1.545785980588849E-004
  1.707125121256650E-004
  1.869310380365274E-004
  2.031835855448129E-004
  2.193892149578198E-004
  2.354334793523153E-004
  2.511668852914226E-004
  2.664060086963098E-004
  2.809384214593465E-004
  2.945324950455956E-004
  3.069526851434717E-004
  3.179798399611777E-004
  3.274341117957433E-004
  3.351947846712154E-004
 -5.582510703277198E-004
 -5.452533402669708E-004
 -5.303443599908241E-004
 -5.132180740077456E-004
 -4.938095816935468E-004
 -4.722579574795181E-004
 -4.488483824393929E-004
 -4.239524922476851E-004
 -3.979766610702448E-004
 -3.713222539149025E-004
 -3.443584324709483E-004
 -3.174061459977037E-004
 -2.907310210640177E-004
 -2.645426499369785E-004
 -2.389979971106433E-004
 -2.142070800267565E-004
 -1.902395758014587E-004
 -1.671314623521080E-004
 -1.448911715412009E-004
 -1.235050015405384E-004
 -1.029417145996111E-004
 -8.315635343096214E-005
 -6.409336498924533E-005
 -4.568914260824265E-005
 -2.787410031012092E-005
 -1.057438649541517E-005
  6.286665437774187E-006
  2.278726093466309E-005
  3.900596019961375E-005
  5.502050652771146E-005
  7.090658663489286E-005
  8.673643902333791E-005
  1.025772215187162E-004
  1.184890452628638E-004
  1.345225833853007E-004
  1.507161737827396E-004
  1.670923643844243E-004
  1.836539053561935E-004
  2.003792863401965E-004
  2.172180575134807E-004
  2.340863658315159E-004
  2.508633770031578E-004
  2.673895167537311E-004
  2.834677030439110E-004
  2.988688704559757E-004
  3.133429812916891E-004
  3.266361932616575E-004
  3.385136616364120E-004
  3.487852579071183E-004
  3.573278285910226E-004
 -5.618891123711127E-004
 -5.482425710346467E-004
 -5.325672870867349E-004
 -5.145605680220701E-004
 -4.941712907731268E-004
 -4.715603501066217E-004
 -4.470397342697243E-004
 -4.210098910542032E-004
 -3.939054915120752E-004
 -3.661537861312951E-004
 -3.381461601344440E-004
 -3.102214553268466E-004
 -2.826586627117227E-004
 -2.556763609552112E-004
 -2.294365012964541E-004
 -2.040505940612189E-004
 -1.795868706396295E-004
 -1.560774741905726E-004
 -1.335251213499843E-004
 -1.119089623861397E-004
 -9.118955755355127E-005
 -7.131300208287672E-005
 -5.221429260667200E-005
 -3.382005276814291E-005
 -1.605074003624830E-005
  1.177550210024361E-006
  1.795157664304062E-005
  3.435964203595822E-005
  5.049038933206944E-005
  6.643161380504121E-005
  8.226899973998275E-005
  9.808468538523461E-005
  1.139555537779107E-004
  1.299511421579598E-004
  1.461310633020725E-004
  1.625418444900742E-004
  1.792131224873650E-004
  1.961531965800812E-004
  2.133440481558767E-004
  2.307360952004095E-004
  2.482431685587853E-004
  2.657384673464411E-004
  2.830525470024243E-004
  2.999746594304207E-004
  3.162589060770176E-004
  3.316365394354514E-004
  3.458351558648976E-004
  3.586041885450008E-004
  3.697436599328081E-004
  3.791290672789189E-004
 -5.650785545962890E-004
 -5.507334346879407E-004
 -5.342280400833047E-004
 -5.152663104447362E-004
 -4.938147940698673E-004
 -4.700603833855744E-004
 -4.443459977117585E-004
 -4.171046844562378E-004
 -3.888026558889307E-004
 -3.598956236979608E-004
 -3.307990536917396E-004
 -3.018708312576992E-004
 -2.734038162856674E-004
 -2.456255215538260E-004
 -2.187023814755016E-004
 -1.927465533875185E-004
 -1.678237383623693E-004
 -1.439610137954516E-004
 -1.211540814425135E-004
 -9.937363737245854E-005
 -7.857077339341251E-005
 -5.868144278551094E-005
 -3.963008884946029E-005
 -2.133256269202457E-005
 -3.698462365821100E-006
  1.336697995342178E-005
  2.996134534178223E-005
  4.618370133269170E-005
  6.213339791474385E-005
  7.790888489968284E-005
  9.360644669750575E-005
  1.093187446121413E-004
  1.251330492049762E-004
  1.411290391272717E-004
  1.573760429229369E-004
  1.739296137722161E-004
  1.908273637007735E-004
  2.080840555607763E-004
  2.256860714845728E-004
  2.435855573979311E-004
  2.616947901280479E-004
  2.798816187150415E-004
  2.979671641464975E-004
  3.157272584379998E-004
  3.328992586056751E-004
  3.491957254980873E-004
  3.643257909202923E-004
  3.780235477792112E-004
  3.900800723730117E-004
  4.003711361279987E-004
 -5.677781456587970E-004
 -5.526756487030460E-004
 -5.352649569154727E-004
 -5.152607677491963E-004
 -4.926521290498806E-004
 -4.676570203466434E-004
 -4.406542237593328E-004
 -4.121138219490752E-004
 -3.825372733390865E-004
 -3.524115958731733E-004
 -3.221782858221534E-004
 -2.922153664915373E-004
 -2.628298982403193E-004
 -2.342580215186182E-004
 -2.066698477640558E-004
 -1.801770130142183E-004
 -1.548412842623196E-004
 -1.306831436416164E-004
 -1.076897125764242E-004
 -8.582170085529213E-005
 -6.501928308086961E-005
 -4.520693777377023E-005
 -2.629735583998163E-005
 -8.194556068245782E-006
  9.203647705458789E-006
  2.600368830980203E-005
  4.231466584403115E-005
  5.824702613267933E-005
  7.391138168106411E-005
  8.941736100253014E-005
  1.048723687608123E-004
  1.203801319026195E-004
  1.360388977625470E-004
  1.519391424467338E-004
  1.681606471087419E-004
  1.847688141158489E-004
  2.018101356159075E-004
  2.193068074385326E-004
  2.372506167333681E-004
  2.555964355877480E-004
  2.742559310816219E-004
  2.930924453712612E-004
  3.119183723033681E-004
  3.304966877692649E-004
  3.485484603586338E-004
  3.657680013327560E-004
  3.818465657125391E-004
  3.965038589334827E-004
  4.095235769739744E-004
  4.207841480001882E-004
 -5.699408976772467E-004
 -5.540110347194368E-004
 -5.356059188415805E-004
 -5.144562759873245E-004
 -4.905796857628902E-004
 -4.642314374770751E-004
 -4.358320715969475E-004
 -4.058938762748502E-004
 -3.749577436159379E-004
 -3.435450808955495E-004
 -3.121253870327409E-004
 -2.810977656637313E-004
 -2.507835295101078E-004
 -2.214267784043529E-004
 -1.932000914550355E-004
 -1.662130043370380E-004
 -1.405215539072022E-004
 -1.161377421138973E-004
 -9.303823770687412E-005
 -7.117197982156332E-005
 -5.046658113116597E-005
 -3.083357151674185E-005
 -1.217260068336624E-005
  5.625247970273863E-006
  2.267487203224593E-005
  3.909513850581494E-005
  5.500730134142474E-005
  7.053371304197984E-005
  8.579670135453274E-005
  1.009174830870054E-004
  1.160149828321188E-004
  1.312044156708125E-004
  1.465954818751915E-004
  1.622900120810219E-004
  1.783788995375695E-004
  1.949381710436155E-004
  2.120240925982591E-004
  2.296672952771230E-004
  2.478660585093193E-004
  2.665791167746295E-004
  2.857186682827815E-004
  3.051446493452169E-004
  3.246617556824950E-004
  3.440210603804558E-004
  3.629282640491094E-004
  3.810604212382980E-004
  3.980921514551064E-004
  4.137305011298493E-004
  4.277542674407386E-004
  4.400479804690653E-004
 -5.715123205789493E-004
 -5.546711374150797E-004
 -5.351653166897933E-004
 -5.127484316389459E-004
 -4.874741830301773E-004
 -4.596427946900206E-004
 -4.297235946271589E-004
 -3.982770540944813E-004
 -3.658881581479102E-004
 -3.331159496625629E-004
 -3.004598073357165E-004
 -2.683405657586245E-004
 -2.370934165944339E-004
 -2.069692501493385E-004
 -1.781413772010554E-004
 -1.507151399256430E-004
 -1.247385753509955E-004
 -1.002129052399652E-004
 -7.710212675903397E-005
 -5.534134953959755E-005
 -3.484377613361771E-005
 -1.550637724826295E-005
  2.785603332535183E-006
  2.015514283959301E-005
  3.673075316256931E-005
  5.264444091093526E-005
  6.803015229035044E-005
  8.302255208685031E-005
  9.775599290432681E-005
  1.123635319331264E-004
  1.269758475552850E-004
  1.417198978661438E-004
  1.567171500149483E-004
  1.720811974260094E-004
  1.879145784216386E-004
  2.043046249185096E-004
  2.213182179518747E-004
  2.389954255614336E-004
  2.573421674740808E-004
  2.763223069693723E-004
  2.958499205541767E-004
  3.157829277253283E-004
  3.359197303540465E-004
  3.560009220073661E-004
  3.757183321417845E-004
  3.947334524522753E-004
  4.127063593044388E-004
  4.293342005892675E-004
  4.443945984280599E-004
  4.577830971948468E-004
 -5.724281076556956E-004
 -5.545740828442704E-004
 -5.338400811350529E-004
 -5.100114488072736E-004
 -4.831876098218947E-004
 -4.537230650709346E-004
 -4.221442618198736E-004
 -3.890666758379416E-004
 -3.551244473815135E-004
 -3.209175226152965E-004
 -2.869767585585713E-004
 -2.537448809918373E-004
 -2.215699685176575E-004
 -1.907078583386897E-004
 -1.613301834418793E-004
 -1.335353690280147E-004
 -1.073606230964680E-004
 -8.279361426511308E-005
 -5.978306908597286E-005
 -3.824792095628900E-005
 -1.808491327548423E-005
  8.252747040809591E-007
  1.861322173451280E-005
  3.541708246707706E-005
  5.137982627776383E-005
  6.664720219682940E-005
  8.136624896465632E-005
  9.568418220497490E-005
  1.097474989863580E-004
  1.237011416923998E-004
  1.376875576262302E-004
  1.518454789920559E-004
  1.663082323172715E-004
  1.812013717533595E-004
  1.966394248195287E-004
  2.127215537550003E-004
  2.295259868614291E-004
  2.471031822366888E-004
  2.654678732383719E-004
  2.845904301520671E-004
  3.043883641151687E-004
  3.247192827159424E-004
  3.453771298729587E-004
  3.660940015940089E-004
  3.865500560072338E-004
  4.063937902171069E-004
  4.252739147270921E-004
  4.428817838650768E-004
  4.589992225984986E-004
  4.735396979425300E-004
 -5.726111105535146E-004
 -5.536204368062945E-004
 -5.315045027437747E-004
 -5.060922255524617E-004
 -4.775409398783405E-004
 -4.462708341756586E-004
 -4.128752471432804E-004
 -3.780322868029762E-004
 -3.424305497809788E-004
 -3.067139338527418E-004
 -2.714458204607919E-004
 -2.370902233843418E-004
 -2.040062486684942E-004
 -1.724519510152426E-004
 -1.425940351516283E-004
 -1.145205316970439E-004
 -8.825434736651885E-005
 -6.376630285070045E-005
 -4.098685441355195E-005
 -1.981612615757096E-005
 -1.321703977603428E-007
  1.820244956109032E-005
  3.533556619460482E-005
  5.142157762187353E-005
  6.661864882833435E-005
  8.108672410503178E-005
  9.498614793097433E-005
  1.084767075689658E-004
  1.217169211281526E-004
  1.348633975581812E-004
  1.480700893136835E-004
  1.614872451172870E-004
  1.752598520148142E-004
  1.895253379594723E-004
  2.044102971483566E-004
  2.200260134095328E-004
  2.364626103461356E-004
  2.537817736452905E-004
  2.720081962532688E-004
  2.911202132345077E-004
  3.110405298471069E-004
  3.316284875032401E-004
  3.526758992541783E-004
  3.739090018289338E-004
  3.949993259238264E-004
  4.155860115449691E-004
  4.353109325696320E-004
  4.538654666972434E-004
  4.710431771387811E-004
  4.867850316501114E-004
 -5.719674013434778E-004
 -5.516877588109813E-004
 -5.280035103116015E-004
 -5.008028409804970E-004
 -4.703164615816228E-004
 -4.370440761597369E-004
 -4.016571798563302E-004
 -3.649047762095603E-004
 -3.275351453506624E-004
 -2.902385838921384E-004
 -2.536110989014482E-004
 -2.181362627183683E-004
 -1.841811725452239E-004
 -1.520022401271659E-004
 -1.217569701141271E-004
 -9.351864601376899E-005
 -6.729168799904251E-005
 -4.302622320483832E-005
 -2.063103943922684E-005
  1.544330021561779E-008
  1.905623892678027E-005
  3.664876777145664E-005
  5.295950773435390E-005
  6.816005953552102E-005
  8.242436029330838E-005
  9.592679626563947E-005
  1.088409879339816E-004
  1.213390409268634E-004
  1.335910699053622E-004
  1.457648069859011E-004
  1.580251007546561E-004
  1.705330972366974E-004
  1.834448731323567E-004
  1.969092698217947E-004
  2.110646635677855E-004
  2.260344176130931E-004
  2.419208159801694E-004
  2.587974028115999E-004
  2.766998741441527E-004
  2.956160171126728E-004
  3.154756770083180E-004
  3.361423383847010E-004
  3.574085673192441E-004
  3.789981457106274E-004
  4.005780213451924E-004
  4.217828962279473E-004
  4.422539795008164E-004
  4.616906110459250E-004
  4.799083726367095E-004
  4.968888099670297E-004
 -5.703811773243183E-004
 -5.486234783842331E-004
 -5.231440317727452E-004
 -4.939112249988441E-004
 -4.612486726874380E-004
 -4.257521146044026E-004
 -3.881838342023100E-004
 -3.493722356228525E-004
 -3.101299003985108E-004
 -2.711947959039614E-004
 -2.331941703783931E-004
 -1.966278352447808E-004
 -1.618662987022367E-004
 -1.291590701869887E-004
 -9.864898417848621E-005
 -7.038924953995824E-005
 -4.436086238595180E-005
 -2.048886581907017E-005
  1.343379969596181E-006
  2.128225798824270E-005
  3.949429773875615E-005
  5.615874022133519E-005
  7.146198669925610E-005
  8.559362072085329E-005
  9.874369805700055E-005
  1.111010228407578E-004
  1.228521571815532E-004
  1.341809374652834E-004
  1.452682883968577E-004
  1.562921328720963E-004
  1.674271910496796E-004
  1.788444462842346E-004
  1.907100317641825E-004
  2.031832656753209E-004
  2.164135446958876E-004
  2.305358115637597E-004
  2.456643651161339E-004
  2.618849100464505E-004
  2.792449822155835E-004
  2.977432646994481E-004
  3.173188462544240E-004
  3.378421514544590E-004
  3.591100196317542E-004
  3.808480799884448E-004
  4.027239203414483E-004
  4.243742309092316E-004
  4.454476658315636E-004
  4.656620078831141E-004
  4.848685197083607E-004
  5.031068706015157E-004
 -5.677082305311899E-004
 -5.442356632085505E-004
 -5.166840602114170E-004
 -4.851298499383354E-004
 -4.500139294074829E-004
 -4.120473459138235E-004
 -3.720967168424678E-004
 -3.310778483135800E-004
 -2.898707796351756E-004
 -2.492604210338314E-004
 -2.099016775682385E-004
 -1.723051251626756E-004
 -1.368381501834168E-004
 -1.037364360346840E-004
 -7.312133319697898E-005
 -4.501962123911754E-005
 -1.938319803931897E-005
  3.892851595035322E-006
  2.495462667090677E-005
  4.397651374514163E-005
  6.115097495028727E-005
  7.668077427784315E-005
  9.077330295078462E-005
  1.036366395632359E-004
  1.154769948850158E-004
  1.264972240669683E-004
  1.368961263786055E-004
  1.468682855988303E-004
  1.566042274086781E-004
  1.662906807175880E-004
  1.761107267646616E-004
  1.862436037789130E-004
  1.968639088482059E-004
  2.081399084902466E-004
  2.202306459027804E-004
  2.332815329673817E-004
  2.474181635239545E-004
  2.627382140175461E-004
  2.793015468781579E-004
  2.971190383543998E-004
  3.161412390962025E-004
  3.362487308478312E-004
  3.572468931895394E-004
  3.788685780309680E-004
  4.007886317306392E-004
  4.226539047213071E-004
  4.441308125067601E-004
  4.649689681836980E-004
  4.850729606098512E-004
  5.045636346199118E-004
 -5.637676987343541E-004
 -5.382812358801570E-004
 -5.083191436693078E-004
 -4.741025645264619E-004
 -4.362195027976598E-004
 -3.955179387242208E-004
 -3.529822764577956E-004
 -3.096219489233593E-004
 -2.663848654382809E-004
 -2.240990212310667E-004
 -1.834402965718645E-004
 -1.449217570015349E-004
 -1.088987693119254E-004
 -7.558438437555267E-005
 -4.507024101551168E-005
 -1.734934245585851E-005
  7.661820096574222E-006
  3.010333732189559E-005
  5.015491366479438E-005
  6.802208167263436E-005
  8.392546872804957E-005
  9.809279057680051E-005
  1.107531607618414E-004
  1.221332908068958E-004
  1.324551820373733E-004
  1.419349541419417E-004
  1.507825030946835E-004
  1.592017224776826E-004
  1.673910520250922E-004
  1.755441324232286E-004
  1.838503450054744E-004
  1.924949996772765E-004
  2.016589070551788E-004
  2.115170374232600E-004
  2.222359404360027E-004
  2.339695928863369E-004
  2.468533831776016E-004
  2.609960657190573E-004
  2.764697696281596E-004
  2.932985690110894E-004
  3.114467501637389E-004
  3.308087432484238E-004
  3.512036550855828E-004
  3.723782756389317E-004
  3.940230264465277E-004
  4.158051056318113E-004
  4.374214147725963E-004
  4.586698844773932E-004
  4.795304451684181E-004
  5.002345983994571E-004
 -5.583318761221299E-004
 -5.304512914572511E-004
 -4.976663087544597E-004
 -4.603902494138272E-004
 -4.193935172896430E-004
 -3.756837547249979E-004
 -3.303746273560706E-004
 -2.845716206284862E-004
 -2.392863499069552E-004
 -1.953814374225378E-004
 -1.535429034886773E-004
 -1.142745605978858E-004
 -7.790814913773293E-005
 -4.462329822581929E-005
 -1.447236204222242E-005
  1.259359893148459E-005
  3.670021443378063E-005
  5.802806205057034E-005
  7.679446680699777E-005
  9.323896290160784E-005
  1.076121871423027E-004
  1.201677859992971E-004
  1.311568452465693E-004
  1.408243511102206E-004
  1.494072321775821E-004
  1.571335887689738E-004
  1.642227755450279E-004
  1.708860541373293E-004
  1.773275699923021E-004
  1.837454285614128E-004
  1.903326495759792E-004
  1.972777652272720E-004
  2.047648015144207E-004
  2.129723476999078E-004
  2.220713870906081E-004
  2.322215500439213E-004
  2.435654825709613E-004
  2.562211368843156E-004
  2.702720298277508E-004
  2.857559339578356E-004
  3.026531119133703E-004
  3.208760974166193E-004
  3.402641207509011E-004
  3.605864135099564E-004
  3.815594792487867E-004
  4.028834346310661E-004
  4.243008991318710E-004
  4.456775384544475E-004
  4.670948427604393E-004
  4.889312902180440E-004
 -5.511140570853680E-004
 -5.203534853032783E-004
 -4.842460751756662E-004
 -4.434570064237441E-004
 -3.989786127917603E-004
 -3.519993277161263E-004
 -3.037683733102598E-004
 -2.554828879544171E-004
 -2.082069756155604E-004
 -1.628230348209543E-004
 -1.200111071231451E-004
 -8.024996624806191E-005
 -4.383325127459136E-005
 -1.089452021261020E-005
  1.856378460340006E-005
  4.464115704456901E-005
  6.751206986443787E-005
  8.740260858480243E-005
  1.045712527584286E-004
  1.192938014457774E-004
  1.318520981763227E-004
  1.425260367369555E-004
  1.515882722354844E-004
  1.593010784537701E-004
  1.659148487682744E-004
  1.716678097729531E-004
  1.767865882634851E-004
  1.814873336337801E-004
  1.859771435537707E-004
  1.904555684848844E-004
  1.951159796430791E-004
  2.001465766447489E-004
  2.057307884231102E-004
  2.120467899368288E-004
  2.192658274494310E-004
  2.275490319529893E-004
  2.370424261841170E-004
  2.478699275569377E-004
  2.601243604528641E-004
  2.738568718966537E-004
  2.890657576688216E-004
  3.056866057016578E-004
  3.235868571523373E-004
  3.425692684370261E-004
  3.623900212625914E-004
  3.827977574049363E-004
  4.035985658974948E-004
  4.247473795573202E-004
  4.464563283016325E-004
  4.692931124879230E-004
 -5.417548271970249E-004
 -5.074921910375144E-004
 -4.674644707056779E-004
 -4.226603645375479E-004
 -3.743343174690634E-004
 -3.238700639106331E-004
 -2.726484423929103E-004
 -2.219427495758371E-004
 -1.728481669590407E-004
 -1.262436302842613E-004
 -8.278077873432026E-005
 -4.289322909662378E-005
 -6.819375741479578E-006
  2.536731994980876E-005
  5.372539360720475E-005
  7.841330683734898E-005
  9.966049602628955E-005
  1.177427426715099E-004
  1.329622703059328E-004
  1.456324304059945E-004
  1.560665150186824E-004
  1.645700771880612E-004
  1.714361008068691E-004
  1.769423951877310E-004
  1.813506620140946E-004
  1.849067687263040E-004
  1.878418465253534E-004
  1.903739031689936E-004
  1.927096953553964E-004
  1.950466406560739E-004
  1.975745648585859E-004
  2.004770792336664E-004
  2.039323676659960E-004
  2.081131421987167E-004
  2.131855068113878E-004
  2.193064663214845E-004
  2.266198473942417E-004
  2.352504838405226E-004
  2.452966877960041E-004
  2.568213244617032E-004
  2.698422974461300E-004
  2.843240313003746E-004
  3.001727160801735E-004
  3.172396931296096E-004
  3.353392422288760E-004
  3.542885607993137E-004
  3.739776087672331E-004
  3.944724014645588E-004
  4.161440428611125E-004
  4.397937919901148E-004
 -5.298080757397110E-004
 -4.912485716344132E-004
 -4.465991733272626E-004
 -3.972518316681217E-004
 -3.447562946659151E-004
 -2.906910206956425E-004
 -2.365468092154503E-004
 -1.836408811253710E-004
 -1.330642383714517E-004
 -8.565881668254329E-005
 -4.201853473470615E-005
 -2.507690678420947E-006
  3.270958682146578E-005
  6.363432264962840E-005
  9.039648830363230E-005
  1.132207543566748E-004
  1.323961913947039E-004
  1.482509245819626E-004
  1.611319955800348E-004
  1.713901713904068E-004
  1.793691343769662E-004
  1.853983465858587E-004
  1.897888565801183E-004
  1.928313651837756E-004
  1.947959531492227E-004
  1.959329735178202E-004
  1.964747074712266E-004
  1.966374646599293E-004
  1.966238722731413E-004
  1.966251400161090E-004
  1.968231118945835E-004
  1.973919237603977E-004
  1.984990837359817E-004
  2.003057892035891E-004
  2.029662997255798E-004
  2.066262122267796E-004
  2.114195442049089E-004
  2.174646290393851E-004
  2.248589637102879E-004
  2.336733210330722E-004
  2.439456717303609E-004
  2.556758709036627E-004
  2.688229020958586E-004
  2.833081073689832E-004
  2.990304654048092E-004
  3.159033337885494E-004
  3.339245578954409E-004
  3.532901754922997E-004
  3.745500868645618E-004
  3.987756372358140E-004
 -5.147295356854745E-004
 -4.708652974266929E-004
 -4.207975570499017E-004
 -3.663984079053582E-004
 -3.095250171378216E-004
 -2.519216608999245E-004
 -1.951393806097211E-004
 -1.404834740841281E-004
 -8.898794549692772E-005
 -4.141261207679459E-005
  1.742198769163990E-006
  4.020844874376496E-005
  7.391551303326076E-005
  1.029519444847102E-004
  1.275274317420621E-004
  1.479375865435209E-004
  1.645332488390576E-004
  1.776951439429151E-004
  1.878140410922690E-004
  1.952760771264042E-004
  2.004526138549356E-004
  2.036938610485102E-004
  2.053254772952832E-004
  2.056474170267876E-004
  2.049343887202821E-004
  2.034373999797511E-004
  2.013859717049312E-004
  1.989906950119449E-004
  1.964458758159763E-004
  1.939320621982926E-004
  1.916182814195080E-004
  1.896638323712316E-004
  1.882194942168714E-004
  1.874280351700950E-004
  1.874239517771733E-004
  1.883324538612721E-004
  1.902678423350495E-004
  1.933315971131028E-004
  1.976106562227847E-004
  2.031764348808462E-004
  2.100849903055296E-004
  2.183783764808566E-004
  2.280870176418239E-004
  2.392337502157564E-004
  2.518433830233654E-004
  2.659676802201082E-004
  2.817439089585329E-004
  2.995099060560610E-004
  3.199906613226162E-004
  3.445339958728156E-004
 -4.958731864887626E-004
 -4.454449447247051E-004
 -3.891000099268949E-004
 -3.292416634738711E-004
 -2.680019562704604E-004
 -2.072144828220941E-004
 -1.483995273492505E-004
 -9.276357736781562E-005
 -4.121039441791912E-005
  5.638809934800206E-006
  4.741775974763516E-005
  8.398168413770475E-005
  1.153701079132384E-004
  1.417682631982782E-004
  1.634695405718342E-004
  1.808410445940004E-004
  1.942937184439450E-004
  2.042578227563559E-004
  2.111639322460621E-004
  2.154291321224391E-004
  2.174477825857473E-004
  2.175860630190603E-004
  2.161794754501683E-004
  2.135325398361623E-004
  2.099200144280641E-004
  2.055890929943593E-004
  2.007621460472820E-004
  1.956396728254896E-004
  1.904032089208033E-004
  1.852179907694339E-004
  1.802352169095580E-004
  1.755937753940874E-004
  1.714213402767852E-004
  1.678347962504824E-004
  1.649400529173518E-004
  1.628314841008867E-004
  1.615914903520308E-004
  1.612910223041032E-004
  1.619922391291320E-004
  1.637546059729617E-004
  1.666452880482083E-004
  1.707531954847408E-004
  1.762034462824927E-004
  1.831669162288233E-004
  1.918611220986822E-004
  2.025487386888609E-004
  2.155575434729729E-004
  2.313692123389941E-004
  2.508291170305800E-004
  2.754902345563386E-004
 -4.725047323996728E-004
 -4.139777101833529E-004
 -3.505097789599505E-004
 -2.850185402050205E-004
 -2.197974041829289E-004
 -1.566193273930432E-004
 -9.682642616661041E-005
 -4.140201881785899E-005
  8.974525265352407E-006
  5.388552051166237E-005
  9.313937833076199E-005
  1.267370402756308E-004
  1.548380843022766E-004
  1.777262987093525E-004
  1.957758814236782E-004
  2.094199249048244E-004
  2.191226970770765E-004
  2.253567198271210E-004
  2.285850353420084E-004
  2.292485082062211E-004
  2.277576220684705E-004
  2.244880115119902E-004
  2.197788993073249E-004
  2.139336449687330E-004
  2.072217087265034E-004
  1.998814588966125E-004
  1.921233739728294E-004
  1.841332978677901E-004
  1.760754906311028E-004
  1.680952776054227E-004
  1.603211430952975E-004
  1.528661518327338E-004
  1.458286314015177E-004
  1.392921384552083E-004
  1.333248977328867E-004
  1.279791898504885E-004
  1.232916140065076E-004
  1.192857798284591E-004
  1.159797182299474E-004
  1.134008791546137E-004
  1.116113475929584E-004
  1.107436402344203E-004
  1.110412597349538E-004
  1.128882416996738E-004
  1.168057921599811E-004
  1.234019898476450E-004
  1.333008867561355E-004
  1.471278369390396E-004
  1.656990735208251E-004
  1.905204080057571E-004
 -4.438468114341036E-004
 -3.754233166064767E-004
 -3.041405289958125E-004
 -2.332761069876961E-004
 -1.650388245449323E-004
 -1.008862705092892E-004
 -4.176415856016700E-005
  1.173184922964140E-005
  5.925767459518876E-005
  1.006653545508150E-004
  1.359711272614129E-004
  1.653326964144206E-004
  1.890274074195263E-004
  2.074281987723937E-004
  2.209775356554524E-004
  2.301611311179922E-004
  2.354835667692432E-004
  2.374474828420410E-004
  2.365372716484996E-004
  2.332074830770091E-004
  2.278755946487824E-004
  2.209184602530113E-004
  2.126716109446643E-004
  2.034305858807594E-004
  1.934535632611473E-004
  1.829646906496126E-004
  1.721576465467851E-004
  1.611990802460643E-004
  1.502316660474058E-004
  1.393765707769839E-004
  1.287351774117302E-004
  1.183899470816675E-004
  1.084043608266003E-004
  9.882199772426168E-005
  8.966502979760579E-005
  8.093281657503313E-005
  7.260194712971554E-005
  6.463008327606699E-005
  5.696732393270976E-005
  4.958036263224774E-005
  4.249578772146852E-005
  3.586759107613113E-005
  3.006647707367670E-005
  2.576618126564907E-005
  2.396634581353034E-005
  2.588350280269134E-005
  3.268130520766851E-005
  4.519083957197575E-005
  6.388060787840266E-005
  8.956579923797126E-005
 -4.091773362308574E-004
 -3.288833295505671E-004
 -2.494831238370965E-004
 -1.742182919369279E-004
 -1.047686123600640E-004
 -4.188450944867560E-005
  1.418230466320267E-005
  6.342307387192739E-005
  1.059450554125866E-004
  1.419246350454146E-004
  1.716001285040819E-004
  1.952767846371168E-004
  2.133289750581409E-004
  2.261940397712141E-004
  2.343581173396987E-004
  2.383370255280336E-004
  2.386558284188657E-004
  2.358300846049332E-004
  2.303506612658057E-004
  2.226728977563155E-004
  2.132100518414822E-004
  2.023304326372386E-004
  1.903573833615691E-004
  1.775712441310521E-004
  1.642125140426018E-004
  1.504855727029571E-004
  1.365624675234534E-004
  1.225863987297191E-004
  1.086746286231228E-004
  9.492060510982616E-005
  8.139513008571832E-005
  6.814643786963552E-005
  5.519910599656965E-005
  4.255184504460375E-005
  3.017447292215580E-005
  1.800486845360853E-005
  5.947549774357374E-006
 -6.123100945412299E-006
 -1.834986615957418E-005
 -3.086197301211936E-005
 -4.371509727022354E-005
 -5.678755145461701E-005
 -6.962069427449452E-005
 -8.121078560144221E-005
 -8.984523021863425E-005
 -9.321648960700264E-005
 -8.898727732409651E-005
 -7.583395986618880E-005
 -5.408757936582720E-005
 -2.522556291650473E-005
 -3.680090432469432E-004
 -2.739110274766134E-004
 -1.868395219796162E-004
 -1.092205114763321E-004
 -4.148928431979646E-005
  1.686320519287799E-005
  6.665053939455910E-005
  1.086659598998111E-004
  1.435673667435763E-004
  1.718791943213327E-004
  1.940424901710212E-004
  2.104706392081097E-004
  2.215898893763955E-004
  2.278588177048545E-004
  2.297693760699860E-004
  2.278356729263045E-004
  2.225769684338612E-004
  2.145000311727546E-004
  2.040841333002907E-004
  1.917702182844437E-004
  1.779544770854084E-004
  1.629857818470931E-004
  1.471660720946776E-004
  1.307527301956635E-004
  1.139620865624242E-004
  9.697336102938391E-005
  7.993251475298094E-005
  6.295562718051336E-005
  4.613151441718852E-005
  2.952336907785241E-005
  1.316923613113450E-005
 -2.918837683207786E-006
 -1.875710052345967E-005
 -3.439384536151622E-005
 -4.991436081774466E-005
 -6.544630944168604E-005
 -8.116381216816834E-005
 -9.728691041298642E-005
 -1.140704812605817E-004
 -1.317726300083974E-004
 -1.505863964043606E-004
 -1.705096534546488E-004
 -1.911158323692112E-004
 -2.111848660454618E-004
 -2.281754767230657E-004
 -2.379009732604881E-004
 -2.354292065984369E-004
 -2.173733621692311E-004
 -1.856438753844491E-004
 -1.471427834522624E-004
 -3.203814704459054E-004
 -2.110102960700101E-004
 -1.179655557610302E-004
 -4.152867373428224E-005
  2.015644839583278E-005
  6.956865676258593E-005
  1.090005142362195E-004
  1.402399043241078E-004
  1.645441200958540E-004
  1.827533716716325E-004
  1.954424143301673E-004
  2.030543690906148E-004
  2.059941088500329E-004
  2.046793084884976E-004
  1.995576788624751E-004
  1.911022032341635E-004
  1.797953317672774E-004
  1.661103282637305E-004
  1.504948032773174E-004
  1.333587595347392E-004
  1.150675750387808E-004
  9.593927013107015E-005
  7.624496756142581E-005
  5.621141840980770E-005
  3.602462295858707E-005
  1.583378772446754E-005
 -4.244941400613376E-006
 -2.412537133285882E-005
 -4.374906917388427E-005
 -6.308430861424911E-005
 -8.212635061515395E-005
 -1.008992452563062E-004
 -1.194593222936577E-004
 -1.379004557420874E-004
 -1.563609612266995E-004
 -1.750314923788908E-004
 -1.941623698018110E-004
 -2.140671543963180E-004
 -2.351165957164583E-004
 -2.577127224402706E-004
 -2.822256188510604E-004
 -3.088625789560004E-004
 -3.374157958326681E-004
 -3.667816590491968E-004
 -3.940867843972598E-004
 -4.130064330957818E-004
 -4.128165726396996E-004
 -3.836093521387901E-004
 -3.248159106497935E-004
 -2.598928663727099E-004
 -2.672894931921203E-004
 -1.423610210247274E-004
 -4.693164441242291E-005
  2.289115803371459E-005
  7.264432240045261E-005
  1.075916363422535E-004
  1.318910597388927E-004
  1.484338530750392E-004
  1.590305681364850E-004
  1.647219254239798E-004
  1.660843593761976E-004
  1.634692532246852E-004
  1.571600394112851E-004
  1.474561946843131E-004
  1.347034520366966E-004
  1.192908228347156E-004
  1.016315966928639E-004
  8.214031797848067E-005
  6.121265027054311E-005
  3.921101631162394E-005
  1.645628577885987E-005
 -6.775539599786254E-006
 -3.025309993472654E-005
 -5.378727602844670E-005
 -7.722771018331808E-005
 -1.004590672558270E-004
 -1.233976234219211E-004
 -1.459885941079811E-004
 -1.682044883116095E-004
 -1.900447023421712E-004
 -2.115365371948080E-004
 -2.327378264042654E-004
 -2.537413663920307E-004
 -2.746812981720270E-004
 -2.957414155651384E-004
 -3.171649491568184E-004
 -3.392645312061548E-004
 -3.624295733098098E-004
 -3.871259097292880E-004
 -4.138788607673517E-004
 -4.432249751877118E-004
 -4.756074745674351E-004
 -5.111678248591751E-004
 -5.493347040878481E-004
 -5.879084945340774E-004
 -6.210721939121708E-004
 -6.324724555067692E-004
 -5.890347976624606E-004
 -4.738193446377025E-004
 -3.145743112491025E-004
 -2.112445707402529E-004
 -7.275783702725347E-005
  1.886791312315605E-005
  7.448224488281921E-005
  1.049403136225503E-004
  1.190773111766312E-004
  1.231581893317548E-004
  1.211198182017899E-004
  1.151371263671237E-004
  1.062318666358075E-004
  9.478311754159964E-005
  8.089136554474428E-005
  6.460106012211058E-005
  4.601099179414500E-005
  2.530831202464609E-005
  2.758696351859994E-006
 -2.132250070737644E-005
 -4.660192977566942E-005
 -7.275432629361223E-005
 -9.948022857972081E-005
 -1.265159088613577E-004
 -1.536374386458330E-004
 -1.806609140480983E-004
 -2.074404636037271E-004
 -2.338652101606408E-004
 -2.598560206243598E-004
 -2.853626406407169E-004
 -3.103616308210500E-004
 -3.348553801355313E-004
 -3.588723766984203E-004
 -3.824688719017710E-004
 -4.057320732137853E-004
 -4.287850201619773E-004
 -4.517932896361516E-004
 -4.749735583222876E-004
 -4.986036933464279E-004
 -5.230332829885564E-004
 -5.486921816136958E-004
 -5.760925972087855E-004
 -6.058174498887931E-004
 -6.384842974026077E-004
 -6.746700445080590E-004
 -7.147767889021763E-004
 -7.588002846578741E-004
 -8.059315340665106E-004
 -8.533341406600509E-004
 -8.936521051610126E-004
 -8.874126700509587E-004
 -6.500273238846542E-004
 -8.232672267977503E-005
 -1.569025941660371E-004
 -1.063922358902022E-005
  6.776980319999072E-005
  9.948791557745659E-005
  1.023014183918687E-004
  8.913580948030892E-005
  6.829600837539899E-005
  4.444942665415806E-005
  1.976706889973654E-005
 -5.075270384301879E-006
 -3.014830011249300E-005
 -5.577953833875799E-005
 -8.227870803870479E-005
 -1.098183369288477E-004
 -1.384121453491111E-004
 -1.679444658325050E-004
 -1.982173310636641E-004
 -2.289951332647855E-004
 -2.600379650912576E-004
 -2.911224523426001E-004
 -3.220527254692634E-004
 -3.526649699594960E-004
 -3.828282515486200E-004
 -4.124433096560680E-004
 -4.414403626386198E-004
 -4.697766739506695E-004
 -4.974344749774802E-004
 -5.244196839472496E-004
 -5.507616889615641E-004
 -5.765143194637965E-004
 -6.017580416162562E-004
 -6.266033804254256E-004
 -6.511955783439531E-004
 -6.757205105208241E-004
 -7.004118077716377E-004
 -7.255588454111643E-004
 -7.515145255144906E-004
 -7.787004209049175E-004
 -8.076047479333800E-004
 -8.387659859480718E-004
 -8.727324192672123E-004
 -9.099875080357540E-004
 -9.508370372665433E-004
 -9.952810050494298E-004
 -1.042944491250335E-003
 -1.093500735959004E-003
 -1.146911810793425E-003
 -1.208838452866723E-003
 -4.582318746325766E-004
  2.452807930143443E-004
 -1.115848569838040E-004
  3.110298394925195E-005
  8.338942019088161E-005
  8.008724181637474E-005
  4.698448107195226E-005
  1.000633559058241E-006
 -4.808110199951779E-005
 -9.550564189280383E-005
 -1.396561117122246E-004
 -1.806077801544614E-004
 -2.191480936399502E-004
 -2.561906946012454E-004
 -2.924817356467697E-004
 -3.285005552120295E-004
 -3.644734380849667E-004
 -4.004386958145635E-004
 -4.363209075426979E-004
 -4.719911777483806E-004
 -5.073062598848941E-004
 -5.421297000109669E-004
 -5.763417474435774E-004
 -6.098437077534844E-004
 -6.425597425355673E-004
 -6.744371916522661E-004
 -7.054458560165340E-004
 -7.355767767658663E-004
 -7.648411728936641E-004
 -7.932700894711046E-004
 -8.209150569358684E-004
 -8.478498150351362E-004
 -8.741729758915788E-004
 -9.000113860399145E-004
 -9.255238945065009E-004
 -9.509052287333651E-004
 -9.763896706155950E-004
 -1.002254023341930E-003
 -1.028818694699670E-003
 -1.056444186185229E-003
 -1.085517759846001E-003
 -1.116421432929466E-003
 -1.149468393088364E-003
 -1.184791656297980E-003
 -1.222171031203324E-003
 -1.260801878736679E-003
 -1.299064864406411E-003
 -1.334524443508762E-003
 -1.365230436488294E-003
 -1.371898208492840E-003
 -3.325849140927189E-004
 -1.077698964251060E-004
 -8.537070188529448E-005
  3.510206872383359E-005
  4.535391120109878E-005
 -4.031372879146419E-006
 -7.952414911511662E-005
 -1.613333041912975E-004
 -2.394047937696195E-004
 -3.098708357508057E-004
 -3.723413099441543E-004
 -4.280510468574802E-004
 -4.787189007304636E-004
 -5.259321017286017E-004
 -5.708850834554674E-004
 -6.143382325322680E-004
 -6.566949245343656E-004
 -6.981205382612727E-004
 -7.386516115411152E-004
 -7.782696407932292E-004
 -8.169385964300451E-004
 -8.546189315219231E-004
 -8.912724022657481E-004
 -9.268658002316264E-004
 -9.613752578482322E-004
 -9.947897890956420E-004
 -1.027113068383287E-003
 -1.058363805353597E-003
 -1.088575777551106E-003
 -1.117798435397137E-003
 -1.146098503703769E-003
 -1.173562568100093E-003
 -1.200300297886988E-003
 -1.226447693615596E-003
 -1.252169542657574E-003
 -1.277660189215279E-003
 -1.303141763087604E-003
 -1.328859083484775E-003
 -1.355069998983981E-003
 -1.382028597756860E-003
 -1.409955550312703E-003
 -1.438985623945593E-003
 -1.469075573835256E-003
 -1.499847795495344E-003
 -1.530337137733766E-003
 -1.558606103100176E-003
 -1.581226073618517E-003
 -1.592485578611314E-003
 -1.584734572213957E-003
 -1.525996180601499E-003
 -7.112005189668063E-004
 -5.715682857641033E-004
 -9.028716523628783E-005
 -1.887844317631853E-005
 -6.785392624246294E-005
 -1.718427902692992E-004
 -2.921320905189825E-004
 -4.085624832227135E-004
 -5.126786800448749E-004
 -6.026892820384195E-004
 -6.800810691576500E-004
 -7.475376170454290E-004
 -8.077859337482906E-004
 -8.630489538049933E-004
 -9.148760262757713E-004
 -9.641987259767903E-004
 -1.011501477702358E-003
 -1.057016242934210E-003
 -1.100871195471494E-003
 -1.143166463299862E-003
 -1.183990694726609E-003
 -1.223413164823836E-003
 -1.261478109062453E-003
 -1.298210137757258E-003
 -1.333625811888488E-003
 -1.367743913957346E-003
 -1.400591044076983E-003
 -1.432203551900425E-003
 -1.462628276594391E-003
 -1.491923817270932E-003
 -1.520163011398387E-003
 -1.547436550869633E-003
 -1.573857136826904E-003
 -1.599563029509691E-003
 -1.624719414491742E-003
 -1.649515662457926E-003
 -1.674156653422152E-003
 -1.698846717846257E-003
 -1.723765455345397E-003
 -1.749033511198029E-003
 -1.774664937159431E-003
 -1.800496867800176E-003
 -1.826084306362840E-003
 -1.850534443606735E-003
 -1.872247610442426E-003
 -1.888547085494847E-003
 -1.895247314108222E-003
 -1.886801461769071E-003
 -1.856800729635719E-003
 -1.812051387248216E-003
 -1.244803548671675E-003
 -9.759553974315838E-004
 -1.380769155973189E-004
 -1.497097590812132E-004
 -2.729753185223266E-004
 -4.341915451360534E-004
 -5.952279152007170E-004
 -7.394904035571988E-004
 -8.624177884732330E-004
 -9.654073781673927E-004
 -1.052210809633761E-003
 -1.126981948649049E-003
 -1.193316615975719E-003
 -1.253877520239794E-003
 -1.310355302301579E-003
 -1.363644556159720E-003
 -1.414146983421079E-003
 -1.462072405602842E-003
 -1.507630753784668E-003
 -1.551075290381069E-003
 -1.592657098119707E-003
 -1.632569321107660E-003
 -1.670929228042823E-003
 -1.707796217199162E-003
 -1.743202399238220E-003
 -1.777175458402375E-003
 -1.809748499880566E-003
 -1.840962041554737E-003
 -1.870863997857591E-003
 -1.899510752882842E-003
 -1.926970156423781E-003
 -1.953326377233832E-003
 -1.978685706715216E-003
 -2.003181612798681E-003
 -2.026976269283641E-003
 -2.050255354596533E-003
 -2.073212353369562E-003
 -2.096019705636694E-003
 -2.118785629430144E-003
 -2.141499287050125E-003
 -2.163961033828572E-003
 -2.185703003765488E-003
 -2.205892216156715E-003
 -2.223226262032825E-003
 -2.235787578687975E-003
 -2.240872283629502E-003
 -2.235037774235510E-003
 -2.214922669849421E-003
 -2.182288448581610E-003
 -2.161473095676533E-003
 -1.808206888207510E-003
 -1.423847995233183E-003
 -2.361518818196702E-004
 -3.672714004062728E-004
 -5.723053892386380E-004
 -7.838708970934309E-004
 -9.734357838068594E-004
 -1.132879791767811E-003
 -1.263634285439202E-003
 -1.370793796126347E-003
 -1.460230419197255E-003
 -1.537183905947900E-003
 -1.605749598533642E-003
 -1.668711213552798E-003
 -1.727587048642399E-003
 -1.782932949411464E-003
 -1.834823134855774E-003
 -1.883349252822445E-003
 -1.928843614511858E-003
 -1.971814434238195E-003
 -2.012744993364724E-003
 -2.051961612648738E-003
 -2.089617542059019E-003
 -2.125755754110835E-003
 -2.160381233742076E-003
 -2.193501591426327E-003
 -2.225137376046501E-003
 -2.255318890216520E-003
 -2.284082617026127E-003
 -2.311470527208352E-003
 -2.337532846412278E-003
 -2.362334266546396E-003
 -2.385962617723006E-003
 -2.408537224637847E-003
 -2.430213779428946E-003
 -2.451179331662237E-003
 -2.471632607063542E-003
 -2.491742980275952E-003
 -2.511586011083786E-003
 -2.531056811158875E-003
 -2.549783189869426E-003
 -2.567013070784870E-003
 -2.581563688876765E-003
 -2.591818554914008E-003
 -2.595859770058198E-003
 -2.591577280108875E-003
 -2.576999324037638E-003
 -2.551760133336764E-003
 -2.519789948001188E-003
 -2.494446432549741E-003
 -2.345327818929693E-003
 -1.928479793228855E-003
 -3.825901807520025E-004
 -6.609117139653271E-004
 -9.409547055505350E-004
 -1.183334814258480E-003
 -1.381191700314934E-003
 -1.539212809845726E-003
 -1.665278946063661E-003
 -1.767671639024677E-003
 -1.853311880645282E-003
 -1.927776772520847E-003
 -1.995193959453800E-003
 -2.058143938690390E-003
 -2.117706306727066E-003
 -2.173672562757514E-003
 -2.225454142280466E-003
 -2.272930442190813E-003
 -2.316752167457805E-003
 -2.357885309573600E-003
 -2.397134669413334E-003
 -2.434918429527483E-003
 -2.471328908275628E-003
 -2.506304312002622E-003
 -2.539767934677626E-003
 -2.571683164646358E-003
 -2.602045485744785E-003
 -2.630865750308593E-003
 -2.658159471197711E-003
 -2.683943552512635E-003
 -2.708237812084653E-003
 -2.731072061484201E-003
 -2.752498769297095E-003
 -2.772608310683766E-003
 -2.791539472054325E-003
 -2.809483498176083E-003
 -2.826663053218090E-003
 -2.843287370317788E-003
 -2.859469427258049E-003
 -2.875105798558730E-003
 -2.889718483399908E-003
 -2.902393844986765E-003
 -2.911555643009318E-003
 -2.915312561891787E-003
 -2.911882953965301E-003
 -2.900208445823727E-003
 -2.880125768821330E-003
 -2.853415541045153E-003
 -2.827139186369571E-003
 -2.808444372495732E-003
 -2.847985103736768E-003
 -2.389013756519532E-003
 -5.561287610417152E-004
 -9.908175336002462E-004
 -1.311245628102192E-003
 -1.551886143695674E-003
 -1.734174125606842E-003
 -1.874636241013068E-003
 -1.986822781567947E-003
 -2.078569428115034E-003
 -2.156533209690475E-003
 -2.225735442712998E-003
 -2.289756218858687E-003
 -2.351328292274573E-003
 -2.410972209590106E-003
 -2.467285066627844E-003
 -2.518291840662525E-003
 -2.563815095840093E-003
 -2.605226857535689E-003
 -2.644271095754487E-003
 -2.681969463939899E-003
 -2.718645338849254E-003
 -2.754179660064750E-003
 -2.788307923922233E-003
 -2.820864008952588E-003
 -2.851784027686950E-003
 -2.881053254673927E-003
 -2.908662390694292E-003
 -2.934603373446728E-003
 -2.958865349663844E-003
 -2.981425241186914E-003
 -3.002262111244471E-003
 -3.021373990096813E-003
 -3.038791404896140E-003
 -3.054615984166721E-003
 -3.069024225915928E-003
 -3.082271646717208E-003
 -3.094638264951819E-003
 -3.106346937820912E-003
 -3.117420680686013E-003
 -3.127489610633699E-003
 -3.135390928860426E-003
 -3.139611921133856E-003
 -3.137308334012392E-003
 -3.127241138241051E-003
 -3.109947078454648E-003
 -3.087030896517950E-003
 -3.061581566748252E-003
 -3.040993882485798E-003
 -3.044837087945794E-003
 -3.106769745716742E-003
 -2.762291482769952E-003
 -8.106998431884294E-004
 -1.244045921865522E-003
 -1.487542640761266E-003
 -1.758722485148655E-003
 -1.903429017512329E-003
 -2.023768492589078E-003
 -2.120750507106148E-003
 -2.202838354660912E-003
 -2.275096733136381E-003
 -2.338567702950428E-003
 -2.398130854641667E-003
 -2.457540911950810E-003
 -2.518346240101460E-003
 -2.576397307424631E-003
 -2.627829301573938E-003
 -2.672396450752358E-003
 -2.713943743315080E-003
 -2.753972020506848E-003
 -2.792783316744537E-003
 -2.830491081928969E-003
 -2.866664976273026E-003
 -2.901030191783374E-003
 -2.933550081827910E-003
 -2.964250430682966E-003
 -2.993125229407049E-003
 -3.020173078371659E-003
 -3.045358349286098E-003
 -3.068645598274745E-003
 -3.089988611224784E-003
 -3.109282159673884E-003
 -3.126457252534338E-003
 -3.141473596257574E-003
 -3.154295964227445E-003
 -3.165078679742123E-003
 -3.174055401296797E-003
 -3.181581669016188E-003
 -3.188021417739690E-003
 -3.193548331191409E-003
 -3.197959982788338E-003
 -3.200540356473686E-003
 -3.197691958138489E-003
 -3.188841367467480E-003
 -3.170646717636174E-003
 -3.149699851885403E-003
 -3.128597147624274E-003
 -3.105839791894924E-003
 -3.089680561416277E-003
 -3.096648772983307E-003
 -3.148954081699342E-003
 -2.968789392133782E-003
  7.574827008990825E-005
 -5.782446283638821E-004
 -9.917947920151863E-004
 -1.341521162301890E-003
 -1.742507205215250E-003
 -1.850162484225575E-003
 -1.942198518718350E-003
 -2.032379492879504E-003
 -2.106732214028833E-003
 -2.167861557065580E-003
 -2.217955776612286E-003
 -2.273771593066479E-003
 -2.337948068144970E-003
 -2.401426222358343E-003
 -2.454416236230224E-003
 -2.507846142628297E-003
 -2.563243953090912E-003
 -2.615927922255917E-003
 -2.663505849020195E-003
 -2.705472132966904E-003
 -2.743516737832668E-003
 -2.778855554721653E-003
 -2.811976198113622E-003
 -2.842998219453321E-003
 -2.872119853598448E-003
 -2.899138713230800E-003
 -2.924096639347873E-003
 -2.947128251607172E-003
 -2.967882259678133E-003
 -2.986346020892461E-003
 -3.002542436797809E-003
 -3.016002153710588E-003
 -3.026830431723801E-003
 -3.034814286902010E-003
 -3.040103508736407E-003
 -3.043142626776047E-003
 -3.044476570734926E-003
 -3.044377249142016E-003
 -3.042314992788828E-003
 -3.036659580342012E-003
 -3.025177763514182E-003
 -2.986680592627819E-003
 -2.954653593797133E-003
 -2.947073794225621E-003
 -2.932484613817025E-003
 -2.914908841014876E-003
 -2.901593508908108E-003
 -2.903137608596839E-003
 -2.938467438187138E-003
 -2.866701211539438E-003
  4.776909413899537E-005
 -3.034262803338009E-004
 -3.818847197139123E-004
 -4.642730304955912E-004
 -6.599321994768606E-004
 -1.100696080202873E-003
 -1.364067114286785E-003
 -1.475426379179983E-003
 -1.562987219087086E-003
 -1.635186492049297E-003
 -1.686117717179376E-003
 -1.659146296748720E-003
 -1.578632618249109E-003
 -1.515126101704605E-003
 -1.542725999548601E-003
 -1.597285216944349E-003
 -1.651032362036344E-003
 -1.699887366086198E-003
 -1.741401664570119E-003
 -1.775617124299032E-003
 -1.805508354537277E-003
 -1.833231324459196E-003
 -1.859552199769750E-003
 -1.884889783283865E-003
 -1.909050692725696E-003
 -1.932830448432102E-003
 -1.956017297989112E-003
 -1.978318844125092E-003
 -2.000672567265887E-003
 -2.023233031088052E-003
 -2.045510705874824E-003
 -2.068276185602863E-003
 -2.090816141486325E-003
 -2.112729705089687E-003
 -2.133503783796327E-003
 -2.153532274310842E-003
 -2.175507303845656E-003
 -2.199034856223284E-003
 -2.219869392966728E-003
 -2.236332099964808E-003
 -2.253453527365220E-003
 -2.305793254686586E-003
 -2.433626564964612E-003
 -2.441999952108062E-003
 -2.438615931568085E-003
 -2.433174848092047E-003
 -2.428767987062616E-003
 -2.429906259492113E-003
 -2.437639343547924E-003
 -2.446952590184941E-003
  4.842384647506076E-004
  7.885782066186365E-004
  7.152807944369034E-004
  5.315388846402186E-004
  3.233597572158080E-004
  1.062504686385872E-004
 -1.146145640675783E-004
 -3.076388621502097E-004
 -4.640978018099890E-004
 -5.887689354140795E-004
 -6.908903779272031E-004
 -7.840714299206706E-004
 -8.722552407782209E-004
 -9.460764710768016E-004
 -9.977826456893965E-004
 -1.037234876640800E-003
 -1.072113954405196E-003
 -1.105377496874292E-003
 -1.137050600876441E-003
 -1.166390907391558E-003
 -1.193734384767545E-003
 -1.219485214215807E-003
 -1.243852868129079E-003
 -1.267092520166463E-003
 -1.289569119561842E-003
 -1.311540516809231E-003
 -1.333363010896160E-003
 -1.355419847963245E-003
 -1.377836789609478E-003
 -1.400835756644007E-003
 -1.424670357995958E-003
 -1.449380985509508E-003
 -1.475124687755849E-003
 -1.501901893544949E-003
 -1.529316599742724E-003
 -1.555922963605394E-003
 -1.578762144419750E-003
 -1.594286386173269E-003
 -1.607711882754115E-003
 -1.619482121886053E-003
 -1.624674293189940E-003
 -1.615355806662446E-003
 -1.606311337686837E-003
 -1.623177025356790E-003
 -1.643866168730638E-003
 -1.663034785520262E-003
 -1.681233220157256E-003
 -1.698231117418712E-003
 -1.710998630356460E-003
 -1.714540414154839E-003
SCALARS elementIsPlast double 
LOOKUP_TABLE default
  0.000000000000000E+000
  0.000000000000000E+000
  0.000000000000000E+000
  0.000000000000000E+000
  0.000000000000000E+000
  0.000000000000000E+000
  0.000000000000000E+000
  0.000000000000000E+000
  0.000000000000000E+000
  0.000000000000000E+000
  0.000000000000000E+000
  0.000000000000000E+000
  0.000000000000000E+000
  0.000000000000000E+000
  0.000000000000000E+000
  0.000000000000000E+000
  0.000000000000000E+000
  0.000000000000000E+000
  0.000000000000000E+000
  0.000000000000000E+000
  0.000000000000000E+000
  0.000000000000000E+000
  0.000000000000000E+000
  0.000000000000000E+000
  0.000000000000000E+000
  0.000000000000000E+000
  0.000000000000000E+000
  0.000000000000000E+000
  0.000000000000000E+000
  0.000000000000000E+000
  0.000000000000000E+000
  0.000000000000000E+000
  0.000000000000000E+000
  0.000000000000000E+000
  0.000000000000000E+000
  0.000000000000000E+000
  0.000000000000000E+000
  0.000000000000000E+000
  0.000000000000000E+000
  0.000000000000000E+000
  0.000000000000000E+000
  0.000000000000000E+000
  0.000000000000000E+000
  0.000000000000000E+000
  0.000000000000000E+000
  0.000000000000000E+000
  0.000000000000000E+000
  0.000000000000000E+000
  0.000000000000000E+000
  0.000000000000000E+000
  0.000000000000000E+000
  0.000000000000000E+000
  0.000000000000000E+000
  0.000000000000000E+000
  0.000000000000000E+000
  0.000000000000000E+000
  0.000000000000000E+000
  0.000000000000000E+000
  0.000000000000000E+000
  0.000000000000000E+000
  0.000000000000000E+000
  0.000000000000000E+000
  0.000000000000000E+000
  0.000000000000000E+000
  0.000000000000000E+000
  0.000000000000000E+000
  0.000000000000000E+000
  0.000000000000000E+000
  0.000000000000000E+000
  0.000000000000000E+000
  0.000000000000000E+000
  0.000000000000000E+000
  0.000000000000000E+000
  0.000000000000000E+000
  0.000000000000000E+000
  0.000000000000000E+000
  0.000000000000000E+000
  0.000000000000000E+000
  0.000000000000000E+000
  0.000000000000000E+000
  0.000000000000000E+000
  0.000000000000000E+000
  0.000000000000000E+000
  0.000000000000000E+000
  0.000000000000000E+000
  0.000000000000000E+000
  0.000000000000000E+000
  0.000000000000000E+000
  0.000000000000000E+000
  0.000000000000000E+000
  0.000000000000000E+000
  0.000000000000000E+000
  0.000000000000000E+000
  0.000000000000000E+000
  0.000000000000000E+000
  0.000000000000000E+000
  0.000000000000000E+000
  0.000000000000000E+000
  0.000000000000000E+000
  0.000000000000000E+000
  0.000000000000000E+000
  0.000000000000000E+000
  0.000000000000000E+000
  0.000000000000000E+000
  0.000000000000000E+000
  0.000000000000000E+000
  0.000000000000000E+000
  0.000000000000000E+000
  0.000000000000000E+000
  0.000000000000000E+000
  0.000000000000000E+000
  0.000000000000000E+000
  0.000000000000000E+000
  0.000000000000000E+000
  0.000000000000000E+000
  0.000000000000000E+000
  0.000000000000000E+000
  0.000000000000000E+000
  0.000000000000000E+000
  0.000000000000000E+000
  0.000000000000000E+000
  0.000000000000000E+000
  0.000000000000000E+000
  0.000000000000000E+000
  0.000000000000000E+000
  0.000000000000000E+000
  0.000000000000000E+000
  0.000000000000000E+000
  0.000000000000000E+000
  0.000000000000000E+000
  0.000000000000000E+000
  0.000000000000000E+000
  0.000000000000000E+000
  0.000000000000000E+000
  0.000000000000000E+000
  0.000000000000000E+000
  0.000000000000000E+000
  0.000000000000000E+000
  0.000000000000000E+000
  0.000000000000000E+000
  0.000000000000000E+000
  0.000000000000000E+000
  0.000000000000000E+000
  0.000000000000000E+000
  0.000000000000000E+000
  0.000000000000000E+000
  0.000000000000000E+000
  0.000000000000000E+000
  0.000000000000000E+000
  0.000000000000000E+000
  0.000000000000000E+000
  0.000000000000000E+000
  0.000000000000000E+000
  0.000000000000000E+000
  0.000000000000000E+000
  0.000000000000000E+000
  0.000000000000000E+000
  0.000000000000000E+000
  0.000000000000000E+000
  0.000000000000000E+000
  0.000000000000000E+000
  0.000000000000000E+000
  0.000000000000000E+000
  0.000000000000000E+000
  0.000000000000000E+000
  0.000000000000000E+000
  0.000000000000000E+000
  0.000000000000000E+000
  0.000000000000000E+000
  0.000000000000000E+000
  0.000000000000000E+000
  0.000000000000000E+000
  0.000000000000000E+000
  0.000000000000000E+000
  0.000000000000000E+000
  0.000000000000000E+000
  0.000000000000000E+000
  0.000000000000000E+000
  0.000000000000000E+000
  0.000000000000000E+000
  0.000000000000000E+000
  0.000000000000000E+000
  0.000000000000000E+000
  0.000000000000000E+000
  0.000000000000000E+000
  0.000000000000000E+000
  0.000000000000000E+000
  0.000000000000000E+000
  0.000000000000000E+000
  0.000000000000000E+000
  0.000000000000000E+000
  0.000000000000000E+000
  0.000000000000000E+000
  0.000000000000000E+000
  0.000000000000000E+000
  0.000000000000000E+000
  0.000000000000000E+000
  0.000000000000000E+000
  0.000000000000000E+000
  0.000000000000000E+000
  0.000000000000000E+000
  0.000000000000000E+000
  0.000000000000000E+000
  0.000000000000000E+000
  0.000000000000000E+000
  0.000000000000000E+000
  0.000000000000000E+000
  0.000000000000000E+000
  0.000000000000000E+000
  0.000000000000000E+000
  0.000000000000000E+000
  0.000000000000000E+000
  0.000000000000000E+000
  0.000000000000000E+000
  0.000000000000000E+000
  0.000000000000000E+000
  0.000000000000000E+000
  0.000000000000000E+000
  0.000000000000000E+000
  0.000000000000000E+000
  0.000000000000000E+000
  0.000000000000000E+000
  0.000000000000000E+000
  0.000000000000000E+000
  0.000000000000000E+000
  0.000000000000000E+000
  0.000000000000000E+000
  0.000000000000000E+000
  0.000000000000000E+000
  0.000000000000000E+000
  0.000000000000000E+000
  0.000000000000000E+000
  0.000000000000000E+000
  0.000000000000000E+000
  0.000000000000000E+000
  0.000000000000000E+000
  0.000000000000000E+000
  0.000000000000000E+000
  0.000000000000000E+000
  0.000000000000000E+000
  0.000000000000000E+000
  0.000000000000000E+000
  0.000000000000000E+000
  0.000000000000000E+000
  0.000000000000000E+000
  0.000000000000000E+000
  0.000000000000000E+000
  0.000000000000000E+000
  0.000000000000000E+000
  0.000000000000000E+000
  0.000000000000000E+000
  0.000000000000000E+000
  0.000000000000000E+000
  0.000000000000000E+000
  0.000000000000000E+000
  0.000000000000000E+000
  0.000000000000000E+000
  0.000000000000000E+000
  0.000000000000000E+000
  0.000000000000000E+000
  0.000000000000000E+000
  0.000000000000000E+000
  0.000000000000000E+000
  0.000000000000000E+000
  0.000000000000000E+000
  0.000000000000000E+000
  0.000000000000000E+000
  0.000000000000000E+000
  0.000000000000000E+000
  0.000000000000000E+000
  0.000000000000000E+000
  0.000000000000000E+000
  0.000000000000000E+000
  0.000000000000000E+000
  0.000000000000000E+000
  0.000000000000000E+000
  0.000000000000000E+000
  0.000000000000000E+000
  0.000000000000000E+000
  0.000000000000000E+000
  0.000000000000000E+000
  0.000000000000000E+000
  0.000000000000000E+000
  0.000000000000000E+000
  0.000000000000000E+000
  0.000000000000000E+000
  0.000000000000000E+000
  0.000000000000000E+000
  0.000000000000000E+000
  0.000000000000000E+000
  0.000000000000000E+000
  0.000000000000000E+000
  0.000000000000000E+000
  0.000000000000000E+000
  0.000000000000000E+000
  0.000000000000000E+000
  0.000000000000000E+000
  0.000000000000000E+000
  0.000000000000000E+000
  0.000000000000000E+000
  0.000000000000000E+000
  0.000000000000000E+000
  0.000000000000000E+000
  0.000000000000000E+000
  0.000000000000000E+000
  0.000000000000000E+000
  0.000000000000000E+000
  0.000000000000000E+000
  0.000000000000000E+000
  0.000000000000000E+000
  0.000000000000000E+000
  0.000000000000000E+000
  0.000000000000000E+000
  0.000000000000000E+000
  0.000000000000000E+000
  0.000000000000000E+000
  0.000000000000000E+000
  0.000000000000000E+000
  0.000000000000000E+000
  0.000000000000000E+000
  0.000000000000000E+000
  0.000000000000000E+000
  0.000000000000000E+000
  0.000000000000000E+000
  0.000000000000000E+000
  0.000000000000000E+000
  0.000000000000000E+000
  0.000000000000000E+000
  0.000000000000000E+000
  0.000000000000000E+000
  0.000000000000000E+000
  0.000000000000000E+000
  0.000000000000000E+000
  0.000000000000000E+000
  0.000000000000000E+000
  0.000000000000000E+000
  0.000000000000000E+000
  0.000000000000000E+000
  0.000000000000000E+000
  0.000000000000000E+000
  0.000000000000000E+000
  0.000000000000000E+000
  0.000000000000000E+000
  0.000000000000000E+000
  0.000000000000000E+000
  0.000000000000000E+000
  0.000000000000000E+000
  0.000000000000000E+000
  0.000000000000000E+000
  0.000000000000000E+000
  0.000000000000000E+000
  0.000000000000000E+000
  0.000000000000000E+000
  0.000000000000000E+000
  0.000000000000000E+000
  0.000000000000000E+000
  0.000000000000000E+000
  0.000000000000000E+000
  0.000000000000000E+000
  0.000000000000000E+000
  0.000000000000000E+000
  0.000000000000000E+000
  0.000000000000000E+000
  0.000000000000000E+000
  0.000000000000000E+000
  0.000000000000000E+000
  0.000000000000000E+000
  0.000000000000000E+000
  0.000000000000000E+000
  0.000000000000000E+000
  0.000000000000000E+000
  0.000000000000000E+000
  0.000000000000000E+000
  0.000000000000000E+000
  0.000000000000000E+000
  0.000000000000000E+000
  0.000000000000000E+000
  0.000000000000000E+000
  0.000000000000000E+000
  0.000000000000000E+000
  0.000000000000000E+000
  0.000000000000000E+000
  0.000000000000000E+000
  0.000000000000000E+000
  0.000000000000000E+000
  0.000000000000000E+000
  0.000000000000000E+000
  0.000000000000000E+000
  0.000000000000000E+000
  0.000000000000000E+000
  0.000000000000000E+000
  0.000000000000000E+000
  0.000000000000000E+000
  0.000000000000000E+000
  0.000000000000000E+000
  0.000000000000000E+000
  0.000000000000000E+000
  0.000000000000000E+000
  0.000000000000000E+000
  0.000000000000000E+000
  0.000000000000000E+000
  0.000000000000000E+000
  0.000000000000000E+000
  0.000000000000000E+000
  0.000000000000000E+000
  0.000000000000000E+000
  0.000000000000000E+000
  0.000000000000000E+000
  0.000000000000000E+000
  0.000000000000000E+000
  0.000000000000000E+000
  0.000000000000000E+000
  0.000000000000000E+000
  0.000000000000000E+000
  0.000000000000000E+000
  0.000000000000000E+000
  0.000000000000000E+000
  0.000000000000000E+000
  0.000000000000000E+000
  0.000000000000000E+000
  0.000000000000000E+000
  0.000000000000000E+000
  0.000000000000000E+000
  0.000000000000000E+000
  0.000000000000000E+000
  0.000000000000000E+000
  0.000000000000000E+000
  0.000000000000000E+000
  0.000000000000000E+000
  0.000000000000000E+000
  0.000000000000000E+000
  0.000000000000000E+000
  0.000000000000000E+000
  0.000000000000000E+000
  0.000000000000000E+000
  0.000000000000000E+000
  0.000000000000000E+000
  0.000000000000000E+000
  0.000000000000000E+000
  0.000000000000000E+000
  0.000000000000000E+000
  0.000000000000000E+000
  0.000000000000000E+000
  0.000000000000000E+000
  0.000000000000000E+000
  0.000000000000000E+000
  0.000000000000000E+000
  0.000000000000000E+000
  0.000000000000000E+000
  0.000000000000000E+000
  0.000000000000000E+000
  0.000000000000000E+000
  0.000000000000000E+000
  0.000000000000000E+000
  0.000000000000000E+000
  0.000000000000000E+000
  0.000000000000000E+000
  0.000000000000000E+000
  0.000000000000000E+000
  0.000000000000000E+000
  0.000000000000000E+000
  0.000000000000000E+000
  0.000000000000000E+000
  0.000000000000000E+000
  0.000000000000000E+000
  0.000000000000000E+000
  0.000000000000000E+000
  0.000000000000000E+000
  0.000000000000000E+000
  0.000000000000000E+000
  0.000000000000000E+000
  0.000000000000000E+000
  0.000000000000000E+000
  0.000000000000000E+000
  0.000000000000000E+000
  0.000000000000000E+000
  0.000000000000000E+000
  0.000000000000000E+000
  0.000000000000000E+000
  0.000000000000000E+000
  0.000000000000000E+000
  0.000000000000000E+000
  0.000000000000000E+000
  0.000000000000000E+000
  0.000000000000000E+000
  0.000000000000000E+000
  0.000000000000000E+000
  0.000000000000000E+000
  0.000000000000000E+000
  0.000000000000000E+000
  0.000000000000000E+000
  0.000000000000000E+000
  0.000000000000000E+000
  0.000000000000000E+000
  0.000000000000000E+000
  0.000000000000000E+000
  0.000000000000000E+000
  0.000000000000000E+000
  0.000000000000000E+000
  0.000000000000000E+000
  0.000000000000000E+000
  0.000000000000000E+000
  0.000000000000000E+000
  0.000000000000000E+000
  0.000000000000000E+000
  0.000000000000000E+000
  0.000000000000000E+000
  0.000000000000000E+000
  0.000000000000000E+000
  0.000000000000000E+000
  0.000000000000000E+000
  0.000000000000000E+000
  0.000000000000000E+000
  0.000000000000000E+000
  0.000000000000000E+000
  0.000000000000000E+000
  0.000000000000000E+000
  0.000000000000000E+000
  0.000000000000000E+000
  0.000000000000000E+000
  0.000000000000000E+000
  0.000000000000000E+000
  0.000000000000000E+000
  0.000000000000000E+000
  0.000000000000000E+000
  0.000000000000000E+000
  0.000000000000000E+000
  0.000000000000000E+000
  0.000000000000000E+000
  0.000000000000000E+000
  0.000000000000000E+000
  0.000000000000000E+000
  0.000000000000000E+000
  0.000000000000000E+000
  0.000000000000000E+000
  0.000000000000000E+000
  0.000000000000000E+000
  0.000000000000000E+000
  0.000000000000000E+000
  0.000000000000000E+000
  0.000000000000000E+000
  0.000000000000000E+000
  0.000000000000000E+000
  0.000000000000000E+000
  0.000000000000000E+000
  0.000000000000000E+000
  0.000000000000000E+000
  0.000000000000000E+000
  0.000000000000000E+000
  0.000000000000000E+000
  0.000000000000000E+000
  0.000000000000000E+000
  0.000000000000000E+000
  0.000000000000000E+000
  0.000000000000000E+000
  0.000000000000000E+000
  0.000000000000000E+000
  0.000000000000000E+000
  0.000000000000000E+000
  0.000000000000000E+000
  0.000000000000000E+000
  0.000000000000000E+000
  0.000000000000000E+000
  0.000000000000000E+000
  0.000000000000000E+000
  0.000000000000000E+000
  0.000000000000000E+000
  0.000000000000000E+000
  0.000000000000000E+000
  0.000000000000000E+000
  0.000000000000000E+000
  0.000000000000000E+000
  0.000000000000000E+000
  0.000000000000000E+000
  0.000000000000000E+000
  0.000000000000000E+000
  0.000000000000000E+000
  0.000000000000000E+000
  0.000000000000000E+000
  0.000000000000000E+000
  0.000000000000000E+000
  0.000000000000000E+000
  0.000000000000000E+000
  0.000000000000000E+000
  0.000000000000000E+000
  0.000000000000000E+000
  0.000000000000000E+000
  0.000000000000000E+000
  0.000000000000000E+000
  0.000000000000000E+000
  0.000000000000000E+000
  0.000000000000000E+000
  0.000000000000000E+000
  0.000000000000000E+000
  0.000000000000000E+000
  0.000000000000000E+000
  0.000000000000000E+000
  0.000000000000000E+000
  0.000000000000000E+000
  0.000000000000000E+000
  0.000000000000000E+000
  0.000000000000000E+000
  0.000000000000000E+000
  0.000000000000000E+000
  0.000000000000000E+000
  0.000000000000000E+000
  0.000000000000000E+000
  0.000000000000000E+000
  0.000000000000000E+000
  0.000000000000000E+000
  0.000000000000000E+000
  0.000000000000000E+000
  0.000000000000000E+000
  0.000000000000000E+000
  0.000000000000000E+000
  0.000000000000000E+000
  0.000000000000000E+000
  0.000000000000000E+000
  0.000000000000000E+000
  0.000000000000000E+000
  0.000000000000000E+000
  0.000000000000000E+000
  0.000000000000000E+000
  0.000000000000000E+000
  0.000000000000000E+000
  0.000000000000000E+000
  0.000000000000000E+000
  0.000000000000000E+000
  0.000000000000000E+000
  0.000000000000000E+000
  0.000000000000000E+000
  0.000000000000000E+000
  0.000000000000000E+000
  0.000000000000000E+000
  0.000000000000000E+000
  0.000000000000000E+000
  0.000000000000000E+000
  0.000000000000000E+000
  0.000000000000000E+000
  0.000000000000000E+000
  0.000000000000000E+000
  0.000000000000000E+000
  0.000000000000000E+000
  0.000000000000000E+000
  0.000000000000000E+000
  0.000000000000000E+000
  0.000000000000000E+000
  0.000000000000000E+000
  0.000000000000000E+000
  0.000000000000000E+000
  0.000000000000000E+000
  0.000000000000000E+000
  0.000000000000000E+000
  0.000000000000000E+000
  0.000000000000000E+000
  0.000000000000000E+000
  0.000000000000000E+000
  0.000000000000000E+000
  0.000000000000000E+000
  0.000000000000000E+000
  0.000000000000000E+000
  0.000000000000000E+000
  0.000000000000000E+000
  0.000000000000000E+000
  0.000000000000000E+000
  0.000000000000000E+000
  0.000000000000000E+000
  0.000000000000000E+000
  0.000000000000000E+000
  0.000000000000000E+000
  0.000000000000000E+000
  0.000000000000000E+000
  0.000000000000000E+000
  0.000000000000000E+000
  0.000000000000000E+000
  0.000000000000000E+000
  0.000000000000000E+000
  0.000000000000000E+000
  0.000000000000000E+000
  0.000000000000000E+000
  0.000000000000000E+000
  0.000000000000000E+000
  0.000000000000000E+000
  0.000000000000000E+000
  0.000000000000000E+000
  0.000000000000000E+000
  0.000000000000000E+000
  0.000000000000000E+000
  0.000000000000000E+000
  0.000000000000000E+000
  0.000000000000000E+000
  0.000000000000000E+000
  0.000000000000000E+000
  0.000000000000000E+000
  0.000000000000000E+000
  0.000000000000000E+000
  0.000000000000000E+000
  0.000000000000000E+000
  0.000000000000000E+000
  0.000000000000000E+000
  0.000000000000000E+000
  0.000000000000000E+000
  0.000000000000000E+000
  0.000000000000000E+000
  0.000000000000000E+000
  0.000000000000000E+000
  0.000000000000000E+000
  0.000000000000000E+000
  0.000000000000000E+000
  0.000000000000000E+000
  0.000000000000000E+000
  0.000000000000000E+000
  0.000000000000000E+000
  0.000000000000000E+000
  0.000000000000000E+000
  0.000000000000000E+000
  0.000000000000000E+000
  0.000000000000000E+000
  0.000000000000000E+000
  0.000000000000000E+000
  0.000000000000000E+000
  0.000000000000000E+000
  0.000000000000000E+000
  0.000000000000000E+000
  0.000000000000000E+000
  0.000000000000000E+000
  0.000000000000000E+000
  0.000000000000000E+000
  0.000000000000000E+000
  0.000000000000000E+000
  0.000000000000000E+000
  0.000000000000000E+000
  0.000000000000000E+000
  0.000000000000000E+000
  0.000000000000000E+000
  0.000000000000000E+000
  0.000000000000000E+000
  0.000000000000000E+000
  0.000000000000000E+000
  0.000000000000000E+000
  0.000000000000000E+000
  0.000000000000000E+000
  0.000000000000000E+000
  0.000000000000000E+000
  0.000000000000000E+000
  0.000000000000000E+000
  0.000000000000000E+000
  0.000000000000000E+000
  0.000000000000000E+000
  0.000000000000000E+000
  0.000000000000000E+000
  0.000000000000000E+000
  0.000000000000000E+000
  0.000000000000000E+000
  0.000000000000000E+000
  0.000000000000000E+000
  0.000000000000000E+000
  0.000000000000000E+000
  0.000000000000000E+000
  0.000000000000000E+000
  0.000000000000000E+000
  0.000000000000000E+000
  0.000000000000000E+000
  0.000000000000000E+000
  0.000000000000000E+000
  0.000000000000000E+000
  0.000000000000000E+000
  0.000000000000000E+000
  0.000000000000000E+000
  0.000000000000000E+000
  0.000000000000000E+000
  0.000000000000000E+000
  0.000000000000000E+000
  0.000000000000000E+000
  0.000000000000000E+000
  0.000000000000000E+000
  0.000000000000000E+000
  0.000000000000000E+000
  0.000000000000000E+000
  0.000000000000000E+000
  0.000000000000000E+000
  0.000000000000000E+000
  0.000000000000000E+000
  0.000000000000000E+000
  0.000000000000000E+000
  0.000000000000000E+000
  0.000000000000000E+000
  0.000000000000000E+000
  0.000000000000000E+000
  0.000000000000000E+000
  0.000000000000000E+000
  0.000000000000000E+000
  0.000000000000000E+000
  0.000000000000000E+000
  0.000000000000000E+000
  0.000000000000000E+000
  0.000000000000000E+000
  0.000000000000000E+000
  0.000000000000000E+000
  0.000000000000000E+000
  0.000000000000000E+000
  0.000000000000000E+000
  0.000000000000000E+000
  0.000000000000000E+000
  0.000000000000000E+000
  0.000000000000000E+000
  0.000000000000000E+000
  0.000000000000000E+000
  0.000000000000000E+000
  0.000000000000000E+000
  0.000000000000000E+000
  0.000000000000000E+000
  0.000000000000000E+000
  0.000000000000000E+000
  0.000000000000000E+000
  0.000000000000000E+000
  0.000000000000000E+000
  0.000000000000000E+000
  0.000000000000000E+000
  0.000000000000000E+000
  0.000000000000000E+000
  0.000000000000000E+000
  0.000000000000000E+000
  0.000000000000000E+000
  0.000000000000000E+000
  0.000000000000000E+000
  0.000000000000000E+000
  0.000000000000000E+000
  0.000000000000000E+000
  0.000000000000000E+000
  0.000000000000000E+000
  0.000000000000000E+000
  0.000000000000000E+000
  0.000000000000000E+000
  0.000000000000000E+000
  0.000000000000000E+000
  0.000000000000000E+000
  0.000000000000000E+000
  0.000000000000000E+000
  0.000000000000000E+000
  0.000000000000000E+000
  0.000000000000000E+000
  0.000000000000000E+000
  0.000000000000000E+000
  0.000000000000000E+000
  0.000000000000000E+000
  0.000000000000000E+000
  0.000000000000000E+000
  0.000000000000000E+000
  0.000000000000000E+000
  0.000000000000000E+000
  0.000000000000000E+000
  0.000000000000000E+000
  0.000000000000000E+000
  0.000000000000000E+000
  0.000000000000000E+000
  0.000000000000000E+000
  0.000000000000000E+000
  0.000000000000000E+000
  0.000000000000000E+000
  0.000000000000000E+000
  0.000000000000000E+000
  0.000000000000000E+000
  0.000000000000000E+000
  0.000000000000000E+000
  0.000000000000000E+000
  0.000000000000000E+000
  0.000000000000000E+000
  0.000000000000000E+000
  0.000000000000000E+000
  0.000000000000000E+000
  0.000000000000000E+000
  0.000000000000000E+000
  0.000000000000000E+000
  0.000000000000000E+000
  0.000000000000000E+000
  0.000000000000000E+000
  0.000000000000000E+000
  0.000000000000000E+000
  0.000000000000000E+000
  0.000000000000000E+000
  0.000000000000000E+000
  0.000000000000000E+000
  0.000000000000000E+000
  0.000000000000000E+000
  0.000000000000000E+000
  0.000000000000000E+000
  0.000000000000000E+000
  0.000000000000000E+000
  0.000000000000000E+000
  0.000000000000000E+000
  0.000000000000000E+000
  0.000000000000000E+000
  0.000000000000000E+000
  0.000000000000000E+000
  0.000000000000000E+000
  0.000000000000000E+000
  0.000000000000000E+000
  0.000000000000000E+000
  0.000000000000000E+000
  0.000000000000000E+000
  0.000000000000000E+000
  0.000000000000000E+000
  0.000000000000000E+000
  0.000000000000000E+000
  0.000000000000000E+000
  0.000000000000000E+000
  0.000000000000000E+000
  0.000000000000000E+000
  0.000000000000000E+000
  0.000000000000000E+000
  0.000000000000000E+000
  0.000000000000000E+000
  0.000000000000000E+000
  0.000000000000000E+000
  0.000000000000000E+000
  0.000000000000000E+000
  0.000000000000000E+000
  0.000000000000000E+000
  0.000000000000000E+000
  0.000000000000000E+000
  0.000000000000000E+000
  0.000000000000000E+000
  0.000000000000000E+000
  0.000000000000000E+000
  0.000000000000000E+000
  0.000000000000000E+000
  0.000000000000000E+000
  0.000000000000000E+000
  0.000000000000000E+000
  0.000000000000000E+000
  0.000000000000000E+000
  0.000000000000000E+000
  0.000000000000000E+000
  0.000000000000000E+000
  0.000000000000000E+000
  0.000000000000000E+000
  0.000000000000000E+000
  0.000000000000000E+000
  0.000000000000000E+000
  0.000000000000000E+000
  0.000000000000000E+000
  0.000000000000000E+000
  0.000000000000000E+000
  0.000000000000000E+000
  0.000000000000000E+000
  0.000000000000000E+000
  0.000000000000000E+000
  0.000000000000000E+000
  0.000000000000000E+000
  0.000000000000000E+000
  0.000000000000000E+000
  0.000000000000000E+000
  0.000000000000000E+000
  0.000000000000000E+000
  0.000000000000000E+000
  0.000000000000000E+000
  0.000000000000000E+000
  0.000000000000000E+000
  0.000000000000000E+000
  0.000000000000000E+000
  0.000000000000000E+000
  0.000000000000000E+000
  0.000000000000000E+000
  0.000000000000000E+000
  0.000000000000000E+000
  0.000000000000000E+000
  0.000000000000000E+000
  0.000000000000000E+000
  0.000000000000000E+000
  0.000000000000000E+000
  0.000000000000000E+000
  0.000000000000000E+000
  0.000000000000000E+000
  0.000000000000000E+000
  0.000000000000000E+000
  0.000000000000000E+000
  0.000000000000000E+000
  0.000000000000000E+000
  0.000000000000000E+000
  0.000000000000000E+000
  0.000000000000000E+000
  0.000000000000000E+000
  0.000000000000000E+000
  0.000000000000000E+000
  0.000000000000000E+000
  0.000000000000000E+000
  0.000000000000000E+000
  0.000000000000000E+000
  0.000000000000000E+000
  0.000000000000000E+000
  0.000000000000000E+000
  0.000000000000000E+000
  0.000000000000000E+000
  0.000000000000000E+000
  0.000000000000000E+000
  0.000000000000000E+000
  0.000000000000000E+000
  0.000000000000000E+000
  0.000000000000000E+000
  0.000000000000000E+000
  0.000000000000000E+000
  0.000000000000000E+000
  0.000000000000000E+000
  0.000000000000000E+000
  0.000000000000000E+000
  0.000000000000000E+000
  0.000000000000000E+000
  0.000000000000000E+000
  0.000000000000000E+000
  0.000000000000000E+000
  0.000000000000000E+000
  0.000000000000000E+000
  0.000000000000000E+000
  0.000000000000000E+000
  0.000000000000000E+000
  0.000000000000000E+000
  0.000000000000000E+000
  0.000000000000000E+000
  0.000000000000000E+000
  0.000000000000000E+000
  0.000000000000000E+000
  0.000000000000000E+000
  0.000000000000000E+000
  0.000000000000000E+000
  0.000000000000000E+000
  0.000000000000000E+000
  0.000000000000000E+000
  0.000000000000000E+000
  0.000000000000000E+000
  0.000000000000000E+000
  0.000000000000000E+000
  0.000000000000000E+000
  0.000000000000000E+000
  0.000000000000000E+000
  0.000000000000000E+000
  0.000000000000000E+000
  0.000000000000000E+000
  0.000000000000000E+000
  0.000000000000000E+000
  0.000000000000000E+000
  0.000000000000000E+000
  0.000000000000000E+000
  0.000000000000000E+000
  0.000000000000000E+000
  0.000000000000000E+000
  0.000000000000000E+000
  0.000000000000000E+000
  0.000000000000000E+000
  0.000000000000000E+000
  0.000000000000000E+000
  0.000000000000000E+000
  0.000000000000000E+000
  0.000000000000000E+000
  0.000000000000000E+000
  0.000000000000000E+000
  0.000000000000000E+000
  0.000000000000000E+000
  0.000000000000000E+000
  0.000000000000000E+000
  0.000000000000000E+000
  0.000000000000000E+000
  0.000000000000000E+000
  0.000000000000000E+000
  0.000000000000000E+000
  0.000000000000000E+000
  0.000000000000000E+000
  0.000000000000000E+000
  0.000000000000000E+000
  0.000000000000000E+000
  0.000000000000000E+000
  0.000000000000000E+000
  0.000000000000000E+000
  0.000000000000000E+000
  0.000000000000000E+000
  0.000000000000000E+000
  0.000000000000000E+000
  0.000000000000000E+000
  0.000000000000000E+000
  0.000000000000000E+000
  0.000000000000000E+000
  0.000000000000000E+000
  0.000000000000000E+000
  0.000000000000000E+000
  0.000000000000000E+000
  0.000000000000000E+000
  0.000000000000000E+000
  0.000000000000000E+000
  0.000000000000000E+000
  0.000000000000000E+000
  0.000000000000000E+000
  0.000000000000000E+000
  0.000000000000000E+000
  0.000000000000000E+000
  0.000000000000000E+000
  0.000000000000000E+000
  0.000000000000000E+000
  0.000000000000000E+000
  0.000000000000000E+000
  0.000000000000000E+000
  0.000000000000000E+000
  0.000000000000000E+000
  0.000000000000000E+000
  0.000000000000000E+000
  0.000000000000000E+000
  0.000000000000000E+000
  0.000000000000000E+000
  0.000000000000000E+000
  0.000000000000000E+000
  0.000000000000000E+000
  0.000000000000000E+000
  0.000000000000000E+000
  0.000000000000000E+000
  0.000000000000000E+000
  0.000000000000000E+000
  0.000000000000000E+000
  0.000000000000000E+000
  0.000000000000000E+000
  0.000000000000000E+000
  0.000000000000000E+000
  0.000000000000000E+000
  0.000000000000000E+000
  0.000000000000000E+000
  0.000000000000000E+000
  0.000000000000000E+000
  0.000000000000000E+000
  0.000000000000000E+000
  0.000000000000000E+000
  0.000000000000000E+000
  0.000000000000000E+000
  0.000000000000000E+000
  0.000000000000000E+000
  0.000000000000000E+000
  0.000000000000000E+000
  0.000000000000000E+000
  0.000000000000000E+000
  0.000000000000000E+000
  0.000000000000000E+000
  0.000000000000000E+000
  0.000000000000000E+000
  0.000000000000000E+000
  0.000000000000000E+000
  0.000000000000000E+000
  0.000000000000000E+000
  0.000000000000000E+000
  0.000000000000000E+000
  0.000000000000000E+000
  0.000000000000000E+000
  0.000000000000000E+000
  0.000000000000000E+000
  0.000000000000000E+000
  0.000000000000000E+000
  0.000000000000000E+000
  0.000000000000000E+000
  0.000000000000000E+000
  0.000000000000000E+000
  0.000000000000000E+000
  0.000000000000000E+000
  0.000000000000000E+000
  0.000000000000000E+000
  0.000000000000000E+000
  0.000000000000000E+000
  0.000000000000000E+000
  0.000000000000000E+000
  0.000000000000000E+000
  0.000000000000000E+000
  0.000000000000000E+000
  0.000000000000000E+000
  0.000000000000000E+000
  0.000000000000000E+000
  0.000000000000000E+000
  0.000000000000000E+000
  0.000000000000000E+000
  0.000000000000000E+000
  0.000000000000000E+000
  0.000000000000000E+000
  0.000000000000000E+000
  0.000000000000000E+000
  0.000000000000000E+000
  0.000000000000000E+000
  0.000000000000000E+000
  0.000000000000000E+000
  0.000000000000000E+000
  0.000000000000000E+000
  0.000000000000000E+000
  0.000000000000000E+000
  0.000000000000000E+000
  0.000000000000000E+000
  0.000000000000000E+000
  0.000000000000000E+000
  0.000000000000000E+000
  0.000000000000000E+000
  0.000000000000000E+000
  0.000000000000000E+000
  0.000000000000000E+000
  0.000000000000000E+000
  0.000000000000000E+000
  0.000000000000000E+000
  0.000000000000000E+000
  0.000000000000000E+000
  0.000000000000000E+000
  0.000000000000000E+000
  0.000000000000000E+000
  0.000000000000000E+000
  0.000000000000000E+000
  0.000000000000000E+000
  0.000000000000000E+000
  0.000000000000000E+000
  0.000000000000000E+000
  0.000000000000000E+000
  0.000000000000000E+000
  0.000000000000000E+000
  0.000000000000000E+000
  0.000000000000000E+000
  0.000000000000000E+000
  0.000000000000000E+000
  0.000000000000000E+000
  0.000000000000000E+000
  0.000000000000000E+000
  0.000000000000000E+000
  0.000000000000000E+000
  0.000000000000000E+000
  0.000000000000000E+000
  0.000000000000000E+000
  0.000000000000000E+000
  0.000000000000000E+000
  0.000000000000000E+000
  0.000000000000000E+000
  0.000000000000000E+000
  0.000000000000000E+000
  0.000000000000000E+000
  0.000000000000000E+000
  0.000000000000000E+000
  0.000000000000000E+000
  0.000000000000000E+000
  0.000000000000000E+000
  0.000000000000000E+000
  0.000000000000000E+000
  0.000000000000000E+000
  0.000000000000000E+000
  0.000000000000000E+000
  0.000000000000000E+000
  0.000000000000000E+000
  0.000000000000000E+000
  0.000000000000000E+000
  0.000000000000000E+000
  0.000000000000000E+000
  0.000000000000000E+000
  0.000000000000000E+000
  0.000000000000000E+000
  0.000000000000000E+000
  0.000000000000000E+000
  0.000000000000000E+000
  0.000000000000000E+000
  0.000000000000000E+000
  0.000000000000000E+000
  0.000000000000000E+000
  0.000000000000000E+000
  0.000000000000000E+000
  0.000000000000000E+000
  0.000000000000000E+000
  0.000000000000000E+000
  0.000000000000000E+000
  0.000000000000000E+000
  0.000000000000000E+000
  0.000000000000000E+000
  0.000000000000000E+000
  0.000000000000000E+000
  0.000000000000000E+000
  0.000000000000000E+000
  0.000000000000000E+000
  0.000000000000000E+000
  0.000000000000000E+000
  0.000000000000000E+000
  0.000000000000000E+000
  0.000000000000000E+000
  0.000000000000000E+000
  0.000000000000000E+000
  0.000000000000000E+000
  0.000000000000000E+000
  0.000000000000000E+000
  0.000000000000000E+000
  0.000000000000000E+000
  0.000000000000000E+000
  0.000000000000000E+000
  0.000000000000000E+000
  0.000000000000000E+000
  0.000000000000000E+000
  0.000000000000000E+000
  0.000000000000000E+000
  0.000000000000000E+000
  0.000000000000000E+000
  0.000000000000000E+000
  0.000000000000000E+000
  0.000000000000000E+000
  0.000000000000000E+000
  0.000000000000000E+000
  0.000000000000000E+000
  0.000000000000000E+000
  0.000000000000000E+000
  0.000000000000000E+000
  0.000000000000000E+000
  0.000000000000000E+000
  0.000000000000000E+000
  0.000000000000000E+000
  0.000000000000000E+000
  0.000000000000000E+000
  0.000000000000000E+000
  0.000000000000000E+000
  0.000000000000000E+000
  0.000000000000000E+000
  0.000000000000000E+000
  0.000000000000000E+000
  0.000000000000000E+000
  0.000000000000000E+000
  0.000000000000000E+000
  0.000000000000000E+000
  0.000000000000000E+000
  0.000000000000000E+000
  0.000000000000000E+000
  0.000000000000000E+000
  0.000000000000000E+000
  0.000000000000000E+000
  0.000000000000000E+000
  0.000000000000000E+000
  0.000000000000000E+000
  0.000000000000000E+000
  0.000000000000000E+000
  0.000000000000000E+000
  0.000000000000000E+000
  0.000000000000000E+000
  0.000000000000000E+000
  0.000000000000000E+000
  0.000000000000000E+000
  0.000000000000000E+000
  0.000000000000000E+000
  0.000000000000000E+000
  0.000000000000000E+000
  0.000000000000000E+000
  0.000000000000000E+000
  0.000000000000000E+000
  0.000000000000000E+000
  0.000000000000000E+000
  0.000000000000000E+000
  0.000000000000000E+000
  0.000000000000000E+000
  0.000000000000000E+000
  0.000000000000000E+000
  0.000000000000000E+000
  0.000000000000000E+000
  0.000000000000000E+000
  0.000000000000000E+000
  0.000000000000000E+000
  0.000000000000000E+000
  0.000000000000000E+000
  0.000000000000000E+000
  0.000000000000000E+000
  0.000000000000000E+000
  0.000000000000000E+000
  0.000000000000000E+000
  0.000000000000000E+000
  0.000000000000000E+000
  0.000000000000000E+000
  0.000000000000000E+000
  0.000000000000000E+000
  0.000000000000000E+000
  0.000000000000000E+000
  0.000000000000000E+000
  0.000000000000000E+000
  0.000000000000000E+000
  0.000000000000000E+000
  0.000000000000000E+000
  0.000000000000000E+000
  0.000000000000000E+000
  0.000000000000000E+000
  0.000000000000000E+000
  0.000000000000000E+000
  0.000000000000000E+000
  0.000000000000000E+000
  0.000000000000000E+000
  0.000000000000000E+000
  0.000000000000000E+000
  0.000000000000000E+000
  0.000000000000000E+000
  0.000000000000000E+000
  0.000000000000000E+000
  0.000000000000000E+000
  0.000000000000000E+000
  0.000000000000000E+000
  0.000000000000000E+000
  0.000000000000000E+000
  0.000000000000000E+000
  0.000000000000000E+000
  0.000000000000000E+000
  0.000000000000000E+000
  0.000000000000000E+000
  0.000000000000000E+000
  0.000000000000000E+000
  0.000000000000000E+000
  0.000000000000000E+000
  0.000000000000000E+000
  0.000000000000000E+000
  0.000000000000000E+000
  0.000000000000000E+000
  0.000000000000000E+000
  0.000000000000000E+000
  0.000000000000000E+000
  0.000000000000000E+000
  0.000000000000000E+000
  0.000000000000000E+000
  0.000000000000000E+000
  0.000000000000000E+000
  0.000000000000000E+000
  0.000000000000000E+000
  0.000000000000000E+000
  0.000000000000000E+000
  0.000000000000000E+000
  0.000000000000000E+000
  0.000000000000000E+000
  0.000000000000000E+000
  0.000000000000000E+000
  0.000000000000000E+000
  0.000000000000000E+000
  0.000000000000000E+000
  0.000000000000000E+000
  0.000000000000000E+000
  0.000000000000000E+000
  0.000000000000000E+000
  0.000000000000000E+000
  0.000000000000000E+000
  0.000000000000000E+000
  0.000000000000000E+000
  0.000000000000000E+000
  0.000000000000000E+000
  0.000000000000000E+000
  0.000000000000000E+000
  0.000000000000000E+000
  0.000000000000000E+000
  0.000000000000000E+000
  0.000000000000000E+000
  0.000000000000000E+000
  0.000000000000000E+000
  0.000000000000000E+000
  0.000000000000000E+000
  0.000000000000000E+000
  0.000000000000000E+000
  0.000000000000000E+000
  0.000000000000000E+000
  0.000000000000000E+000
  0.000000000000000E+000
  0.000000000000000E+000
  0.000000000000000E+000
  0.000000000000000E+000
  0.000000000000000E+000
  0.000000000000000E+000
  0.000000000000000E+000
  0.000000000000000E+000
  0.000000000000000E+000
  0.000000000000000E+000
  0.000000000000000E+000
  0.000000000000000E+000
  0.000000000000000E+000
  0.000000000000000E+000
  0.000000000000000E+000
  0.000000000000000E+000
  0.000000000000000E+000
  0.000000000000000E+000
  0.000000000000000E+000
  0.000000000000000E+000
  0.000000000000000E+000
  0.000000000000000E+000
  0.000000000000000E+000
  0.000000000000000E+000
  0.000000000000000E+000
  0.000000000000000E+000
  0.000000000000000E+000
  0.000000000000000E+000
  0.000000000000000E+000
  0.000000000000000E+000
  0.000000000000000E+000
  0.000000000000000E+000
  0.000000000000000E+000
  0.000000000000000E+000
  0.000000000000000E+000
  0.000000000000000E+000
  0.000000000000000E+000
  0.000000000000000E+000
  0.000000000000000E+000
  0.000000000000000E+000
  0.000000000000000E+000
  0.000000000000000E+000
  0.000000000000000E+000
  0.000000000000000E+000
  0.000000000000000E+000
  0.000000000000000E+000
  0.000000000000000E+000
  0.000000000000000E+000
  0.000000000000000E+000
  0.000000000000000E+000
  0.000000000000000E+000
  0.000000000000000E+000
  0.000000000000000E+000
  0.000000000000000E+000
  0.000000000000000E+000
  0.000000000000000E+000
  0.000000000000000E+000
  0.000000000000000E+000
  0.000000000000000E+000
  0.000000000000000E+000
  0.000000000000000E+000
  0.000000000000000E+000
  0.000000000000000E+000
  0.000000000000000E+000
  0.000000000000000E+000
  0.000000000000000E+000
  0.000000000000000E+000
  0.000000000000000E+000
  0.000000000000000E+000
  0.000000000000000E+000
  0.000000000000000E+000
  0.000000000000000E+000
  0.000000000000000E+000
  0.000000000000000E+000
  0.000000000000000E+000
  0.000000000000000E+000
  0.000000000000000E+000
  0.000000000000000E+000
  0.000000000000000E+000
  0.000000000000000E+000
  0.000000000000000E+000
  0.000000000000000E+000
  0.000000000000000E+000
  0.000000000000000E+000
  0.000000000000000E+000
  0.000000000000000E+000
  0.000000000000000E+000
  0.000000000000000E+000
  0.000000000000000E+000
  0.000000000000000E+000
  0.000000000000000E+000
  0.000000000000000E+000
  0.000000000000000E+000
  0.000000000000000E+000
  0.000000000000000E+000
  0.000000000000000E+000
  0.000000000000000E+000
  0.000000000000000E+000
  0.000000000000000E+000
  0.000000000000000E+000
  0.000000000000000E+000
  0.000000000000000E+000
  0.000000000000000E+000
  0.000000000000000E+000
  0.000000000000000E+000
  0.000000000000000E+000
  0.000000000000000E+000
  0.000000000000000E+000
  0.000000000000000E+000
  0.000000000000000E+000
  0.000000000000000E+000
  0.000000000000000E+000
  0.000000000000000E+000
  0.000000000000000E+000
  0.000000000000000E+000
  0.000000000000000E+000
  0.000000000000000E+000
  0.000000000000000E+000
  0.000000000000000E+000
  0.000000000000000E+000
  0.000000000000000E+000
  0.000000000000000E+000
  0.000000000000000E+000
  0.000000000000000E+000
  0.000000000000000E+000
  0.000000000000000E+000
  0.000000000000000E+000
  0.000000000000000E+000
  0.000000000000000E+000
  0.000000000000000E+000
  0.000000000000000E+000
  0.000000000000000E+000
  0.000000000000000E+000
  0.000000000000000E+000
  0.000000000000000E+000
  0.000000000000000E+000
  0.000000000000000E+000
  0.000000000000000E+000
  0.000000000000000E+000
  0.000000000000000E+000
  0.000000000000000E+000
  0.000000000000000E+000
  0.000000000000000E+000
  0.000000000000000E+000
  0.000000000000000E+000
  0.000000000000000E+000
  0.000000000000000E+000
  0.000000000000000E+000
  0.000000000000000E+000
  0.000000000000000E+000
  0.000000000000000E+000
  0.000000000000000E+000
  0.000000000000000E+000
  0.000000000000000E+000
  0.000000000000000E+000
  0.000000000000000E+000
  0.000000000000000E+000
  0.000000000000000E+000
  0.000000000000000E+000
  0.000000000000000E+000
  0.000000000000000E+000
  0.000000000000000E+000
  0.000000000000000E+000
  0.000000000000000E+000
  0.000000000000000E+000
  0.000000000000000E+000
  0.000000000000000E+000
  0.000000000000000E+000
  0.000000000000000E+000
  0.000000000000000E+000
  0.000000000000000E+000
  0.000000000000000E+000
  0.000000000000000E+000
  0.000000000000000E+000
  0.000000000000000E+000
  0.000000000000000E+000
  0.000000000000000E+000
  0.000000000000000E+000
  0.000000000000000E+000
  0.000000000000000E+000
  0.000000000000000E+000
  0.000000000000000E+000
  0.000000000000000E+000
  0.000000000000000E+000
  0.000000000000000E+000
  0.000000000000000E+000
  0.000000000000000E+000
  0.000000000000000E+000
  0.000000000000000E+000
  0.000000000000000E+000
  0.000000000000000E+000
  0.000000000000000E+000
  0.000000000000000E+000
  0.000000000000000E+000
  0.000000000000000E+000
  0.000000000000000E+000
  0.000000000000000E+000
  0.000000000000000E+000
  0.000000000000000E+000
  0.000000000000000E+000
  0.000000000000000E+000
  0.000000000000000E+000
  0.000000000000000E+000
  0.000000000000000E+000
  0.000000000000000E+000
  0.000000000000000E+000
  0.000000000000000E+000
  0.000000000000000E+000
  0.000000000000000E+000
  0.000000000000000E+000
  0.000000000000000E+000
  0.000000000000000E+000
  0.000000000000000E+000
  0.000000000000000E+000
  0.000000000000000E+000
  0.000000000000000E+000
  0.000000000000000E+000
  0.000000000000000E+000
  0.000000000000000E+000
  0.000000000000000E+000
  0.000000000000000E+000
  0.000000000000000E+000
  0.000000000000000E+000
  0.000000000000000E+000
  0.000000000000000E+000
  0.000000000000000E+000
  0.000000000000000E+000
  0.000000000000000E+000
  0.000000000000000E+000
  0.000000000000000E+000
  0.000000000000000E+000
  0.000000000000000E+000
  0.000000000000000E+000
  0.000000000000000E+000
  0.000000000000000E+000
  0.000000000000000E+000
  0.000000000000000E+000
  0.000000000000000E+000
  0.000000000000000E+000
  0.000000000000000E+000
  0.000000000000000E+000
  0.000000000000000E+000
  0.000000000000000E+000
  0.000000000000000E+000
  0.000000000000000E+000
  0.000000000000000E+000
  0.000000000000000E+000
  0.000000000000000E+000
  0.000000000000000E+000
  0.000000000000000E+000
  0.000000000000000E+000
  0.000000000000000E+000
  0.000000000000000E+000
  0.000000000000000E+000
  0.000000000000000E+000
  0.000000000000000E+000
  0.000000000000000E+000
  0.000000000000000E+000
  0.000000000000000E+000
  0.000000000000000E+000
  0.000000000000000E+000
  0.000000000000000E+000
  0.000000000000000E+000
  0.000000000000000E+000
  0.000000000000000E+000
  0.000000000000000E+000
  0.000000000000000E+000
  0.000000000000000E+000
  0.000000000000000E+000
  0.000000000000000E+000
  0.000000000000000E+000
  0.000000000000000E+000
  0.000000000000000E+000
  0.000000000000000E+000
  0.000000000000000E+000
  0.000000000000000E+000
  0.000000000000000E+000
  0.000000000000000E+000
  0.000000000000000E+000
  0.000000000000000E+000
  0.000000000000000E+000
  0.000000000000000E+000
  0.000000000000000E+000
  0.000000000000000E+000
  0.000000000000000E+000
  0.000000000000000E+000
  0.000000000000000E+000
  0.000000000000000E+000
  0.000000000000000E+000
  0.000000000000000E+000
  0.000000000000000E+000
  0.000000000000000E+000
  0.000000000000000E+000
  0.000000000000000E+000
  0.000000000000000E+000
  0.000000000000000E+000
  0.000000000000000E+000
  0.000000000000000E+000
  0.000000000000000E+000
  0.000000000000000E+000
  0.000000000000000E+000
  0.000000000000000E+000
  0.000000000000000E+000
  0.000000000000000E+000
  0.000000000000000E+000
  0.000000000000000E+000
  0.000000000000000E+000
  0.000000000000000E+000
  0.000000000000000E+000
  0.000000000000000E+000
  0.000000000000000E+000
  0.000000000000000E+000
  0.000000000000000E+000
  0.000000000000000E+000
  0.000000000000000E+000
  0.000000000000000E+000
  0.000000000000000E+000
  0.000000000000000E+000
  0.000000000000000E+000
  0.000000000000000E+000
  0.000000000000000E+000
  0.000000000000000E+000
  0.000000000000000E+000
  0.000000000000000E+000
  0.000000000000000E+000
  0.000000000000000E+000
  0.000000000000000E+000
  0.000000000000000E+000
  0.000000000000000E+000
  0.000000000000000E+000
  0.000000000000000E+000
  0.000000000000000E+000
  0.000000000000000E+000
  0.000000000000000E+000
  0.000000000000000E+000
  0.000000000000000E+000
  0.000000000000000E+000
  0.000000000000000E+000
  0.000000000000000E+000
  0.000000000000000E+000
  0.000000000000000E+000
  0.000000000000000E+000
  0.000000000000000E+000
  0.000000000000000E+000
  0.000000000000000E+000
  0.000000000000000E+000
  0.000000000000000E+000
  0.000000000000000E+000
  0.000000000000000E+000
  0.000000000000000E+000
  0.000000000000000E+000
  0.000000000000000E+000
  0.000000000000000E+000
  0.000000000000000E+000
  0.000000000000000E+000
  0.000000000000000E+000
  0.000000000000000E+000
  0.000000000000000E+000
  0.000000000000000E+000
  0.000000000000000E+000
  0.000000000000000E+000
  0.000000000000000E+000
  0.000000000000000E+000
  0.000000000000000E+000
  0.000000000000000E+000
  0.000000000000000E+000
  0.000000000000000E+000
  0.000000000000000E+000
  0.000000000000000E+000
  0.000000000000000E+000
  0.000000000000000E+000
  0.000000000000000E+000
  0.000000000000000E+000
  0.000000000000000E+000
  0.000000000000000E+000
  0.000000000000000E+000
  0.000000000000000E+000
  0.000000000000000E+000
  0.000000000000000E+000
  0.000000000000000E+000
  0.000000000000000E+000
  0.000000000000000E+000
  0.000000000000000E+000
  0.000000000000000E+000
  0.000000000000000E+000
  0.000000000000000E+000
  0.000000000000000E+000
  0.000000000000000E+000
  0.000000000000000E+000
  0.000000000000000E+000
  0.000000000000000E+000
  0.000000000000000E+000
  0.000000000000000E+000
  0.000000000000000E+000
  0.000000000000000E+000
  0.000000000000000E+000
  0.000000000000000E+000
  0.000000000000000E+000
  0.000000000000000E+000
  0.000000000000000E+000
  0.000000000000000E+000
  0.000000000000000E+000
  0.000000000000000E+000
  0.000000000000000E+000
  0.000000000000000E+000
  0.000000000000000E+000
  0.000000000000000E+000
  0.000000000000000E+000
  0.000000000000000E+000
  0.000000000000000E+000
  0.000000000000000E+000
  0.000000000000000E+000
  0.000000000000000E+000
  0.000000000000000E+000
  0.000000000000000E+000
  0.000000000000000E+000
  0.000000000000000E+000
  0.000000000000000E+000
  0.000000000000000E+000
  0.000000000000000E+000
  0.000000000000000E+000
  0.000000000000000E+000
  0.000000000000000E+000
  0.000000000000000E+000
  0.000000000000000E+000
  0.000000000000000E+000
  0.000000000000000E+000
  0.000000000000000E+000
  0.000000000000000E+000
  0.000000000000000E+000
  0.000000000000000E+000
  0.000000000000000E+000
  0.000000000000000E+000
  0.000000000000000E+000
  0.000000000000000E+000
  0.000000000000000E+000
  0.000000000000000E+000
  0.000000000000000E+000
  0.000000000000000E+000
  0.000000000000000E+000
  0.000000000000000E+000
  0.000000000000000E+000
  0.000000000000000E+000
  0.000000000000000E+000
  0.000000000000000E+000
  0.000000000000000E+000
  0.000000000000000E+000
  0.000000000000000E+000
  0.000000000000000E+000
  0.000000000000000E+000
  0.000000000000000E+000
  0.000000000000000E+000
  0.000000000000000E+000
  0.000000000000000E+000
  0.000000000000000E+000
  0.000000000000000E+000
  0.000000000000000E+000
  0.000000000000000E+000
  0.000000000000000E+000
  0.000000000000000E+000
  0.000000000000000E+000
  0.000000000000000E+000
  0.000000000000000E+000
  0.000000000000000E+000
  0.000000000000000E+000
  0.000000000000000E+000
  0.000000000000000E+000
  0.000000000000000E+000
  0.000000000000000E+000
  0.000000000000000E+000
  0.000000000000000E+000
  0.000000000000000E+000
  0.000000000000000E+000
  0.000000000000000E+000
  0.000000000000000E+000
  0.000000000000000E+000
  0.000000000000000E+000
  0.000000000000000E+000
  0.000000000000000E+000
  0.000000000000000E+000
  0.000000000000000E+000
  0.000000000000000E+000
  0.000000000000000E+000
  0.000000000000000E+000
  0.000000000000000E+000
  0.000000000000000E+000
  0.000000000000000E+000
  0.000000000000000E+000
  0.000000000000000E+000
  0.000000000000000E+000
  0.000000000000000E+000
  0.000000000000000E+000
  0.000000000000000E+000
  0.000000000000000E+000
  0.000000000000000E+000
  0.000000000000000E+000
  0.000000000000000E+000
  0.000000000000000E+000
  0.000000000000000E+000
  0.000000000000000E+000
  0.000000000000000E+000
  0.000000000000000E+000
  0.000000000000000E+000
  0.000000000000000E+000
  0.000000000000000E+000
  0.000000000000000E+000
  0.000000000000000E+000
  0.000000000000000E+000
  0.000000000000000E+000
  0.000000000000000E+000
  0.000000000000000E+000
  0.000000000000000E+000
  0.000000000000000E+000
  0.000000000000000E+000
  0.000000000000000E+000
  0.000000000000000E+000
  0.000000000000000E+000
  0.000000000000000E+000
  0.000000000000000E+000
  0.000000000000000E+000
  0.000000000000000E+000
  0.000000000000000E+000
  0.000000000000000E+000
  0.000000000000000E+000
  0.000000000000000E+000
  0.000000000000000E+000
  0.000000000000000E+000
  0.000000000000000E+000
  0.000000000000000E+000
  0.000000000000000E+000
  0.000000000000000E+000
  0.000000000000000E+000
  0.000000000000000E+000
  0.000000000000000E+000
  0.000000000000000E+000
  0.000000000000000E+000
  0.000000000000000E+000
  0.000000000000000E+000
  0.000000000000000E+000
  0.000000000000000E+000
  0.000000000000000E+000
  0.000000000000000E+000
  0.000000000000000E+000
  0.000000000000000E+000
  0.000000000000000E+000
  0.000000000000000E+000
  0.000000000000000E+000
  0.000000000000000E+000
  0.000000000000000E+000
  0.000000000000000E+000
  0.000000000000000E+000
  0.000000000000000E+000
  0.000000000000000E+000
  0.000000000000000E+000
  0.000000000000000E+000
  0.000000000000000E+000
  0.000000000000000E+000
  0.000000000000000E+000
  0.000000000000000E+000
  0.000000000000000E+000
  0.000000000000000E+000
  0.000000000000000E+000
  0.000000000000000E+000
  0.000000000000000E+000
  0.000000000000000E+000
  0.000000000000000E+000
  0.000000000000000E+000
  0.000000000000000E+000
  0.000000000000000E+000
  0.000000000000000E+000
  0.000000000000000E+000
  0.000000000000000E+000
  0.000000000000000E+000
  0.000000000000000E+000
  0.000000000000000E+000
  0.000000000000000E+000
  0.000000000000000E+000
  0.000000000000000E+000
  0.000000000000000E+000
  0.000000000000000E+000
  0.000000000000000E+000
  0.000000000000000E+000
  0.000000000000000E+000
  0.000000000000000E+000
  0.000000000000000E+000
  0.000000000000000E+000
  0.000000000000000E+000
  0.000000000000000E+000
  0.000000000000000E+000
  0.000000000000000E+000
  0.000000000000000E+000
  0.000000000000000E+000
  0.000000000000000E+000
  0.000000000000000E+000
  0.000000000000000E+000
  0.000000000000000E+000
  0.000000000000000E+000
  0.000000000000000E+000
  0.000000000000000E+000
  0.000000000000000E+000
  0.000000000000000E+000
  0.000000000000000E+000
  0.000000000000000E+000
  0.000000000000000E+000
  0.000000000000000E+000
  0.000000000000000E+000
  0.000000000000000E+000
  0.000000000000000E+000
  0.000000000000000E+000
  0.000000000000000E+000
  0.000000000000000E+000
  0.000000000000000E+000
  0.000000000000000E+000
  0.000000000000000E+000
  0.000000000000000E+000
  0.000000000000000E+000
  0.000000000000000E+000
  0.000000000000000E+000
  0.000000000000000E+000
  0.000000000000000E+000
  0.000000000000000E+000
  0.000000000000000E+000
  0.000000000000000E+000
  0.000000000000000E+000
  0.000000000000000E+000
  0.000000000000000E+000
  0.000000000000000E+000
  0.000000000000000E+000
  0.000000000000000E+000
  0.000000000000000E+000
  0.000000000000000E+000
  0.000000000000000E+000
  0.000000000000000E+000
  0.000000000000000E+000
  0.000000000000000E+000
  0.000000000000000E+000
  0.000000000000000E+000
  0.000000000000000E+000
  0.000000000000000E+000
  0.000000000000000E+000
  0.000000000000000E+000
  0.000000000000000E+000
  0.000000000000000E+000
  0.000000000000000E+000
  0.000000000000000E+000
  0.000000000000000E+000
  0.000000000000000E+000
  0.000000000000000E+000
  0.000000000000000E+000
  0.000000000000000E+000
  0.000000000000000E+000
  0.000000000000000E+000
  0.000000000000000E+000
  0.000000000000000E+000
  0.000000000000000E+000
  0.000000000000000E+000
  0.000000000000000E+000
  0.000000000000000E+000
  0.000000000000000E+000
  0.000000000000000E+000
  0.000000000000000E+000
  0.000000000000000E+000
  0.000000000000000E+000
  0.000000000000000E+000
  0.000000000000000E+000
  0.000000000000000E+000
  0.000000000000000E+000
  0.000000000000000E+000
  0.000000000000000E+000
  0.000000000000000E+000
  0.000000000000000E+000
  0.000000000000000E+000
  0.000000000000000E+000
  0.000000000000000E+000
  0.000000000000000E+000
  0.000000000000000E+000
  0.000000000000000E+000
  0.000000000000000E+000
  0.000000000000000E+000
  0.000000000000000E+000
  0.000000000000000E+000
  0.000000000000000E+000
  0.000000000000000E+000
  0.000000000000000E+000
  0.000000000000000E+000
  0.000000000000000E+000
  0.000000000000000E+000
  0.000000000000000E+000
  0.000000000000000E+000
  0.000000000000000E+000
  0.000000000000000E+000
  0.000000000000000E+000
  0.000000000000000E+000
  0.000000000000000E+000
  0.000000000000000E+000
  0.000000000000000E+000
  0.000000000000000E+000
  0.000000000000000E+000
  0.000000000000000E+000
  0.000000000000000E+000
  0.000000000000000E+000
  0.000000000000000E+000
  0.000000000000000E+000
  0.000000000000000E+000
  0.000000000000000E+000
  0.000000000000000E+000
  0.000000000000000E+000
  0.000000000000000E+000
  0.000000000000000E+000
  0.000000000000000E+000
  0.000000000000000E+000
  0.000000000000000E+000
  0.000000000000000E+000
  0.000000000000000E+000
  0.000000000000000E+000
  0.000000000000000E+000
  0.000000000000000E+000
  0.000000000000000E+000
  0.000000000000000E+000
  0.000000000000000E+000
  0.000000000000000E+000
  0.000000000000000E+000
  0.000000000000000E+000
  0.000000000000000E+000
  0.000000000000000E+000
  0.000000000000000E+000
  0.000000000000000E+000
  0.000000000000000E+000
  0.000000000000000E+000
  0.000000000000000E+000
  0.000000000000000E+000
  0.000000000000000E+000
  0.000000000000000E+000
  0.000000000000000E+000
  0.000000000000000E+000
  0.000000000000000E+000
  0.000000000000000E+000
  0.000000000000000E+000
  0.000000000000000E+000
  0.000000000000000E+000
  0.000000000000000E+000
  0.000000000000000E+000
  0.000000000000000E+000
  0.000000000000000E+000
  0.000000000000000E+000
  0.000000000000000E+000
  0.000000000000000E+000
  0.000000000000000E+000
  0.000000000000000E+000
  0.000000000000000E+000
  0.000000000000000E+000
  0.000000000000000E+000
  0.000000000000000E+000
  0.000000000000000E+000
  0.000000000000000E+000
  0.000000000000000E+000
  0.000000000000000E+000
  0.000000000000000E+000
  0.000000000000000E+000
  0.000000000000000E+000
  0.000000000000000E+000
  0.000000000000000E+000
  0.000000000000000E+000
  0.000000000000000E+000
  0.000000000000000E+000
  0.000000000000000E+000
  0.000000000000000E+000
  0.000000000000000E+000
  0.000000000000000E+000
  0.000000000000000E+000
  0.000000000000000E+000
  0.000000000000000E+000
  0.000000000000000E+000
  0.000000000000000E+000
  0.000000000000000E+000
  0.000000000000000E+000
  0.000000000000000E+000
  0.000000000000000E+000
  0.000000000000000E+000
  0.000000000000000E+000
  0.000000000000000E+000
  0.000000000000000E+000
  0.000000000000000E+000
  0.000000000000000E+000
  0.000000000000000E+000
  0.000000000000000E+000
  0.000000000000000E+000
  0.000000000000000E+000
  0.000000000000000E+000
  0.000000000000000E+000
  0.000000000000000E+000
  0.000000000000000E+000
  0.000000000000000E+000
  0.000000000000000E+000
  0.000000000000000E+000
  0.000000000000000E+000
  0.000000000000000E+000
  0.000000000000000E+000
  0.000000000000000E+000
  0.000000000000000E+000
  0.000000000000000E+000
  0.000000000000000E+000
  0.000000000000000E+000
  0.000000000000000E+000
  0.000000000000000E+000
  0.000000000000000E+000
  0.000000000000000E+000
  0.000000000000000E+000
  0.000000000000000E+000
  0.000000000000000E+000
  0.000000000000000E+000
  0.000000000000000E+000
  0.000000000000000E+000
  0.000000000000000E+000
  0.000000000000000E+000
  0.000000000000000E+000
  0.000000000000000E+000
  0.000000000000000E+000
  0.000000000000000E+000
  0.000000000000000E+000
  0.000000000000000E+000
  0.000000000000000E+000
  0.000000000000000E+000
  0.000000000000000E+000
  0.000000000000000E+000
  0.000000000000000E+000
  0.000000000000000E+000
  0.000000000000000E+000
  0.000000000000000E+000
  0.000000000000000E+000
  0.000000000000000E+000
  0.000000000000000E+000
  0.000000000000000E+000
  0.000000000000000E+000
  0.000000000000000E+000
  0.000000000000000E+000
  0.000000000000000E+000
  0.000000000000000E+000
  0.000000000000000E+000
  0.000000000000000E+000
  0.000000000000000E+000
  0.000000000000000E+000
  0.000000000000000E+000
  0.000000000000000E+000
  0.000000000000000E+000
  0.000000000000000E+000
  0.000000000000000E+000
  0.000000000000000E+000
  0.000000000000000E+000
  0.000000000000000E+000
  0.000000000000000E+000
  0.000000000000000E+000
  0.000000000000000E+000
  0.000000000000000E+000
  0.000000000000000E+000
  0.000000000000000E+000
  0.000000000000000E+000
  0.000000000000000E+000
  0.000000000000000E+000
  0.000000000000000E+000
  0.000000000000000E+000
  0.000000000000000E+000
  0.000000000000000E+000
  0.000000000000000E+000
  0.000000000000000E+000
  0.000000000000000E+000
  0.000000000000000E+000
  0.000000000000000E+000
  0.000000000000000E+000
  0.000000000000000E+000
  0.000000000000000E+000
  0.000000000000000E+000
  0.000000000000000E+000
  0.000000000000000E+000
  0.000000000000000E+000
  0.000000000000000E+000
  0.000000000000000E+000
  0.000000000000000E+000
  0.000000000000000E+000
  0.000000000000000E+000
  0.000000000000000E+000
  0.000000000000000E+000
  0.000000000000000E+000
  0.000000000000000E+000
  0.000000000000000E+000
  0.000000000000000E+000
  0.000000000000000E+000
  0.000000000000000E+000
  0.000000000000000E+000
  0.000000000000000E+000
  0.000000000000000E+000
  0.000000000000000E+000
  0.000000000000000E+000
  0.000000000000000E+000
  0.000000000000000E+000
  0.000000000000000E+000
  0.000000000000000E+000
  0.000000000000000E+000
  0.000000000000000E+000
  0.000000000000000E+000
  0.000000000000000E+000
  0.000000000000000E+000
  0.000000000000000E+000
  0.000000000000000E+000
  0.000000000000000E+000
  0.000000000000000E+000
  0.000000000000000E+000
  0.000000000000000E+000
  0.000000000000000E+000
  0.000000000000000E+000
  0.000000000000000E+000
  0.000000000000000E+000
  0.000000000000000E+000
  0.000000000000000E+000
  0.000000000000000E+000
  0.000000000000000E+000
  0.000000000000000E+000
  0.000000000000000E+000
  0.000000000000000E+000
  0.000000000000000E+000
  0.000000000000000E+000
  0.000000000000000E+000
  0.000000000000000E+000
  0.000000000000000E+000
  0.000000000000000E+000
  0.000000000000000E+000
  0.000000000000000E+000
  0.000000000000000E+000
  0.000000000000000E+000
  0.000000000000000E+000
  0.000000000000000E+000
  0.000000000000000E+000
  0.000000000000000E+000
  0.000000000000000E+000
  0.000000000000000E+000
  0.000000000000000E+000
  0.000000000000000E+000
  0.000000000000000E+000
  0.000000000000000E+000
  0.000000000000000E+000
  0.000000000000000E+000
  0.000000000000000E+000
  0.000000000000000E+000
  0.000000000000000E+000
  0.000000000000000E+000
  0.000000000000000E+000
  0.000000000000000E+000
  0.000000000000000E+000
  0.000000000000000E+000
  0.000000000000000E+000
  0.000000000000000E+000
  0.000000000000000E+000
  0.000000000000000E+000
  0.000000000000000E+000
  0.000000000000000E+000
  0.000000000000000E+000
  0.000000000000000E+000
  0.000000000000000E+000
  0.000000000000000E+000
  0.000000000000000E+000
  0.000000000000000E+000
  0.000000000000000E+000
  0.000000000000000E+000
  0.000000000000000E+000
  0.000000000000000E+000
  0.000000000000000E+000
  0.000000000000000E+000
  0.000000000000000E+000
  0.000000000000000E+000
  0.000000000000000E+000
  0.000000000000000E+000
  0.000000000000000E+000
  0.000000000000000E+000
  0.000000000000000E+000
  0.000000000000000E+000
  0.000000000000000E+000
  0.000000000000000E+000
  0.000000000000000E+000
  0.000000000000000E+000
  0.000000000000000E+000
  0.000000000000000E+000
  0.000000000000000E+000
  0.000000000000000E+000
  0.000000000000000E+000
  0.000000000000000E+000
  0.000000000000000E+000
  0.000000000000000E+000
  0.000000000000000E+000
  0.000000000000000E+000
  0.000000000000000E+000
  0.000000000000000E+000
  0.000000000000000E+000
  0.000000000000000E+000
  0.000000000000000E+000
  0.000000000000000E+000
  0.000000000000000E+000
  0.000000000000000E+000
  0.000000000000000E+000
  0.000000000000000E+000
  0.000000000000000E+000
  0.000000000000000E+000
  0.000000000000000E+000
  0.000000000000000E+000
  0.000000000000000E+000
  0.000000000000000E+000
  0.000000000000000E+000
  0.000000000000000E+000
  0.000000000000000E+000
  0.000000000000000E+000
  0.000000000000000E+000
  0.000000000000000E+000
  0.000000000000000E+000
  0.000000000000000E+000
  0.000000000000000E+000
  0.000000000000000E+000
  0.000000000000000E+000
  0.000000000000000E+000
  0.000000000000000E+000
  0.000000000000000E+000
  0.000000000000000E+000
  0.000000000000000E+000
  0.000000000000000E+000
  0.000000000000000E+000
  0.000000000000000E+000
  0.000000000000000E+000
  0.000000000000000E+000
  0.000000000000000E+000
  0.000000000000000E+000
  0.000000000000000E+000
  0.000000000000000E+000
  0.000000000000000E+000
  0.000000000000000E+000
  0.000000000000000E+000
  0.000000000000000E+000
  0.000000000000000E+000
  0.000000000000000E+000
  0.000000000000000E+000
  0.000000000000000E+000
  0.000000000000000E+000
  0.000000000000000E+000
  0.000000000000000E+000
  0.000000000000000E+000
  0.000000000000000E+000
  0.000000000000000E+000
  0.000000000000000E+000
  0.000000000000000E+000
  0.000000000000000E+000
  0.000000000000000E+000
  0.000000000000000E+000
  0.000000000000000E+000
  0.000000000000000E+000
  0.000000000000000E+000
  0.000000000000000E+000
  0.000000000000000E+000
  0.000000000000000E+000
  0.000000000000000E+000
  0.000000000000000E+000
  0.000000000000000E+000
  0.000000000000000E+000
  0.000000000000000E+000
  0.000000000000000E+000
  0.000000000000000E+000
  0.000000000000000E+000
  0.000000000000000E+000
  0.000000000000000E+000
  0.000000000000000E+000
  0.000000000000000E+000
  0.000000000000000E+000
  0.000000000000000E+000
  0.000000000000000E+000
  0.000000000000000E+000
  0.000000000000000E+000
  0.000000000000000E+000
  0.000000000000000E+000
  0.000000000000000E+000
  0.000000000000000E+000
  0.000000000000000E+000
  0.000000000000000E+000
  0.000000000000000E+000
  0.000000000000000E+000
  0.000000000000000E+000
  0.000000000000000E+000
  0.000000000000000E+000
  0.000000000000000E+000
  0.000000000000000E+000
  0.000000000000000E+000
  0.000000000000000E+000
  0.000000000000000E+000
  0.000000000000000E+000
  0.000000000000000E+000
  0.000000000000000E+000
  0.000000000000000E+000
  0.000000000000000E+000
  0.000000000000000E+000
  0.000000000000000E+000
  0.000000000000000E+000
  0.000000000000000E+000
  0.000000000000000E+000
  0.000000000000000E+000
  0.000000000000000E+000
  0.000000000000000E+000
  0.000000000000000E+000
  0.000000000000000E+000
  0.000000000000000E+000
  0.000000000000000E+000
  0.000000000000000E+000
  0.000000000000000E+000
  0.000000000000000E+000
  0.000000000000000E+000
  0.000000000000000E+000
  0.000000000000000E+000
  0.000000000000000E+000
  0.000000000000000E+000
  0.000000000000000E+000
  0.000000000000000E+000
  0.000000000000000E+000
  0.000000000000000E+000
  0.000000000000000E+000
  0.000000000000000E+000
  0.000000000000000E+000
  0.000000000000000E+000
  0.000000000000000E+000
  0.000000000000000E+000
  0.000000000000000E+000
  0.000000000000000E+000
  0.000000000000000E+000
  0.000000000000000E+000
  0.000000000000000E+000
  0.000000000000000E+000
  0.000000000000000E+000
  0.000000000000000E+000
  0.000000000000000E+000
  0.000000000000000E+000
  0.000000000000000E+000
  0.000000000000000E+000
  0.000000000000000E+000
  0.000000000000000E+000
  0.000000000000000E+000
  0.000000000000000E+000
  0.000000000000000E+000
  0.000000000000000E+000
  0.000000000000000E+000
  0.000000000000000E+000
  0.000000000000000E+000
  0.000000000000000E+000
  0.000000000000000E+000
  0.000000000000000E+000
  0.000000000000000E+000
  0.000000000000000E+000
  0.000000000000000E+000
  0.000000000000000E+000
  0.000000000000000E+000
  0.000000000000000E+000
  0.000000000000000E+000
  0.000000000000000E+000
  0.000000000000000E+000
  0.000000000000000E+000
  0.000000000000000E+000
  0.000000000000000E+000
  0.000000000000000E+000
  0.000000000000000E+000
  0.000000000000000E+000
  0.000000000000000E+000
  0.000000000000000E+000
  0.000000000000000E+000
  0.000000000000000E+000
  0.000000000000000E+000
  0.000000000000000E+000
  0.000000000000000E+000
  0.000000000000000E+000
  0.000000000000000E+000
  0.000000000000000E+000
  0.000000000000000E+000
  0.000000000000000E+000
  0.000000000000000E+000
  0.000000000000000E+000
  0.000000000000000E+000
  0.000000000000000E+000
  0.000000000000000E+000
  0.000000000000000E+000
  0.000000000000000E+000
  0.000000000000000E+000
  0.000000000000000E+000
  0.000000000000000E+000
  0.000000000000000E+000
  0.000000000000000E+000
  0.000000000000000E+000
  0.000000000000000E+000
  0.000000000000000E+000
  0.000000000000000E+000
  0.000000000000000E+000
  0.000000000000000E+000
  0.000000000000000E+000
  0.000000000000000E+000
  0.000000000000000E+000
  0.000000000000000E+000
  0.000000000000000E+000
  0.000000000000000E+000
  0.000000000000000E+000
  0.000000000000000E+000
  0.000000000000000E+000
  0.000000000000000E+000
  0.000000000000000E+000
  0.000000000000000E+000
  0.000000000000000E+000
  0.000000000000000E+000
  0.000000000000000E+000
  0.000000000000000E+000
  0.000000000000000E+000
  0.000000000000000E+000
  0.000000000000000E+000
  0.000000000000000E+000
  0.000000000000000E+000
  0.000000000000000E+000
  0.000000000000000E+000
  0.000000000000000E+000
  0.000000000000000E+000
  0.000000000000000E+000
  0.000000000000000E+000
  0.000000000000000E+000
  0.000000000000000E+000
  0.000000000000000E+000
  0.000000000000000E+000
  0.000000000000000E+000
  0.000000000000000E+000
  0.000000000000000E+000
  0.000000000000000E+000
  0.000000000000000E+000
  0.000000000000000E+000
  0.000000000000000E+000
  0.000000000000000E+000
  0.000000000000000E+000
  0.000000000000000E+000
  0.000000000000000E+000
  0.000000000000000E+000
  0.000000000000000E+000
  0.000000000000000E+000
  0.000000000000000E+000
  0.000000000000000E+000
  0.000000000000000E+000
  0.000000000000000E+000
  0.000000000000000E+000
  0.000000000000000E+000
  0.000000000000000E+000
  0.000000000000000E+000
  0.000000000000000E+000
  0.000000000000000E+000
  0.000000000000000E+000
  0.000000000000000E+000
  0.000000000000000E+000
  0.000000000000000E+000
  0.000000000000000E+000
  0.000000000000000E+000
  0.000000000000000E+000
  0.000000000000000E+000
  0.000000000000000E+000
  0.000000000000000E+000
  0.000000000000000E+000
  0.000000000000000E+000
  0.000000000000000E+000
  0.000000000000000E+000
  0.000000000000000E+000
  0.000000000000000E+000
  0.000000000000000E+000
  0.000000000000000E+000
  0.000000000000000E+000
  0.000000000000000E+000
  0.000000000000000E+000
  0.000000000000000E+000
  0.000000000000000E+000
  0.000000000000000E+000
  0.000000000000000E+000
  0.000000000000000E+000
  0.000000000000000E+000
  0.000000000000000E+000
  0.000000000000000E+000
  0.000000000000000E+000
  0.000000000000000E+000
  0.000000000000000E+000
  0.000000000000000E+000
  0.000000000000000E+000
  0.000000000000000E+000
  0.000000000000000E+000
  0.000000000000000E+000
  0.000000000000000E+000
  0.000000000000000E+000
  0.000000000000000E+000
  0.000000000000000E+000
  0.000000000000000E+000
  0.000000000000000E+000
  0.000000000000000E+000
  0.000000000000000E+000
  0.000000000000000E+000
  0.000000000000000E+000
  0.000000000000000E+000
  0.000000000000000E+000
  0.000000000000000E+000
  0.000000000000000E+000
  0.000000000000000E+000
  0.000000000000000E+000
  0.000000000000000E+000
  0.000000000000000E+000
  0.000000000000000E+000
  0.000000000000000E+000
  0.000000000000000E+000
  0.000000000000000E+000
  0.000000000000000E+000
  0.000000000000000E+000
  0.000000000000000E+000
  0.000000000000000E+000
  0.000000000000000E+000
  0.000000000000000E+000
  0.000000000000000E+000
  0.000000000000000E+000
  0.000000000000000E+000
  0.000000000000000E+000
  0.000000000000000E+000
  0.000000000000000E+000
  0.000000000000000E+000
  0.000000000000000E+000
  0.000000000000000E+000
  0.000000000000000E+000
  0.000000000000000E+000
  0.000000000000000E+000
  0.000000000000000E+000
  0.000000000000000E+000
  0.000000000000000E+000
  0.000000000000000E+000
  0.000000000000000E+000
  0.000000000000000E+000
  0.000000000000000E+000
  0.000000000000000E+000
  0.000000000000000E+000
  0.000000000000000E+000
  0.000000000000000E+000
  0.000000000000000E+000
  0.000000000000000E+000
  0.000000000000000E+000
  0.000000000000000E+000
  0.000000000000000E+000
  0.000000000000000E+000
  0.000000000000000E+000
  0.000000000000000E+000
  0.000000000000000E+000
  0.000000000000000E+000
  0.000000000000000E+000
  0.000000000000000E+000
  0.000000000000000E+000
  0.000000000000000E+000
  0.000000000000000E+000
  0.000000000000000E+000
  0.000000000000000E+000
  0.000000000000000E+000
  0.000000000000000E+000
  0.000000000000000E+000
  0.000000000000000E+000
  0.000000000000000E+000
  0.000000000000000E+000
  0.000000000000000E+000
  0.000000000000000E+000
  0.000000000000000E+000
  0.000000000000000E+000
  0.000000000000000E+000
  0.000000000000000E+000
  0.000000000000000E+000
  0.000000000000000E+000
  0.000000000000000E+000
  0.000000000000000E+000
  0.000000000000000E+000
  0.000000000000000E+000
  0.000000000000000E+000
  0.000000000000000E+000
  0.000000000000000E+000
  0.000000000000000E+000
  0.000000000000000E+000
  0.000000000000000E+000
  0.000000000000000E+000
  0.000000000000000E+000
  0.000000000000000E+000
  0.000000000000000E+000
  0.000000000000000E+000
  0.000000000000000E+000
  0.000000000000000E+000
  0.000000000000000E+000
  0.000000000000000E+000
  0.000000000000000E+000
  0.000000000000000E+000
  0.000000000000000E+000
  0.000000000000000E+000
  0.000000000000000E+000
  0.000000000000000E+000
  0.000000000000000E+000
  0.000000000000000E+000
  0.000000000000000E+000
  0.000000000000000E+000
  0.000000000000000E+000
  0.000000000000000E+000
  0.000000000000000E+000
  0.000000000000000E+000
  0.000000000000000E+000
  0.000000000000000E+000
  0.000000000000000E+000
  0.000000000000000E+000
  0.000000000000000E+000
  0.000000000000000E+000
  0.000000000000000E+000
  0.000000000000000E+000
  0.000000000000000E+000
  0.000000000000000E+000
  0.000000000000000E+000
  0.000000000000000E+000
  0.000000000000000E+000
  0.000000000000000E+000
  0.000000000000000E+000
  0.000000000000000E+000
  0.000000000000000E+000
  0.000000000000000E+000
  0.000000000000000E+000
  0.000000000000000E+000
  0.000000000000000E+000
  0.000000000000000E+000
  0.000000000000000E+000
  0.000000000000000E+000
  0.000000000000000E+000
  0.000000000000000E+000
  0.000000000000000E+000
  0.000000000000000E+000
  0.000000000000000E+000
  0.000000000000000E+000
  0.000000000000000E+000
  0.000000000000000E+000
  0.000000000000000E+000
  0.000000000000000E+000
  0.000000000000000E+000
  0.000000000000000E+000
  0.000000000000000E+000
  0.000000000000000E+000
  0.000000000000000E+000
  0.000000000000000E+000
  0.000000000000000E+000
  0.000000000000000E+000
  0.000000000000000E+000
  0.000000000000000E+000
  0.000000000000000E+000
  0.000000000000000E+000
  0.000000000000000E+000
  0.000000000000000E+000
  0.000000000000000E+000
  0.000000000000000E+000
  0.000000000000000E+000
  0.000000000000000E+000
  0.000000000000000E+000
  0.000000000000000E+000
  0.000000000000000E+000
  0.000000000000000E+000
  0.000000000000000E+000
  0.000000000000000E+000
  0.000000000000000E+000
  0.000000000000000E+000
  0.000000000000000E+000
  0.000000000000000E+000
  0.000000000000000E+000
  0.000000000000000E+000
  0.000000000000000E+000
  0.000000000000000E+000
  0.000000000000000E+000
  0.000000000000000E+000
  0.000000000000000E+000
  0.000000000000000E+000
  0.000000000000000E+000
  0.000000000000000E+000
  0.000000000000000E+000
  0.000000000000000E+000
  0.000000000000000E+000
  0.000000000000000E+000
  0.000000000000000E+000
  0.000000000000000E+000
  0.000000000000000E+000
  0.000000000000000E+000
  0.000000000000000E+000
  0.000000000000000E+000
  0.000000000000000E+000
  0.000000000000000E+000
  0.000000000000000E+000
  0.000000000000000E+000
  0.000000000000000E+000
  0.000000000000000E+000
  0.000000000000000E+000
  0.000000000000000E+000
  0.000000000000000E+000
  0.000000000000000E+000
  0.000000000000000E+000
  0.000000000000000E+000
  0.000000000000000E+000
  0.000000000000000E+000
  0.000000000000000E+000
  0.000000000000000E+000
  0.000000000000000E+000
  0.000000000000000E+000
  0.000000000000000E+000
  0.000000000000000E+000
  0.000000000000000E+000
  0.000000000000000E+000
  0.000000000000000E+000
  0.000000000000000E+000
  0.000000000000000E+000
  0.000000000000000E+000
  0.000000000000000E+000
  0.000000000000000E+000
  0.000000000000000E+000
  0.000000000000000E+000
  0.000000000000000E+000
  0.000000000000000E+000
  0.000000000000000E+000
  0.000000000000000E+000
  0.000000000000000E+000
  0.000000000000000E+000
  0.000000000000000E+000
  0.000000000000000E+000
  0.000000000000000E+000
  0.000000000000000E+000
  0.000000000000000E+000
  0.000000000000000E+000
  0.000000000000000E+000
  0.000000000000000E+000
  0.000000000000000E+000
  0.000000000000000E+000
  0.000000000000000E+000
  0.000000000000000E+000
  0.000000000000000E+000
  0.000000000000000E+000
  0.000000000000000E+000
  0.000000000000000E+000
  0.000000000000000E+000
  0.000000000000000E+000
  0.000000000000000E+000
  0.000000000000000E+000
  0.000000000000000E+000
  0.000000000000000E+000
  0.000000000000000E+000
  0.000000000000000E+000
  0.000000000000000E+000
  0.000000000000000E+000
  0.000000000000000E+000
  0.000000000000000E+000
  0.000000000000000E+000
  0.000000000000000E+000
  0.000000000000000E+000
  0.000000000000000E+000
  0.000000000000000E+000
  0.000000000000000E+000
  0.000000000000000E+000
  0.000000000000000E+000
  0.000000000000000E+000
  0.000000000000000E+000
  0.000000000000000E+000
  0.000000000000000E+000
  0.000000000000000E+000
  0.000000000000000E+000
  0.000000000000000E+000
  0.000000000000000E+000
  0.000000000000000E+000
  0.000000000000000E+000
  0.000000000000000E+000
  0.000000000000000E+000
  0.000000000000000E+000
  0.000000000000000E+000
  0.000000000000000E+000
  0.000000000000000E+000
  0.000000000000000E+000
  0.000000000000000E+000
  0.000000000000000E+000
  0.000000000000000E+000
  0.000000000000000E+000
  0.000000000000000E+000
  0.000000000000000E+000
  0.000000000000000E+000
  0.000000000000000E+000
  0.000000000000000E+000
  0.000000000000000E+000
  0.000000000000000E+000
  0.000000000000000E+000
  0.000000000000000E+000
  0.000000000000000E+000
  0.000000000000000E+000
  0.000000000000000E+000
  0.000000000000000E+000
  0.000000000000000E+000
  0.000000000000000E+000
  0.000000000000000E+000
  0.000000000000000E+000
  0.000000000000000E+000
  0.000000000000000E+000
  0.000000000000000E+000
  0.000000000000000E+000
  0.000000000000000E+000
  0.000000000000000E+000
  0.000000000000000E+000
  0.000000000000000E+000
  0.000000000000000E+000
  0.000000000000000E+000
  0.000000000000000E+000
  0.000000000000000E+000
  0.000000000000000E+000
  0.000000000000000E+000
  0.000000000000000E+000
  0.000000000000000E+000
  0.000000000000000E+000
  0.000000000000000E+000
  0.000000000000000E+000
  0.000000000000000E+000
  0.000000000000000E+000
  0.000000000000000E+000
  0.000000000000000E+000
  0.000000000000000E+000
  0.000000000000000E+000
  0.000000000000000E+000
  0.000000000000000E+000
  0.000000000000000E+000
  0.000000000000000E+000
  0.000000000000000E+000
  0.000000000000000E+000
  0.000000000000000E+000
  0.000000000000000E+000
  0.000000000000000E+000
  0.000000000000000E+000
  0.000000000000000E+000
  0.000000000000000E+000
  0.000000000000000E+000
  0.000000000000000E+000
  0.000000000000000E+000
  0.000000000000000E+000
  0.000000000000000E+000
  0.000000000000000E+000
  0.000000000000000E+000
  0.000000000000000E+000
  0.000000000000000E+000
  0.000000000000000E+000
  0.000000000000000E+000
  0.000000000000000E+000
  0.000000000000000E+000
  0.000000000000000E+000
  0.000000000000000E+000
  0.000000000000000E+000
  0.000000000000000E+000
  0.000000000000000E+000
  0.000000000000000E+000
  0.000000000000000E+000
  0.000000000000000E+000
  0.000000000000000E+000
  0.000000000000000E+000
  0.000000000000000E+000
  0.000000000000000E+000
  0.000000000000000E+000
  0.000000000000000E+000
  0.000000000000000E+000
  0.000000000000000E+000
  0.000000000000000E+000
  0.000000000000000E+000
  0.000000000000000E+000
  0.000000000000000E+000
  0.000000000000000E+000
  0.000000000000000E+000
  0.000000000000000E+000
  0.000000000000000E+000
  0.000000000000000E+000
  0.000000000000000E+000
  0.000000000000000E+000
  0.000000000000000E+000
  0.000000000000000E+000
  0.000000000000000E+000
  0.000000000000000E+000
  0.000000000000000E+000
  0.000000000000000E+000
  0.000000000000000E+000
  0.000000000000000E+000
  0.000000000000000E+000
  0.000000000000000E+000
  0.000000000000000E+000
  0.000000000000000E+000
  0.000000000000000E+000
  0.000000000000000E+000
  0.000000000000000E+000
  0.000000000000000E+000
  0.000000000000000E+000
  0.000000000000000E+000
  0.000000000000000E+000
  0.000000000000000E+000
  0.000000000000000E+000
  0.000000000000000E+000
  0.000000000000000E+000
  0.000000000000000E+000
  0.000000000000000E+000
  0.000000000000000E+000
  0.000000000000000E+000
  0.000000000000000E+000
  0.000000000000000E+000
  0.000000000000000E+000
  0.000000000000000E+000
  0.000000000000000E+000
  0.000000000000000E+000
  0.000000000000000E+000
  0.000000000000000E+000
  0.000000000000000E+000
  0.000000000000000E+000
  0.000000000000000E+000
  0.000000000000000E+000
  0.000000000000000E+000
  0.000000000000000E+000
  0.000000000000000E+000
  0.000000000000000E+000
  0.000000000000000E+000
  0.000000000000000E+000
  0.000000000000000E+000
  0.000000000000000E+000
  0.000000000000000E+000
  0.000000000000000E+000
  0.000000000000000E+000
  0.000000000000000E+000
  0.000000000000000E+000
  0.000000000000000E+000
  0.000000000000000E+000
  0.000000000000000E+000
  0.000000000000000E+000
  0.000000000000000E+000
  0.000000000000000E+000
  0.000000000000000E+000
  0.000000000000000E+000
  0.000000000000000E+000
  0.000000000000000E+000
  0.000000000000000E+000
  0.000000000000000E+000
  0.000000000000000E+000
  0.000000000000000E+000
  0.000000000000000E+000
  0.000000000000000E+000
  0.000000000000000E+000
  0.000000000000000E+000
  0.000000000000000E+000
  0.000000000000000E+000
  0.000000000000000E+000
  0.000000000000000E+000
  0.000000000000000E+000
  0.000000000000000E+000
  0.000000000000000E+000
  0.000000000000000E+000
  0.000000000000000E+000
  0.000000000000000E+000
  0.000000000000000E+000
  0.000000000000000E+000
  0.000000000000000E+000
  0.000000000000000E+000
  0.000000000000000E+000
  0.000000000000000E+000
  0.000000000000000E+000
  0.000000000000000E+000
  0.000000000000000E+000
  0.000000000000000E+000
  0.000000000000000E+000
  0.000000000000000E+000
  0.000000000000000E+000
  0.000000000000000E+000
  0.000000000000000E+000
  0.000000000000000E+000
  0.000000000000000E+000
  0.000000000000000E+000
  0.000000000000000E+000
  0.000000000000000E+000
  0.000000000000000E+000
  0.000000000000000E+000
  0.000000000000000E+000
  0.000000000000000E+000
  0.000000000000000E+000
  0.000000000000000E+000
  0.000000000000000E+000
  0.000000000000000E+000
  0.000000000000000E+000
  0.000000000000000E+000
  0.000000000000000E+000
  0.000000000000000E+000
  0.000000000000000E+000
  0.000000000000000E+000
  0.000000000000000E+000
  0.000000000000000E+000
  0.000000000000000E+000
  0.000000000000000E+000
  0.000000000000000E+000
  0.000000000000000E+000
  0.000000000000000E+000
  0.000000000000000E+000
  0.000000000000000E+000
  0.000000000000000E+000
  0.000000000000000E+000
  0.000000000000000E+000
  0.000000000000000E+000
  0.000000000000000E+000
  0.000000000000000E+000
  0.000000000000000E+000
  0.000000000000000E+000
  0.000000000000000E+000
  0.000000000000000E+000
  0.000000000000000E+000
  0.000000000000000E+000
  0.000000000000000E+000
  0.000000000000000E+000
  0.000000000000000E+000
  0.000000000000000E+000
  0.000000000000000E+000
  0.000000000000000E+000
  0.000000000000000E+000
  0.000000000000000E+000
  0.000000000000000E+000
  0.000000000000000E+000
  0.000000000000000E+000
  0.000000000000000E+000
  0.000000000000000E+000
  0.000000000000000E+000
  0.000000000000000E+000
  0.000000000000000E+000
  0.000000000000000E+000
  0.000000000000000E+000
  0.000000000000000E+000
  0.000000000000000E+000
  0.000000000000000E+000
  0.000000000000000E+000
  0.000000000000000E+000
  0.000000000000000E+000
  0.000000000000000E+000
  0.000000000000000E+000
  0.000000000000000E+000
  0.000000000000000E+000
  0.000000000000000E+000
  0.000000000000000E+000
  0.000000000000000E+000
  0.000000000000000E+000
  0.000000000000000E+000
  0.000000000000000E+000
  0.000000000000000E+000
  0.000000000000000E+000
  0.000000000000000E+000
  0.000000000000000E+000
  0.000000000000000E+000
  0.000000000000000E+000
  0.000000000000000E+000
  0.000000000000000E+000
  0.000000000000000E+000
  0.000000000000000E+000
  0.000000000000000E+000
  0.000000000000000E+000
  0.000000000000000E+000
  0.000000000000000E+000
  0.000000000000000E+000
  0.000000000000000E+000
  0.000000000000000E+000
  0.000000000000000E+000
  0.000000000000000E+000
  0.000000000000000E+000
  0.000000000000000E+000
  0.000000000000000E+000
  0.000000000000000E+000
  0.000000000000000E+000
  0.000000000000000E+000
  0.000000000000000E+000
  0.000000000000000E+000
  0.000000000000000E+000
  0.000000000000000E+000
  0.000000000000000E+000
  0.000000000000000E+000
  0.000000000000000E+000
  0.000000000000000E+000
  0.000000000000000E+000
  0.000000000000000E+000
  0.000000000000000E+000
  0.000000000000000E+000
  0.000000000000000E+000
  0.000000000000000E+000
  0.000000000000000E+000
  0.000000000000000E+000
  0.000000000000000E+000
  0.000000000000000E+000
  0.000000000000000E+000
  0.000000000000000E+000
  0.000000000000000E+000
  0.000000000000000E+000
  0.000000000000000E+000
  0.000000000000000E+000
  0.000000000000000E+000
  0.000000000000000E+000
  0.000000000000000E+000
  0.000000000000000E+000
  0.000000000000000E+000
  0.000000000000000E+000
  0.000000000000000E+000
  0.000000000000000E+000
  0.000000000000000E+000
  0.000000000000000E+000
  0.000000000000000E+000
  0.000000000000000E+000
  0.000000000000000E+000
  0.000000000000000E+000
  0.000000000000000E+000
  0.000000000000000E+000
  0.000000000000000E+000
  0.000000000000000E+000
  0.000000000000000E+000
  0.000000000000000E+000
  0.000000000000000E+000
  0.000000000000000E+000
  0.000000000000000E+000
  0.000000000000000E+000
  0.000000000000000E+000
  0.000000000000000E+000
  0.000000000000000E+000
  0.000000000000000E+000
  0.000000000000000E+000
  0.000000000000000E+000
  0.000000000000000E+000
  0.000000000000000E+000
  0.000000000000000E+000
  0.000000000000000E+000
  0.000000000000000E+000
  0.000000000000000E+000
  0.000000000000000E+000
  0.000000000000000E+000
  0.000000000000000E+000
  0.000000000000000E+000
  0.000000000000000E+000
  0.000000000000000E+000
  0.000000000000000E+000
  0.000000000000000E+000
  0.000000000000000E+000
  0.000000000000000E+000
  0.000000000000000E+000
  0.000000000000000E+000
  0.000000000000000E+000
  0.000000000000000E+000
  0.000000000000000E+000
  0.000000000000000E+000
  0.000000000000000E+000
  0.000000000000000E+000
  0.000000000000000E+000
  0.000000000000000E+000
  0.000000000000000E+000
  0.000000000000000E+000
  0.000000000000000E+000
  0.000000000000000E+000
  0.000000000000000E+000
  0.000000000000000E+000
  0.000000000000000E+000
  0.000000000000000E+000
  0.000000000000000E+000
  0.000000000000000E+000
  0.000000000000000E+000
  0.000000000000000E+000
  0.000000000000000E+000
  0.000000000000000E+000
  0.000000000000000E+000
  0.000000000000000E+000
  0.000000000000000E+000
  0.000000000000000E+000
  0.000000000000000E+000
  0.000000000000000E+000
  0.000000000000000E+000
  0.000000000000000E+000
  0.000000000000000E+000
  0.000000000000000E+000
  0.000000000000000E+000
  0.000000000000000E+000
  0.000000000000000E+000
  0.000000000000000E+000
  0.000000000000000E+000
  0.000000000000000E+000
  0.000000000000000E+000
  0.000000000000000E+000
  0.000000000000000E+000
  0.000000000000000E+000
  0.000000000000000E+000
  0.000000000000000E+000
  0.000000000000000E+000
  0.000000000000000E+000
  0.000000000000000E+000
  0.000000000000000E+000
  0.000000000000000E+000
  0.000000000000000E+000
  0.000000000000000E+000
  0.000000000000000E+000
  0.000000000000000E+000
  0.000000000000000E+000
  0.000000000000000E+000
  0.000000000000000E+000
  0.000000000000000E+000
  0.000000000000000E+000
  0.000000000000000E+000
  0.000000000000000E+000
  0.000000000000000E+000
  0.000000000000000E+000
  0.000000000000000E+000
  0.000000000000000E+000
  0.000000000000000E+000
  0.000000000000000E+000
  0.000000000000000E+000
  0.000000000000000E+000
  0.000000000000000E+000
  0.000000000000000E+000
  0.000000000000000E+000
  0.000000000000000E+000
  0.000000000000000E+000
  0.000000000000000E+000
  0.000000000000000E+000
  0.000000000000000E+000
  0.000000000000000E+000
  0.000000000000000E+000
  0.000000000000000E+000
  0.000000000000000E+000
  0.000000000000000E+000
  0.000000000000000E+000
  0.000000000000000E+000
  0.000000000000000E+000
  0.000000000000000E+000
  0.000000000000000E+000
  0.000000000000000E+000
  0.000000000000000E+000
  0.000000000000000E+000
  0.000000000000000E+000
  0.000000000000000E+000
  0.000000000000000E+000
  0.000000000000000E+000
  0.000000000000000E+000
  0.000000000000000E+000
  0.000000000000000E+000
  0.000000000000000E+000
  0.000000000000000E+000
  0.000000000000000E+000
  0.000000000000000E+000
  0.000000000000000E+000
  0.000000000000000E+000
  0.000000000000000E+000
  0.000000000000000E+000
  0.000000000000000E+000
  0.000000000000000E+000
  0.000000000000000E+000
  0.000000000000000E+000
  0.000000000000000E+000
  0.000000000000000E+000
  0.000000000000000E+000
  0.000000000000000E+000
  0.000000000000000E+000
  0.000000000000000E+000
  0.000000000000000E+000
  0.000000000000000E+000
  0.000000000000000E+000
  0.000000000000000E+000
  0.000000000000000E+000
  0.000000000000000E+000
  0.000000000000000E+000
  0.000000000000000E+000
  0.000000000000000E+000
  0.000000000000000E+000
  0.000000000000000E+000
  0.000000000000000E+000
  0.000000000000000E+000
  0.000000000000000E+000
  0.000000000000000E+000
  0.000000000000000E+000
  0.000000000000000E+000
  0.000000000000000E+000
  0.000000000000000E+000
  0.000000000000000E+000
  0.000000000000000E+000
  0.000000000000000E+000
  0.000000000000000E+000
  0.000000000000000E+000
  0.000000000000000E+000
  0.000000000000000E+000
  0.000000000000000E+000
  0.000000000000000E+000
  0.000000000000000E+000
  0.000000000000000E+000
  0.000000000000000E+000
  0.000000000000000E+000
  0.000000000000000E+000
  0.000000000000000E+000
  0.000000000000000E+000
  0.000000000000000E+000
  0.000000000000000E+000
  0.000000000000000E+000
  0.000000000000000E+000
  0.000000000000000E+000
  0.000000000000000E+000
  0.000000000000000E+000
  0.000000000000000E+000
  0.000000000000000E+000
  0.000000000000000E+000
  0.000000000000000E+000
  0.000000000000000E+000
  0.000000000000000E+000
  0.000000000000000E+000
  0.000000000000000E+000
  0.000000000000000E+000
  0.000000000000000E+000
  0.000000000000000E+000
  0.000000000000000E+000
  0.000000000000000E+000
  0.000000000000000E+000
  0.000000000000000E+000
  0.000000000000000E+000
  0.000000000000000E+000
  0.000000000000000E+000
  0.000000000000000E+000
  0.000000000000000E+000
  0.000000000000000E+000
  0.000000000000000E+000
  0.000000000000000E+000
  0.000000000000000E+000
  0.000000000000000E+000
  0.000000000000000E+000
  0.000000000000000E+000
  0.000000000000000E+000
  0.000000000000000E+000
  0.000000000000000E+000
  0.000000000000000E+000
  0.000000000000000E+000
  0.000000000000000E+000
  0.000000000000000E+000
  0.000000000000000E+000
  0.000000000000000E+000
  0.000000000000000E+000
  0.000000000000000E+000
  0.000000000000000E+000
  0.000000000000000E+000
  0.000000000000000E+000
  0.000000000000000E+000
  0.000000000000000E+000
  0.000000000000000E+000
  0.000000000000000E+000
  0.000000000000000E+000
  0.000000000000000E+000
  0.000000000000000E+000
  0.000000000000000E+000
  0.000000000000000E+000
  0.000000000000000E+000
  0.000000000000000E+000
  0.000000000000000E+000
  0.000000000000000E+000
  0.000000000000000E+000
  0.000000000000000E+000
  0.000000000000000E+000
  0.000000000000000E+000
  0.000000000000000E+000
  0.000000000000000E+000
  0.000000000000000E+000
  0.000000000000000E+000
  0.000000000000000E+000
  0.000000000000000E+000
  0.000000000000000E+000
  0.000000000000000E+000
  0.000000000000000E+000
  0.000000000000000E+000
  0.000000000000000E+000
  0.000000000000000E+000
  0.000000000000000E+000
  0.000000000000000E+000
  0.000000000000000E+000
  0.000000000000000E+000
  0.000000000000000E+000
  0.000000000000000E+000
  0.000000000000000E+000
  0.000000000000000E+000
  0.000000000000000E+000
  0.000000000000000E+000
  0.000000000000000E+000
  0.000000000000000E+000
  0.000000000000000E+000
  0.000000000000000E+000
  0.000000000000000E+000
  0.000000000000000E+000
  0.000000000000000E+000
  0.000000000000000E+000
  0.000000000000000E+000
  0.000000000000000E+000
  0.000000000000000E+000
  0.000000000000000E+000
  0.000000000000000E+000
  0.000000000000000E+000
  0.000000000000000E+000
  0.000000000000000E+000
  0.000000000000000E+000
  0.000000000000000E+000
  0.000000000000000E+000
  0.000000000000000E+000
  0.000000000000000E+000
  0.000000000000000E+000
  0.000000000000000E+000
  0.000000000000000E+000
  0.000000000000000E+000
  0.000000000000000E+000
  0.000000000000000E+000
  0.000000000000000E+000
  0.000000000000000E+000
  0.000000000000000E+000
  0.000000000000000E+000
  0.000000000000000E+000
  0.000000000000000E+000
  0.000000000000000E+000
  0.000000000000000E+000
  0.000000000000000E+000
  0.000000000000000E+000
  0.000000000000000E+000
  0.000000000000000E+000
  0.000000000000000E+000
  0.000000000000000E+000
  0.000000000000000E+000
  0.000000000000000E+000
  0.000000000000000E+000
  0.000000000000000E+000
  0.000000000000000E+000
  0.000000000000000E+000
  0.000000000000000E+000
  0.000000000000000E+000
  0.000000000000000E+000
  0.000000000000000E+000
  0.000000000000000E+000
  0.000000000000000E+000
  0.000000000000000E+000
  0.000000000000000E+000
  0.000000000000000E+000
  0.000000000000000E+000
  0.000000000000000E+000
  0.000000000000000E+000
  0.000000000000000E+000
  0.000000000000000E+000
  0.000000000000000E+000
  0.000000000000000E+000
  0.000000000000000E+000
  0.000000000000000E+000
  0.000000000000000E+000
  0.000000000000000E+000
  0.000000000000000E+000
  0.000000000000000E+000
  0.000000000000000E+000
  0.000000000000000E+000
  0.000000000000000E+000
  0.000000000000000E+000
  0.000000000000000E+000
  0.000000000000000E+000
  0.000000000000000E+000
  0.000000000000000E+000
  0.000000000000000E+000
  0.000000000000000E+000
  0.000000000000000E+000
  0.000000000000000E+000
  0.000000000000000E+000
  0.000000000000000E+000
  0.000000000000000E+000
  0.000000000000000E+000
  0.000000000000000E+000
  0.000000000000000E+000
  0.000000000000000E+000
  0.000000000000000E+000
  0.000000000000000E+000
  0.000000000000000E+000
  0.000000000000000E+000
  0.000000000000000E+000
  0.000000000000000E+000
  0.000000000000000E+000
  0.000000000000000E+000
  0.000000000000000E+000
  0.000000000000000E+000
  0.000000000000000E+000
  0.000000000000000E+000
  0.000000000000000E+000
  0.000000000000000E+000
  0.000000000000000E+000
  0.000000000000000E+000
  0.000000000000000E+000
  0.000000000000000E+000
  0.000000000000000E+000
  0.000000000000000E+000
  0.000000000000000E+000
  0.000000000000000E+000
  0.000000000000000E+000
  0.000000000000000E+000
  0.000000000000000E+000
  0.000000000000000E+000
  0.000000000000000E+000
  0.000000000000000E+000
  0.000000000000000E+000
  0.000000000000000E+000
  0.000000000000000E+000
  0.000000000000000E+000
  0.000000000000000E+000
  0.000000000000000E+000
  0.000000000000000E+000
  0.000000000000000E+000
  0.000000000000000E+000
  0.000000000000000E+000
  0.000000000000000E+000
  0.000000000000000E+000
  0.000000000000000E+000
  0.000000000000000E+000
  0.000000000000000E+000
  0.000000000000000E+000
  0.000000000000000E+000
  0.000000000000000E+000
  0.000000000000000E+000
  0.000000000000000E+000
  0.000000000000000E+000
  0.000000000000000E+000
  0.000000000000000E+000
  0.000000000000000E+000
  0.000000000000000E+000
  0.000000000000000E+000
  0.000000000000000E+000
  0.000000000000000E+000
  0.000000000000000E+000
  0.000000000000000E+000
  0.000000000000000E+000
  0.000000000000000E+000
  0.000000000000000E+000
  0.000000000000000E+000
  0.000000000000000E+000
  0.000000000000000E+000
  0.000000000000000E+000
  0.000000000000000E+000
  0.000000000000000E+000
  0.000000000000000E+000
  0.000000000000000E+000
  0.000000000000000E+000
  0.000000000000000E+000
  0.000000000000000E+000
  0.000000000000000E+000
  0.000000000000000E+000
  0.000000000000000E+000
  0.000000000000000E+000
  0.000000000000000E+000
  0.000000000000000E+000
  0.000000000000000E+000
  0.000000000000000E+000
  0.000000000000000E+000
  0.000000000000000E+000
  0.000000000000000E+000
  0.000000000000000E+000
  0.000000000000000E+000
  0.000000000000000E+000
  0.000000000000000E+000
  0.000000000000000E+000
  0.000000000000000E+000
  0.000000000000000E+000
  0.000000000000000E+000
  0.000000000000000E+000
  0.000000000000000E+000
  0.000000000000000E+000
  0.000000000000000E+000
  0.000000000000000E+000
  0.000000000000000E+000
  0.000000000000000E+000
  0.000000000000000E+000
  0.000000000000000E+000
  0.000000000000000E+000
  0.000000000000000E+000
  0.000000000000000E+000
  0.000000000000000E+000
  0.000000000000000E+000
  0.000000000000000E+000
  0.000000000000000E+000
  0.000000000000000E+000
  0.000000000000000E+000
  0.000000000000000E+000
  0.000000000000000E+000
  0.000000000000000E+000
  0.000000000000000E+000
  0.000000000000000E+000
  0.000000000000000E+000
  0.000000000000000E+000
  0.000000000000000E+000
  0.000000000000000E+000
  0.000000000000000E+000
  0.000000000000000E+000
  0.000000000000000E+000
  0.000000000000000E+000
  0.000000000000000E+000
  0.000000000000000E+000
  0.000000000000000E+000
  0.000000000000000E+000
  0.000000000000000E+000
  0.000000000000000E+000
  0.000000000000000E+000
  0.000000000000000E+000
  0.000000000000000E+000
  0.000000000000000E+000
  0.000000000000000E+000
  0.000000000000000E+000
  0.000000000000000E+000
  0.000000000000000E+000
  0.000000000000000E+000
  0.000000000000000E+000
  0.000000000000000E+000
  0.000000000000000E+000
  0.000000000000000E+000
  0.000000000000000E+000
  0.000000000000000E+000
  0.000000000000000E+000
  0.000000000000000E+000
  0.000000000000000E+000
  0.000000000000000E+000
  0.000000000000000E+000
  0.000000000000000E+000
  0.000000000000000E+000
  0.000000000000000E+000
  0.000000000000000E+000
  0.000000000000000E+000
  0.000000000000000E+000
  0.000000000000000E+000
  0.000000000000000E+000
  0.000000000000000E+000
  0.000000000000000E+000
  0.000000000000000E+000
  0.000000000000000E+000
  0.000000000000000E+000
  0.000000000000000E+000
  0.000000000000000E+000
  0.000000000000000E+000
  0.000000000000000E+000
  0.000000000000000E+000
  0.000000000000000E+000
  0.000000000000000E+000
  0.000000000000000E+000
  0.000000000000000E+000
  0.000000000000000E+000
  0.000000000000000E+000
  0.000000000000000E+000
  0.000000000000000E+000
  0.000000000000000E+000
  0.000000000000000E+000
  0.000000000000000E+000
  0.000000000000000E+000
  0.000000000000000E+000
  0.000000000000000E+000
  0.000000000000000E+000
  0.000000000000000E+000
  0.000000000000000E+000
  0.000000000000000E+000
  0.000000000000000E+000
  0.000000000000000E+000
  0.000000000000000E+000
  0.000000000000000E+000
  0.000000000000000E+000
  0.000000000000000E+000
  0.000000000000000E+000
  0.000000000000000E+000
  0.000000000000000E+000
  0.000000000000000E+000
  0.000000000000000E+000
  0.000000000000000E+000
  0.000000000000000E+000
  0.000000000000000E+000
  0.000000000000000E+000
  0.000000000000000E+000
  0.000000000000000E+000
  0.000000000000000E+000
  0.000000000000000E+000
  0.000000000000000E+000
  0.000000000000000E+000
  0.000000000000000E+000
  0.000000000000000E+000
  0.000000000000000E+000
  0.000000000000000E+000
  0.000000000000000E+000
  0.000000000000000E+000
  0.000000000000000E+000
  0.000000000000000E+000
  0.000000000000000E+000
  0.000000000000000E+000
  0.000000000000000E+000
  0.000000000000000E+000
  0.000000000000000E+000
  0.000000000000000E+000
  0.000000000000000E+000
  0.000000000000000E+000
  0.000000000000000E+000
  0.000000000000000E+000
  0.000000000000000E+000
  0.000000000000000E+000
  0.000000000000000E+000
  0.000000000000000E+000
  0.000000000000000E+000
  0.000000000000000E+000
  0.000000000000000E+000
  0.000000000000000E+000
  0.000000000000000E+000
  0.000000000000000E+000
  0.000000000000000E+000
  0.000000000000000E+000
  0.000000000000000E+000
  0.000000000000000E+000
  0.000000000000000E+000
  0.000000000000000E+000
  0.000000000000000E+000
  0.000000000000000E+000
  0.000000000000000E+000
  0.000000000000000E+000
  0.000000000000000E+000
  0.000000000000000E+000
  0.000000000000000E+000
  0.000000000000000E+000
  0.000000000000000E+000
  0.000000000000000E+000
  0.000000000000000E+000
  0.000000000000000E+000
  0.000000000000000E+000
  0.000000000000000E+000
  0.000000000000000E+000
  0.000000000000000E+000
  0.000000000000000E+000
  0.000000000000000E+000
  0.000000000000000E+000
  0.000000000000000E+000
  0.000000000000000E+000
  0.000000000000000E+000
  0.000000000000000E+000
  0.000000000000000E+000
  0.000000000000000E+000
  0.000000000000000E+000
  0.000000000000000E+000
  0.000000000000000E+000
  0.000000000000000E+000
  0.000000000000000E+000
  0.000000000000000E+000
  0.000000000000000E+000
  0.000000000000000E+000
  0.000000000000000E+000
  0.000000000000000E+000
  0.000000000000000E+000
  0.000000000000000E+000
  0.000000000000000E+000
  0.000000000000000E+000
  0.000000000000000E+000
  0.000000000000000E+000
  0.000000000000000E+000
  0.000000000000000E+000
  0.000000000000000E+000
  0.000000000000000E+000
  0.000000000000000E+000
  0.000000000000000E+000
  0.000000000000000E+000
  0.000000000000000E+000
  0.000000000000000E+000
  0.000000000000000E+000
  0.000000000000000E+000
  0.000000000000000E+000
  0.000000000000000E+000
  0.000000000000000E+000
  0.000000000000000E+000
  0.000000000000000E+000
  0.000000000000000E+000
  0.000000000000000E+000
  0.000000000000000E+000
  0.000000000000000E+000
  0.000000000000000E+000
  0.000000000000000E+000
  0.000000000000000E+000
  0.000000000000000E+000
  0.000000000000000E+000
  0.000000000000000E+000
  0.000000000000000E+000
  0.000000000000000E+000
  0.000000000000000E+000
  0.000000000000000E+000
  0.000000000000000E+000
  0.000000000000000E+000
  0.000000000000000E+000
  0.000000000000000E+000
  0.000000000000000E+000
  0.000000000000000E+000
  0.000000000000000E+000
  0.000000000000000E+000
  0.000000000000000E+000
  0.000000000000000E+000
  0.000000000000000E+000
  0.000000000000000E+000
  0.000000000000000E+000
  0.000000000000000E+000
  0.000000000000000E+000
  0.000000000000000E+000
  0.000000000000000E+000
  0.000000000000000E+000
  0.000000000000000E+000
  0.000000000000000E+000
  0.000000000000000E+000
  0.000000000000000E+000
  0.000000000000000E+000
  0.000000000000000E+000
  0.000000000000000E+000
  0.000000000000000E+000
  0.000000000000000E+000
  0.000000000000000E+000
  0.000000000000000E+000
  0.000000000000000E+000
  0.000000000000000E+000
  0.000000000000000E+000
  0.000000000000000E+000
  0.000000000000000E+000
  0.000000000000000E+000
  0.000000000000000E+000
  0.000000000000000E+000
  0.000000000000000E+000
  0.000000000000000E+000
  0.000000000000000E+000
  0.000000000000000E+000
  0.000000000000000E+000
  0.000000000000000E+000
  0.000000000000000E+000
  0.000000000000000E+000
  0.000000000000000E+000
  0.000000000000000E+000
  0.000000000000000E+000
  0.000000000000000E+000
  0.000000000000000E+000
  0.000000000000000E+000
  0.000000000000000E+000
  0.000000000000000E+000
  0.000000000000000E+000
  0.000000000000000E+000
  0.000000000000000E+000
  0.000000000000000E+000
  0.000000000000000E+000
  0.000000000000000E+000
  0.000000000000000E+000
  0.000000000000000E+000
  0.000000000000000E+000
  0.000000000000000E+000
  0.000000000000000E+000
  0.000000000000000E+000
  0.000000000000000E+000
  0.000000000000000E+000
  0.000000000000000E+000
  0.000000000000000E+000
  0.000000000000000E+000
  0.000000000000000E+000
  0.000000000000000E+000
  0.000000000000000E+000
  0.000000000000000E+000
  0.000000000000000E+000
  0.000000000000000E+000
  0.000000000000000E+000
  0.000000000000000E+000
  0.000000000000000E+000
  0.000000000000000E+000
  0.000000000000000E+000
  0.000000000000000E+000
  0.000000000000000E+000
  0.000000000000000E+000
  0.000000000000000E+000
  0.000000000000000E+000
  0.000000000000000E+000
  0.000000000000000E+000
  0.000000000000000E+000
  0.000000000000000E+000
  0.000000000000000E+000
  0.000000000000000E+000
  0.000000000000000E+000
  0.000000000000000E+000
  0.000000000000000E+000
  0.000000000000000E+000
  0.000000000000000E+000
  0.000000000000000E+000
  0.000000000000000E+000
  0.000000000000000E+000
  0.000000000000000E+000
  0.000000000000000E+000
  0.000000000000000E+000
  0.000000000000000E+000
  0.000000000000000E+000
  0.000000000000000E+000
  0.000000000000000E+000
  0.000000000000000E+000
  0.000000000000000E+000
  0.000000000000000E+000
  0.000000000000000E+000
  0.000000000000000E+000
  0.000000000000000E+000
  0.000000000000000E+000
  0.000000000000000E+000
  0.000000000000000E+000
  0.000000000000000E+000
  0.000000000000000E+000
  0.000000000000000E+000
  0.000000000000000E+000
  0.000000000000000E+000
  0.000000000000000E+000
  0.000000000000000E+000
  0.000000000000000E+000
  0.000000000000000E+000
  0.000000000000000E+000
  0.000000000000000E+000
  0.000000000000000E+000
  0.000000000000000E+000
  0.000000000000000E+000
  0.000000000000000E+000
  0.000000000000000E+000
  0.000000000000000E+000
  0.000000000000000E+000
  0.000000000000000E+000
  0.000000000000000E+000
  0.000000000000000E+000
  0.000000000000000E+000
  0.000000000000000E+000
  0.000000000000000E+000
  0.000000000000000E+000
  0.000000000000000E+000
  0.000000000000000E+000
  0.000000000000000E+000
  0.000000000000000E+000
  0.000000000000000E+000
  0.000000000000000E+000
  0.000000000000000E+000
  0.000000000000000E+000
  0.000000000000000E+000
  0.000000000000000E+000
  0.000000000000000E+000
  0.000000000000000E+000
  0.000000000000000E+000
  0.000000000000000E+000
  0.000000000000000E+000
  0.000000000000000E+000
  0.000000000000000E+000
  0.000000000000000E+000
  0.000000000000000E+000
  0.000000000000000E+000
  0.000000000000000E+000
  0.000000000000000E+000
  0.000000000000000E+000
  0.000000000000000E+000
  0.000000000000000E+000
  0.000000000000000E+000
  0.000000000000000E+000
  0.000000000000000E+000
  0.000000000000000E+000
  0.000000000000000E+000
  0.000000000000000E+000
  0.000000000000000E+000
  0.000000000000000E+000
  0.000000000000000E+000
  0.000000000000000E+000
  0.000000000000000E+000
  0.000000000000000E+000
  0.000000000000000E+000
  0.000000000000000E+000
  0.000000000000000E+000
  0.000000000000000E+000
  0.000000000000000E+000
  0.000000000000000E+000
  0.000000000000000E+000
  0.000000000000000E+000
  0.000000000000000E+000
  0.000000000000000E+000
  0.000000000000000E+000
  0.000000000000000E+000
  0.000000000000000E+000
  0.000000000000000E+000
  0.000000000000000E+000
  0.000000000000000E+000
  0.000000000000000E+000
  0.000000000000000E+000
  0.000000000000000E+000
  0.000000000000000E+000
  0.000000000000000E+000
  0.000000000000000E+000
  0.000000000000000E+000
  0.000000000000000E+000
  0.000000000000000E+000
  0.000000000000000E+000
  0.000000000000000E+000
  0.000000000000000E+000
  0.000000000000000E+000
  0.000000000000000E+000
  0.000000000000000E+000
  0.000000000000000E+000
  0.000000000000000E+000
  0.000000000000000E+000
  0.000000000000000E+000
  0.000000000000000E+000
  0.000000000000000E+000
  0.000000000000000E+000
  0.000000000000000E+000
  0.000000000000000E+000
  0.000000000000000E+000
  0.000000000000000E+000
  0.000000000000000E+000
  0.000000000000000E+000
  0.000000000000000E+000
  0.000000000000000E+000
  0.000000000000000E+000
  0.000000000000000E+000
  0.000000000000000E+000
  0.000000000000000E+000
  0.000000000000000E+000
  0.000000000000000E+000
  0.000000000000000E+000
  0.000000000000000E+000
  0.000000000000000E+000
  0.000000000000000E+000
  0.000000000000000E+000
  0.000000000000000E+000
  0.000000000000000E+000
  0.000000000000000E+000
  0.000000000000000E+000
  0.000000000000000E+000
  0.000000000000000E+000
  0.000000000000000E+000
  0.000000000000000E+000
  0.000000000000000E+000
  0.000000000000000E+000
  0.000000000000000E+000
  0.000000000000000E+000
  0.000000000000000E+000
  0.000000000000000E+000
  0.000000000000000E+000
  0.000000000000000E+000
  0.000000000000000E+000
  0.000000000000000E+000
  0.000000000000000E+000
  0.000000000000000E+000
  0.000000000000000E+000
  0.000000000000000E+000
  0.000000000000000E+000
  0.000000000000000E+000
  0.000000000000000E+000
  0.000000000000000E+000
  0.000000000000000E+000
  0.000000000000000E+000
  0.000000000000000E+000
  0.000000000000000E+000
  0.000000000000000E+000
  0.000000000000000E+000
  0.000000000000000E+000
  0.000000000000000E+000
  0.000000000000000E+000
  0.000000000000000E+000
  0.000000000000000E+000
  0.000000000000000E+000
  0.000000000000000E+000
  0.000000000000000E+000
  0.000000000000000E+000
  0.000000000000000E+000
  0.000000000000000E+000
  0.000000000000000E+000
  0.000000000000000E+000
  0.000000000000000E+000
  0.000000000000000E+000
  0.000000000000000E+000
  0.000000000000000E+000
  0.000000000000000E+000
  0.000000000000000E+000
  0.000000000000000E+000
  0.000000000000000E+000
  0.000000000000000E+000
  0.000000000000000E+000
  0.000000000000000E+000
  0.000000000000000E+000
  0.000000000000000E+000
  0.000000000000000E+000
  0.000000000000000E+000
  0.000000000000000E+000
  0.000000000000000E+000
  0.000000000000000E+000
  0.000000000000000E+000
  0.000000000000000E+000
  0.000000000000000E+000
  0.000000000000000E+000
  0.000000000000000E+000
  0.000000000000000E+000
  0.000000000000000E+000
  0.000000000000000E+000
  0.000000000000000E+000
  0.000000000000000E+000
  0.000000000000000E+000
  0.000000000000000E+000
  0.000000000000000E+000
  0.000000000000000E+000
  0.000000000000000E+000
  0.000000000000000E+000
  0.000000000000000E+000
  0.000000000000000E+000
  0.000000000000000E+000
  0.000000000000000E+000
  0.000000000000000E+000
  0.000000000000000E+000
  0.000000000000000E+000
  0.000000000000000E+000
  0.000000000000000E+000
  0.000000000000000E+000
  0.000000000000000E+000
  0.000000000000000E+000
  0.000000000000000E+000
  0.000000000000000E+000
  0.000000000000000E+000
  0.000000000000000E+000
  0.000000000000000E+000
  0.000000000000000E+000
  0.000000000000000E+000
  0.000000000000000E+000
  0.000000000000000E+000
  0.000000000000000E+000
  0.000000000000000E+000
  0.000000000000000E+000
  0.000000000000000E+000
  0.000000000000000E+000
  0.000000000000000E+000
  0.000000000000000E+000
  0.000000000000000E+000
  0.000000000000000E+000
  0.000000000000000E+000
  0.000000000000000E+000
  0.000000000000000E+000
  0.000000000000000E+000
  0.000000000000000E+000
  0.000000000000000E+000
  0.000000000000000E+000
  0.000000000000000E+000
  0.000000000000000E+000
  0.000000000000000E+000
  0.000000000000000E+000
  0.000000000000000E+000
  0.000000000000000E+000
  0.000000000000000E+000
  0.000000000000000E+000
  0.000000000000000E+000
  0.000000000000000E+000
  0.000000000000000E+000
  0.000000000000000E+000
  0.000000000000000E+000
  0.000000000000000E+000
  0.000000000000000E+000
  0.000000000000000E+000
  0.000000000000000E+000
  0.000000000000000E+000
  0.000000000000000E+000
  0.000000000000000E+000
  0.000000000000000E+000
  0.000000000000000E+000
  0.000000000000000E+000
  0.000000000000000E+000
  0.000000000000000E+000
  0.000000000000000E+000
  0.000000000000000E+000
  0.000000000000000E+000
  0.000000000000000E+000
  0.000000000000000E+000
   1.00000000000000     
   1.00000000000000     
  0.000000000000000E+000
  0.000000000000000E+000
  0.000000000000000E+000
  0.000000000000000E+000
  0.000000000000000E+000
  0.000000000000000E+000
  0.000000000000000E+000
  0.000000000000000E+000
  0.000000000000000E+000
  0.000000000000000E+000
  0.000000000000000E+000
  0.000000000000000E+000
  0.000000000000000E+000
  0.000000000000000E+000
  0.000000000000000E+000
  0.000000000000000E+000
  0.000000000000000E+000
  0.000000000000000E+000
  0.000000000000000E+000
  0.000000000000000E+000
  0.000000000000000E+000
  0.000000000000000E+000
  0.000000000000000E+000
  0.000000000000000E+000
  0.000000000000000E+000
  0.000000000000000E+000
  0.000000000000000E+000
  0.000000000000000E+000
  0.000000000000000E+000
  0.000000000000000E+000
  0.000000000000000E+000
  0.000000000000000E+000
  0.000000000000000E+000
  0.000000000000000E+000
  0.000000000000000E+000
  0.000000000000000E+000
  0.000000000000000E+000
  0.000000000000000E+000
  0.000000000000000E+000
  0.000000000000000E+000
  0.000000000000000E+000
  0.000000000000000E+000
  0.000000000000000E+000
  0.000000000000000E+000
  0.000000000000000E+000
  0.000000000000000E+000
  0.000000000000000E+000
  0.000000000000000E+000
   1.00000000000000     
   1.00000000000000     
  0.000000000000000E+000
  0.000000000000000E+000
  0.000000000000000E+000
  0.000000000000000E+000
  0.000000000000000E+000
  0.000000000000000E+000
  0.000000000000000E+000
  0.000000000000000E+000
  0.000000000000000E+000
  0.000000000000000E+000
  0.000000000000000E+000
  0.000000000000000E+000
  0.000000000000000E+000
  0.000000000000000E+000
  0.000000000000000E+000
  0.000000000000000E+000
  0.000000000000000E+000
  0.000000000000000E+000
  0.000000000000000E+000
  0.000000000000000E+000
  0.000000000000000E+000
  0.000000000000000E+000
  0.000000000000000E+000
  0.000000000000000E+000
  0.000000000000000E+000
  0.000000000000000E+000
  0.000000000000000E+000
  0.000000000000000E+000
  0.000000000000000E+000
  0.000000000000000E+000
  0.000000000000000E+000
  0.000000000000000E+000
  0.000000000000000E+000
  0.000000000000000E+000
  0.000000000000000E+000
  0.000000000000000E+000
  0.000000000000000E+000
  0.000000000000000E+000
  0.000000000000000E+000
  0.000000000000000E+000
  0.000000000000000E+000
  0.000000000000000E+000
  0.000000000000000E+000
  0.000000000000000E+000
  0.000000000000000E+000
  0.000000000000000E+000
  0.000000000000000E+000
   1.00000000000000     
   1.00000000000000     
   1.00000000000000     
  0.000000000000000E+000
  0.000000000000000E+000
  0.000000000000000E+000
  0.000000000000000E+000
  0.000000000000000E+000
  0.000000000000000E+000
  0.000000000000000E+000
  0.000000000000000E+000
  0.000000000000000E+000
  0.000000000000000E+000
  0.000000000000000E+000
  0.000000000000000E+000
  0.000000000000000E+000
  0.000000000000000E+000
  0.000000000000000E+000
  0.000000000000000E+000
  0.000000000000000E+000
  0.000000000000000E+000
  0.000000000000000E+000
  0.000000000000000E+000
  0.000000000000000E+000
  0.000000000000000E+000
  0.000000000000000E+000
  0.000000000000000E+000
  0.000000000000000E+000
  0.000000000000000E+000
  0.000000000000000E+000
  0.000000000000000E+000
  0.000000000000000E+000
  0.000000000000000E+000
  0.000000000000000E+000
  0.000000000000000E+000
  0.000000000000000E+000
  0.000000000000000E+000
  0.000000000000000E+000
  0.000000000000000E+000
  0.000000000000000E+000
  0.000000000000000E+000
  0.000000000000000E+000
  0.000000000000000E+000
  0.000000000000000E+000
  0.000000000000000E+000
  0.000000000000000E+000
  0.000000000000000E+000
  0.000000000000000E+000
  0.000000000000000E+000
  0.000000000000000E+000
   1.00000000000000     
   1.00000000000000     
   1.00000000000000     
  0.000000000000000E+000
  0.000000000000000E+000
  0.000000000000000E+000
  0.000000000000000E+000
  0.000000000000000E+000
  0.000000000000000E+000
  0.000000000000000E+000
  0.000000000000000E+000
  0.000000000000000E+000
  0.000000000000000E+000
  0.000000000000000E+000
  0.000000000000000E+000
  0.000000000000000E+000
  0.000000000000000E+000
  0.000000000000000E+000
  0.000000000000000E+000
  0.000000000000000E+000
  0.000000000000000E+000
  0.000000000000000E+000
  0.000000000000000E+000
  0.000000000000000E+000
  0.000000000000000E+000
  0.000000000000000E+000
  0.000000000000000E+000
  0.000000000000000E+000
  0.000000000000000E+000
  0.000000000000000E+000
  0.000000000000000E+000
  0.000000000000000E+000
  0.000000000000000E+000
  0.000000000000000E+000
  0.000000000000000E+000
  0.000000000000000E+000
  0.000000000000000E+000
  0.000000000000000E+000
  0.000000000000000E+000
  0.000000000000000E+000
  0.000000000000000E+000
  0.000000000000000E+000
  0.000000000000000E+000
  0.000000000000000E+000
  0.000000000000000E+000
  0.000000000000000E+000
  0.000000000000000E+000
  0.000000000000000E+000
  0.000000000000000E+000
  0.000000000000000E+000
  0.000000000000000E+000
   1.00000000000000     
   1.00000000000000     
  0.000000000000000E+000
  0.000000000000000E+000
  0.000000000000000E+000
  0.000000000000000E+000
  0.000000000000000E+000
  0.000000000000000E+000
  0.000000000000000E+000
  0.000000000000000E+000
  0.000000000000000E+000
  0.000000000000000E+000
  0.000000000000000E+000
  0.000000000000000E+000
  0.000000000000000E+000
  0.000000000000000E+000
  0.000000000000000E+000
  0.000000000000000E+000
  0.000000000000000E+000
  0.000000000000000E+000
  0.000000000000000E+000
  0.000000000000000E+000
  0.000000000000000E+000
  0.000000000000000E+000
  0.000000000000000E+000
  0.000000000000000E+000
  0.000000000000000E+000
  0.000000000000000E+000
  0.000000000000000E+000
  0.000000000000000E+000
  0.000000000000000E+000
  0.000000000000000E+000
  0.000000000000000E+000
  0.000000000000000E+000
  0.000000000000000E+000
  0.000000000000000E+000
  0.000000000000000E+000
  0.000000000000000E+000
  0.000000000000000E+000
  0.000000000000000E+000
  0.000000000000000E+000
  0.000000000000000E+000
  0.000000000000000E+000
  0.000000000000000E+000
  0.000000000000000E+000
  0.000000000000000E+000
  0.000000000000000E+000
  0.000000000000000E+000
  0.000000000000000E+000
  0.000000000000000E+000
   1.00000000000000     
   1.00000000000000     
  0.000000000000000E+000
  0.000000000000000E+000
  0.000000000000000E+000
  0.000000000000000E+000
  0.000000000000000E+000
  0.000000000000000E+000
  0.000000000000000E+000
  0.000000000000000E+000
  0.000000000000000E+000
  0.000000000000000E+000
  0.000000000000000E+000
  0.000000000000000E+000
  0.000000000000000E+000
  0.000000000000000E+000
  0.000000000000000E+000
  0.000000000000000E+000
  0.000000000000000E+000
  0.000000000000000E+000
  0.000000000000000E+000
  0.000000000000000E+000
  0.000000000000000E+000
  0.000000000000000E+000
  0.000000000000000E+000
  0.000000000000000E+000
  0.000000000000000E+000
  0.000000000000000E+000
  0.000000000000000E+000
  0.000000000000000E+000
  0.000000000000000E+000
  0.000000000000000E+000
  0.000000000000000E+000
  0.000000000000000E+000
  0.000000000000000E+000
  0.000000000000000E+000
  0.000000000000000E+000
  0.000000000000000E+000
  0.000000000000000E+000
  0.000000000000000E+000
  0.000000000000000E+000
  0.000000000000000E+000
  0.000000000000000E+000
  0.000000000000000E+000
  0.000000000000000E+000
  0.000000000000000E+000
  0.000000000000000E+000
  0.000000000000000E+000
  0.000000000000000E+000
  0.000000000000000E+000
   1.00000000000000     
   1.00000000000000     
  0.000000000000000E+000
  0.000000000000000E+000
  0.000000000000000E+000
  0.000000000000000E+000
  0.000000000000000E+000
  0.000000000000000E+000
  0.000000000000000E+000
  0.000000000000000E+000
  0.000000000000000E+000
  0.000000000000000E+000
  0.000000000000000E+000
  0.000000000000000E+000
  0.000000000000000E+000
  0.000000000000000E+000
  0.000000000000000E+000
  0.000000000000000E+000
  0.000000000000000E+000
  0.000000000000000E+000
  0.000000000000000E+000
  0.000000000000000E+000
  0.000000000000000E+000
  0.000000000000000E+000
  0.000000000000000E+000
  0.000000000000000E+000
  0.000000000000000E+000
  0.000000000000000E+000
  0.000000000000000E+000
  0.000000000000000E+000
  0.000000000000000E+000
  0.000000000000000E+000
  0.000000000000000E+000
  0.000000000000000E+000
  0.000000000000000E+000
  0.000000000000000E+000
  0.000000000000000E+000
  0.000000000000000E+000
  0.000000000000000E+000
  0.000000000000000E+000
  0.000000000000000E+000
  0.000000000000000E+000
  0.000000000000000E+000
  0.000000000000000E+000
  0.000000000000000E+000
  0.000000000000000E+000
  0.000000000000000E+000
  0.000000000000000E+000
  0.000000000000000E+000
  0.000000000000000E+000
   1.00000000000000     
   1.00000000000000     
  0.000000000000000E+000
  0.000000000000000E+000
  0.000000000000000E+000
  0.000000000000000E+000
  0.000000000000000E+000
  0.000000000000000E+000
  0.000000000000000E+000
  0.000000000000000E+000
  0.000000000000000E+000
  0.000000000000000E+000
  0.000000000000000E+000
  0.000000000000000E+000
  0.000000000000000E+000
  0.000000000000000E+000
  0.000000000000000E+000
  0.000000000000000E+000
  0.000000000000000E+000
  0.000000000000000E+000
  0.000000000000000E+000
  0.000000000000000E+000
  0.000000000000000E+000
  0.000000000000000E+000
  0.000000000000000E+000
  0.000000000000000E+000
  0.000000000000000E+000
  0.000000000000000E+000
  0.000000000000000E+000
  0.000000000000000E+000
  0.000000000000000E+000
  0.000000000000000E+000
  0.000000000000000E+000
  0.000000000000000E+000
  0.000000000000000E+000
  0.000000000000000E+000
  0.000000000000000E+000
  0.000000000000000E+000
  0.000000000000000E+000
  0.000000000000000E+000
  0.000000000000000E+000
  0.000000000000000E+000
  0.000000000000000E+000
  0.000000000000000E+000
  0.000000000000000E+000
  0.000000000000000E+000
  0.000000000000000E+000
  0.000000000000000E+000
  0.000000000000000E+000
  0.000000000000000E+000
  0.000000000000000E+000
   1.00000000000000     
  0.000000000000000E+000
  0.000000000000000E+000
   1.00000000000000     
  0.000000000000000E+000
  0.000000000000000E+000
  0.000000000000000E+000
  0.000000000000000E+000
  0.000000000000000E+000
  0.000000000000000E+000
  0.000000000000000E+000
  0.000000000000000E+000
  0.000000000000000E+000
  0.000000000000000E+000
  0.000000000000000E+000
  0.000000000000000E+000
  0.000000000000000E+000
  0.000000000000000E+000
  0.000000000000000E+000
  0.000000000000000E+000
  0.000000000000000E+000
  0.000000000000000E+000
  0.000000000000000E+000
  0.000000000000000E+000
  0.000000000000000E+000
  0.000000000000000E+000
  0.000000000000000E+000
  0.000000000000000E+000
  0.000000000000000E+000
  0.000000000000000E+000
  0.000000000000000E+000
  0.000000000000000E+000
  0.000000000000000E+000
  0.000000000000000E+000
  0.000000000000000E+000
  0.000000000000000E+000
  0.000000000000000E+000
  0.000000000000000E+000
  0.000000000000000E+000
  0.000000000000000E+000
  0.000000000000000E+000
  0.000000000000000E+000
  0.000000000000000E+000
  0.000000000000000E+000
  0.000000000000000E+000
  0.000000000000000E+000
  0.000000000000000E+000
  0.000000000000000E+000
  0.000000000000000E+000
  0.000000000000000E+000
   1.00000000000000     
   1.00000000000000     
   1.00000000000000     
   1.00000000000000     
   1.00000000000000     
  0.000000000000000E+000
  0.000000000000000E+000
  0.000000000000000E+000
  0.000000000000000E+000
  0.000000000000000E+000
  0.000000000000000E+000
  0.000000000000000E+000
  0.000000000000000E+000
  0.000000000000000E+000
  0.000000000000000E+000
  0.000000000000000E+000
  0.000000000000000E+000
  0.000000000000000E+000
  0.000000000000000E+000
  0.000000000000000E+000
  0.000000000000000E+000
  0.000000000000000E+000
  0.000000000000000E+000
  0.000000000000000E+000
  0.000000000000000E+000
  0.000000000000000E+000
  0.000000000000000E+000
  0.000000000000000E+000
  0.000000000000000E+000
  0.000000000000000E+000
  0.000000000000000E+000
  0.000000000000000E+000
  0.000000000000000E+000
  0.000000000000000E+000
  0.000000000000000E+000
  0.000000000000000E+000
  0.000000000000000E+000
  0.000000000000000E+000
  0.000000000000000E+000
  0.000000000000000E+000
  0.000000000000000E+000
  0.000000000000000E+000
  0.000000000000000E+000
  0.000000000000000E+000
  0.000000000000000E+000
  0.000000000000000E+000
  0.000000000000000E+000
  0.000000000000000E+000
  0.000000000000000E+000
  0.000000000000000E+000
   1.00000000000000     
   1.00000000000000     
   1.00000000000000     
   1.00000000000000     
   1.00000000000000     
   1.00000000000000     
   1.00000000000000     
  0.000000000000000E+000
  0.000000000000000E+000
  0.000000000000000E+000
  0.000000000000000E+000
   1.00000000000000     
   1.00000000000000     
   1.00000000000000     
   1.00000000000000     
   1.00000000000000     
   1.00000000000000     
   1.00000000000000     
   1.00000000000000     
   1.00000000000000     
   1.00000000000000     
   1.00000000000000     
   1.00000000000000     
   1.00000000000000     
   1.00000000000000     
   1.00000000000000     
   1.00000000000000     
   1.00000000000000     
   1.00000000000000     
   1.00000000000000     
   1.00000000000000     
   1.00000000000000     
   1.00000000000000     
   1.00000000000000     
   1.00000000000000     
   1.00000000000000     
   1.00000000000000     
   1.00000000000000     
   1.00000000000000     
   1.00000000000000     
   1.00000000000000     
   1.00000000000000     
   1.00000000000000     
  0.000000000000000E+000
  0.000000000000000E+000
  0.000000000000000E+000
  0.000000000000000E+000
  0.000000000000000E+000
  0.000000000000000E+000
  0.000000000000000E+000
   1.00000000000000     
   1.00000000000000     
   1.00000000000000     
   1.00000000000000     
   1.00000000000000     
   1.00000000000000     
   1.00000000000000     
   1.00000000000000     
   1.00000000000000     
   1.00000000000000     
   1.00000000000000     
   1.00000000000000     
   1.00000000000000     
   1.00000000000000     
   1.00000000000000     
   1.00000000000000     
   1.00000000000000     
   1.00000000000000     
   1.00000000000000     
   1.00000000000000     
   1.00000000000000     
   1.00000000000000     
   1.00000000000000     
   1.00000000000000     
   1.00000000000000     
   1.00000000000000     
   1.00000000000000     
   1.00000000000000     
   1.00000000000000     
   1.00000000000000     
   1.00000000000000     
   1.00000000000000     
   1.00000000000000     
   1.00000000000000     
   1.00000000000000     
   1.00000000000000     
   1.00000000000000     
  0.000000000000000E+000
  0.000000000000000E+000
  0.000000000000000E+000
  0.000000000000000E+000
  0.000000000000000E+000
  0.000000000000000E+000
  0.000000000000000E+000
  0.000000000000000E+000
  0.000000000000000E+000
  0.000000000000000E+000
  0.000000000000000E+000
  0.000000000000000E+000
  0.000000000000000E+000
  0.000000000000000E+000
