# vtk DataFile Version 3.0
vtk output
ASCII
DATASET UNSTRUCTURED_GRID
POINTS       496 double 
  0.00000000E+00  3.00000000E+02  0.00000000E+00
  0.00000000E+00  2.80000000E+02  0.00000000E+00
  0.00000000E+00  2.60000000E+02  0.00000000E+00
  0.00000000E+00  2.40000000E+02  0.00000000E+00
  0.00000000E+00  2.20000000E+02  0.00000000E+00
  0.00000000E+00  2.00000000E+02  0.00000000E+00
  0.00000000E+00  1.80000000E+02  0.00000000E+00
  0.00000000E+00  1.60000000E+02  0.00000000E+00
  0.00000000E+00  1.40000000E+02  0.00000000E+00
  0.00000000E+00  1.20000000E+02  0.00000000E+00
  0.00000000E+00  1.00000000E+02  0.00000000E+00
  0.00000000E+00  8.00000000E+01  0.00000000E+00
  0.00000000E+00  6.00000000E+01  0.00000000E+00
  0.00000000E+00  4.00000000E+01  0.00000000E+00
  0.00000000E+00  2.00000000E+01  0.00000000E+00
  0.00000000E+00  4.99600361E-14  0.00000000E+00
  2.00000000E+01  3.00000000E+02  0.00000000E+00
  2.00000000E+01  2.80000000E+02  0.00000000E+00
  2.00000000E+01  2.60000000E+02  0.00000000E+00
  2.00000000E+01  2.40000000E+02  0.00000000E+00
  2.00000000E+01  2.20000000E+02  0.00000000E+00
  2.00000000E+01  2.00000000E+02  0.00000000E+00
  2.00000000E+01  1.80000000E+02  0.00000000E+00
  2.00000000E+01  1.60000000E+02  0.00000000E+00
  2.00000000E+01  1.40000000E+02  0.00000000E+00
  2.00000000E+01  1.20000000E+02  0.00000000E+00
  2.00000000E+01  1.00000000E+02  0.00000000E+00
  2.00000000E+01  8.00000000E+01  0.00000000E+00
  2.00000000E+01  6.00000000E+01  0.00000000E+00
  2.00000000E+01  4.00000000E+01  0.00000000E+00
  2.00000000E+01  2.00000000E+01  0.00000000E+00
  2.00000000E+01  4.99600361E-14  0.00000000E+00
  4.00000000E+01  3.00000000E+02  0.00000000E+00
  4.00000000E+01  2.80000000E+02  0.00000000E+00
  4.00000000E+01  2.60000000E+02  0.00000000E+00
  4.00000000E+01  2.40000000E+02  0.00000000E+00
  4.00000000E+01  2.20000000E+02  0.00000000E+00
  4.00000000E+01  2.00000000E+02  0.00000000E+00
  4.00000000E+01  1.80000000E+02  0.00000000E+00
  4.00000000E+01  1.60000000E+02  0.00000000E+00
  4.00000000E+01  1.40000000E+02  0.00000000E+00
  4.00000000E+01  1.20000000E+02  0.00000000E+00
  4.00000000E+01  1.00000000E+02  0.00000000E+00
  4.00000000E+01  8.00000000E+01  0.00000000E+00
  4.00000000E+01  6.00000000E+01  0.00000000E+00
  4.00000000E+01  4.00000000E+01  0.00000000E+00
  4.00000000E+01  2.00000000E+01  0.00000000E+00
  4.00000000E+01  4.99600361E-14  0.00000000E+00
  6.00000000E+01  3.00000000E+02  0.00000000E+00
  6.00000000E+01  2.80000000E+02  0.00000000E+00
  6.00000000E+01  2.60000000E+02  0.00000000E+00
  6.00000000E+01  2.40000000E+02  0.00000000E+00
  6.00000000E+01  2.20000000E+02  0.00000000E+00
  6.00000000E+01  2.00000000E+02  0.00000000E+00
  6.00000000E+01  1.80000000E+02  0.00000000E+00
  6.00000000E+01  1.60000000E+02  0.00000000E+00
  6.00000000E+01  1.40000000E+02  0.00000000E+00
  6.00000000E+01  1.20000000E+02  0.00000000E+00
  6.00000000E+01  1.00000000E+02  0.00000000E+00
  6.00000000E+01  8.00000000E+01  0.00000000E+00
  6.00000000E+01  6.00000000E+01  0.00000000E+00
  6.00000000E+01  4.00000000E+01  0.00000000E+00
  6.00000000E+01  2.00000000E+01  0.00000000E+00
  6.00000000E+01  4.99600361E-14  0.00000000E+00
  8.00000000E+01  3.00000000E+02  0.00000000E+00
  8.00000000E+01  2.80000000E+02  0.00000000E+00
  8.00000000E+01  2.60000000E+02  0.00000000E+00
  8.00000000E+01  2.40000000E+02  0.00000000E+00
  8.00000000E+01  2.20000000E+02  0.00000000E+00
  8.00000000E+01  2.00000000E+02  0.00000000E+00
  8.00000000E+01  1.80000000E+02  0.00000000E+00
  8.00000000E+01  1.60000000E+02  0.00000000E+00
  8.00000000E+01  1.40000000E+02  0.00000000E+00
  8.00000000E+01  1.20000000E+02  0.00000000E+00
  8.00000000E+01  1.00000000E+02  0.00000000E+00
  8.00000000E+01  8.00000000E+01  0.00000000E+00
  8.00000000E+01  6.00000000E+01  0.00000000E+00
  8.00000000E+01  4.00000000E+01  0.00000000E+00
  8.00000000E+01  2.00000000E+01  0.00000000E+00
  8.00000000E+01  4.99600361E-14  0.00000000E+00
  1.00000000E+02  3.00000000E+02  0.00000000E+00
  1.00000000E+02  2.80000000E+02  0.00000000E+00
  1.00000000E+02  2.60000000E+02  0.00000000E+00
  1.00000000E+02  2.40000000E+02  0.00000000E+00
  1.00000000E+02  2.20000000E+02  0.00000000E+00
  1.00000000E+02  2.00000000E+02  0.00000000E+00
  1.00000000E+02  1.80000000E+02  0.00000000E+00
  1.00000000E+02  1.60000000E+02  0.00000000E+00
  1.00000000E+02  1.40000000E+02  0.00000000E+00
  1.00000000E+02  1.20000000E+02  0.00000000E+00
  1.00000000E+02  1.00000000E+02  0.00000000E+00
  1.00000000E+02  8.00000000E+01  0.00000000E+00
  1.00000000E+02  6.00000000E+01  0.00000000E+00
  1.00000000E+02  4.00000000E+01  0.00000000E+00
  1.00000000E+02  2.00000000E+01  0.00000000E+00
  1.00000000E+02  4.99600361E-14  0.00000000E+00
  1.20000000E+02  3.00000000E+02  0.00000000E+00
  1.20000000E+02  2.80000000E+02  0.00000000E+00
  1.20000000E+02  2.60000000E+02  0.00000000E+00
  1.20000000E+02  2.40000000E+02  0.00000000E+00
  1.20000000E+02  2.20000000E+02  0.00000000E+00
  1.20000000E+02  2.00000000E+02  0.00000000E+00
  1.20000000E+02  1.80000000E+02  0.00000000E+00
  1.20000000E+02  1.60000000E+02  0.00000000E+00
  1.20000000E+02  1.40000000E+02  0.00000000E+00
  1.20000000E+02  1.20000000E+02  0.00000000E+00
  1.20000000E+02  1.00000000E+02  0.00000000E+00
  1.20000000E+02  8.00000000E+01  0.00000000E+00
  1.20000000E+02  6.00000000E+01  0.00000000E+00
  1.20000000E+02  4.00000000E+01  0.00000000E+00
  1.20000000E+02  2.00000000E+01  0.00000000E+00
  1.20000000E+02  4.99600361E-14  0.00000000E+00
  1.40000000E+02  3.00000000E+02  0.00000000E+00
  1.40000000E+02  2.80000000E+02  0.00000000E+00
  1.40000000E+02  2.60000000E+02  0.00000000E+00
  1.40000000E+02  2.40000000E+02  0.00000000E+00
  1.40000000E+02  2.20000000E+02  0.00000000E+00
  1.40000000E+02  2.00000000E+02  0.00000000E+00
  1.40000000E+02  1.80000000E+02  0.00000000E+00
  1.40000000E+02  1.60000000E+02  0.00000000E+00
  1.40000000E+02  1.40000000E+02  0.00000000E+00
  1.40000000E+02  1.20000000E+02  0.00000000E+00
  1.40000000E+02  1.00000000E+02  0.00000000E+00
  1.40000000E+02  8.00000000E+01  0.00000000E+00
  1.40000000E+02  6.00000000E+01  0.00000000E+00
  1.40000000E+02  4.00000000E+01  0.00000000E+00
  1.40000000E+02  2.00000000E+01  0.00000000E+00
  1.40000000E+02  4.99600361E-14  0.00000000E+00
  1.60000000E+02  3.00000000E+02  0.00000000E+00
  1.60000000E+02  2.80000000E+02  0.00000000E+00
  1.60000000E+02  2.60000000E+02  0.00000000E+00
  1.60000000E+02  2.40000000E+02  0.00000000E+00
  1.60000000E+02  2.20000000E+02  0.00000000E+00
  1.60000000E+02  2.00000000E+02  0.00000000E+00
  1.60000000E+02  1.80000000E+02  0.00000000E+00
  1.60000000E+02  1.60000000E+02  0.00000000E+00
  1.60000000E+02  1.40000000E+02  0.00000000E+00
  1.60000000E+02  1.20000000E+02  0.00000000E+00
  1.60000000E+02  1.00000000E+02  0.00000000E+00
  1.60000000E+02  8.00000000E+01  0.00000000E+00
  1.60000000E+02  6.00000000E+01  0.00000000E+00
  1.60000000E+02  4.00000000E+01  0.00000000E+00
  1.60000000E+02  2.00000000E+01  0.00000000E+00
  1.60000000E+02  4.99600361E-14  0.00000000E+00
  1.80000000E+02  3.00000000E+02  0.00000000E+00
  1.80000000E+02  2.80000000E+02  0.00000000E+00
  1.80000000E+02  2.60000000E+02  0.00000000E+00
  1.80000000E+02  2.40000000E+02  0.00000000E+00
  1.80000000E+02  2.20000000E+02  0.00000000E+00
  1.80000000E+02  2.00000000E+02  0.00000000E+00
  1.80000000E+02  1.80000000E+02  0.00000000E+00
  1.80000000E+02  1.60000000E+02  0.00000000E+00
  1.80000000E+02  1.40000000E+02  0.00000000E+00
  1.80000000E+02  1.20000000E+02  0.00000000E+00
  1.80000000E+02  1.00000000E+02  0.00000000E+00
  1.80000000E+02  8.00000000E+01  0.00000000E+00
  1.80000000E+02  6.00000000E+01  0.00000000E+00
  1.80000000E+02  4.00000000E+01  0.00000000E+00
  1.80000000E+02  2.00000000E+01  0.00000000E+00
  1.80000000E+02  4.99600361E-14  0.00000000E+00
  2.00000000E+02  3.00000000E+02  0.00000000E+00
  2.00000000E+02  2.80000000E+02  0.00000000E+00
  2.00000000E+02  2.60000000E+02  0.00000000E+00
  2.00000000E+02  2.40000000E+02  0.00000000E+00
  2.00000000E+02  2.20000000E+02  0.00000000E+00
  2.00000000E+02  2.00000000E+02  0.00000000E+00
  2.00000000E+02  1.80000000E+02  0.00000000E+00
  2.00000000E+02  1.60000000E+02  0.00000000E+00
  2.00000000E+02  1.40000000E+02  0.00000000E+00
  2.00000000E+02  1.20000000E+02  0.00000000E+00
  2.00000000E+02  1.00000000E+02  0.00000000E+00
  2.00000000E+02  8.00000000E+01  0.00000000E+00
  2.00000000E+02  6.00000000E+01  0.00000000E+00
  2.00000000E+02  4.00000000E+01  0.00000000E+00
  2.00000000E+02  2.00000000E+01  0.00000000E+00
  2.00000000E+02  4.99600361E-14  0.00000000E+00
  2.20000000E+02  3.00000000E+02  0.00000000E+00
  2.20000000E+02  2.80000000E+02  0.00000000E+00
  2.20000000E+02  2.60000000E+02  0.00000000E+00
  2.20000000E+02  2.40000000E+02  0.00000000E+00
  2.20000000E+02  2.20000000E+02  0.00000000E+00
  2.20000000E+02  2.00000000E+02  0.00000000E+00
  2.20000000E+02  1.80000000E+02  0.00000000E+00
  2.20000000E+02  1.60000000E+02  0.00000000E+00
  2.20000000E+02  1.40000000E+02  0.00000000E+00
  2.20000000E+02  1.20000000E+02  0.00000000E+00
  2.20000000E+02  1.00000000E+02  0.00000000E+00
  2.20000000E+02  8.00000000E+01  0.00000000E+00
  2.20000000E+02  6.00000000E+01  0.00000000E+00
  2.20000000E+02  4.00000000E+01  0.00000000E+00
  2.20000000E+02  2.00000000E+01  0.00000000E+00
  2.20000000E+02  4.99600361E-14  0.00000000E+00
  2.40000000E+02  3.00000000E+02  0.00000000E+00
  2.40000000E+02  2.80000000E+02  0.00000000E+00
  2.40000000E+02  2.60000000E+02  0.00000000E+00
  2.40000000E+02  2.40000000E+02  0.00000000E+00
  2.40000000E+02  2.20000000E+02  0.00000000E+00
  2.40000000E+02  2.00000000E+02  0.00000000E+00
  2.40000000E+02  1.80000000E+02  0.00000000E+00
  2.40000000E+02  1.60000000E+02  0.00000000E+00
  2.40000000E+02  1.40000000E+02  0.00000000E+00
  2.40000000E+02  1.20000000E+02  0.00000000E+00
  2.40000000E+02  1.00000000E+02  0.00000000E+00
  2.40000000E+02  8.00000000E+01  0.00000000E+00
  2.40000000E+02  6.00000000E+01  0.00000000E+00
  2.40000000E+02  4.00000000E+01  0.00000000E+00
  2.40000000E+02  2.00000000E+01  0.00000000E+00
  2.40000000E+02  4.99600361E-14  0.00000000E+00
  2.60000000E+02  3.00000000E+02  0.00000000E+00
  2.60000000E+02  2.80000000E+02  0.00000000E+00
  2.60000000E+02  2.60000000E+02  0.00000000E+00
  2.60000000E+02  2.40000000E+02  0.00000000E+00
  2.60000000E+02  2.20000000E+02  0.00000000E+00
  2.60000000E+02  2.00000000E+02  0.00000000E+00
  2.60000000E+02  1.80000000E+02  0.00000000E+00
  2.60000000E+02  1.60000000E+02  0.00000000E+00
  2.60000000E+02  1.40000000E+02  0.00000000E+00
  2.60000000E+02  1.20000000E+02  0.00000000E+00
  2.60000000E+02  1.00000000E+02  0.00000000E+00
  2.60000000E+02  8.00000000E+01  0.00000000E+00
  2.60000000E+02  6.00000000E+01  0.00000000E+00
  2.60000000E+02  4.00000000E+01  0.00000000E+00
  2.60000000E+02  2.00000000E+01  0.00000000E+00
  2.60000000E+02  4.99600361E-14  0.00000000E+00
  2.80000000E+02  3.00000000E+02  0.00000000E+00
  2.80000000E+02  2.80000000E+02  0.00000000E+00
  2.80000000E+02  2.60000000E+02  0.00000000E+00
  2.80000000E+02  2.40000000E+02  0.00000000E+00
  2.80000000E+02  2.20000000E+02  0.00000000E+00
  2.80000000E+02  2.00000000E+02  0.00000000E+00
  2.80000000E+02  1.80000000E+02  0.00000000E+00
  2.80000000E+02  1.60000000E+02  0.00000000E+00
  2.80000000E+02  1.40000000E+02  0.00000000E+00
  2.80000000E+02  1.20000000E+02  0.00000000E+00
  2.80000000E+02  1.00000000E+02  0.00000000E+00
  2.80000000E+02  8.00000000E+01  0.00000000E+00
  2.80000000E+02  6.00000000E+01  0.00000000E+00
  2.80000000E+02  4.00000000E+01  0.00000000E+00
  2.80000000E+02  2.00000000E+01  0.00000000E+00
  2.80000000E+02  4.99600361E-14  0.00000000E+00
  3.00000000E+02  3.00000000E+02  0.00000000E+00
  3.00000000E+02  2.80000000E+02  0.00000000E+00
  3.00000000E+02  2.60000000E+02  0.00000000E+00
  3.00000000E+02  2.40000000E+02  0.00000000E+00
  3.00000000E+02  2.20000000E+02  0.00000000E+00
  3.00000000E+02  2.00000000E+02  0.00000000E+00
  3.00000000E+02  1.80000000E+02  0.00000000E+00
  3.00000000E+02  1.60000000E+02  0.00000000E+00
  3.00000000E+02  1.40000000E+02  0.00000000E+00
  3.00000000E+02  1.20000000E+02  0.00000000E+00
  3.00000000E+02  1.00000000E+02  0.00000000E+00
  3.00000000E+02  8.00000000E+01  0.00000000E+00
  3.00000000E+02  6.00000000E+01  0.00000000E+00
  3.00000000E+02  4.00000000E+01  0.00000000E+00
  3.00000000E+02  2.00000000E+01  0.00000000E+00
  3.00000000E+02  4.99600361E-14  0.00000000E+00
  3.20000000E+02  3.00000000E+02  0.00000000E+00
  3.20000000E+02  2.80000000E+02  0.00000000E+00
  3.20000000E+02  2.60000000E+02  0.00000000E+00
  3.20000000E+02  2.40000000E+02  0.00000000E+00
  3.20000000E+02  2.20000000E+02  0.00000000E+00
  3.20000000E+02  2.00000000E+02  0.00000000E+00
  3.20000000E+02  1.80000000E+02  0.00000000E+00
  3.20000000E+02  1.60000000E+02  0.00000000E+00
  3.20000000E+02  1.40000000E+02  0.00000000E+00
  3.20000000E+02  1.20000000E+02  0.00000000E+00
  3.20000000E+02  1.00000000E+02  0.00000000E+00
  3.20000000E+02  8.00000000E+01  0.00000000E+00
  3.20000000E+02  6.00000000E+01  0.00000000E+00
  3.20000000E+02  4.00000000E+01  0.00000000E+00
  3.20000000E+02  2.00000000E+01  0.00000000E+00
  3.20000000E+02  4.99600361E-14  0.00000000E+00
  3.40000000E+02  3.00000000E+02  0.00000000E+00
  3.40000000E+02  2.80000000E+02  0.00000000E+00
  3.40000000E+02  2.60000000E+02  0.00000000E+00
  3.40000000E+02  2.40000000E+02  0.00000000E+00
  3.40000000E+02  2.20000000E+02  0.00000000E+00
  3.40000000E+02  2.00000000E+02  0.00000000E+00
  3.40000000E+02  1.80000000E+02  0.00000000E+00
  3.40000000E+02  1.60000000E+02  0.00000000E+00
  3.40000000E+02  1.40000000E+02  0.00000000E+00
  3.40000000E+02  1.20000000E+02  0.00000000E+00
  3.40000000E+02  1.00000000E+02  0.00000000E+00
  3.40000000E+02  8.00000000E+01  0.00000000E+00
  3.40000000E+02  6.00000000E+01  0.00000000E+00
  3.40000000E+02  4.00000000E+01  0.00000000E+00
  3.40000000E+02  2.00000000E+01  0.00000000E+00
  3.40000000E+02  4.99600361E-14  0.00000000E+00
  3.60000000E+02  3.00000000E+02  0.00000000E+00
  3.60000000E+02  2.80000000E+02  0.00000000E+00
  3.60000000E+02  2.60000000E+02  0.00000000E+00
  3.60000000E+02  2.40000000E+02  0.00000000E+00
  3.60000000E+02  2.20000000E+02  0.00000000E+00
  3.60000000E+02  2.00000000E+02  0.00000000E+00
  3.60000000E+02  1.80000000E+02  0.00000000E+00
  3.60000000E+02  1.60000000E+02  0.00000000E+00
  3.60000000E+02  1.40000000E+02  0.00000000E+00
  3.60000000E+02  1.20000000E+02  0.00000000E+00
  3.60000000E+02  1.00000000E+02  0.00000000E+00
  3.60000000E+02  8.00000000E+01  0.00000000E+00
  3.60000000E+02  6.00000000E+01  0.00000000E+00
  3.60000000E+02  4.00000000E+01  0.00000000E+00
  3.60000000E+02  2.00000000E+01  0.00000000E+00
  3.60000000E+02  4.99600361E-14  0.00000000E+00
  3.80000000E+02  3.00000000E+02  0.00000000E+00
  3.80000000E+02  2.80000000E+02  0.00000000E+00
  3.80000000E+02  2.60000000E+02  0.00000000E+00
  3.80000000E+02  2.40000000E+02  0.00000000E+00
  3.80000000E+02  2.20000000E+02  0.00000000E+00
  3.80000000E+02  2.00000000E+02  0.00000000E+00
  3.80000000E+02  1.80000000E+02  0.00000000E+00
  3.80000000E+02  1.60000000E+02  0.00000000E+00
  3.80000000E+02  1.40000000E+02  0.00000000E+00
  3.80000000E+02  1.20000000E+02  0.00000000E+00
  3.80000000E+02  1.00000000E+02  0.00000000E+00
  3.80000000E+02  8.00000000E+01  0.00000000E+00
  3.80000000E+02  6.00000000E+01  0.00000000E+00
  3.80000000E+02  4.00000000E+01  0.00000000E+00
  3.80000000E+02  2.00000000E+01  0.00000000E+00
  3.80000000E+02  4.99600361E-14  0.00000000E+00
  4.00000000E+02  3.00000000E+02  0.00000000E+00
  4.00000000E+02  2.80000000E+02  0.00000000E+00
  4.00000000E+02  2.60000000E+02  0.00000000E+00
  4.00000000E+02  2.40000000E+02  0.00000000E+00
  4.00000000E+02  2.20000000E+02  0.00000000E+00
  4.00000000E+02  2.00000000E+02  0.00000000E+00
  4.00000000E+02  1.80000000E+02  0.00000000E+00
  4.00000000E+02  1.60000000E+02  0.00000000E+00
  4.00000000E+02  1.40000000E+02  0.00000000E+00
  4.00000000E+02  1.20000000E+02  0.00000000E+00
  4.00000000E+02  1.00000000E+02  0.00000000E+00
  4.00000000E+02  8.00000000E+01  0.00000000E+00
  4.00000000E+02  6.00000000E+01  0.00000000E+00
  4.00000000E+02  4.00000000E+01  0.00000000E+00
  4.00000000E+02  2.00000000E+01  0.00000000E+00
  4.00000000E+02  4.99600361E-14  0.00000000E+00
  4.20000000E+02  3.00000000E+02  0.00000000E+00
  4.20000000E+02  2.80000000E+02  0.00000000E+00
  4.20000000E+02  2.60000000E+02  0.00000000E+00
  4.20000000E+02  2.40000000E+02  0.00000000E+00
  4.20000000E+02  2.20000000E+02  0.00000000E+00
  4.20000000E+02  2.00000000E+02  0.00000000E+00
  4.20000000E+02  1.80000000E+02  0.00000000E+00
  4.20000000E+02  1.60000000E+02  0.00000000E+00
  4.20000000E+02  1.40000000E+02  0.00000000E+00
  4.20000000E+02  1.20000000E+02  0.00000000E+00
  4.20000000E+02  1.00000000E+02  0.00000000E+00
  4.20000000E+02  8.00000000E+01  0.00000000E+00
  4.20000000E+02  6.00000000E+01  0.00000000E+00
  4.20000000E+02  4.00000000E+01  0.00000000E+00
  4.20000000E+02  2.00000000E+01  0.00000000E+00
  4.20000000E+02  4.99600361E-14  0.00000000E+00
  4.40000000E+02  3.00000000E+02  0.00000000E+00
  4.40000000E+02  2.80000000E+02  0.00000000E+00
  4.40000000E+02  2.60000000E+02  0.00000000E+00
  4.40000000E+02  2.40000000E+02  0.00000000E+00
  4.40000000E+02  2.20000000E+02  0.00000000E+00
  4.40000000E+02  2.00000000E+02  0.00000000E+00
  4.40000000E+02  1.80000000E+02  0.00000000E+00
  4.40000000E+02  1.60000000E+02  0.00000000E+00
  4.40000000E+02  1.40000000E+02  0.00000000E+00
  4.40000000E+02  1.20000000E+02  0.00000000E+00
  4.40000000E+02  1.00000000E+02  0.00000000E+00
  4.40000000E+02  8.00000000E+01  0.00000000E+00
  4.40000000E+02  6.00000000E+01  0.00000000E+00
  4.40000000E+02  4.00000000E+01  0.00000000E+00
  4.40000000E+02  2.00000000E+01  0.00000000E+00
  4.40000000E+02  4.99600361E-14  0.00000000E+00
  4.60000000E+02  3.00000000E+02  0.00000000E+00
  4.60000000E+02  2.80000000E+02  0.00000000E+00
  4.60000000E+02  2.60000000E+02  0.00000000E+00
  4.60000000E+02  2.40000000E+02  0.00000000E+00
  4.60000000E+02  2.20000000E+02  0.00000000E+00
  4.60000000E+02  2.00000000E+02  0.00000000E+00
  4.60000000E+02  1.80000000E+02  0.00000000E+00
  4.60000000E+02  1.60000000E+02  0.00000000E+00
  4.60000000E+02  1.40000000E+02  0.00000000E+00
  4.60000000E+02  1.20000000E+02  0.00000000E+00
  4.60000000E+02  1.00000000E+02  0.00000000E+00
  4.60000000E+02  8.00000000E+01  0.00000000E+00
  4.60000000E+02  6.00000000E+01  0.00000000E+00
  4.60000000E+02  4.00000000E+01  0.00000000E+00
  4.60000000E+02  2.00000000E+01  0.00000000E+00
  4.60000000E+02  4.99600361E-14  0.00000000E+00
  4.80000000E+02  3.00000000E+02  0.00000000E+00
  4.80000000E+02  2.80000000E+02  0.00000000E+00
  4.80000000E+02  2.60000000E+02  0.00000000E+00
  4.80000000E+02  2.40000000E+02  0.00000000E+00
  4.80000000E+02  2.20000000E+02  0.00000000E+00
  4.80000000E+02  2.00000000E+02  0.00000000E+00
  4.80000000E+02  1.80000000E+02  0.00000000E+00
  4.80000000E+02  1.60000000E+02  0.00000000E+00
  4.80000000E+02  1.40000000E+02  0.00000000E+00
  4.80000000E+02  1.20000000E+02  0.00000000E+00
  4.80000000E+02  1.00000000E+02  0.00000000E+00
  4.80000000E+02  8.00000000E+01  0.00000000E+00
  4.80000000E+02  6.00000000E+01  0.00000000E+00
  4.80000000E+02  4.00000000E+01  0.00000000E+00
  4.80000000E+02  2.00000000E+01  0.00000000E+00
  4.80000000E+02  4.99600361E-14  0.00000000E+00
  5.00000000E+02  3.00000000E+02  0.00000000E+00
  5.00000000E+02  2.80000000E+02  0.00000000E+00
  5.00000000E+02  2.60000000E+02  0.00000000E+00
  5.00000000E+02  2.40000000E+02  0.00000000E+00
  5.00000000E+02  2.20000000E+02  0.00000000E+00
  5.00000000E+02  2.00000000E+02  0.00000000E+00
  5.00000000E+02  1.80000000E+02  0.00000000E+00
  5.00000000E+02  1.60000000E+02  0.00000000E+00
  5.00000000E+02  1.40000000E+02  0.00000000E+00
  5.00000000E+02  1.20000000E+02  0.00000000E+00
  5.00000000E+02  1.00000000E+02  0.00000000E+00
  5.00000000E+02  8.00000000E+01  0.00000000E+00
  5.00000000E+02  6.00000000E+01  0.00000000E+00
  5.00000000E+02  4.00000000E+01  0.00000000E+00
  5.00000000E+02  2.00000000E+01  0.00000000E+00
  5.00000000E+02  4.99600361E-14  0.00000000E+00
  5.20000000E+02  3.00000000E+02  0.00000000E+00
  5.20000000E+02  2.80000000E+02  0.00000000E+00
  5.20000000E+02  2.60000000E+02  0.00000000E+00
  5.20000000E+02  2.40000000E+02  0.00000000E+00
  5.20000000E+02  2.20000000E+02  0.00000000E+00
  5.20000000E+02  2.00000000E+02  0.00000000E+00
  5.20000000E+02  1.80000000E+02  0.00000000E+00
  5.20000000E+02  1.60000000E+02  0.00000000E+00
  5.20000000E+02  1.40000000E+02  0.00000000E+00
  5.20000000E+02  1.20000000E+02  0.00000000E+00
  5.20000000E+02  1.00000000E+02  0.00000000E+00
  5.20000000E+02  8.00000000E+01  0.00000000E+00
  5.20000000E+02  6.00000000E+01  0.00000000E+00
  5.20000000E+02  4.00000000E+01  0.00000000E+00
  5.20000000E+02  2.00000000E+01  0.00000000E+00
  5.20000000E+02  4.99600361E-14  0.00000000E+00
  5.40000000E+02  3.00000000E+02  0.00000000E+00
  5.40000000E+02  2.80000000E+02  0.00000000E+00
  5.40000000E+02  2.60000000E+02  0.00000000E+00
  5.40000000E+02  2.40000000E+02  0.00000000E+00
  5.40000000E+02  2.20000000E+02  0.00000000E+00
  5.40000000E+02  2.00000000E+02  0.00000000E+00
  5.40000000E+02  1.80000000E+02  0.00000000E+00
  5.40000000E+02  1.60000000E+02  0.00000000E+00
  5.40000000E+02  1.40000000E+02  0.00000000E+00
  5.40000000E+02  1.20000000E+02  0.00000000E+00
  5.40000000E+02  1.00000000E+02  0.00000000E+00
  5.40000000E+02  8.00000000E+01  0.00000000E+00
  5.40000000E+02  6.00000000E+01  0.00000000E+00
  5.40000000E+02  4.00000000E+01  0.00000000E+00
  5.40000000E+02  2.00000000E+01  0.00000000E+00
  5.40000000E+02  4.99600361E-14  0.00000000E+00
  5.60000000E+02  3.00000000E+02  0.00000000E+00
  5.60000000E+02  2.80000000E+02  0.00000000E+00
  5.60000000E+02  2.60000000E+02  0.00000000E+00
  5.60000000E+02  2.40000000E+02  0.00000000E+00
  5.60000000E+02  2.20000000E+02  0.00000000E+00
  5.60000000E+02  2.00000000E+02  0.00000000E+00
  5.60000000E+02  1.80000000E+02  0.00000000E+00
  5.60000000E+02  1.60000000E+02  0.00000000E+00
  5.60000000E+02  1.40000000E+02  0.00000000E+00
  5.60000000E+02  1.20000000E+02  0.00000000E+00
  5.60000000E+02  1.00000000E+02  0.00000000E+00
  5.60000000E+02  8.00000000E+01  0.00000000E+00
  5.60000000E+02  6.00000000E+01  0.00000000E+00
  5.60000000E+02  4.00000000E+01  0.00000000E+00
  5.60000000E+02  2.00000000E+01  0.00000000E+00
  5.60000000E+02  4.99600361E-14  0.00000000E+00
  5.80000000E+02  3.00000000E+02  0.00000000E+00
  5.80000000E+02  2.80000000E+02  0.00000000E+00
  5.80000000E+02  2.60000000E+02  0.00000000E+00
  5.80000000E+02  2.40000000E+02  0.00000000E+00
  5.80000000E+02  2.20000000E+02  0.00000000E+00
  5.80000000E+02  2.00000000E+02  0.00000000E+00
  5.80000000E+02  1.80000000E+02  0.00000000E+00
  5.80000000E+02  1.60000000E+02  0.00000000E+00
  5.80000000E+02  1.40000000E+02  0.00000000E+00
  5.80000000E+02  1.20000000E+02  0.00000000E+00
  5.80000000E+02  1.00000000E+02  0.00000000E+00
  5.80000000E+02  8.00000000E+01  0.00000000E+00
  5.80000000E+02  6.00000000E+01  0.00000000E+00
  5.80000000E+02  4.00000000E+01  0.00000000E+00
  5.80000000E+02  2.00000000E+01  0.00000000E+00
  5.80000000E+02  4.99600361E-14  0.00000000E+00
  6.00000000E+02  3.00000000E+02  0.00000000E+00
  6.00000000E+02  2.80000000E+02  0.00000000E+00
  6.00000000E+02  2.60000000E+02  0.00000000E+00
  6.00000000E+02  2.40000000E+02  0.00000000E+00
  6.00000000E+02  2.20000000E+02  0.00000000E+00
  6.00000000E+02  2.00000000E+02  0.00000000E+00
  6.00000000E+02  1.80000000E+02  0.00000000E+00
  6.00000000E+02  1.60000000E+02  0.00000000E+00
  6.00000000E+02  1.40000000E+02  0.00000000E+00
  6.00000000E+02  1.20000000E+02  0.00000000E+00
  6.00000000E+02  1.00000000E+02  0.00000000E+00
  6.00000000E+02  8.00000000E+01  0.00000000E+00
  6.00000000E+02  6.00000000E+01  0.00000000E+00
  6.00000000E+02  4.00000000E+01  0.00000000E+00
  6.00000000E+02  2.00000000E+01  0.00000000E+00
  6.00000000E+02  4.99600361E-14  0.00000000E+00
CELLS       450      2250
         4           0           1          17          16
         4           1           2          18          17
         4           2           3          19          18
         4           3           4          20          19
         4           4           5          21          20
         4           5           6          22          21
         4           6           7          23          22
         4           7           8          24          23
         4           8           9          25          24
         4           9          10          26          25
         4          10          11          27          26
         4          11          12          28          27
         4          12          13          29          28
         4          13          14          30          29
         4          14          15          31          30
         4          16          17          33          32
         4          17          18          34          33
         4          18          19          35          34
         4          19          20          36          35
         4          20          21          37          36
         4          21          22          38          37
         4          22          23          39          38
         4          23          24          40          39
         4          24          25          41          40
         4          25          26          42          41
         4          26          27          43          42
         4          27          28          44          43
         4          28          29          45          44
         4          29          30          46          45
         4          30          31          47          46
         4          32          33          49          48
         4          33          34          50          49
         4          34          35          51          50
         4          35          36          52          51
         4          36          37          53          52
         4          37          38          54          53
         4          38          39          55          54
         4          39          40          56          55
         4          40          41          57          56
         4          41          42          58          57
         4          42          43          59          58
         4          43          44          60          59
         4          44          45          61          60
         4          45          46          62          61
         4          46          47          63          62
         4          48          49          65          64
         4          49          50          66          65
         4          50          51          67          66
         4          51          52          68          67
         4          52          53          69          68
         4          53          54          70          69
         4          54          55          71          70
         4          55          56          72          71
         4          56          57          73          72
         4          57          58          74          73
         4          58          59          75          74
         4          59          60          76          75
         4          60          61          77          76
         4          61          62          78          77
         4          62          63          79          78
         4          64          65          81          80
         4          65          66          82          81
         4          66          67          83          82
         4          67          68          84          83
         4          68          69          85          84
         4          69          70          86          85
         4          70          71          87          86
         4          71          72          88          87
         4          72          73          89          88
         4          73          74          90          89
         4          74          75          91          90
         4          75          76          92          91
         4          76          77          93          92
         4          77          78          94          93
         4          78          79          95          94
         4          80          81          97          96
         4          81          82          98          97
         4          82          83          99          98
         4          83          84         100          99
         4          84          85         101         100
         4          85          86         102         101
         4          86          87         103         102
         4          87          88         104         103
         4          88          89         105         104
         4          89          90         106         105
         4          90          91         107         106
         4          91          92         108         107
         4          92          93         109         108
         4          93          94         110         109
         4          94          95         111         110
         4          96          97         113         112
         4          97          98         114         113
         4          98          99         115         114
         4          99         100         116         115
         4         100         101         117         116
         4         101         102         118         117
         4         102         103         119         118
         4         103         104         120         119
         4         104         105         121         120
         4         105         106         122         121
         4         106         107         123         122
         4         107         108         124         123
         4         108         109         125         124
         4         109         110         126         125
         4         110         111         127         126
         4         112         113         129         128
         4         113         114         130         129
         4         114         115         131         130
         4         115         116         132         131
         4         116         117         133         132
         4         117         118         134         133
         4         118         119         135         134
         4         119         120         136         135
         4         120         121         137         136
         4         121         122         138         137
         4         122         123         139         138
         4         123         124         140         139
         4         124         125         141         140
         4         125         126         142         141
         4         126         127         143         142
         4         128         129         145         144
         4         129         130         146         145
         4         130         131         147         146
         4         131         132         148         147
         4         132         133         149         148
         4         133         134         150         149
         4         134         135         151         150
         4         135         136         152         151
         4         136         137         153         152
         4         137         138         154         153
         4         138         139         155         154
         4         139         140         156         155
         4         140         141         157         156
         4         141         142         158         157
         4         142         143         159         158
         4         144         145         161         160
         4         145         146         162         161
         4         146         147         163         162
         4         147         148         164         163
         4         148         149         165         164
         4         149         150         166         165
         4         150         151         167         166
         4         151         152         168         167
         4         152         153         169         168
         4         153         154         170         169
         4         154         155         171         170
         4         155         156         172         171
         4         156         157         173         172
         4         157         158         174         173
         4         158         159         175         174
         4         160         161         177         176
         4         161         162         178         177
         4         162         163         179         178
         4         163         164         180         179
         4         164         165         181         180
         4         165         166         182         181
         4         166         167         183         182
         4         167         168         184         183
         4         168         169         185         184
         4         169         170         186         185
         4         170         171         187         186
         4         171         172         188         187
         4         172         173         189         188
         4         173         174         190         189
         4         174         175         191         190
         4         176         177         193         192
         4         177         178         194         193
         4         178         179         195         194
         4         179         180         196         195
         4         180         181         197         196
         4         181         182         198         197
         4         182         183         199         198
         4         183         184         200         199
         4         184         185         201         200
         4         185         186         202         201
         4         186         187         203         202
         4         187         188         204         203
         4         188         189         205         204
         4         189         190         206         205
         4         190         191         207         206
         4         192         193         209         208
         4         193         194         210         209
         4         194         195         211         210
         4         195         196         212         211
         4         196         197         213         212
         4         197         198         214         213
         4         198         199         215         214
         4         199         200         216         215
         4         200         201         217         216
         4         201         202         218         217
         4         202         203         219         218
         4         203         204         220         219
         4         204         205         221         220
         4         205         206         222         221
         4         206         207         223         222
         4         208         209         225         224
         4         209         210         226         225
         4         210         211         227         226
         4         211         212         228         227
         4         212         213         229         228
         4         213         214         230         229
         4         214         215         231         230
         4         215         216         232         231
         4         216         217         233         232
         4         217         218         234         233
         4         218         219         235         234
         4         219         220         236         235
         4         220         221         237         236
         4         221         222         238         237
         4         222         223         239         238
         4         224         225         241         240
         4         225         226         242         241
         4         226         227         243         242
         4         227         228         244         243
         4         228         229         245         244
         4         229         230         246         245
         4         230         231         247         246
         4         231         232         248         247
         4         232         233         249         248
         4         233         234         250         249
         4         234         235         251         250
         4         235         236         252         251
         4         236         237         253         252
         4         237         238         254         253
         4         238         239         255         254
         4         240         241         257         256
         4         241         242         258         257
         4         242         243         259         258
         4         243         244         260         259
         4         244         245         261         260
         4         245         246         262         261
         4         246         247         263         262
         4         247         248         264         263
         4         248         249         265         264
         4         249         250         266         265
         4         250         251         267         266
         4         251         252         268         267
         4         252         253         269         268
         4         253         254         270         269
         4         254         255         271         270
         4         256         257         273         272
         4         257         258         274         273
         4         258         259         275         274
         4         259         260         276         275
         4         260         261         277         276
         4         261         262         278         277
         4         262         263         279         278
         4         263         264         280         279
         4         264         265         281         280
         4         265         266         282         281
         4         266         267         283         282
         4         267         268         284         283
         4         268         269         285         284
         4         269         270         286         285
         4         270         271         287         286
         4         272         273         289         288
         4         273         274         290         289
         4         274         275         291         290
         4         275         276         292         291
         4         276         277         293         292
         4         277         278         294         293
         4         278         279         295         294
         4         279         280         296         295
         4         280         281         297         296
         4         281         282         298         297
         4         282         283         299         298
         4         283         284         300         299
         4         284         285         301         300
         4         285         286         302         301
         4         286         287         303         302
         4         288         289         305         304
         4         289         290         306         305
         4         290         291         307         306
         4         291         292         308         307
         4         292         293         309         308
         4         293         294         310         309
         4         294         295         311         310
         4         295         296         312         311
         4         296         297         313         312
         4         297         298         314         313
         4         298         299         315         314
         4         299         300         316         315
         4         300         301         317         316
         4         301         302         318         317
         4         302         303         319         318
         4         304         305         321         320
         4         305         306         322         321
         4         306         307         323         322
         4         307         308         324         323
         4         308         309         325         324
         4         309         310         326         325
         4         310         311         327         326
         4         311         312         328         327
         4         312         313         329         328
         4         313         314         330         329
         4         314         315         331         330
         4         315         316         332         331
         4         316         317         333         332
         4         317         318         334         333
         4         318         319         335         334
         4         320         321         337         336
         4         321         322         338         337
         4         322         323         339         338
         4         323         324         340         339
         4         324         325         341         340
         4         325         326         342         341
         4         326         327         343         342
         4         327         328         344         343
         4         328         329         345         344
         4         329         330         346         345
         4         330         331         347         346
         4         331         332         348         347
         4         332         333         349         348
         4         333         334         350         349
         4         334         335         351         350
         4         336         337         353         352
         4         337         338         354         353
         4         338         339         355         354
         4         339         340         356         355
         4         340         341         357         356
         4         341         342         358         357
         4         342         343         359         358
         4         343         344         360         359
         4         344         345         361         360
         4         345         346         362         361
         4         346         347         363         362
         4         347         348         364         363
         4         348         349         365         364
         4         349         350         366         365
         4         350         351         367         366
         4         352         353         369         368
         4         353         354         370         369
         4         354         355         371         370
         4         355         356         372         371
         4         356         357         373         372
         4         357         358         374         373
         4         358         359         375         374
         4         359         360         376         375
         4         360         361         377         376
         4         361         362         378         377
         4         362         363         379         378
         4         363         364         380         379
         4         364         365         381         380
         4         365         366         382         381
         4         366         367         383         382
         4         368         369         385         384
         4         369         370         386         385
         4         370         371         387         386
         4         371         372         388         387
         4         372         373         389         388
         4         373         374         390         389
         4         374         375         391         390
         4         375         376         392         391
         4         376         377         393         392
         4         377         378         394         393
         4         378         379         395         394
         4         379         380         396         395
         4         380         381         397         396
         4         381         382         398         397
         4         382         383         399         398
         4         384         385         401         400
         4         385         386         402         401
         4         386         387         403         402
         4         387         388         404         403
         4         388         389         405         404
         4         389         390         406         405
         4         390         391         407         406
         4         391         392         408         407
         4         392         393         409         408
         4         393         394         410         409
         4         394         395         411         410
         4         395         396         412         411
         4         396         397         413         412
         4         397         398         414         413
         4         398         399         415         414
         4         400         401         417         416
         4         401         402         418         417
         4         402         403         419         418
         4         403         404         420         419
         4         404         405         421         420
         4         405         406         422         421
         4         406         407         423         422
         4         407         408         424         423
         4         408         409         425         424
         4         409         410         426         425
         4         410         411         427         426
         4         411         412         428         427
         4         412         413         429         428
         4         413         414         430         429
         4         414         415         431         430
         4         416         417         433         432
         4         417         418         434         433
         4         418         419         435         434
         4         419         420         436         435
         4         420         421         437         436
         4         421         422         438         437
         4         422         423         439         438
         4         423         424         440         439
         4         424         425         441         440
         4         425         426         442         441
         4         426         427         443         442
         4         427         428         444         443
         4         428         429         445         444
         4         429         430         446         445
         4         430         431         447         446
         4         432         433         449         448
         4         433         434         450         449
         4         434         435         451         450
         4         435         436         452         451
         4         436         437         453         452
         4         437         438         454         453
         4         438         439         455         454
         4         439         440         456         455
         4         440         441         457         456
         4         441         442         458         457
         4         442         443         459         458
         4         443         444         460         459
         4         444         445         461         460
         4         445         446         462         461
         4         446         447         463         462
         4         448         449         465         464
         4         449         450         466         465
         4         450         451         467         466
         4         451         452         468         467
         4         452         453         469         468
         4         453         454         470         469
         4         454         455         471         470
         4         455         456         472         471
         4         456         457         473         472
         4         457         458         474         473
         4         458         459         475         474
         4         459         460         476         475
         4         460         461         477         476
         4         461         462         478         477
         4         462         463         479         478
         4         464         465         481         480
         4         465         466         482         481
         4         466         467         483         482
         4         467         468         484         483
         4         468         469         485         484
         4         469         470         486         485
         4         470         471         487         486
         4         471         472         488         487
         4         472         473         489         488
         4         473         474         490         489
         4         474         475         491         490
         4         475         476         492         491
         4         476         477         493         492
         4         477         478         494         493
         4         478         479         495         494
CELL_TYPES        450
9
9
9
9
9
9
9
9
9
9
9
9
9
9
9
9
9
9
9
9
9
9
9
9
9
9
9
9
9
9
9
9
9
9
9
9
9
9
9
9
9
9
9
9
9
9
9
9
9
9
9
9
9
9
9
9
9
9
9
9
9
9
9
9
9
9
9
9
9
9
9
9
9
9
9
9
9
9
9
9
9
9
9
9
9
9
9
9
9
9
9
9
9
9
9
9
9
9
9
9
9
9
9
9
9
9
9
9
9
9
9
9
9
9
9
9
9
9
9
9
9
9
9
9
9
9
9
9
9
9
9
9
9
9
9
9
9
9
9
9
9
9
9
9
9
9
9
9
9
9
9
9
9
9
9
9
9
9
9
9
9
9
9
9
9
9
9
9
9
9
9
9
9
9
9
9
9
9
9
9
9
9
9
9
9
9
9
9
9
9
9
9
9
9
9
9
9
9
9
9
9
9
9
9
9
9
9
9
9
9
9
9
9
9
9
9
9
9
9
9
9
9
9
9
9
9
9
9
9
9
9
9
9
9
9
9
9
9
9
9
9
9
9
9
9
9
9
9
9
9
9
9
9
9
9
9
9
9
9
9
9
9
9
9
9
9
9
9
9
9
9
9
9
9
9
9
9
9
9
9
9
9
9
9
9
9
9
9
9
9
9
9
9
9
9
9
9
9
9
9
9
9
9
9
9
9
9
9
9
9
9
9
9
9
9
9
9
9
9
9
9
9
9
9
9
9
9
9
9
9
9
9
9
9
9
9
9
9
9
9
9
9
9
9
9
9
9
9
9
9
9
9
9
9
9
9
9
9
9
9
9
9
9
9
9
9
9
9
9
9
9
9
9
9
9
9
9
9
9
9
9
9
9
9
9
9
9
9
9
9
9
9
9
9
9
9
9
9
9
9
9
9
9
9
9
9
9
9
9
9
9
9
9
9
9
9
9
9
9
9
9
9
9
9
9
9
9
9
9
9
9
9
9
9
9
9
9
9
9
9
9
9
9
9
9
9
9
9
9
9
POINT_DATA       496
SCALARS p double 
LOOKUP_TABLE default
   73240633.6136350     
   73255664.9370388     
   73295317.7607458     
   73349110.8005913     
   73409568.5148480     
   73472801.2382851     
   73536376.8057919     
   73598215.6767644     
   73655414.7561943     
   73704680.2238484     
   73746340.0745961     
   73782744.1677722     
   73814292.2490178     
   73840538.6476760     
   73860497.4424665     
   73868770.2171858     
   71625732.9336360     
   71633434.5468943     
   71650017.2875981     
   71668830.7865797     
   71690300.0026592     
   71714545.4837385     
   71740522.8021367     
   71766560.0287110     
   71792337.6476090     
   71819126.1883419     
   71846082.1922172     
   71870925.8875560     
   71892488.5505074     
   71909729.3351612     
   71920890.8318795     
   71924662.0131668     
   69873832.3284356     
   69872875.2356888     
   69872234.2818534     
   69873772.7709808     
   69876516.4396986     
   69880053.6479465     
   69885471.4318299     
   69894577.8982553     
   69907592.1639451     
   69922653.6451368     
   69938122.9965826     
   69952966.8513467     
   69965987.4841163     
   69976018.7810270     
   69982158.1185213     
   69984172.8786041     
   68008089.4972401     
   68004231.9588099     
   67997471.5224754     
   67992813.4218660     
   67990509.0114328     
   67990854.3362401     
   67993670.9191209     
   67998287.8406818     
   68004267.4883246     
   68011311.9646427     
   68018868.0355906     
   68026234.3314255     
   68032694.3964536     
   68037562.6330121     
   68040417.3847702     
   68041313.5312511     
   66096286.7951401     
   66094185.5780835     
   66089368.8857452     
   66084825.6366646     
   66082121.1918425     
   66080969.4301543     
   66080896.9249655     
   66081643.5093395     
   66082963.2816861     
   66084698.2806377     
   66086710.4899229     
   66088759.5674609     
   66090532.1336596     
   66091759.7045265     
   66092349.8034228     
   66092489.4927086     
   64165698.9555429     
   64164302.3351468     
   64161188.8014819     
   64157756.8671582     
   64154536.6359562     
   64151750.2248860     
   64149294.9398667     
   64147009.8571271     
   64144838.0656855     
   64142789.9555651     
   64140905.9774475     
   64139208.7148903     
   64137693.1057585     
   64136379.9594129     
   64135392.5312073     
   64135004.0202853     
   62218867.4805527     
   62218145.9842350     
   62215965.4781344     
   62212676.7651329     
   62208808.6594079     
   62204589.4380145     
   62200107.0806053     
   62195401.6459320     
   62190545.9404688     
   62185675.8637354     
   62180965.2872227     
   62176599.1124906     
   62172764.5895747     
   62169669.5730657     
   62167574.7827681     
   62166813.9703624     
   60257116.4973896     
   60256368.0931175     
   60254130.4665840     
   60250522.7593585     
   60245810.9860447     
   60240256.0714346     
   60234045.5396315     
   60227348.5868521     
   60220358.2312439     
   60213309.7563120     
   60206476.0186383     
   60200151.5370207     
   60194643.2007020     
   60190272.8092252     
   60187386.2731603     
   60186358.5592589     
   58279549.0687730     
   58278647.7535344     
   58275991.6414906     
   58271720.0552673     
   58266042.2077349     
   58259205.2315179     
   58251462.5778035     
   58243073.4513549     
   58234321.4048743     
   58225523.8201334     
   58217029.3336564     
   58209208.4113169     
   58202444.1266733     
   58197127.4451920     
   58193655.7652302     
   58192430.7484763     
   56285763.6298443     
   56284669.7274891     
   56281484.9883427     
   56276417.2703741     
   56269705.3160857     
   56261624.5695363     
   56252478.6837089     
   56242595.6914165     
   56232330.2368374     
   56222065.4539883     
   56212209.3846652     
   56203187.1224234     
   56195431.9078451     
   56189377.5388730     
   56185452.4955399     
   56184074.9072299     
   54275486.8180273     
   54274195.2286682     
   54270458.7538100     
   54264560.9678079     
   54256801.7039707     
   54247509.9835546     
   54237045.4496890     
   54225796.1622667     
   54214176.4695373     
   54202624.0814383     
   54191594.8265494     
   54181555.0052643     
   54172972.6847859     
   54166309.3387538     
   54162012.5827092     
   54160510.3063715     
   52248492.4685612     
   52247006.5787856     
   52242722.7228143     
   52235996.7186122     
   52227199.1916450     
   52216724.9899500     
   52204995.7470606     
   52192458.3435219     
   52179581.4066837     
   52166850.4943660     
   52154761.8167259     
   52143814.6238899     
   52134502.9017270     
   52127307.2323006     
   52122687.5417270     
   52121077.3110565     
   50204555.6791667     
   50202878.9043393     
   50198054.6064282     
   50190507.5763134     
   50180681.9350096     
   50169043.6507984     
   50156080.2751124     
   50142298.2258403     
   50128218.4038375     
   50114370.6317844     
   50101287.1180228     
   50089495.1656075     
   50079509.5529471     
   50071825.1520714     
   50066910.3455096     
   50065201.7352301     
   48143431.3730160     
   48141563.6406298     
   48136198.4475605     
   48127829.6125935     
   48116976.5001015     
   48104179.0416426     
   48089993.1290676     
   48074985.6704949     
   48059729.1758203     
   48044795.8790554     
   48030751.4217250     
   48018148.2171027     
   48007518.7805052     
   47999369.4284852     
   47994174.7317804     
   47992372.9882026     
   46064841.8907264     
   46062778.6733771     
   46056861.6064035     
   46047657.7683580     
   46035765.0289482     
   46021799.9929934     
   46006388.7757700     
   45990159.5188580     
   45973735.9451352     
   45957731.4421049     
   45942743.3097299     
   45929347.0335381     
   45918090.7345340     
   45909490.1433865     
   45904024.3832954     
   45902132.5366948     
   43968469.2757115     
   43966201.7736412     
   43959711.5975130     
   43949647.5011392     
   43936691.5417537     
   43921540.6306921     
   43904892.9987220     
   43887438.4057282     
   43869851.0140327     
   43852783.8920159     
   43836864.2392604     
   43822688.7740605     
   43810819.2949456     
   43801778.9397666     
   43796049.6030781     
   43794070.2136257     
   41853949.8555217     
   41851465.7502981     
   41844373.0118367     
   41833414.4733196     
   41819364.7190352     
   41803005.8625198     
   41785110.2654112     
   41766429.0683128     
   41747685.1367247     
   41729568.8269471     
   41712734.9148825     
   41697799.3612333     
   41685335.6608841     
   41675871.8791378     
   41669889.9186167     
   41667826.7869898     
   39720869.9451374     
   39718154.4422193     
   39710424.5074979     
   39698533.3134178     
   39683358.9510502     
   39665774.8378614     
   39646629.3616022     
   39626733.6843741     
   39606855.9455771     
   39587719.6235771     
   39570003.5348268     
   39554340.7641173     
   39541314.9545593     
   39531456.2441573     
   39525241.6432853     
   39523101.9105320     
   37568762.0197146     
   37565799.0521151     
   37557395.7985554     
   37544535.9544447     
   37528214.6642067     
   37509403.6626898     
   37489028.5989244     
   37467957.4167391     
   37446997.4771228     
   37426898.3544634     
   37408356.9010490     
   37392020.7753180     
   37378484.8499368     
   37368279.9452025     
   37361869.6636127     
   37359667.3764930     
   35397100.9915652     
   35393874.5314544     
   35384764.5858700     
   35370909.8494407     
   35353438.5845168     
   35333428.2697894     
   35311881.5479992     
   35289717.0009263     
   35267771.4508527     
   35246809.5543141     
   35227536.1859182     
   35210607.4654280     
   35196634.5915887     
   35186160.4919890     
   35179622.8234158     
   35177385.6522470     
   33205300.3867673     
   33201795.8569197     
   33191953.4378034     
   33177096.3659935     
   33158504.5666260     
   33137368.2963433     
   33114764.1623454     
   33091651.0015570     
   33068880.4818936     
   33047216.4066257     
   33027357.0139584     
   33009954.7821746     
   32995632.2041150     
   32984981.7816485     
   32978444.4933967     
   32976243.1140464     
   30992708.3136800     
   30988914.1376496     
   30978326.7584830     
   30962489.8711353     
   30942855.9185892     
   30920733.1642008     
   30897264.4402217     
   30873432.4619802     
   30850083.1203818     
   30827958.0503555     
   30807729.4381001     
   30790031.6853173     
   30775481.1740939     
   30764709.4465769     
   30758340.0254157     
   30756330.1007117     
   28758603.1762495     
   28754512.5900060     
   28743188.2306255     
   28726438.5310419     
   28705910.9190425     
   28683032.4290775     
   28658996.5453033     
   28634785.1916269     
   28611210.8895813     
   28588966.4899680     
   28568674.7617352     
   28550933.9243178     
   28536355.8329763     
   28525563.2138304     
   28519402.1358795     
   28517611.7218859     
   26502189.1171981     
   26497802.5491733     
   26485779.6127175     
   26468248.9125513     
   26447074.7544009     
   26423794.0912638     
   26399622.6526138     
   26375505.8466863     
   26352188.0587412     
   26330282.8076335     
   26310337.1692228     
   26292891.1689672     
   26278537.3615844     
   26267974.9420457     
   26262016.7462909     
   26260292.3961672     
   24222591.2007501     
   24217919.9200838     
   24205282.8239823     
   24187198.6841279     
   24165764.0134829     
   24142597.2672696     
   24118887.6244491     
   24095494.8925410     
   24073055.3158694     
   24052072.4693154     
   24032992.0267605     
   24016269.7191808     
   24002443.5634966     
   23992237.2723455     
   23986334.2153232     
   23984518.1884329     
   21918850.2121620     
   21913923.0631202     
   21900829.7686665     
   21882566.5484120     
   21861455.4339707     
   21839129.6344902     
   21816673.3482748     
   21794799.6285235     
   21773998.0295114     
   21754638.8037691     
   21737048.1171501     
   21721572.6194381     
   21708656.2802998     
   21698961.8147059     
   21693082.0510645     
   21691137.5800000     
   19589917.5071879     
   19584794.5789160     
   19571531.1462413     
   19553700.1583389     
   19533780.7188958     
   19513284.6551768     
   19493078.8783992     
   19473670.0620084     
   19455377.8688498     
   19438432.7915683     
   19423038.5411719     
   19409422.0680216     
   19397891.8571205     
   19388943.1279631     
   19383216.4564919     
   19381235.6102782     
   17234646.1422125     
   17229456.8601710     
   17216557.5814050     
   17200170.2178700     
   17182706.2777675     
   17165311.4098812     
   17148524.1052015     
   17132621.9777358     
   17117763.1250117     
   17104056.3598522     
   17091600.2916006     
   17080511.3801445     
   17070946.9720630     
   17063139.9714135     
   17057781.4457020     
   17055846.1266385     
   14851805.9891461     
   14846836.8896441     
   14835379.5508963     
   14822134.9130231     
   14808831.8376212     
   14795999.8911722     
   14783856.1658208     
   14772491.3962556     
   14761948.9108876     
   14752256.8335628     
   14743444.0517062     
   14735546.6262098     
   14728607.1370038     
   14722591.4388706     
   14717998.1821617     
   14716190.4028863     
   12440031.2705090     
   12436247.3319573     
   12428640.3652093     
   12421024.1288060     
   12413713.3590078     
   12406834.1809508     
   12400414.0590832     
   12394456.0108839     
   12388956.0797293     
   12383911.0687797     
   12379321.1131384     
   12375187.6071751     
   12371494.4916479     
   12368207.2681304     
   12365128.7637679     
   12363595.2488785     
   10000000.0000000     
   10000000.0000000     
   10000000.0000000     
   10000000.0000000     
   10000000.0000000     
   10000000.0000000     
   10000000.0000000     
   10000000.0000000     
   10000000.0000000     
   10000000.0000000     
   10000000.0000000     
   10000000.0000000     
   10000000.0000000     
  10000000.00000000     
   10000000.0000000     
   10000000.0000000     
VECTORS u double 
    0.00000E+00         0.83728E+00         0.00000E+00
    0.00000E+00         0.84522E+00         0.00000E+00
    0.00000E+00         0.83070E+00         0.00000E+00
    0.00000E+00         0.79197E+00         0.00000E+00
    0.00000E+00         0.73486E+00         0.00000E+00
    0.00000E+00         0.66701E+00         0.00000E+00
    0.00000E+00         0.59489E+00         0.00000E+00
    0.00000E+00         0.52338E+00         0.00000E+00
    0.00000E+00         0.45475E+00         0.00000E+00
    0.00000E+00         0.39088E+00         0.00000E+00
    0.00000E+00         0.32924E+00         0.00000E+00
    0.00000E+00         0.26884E+00         0.00000E+00
    0.00000E+00         0.20789E+00         0.00000E+00
    0.00000E+00         0.14450E+00         0.00000E+00
    0.00000E+00         0.76479E-01         0.00000E+00
    0.00000E+00         0.00000E+00         0.00000E+00
    0.54679E+00         0.83712E+00         0.00000E+00
    0.50959E+00         0.82328E+00         0.00000E+00
    0.44612E+00         0.79391E+00         0.00000E+00
    0.37521E+00         0.75075E+00         0.00000E+00
    0.30747E+00         0.69636E+00         0.00000E+00
    0.24849E+00         0.63436E+00         0.00000E+00
    0.19740E+00         0.56867E+00         0.00000E+00
    0.15417E+00         0.50299E+00         0.00000E+00
    0.11757E+00         0.43999E+00         0.00000E+00
    0.95531E-01         0.38001E+00         0.00000E+00
    0.80727E-01         0.32126E+00         0.00000E+00
    0.67469E-01         0.26284E+00         0.00000E+00
    0.54224E-01         0.20342E+00         0.00000E+00
    0.39916E-01         0.14134E+00         0.00000E+00
    0.23178E-01         0.74493E-01         0.00000E+00
    0.00000E+00         0.00000E+00         0.00000E+00
    0.90944E+00         0.79247E+00         0.00000E+00
    0.81217E+00         0.75123E+00         0.00000E+00
    0.70717E+00         0.70762E+00         0.00000E+00
    0.60244E+00         0.66168E+00         0.00000E+00
    0.50282E+00         0.61266E+00         0.00000E+00
    0.41118E+00         0.56072E+00         0.00000E+00
    0.33122E+00         0.50721E+00         0.00000E+00
    0.26629E+00         0.45400E+00         0.00000E+00
    0.21850E+00         0.40212E+00         0.00000E+00
    0.18249E+00         0.35073E+00         0.00000E+00
    0.15337E+00         0.29879E+00         0.00000E+00
    0.12699E+00         0.24566E+00         0.00000E+00
    0.10067E+00         0.19059E+00         0.00000E+00
    0.72492E-01         0.13236E+00         0.00000E+00
    0.40114E-01         0.69347E-01         0.00000E+00
    0.00000E+00         0.00000E+00         0.00000E+00
    0.11054E+01         0.67640E+00         0.00000E+00
    0.97397E+00         0.63644E+00         0.00000E+00
    0.84914E+00         0.59579E+00         0.00000E+00
    0.73087E+00         0.55497E+00         0.00000E+00
    0.62046E+00         0.51407E+00         0.00000E+00
    0.52246E+00         0.47309E+00         0.00000E+00
    0.43800E+00         0.43226E+00         0.00000E+00
    0.36697E+00         0.39168E+00         0.00000E+00
    0.30881E+00         0.35075E+00         0.00000E+00
    0.26068E+00         0.30873E+00         0.00000E+00
    0.21881E+00         0.26508E+00         0.00000E+00
    0.17983E+00         0.21929E+00         0.00000E+00
    0.14093E+00         0.17078E+00         0.00000E+00
    0.99728E-01         0.11872E+00         0.00000E+00
    0.53715E-01         0.62085E-01         0.00000E+00
    0.00000E+00         0.00000E+00         0.00000E+00
    0.12340E+01         0.53472E+00         0.00000E+00
    0.10939E+01         0.50432E+00         0.00000E+00
    0.96124E+00         0.47313E+00         0.00000E+00
    0.83776E+00         0.44193E+00         0.00000E+00
    0.72521E+00         0.41130E+00         0.00000E+00
    0.62385E+00         0.38128E+00         0.00000E+00
    0.53443E+00         0.35144E+00         0.00000E+00
    0.45670E+00         0.32134E+00         0.00000E+00
    0.38950E+00         0.29040E+00         0.00000E+00
    0.33069E+00         0.25789E+00         0.00000E+00
    0.27742E+00         0.22323E+00         0.00000E+00
    0.22680E+00         0.18596E+00         0.00000E+00
    0.17619E+00         0.14558E+00         0.00000E+00
    0.12312E+00         0.10153E+00         0.00000E+00
    0.65198E-01         0.53176E-01         0.00000E+00
    0.00000E+00         0.00000E+00         0.00000E+00
    0.13435E+01         0.38729E+00         0.00000E+00
    0.11974E+01         0.36652E+00         0.00000E+00
    0.10613E+01         0.34555E+00         0.00000E+00
    0.93541E+00         0.32496E+00         0.00000E+00
    0.81984E+00         0.30479E+00         0.00000E+00
    0.71488E+00         0.28496E+00         0.00000E+00
    0.62054E+00         0.26520E+00         0.00000E+00
    0.53635E+00         0.24499E+00         0.00000E+00
    0.46110E+00         0.22371E+00         0.00000E+00
    0.39294E+00         0.20074E+00         0.00000E+00
    0.32956E+00         0.17550E+00         0.00000E+00
    0.26848E+00         0.14754E+00         0.00000E+00
    0.20725E+00         0.11641E+00         0.00000E+00
    0.14355E+00         0.81705E-01         0.00000E+00
    0.75165E-01         0.43005E-01         0.00000E+00
    0.00000E+00         0.00000E+00         0.00000E+00
    0.14389E+01         0.23632E+00         0.00000E+00
    0.12908E+01         0.22536E+00         0.00000E+00
    0.11521E+01         0.21469E+00         0.00000E+00
    0.10233E+01         0.20428E+00         0.00000E+00
    0.90457E+00         0.19418E+00         0.00000E+00
    0.79582E+00         0.18429E+00         0.00000E+00
    0.69672E+00         0.17432E+00         0.00000E+00
    0.60657E+00         0.16380E+00         0.00000E+00
    0.52417E+00         0.15218E+00         0.00000E+00
    0.44785E+00         0.13891E+00         0.00000E+00
    0.37561E+00         0.12346E+00         0.00000E+00
    0.30526E+00         0.10540E+00         0.00000E+00
    0.23461E+00         0.84330E-01         0.00000E+00
    0.16151E+00         0.59922E-01         0.00000E+00
    0.83924E-01         0.31884E-01         0.00000E+00
    0.00000E+00         0.00000E+00         0.00000E+00
    0.15256E+01         0.82471E-01         0.00000E+00
    0.13746E+01         0.81302E-01         0.00000E+00
    0.12331E+01         0.80430E-01         0.00000E+00
    0.11014E+01         0.79919E-01         0.00000E+00
    0.97948E+00         0.79698E-01         0.00000E+00
    0.86701E+00         0.79613E-01         0.00000E+00
    0.76344E+00         0.79379E-01         0.00000E+00
    0.66791E+00         0.78594E-01         0.00000E+00
    0.57922E+00         0.76785E-01         0.00000E+00
    0.49582E+00         0.73462E-01         0.00000E+00
    0.41589E+00         0.68166E-01         0.00000E+00
    0.33749E+00         0.60492E-01         0.00000E+00
    0.25860E+00         0.50095E-01         0.00000E+00
    0.17727E+00         0.36690E-01         0.00000E+00
    0.91635E-01         0.20047E-01         0.00000E+00
    0.00000E+00         0.00000E+00         0.00000E+00
    0.16028E+01        -0.74947E-01         0.00000E+00
    0.14486E+01        -0.66256E-01         0.00000E+00
    0.13042E+01        -0.57304E-01         0.00000E+00
    0.11697E+01        -0.48001E-01         0.00000E+00
    0.10447E+01        -0.38405E-01         0.00000E+00
    0.92873E+00        -0.28682E-01         0.00000E+00
    0.82110E+00        -0.19093E-01         0.00000E+00
    0.72084E+00        -0.99862E-02         0.00000E+00
    0.62671E+00        -0.17663E-02         0.00000E+00
    0.53723E+00         0.51464E-02         0.00000E+00
    0.45073E+00         0.10350E-01         0.00000E+00
    0.36541E+00         0.13484E-01         0.00000E+00
    0.27944E+00         0.14241E-01         0.00000E+00
    0.19100E+00         0.12369E-01         0.00000E+00
    0.98382E-01         0.76706E-02         0.00000E+00
    0.00000E+00         0.00000E+00         0.00000E+00
    0.16701E+01        -0.23602E+00         0.00000E+00
    0.15126E+01        -0.21738E+00         0.00000E+00
    0.13654E+01        -0.19851E+00         0.00000E+00
    0.12282E+01        -0.17933E+00         0.00000E+00
    0.11003E+01        -0.15985E+00         0.00000E+00
    0.98124E+00        -0.14022E+00         0.00000E+00
    0.87006E+00        -0.12065E+00         0.00000E+00
    0.76573E+00        -0.10144E+00         0.00000E+00
    0.66700E+00        -0.82942E-01         0.00000E+00
    0.57241E+00        -0.65502E-01         0.00000E+00
    0.48039E+00        -0.49470E-01         0.00000E+00
    0.38925E+00        -0.35165E-01         0.00000E+00
    0.29729E+00        -0.22861E-01         0.00000E+00
    0.20281E+00        -0.12786E-01         0.00000E+00
    0.10421E+00        -0.51200E-02         0.00000E+00
    0.00000E+00         0.00000E+00         0.00000E+00
    0.17271E+01        -0.40058E+00         0.00000E+00
    0.15665E+01        -0.37189E+00         0.00000E+00
    0.14166E+01        -0.34301E+00         0.00000E+00
    0.12769E+01        -0.31383E+00         0.00000E+00
    0.11465E+01        -0.28434E+00         0.00000E+00
    0.10248E+01        -0.25463E+00         0.00000E+00
    0.91060E+00        -0.22489E+00         0.00000E+00
    0.80291E+00        -0.19536E+00         0.00000E+00
    0.70040E+00        -0.16632E+00         0.00000E+00
    0.60165E+00        -0.13807E+00         0.00000E+00
    0.50511E+00        -0.11091E+00         0.00000E+00
    0.40919E+00        -0.85119E-01         0.00000E+00
    0.31228E+00        -0.60943E-01         0.00000E+00
    0.21278E+00        -0.38591E-01         0.00000E+00
    0.10916E+00        -0.18231E-01         0.00000E+00
    0.00000E+00         0.00000E+00         0.00000E+00
    0.17733E+01        -0.56832E+00         0.00000E+00
    0.16099E+01        -0.52951E+00         0.00000E+00
    0.14577E+01        -0.49050E+00         0.00000E+00
    0.13158E+01        -0.45118E+00         0.00000E+00
    0.11834E+01        -0.41152E+00         0.00000E+00
    0.10594E+01        -0.37157E+00         0.00000E+00
    0.94294E+00        -0.33145E+00         0.00000E+00
    0.83263E+00        -0.29137E+00         0.00000E+00
    0.72718E+00        -0.25154E+00         0.00000E+00
    0.62517E+00        -0.21222E+00         0.00000E+00
    0.52509E+00        -0.17366E+00         0.00000E+00
    0.42540E+00        -0.13611E+00         0.00000E+00
    0.32453E+00        -0.99798E-01         0.00000E+00
    0.22096E+00        -0.64903E-01         0.00000E+00
    0.11324E+00        -0.31593E-01         0.00000E+00
    0.00000E+00         0.00000E+00         0.00000E+00
    0.18084E+01        -0.73889E+00         0.00000E+00
    0.16426E+01        -0.68985E+00         0.00000E+00
    0.14884E+01        -0.64061E+00         0.00000E+00
    0.13449E+01        -0.59103E+00         0.00000E+00
    0.12109E+01        -0.54104E+00         0.00000E+00
    0.10854E+01        -0.49066E+00         0.00000E+00
    0.96724E+00        -0.43997E+00         0.00000E+00
    0.85507E+00        -0.38911E+00         0.00000E+00
    0.74754E+00        -0.33827E+00         0.00000E+00
    0.64318E+00        -0.28764E+00         0.00000E+00
    0.54050E+00        -0.23746E+00         0.00000E+00
    0.43799E+00        -0.18793E+00         0.00000E+00
    0.33412E+00        -0.13926E+00         0.00000E+00
    0.22743E+00        -0.91609E-01         0.00000E+00
    0.11650E+00        -0.45145E-01         0.00000E+00
    0.00000E+00         0.00000E+00         0.00000E+00
    0.18322E+01        -0.91186E+00         0.00000E+00
    0.16645E+01        -0.85251E+00         0.00000E+00
    0.15088E+01        -0.79294E+00         0.00000E+00
    0.13640E+01        -0.73297E+00         0.00000E+00
    0.12291E+01        -0.67250E+00         0.00000E+00
    0.11027E+01        -0.61152E+00         0.00000E+00
    0.98362E+00        -0.55007E+00         0.00000E+00
    0.87039E+00        -0.48825E+00         0.00000E+00
    0.76162E+00        -0.42619E+00         0.00000E+00
    0.65581E+00        -0.36407E+00         0.00000E+00
    0.55147E+00        -0.30207E+00         0.00000E+00
    0.44707E+00        -0.24038E+00         0.00000E+00
    0.34114E+00        -0.17917E+00         0.00000E+00
    0.23222E+00        -0.11860E+00         0.00000E+00
    0.11894E+00        -0.58838E-01         0.00000E+00
    0.00000E+00         0.00000E+00         0.00000E+00
    0.18442E+01        -0.10868E+01         0.00000E+00
    0.16751E+01        -0.10170E+01         0.00000E+00
    0.15185E+01        -0.94703E+00         0.00000E+00
    0.13732E+01        -0.87655E+00         0.00000E+00
    0.12380E+01        -0.80548E+00         0.00000E+00
    0.11114E+01        -0.73375E+00         0.00000E+00
    0.99214E+00        -0.66137E+00         0.00000E+00
    0.87868E+00        -0.58842E+00         0.00000E+00
    0.76954E+00        -0.51498E+00         0.00000E+00
    0.66318E+00        -0.44121E+00         0.00000E+00
    0.55809E+00        -0.36725E+00         0.00000E+00
    0.45273E+00        -0.29325E+00         0.00000E+00
    0.34564E+00        -0.21938E+00         0.00000E+00
    0.23538E+00        -0.14579E+00         0.00000E+00
    0.12059E+00        -0.72621E-01         0.00000E+00
    0.00000E+00         0.00000E+00         0.00000E+00
    0.18443E+01        -0.12632E+01         0.00000E+00
    0.16743E+01        -0.11829E+01         0.00000E+00
    0.15174E+01        -0.11024E+01         0.00000E+00
    0.13722E+01        -0.10213E+01         0.00000E+00
    0.12374E+01        -0.93949E+00         0.00000E+00
    0.11114E+01        -0.85688E+00         0.00000E+00
    0.99282E+00        -0.77345E+00         0.00000E+00
    0.87999E+00        -0.68924E+00         0.00000E+00
    0.77137E+00        -0.60430E+00         0.00000E+00
    0.66537E+00        -0.51876E+00         0.00000E+00
    0.56044E+00        -0.43273E+00         0.00000E+00
    0.45504E+00        -0.34635E+00         0.00000E+00
    0.34769E+00        -0.25975E+00         0.00000E+00
    0.23694E+00        -0.17307E+00         0.00000E+00
    0.12146E+00        -0.86445E-01         0.00000E+00
    0.00000E+00         0.00000E+00         0.00000E+00
    0.18319E+01        -0.14405E+01         0.00000E+00
    0.16617E+01        -0.13497E+01         0.00000E+00
    0.15051E+01        -0.12585E+01         0.00000E+00
    0.13608E+01        -0.11667E+01         0.00000E+00
    0.12273E+01        -0.10740E+01         0.00000E+00
    0.11027E+01        -0.98044E+00         0.00000E+00
    0.98566E+00        -0.88585E+00         0.00000E+00
    0.87435E+00        -0.79028E+00         0.00000E+00
    0.76716E+00        -0.69377E+00         0.00000E+00
    0.66244E+00        -0.59639E+00         0.00000E+00
    0.55859E+00        -0.49825E+00         0.00000E+00
    0.45405E+00        -0.39945E+00         0.00000E+00
    0.34730E+00        -0.30010E+00         0.00000E+00
    0.23693E+00        -0.20033E+00         0.00000E+00
    0.12158E+00        -0.10026E+00         0.00000E+00
    0.00000E+00         0.00000E+00         0.00000E+00
    0.18067E+01        -0.16182E+01         0.00000E+00
    0.16368E+01        -0.15167E+01         0.00000E+00
    0.14815E+01        -0.14148E+01         0.00000E+00
    0.13389E+01        -0.13121E+01         0.00000E+00
    0.12074E+01        -0.12085E+01         0.00000E+00
    0.10853E+01        -0.11039E+01         0.00000E+00
    0.97062E+00        -0.99805E+00         0.00000E+00
    0.86175E+00        -0.89107E+00         0.00000E+00
    0.75690E+00        -0.78295E+00         0.00000E+00
    0.65439E+00        -0.67373E+00         0.00000E+00
    0.55254E+00        -0.56349E+00         0.00000E+00
    0.44976E+00        -0.45231E+00         0.00000E+00
    0.34452E+00        -0.34026E+00         0.00000E+00
    0.23536E+00        -0.22746E+00         0.00000E+00
    0.12094E+00        -0.11400E+00         0.00000E+00
    0.00000E+00         0.00000E+00         0.00000E+00
    0.17681E+01        -0.17955E+01         0.00000E+00
    0.15994E+01        -0.16832E+01         0.00000E+00
    0.14461E+01        -0.15705E+01         0.00000E+00
    0.13062E+01        -0.14569E+01         0.00000E+00
    0.11777E+01        -0.13423E+01         0.00000E+00
    0.10589E+01        -0.12265E+01         0.00000E+00
    0.94761E+00        -0.11094E+01         0.00000E+00
    0.84213E+00        -0.99105E+00         0.00000E+00
    0.74059E+00        -0.87135E+00         0.00000E+00
    0.64121E+00        -0.75036E+00         0.00000E+00
    0.54230E+00        -0.62811E+00         0.00000E+00
    0.44220E+00        -0.50465E+00         0.00000E+00
    0.33934E+00        -0.38003E+00         0.00000E+00
    0.23224E+00        -0.25432E+00         0.00000E+00
    0.11955E+00        -0.12761E+00         0.00000E+00
    0.00000E+00         0.00000E+00         0.00000E+00
    0.17155E+01        -0.19717E+01         0.00000E+00
    0.15490E+01        -0.18485E+01         0.00000E+00
    0.13986E+01        -0.17249E+01         0.00000E+00
    0.12623E+01        -0.16003E+01         0.00000E+00
    0.11380E+01        -0.14747E+01         0.00000E+00
    0.10234E+01        -0.13477E+01         0.00000E+00
    0.91656E+00        -0.12193E+01         0.00000E+00
    0.81544E+00        -0.10896E+01         0.00000E+00
    0.71815E+00        -0.95840E+00         0.00000E+00
    0.62286E+00        -0.82578E+00         0.00000E+00
    0.52781E+00        -0.69171E+00         0.00000E+00
    0.43132E+00        -0.55619E+00         0.00000E+00
    0.33174E+00        -0.41920E+00         0.00000E+00
    0.22757E+00        -0.28079E+00         0.00000E+00
    0.11740E+00        -0.14103E+00         0.00000E+00
    0.00000E+00         0.00000E+00         0.00000E+00
    0.16483E+01        -0.21459E+01         0.00000E+00
    0.14849E+01        -0.20117E+01         0.00000E+00
    0.13387E+01        -0.18770E+01         0.00000E+00
    0.12072E+01        -0.17414E+01         0.00000E+00
    0.10880E+01        -0.16046E+01         0.00000E+00
    0.97878E+00        -0.14665E+01         0.00000E+00
    0.87735E+00        -0.13269E+01         0.00000E+00
    0.78158E+00        -0.11859E+01         0.00000E+00
    0.68950E+00        -0.10434E+01         0.00000E+00
    0.59924E+00        -0.89942E+00         0.00000E+00
    0.50900E+00        -0.75382E+00         0.00000E+00
    0.41704E+00        -0.60656E+00         0.00000E+00
    0.32169E+00        -0.45756E+00         0.00000E+00
    0.22131E+00        -0.30677E+00         0.00000E+00
    0.11447E+00        -0.15421E+00         0.00000E+00
    0.00000E+00         0.00000E+00         0.00000E+00
    0.15659E+01        -0.23169E+01         0.00000E+00
    0.14068E+01        -0.21717E+01         0.00000E+00
    0.12659E+01        -0.20259E+01         0.00000E+00
    0.11404E+01        -0.18792E+01         0.00000E+00
    0.10276E+01        -0.17312E+01         0.00000E+00
    0.92484E+00        -0.15819E+01         0.00000E+00
    0.82986E+00        -0.14313E+01         0.00000E+00
    0.74042E+00        -0.12792E+01         0.00000E+00
    0.65450E+00        -0.11257E+01         0.00000E+00
    0.57020E+00        -0.97061E+00         0.00000E+00
    0.48569E+00        -0.81389E+00         0.00000E+00
    0.39922E+00        -0.65537E+00         0.00000E+00
    0.30905E+00        -0.49488E+00         0.00000E+00
    0.21345E+00        -0.33224E+00         0.00000E+00
    0.11072E+00        -0.16733E+00         0.00000E+00
    0.00000E+00         0.00000E+00         0.00000E+00
    0.14674E+01        -0.24836E+01         0.00000E+00
    0.13141E+01        -0.23272E+01         0.00000E+00
    0.11800E+01        -0.21702E+01         0.00000E+00
    0.10618E+01        -0.20122E+01         0.00000E+00
    0.95655E+00        -0.18531E+01         0.00000E+00
    0.86145E+00        -0.16928E+01         0.00000E+00
    0.77396E+00        -0.15312E+01         0.00000E+00
    0.69181E+00        -0.13684E+01         0.00000E+00
    0.61297E+00        -0.12042E+01         0.00000E+00
    0.53552E+00        -0.10386E+01         0.00000E+00
    0.45766E+00        -0.87127E+00         0.00000E+00
    0.37762E+00        -0.70211E+00         0.00000E+00
    0.29362E+00        -0.53081E+00         0.00000E+00
    0.20386E+00        -0.35713E+00         0.00000E+00
    0.10623E+00        -0.18086E+00         0.00000E+00
    0.00000E+00         0.00000E+00         0.00000E+00
    0.13521E+01        -0.26444E+01         0.00000E+00
    0.12062E+01        -0.24767E+01         0.00000E+00
    0.10804E+01        -0.23084E+01         0.00000E+00
    0.97109E+00        -0.21392E+01         0.00000E+00
    0.87479E+00        -0.19690E+01         0.00000E+00
    0.78848E+00        -0.17978E+01         0.00000E+00
    0.70951E+00        -0.16256E+01         0.00000E+00
    0.63558E+00        -0.14523E+01         0.00000E+00
    0.56467E+00        -0.12780E+01         0.00000E+00
    0.49492E+00        -0.11024E+01         0.00000E+00
    0.42458E+00        -0.92520E+00         0.00000E+00
    0.35190E+00        -0.74616E+00         0.00000E+00
    0.27507E+00        -0.56486E+00         0.00000E+00
    0.19220E+00        -0.38096E+00         0.00000E+00
    0.10132E+00        -0.19415E+00         0.00000E+00
    0.00000E+00         0.00000E+00         0.00000E+00
    0.12191E+01        -0.27975E+01         0.00000E+00
    0.10825E+01        -0.26185E+01         0.00000E+00
    0.96697E+00        -0.24388E+01         0.00000E+00
    0.86817E+00        -0.22584E+01         0.00000E+00
    0.78221E+00        -0.20772E+01         0.00000E+00
    0.70585E+00        -0.18953E+01         0.00000E+00
    0.63636E+00        -0.17128E+01         0.00000E+00
    0.57150E+00        -0.15297E+01         0.00000E+00
    0.50930E+00        -0.13458E+01         0.00000E+00
    0.44803E+00        -0.11610E+01         0.00000E+00
    0.38603E+00        -0.97479E+00         0.00000E+00
    0.32161E+00        -0.78678E+00         0.00000E+00
    0.25301E+00        -0.59644E+00         0.00000E+00
    0.17820E+00        -0.40322E+00         0.00000E+00
    0.95236E-01        -0.20657E+00         0.00000E+00
    0.00000E+00         0.00000E+00         0.00000E+00
    0.10675E+01        -0.29409E+01         0.00000E+00
    0.94259E+00        -0.27503E+01         0.00000E+00
    0.83948E+00        -0.25592E+01         0.00000E+00
    0.75299E+00        -0.23676E+01         0.00000E+00
    0.67880E+00        -0.21756E+01         0.00000E+00
    0.61348E+00        -0.19834E+01         0.00000E+00
    0.55436E+00        -0.17912E+01         0.00000E+00
    0.49929E+00        -0.15990E+01         0.00000E+00
    0.44649E+00        -0.14065E+01         0.00000E+00
    0.39438E+00        -0.12133E+01         0.00000E+00
    0.34146E+00        -0.10191E+01         0.00000E+00
    0.28618E+00        -0.82316E+00         0.00000E+00
    0.22685E+00        -0.62488E+00         0.00000E+00
    0.16147E+00        -0.42351E+00         0.00000E+00
    0.87729E-01        -0.21761E+00         0.00000E+00
    0.00000E+00         0.00000E+00         0.00000E+00
    0.89634E+00        -0.30718E+01         0.00000E+00
    0.78606E+00        -0.28696E+01         0.00000E+00
    0.69789E+00        -0.26671E+01         0.00000E+00
    0.62565E+00        -0.24643E+01         0.00000E+00
    0.56460E+00        -0.22619E+01         0.00000E+00
    0.51131E+00        -0.20602E+01         0.00000E+00
    0.46328E+00        -0.18591E+01         0.00000E+00
    0.41861E+00        -0.16587E+01         0.00000E+00
    0.37576E+00        -0.14585E+01         0.00000E+00
    0.33339E+00        -0.12582E+01         0.00000E+00
    0.29020E+00        -0.10571E+01         0.00000E+00
    0.24486E+00        -0.85445E+00         0.00000E+00
    0.19585E+00        -0.64943E+00         0.00000E+00
    0.14131E+00        -0.44108E+00         0.00000E+00
    0.78478E-01        -0.22723E+00         0.00000E+00
    0.00000E+00         0.00000E+00         0.00000E+00
    0.70474E+00        -0.31870E+01         0.00000E+00
    0.61275E+00        -0.29730E+01         0.00000E+00
    0.54245E+00        -0.27590E+01         0.00000E+00
    0.48641E+00        -0.25456E+01         0.00000E+00
    0.43972E+00        -0.23336E+01         0.00000E+00
    0.39922E+00        -0.21233E+01         0.00000E+00
    0.36282E+00        -0.19146E+01         0.00000E+00
    0.32899E+00        -0.17072E+01         0.00000E+00
    0.29652E+00        -0.15008E+01         0.00000E+00
    0.26434E+00        -0.12946E+01         0.00000E+00
    0.23144E+00        -0.10879E+01         0.00000E+00
    0.19674E+00        -0.87981E+00         0.00000E+00
    0.15900E+00        -0.66939E+00         0.00000E+00
    0.11668E+00        -0.45541E+00         0.00000E+00
    0.66688E-01        -0.23530E+00         0.00000E+00
    0.00000E+00         0.00000E+00         0.00000E+00
    0.49170E+00        -0.32819E+01         0.00000E+00
    0.42294E+00        -0.30561E+01         0.00000E+00
    0.37379E+00        -0.28310E+01         0.00000E+00
    0.33565E+00        -0.26079E+01         0.00000E+00
    0.30417E+00        -0.23877E+01         0.00000E+00
    0.27697E+00        -0.21705E+01         0.00000E+00
    0.25255E+00        -0.19558E+01         0.00000E+00
    0.22986E+00        -0.17431E+01         0.00000E+00
    0.20805E+00        -0.15319E+01         0.00000E+00
    0.18641E+00        -0.13213E+01         0.00000E+00
    0.16422E+00        -0.11105E+01         0.00000E+00
    0.14074E+00        -0.89850E+00         0.00000E+00
    0.11508E+00        -0.68412E+00         0.00000E+00
    0.86118E-01        -0.46600E+00         0.00000E+00
    0.51254E-01        -0.24166E+00         0.00000E+00
    0.00000E+00         0.00000E+00         0.00000E+00
    0.25635E+00        -0.33498E+01         0.00000E+00
    0.21789E+00        -0.31124E+01         0.00000E+00
    0.19283E+00        -0.28776E+01         0.00000E+00
    0.17359E+00        -0.26474E+01         0.00000E+00
    0.15777E+00        -0.24216E+01         0.00000E+00
    0.14411E+00        -0.21997E+01         0.00000E+00
    0.13186E+00        -0.19812E+01         0.00000E+00
    0.12048E+00        -0.17652E+01         0.00000E+00
    0.10952E+00        -0.15510E+01         0.00000E+00
    0.98639E-01        -0.13377E+01         0.00000E+00
    0.87465E-01        -0.11244E+01         0.00000E+00
    0.75613E-01        -0.90996E+00         0.00000E+00
    0.62624E-01        -0.69317E+00         0.00000E+00
    0.47869E-01        -0.47251E+00         0.00000E+00
    0.30225E-01        -0.24585E+00         0.00000E+00
    0.00000E+00         0.00000E+00         0.00000E+00
    0.00000E+00        -0.33782E+01         0.00000E+00
    0.00000E+00        -0.31328E+01         0.00000E+00
    0.00000E+00        -0.28939E+01         0.00000E+00
    0.00000E+00        -0.26610E+01         0.00000E+00
    0.00000E+00        -0.24331E+01         0.00000E+00
    0.00000E+00        -0.22097E+01         0.00000E+00
    0.00000E+00        -0.19898E+01         0.00000E+00
    0.00000E+00        -0.17726E+01         0.00000E+00
    0.00000E+00        -0.15574E+01         0.00000E+00
    0.00000E+00        -0.13432E+01         0.00000E+00
    0.00000E+00        -0.11291E+01         0.00000E+00
    0.00000E+00        -0.91382E+00         0.00000E+00
    0.00000E+00        -0.69622E+00         0.00000E+00
    0.00000E+00        -0.47470E+00         0.00000E+00
    0.00000E+00        -0.24736E+00         0.00000E+00
    0.00000E+00         0.00000E+00         0.00000E+00
CELL_DATA        450
VECTORS vDarcy double 
    0.11699E-05         0.82158E-08         0.00000E+00
    0.11655E-05         0.20059E-07         0.00000E+00
    0.11623E-05         0.25377E-07         0.00000E+00
    0.11609E-05         0.27976E-07         0.00000E+00
    0.11600E-05         0.29180E-07         0.00000E+00
    0.11594E-05         0.29213E-07         0.00000E+00
    0.11588E-05         0.28071E-07         0.00000E+00
    0.11580E-05         0.26006E-07         0.00000E+00
    0.11574E-05         0.23483E-07         0.00000E+00
    0.11583E-05         0.20994E-07         0.00000E+00
    0.11585E-05         0.18614E-07         0.00000E+00
    0.11585E-05         0.16049E-07         0.00000E+00
    0.11582E-05         0.13074E-07         0.00000E+00
    0.11578E-05         0.93095E-08         0.00000E+00
    0.11555E-05         0.35832E-08         0.00000E+00
    0.11804E-05         0.22666E-08         0.00000E+00
    0.11677E-05         0.52610E-08         0.00000E+00
    0.11639E-05         0.66298E-08         0.00000E+00
    0.11624E-05         0.77987E-08         0.00000E+00
    0.11611E-05         0.88418E-08         0.00000E+00
    0.11595E-05         0.98668E-08         0.00000E+00
    0.11580E-05         0.10920E-07         0.00000E+00
    0.11576E-05         0.11953E-07         0.00000E+00
    0.11576E-05         0.12812E-07         0.00000E+00
    0.11571E-05         0.12903E-07         0.00000E+00
    0.11566E-05         0.11997E-07         0.00000E+00
    0.11560E-05         0.10399E-07         0.00000E+00
    0.11551E-05         0.81609E-08         0.00000E+00
    0.11535E-05         0.51534E-08         0.00000E+00
    0.11506E-05         0.17161E-08         0.00000E+00
    0.11797E-05        -0.15210E-08         0.00000E+00
    0.11692E-05        -0.23116E-08         0.00000E+00
    0.11649E-05        -0.96760E-09         0.00000E+00
    0.11628E-05         0.13560E-09         0.00000E+00
    0.11617E-05         0.11947E-08         0.00000E+00
    0.11610E-05         0.25284E-08         0.00000E+00
    0.11602E-05         0.42032E-08         0.00000E+00
    0.11591E-05         0.57945E-08         0.00000E+00
    0.11580E-05         0.67104E-08         0.00000E+00
    0.11568E-05         0.69534E-08         0.00000E+00
    0.11556E-05         0.66734E-08         0.00000E+00
    0.11544E-05         0.58258E-08         0.00000E+00
    0.11529E-05         0.44365E-08         0.00000E+00
    0.11508E-05         0.26674E-08         0.00000E+00
    0.11480E-05         0.86024E-09         0.00000E+00
    0.11753E-05        -0.18324E-08         0.00000E+00
    0.11701E-05        -0.35480E-08         0.00000E+00
    0.11661E-05        -0.28117E-08         0.00000E+00
    0.11641E-05        -0.15278E-08         0.00000E+00
    0.11631E-05        -0.24565E-09         0.00000E+00
    0.11621E-05         0.83423E-09         0.00000E+00
    0.11611E-05         0.16262E-08         0.00000E+00
    0.11598E-05         0.22059E-08         0.00000E+00
    0.11583E-05         0.26428E-08         0.00000E+00
    0.11567E-05         0.28682E-08         0.00000E+00
    0.11551E-05         0.28106E-08         0.00000E+00
    0.11534E-05         0.24476E-08         0.00000E+00
    0.11516E-05         0.18055E-08         0.00000E+00
    0.11494E-05         0.10168E-08         0.00000E+00
    0.11468E-05         0.30482E-09         0.00000E+00
    0.11725E-05        -0.10623E-08         0.00000E+00
    0.11695E-05        -0.24038E-08         0.00000E+00
    0.11670E-05        -0.24141E-08         0.00000E+00
    0.11651E-05        -0.17908E-08         0.00000E+00
    0.11637E-05        -0.11883E-08         0.00000E+00
    0.11626E-05        -0.76118E-09         0.00000E+00
    0.11614E-05        -0.46215E-09         0.00000E+00
    0.11600E-05        -0.25520E-09         0.00000E+00
    0.11584E-05        -0.93481E-10         0.00000E+00
    0.11567E-05         0.38152E-10         0.00000E+00
    0.11549E-05         0.10431E-09         0.00000E+00
    0.11530E-05         0.75922E-10         0.00000E+00
    0.11510E-05        -0.25203E-10         0.00000E+00
    0.11488E-05        -0.11667E-09         0.00000E+00
    0.11464E-05        -0.72873E-10         0.00000E+00
    0.11706E-05        -0.63692E-09         0.00000E+00
    0.11689E-05        -0.15902E-08         0.00000E+00
    0.11669E-05        -0.20159E-08         0.00000E+00
    0.11652E-05        -0.21229E-08         0.00000E+00
    0.11639E-05        -0.20945E-08         0.00000E+00
    0.11626E-05        -0.20701E-08         0.00000E+00
    0.11613E-05        -0.20812E-08         0.00000E+00
    0.11599E-05        -0.20869E-08         0.00000E+00
    0.11584E-05        -0.20488E-08         0.00000E+00
    0.11567E-05        -0.19473E-08         0.00000E+00
    0.11549E-05        -0.17852E-08         0.00000E+00
    0.11530E-05        -0.15706E-08         0.00000E+00
    0.11510E-05        -0.12905E-08         0.00000E+00
    0.11489E-05        -0.90004E-09         0.00000E+00
    0.11467E-05        -0.33485E-09         0.00000E+00
    0.11696E-05        -0.43816E-09         0.00000E+00
    0.11679E-05        -0.13151E-08         0.00000E+00
    0.11663E-05        -0.20498E-08         0.00000E+00
    0.11649E-05        -0.25463E-08         0.00000E+00
    0.11636E-05        -0.28958E-08         0.00000E+00
    0.11623E-05        -0.31622E-08         0.00000E+00
    0.11611E-05        -0.33652E-08         0.00000E+00
    0.11598E-05        -0.34885E-08         0.00000E+00
    0.11583E-05        -0.35016E-08         0.00000E+00
    0.11567E-05        -0.33833E-08         0.00000E+00
    0.11550E-05        -0.31253E-08         0.00000E+00
    0.11532E-05        -0.27246E-08         0.00000E+00
    0.11514E-05        -0.21719E-08         0.00000E+00
    0.11495E-05        -0.14461E-08         0.00000E+00
    0.11475E-05        -0.51817E-09         0.00000E+00
    0.11685E-05        -0.48738E-09         0.00000E+00
    0.11669E-05        -0.14435E-08         0.00000E+00
    0.11655E-05        -0.23208E-08         0.00000E+00
    0.11642E-05        -0.30555E-08         0.00000E+00
    0.11630E-05        -0.36387E-08         0.00000E+00
    0.11619E-05        -0.40902E-08         0.00000E+00
    0.11607E-05        -0.44143E-08         0.00000E+00
    0.11595E-05        -0.45975E-08         0.00000E+00
    0.11582E-05        -0.46185E-08         0.00000E+00
    0.11568E-05        -0.44582E-08         0.00000E+00
    0.11553E-05        -0.41056E-08         0.00000E+00
    0.11537E-05        -0.35546E-08         0.00000E+00
    0.11520E-05        -0.28001E-08         0.00000E+00
    0.11503E-05        -0.18345E-08         0.00000E+00
    0.11485E-05        -0.64884E-09         0.00000E+00
    0.11673E-05        -0.58406E-09         0.00000E+00
    0.11658E-05        -0.17072E-08         0.00000E+00
    0.11645E-05        -0.27258E-08         0.00000E+00
    0.11633E-05        -0.36109E-08         0.00000E+00
    0.11623E-05        -0.43413E-08         0.00000E+00
    0.11613E-05        -0.49075E-08         0.00000E+00
    0.11603E-05        -0.53011E-08         0.00000E+00
    0.11593E-05        -0.55083E-08         0.00000E+00
    0.11582E-05        -0.55118E-08         0.00000E+00
    0.11569E-05        -0.52967E-08         0.00000E+00
    0.11556E-05        -0.48530E-08         0.00000E+00
    0.11543E-05        -0.41762E-08         0.00000E+00
    0.11528E-05        -0.32652E-08         0.00000E+00
    0.11513E-05        -0.21206E-08         0.00000E+00
    0.11498E-05        -0.74504E-09         0.00000E+00
    0.11659E-05        -0.69174E-09         0.00000E+00
    0.11645E-05        -0.20041E-08         0.00000E+00
    0.11633E-05        -0.31709E-08         0.00000E+00
    0.11623E-05        -0.41792E-08         0.00000E+00
    0.11615E-05        -0.50106E-08         0.00000E+00
    0.11607E-05        -0.56486E-08         0.00000E+00
    0.11599E-05        -0.60788E-08         0.00000E+00
    0.11591E-05        -0.62866E-08         0.00000E+00
    0.11582E-05        -0.62581E-08         0.00000E+00
    0.11572E-05        -0.59821E-08         0.00000E+00
    0.11561E-05        -0.54520E-08         0.00000E+00
    0.11550E-05        -0.46660E-08         0.00000E+00
    0.11538E-05        -0.36271E-08         0.00000E+00
    0.11525E-05        -0.23418E-08         0.00000E+00
    0.11513E-05        -0.81923E-09         0.00000E+00
    0.11643E-05        -0.79766E-09         0.00000E+00
    0.11630E-05        -0.23004E-08         0.00000E+00
    0.11620E-05        -0.36164E-08         0.00000E+00
    0.11612E-05        -0.47377E-08         0.00000E+00
    0.11606E-05        -0.56497E-08         0.00000E+00
    0.11600E-05        -0.63366E-08         0.00000E+00
    0.11594E-05        -0.67839E-08         0.00000E+00
    0.11588E-05        -0.69784E-08         0.00000E+00
    0.11582E-05        -0.69097E-08         0.00000E+00
    0.11575E-05        -0.65705E-08         0.00000E+00
    0.11567E-05        -0.59579E-08         0.00000E+00
    0.11558E-05        -0.50740E-08         0.00000E+00
    0.11549E-05        -0.39254E-08         0.00000E+00
    0.11539E-05        -0.25227E-08         0.00000E+00
    0.11528E-05        -0.87973E-09         0.00000E+00
    0.11625E-05        -0.89935E-09         0.00000E+00
    0.11614E-05        -0.25871E-08         0.00000E+00
    0.11606E-05        -0.40501E-08         0.00000E+00
    0.11600E-05        -0.52795E-08         0.00000E+00
    0.11596E-05        -0.62630E-08         0.00000E+00
    0.11593E-05        -0.69877E-08         0.00000E+00
    0.11590E-05        -0.74417E-08         0.00000E+00
    0.11587E-05        -0.76153E-08         0.00000E+00
    0.11583E-05        -0.75019E-08         0.00000E+00
    0.11579E-05        -0.70986E-08         0.00000E+00
    0.11574E-05        -0.64068E-08         0.00000E+00
    0.11568E-05        -0.54323E-08         0.00000E+00
    0.11561E-05        -0.41851E-08         0.00000E+00
    0.11553E-05        -0.26794E-08         0.00000E+00
    0.11545E-05        -0.93191E-09         0.00000E+00
    0.11605E-05        -0.99779E-09         0.00000E+00
    0.11596E-05        -0.28658E-08         0.00000E+00
    0.11591E-05        -0.44727E-08         0.00000E+00
    0.11588E-05        -0.58070E-08         0.00000E+00
    0.11586E-05        -0.68575E-08         0.00000E+00
    0.11586E-05        -0.76143E-08         0.00000E+00
    0.11586E-05        -0.80695E-08         0.00000E+00
    0.11585E-05        -0.82179E-08         0.00000E+00
    0.11585E-05        -0.80575E-08         0.00000E+00
    0.11584E-05        -0.75901E-08         0.00000E+00
    0.11581E-05        -0.68213E-08         0.00000E+00
    0.11578E-05        -0.57607E-08         0.00000E+00
    0.11574E-05        -0.44219E-08         0.00000E+00
    0.11569E-05        -0.28215E-08         0.00000E+00
    0.11563E-05        -0.97914E-09         0.00000E+00
    0.11583E-05        -0.10952E-08         0.00000E+00
    0.11577E-05        -0.31412E-08         0.00000E+00
    0.11574E-05        -0.48898E-08         0.00000E+00
    0.11574E-05        -0.63264E-08         0.00000E+00
    0.11576E-05        -0.74406E-08         0.00000E+00
    0.11578E-05        -0.82259E-08         0.00000E+00
    0.11582E-05        -0.86788E-08         0.00000E+00
    0.11585E-05        -0.87992E-08         0.00000E+00
    0.11587E-05        -0.85903E-08         0.00000E+00
    0.11589E-05        -0.80587E-08         0.00000E+00
    0.11590E-05        -0.72143E-08         0.00000E+00
    0.11590E-05        -0.60707E-08         0.00000E+00
    0.11588E-05        -0.46444E-08         0.00000E+00
    0.11586E-05        -0.29547E-08         0.00000E+00
    0.11582E-05        -0.10233E-08         0.00000E+00
    0.11559E-05        -0.11939E-08         0.00000E+00
    0.11556E-05        -0.34189E-08         0.00000E+00
    0.11557E-05        -0.53079E-08         0.00000E+00
    0.11560E-05        -0.68440E-08         0.00000E+00
    0.11565E-05        -0.80185E-08         0.00000E+00
    0.11571E-05        -0.88286E-08         0.00000E+00
    0.11578E-05        -0.92759E-08         0.00000E+00
    0.11584E-05        -0.93659E-08         0.00000E+00
    0.11590E-05        -0.91071E-08         0.00000E+00
    0.11595E-05        -0.85109E-08         0.00000E+00
    0.11599E-05        -0.75918E-08         0.00000E+00
    0.11602E-05        -0.63670E-08         0.00000E+00
    0.11603E-05        -0.48563E-08         0.00000E+00
    0.11603E-05        -0.30813E-08         0.00000E+00
    0.11602E-05        -0.10653E-08         0.00000E+00
    0.11533E-05        -0.12957E-08         0.00000E+00
    0.11534E-05        -0.37035E-08         0.00000E+00
    0.11538E-05        -0.57321E-08         0.00000E+00
    0.11545E-05        -0.73645E-08         0.00000E+00
    0.11554E-05        -0.85946E-08         0.00000E+00
    0.11564E-05        -0.94247E-08         0.00000E+00
    0.11574E-05        -0.98622E-08         0.00000E+00
    0.11584E-05        -0.99187E-08         0.00000E+00
    0.11594E-05        -0.96081E-08         0.00000E+00
    0.11602E-05        -0.89469E-08         0.00000E+00
    0.11609E-05        -0.79537E-08         0.00000E+00
    0.11615E-05        -0.66495E-08         0.00000E+00
    0.11619E-05        -0.50572E-08         0.00000E+00
    0.11622E-05        -0.32009E-08         0.00000E+00
    0.11622E-05        -0.11049E-08         0.00000E+00
    0.11505E-05        -0.14021E-08         0.00000E+00
    0.11509E-05        -0.39979E-08         0.00000E+00
    0.11518E-05        -0.61652E-08         0.00000E+00
    0.11529E-05        -0.78890E-08         0.00000E+00
    0.11542E-05        -0.91682E-08         0.00000E+00
    0.11556E-05        -0.10011E-07         0.00000E+00
    0.11571E-05        -0.10433E-07         0.00000E+00
    0.11585E-05        -0.10452E-07         0.00000E+00
    0.11598E-05        -0.10088E-07         0.00000E+00
    0.11610E-05        -0.93618E-08         0.00000E+00
    0.11620E-05        -0.82954E-08         0.00000E+00
    0.11629E-05        -0.69134E-08         0.00000E+00
    0.11636E-05        -0.52427E-08         0.00000E+00
    0.11641E-05        -0.33102E-08         0.00000E+00
    0.11644E-05        -0.11409E-08         0.00000E+00
    0.11475E-05        -0.15138E-08         0.00000E+00
    0.11484E-05        -0.43032E-08         0.00000E+00
    0.11497E-05        -0.66069E-08         0.00000E+00
    0.11513E-05        -0.84148E-08         0.00000E+00
    0.11531E-05        -0.97335E-08         0.00000E+00
    0.11549E-05        -0.10580E-07         0.00000E+00
    0.11568E-05        -0.10979E-07         0.00000E+00
    0.11586E-05        -0.10956E-07         0.00000E+00
    0.11603E-05        -0.10536E-07         0.00000E+00
    0.11618E-05        -0.97454E-08         0.00000E+00
    0.11632E-05        -0.86080E-08         0.00000E+00
    0.11644E-05        -0.71506E-08         0.00000E+00
    0.11653E-05        -0.54046E-08         0.00000E+00
    0.11661E-05        -0.34026E-08         0.00000E+00
    0.11666E-05        -0.11707E-08         0.00000E+00
    0.11442E-05        -0.16305E-08         0.00000E+00
    0.11457E-05        -0.46182E-08         0.00000E+00
    0.11475E-05        -0.70532E-08         0.00000E+00
    0.11496E-05        -0.89340E-08         0.00000E+00
    0.11519E-05        -0.10278E-07         0.00000E+00
    0.11542E-05        -0.11115E-07         0.00000E+00
    0.11565E-05        -0.11481E-07         0.00000E+00
    0.11587E-05        -0.11409E-07         0.00000E+00
    0.11608E-05        -0.10934E-07         0.00000E+00
    0.11627E-05        -0.10082E-07         0.00000E+00
    0.11644E-05        -0.88795E-08         0.00000E+00
    0.11659E-05        -0.73507E-08         0.00000E+00
    0.11671E-05        -0.55306E-08         0.00000E+00
    0.11681E-05        -0.34655E-08         0.00000E+00
    0.11689E-05        -0.11890E-08         0.00000E+00
    0.11408E-05        -0.17515E-08         0.00000E+00
    0.11428E-05        -0.49393E-08         0.00000E+00
    0.11452E-05        -0.74958E-08         0.00000E+00
    0.11479E-05        -0.94326E-08         0.00000E+00
    0.11507E-05        -0.10783E-07         0.00000E+00
    0.11536E-05        -0.11593E-07         0.00000E+00
    0.11563E-05        -0.11912E-07         0.00000E+00
    0.11590E-05        -0.11786E-07         0.00000E+00
    0.11614E-05        -0.11255E-07         0.00000E+00
    0.11637E-05        -0.10350E-07         0.00000E+00
    0.11657E-05        -0.90940E-08         0.00000E+00
    0.11676E-05        -0.75054E-08         0.00000E+00
    0.11691E-05        -0.56099E-08         0.00000E+00
    0.11702E-05        -0.34756E-08         0.00000E+00
    0.11712E-05        -0.11808E-08         0.00000E+00
    0.11371E-05        -0.18753E-08         0.00000E+00
    0.11398E-05        -0.52603E-08         0.00000E+00
    0.11429E-05        -0.79216E-08         0.00000E+00
    0.11462E-05        -0.98897E-08         0.00000E+00
    0.11496E-05        -0.11220E-07         0.00000E+00
    0.11530E-05        -0.11980E-07         0.00000E+00
    0.11562E-05        -0.12236E-07         0.00000E+00
    0.11592E-05        -0.12050E-07         0.00000E+00
    0.11621E-05        -0.11466E-07         0.00000E+00
    0.11647E-05        -0.10519E-07         0.00000E+00
    0.11671E-05        -0.92275E-08         0.00000E+00
    0.11692E-05        -0.76034E-08         0.00000E+00
    0.11711E-05        -0.56496E-08         0.00000E+00
    0.11724E-05        -0.34079E-08         0.00000E+00
    0.11734E-05        -0.11130E-08         0.00000E+00
    0.11331E-05        -0.19994E-08         0.00000E+00
    0.11366E-05        -0.55721E-08         0.00000E+00
    0.11405E-05        -0.83118E-08         0.00000E+00
    0.11445E-05        -0.10276E-07         0.00000E+00
    0.11485E-05        -0.11551E-07         0.00000E+00
    0.11524E-05        -0.12231E-07         0.00000E+00
    0.11561E-05        -0.12407E-07         0.00000E+00
    0.11596E-05        -0.12152E-07         0.00000E+00
    0.11628E-05        -0.11522E-07         0.00000E+00
    0.11658E-05        -0.10549E-07         0.00000E+00
    0.11685E-05        -0.92472E-08         0.00000E+00
    0.11710E-05        -0.76166E-08         0.00000E+00
    0.11731E-05        -0.56490E-08         0.00000E+00
    0.11748E-05        -0.32874E-08         0.00000E+00
    0.11755E-05        -0.99766E-09         0.00000E+00
    0.11289E-05        -0.21205E-08         0.00000E+00
    0.11333E-05        -0.58616E-08         0.00000E+00
    0.11381E-05        -0.86396E-08         0.00000E+00
    0.11429E-05        -0.10551E-07         0.00000E+00
    0.11476E-05        -0.11724E-07         0.00000E+00
    0.11520E-05        -0.12290E-07         0.00000E+00
    0.11562E-05        -0.12365E-07         0.00000E+00
    0.11600E-05        -0.12039E-07         0.00000E+00
    0.11636E-05        -0.11371E-07         0.00000E+00
    0.11669E-05        -0.10394E-07         0.00000E+00
    0.11699E-05        -0.91147E-08         0.00000E+00
    0.11727E-05        -0.75132E-08         0.00000E+00
    0.11752E-05        -0.55580E-08         0.00000E+00
    0.11774E-05        -0.31606E-08         0.00000E+00
    0.11773E-05        -0.91654E-09         0.00000E+00
    0.11245E-05        -0.22340E-08         0.00000E+00
    0.11300E-05        -0.61104E-08         0.00000E+00
    0.11357E-05        -0.88672E-08         0.00000E+00
    0.11414E-05        -0.10659E-07         0.00000E+00
    0.11467E-05        -0.11674E-07         0.00000E+00
    0.11517E-05        -0.12088E-07         0.00000E+00
    0.11563E-05        -0.12045E-07         0.00000E+00
    0.11605E-05        -0.11647E-07         0.00000E+00
    0.11643E-05        -0.10957E-07         0.00000E+00
    0.11679E-05        -0.10005E-07         0.00000E+00
    0.11713E-05        -0.87879E-08         0.00000E+00
    0.11744E-05        -0.72691E-08         0.00000E+00
    0.11773E-05        -0.53716E-08         0.00000E+00
    0.11800E-05        -0.30751E-08         0.00000E+00
    0.11790E-05        -0.91713E-09         0.00000E+00
    0.11199E-05        -0.23329E-08         0.00000E+00
    0.11267E-05        -0.62905E-08         0.00000E+00
    0.11335E-05        -0.89389E-08         0.00000E+00
    0.11401E-05        -0.10524E-07         0.00000E+00
    0.11461E-05        -0.11316E-07         0.00000E+00
    0.11516E-05        -0.11543E-07         0.00000E+00
    0.11565E-05        -0.11374E-07         0.00000E+00
    0.11610E-05        -0.10914E-07         0.00000E+00
    0.11651E-05        -0.10226E-07         0.00000E+00
    0.11689E-05        -0.93320E-08         0.00000E+00
    0.11725E-05        -0.82237E-08         0.00000E+00
    0.11759E-05        -0.68536E-08         0.00000E+00
    0.11793E-05        -0.51163E-08         0.00000E+00
    0.11823E-05        -0.30373E-08         0.00000E+00
    0.11809E-05        -0.96818E-09         0.00000E+00
    0.11151E-05        -0.24059E-08         0.00000E+00
    0.11234E-05        -0.63561E-08         0.00000E+00
    0.11315E-05        -0.87679E-08         0.00000E+00
    0.11390E-05        -0.10036E-07         0.00000E+00
    0.11457E-05        -0.10543E-07         0.00000E+00
    0.11516E-05        -0.10567E-07         0.00000E+00
    0.11569E-05        -0.10282E-07         0.00000E+00
    0.11616E-05        -0.97871E-08         0.00000E+00
    0.11658E-05        -0.91319E-08         0.00000E+00
    0.11698E-05        -0.83335E-08         0.00000E+00
    0.11736E-05        -0.73802E-08         0.00000E+00
    0.11773E-05        -0.62258E-08         0.00000E+00
    0.11811E-05        -0.47653E-08         0.00000E+00
    0.11843E-05        -0.29753E-08         0.00000E+00
    0.11828E-05        -0.10050E-08         0.00000E+00
    0.11102E-05        -0.24304E-08         0.00000E+00
    0.11204E-05        -0.62233E-08         0.00000E+00
    0.11300E-05        -0.82120E-08         0.00000E+00
    0.11384E-05        -0.90458E-08         0.00000E+00
    0.11456E-05        -0.92376E-08         0.00000E+00
    0.11518E-05        -0.90804E-08         0.00000E+00
    0.11573E-05        -0.87212E-08         0.00000E+00
    0.11621E-05        -0.82341E-08         0.00000E+00
    0.11665E-05        -0.76530E-08         0.00000E+00
    0.11706E-05        -0.69871E-08         0.00000E+00
    0.11745E-05        -0.62262E-08         0.00000E+00
    0.11784E-05        -0.53391E-08         0.00000E+00
    0.11825E-05        -0.42585E-08         0.00000E+00
    0.11861E-05        -0.28267E-08         0.00000E+00
    0.11848E-05        -0.99765E-09         0.00000E+00
    0.11054E-05        -0.23562E-08         0.00000E+00
    0.11180E-05        -0.57160E-08         0.00000E+00
    0.11290E-05        -0.70294E-08         0.00000E+00
    0.11381E-05        -0.73691E-08         0.00000E+00
    0.11457E-05        -0.73013E-08         0.00000E+00
    0.11521E-05        -0.70411E-08         0.00000E+00
    0.11577E-05        -0.66809E-08         0.00000E+00
    0.11626E-05        -0.62619E-08         0.00000E+00
    0.11670E-05        -0.58006E-08         0.00000E+00
    0.11712E-05        -0.52999E-08         0.00000E+00
    0.11752E-05        -0.47542E-08         0.00000E+00
    0.11792E-05        -0.41518E-08         0.00000E+00
    0.11834E-05        -0.34932E-08         0.00000E+00
    0.11875E-05        -0.25251E-08         0.00000E+00
    0.11867E-05        -0.94928E-09         0.00000E+00
    0.11008E-05        -0.19981E-08         0.00000E+00
    0.11164E-05        -0.44183E-08         0.00000E+00
    0.11287E-05        -0.48973E-08         0.00000E+00
    0.11382E-05        -0.48919E-08         0.00000E+00
    0.11459E-05        -0.47212E-08         0.00000E+00
    0.11524E-05        -0.44825E-08         0.00000E+00
    0.11580E-05        -0.42129E-08         0.00000E+00
    0.11629E-05        -0.39268E-08         0.00000E+00
    0.11674E-05        -0.36285E-08         0.00000E+00
    0.11716E-05        -0.33180E-08         0.00000E+00
    0.11756E-05        -0.29936E-08         0.00000E+00
    0.11796E-05        -0.26588E-08         0.00000E+00
    0.11838E-05        -0.23375E-08         0.00000E+00
    0.11885E-05        -0.19370E-08         0.00000E+00
    0.11885E-05        -0.84397E-09         0.00000E+00
    0.10976E-05        -0.85172E-09         0.00000E+00
    0.11162E-05        -0.17453E-08         0.00000E+00
    0.11287E-05        -0.17726E-08         0.00000E+00
    0.11383E-05        -0.17213E-08         0.00000E+00
    0.11461E-05        -0.16355E-08         0.00000E+00
    0.11526E-05        -0.15393E-08         0.00000E+00
    0.11582E-05        -0.14392E-08         0.00000E+00
    0.11631E-05        -0.13373E-08         0.00000E+00
    0.11676E-05        -0.12342E-08         0.00000E+00
    0.11718E-05        -0.11291E-08         0.00000E+00
    0.11758E-05        -0.10222E-08         0.00000E+00
    0.11798E-05        -0.91796E-09         0.00000E+00
    0.11840E-05        -0.82118E-09         0.00000E+00
    0.11886E-05        -0.77302E-09         0.00000E+00
    0.11900E-05        -0.38591E-09         0.00000E+00
POINT_DATA        496
VECTORS vDarcyNodal double 
    0.11673E-05         0.10865E-07         0.00000E+00
    0.11649E-05         0.19576E-07         0.00000E+00
    0.11619E-05         0.32945E-07         0.00000E+00
    0.11611E-05         0.39446E-07         0.00000E+00
    0.11606E-05         0.41737E-07         0.00000E+00
    0.11601E-05         0.41832E-07         0.00000E+00
    0.11595E-05         0.40493E-07         0.00000E+00
    0.11592E-05         0.37681E-07         0.00000E+00
    0.11592E-05         0.33138E-07         0.00000E+00
    0.11591E-05         0.27958E-07         0.00000E+00
    0.11589E-05         0.23810E-07         0.00000E+00
    0.11587E-05         0.20597E-07         0.00000E+00
    0.11585E-05         0.17424E-07         0.00000E+00
    0.11581E-05         0.13861E-07         0.00000E+00
    0.11573E-05         0.84319E-08         0.00000E+00
    0.11568E-05         0.49225E-08         0.00000E+00
    0.11724E-05         0.53717E-08         0.00000E+00
    0.11688E-05         0.83796E-08         0.00000E+00
    0.11639E-05         0.12046E-07         0.00000E+00
    0.11620E-05         0.13475E-07         0.00000E+00
    0.11610E-05         0.15025E-07         0.00000E+00
    0.11602E-05         0.16221E-07         0.00000E+00
    0.11594E-05         0.16523E-07         0.00000E+00
    0.11588E-05         0.16215E-07         0.00000E+00
    0.11585E-05         0.16247E-07         0.00000E+00
    0.11582E-05         0.16459E-07         0.00000E+00
    0.11580E-05         0.15753E-07         0.00000E+00
    0.11576E-05         0.14030E-07         0.00000E+00
    0.11571E-05         0.11671E-07         0.00000E+00
    0.11564E-05         0.85030E-08         0.00000E+00
    0.11549E-05         0.44521E-08         0.00000E+00
    0.11539E-05         0.22405E-08         0.00000E+00
    0.11782E-05        -0.62401E-09         0.00000E+00
    0.11733E-05        -0.51786E-09         0.00000E+00
    0.11664E-05         0.28333E-09         0.00000E+00
    0.11635E-05         0.13545E-08         0.00000E+00
    0.11620E-05         0.19724E-08         0.00000E+00
    0.11609E-05         0.27902E-08         0.00000E+00
    0.11599E-05         0.44924E-08         0.00000E+00
    0.11589E-05         0.67995E-08         0.00000E+00
    0.11581E-05         0.85817E-08         0.00000E+00
    0.11574E-05         0.92796E-08         0.00000E+00
    0.11567E-05         0.91618E-08         0.00000E+00
    0.11558E-05         0.83783E-08         0.00000E+00
    0.11548E-05         0.68989E-08         0.00000E+00
    0.11534E-05         0.48191E-08         0.00000E+00
    0.11511E-05         0.24213E-08         0.00000E+00
    0.11497E-05         0.11930E-08         0.00000E+00
    0.11773E-05        -0.24049E-08         0.00000E+00
    0.11733E-05        -0.32941E-08         0.00000E+00
    0.11674E-05        -0.35257E-08         0.00000E+00
    0.11645E-05        -0.21412E-08         0.00000E+00
    0.11630E-05        -0.60141E-09         0.00000E+00
    0.11619E-05         0.96629E-09         0.00000E+00
    0.11609E-05         0.22675E-08         0.00000E+00
    0.11598E-05         0.32226E-08         0.00000E+00
    0.11587E-05         0.39451E-08         0.00000E+00
    0.11574E-05         0.44029E-08         0.00000E+00
    0.11561E-05         0.44795E-08         0.00000E+00
    0.11547E-05         0.41324E-08         0.00000E+00
    0.11532E-05         0.33720E-08         0.00000E+00
    0.11514E-05         0.22904E-08         0.00000E+00
    0.11490E-05         0.11089E-08         0.00000E+00
    0.11476E-05         0.52854E-09         0.00000E+00
    0.11742E-05        -0.12843E-08         0.00000E+00
    0.11719E-05        -0.21103E-08         0.00000E+00
    0.11680E-05        -0.28499E-08         0.00000E+00
    0.11654E-05        -0.22029E-08         0.00000E+00
    0.11638E-05        -0.11704E-08         0.00000E+00
    0.11627E-05        -0.37112E-09         0.00000E+00
    0.11617E-05         0.20338E-09         0.00000E+00
    0.11605E-05         0.62239E-09         0.00000E+00
    0.11591E-05         0.91720E-09         0.00000E+00
    0.11575E-05         0.11211E-08         0.00000E+00
    0.11559E-05         0.12105E-08         0.00000E+00
    0.11542E-05         0.11350E-08         0.00000E+00
    0.11524E-05         0.88793E-09         0.00000E+00
    0.11504E-05         0.53629E-09         0.00000E+00
    0.11480E-05         0.21474E-09         0.00000E+00
    0.11468E-05         0.82018E-10         0.00000E+00
    0.11717E-05        -0.84413E-09         0.00000E+00
    0.11705E-05        -0.13616E-08         0.00000E+00
    0.11679E-05        -0.19736E-08         0.00000E+00
    0.11659E-05        -0.20030E-08         0.00000E+00
    0.11643E-05        -0.18058E-08         0.00000E+00
    0.11631E-05        -0.15729E-08         0.00000E+00
    0.11619E-05        -0.14193E-08         0.00000E+00
    0.11606E-05        -0.13311E-08         0.00000E+00
    0.11591E-05        -0.12567E-08         0.00000E+00
    0.11575E-05        -0.11674E-08         0.00000E+00
    0.11558E-05        -0.10599E-08         0.00000E+00
    0.11540E-05        -0.94783E-09         0.00000E+00
    0.11521E-05        -0.83196E-09         0.00000E+00
    0.11501E-05        -0.67473E-09         0.00000E+00
    0.11479E-05        -0.40263E-09         0.00000E+00
    0.11467E-05        -0.22698E-09         0.00000E+00
    0.11702E-05        -0.43202E-09         0.00000E+00
    0.11693E-05        -0.86802E-09         0.00000E+00
    0.11674E-05        -0.16340E-08         0.00000E+00
    0.11657E-05        -0.21352E-08         0.00000E+00
    0.11643E-05        -0.24089E-08         0.00000E+00
    0.11630E-05        -0.25873E-08         0.00000E+00
    0.11618E-05        -0.27263E-08         0.00000E+00
    0.11605E-05        -0.28308E-08         0.00000E+00
    0.11591E-05        -0.28725E-08         0.00000E+00
    0.11575E-05        -0.28223E-08         0.00000E+00
    0.11558E-05        -0.26667E-08         0.00000E+00
    0.11541E-05        -0.24029E-08         0.00000E+00
    0.11522E-05        -0.20252E-08         0.00000E+00
    0.11503E-05        -0.15132E-08         0.00000E+00
    0.11482E-05        -0.83095E-09         0.00000E+00
    0.11472E-05        -0.44208E-09         0.00000E+00
    0.11690E-05        -0.44420E-09         0.00000E+00
    0.11682E-05        -0.88515E-09         0.00000E+00
    0.11666E-05        -0.17305E-08         0.00000E+00
    0.11652E-05        -0.24595E-08         0.00000E+00
    0.11639E-05        -0.30305E-08         0.00000E+00
    0.11627E-05        -0.34670E-08         0.00000E+00
    0.11615E-05        -0.37967E-08         0.00000E+00
    0.11603E-05        -0.40181E-08         0.00000E+00
    0.11589E-05        -0.41126E-08         0.00000E+00
    0.11575E-05        -0.40577E-08         0.00000E+00
    0.11560E-05        -0.38374E-08         0.00000E+00
    0.11543E-05        -0.34431E-08         0.00000E+00
    0.11526E-05        -0.28683E-08         0.00000E+00
    0.11508E-05        -0.21028E-08         0.00000E+00
    0.11490E-05        -0.11323E-08         0.00000E+00
    0.11481E-05        -0.59376E-09         0.00000E+00
    0.11679E-05        -0.53012E-09         0.00000E+00
    0.11671E-05        -0.10450E-08         0.00000E+00
    0.11656E-05        -0.20323E-08         0.00000E+00
    0.11643E-05        -0.29147E-08         0.00000E+00
    0.11632E-05        -0.36609E-08         0.00000E+00
    0.11621E-05        -0.42584E-08         0.00000E+00
    0.11611E-05        -0.47041E-08         0.00000E+00
    0.11600E-05        -0.49898E-08         0.00000E+00
    0.11588E-05        -0.50994E-08         0.00000E+00
    0.11575E-05        -0.50152E-08         0.00000E+00
    0.11562E-05        -0.47229E-08         0.00000E+00
    0.11547E-05        -0.42141E-08         0.00000E+00
    0.11532E-05        -0.34841E-08         0.00000E+00
    0.11517E-05        -0.25302E-08         0.00000E+00
    0.11500E-05        -0.13502E-08         0.00000E+00
    0.11492E-05        -0.70351E-09         0.00000E+00
    0.11666E-05        -0.63743E-09         0.00000E+00
    0.11658E-05        -0.12452E-08         0.00000E+00
    0.11645E-05        -0.23988E-08         0.00000E+00
    0.11633E-05        -0.34195E-08         0.00000E+00
    0.11623E-05        -0.42884E-08         0.00000E+00
    0.11614E-05        -0.49871E-08         0.00000E+00
    0.11605E-05        -0.55011E-08         0.00000E+00
    0.11596E-05        -0.58161E-08         0.00000E+00
    0.11587E-05        -0.59172E-08         0.00000E+00
    0.11576E-05        -0.57901E-08         0.00000E+00
    0.11565E-05        -0.54240E-08         0.00000E+00
    0.11553E-05        -0.48128E-08         0.00000E+00
    0.11540E-05        -0.39554E-08         0.00000E+00
    0.11527E-05        -0.28542E-08         0.00000E+00
    0.11513E-05        -0.15147E-08         0.00000E+00
    0.11506E-05        -0.78624E-09         0.00000E+00
    0.11651E-05        -0.74546E-09         0.00000E+00
    0.11644E-05        -0.14495E-08         0.00000E+00
    0.11632E-05        -0.27743E-08         0.00000E+00
    0.11622E-05        -0.39281E-08         0.00000E+00
    0.11614E-05        -0.48984E-08         0.00000E+00
    0.11607E-05        -0.56689E-08         0.00000E+00
    0.11600E-05        -0.62231E-08         0.00000E+00
    0.11593E-05        -0.65460E-08         0.00000E+00
    0.11586E-05        -0.66244E-08         0.00000E+00
    0.11578E-05        -0.64473E-08         0.00000E+00
    0.11569E-05        -0.60077E-08         0.00000E+00
    0.11559E-05        -0.53032E-08         0.00000E+00
    0.11549E-05        -0.43362E-08         0.00000E+00
    0.11538E-05        -0.31136E-08         0.00000E+00
    0.11527E-05        -0.16457E-08         0.00000E+00
    0.11521E-05        -0.85196E-09         0.00000E+00
    0.11634E-05        -0.84926E-09         0.00000E+00
    0.11628E-05        -0.16474E-08         0.00000E+00
    0.11617E-05        -0.31404E-08         0.00000E+00
    0.11609E-05        -0.44234E-08         0.00000E+00
    0.11603E-05        -0.54859E-08         0.00000E+00
    0.11599E-05        -0.63143E-08         0.00000E+00
    0.11594E-05        -0.68943E-08         0.00000E+00
    0.11590E-05        -0.72133E-08         0.00000E+00
    0.11585E-05        -0.72609E-08         0.00000E+00
    0.11580E-05        -0.70303E-08         0.00000E+00
    0.11574E-05        -0.65185E-08         0.00000E+00
    0.11567E-05        -0.57269E-08         0.00000E+00
    0.11559E-05        -0.46618E-08         0.00000E+00
    0.11551E-05        -0.33336E-08         0.00000E+00
    0.11542E-05        -0.17563E-08         0.00000E+00
    0.11537E-05        -0.90726E-09         0.00000E+00
    0.11614E-05        -0.94883E-09         0.00000E+00
    0.11610E-05        -0.18380E-08         0.00000E+00
    0.11601E-05        -0.34948E-08         0.00000E+00
    0.11596E-05        -0.49036E-08         0.00000E+00
    0.11592E-05        -0.60536E-08         0.00000E+00
    0.11590E-05        -0.69334E-08         0.00000E+00
    0.11589E-05        -0.75320E-08         0.00000E+00
    0.11587E-05        -0.78407E-08         0.00000E+00
    0.11585E-05        -0.78535E-08         0.00000E+00
    0.11583E-05        -0.75678E-08         0.00000E+00
    0.11580E-05        -0.69849E-08         0.00000E+00
    0.11576E-05        -0.61105E-08         0.00000E+00
    0.11571E-05        -0.49544E-08         0.00000E+00
    0.11565E-05        -0.35301E-08         0.00000E+00
    0.11558E-05        -0.18546E-08         0.00000E+00
    0.11554E-05        -0.95634E-09         0.00000E+00
    0.11593E-05        -0.10461E-08         0.00000E+00
    0.11590E-05        -0.20244E-08         0.00000E+00
    0.11584E-05        -0.38416E-08         0.00000E+00
    0.11581E-05        -0.53735E-08         0.00000E+00
    0.11581E-05        -0.66079E-08         0.00000E+00
    0.11581E-05        -0.75353E-08         0.00000E+00
    0.11583E-05        -0.81487E-08         0.00000E+00
    0.11584E-05        -0.84437E-08         0.00000E+00
    0.11586E-05        -0.84192E-08         0.00000E+00
    0.11586E-05        -0.80775E-08         0.00000E+00
    0.11586E-05        -0.74245E-08         0.00000E+00
    0.11585E-05        -0.64700E-08         0.00000E+00
    0.11583E-05        -0.52271E-08         0.00000E+00
    0.11580E-05        -0.37126E-08         0.00000E+00
    0.11575E-05        -0.19457E-08         0.00000E+00
    0.11573E-05        -0.10017E-08         0.00000E+00
    0.11570E-05        -0.11436E-08         0.00000E+00
    0.11568E-05        -0.22107E-08         0.00000E+00
    0.11566E-05        -0.41872E-08         0.00000E+00
    0.11566E-05        -0.58399E-08         0.00000E+00
    0.11569E-05        -0.71560E-08         0.00000E+00
    0.11572E-05        -0.81279E-08         0.00000E+00
    0.11577E-05        -0.87528E-08         0.00000E+00
    0.11582E-05        -0.90314E-08         0.00000E+00
    0.11587E-05        -0.89678E-08         0.00000E+00
    0.11590E-05        -0.85693E-08         0.00000E+00
    0.11593E-05        -0.78467E-08         0.00000E+00
    0.11595E-05        -0.68136E-08         0.00000E+00
    0.11596E-05        -0.54868E-08         0.00000E+00
    0.11595E-05        -0.38858E-08         0.00000E+00
    0.11593E-05        -0.20320E-08         0.00000E+00
    0.11592E-05        -0.10448E-08         0.00000E+00
    0.11545E-05        -0.12434E-08         0.00000E+00
    0.11545E-05        -0.24007E-08         0.00000E+00
    0.11546E-05        -0.45373E-08         0.00000E+00
    0.11550E-05        -0.63090E-08         0.00000E+00
    0.11556E-05        -0.77033E-08         0.00000E+00
    0.11563E-05        -0.87159E-08         0.00000E+00
    0.11572E-05        -0.93485E-08         0.00000E+00
    0.11580E-05        -0.96075E-08         0.00000E+00
    0.11588E-05        -0.95027E-08         0.00000E+00
    0.11595E-05        -0.90465E-08         0.00000E+00
    0.11602E-05        -0.82542E-08         0.00000E+00
    0.11606E-05        -0.71438E-08         0.00000E+00
    0.11610E-05        -0.57354E-08         0.00000E+00
    0.11612E-05        -0.40511E-08         0.00000E+00
    0.11612E-05        -0.21143E-08         0.00000E+00
    0.11612E-05        -0.10857E-08         0.00000E+00
    0.11518E-05        -0.13473E-08         0.00000E+00
    0.11520E-05        -0.25971E-08         0.00000E+00
    0.11524E-05        -0.48958E-08         0.00000E+00
    0.11532E-05        -0.67844E-08         0.00000E+00
    0.11542E-05        -0.82524E-08         0.00000E+00
    0.11554E-05        -0.93001E-08         0.00000E+00
    0.11566E-05        -0.99352E-08         0.00000E+00
    0.11578E-05        -0.10170E-07         0.00000E+00
    0.11590E-05        -0.10022E-07         0.00000E+00
    0.11601E-05        -0.95065E-08         0.00000E+00
    0.11610E-05        -0.86448E-08         0.00000E+00
    0.11618E-05        -0.74581E-08         0.00000E+00
    0.11625E-05        -0.59703E-08         0.00000E+00
    0.11629E-05        -0.42064E-08         0.00000E+00
    0.11632E-05        -0.21912E-08         0.00000E+00
    0.11633E-05        -0.11239E-08         0.00000E+00
    0.11489E-05        -0.14562E-08         0.00000E+00
    0.11493E-05        -0.28014E-08         0.00000E+00
    0.11502E-05        -0.52647E-08         0.00000E+00
    0.11514E-05        -0.72666E-08         0.00000E+00
    0.11529E-05        -0.88014E-08         0.00000E+00
    0.11545E-05        -0.98762E-08         0.00000E+00
    0.11561E-05        -0.10507E-07         0.00000E+00
    0.11577E-05        -0.10713E-07         0.00000E+00
    0.11593E-05        -0.10517E-07         0.00000E+00
    0.11607E-05        -0.99416E-08         0.00000E+00
    0.11620E-05        -0.90109E-08         0.00000E+00
    0.11631E-05        -0.77496E-08         0.00000E+00
    0.11641E-05        -0.61851E-08         0.00000E+00
    0.11648E-05        -0.43461E-08         0.00000E+00
    0.11653E-05        -0.22597E-08         0.00000E+00
    0.11655E-05        -0.11578E-08         0.00000E+00
    0.11458E-05        -0.15704E-08         0.00000E+00
    0.11464E-05        -0.30139E-08         0.00000E+00
    0.11478E-05        -0.56427E-08         0.00000E+00
    0.11495E-05        -0.77518E-08         0.00000E+00
    0.11515E-05        -0.93434E-08         0.00000E+00
    0.11535E-05        -0.10434E-07         0.00000E+00
    0.11556E-05        -0.11050E-07         0.00000E+00
    0.11577E-05        -0.11219E-07         0.00000E+00
    0.11596E-05        -0.10973E-07         0.00000E+00
    0.11614E-05        -0.10338E-07         0.00000E+00
    0.11631E-05        -0.93412E-08         0.00000E+00
    0.11645E-05        -0.80081E-08         0.00000E+00
    0.11657E-05        -0.63696E-08         0.00000E+00
    0.11667E-05        -0.44608E-08         0.00000E+00
    0.11674E-05        -0.23135E-08         0.00000E+00
    0.11678E-05        -0.11836E-08         0.00000E+00
    0.11424E-05        -0.16895E-08         0.00000E+00
    0.11433E-05        -0.32330E-08         0.00000E+00
    0.11452E-05        -0.60257E-08         0.00000E+00
    0.11475E-05        -0.82319E-08         0.00000E+00
    0.11500E-05        -0.98653E-08         0.00000E+00
    0.11526E-05        -0.10956E-07         0.00000E+00
    0.11552E-05        -0.11544E-07         0.00000E+00
    0.11576E-05        -0.11668E-07         0.00000E+00
    0.11600E-05        -0.11369E-07         0.00000E+00
    0.11622E-05        -0.10677E-07         0.00000E+00
    0.11642E-05        -0.96198E-08         0.00000E+00
    0.11659E-05        -0.82216E-08         0.00000E+00
    0.11674E-05        -0.65114E-08         0.00000E+00
    0.11687E-05        -0.45353E-08         0.00000E+00
    0.11696E-05        -0.23410E-08         0.00000E+00
    0.11700E-05        -0.11943E-08         0.00000E+00
    0.11388E-05        -0.18124E-08         0.00000E+00
    0.11400E-05        -0.34559E-08         0.00000E+00
    0.11426E-05        -0.64062E-08         0.00000E+00
    0.11455E-05        -0.86930E-08         0.00000E+00
    0.11486E-05        -0.10347E-07         0.00000E+00
    0.11517E-05        -0.11417E-07         0.00000E+00
    0.11548E-05        -0.11959E-07         0.00000E+00
    0.11577E-05        -0.12028E-07         0.00000E+00
    0.11604E-05        -0.11672E-07         0.00000E+00
    0.11630E-05        -0.10928E-07         0.00000E+00
    0.11653E-05        -0.98241E-08         0.00000E+00
    0.11674E-05        -0.83777E-08         0.00000E+00
    0.11692E-05        -0.66040E-08         0.00000E+00
    0.11707E-05        -0.45505E-08         0.00000E+00
    0.11718E-05        -0.23157E-08         0.00000E+00
    0.11723E-05        -0.11674E-08         0.00000E+00
    0.11350E-05        -0.19370E-08         0.00000E+00
    0.11366E-05        -0.36777E-08         0.00000E+00
    0.11399E-05        -0.67726E-08         0.00000E+00
    0.11435E-05        -0.91151E-08         0.00000E+00
    0.11472E-05        -0.10760E-07         0.00000E+00
    0.11509E-05        -0.11781E-07         0.00000E+00
    0.11544E-05        -0.12256E-07         0.00000E+00
    0.11578E-05        -0.12257E-07         0.00000E+00
    0.11610E-05        -0.11843E-07         0.00000E+00
    0.11639E-05        -0.11056E-07         0.00000E+00
    0.11665E-05        -0.99223E-08         0.00000E+00
    0.11690E-05        -0.84535E-08         0.00000E+00
    0.11711E-05        -0.66495E-08         0.00000E+00
    0.11729E-05        -0.45077E-08         0.00000E+00
    0.11740E-05        -0.22058E-08         0.00000E+00
    0.11744E-05        -0.10588E-08         0.00000E+00
    0.11310E-05        -0.20605E-08         0.00000E+00
    0.11329E-05        -0.38917E-08         0.00000E+00
    0.11371E-05        -0.71083E-08         0.00000E+00
    0.11415E-05        -0.94699E-08         0.00000E+00
    0.11459E-05        -0.11065E-07         0.00000E+00
    0.11502E-05        -0.12000E-07         0.00000E+00
    0.11542E-05        -0.12382E-07         0.00000E+00
    0.11580E-05        -0.12302E-07         0.00000E+00
    0.11615E-05        -0.11832E-07         0.00000E+00
    0.11648E-05        -0.11015E-07         0.00000E+00
    0.11678E-05        -0.98746E-08         0.00000E+00
    0.11705E-05        -0.84112E-08         0.00000E+00
    0.11730E-05        -0.66169E-08         0.00000E+00
    0.11752E-05        -0.44297E-08         0.00000E+00
    0.11763E-05        -0.20800E-08         0.00000E+00
    0.11763E-05        -0.93690E-09         0.00000E+00
    0.11267E-05        -0.21792E-08         0.00000E+00
    0.11291E-05        -0.40884E-08         0.00000E+00
    0.11343E-05        -0.73903E-08         0.00000E+00
    0.11395E-05        -0.97187E-08         0.00000E+00
    0.11447E-05        -0.11209E-07         0.00000E+00
    0.11495E-05        -0.12015E-07         0.00000E+00
    0.11541E-05        -0.12275E-07         0.00000E+00
    0.11583E-05        -0.12103E-07         0.00000E+00
    0.11621E-05        -0.11580E-07         0.00000E+00
    0.11657E-05        -0.10752E-07         0.00000E+00
    0.11690E-05        -0.96361E-08         0.00000E+00
    0.11720E-05        -0.82181E-08         0.00000E+00
    0.11749E-05        -0.64555E-08         0.00000E+00
    0.11775E-05        -0.42897E-08         0.00000E+00
    0.11784E-05        -0.19974E-08         0.00000E+00
    0.11782E-05        -0.89635E-09         0.00000E+00
    0.11221E-05        -0.22874E-08         0.00000E+00
    0.11252E-05        -0.42541E-08         0.00000E+00
    0.11315E-05        -0.75853E-08         0.00000E+00
    0.11377E-05        -0.98071E-08         0.00000E+00
    0.11436E-05        -0.11125E-07         0.00000E+00
    0.11491E-05        -0.11750E-07         0.00000E+00
    0.11541E-05        -0.11861E-07         0.00000E+00
    0.11586E-05        -0.11592E-07         0.00000E+00
    0.11627E-05        -0.11028E-07         0.00000E+00
    0.11666E-05        -0.10213E-07         0.00000E+00
    0.11701E-05        -0.91596E-08         0.00000E+00
    0.11735E-05        -0.78409E-08         0.00000E+00
    0.11767E-05        -0.61868E-08         0.00000E+00
    0.11797E-05        -0.41579E-08         0.00000E+00
    0.11805E-05        -0.19950E-08         0.00000E+00
    0.11800E-05        -0.93799E-09         0.00000E+00
    0.11174E-05        -0.23771E-08         0.00000E+00
    0.11213E-05        -0.43678E-08         0.00000E+00
    0.11288E-05        -0.76432E-08         0.00000E+00
    0.11361E-05        -0.96570E-08         0.00000E+00
    0.11428E-05        -0.10718E-07         0.00000E+00
    0.11488E-05        -0.11114E-07         0.00000E+00
    0.11542E-05        -0.11061E-07         0.00000E+00
    0.11590E-05        -0.10701E-07         0.00000E+00
    0.11634E-05        -0.10117E-07         0.00000E+00
    0.11674E-05        -0.93487E-08         0.00000E+00
    0.11712E-05        -0.83996E-08         0.00000E+00
    0.11748E-05        -0.72391E-08         0.00000E+00
    0.11783E-05        -0.57850E-08         0.00000E+00
    0.11817E-05        -0.39966E-08         0.00000E+00
    0.11826E-05        -0.20107E-08         0.00000E+00
    0.11819E-05        -0.99848E-09         0.00000E+00
    0.11126E-05        -0.24338E-08         0.00000E+00
    0.11173E-05        -0.43937E-08         0.00000E+00
    0.11264E-05        -0.74821E-08         0.00000E+00
    0.11348E-05        -0.91516E-08         0.00000E+00
    0.11423E-05        -0.98678E-08         0.00000E+00
    0.11487E-05        -0.10004E-07         0.00000E+00
    0.11544E-05        -0.97962E-08         0.00000E+00
    0.11594E-05        -0.93754E-08         0.00000E+00
    0.11640E-05        -0.88080E-08         0.00000E+00
    0.11681E-05        -0.81223E-08         0.00000E+00
    0.11721E-05        -0.73187E-08         0.00000E+00
    0.11759E-05        -0.63703E-08         0.00000E+00
    0.11797E-05        -0.52082E-08         0.00000E+00
    0.11834E-05        -0.37450E-08         0.00000E+00
    0.11845E-05        -0.19701E-08         0.00000E+00
    0.11838E-05        -0.10118E-08         0.00000E+00
    0.11078E-05        -0.24267E-08         0.00000E+00
    0.11136E-05        -0.42611E-08         0.00000E+00
    0.11245E-05        -0.69579E-08         0.00000E+00
    0.11340E-05        -0.81144E-08         0.00000E+00
    0.11420E-05        -0.84256E-08         0.00000E+00
    0.11488E-05        -0.83244E-08         0.00000E+00
    0.11547E-05        -0.80151E-08         0.00000E+00
    0.11599E-05        -0.75888E-08         0.00000E+00
    0.11645E-05        -0.70869E-08         0.00000E+00
    0.11688E-05        -0.65245E-08         0.00000E+00
    0.11728E-05        -0.59001E-08         0.00000E+00
    0.11767E-05        -0.51991E-08         0.00000E+00
    0.11808E-05        -0.43920E-08         0.00000E+00
    0.11848E-05        -0.33416E-08         0.00000E+00
    0.11862E-05        -0.18549E-08         0.00000E+00
    0.11858E-05        -0.98384E-09         0.00000E+00
    0.11033E-05        -0.22869E-08         0.00000E+00
    0.11104E-05        -0.38155E-08         0.00000E+00
    0.11232E-05        -0.57977E-08         0.00000E+00
    0.11336E-05        -0.62972E-08         0.00000E+00
    0.11420E-05        -0.62581E-08         0.00000E+00
    0.11490E-05        -0.60304E-08         0.00000E+00
    0.11550E-05        -0.57181E-08         0.00000E+00
    0.11603E-05        -0.53640E-08         0.00000E+00
    0.11649E-05        -0.49842E-08         0.00000E+00
    0.11692E-05        -0.45833E-08         0.00000E+00
    0.11733E-05        -0.41602E-08         0.00000E+00
    0.11773E-05        -0.37118E-08         0.00000E+00
    0.11814E-05        -0.32564E-08         0.00000E+00
    0.11857E-05        -0.26785E-08         0.00000E+00
    0.11877E-05        -0.16201E-08         0.00000E+00
    0.11876E-05        -0.91509E-09         0.00000E+00
    0.10998E-05        -0.17155E-08         0.00000E+00
    0.11081E-05        -0.26119E-08         0.00000E+00
    0.11226E-05        -0.35344E-08         0.00000E+00
    0.11335E-05        -0.35084E-08         0.00000E+00
    0.11421E-05        -0.33697E-08         0.00000E+00
    0.11492E-05        -0.31864E-08         0.00000E+00
    0.11553E-05        -0.29889E-08         0.00000E+00
    0.11605E-05        -0.27859E-08         0.00000E+00
    0.11652E-05        -0.25800E-08         0.00000E+00
    0.11695E-05        -0.23709E-08         0.00000E+00
    0.11736E-05        -0.21581E-08         0.00000E+00
    0.11777E-05        -0.19461E-08         0.00000E+00
    0.11818E-05        -0.17443E-08         0.00000E+00
    0.11861E-05        -0.15987E-08         0.00000E+00
    0.11887E-05        -0.11618E-08         0.00000E+00
    0.11890E-05        -0.77325E-09         0.00000E+00
    0.10984E-05         0.00000E+00         0.00000E+00
    0.11073E-05         0.00000E+00         0.00000E+00
    0.11224E-05        -0.32513E-20         0.00000E+00
    0.11335E-05         0.37869E-22         0.00000E+00
    0.11422E-05         0.35632E-20         0.00000E+00
    0.11493E-05         0.00000E+00         0.00000E+00
    0.11553E-05         0.00000E+00         0.00000E+00
    0.11606E-05        -0.33969E-20         0.00000E+00
    0.11653E-05        -0.31138E-20         0.00000E+00
    0.11696E-05         0.31502E-20         0.00000E+00
    0.11737E-05         0.34366E-20         0.00000E+00
    0.11778E-05        -0.34723E-20         0.00000E+00
    0.11819E-05        -0.27480E-21         0.00000E+00
    0.11863E-05         0.34928E-20         0.00000E+00
    0.11891E-05         0.58465E-21         0.00000E+00
    0.11896E-05         0.00000E+00         0.00000E+00
CELL_DATA        450
TENSORS stressef double 
    0.27376E+08         0.25717E+06         0.00000E+00
    0.25717E+06         0.13446E+08         0.00000E+00
    0.00000E+00         0.00000E+00         0.14329E+08
 
    0.27436E+08         0.19341E+06         0.00000E+00
    0.19341E+06         0.13829E+08         0.00000E+00
    0.00000E+00         0.00000E+00         0.14174E+08
 
    0.27274E+08        -0.22093E+05         0.00000E+00
   -0.22093E+05         0.13827E+08         0.00000E+00
    0.00000E+00         0.00000E+00         0.13257E+08
 
    0.26882E+08        -0.16401E+06         0.00000E+00
   -0.16401E+06         0.13513E+08         0.00000E+00
    0.00000E+00         0.00000E+00         0.11703E+08
 
    0.26277E+08        -0.21057E+06         0.00000E+00
   -0.21057E+06         0.13076E+08         0.00000E+00
    0.00000E+00         0.00000E+00         0.96460E+07
 
    0.25464E+08        -0.21324E+06         0.00000E+00
   -0.21324E+06         0.12663E+08         0.00000E+00
    0.00000E+00         0.00000E+00         0.72460E+07
 
    0.24426E+08        -0.11216E+06         0.00000E+00
   -0.11216E+06         0.12365E+08         0.00000E+00
    0.00000E+00         0.00000E+00         0.46227E+07
 
    0.23155E+08         0.92108E+05         0.00000E+00
    0.92108E+05         0.12337E+08         0.00000E+00
    0.00000E+00         0.00000E+00         0.19600E+07
 
    0.21149E+08        -0.17451E+06         0.00000E+00
   -0.17451E+06         0.12337E+08         0.00000E+00
    0.00000E+00         0.00000E+00         0.88818E+05
 
    0.17626E+08        -0.20220E+06         0.00000E+00
   -0.20220E+06         0.12040E+08         0.00000E+00
    0.00000E+00         0.00000E+00         0.00000E+00
 
    0.14820E+08        -0.36181E+05         0.00000E+00
   -0.36181E+05         0.11882E+08         0.00000E+00
    0.00000E+00         0.00000E+00         0.00000E+00
 
    0.12169E+08         0.13872E+06         0.00000E+00
    0.13872E+06         0.12037E+08         0.00000E+00
    0.00000E+00         0.00000E+00         0.00000E+00
 
    0.94140E+07         0.33386E+06         0.00000E+00
    0.33386E+06         0.12547E+08         0.00000E+00
    0.00000E+00         0.00000E+00         0.00000E+00
 
    0.63094E+07         0.57950E+06         0.00000E+00
    0.57950E+06         0.13487E+08         0.00000E+00
    0.00000E+00         0.00000E+00         0.00000E+00
 
    0.23178E+07         0.10596E+07         0.00000E+00
    0.10596E+07         0.15097E+08         0.00000E+00
    0.00000E+00         0.00000E+00         0.00000E+00
 
    0.25919E+08         0.36145E+06         0.00000E+00
    0.36145E+06         0.10157E+08         0.00000E+00
    0.00000E+00         0.00000E+00         0.93666E+07
 
    0.25601E+08         0.26279E+06         0.00000E+00
    0.26279E+06         0.97836E+07         0.00000E+00
    0.00000E+00         0.00000E+00         0.80607E+07
 
    0.25352E+08         0.49359E+05         0.00000E+00
    0.49359E+05         0.98456E+07         0.00000E+00
    0.00000E+00         0.00000E+00         0.70068E+07
 
    0.25026E+08        -0.16552E+06         0.00000E+00
   -0.16552E+06         0.10193E+08         0.00000E+00
    0.00000E+00         0.00000E+00         0.58491E+07
 
    0.24490E+08        -0.17553E+06         0.00000E+00
   -0.17553E+06         0.10644E+08         0.00000E+00
    0.00000E+00         0.00000E+00         0.43636E+07
 
    0.23706E+08        -0.11562E+06         0.00000E+00
   -0.11562E+06         0.11125E+08         0.00000E+00
    0.00000E+00         0.00000E+00         0.25972E+07
 
    0.22810E+08        -0.76261E+05         0.00000E+00
   -0.76261E+05         0.11529E+08         0.00000E+00
    0.00000E+00         0.00000E+00         0.86602E+06
 
    0.21305E+08        -0.12362E+06         0.00000E+00
   -0.12362E+06         0.11488E+08         0.00000E+00
    0.00000E+00         0.00000E+00         0.00000E+00
 
    0.18788E+08        -0.45493E+06         0.00000E+00
   -0.45493E+06         0.11138E+08         0.00000E+00
    0.00000E+00         0.00000E+00         0.00000E+00
 
    0.15960E+08        -0.39169E+06         0.00000E+00
   -0.39169E+06         0.11069E+08         0.00000E+00
    0.00000E+00         0.00000E+00         0.00000E+00
 
    0.13217E+08        -0.29764E+03         0.00000E+00
   -0.29764E+03         0.11156E+08         0.00000E+00
    0.00000E+00         0.00000E+00         0.00000E+00
 
    0.10597E+08         0.47821E+06         0.00000E+00
    0.47821E+06         0.11448E+08         0.00000E+00
    0.00000E+00         0.00000E+00         0.00000E+00
 
    0.79025E+07         0.10343E+07         0.00000E+00
    0.10343E+07         0.12031E+08         0.00000E+00
    0.00000E+00         0.00000E+00         0.00000E+00
 
    0.49512E+07         0.17498E+07         0.00000E+00
    0.17498E+07         0.12986E+08         0.00000E+00
    0.00000E+00         0.00000E+00         0.00000E+00
 
    0.16936E+07         0.29073E+07         0.00000E+00
    0.29073E+07         0.14384E+08         0.00000E+00
    0.00000E+00         0.00000E+00         0.00000E+00
 
    0.24263E+08        -0.58697E+05         0.00000E+00
   -0.58697E+05         0.83765E+07         0.00000E+00
    0.00000E+00         0.00000E+00         0.36156E+07
 
    0.23815E+08         0.12082E+06         0.00000E+00
    0.12082E+06         0.83629E+07         0.00000E+00
    0.00000E+00         0.00000E+00         0.22368E+07
 
    0.23451E+08         0.23036E+06         0.00000E+00
    0.23036E+06         0.85673E+07         0.00000E+00
    0.00000E+00         0.00000E+00         0.12839E+07
 
    0.23121E+08         0.26090E+06         0.00000E+00
    0.26090E+06         0.89243E+07         0.00000E+00
    0.00000E+00         0.00000E+00         0.54887E+06
 
    0.22718E+08         0.17450E+06         0.00000E+00
    0.17450E+06         0.92732E+07         0.00000E+00
    0.00000E+00         0.00000E+00         0.72280E+05
 
    0.21806E+08         0.92711E+05         0.00000E+00
    0.92711E+05         0.94345E+07         0.00000E+00
    0.00000E+00         0.00000E+00         0.00000E+00
 
    0.20745E+08        -0.65841E+05         0.00000E+00
   -0.65841E+05         0.93790E+07         0.00000E+00
    0.00000E+00         0.00000E+00         0.00000E+00
 
    0.19099E+08        -0.38726E+06         0.00000E+00
   -0.38726E+06         0.92802E+07         0.00000E+00
    0.00000E+00         0.00000E+00         0.00000E+00
 
    0.16851E+08        -0.46116E+06         0.00000E+00
   -0.46116E+06         0.93419E+07         0.00000E+00
    0.00000E+00         0.00000E+00         0.00000E+00
 
    0.14363E+08        -0.23655E+06         0.00000E+00
   -0.23655E+06         0.95585E+07         0.00000E+00
    0.00000E+00         0.00000E+00         0.00000E+00
 
    0.11827E+08         0.26388E+06         0.00000E+00
    0.26388E+06         0.98921E+07         0.00000E+00
    0.00000E+00         0.00000E+00         0.00000E+00
 
    0.93091E+07         0.95165E+06         0.00000E+00
    0.95165E+06         0.10358E+08         0.00000E+00
    0.00000E+00         0.00000E+00         0.00000E+00
 
    0.67496E+07         0.17962E+07         0.00000E+00
    0.17962E+07         0.11029E+08         0.00000E+00
    0.00000E+00         0.00000E+00         0.00000E+00
 
    0.40837E+07         0.28741E+07         0.00000E+00
    0.28741E+07         0.11965E+08         0.00000E+00
    0.00000E+00         0.00000E+00         0.00000E+00
 
    0.13600E+07         0.43284E+07         0.00000E+00
    0.43284E+07         0.13143E+08         0.00000E+00
    0.00000E+00         0.00000E+00         0.00000E+00
 
    0.22509E+08        -0.97040E+05         0.00000E+00
   -0.97040E+05         0.71359E+07         0.00000E+00
    0.00000E+00         0.00000E+00         0.69642E+06
 
    0.22048E+08         0.15395E+06         0.00000E+00
    0.15395E+06         0.72278E+07         0.00000E+00
    0.00000E+00         0.00000E+00         0.34924E+06
 
    0.21696E+08         0.30944E+06         0.00000E+00
    0.30944E+06         0.72091E+07         0.00000E+00
    0.00000E+00         0.00000E+00         0.61650E+05
 
    0.21164E+08         0.35797E+06         0.00000E+00
    0.35797E+06         0.71531E+07         0.00000E+00
    0.00000E+00         0.00000E+00         0.00000E+00
 
    0.20613E+08         0.23859E+06         0.00000E+00
    0.23859E+06         0.71006E+07         0.00000E+00
    0.00000E+00         0.00000E+00         0.00000E+00
 
    0.19782E+08         0.62130E+05         0.00000E+00
    0.62130E+05         0.70671E+07         0.00000E+00
    0.00000E+00         0.00000E+00         0.00000E+00
 
    0.18617E+08        -0.11955E+06         0.00000E+00
   -0.11955E+06         0.70677E+07         0.00000E+00
    0.00000E+00         0.00000E+00         0.00000E+00
 
    0.17042E+08        -0.26652E+06         0.00000E+00
   -0.26652E+06         0.71869E+07         0.00000E+00
    0.00000E+00         0.00000E+00         0.00000E+00
 
    0.15069E+08        -0.21218E+06         0.00000E+00
   -0.21218E+06         0.74532E+07         0.00000E+00
    0.00000E+00         0.00000E+00         0.00000E+00
 
    0.12861E+08         0.12230E+06         0.00000E+00
    0.12230E+06         0.78312E+07         0.00000E+00
    0.00000E+00         0.00000E+00         0.00000E+00
 
    0.10558E+08         0.72082E+06         0.00000E+00
    0.72082E+06         0.83061E+07         0.00000E+00
    0.00000E+00         0.00000E+00         0.00000E+00
 
    0.82236E+07         0.15489E+07         0.00000E+00
    0.15489E+07         0.88884E+07         0.00000E+00
    0.00000E+00         0.00000E+00         0.00000E+00
 
    0.58655E+07         0.25946E+07         0.00000E+00
    0.25946E+07         0.96115E+07         0.00000E+00
    0.00000E+00         0.00000E+00         0.00000E+00
 
    0.34879E+07         0.38924E+07         0.00000E+00
    0.38924E+07         0.10499E+08         0.00000E+00
    0.00000E+00         0.00000E+00         0.00000E+00
 
    0.11483E+07         0.55001E+07         0.00000E+00
    0.55001E+07         0.11526E+08         0.00000E+00
    0.00000E+00         0.00000E+00         0.00000E+00
 
    0.20656E+08         0.59562E+05         0.00000E+00
    0.59562E+05         0.51736E+07         0.00000E+00
    0.00000E+00         0.00000E+00         0.16314E+06
 
    0.20349E+08         0.16845E+06         0.00000E+00
    0.16845E+06         0.52154E+07         0.00000E+00
    0.00000E+00         0.00000E+00         0.00000E+00
 
    0.19772E+08         0.24198E+06         0.00000E+00
    0.24198E+06         0.51789E+07         0.00000E+00
    0.00000E+00         0.00000E+00         0.00000E+00
 
    0.19228E+08         0.23234E+06         0.00000E+00
    0.23234E+06         0.50793E+07         0.00000E+00
    0.00000E+00         0.00000E+00         0.00000E+00
 
    0.18566E+08         0.17440E+06         0.00000E+00
    0.17440E+06         0.49856E+07         0.00000E+00
    0.00000E+00         0.00000E+00         0.00000E+00
 
    0.17714E+08         0.60445E+05         0.00000E+00
    0.60445E+05         0.49601E+07         0.00000E+00
    0.00000E+00         0.00000E+00         0.00000E+00
 
    0.16576E+08        -0.32803E+05         0.00000E+00
   -0.32803E+05         0.50303E+07         0.00000E+00
    0.00000E+00         0.00000E+00         0.00000E+00
 
    0.15125E+08        -0.29568E+05         0.00000E+00
   -0.29568E+05         0.52223E+07         0.00000E+00
    0.00000E+00         0.00000E+00         0.00000E+00
 
    0.13385E+08         0.15679E+06         0.00000E+00
    0.15679E+06         0.55486E+07         0.00000E+00
    0.00000E+00         0.00000E+00         0.00000E+00
 
    0.11440E+08         0.58838E+06         0.00000E+00
    0.58838E+06         0.59896E+07         0.00000E+00
    0.00000E+00         0.00000E+00         0.00000E+00
 
    0.93820E+07         0.12773E+07         0.00000E+00
    0.12773E+07         0.65239E+07         0.00000E+00
    0.00000E+00         0.00000E+00         0.00000E+00
 
    0.72735E+07         0.22123E+07         0.00000E+00
    0.22123E+07         0.71497E+07         0.00000E+00
    0.00000E+00         0.00000E+00         0.00000E+00
 
    0.51490E+07         0.33883E+07         0.00000E+00
    0.33883E+07         0.78760E+07         0.00000E+00
    0.00000E+00         0.00000E+00         0.00000E+00
 
    0.30397E+07         0.48159E+07         0.00000E+00
    0.48159E+07         0.87056E+07         0.00000E+00
    0.00000E+00         0.00000E+00         0.00000E+00
 
    0.99671E+06         0.65096E+07         0.00000E+00
    0.65096E+07         0.96181E+07         0.00000E+00
    0.00000E+00         0.00000E+00         0.00000E+00
 
    0.18883E+08         0.10525E+06         0.00000E+00
    0.10525E+06         0.31734E+07         0.00000E+00
    0.00000E+00         0.00000E+00         0.00000E+00
 
    0.18421E+08         0.13882E+06         0.00000E+00
    0.13882E+06         0.31631E+07         0.00000E+00
    0.00000E+00         0.00000E+00         0.00000E+00
 
    0.17864E+08         0.15631E+06         0.00000E+00
    0.15631E+06         0.31011E+07         0.00000E+00
    0.00000E+00         0.00000E+00         0.00000E+00
 
    0.17263E+08         0.15051E+06         0.00000E+00
    0.15051E+06         0.30258E+07         0.00000E+00
    0.00000E+00         0.00000E+00         0.00000E+00
 
    0.16567E+08         0.12132E+06         0.00000E+00
    0.12132E+06         0.29715E+07         0.00000E+00
    0.00000E+00         0.00000E+00         0.00000E+00
 
    0.15712E+08         0.93711E+05         0.00000E+00
    0.93711E+05         0.29740E+07         0.00000E+00
    0.00000E+00         0.00000E+00         0.00000E+00
 
    0.14640E+08         0.11317E+06         0.00000E+00
    0.11317E+06         0.30732E+07         0.00000E+00
    0.00000E+00         0.00000E+00         0.00000E+00
 
    0.13330E+08         0.24611E+06         0.00000E+00
    0.24611E+06         0.32894E+07         0.00000E+00
    0.00000E+00         0.00000E+00         0.00000E+00
 
    0.11798E+08         0.55556E+06         0.00000E+00
    0.55556E+06         0.36249E+07         0.00000E+00
    0.00000E+00         0.00000E+00         0.00000E+00
 
    0.10095E+08         0.10873E+07         0.00000E+00
    0.10873E+07         0.40682E+07         0.00000E+00
    0.00000E+00         0.00000E+00         0.00000E+00
 
    0.82831E+07         0.18622E+07         0.00000E+00
    0.18622E+07         0.46030E+07         0.00000E+00
    0.00000E+00         0.00000E+00         0.00000E+00
 
    0.64148E+07         0.28827E+07         0.00000E+00
    0.28827E+07         0.52190E+07         0.00000E+00
    0.00000E+00         0.00000E+00         0.00000E+00
 
    0.45318E+07         0.41468E+07         0.00000E+00
    0.41468E+07         0.59116E+07         0.00000E+00
    0.00000E+00         0.00000E+00         0.00000E+00
 
    0.26716E+07         0.56535E+07         0.00000E+00
    0.56535E+07         0.66737E+07         0.00000E+00
    0.00000E+00         0.00000E+00         0.00000E+00
 
    0.87597E+06         0.73984E+07         0.00000E+00
    0.73984E+07         0.74889E+07         0.00000E+00
    0.00000E+00         0.00000E+00         0.00000E+00
 
    0.17041E+08         0.58283E+05         0.00000E+00
    0.58283E+05         0.12128E+07         0.00000E+00
    0.00000E+00         0.00000E+00         0.00000E+00
 
    0.16477E+08         0.96298E+05         0.00000E+00
    0.96298E+05         0.11541E+07         0.00000E+00
    0.00000E+00         0.00000E+00         0.00000E+00
 
    0.15912E+08         0.91641E+05         0.00000E+00
    0.91641E+05         0.10924E+07         0.00000E+00
    0.00000E+00         0.00000E+00         0.00000E+00
 
    0.15301E+08         0.90760E+05         0.00000E+00
    0.90760E+05         0.10316E+07         0.00000E+00
    0.00000E+00         0.00000E+00         0.00000E+00
 
    0.14609E+08         0.10311E+06         0.00000E+00
    0.10311E+06         0.99718E+06         0.00000E+00
    0.00000E+00         0.00000E+00         0.00000E+00
 
    0.13790E+08         0.15216E+06         0.00000E+00
    0.15216E+06         0.10212E+07         0.00000E+00
    0.00000E+00         0.00000E+00         0.00000E+00
 
    0.12806E+08         0.27670E+06         0.00000E+00
    0.27670E+06         0.11306E+07         0.00000E+00
    0.00000E+00         0.00000E+00         0.00000E+00
 
    0.11640E+08         0.52486E+06         0.00000E+00
    0.52486E+06         0.13424E+07         0.00000E+00
    0.00000E+00         0.00000E+00         0.00000E+00
 
    0.10302E+08         0.94431E+06         0.00000E+00
    0.94431E+06         0.16596E+07         0.00000E+00
    0.00000E+00         0.00000E+00         0.00000E+00
 
    0.88253E+07         0.15715E+07         0.00000E+00
    0.15715E+07         0.20743E+07         0.00000E+00
    0.00000E+00         0.00000E+00         0.00000E+00
 
    0.72506E+07         0.24275E+07         0.00000E+00
    0.24275E+07         0.25738E+07         0.00000E+00
    0.00000E+00         0.00000E+00         0.00000E+00
 
    0.56209E+07         0.35199E+07         0.00000E+00
    0.35199E+07         0.31463E+07         0.00000E+00
    0.00000E+00         0.00000E+00         0.00000E+00
 
    0.39747E+07         0.48484E+07         0.00000E+00
    0.48484E+07         0.37813E+07         0.00000E+00
    0.00000E+00         0.00000E+00         0.00000E+00
 
    0.23471E+07         0.64076E+07         0.00000E+00
    0.64076E+07         0.44681E+07         0.00000E+00
    0.00000E+00         0.00000E+00         0.00000E+00
 
    0.77110E+06         0.81862E+07         0.00000E+00
    0.81862E+07         0.51931E+07         0.00000E+00
    0.00000E+00         0.00000E+00         0.00000E+00
 
    0.15127E+08         0.14280E+05         0.00000E+00
    0.14280E+05        -0.75217E+06         0.00000E+00
    0.00000E+00         0.00000E+00         0.00000E+00
 
    0.14513E+08         0.26775E+05         0.00000E+00
    0.26775E+05        -0.80796E+06         0.00000E+00
    0.00000E+00         0.00000E+00         0.00000E+00
 
    0.13942E+08         0.28189E+05         0.00000E+00
    0.28189E+05        -0.87921E+06         0.00000E+00
    0.00000E+00         0.00000E+00         0.00000E+00
 
    0.13349E+08         0.45162E+05         0.00000E+00
    0.45162E+05        -0.93752E+06         0.00000E+00
    0.00000E+00         0.00000E+00         0.00000E+00
 
    0.12693E+08         0.10155E+06         0.00000E+00
    0.10155E+06        -0.96382E+06         0.00000E+00
    0.00000E+00         0.00000E+00         0.00000E+00
 
    0.11939E+08         0.22141E+06         0.00000E+00
    0.22141E+06        -0.93548E+06         0.00000E+00
    0.00000E+00         0.00000E+00         0.00000E+00
 
    0.11059E+08         0.43674E+06         0.00000E+00
    0.43674E+06        -0.83215E+06         0.00000E+00
    0.00000E+00         0.00000E+00         0.00000E+00
 
    0.10041E+08         0.78457E+06         0.00000E+00
    0.78457E+06        -0.64111E+06         0.00000E+00
    0.00000E+00         0.00000E+00         0.00000E+00
 
    0.88893E+07         0.13009E+07         0.00000E+00
    0.13009E+07        -0.35901E+06         0.00000E+00
    0.00000E+00         0.00000E+00         0.00000E+00
 
    0.76244E+07         0.20148E+07         0.00000E+00
    0.20148E+07         0.92672E+04         0.00000E+00
    0.00000E+00         0.00000E+00         0.00000E+00
 
    0.62757E+07         0.29450E+07         0.00000E+00
    0.29450E+07         0.45401E+06         0.00000E+00
    0.00000E+00         0.00000E+00         0.00000E+00
 
    0.48757E+07         0.40998E+07         0.00000E+00
    0.40998E+07         0.96393E+06         0.00000E+00
    0.00000E+00         0.00000E+00         0.00000E+00
 
    0.34566E+07         0.54795E+07         0.00000E+00
    0.54795E+07         0.15277E+07         0.00000E+00
    0.00000E+00         0.00000E+00         0.00000E+00
 
    0.20476E+07         0.70778E+07         0.00000E+00
    0.70778E+07         0.21341E+07         0.00000E+00
    0.00000E+00         0.00000E+00         0.00000E+00
 
    0.67461E+06         0.88820E+07         0.00000E+00
    0.88820E+07         0.27718E+07         0.00000E+00
    0.00000E+00         0.00000E+00         0.00000E+00
 
    0.13136E+08        -0.19474E+05         0.00000E+00
   -0.19474E+05        -0.27334E+07         0.00000E+00
    0.00000E+00         0.00000E+00         0.00000E+00
 
    0.12525E+08        -0.40122E+05         0.00000E+00
   -0.40122E+05        -0.27816E+07         0.00000E+00
    0.00000E+00         0.00000E+00         0.00000E+00
 
    0.11968E+08        -0.37227E+05         0.00000E+00
   -0.37227E+05        -0.28488E+07         0.00000E+00
    0.00000E+00         0.00000E+00         0.00000E+00
 
    0.11412E+08         0.33599E+04         0.00000E+00
    0.33599E+04        -0.29074E+07         0.00000E+00
    0.00000E+00         0.00000E+00         0.00000E+00
 
    0.10816E+08         0.10296E+06         0.00000E+00
    0.10296E+06        -0.29359E+07         0.00000E+00
    0.00000E+00         0.00000E+00         0.00000E+00
 
    0.10148E+08         0.28576E+06         0.00000E+00
    0.28576E+06        -0.29156E+07         0.00000E+00
    0.00000E+00         0.00000E+00         0.00000E+00
 
    0.93855E+07         0.57894E+06         0.00000E+00
    0.57894E+06        -0.28311E+07         0.00000E+00
    0.00000E+00         0.00000E+00         0.00000E+00
 
    0.85183E+07         0.10118E+07         0.00000E+00
    0.10118E+07        -0.26721E+07         0.00000E+00
    0.00000E+00         0.00000E+00         0.00000E+00
 
    0.75471E+07         0.16121E+07         0.00000E+00
    0.16121E+07        -0.24353E+07         0.00000E+00
    0.00000E+00         0.00000E+00         0.00000E+00
 
    0.64843E+07         0.24028E+07         0.00000E+00
    0.24028E+07        -0.21235E+07         0.00000E+00
    0.00000E+00         0.00000E+00         0.00000E+00
 
    0.53502E+07         0.33993E+07         0.00000E+00
    0.33993E+07        -0.17439E+07         0.00000E+00
    0.00000E+00         0.00000E+00         0.00000E+00
 
    0.41691E+07         0.46092E+07         0.00000E+00
    0.46092E+07        -0.13061E+07         0.00000E+00
    0.00000E+00         0.00000E+00         0.00000E+00
 
    0.29658E+07         0.60327E+07         0.00000E+00
    0.60327E+07        -0.82030E+06         0.00000E+00
    0.00000E+00         0.00000E+00         0.00000E+00
 
    0.17638E+07         0.76636E+07         0.00000E+00
    0.76636E+07        -0.29679E+06         0.00000E+00
    0.00000E+00         0.00000E+00         0.00000E+00
 
    0.58295E+06         0.94901E+07         0.00000E+00
    0.94901E+07         0.25506E+06         0.00000E+00
    0.00000E+00         0.00000E+00         0.00000E+00
 
    0.11078E+08        -0.45978E+05         0.00000E+00
   -0.45978E+05        -0.47327E+07         0.00000E+00
    0.00000E+00         0.00000E+00         0.00000E+00
 
    0.10504E+08        -0.98532E+05         0.00000E+00
   -0.98532E+05        -0.47744E+07         0.00000E+00
    0.00000E+00         0.00000E+00         0.00000E+00
 
    0.99881E+07        -0.99759E+05         0.00000E+00
   -0.99759E+05        -0.48371E+07         0.00000E+00
    0.00000E+00         0.00000E+00         0.00000E+00
 
    0.94895E+07        -0.40241E+05         0.00000E+00
   -0.40241E+05        -0.48971E+07         0.00000E+00
    0.00000E+00         0.00000E+00         0.00000E+00
 
    0.89715E+07         0.97298E+05         0.00000E+00
    0.97298E+05        -0.49340E+07         0.00000E+00
    0.00000E+00         0.00000E+00         0.00000E+00
 
    0.84057E+07         0.33399E+06         0.00000E+00
    0.33399E+06        -0.49306E+07         0.00000E+00
    0.00000E+00         0.00000E+00         0.00000E+00
 
    0.77718E+07         0.69294E+06         0.00000E+00
    0.69294E+06        -0.48736E+07         0.00000E+00
    0.00000E+00         0.00000E+00         0.00000E+00
 
    0.70586E+07         0.11976E+07         0.00000E+00
    0.11976E+07        -0.47543E+07         0.00000E+00
    0.00000E+00         0.00000E+00         0.00000E+00
 
    0.62644E+07         0.18699E+07         0.00000E+00
    0.18699E+07        -0.45691E+07         0.00000E+00
    0.00000E+00         0.00000E+00         0.00000E+00
 
    0.53961E+07         0.27277E+07         0.00000E+00
    0.27277E+07        -0.43191E+07         0.00000E+00
    0.00000E+00         0.00000E+00         0.00000E+00
 
    0.44668E+07         0.37831E+07         0.00000E+00
    0.37831E+07        -0.40096E+07         0.00000E+00
    0.00000E+00         0.00000E+00         0.00000E+00
 
    0.34939E+07         0.50422E+07         0.00000E+00
    0.50422E+07        -0.36480E+07         0.00000E+00
    0.00000E+00         0.00000E+00         0.00000E+00
 
    0.24961E+07         0.65047E+07         0.00000E+00
    0.65047E+07        -0.32427E+07         0.00000E+00
    0.00000E+00         0.00000E+00         0.00000E+00
 
    0.14912E+07         0.81651E+07         0.00000E+00
    0.81651E+07        -0.28026E+07         0.00000E+00
    0.00000E+00         0.00000E+00         0.00000E+00
 
    0.49456E+06         0.10013E+08         0.00000E+00
    0.10013E+08        -0.23351E+07         0.00000E+00
    0.00000E+00         0.00000E+00         0.00000E+00
 
    0.89608E+07        -0.68118E+05         0.00000E+00
   -0.68118E+05        -0.67499E+07         0.00000E+00
    0.00000E+00         0.00000E+00         0.00000E+00
 
    0.84473E+07        -0.15090E+06         0.00000E+00
   -0.15090E+06        -0.67886E+07         0.00000E+00
    0.00000E+00         0.00000E+00         0.00000E+00
 
    0.79966E+07        -0.16091E+06         0.00000E+00
   -0.16091E+06        -0.68502E+07         0.00000E+00
    0.00000E+00         0.00000E+00         0.00000E+00
 
    0.75754E+07        -0.89522E+05         0.00000E+00
   -0.89522E+05        -0.69155E+07         0.00000E+00
    0.00000E+00         0.00000E+00         0.00000E+00
 
    0.71527E+07         0.77680E+05         0.00000E+00
    0.77680E+05        -0.69658E+07         0.00000E+00
    0.00000E+00         0.00000E+00         0.00000E+00
 
    0.67024E+07         0.35842E+06         0.00000E+00
    0.35842E+06        -0.69854E+07         0.00000E+00
    0.00000E+00         0.00000E+00         0.00000E+00
 
    0.62053E+07         0.77179E+06         0.00000E+00
    0.77179E+06        -0.69619E+07         0.00000E+00
    0.00000E+00         0.00000E+00         0.00000E+00
 
    0.56495E+07         0.13367E+07         0.00000E+00
    0.13367E+07        -0.68872E+07         0.00000E+00
    0.00000E+00         0.00000E+00         0.00000E+00
 
    0.50306E+07         0.20701E+07         0.00000E+00
    0.20701E+07        -0.67570E+07         0.00000E+00
    0.00000E+00         0.00000E+00         0.00000E+00
 
    0.43510E+07         0.29859E+07         0.00000E+00
    0.29859E+07        -0.65714E+07         0.00000E+00
    0.00000E+00         0.00000E+00         0.00000E+00
 
    0.36187E+07         0.40933E+07         0.00000E+00
    0.40933E+07        -0.63337E+07         0.00000E+00
    0.00000E+00         0.00000E+00         0.00000E+00
 
    0.28451E+07         0.53966E+07         0.00000E+00
    0.53966E+07        -0.60492E+07         0.00000E+00
    0.00000E+00         0.00000E+00         0.00000E+00
 
    0.20437E+07         0.68951E+07         0.00000E+00
    0.68951E+07        -0.57247E+07         0.00000E+00
    0.00000E+00         0.00000E+00         0.00000E+00
 
    0.12277E+07         0.85832E+07         0.00000E+00
    0.85832E+07        -0.53670E+07         0.00000E+00
    0.00000E+00         0.00000E+00         0.00000E+00
 
    0.40881E+06         0.10452E+08         0.00000E+00
    0.10452E+08        -0.49824E+07         0.00000E+00
    0.00000E+00         0.00000E+00         0.00000E+00
 
    0.67881E+07        -0.88460E+05         0.00000E+00
   -0.88460E+05        -0.87851E+07         0.00000E+00
    0.00000E+00         0.00000E+00         0.00000E+00
 
    0.63533E+07        -0.20170E+06         0.00000E+00
   -0.20170E+06        -0.88242E+07         0.00000E+00
    0.00000E+00         0.00000E+00         0.00000E+00
 
    0.59870E+07        -0.22508E+06         0.00000E+00
   -0.22508E+06        -0.88897E+07         0.00000E+00
    0.00000E+00         0.00000E+00         0.00000E+00
 
    0.56616E+07        -0.14915E+06         0.00000E+00
   -0.14915E+06        -0.89650E+07         0.00000E+00
    0.00000E+00         0.00000E+00         0.00000E+00
 
    0.53496E+07         0.38846E+05         0.00000E+00
    0.38846E+05        -0.90336E+07         0.00000E+00
    0.00000E+00         0.00000E+00         0.00000E+00
 
    0.50269E+07         0.35372E+06         0.00000E+00
    0.35372E+06        -0.90808E+07         0.00000E+00
    0.00000E+00         0.00000E+00         0.00000E+00
 
    0.46747E+07         0.81098E+06         0.00000E+00
    0.81098E+06        -0.90948E+07         0.00000E+00
    0.00000E+00         0.00000E+00         0.00000E+00
 
    0.42799E+07         0.14255E+07         0.00000E+00
    0.14255E+07        -0.90674E+07         0.00000E+00
    0.00000E+00         0.00000E+00         0.00000E+00
 
    0.38357E+07         0.22105E+07         0.00000E+00
    0.22105E+07        -0.89941E+07         0.00000E+00
    0.00000E+00         0.00000E+00         0.00000E+00
 
    0.33412E+07         0.31763E+07         0.00000E+00
    0.31763E+07        -0.88736E+07         0.00000E+00
    0.00000E+00         0.00000E+00         0.00000E+00
 
    0.27997E+07         0.43295E+07         0.00000E+00
    0.43295E+07        -0.87075E+07         0.00000E+00
    0.00000E+00         0.00000E+00         0.00000E+00
 
    0.22184E+07         0.56728E+07         0.00000E+00
    0.56728E+07        -0.84994E+07         0.00000E+00
    0.00000E+00         0.00000E+00         0.00000E+00
 
    0.16060E+07         0.72046E+07         0.00000E+00
    0.72046E+07        -0.82543E+07         0.00000E+00
    0.00000E+00         0.00000E+00         0.00000E+00
 
    0.97201E+06         0.89196E+07         0.00000E+00
    0.89196E+07        -0.79774E+07         0.00000E+00
    0.00000E+00         0.00000E+00         0.00000E+00
 
    0.32541E+06         0.10810E+08         0.00000E+00
    0.10810E+08        -0.76738E+07         0.00000E+00
    0.00000E+00         0.00000E+00         0.00000E+00
 
    0.45601E+07        -0.10921E+06         0.00000E+00
   -0.10921E+06        -0.10838E+08         0.00000E+00
    0.00000E+00         0.00000E+00         0.00000E+00
 
    0.42180E+07        -0.25546E+06         0.00000E+00
   -0.25546E+06        -0.10881E+08         0.00000E+00
    0.00000E+00         0.00000E+00         0.00000E+00
 
    0.39530E+07        -0.29728E+06         0.00000E+00
   -0.29728E+06        -0.10955E+08         0.00000E+00
    0.00000E+00         0.00000E+00         0.00000E+00
 
    0.37398E+07        -0.22394E+06         0.00000E+00
   -0.22394E+06        -0.11045E+08         0.00000E+00
    0.00000E+00         0.00000E+00         0.00000E+00
 
    0.35529E+07        -0.23621E+05         0.00000E+00
   -0.23621E+05        -0.11136E+08         0.00000E+00
    0.00000E+00         0.00000E+00         0.00000E+00
 
    0.33692E+07         0.31614E+06         0.00000E+00
    0.31614E+06        -0.11215E+08         0.00000E+00
    0.00000E+00         0.00000E+00         0.00000E+00
 
    0.31696E+07         0.80772E+06         0.00000E+00
    0.80772E+06        -0.11269E+08         0.00000E+00
    0.00000E+00         0.00000E+00         0.00000E+00
 
    0.29399E+07         0.14626E+07         0.00000E+00
    0.14626E+07        -0.11290E+08         0.00000E+00
    0.00000E+00         0.00000E+00         0.00000E+00
 
    0.26712E+07         0.22907E+07         0.00000E+00
    0.22907E+07        -0.11274E+08         0.00000E+00
    0.00000E+00         0.00000E+00         0.00000E+00
 
    0.23595E+07         0.32993E+07         0.00000E+00
    0.32993E+07        -0.11218E+08         0.00000E+00
    0.00000E+00         0.00000E+00         0.00000E+00
 
    0.20047E+07         0.44928E+07         0.00000E+00
    0.44928E+07        -0.11122E+08         0.00000E+00
    0.00000E+00         0.00000E+00         0.00000E+00
 
    0.16100E+07         0.58722E+07         0.00000E+00
    0.58722E+07        -0.10989E+08         0.00000E+00
    0.00000E+00         0.00000E+00         0.00000E+00
 
    0.11808E+07         0.74351E+07         0.00000E+00
    0.74351E+07        -0.10821E+08         0.00000E+00
    0.00000E+00         0.00000E+00         0.00000E+00
 
    0.72334E+06         0.91762E+07         0.00000E+00
    0.91762E+07        -0.10623E+08         0.00000E+00
    0.00000E+00         0.00000E+00         0.00000E+00
 
    0.24419E+06         0.11087E+08         0.00000E+00
    0.11087E+08        -0.10398E+08         0.00000E+00
    0.00000E+00         0.00000E+00         0.00000E+00
 
    0.22737E+07        -0.13215E+06         0.00000E+00
   -0.13215E+06        -0.12910E+08         0.00000E+00
    0.00000E+00         0.00000E+00         0.00000E+00
 
    0.20367E+07        -0.31611E+06         0.00000E+00
   -0.31611E+06        -0.12959E+08         0.00000E+00
    0.00000E+00         0.00000E+00         0.00000E+00
 
    0.18879E+07        -0.38208E+06         0.00000E+00
   -0.38208E+06        -0.13045E+08         0.00000E+00
    0.00000E+00         0.00000E+00         0.00000E+00
 
    0.18020E+07        -0.31816E+06         0.00000E+00
   -0.31816E+06        -0.13154E+08         0.00000E+00
    0.00000E+00         0.00000E+00         0.00000E+00
 
    0.17538E+07        -0.11325E+06         0.00000E+00
   -0.11325E+06        -0.13271E+08         0.00000E+00
    0.00000E+00         0.00000E+00         0.00000E+00
 
    0.17199E+07         0.24310E+06         0.00000E+00
    0.24310E+06        -0.13383E+08         0.00000E+00
    0.00000E+00         0.00000E+00         0.00000E+00
 
    0.16807E+07         0.76058E+06         0.00000E+00
    0.76058E+06        -0.13478E+08         0.00000E+00
    0.00000E+00         0.00000E+00         0.00000E+00
 
    0.16208E+07         0.14477E+07         0.00000E+00
    0.14477E+07        -0.13549E+08         0.00000E+00
    0.00000E+00         0.00000E+00         0.00000E+00
 
    0.15292E+07         0.23113E+07         0.00000E+00
    0.23113E+07        -0.13589E+08         0.00000E+00
    0.00000E+00         0.00000E+00         0.00000E+00
 
    0.13994E+07         0.33563E+07         0.00000E+00
    0.33563E+07        -0.13596E+08         0.00000E+00
    0.00000E+00         0.00000E+00         0.00000E+00
 
    0.12285E+07         0.45850E+07         0.00000E+00
    0.45850E+07        -0.13569E+08         0.00000E+00
    0.00000E+00         0.00000E+00         0.00000E+00
 
    0.10167E+07         0.59969E+07         0.00000E+00
    0.59969E+07        -0.13508E+08         0.00000E+00
    0.00000E+00         0.00000E+00         0.00000E+00
 
    0.76627E+06         0.75889E+07         0.00000E+00
    0.75889E+07        -0.13415E+08         0.00000E+00
    0.00000E+00         0.00000E+00         0.00000E+00
 
    0.48085E+06         0.93550E+07         0.00000E+00
    0.93550E+07        -0.13294E+08         0.00000E+00
    0.00000E+00         0.00000E+00         0.00000E+00
 
    0.16496E+06         0.11287E+08         0.00000E+00
    0.11287E+08        -0.13146E+08         0.00000E+00
    0.00000E+00         0.00000E+00         0.00000E+00
 
   -0.77075E+05        -0.15868E+06         0.00000E+00
   -0.15868E+06        -0.15000E+08         0.00000E+00
    0.00000E+00         0.00000E+00         0.00000E+00
 
   -0.19648E+06        -0.38678E+06         0.00000E+00
   -0.38678E+06        -0.15056E+08         0.00000E+00
    0.00000E+00         0.00000E+00         0.00000E+00
 
   -0.21479E+06        -0.48311E+06         0.00000E+00
   -0.48311E+06        -0.15158E+08         0.00000E+00
    0.00000E+00         0.00000E+00         0.00000E+00
 
   -0.15900E+06        -0.43509E+06         0.00000E+00
   -0.43509E+06        -0.15288E+08         0.00000E+00
    0.00000E+00         0.00000E+00         0.00000E+00
 
   -0.55672E+05        -0.23248E+06         0.00000E+00
   -0.23248E+06        -0.15434E+08         0.00000E+00
    0.00000E+00         0.00000E+00         0.00000E+00
 
    0.70913E+05         0.13327E+06         0.00000E+00
    0.13327E+06        -0.15580E+08         0.00000E+00
    0.00000E+00         0.00000E+00         0.00000E+00
 
    0.19994E+06         0.66930E+06         0.00000E+00
    0.66930E+06        -0.15717E+08         0.00000E+00
    0.00000E+00         0.00000E+00         0.00000E+00
 
    0.31467E+06         0.13814E+07         0.00000E+00
    0.13814E+07        -0.15837E+08         0.00000E+00
    0.00000E+00         0.00000E+00         0.00000E+00
 
    0.40256E+06         0.22739E+07         0.00000E+00
    0.22739E+07        -0.15932E+08         0.00000E+00
    0.00000E+00         0.00000E+00         0.00000E+00
 
    0.45497E+06         0.33495E+07         0.00000E+00
    0.33495E+07        -0.15999E+08         0.00000E+00
    0.00000E+00         0.00000E+00         0.00000E+00
 
    0.46665E+06         0.46085E+07         0.00000E+00
    0.46085E+07        -0.16038E+08         0.00000E+00
    0.00000E+00         0.00000E+00         0.00000E+00
 
    0.43517E+06         0.60495E+07         0.00000E+00
    0.60495E+07        -0.16047E+08         0.00000E+00
    0.00000E+00         0.00000E+00         0.00000E+00
 
    0.36032E+06         0.76681E+07         0.00000E+00
    0.76681E+07        -0.16027E+08         0.00000E+00
    0.00000E+00         0.00000E+00         0.00000E+00
 
    0.24354E+06         0.94582E+07         0.00000E+00
    0.94582E+07        -0.15979E+08         0.00000E+00
    0.00000E+00         0.00000E+00         0.00000E+00
 
    0.87470E+05         0.11412E+08         0.00000E+00
    0.11412E+08        -0.15907E+08         0.00000E+00
    0.00000E+00         0.00000E+00         0.00000E+00
 
   -0.25003E+07        -0.18979E+06         0.00000E+00
   -0.18979E+06        -0.17108E+08         0.00000E+00
    0.00000E+00         0.00000E+00         0.00000E+00
 
   -0.24886E+07        -0.46967E+06         0.00000E+00
   -0.46967E+06        -0.17174E+08         0.00000E+00
    0.00000E+00         0.00000E+00         0.00000E+00
 
   -0.23617E+07        -0.60284E+06         0.00000E+00
   -0.60284E+06        -0.17292E+08         0.00000E+00
    0.00000E+00         0.00000E+00         0.00000E+00
 
   -0.21500E+07        -0.57673E+06         0.00000E+00
   -0.57673E+06        -0.17446E+08         0.00000E+00
    0.00000E+00         0.00000E+00         0.00000E+00
 
   -0.18824E+07        -0.38239E+06         0.00000E+00
   -0.38239E+06        -0.17620E+08         0.00000E+00
    0.00000E+00         0.00000E+00         0.00000E+00
 
   -0.15850E+07        -0.13369E+05         0.00000E+00
   -0.13369E+05        -0.17802E+08         0.00000E+00
    0.00000E+00         0.00000E+00         0.00000E+00
 
   -0.12800E+07         0.53492E+06         0.00000E+00
    0.53492E+06        -0.17979E+08         0.00000E+00
    0.00000E+00         0.00000E+00         0.00000E+00
 
   -0.98540E+06         0.12657E+07         0.00000E+00
    0.12657E+07        -0.18145E+08         0.00000E+00
    0.00000E+00         0.00000E+00         0.00000E+00
 
   -0.71513E+06         0.21810E+07         0.00000E+00
    0.21810E+07        -0.18292E+08         0.00000E+00
    0.00000E+00         0.00000E+00         0.00000E+00
 
   -0.47947E+06         0.32814E+07         0.00000E+00
    0.32814E+07        -0.18417E+08         0.00000E+00
    0.00000E+00         0.00000E+00         0.00000E+00
 
   -0.28558E+06         0.45662E+07         0.00000E+00
    0.45662E+07        -0.18519E+08         0.00000E+00
    0.00000E+00         0.00000E+00         0.00000E+00
 
   -0.13805E+06         0.60324E+07         0.00000E+00
    0.60324E+07        -0.18595E+08         0.00000E+00
    0.00000E+00         0.00000E+00         0.00000E+00
 
   -0.39268E+05         0.76752E+07         0.00000E+00
    0.76752E+07        -0.18645E+08         0.00000E+00
    0.00000E+00         0.00000E+00         0.00000E+00
 
    0.10235E+05         0.94878E+07         0.00000E+00
    0.94878E+07        -0.18670E+08         0.00000E+00
    0.00000E+00         0.00000E+00         0.00000E+00
 
    0.11352E+05         0.11462E+08         0.00000E+00
    0.11462E+08        -0.18670E+08         0.00000E+00
    0.00000E+00         0.00000E+00         0.00000E+00
 
   -0.50056E+07        -0.22613E+06         0.00000E+00
   -0.22613E+06        -0.19234E+08         0.00000E+00
    0.00000E+00         0.00000E+00         0.00000E+00
 
   -0.48472E+07        -0.56612E+06         0.00000E+00
   -0.56612E+06        -0.19311E+08         0.00000E+00
    0.00000E+00         0.00000E+00         0.00000E+00
 
   -0.45592E+07        -0.74250E+06         0.00000E+00
   -0.74250E+06        -0.19446E+08         0.00000E+00
    0.00000E+00         0.00000E+00         0.00000E+00
 
   -0.41768E+07        -0.74364E+06         0.00000E+00
   -0.74364E+06        -0.19624E+08         0.00000E+00
    0.00000E+00         0.00000E+00         0.00000E+00
 
   -0.37322E+07        -0.56249E+06         0.00000E+00
   -0.56249E+06        -0.19827E+08         0.00000E+00
    0.00000E+00         0.00000E+00         0.00000E+00
 
   -0.32539E+07        -0.19521E+06         0.00000E+00
   -0.19521E+06        -0.20041E+08         0.00000E+00
    0.00000E+00         0.00000E+00         0.00000E+00
 
   -0.27654E+07         0.36000E+06         0.00000E+00
    0.36000E+06        -0.20256E+08         0.00000E+00
    0.00000E+00         0.00000E+00         0.00000E+00
 
   -0.22859E+07         0.11037E+07         0.00000E+00
    0.11037E+07        -0.20463E+08         0.00000E+00
    0.00000E+00         0.00000E+00         0.00000E+00
 
   -0.18302E+07         0.20359E+07         0.00000E+00
    0.20359E+07        -0.20659E+08         0.00000E+00
    0.00000E+00         0.00000E+00         0.00000E+00
 
   -0.14096E+07         0.31555E+07         0.00000E+00
    0.31555E+07        -0.20838E+08         0.00000E+00
    0.00000E+00         0.00000E+00         0.00000E+00
 
   -0.10329E+07         0.44608E+07         0.00000E+00
    0.44608E+07        -0.20999E+08         0.00000E+00
    0.00000E+00         0.00000E+00         0.00000E+00
 
   -0.70661E+06         0.59482E+07         0.00000E+00
    0.59482E+07        -0.21139E+08         0.00000E+00
    0.00000E+00         0.00000E+00         0.00000E+00
 
   -0.43505E+06         0.76122E+07         0.00000E+00
    0.76122E+07        -0.21258E+08         0.00000E+00
    0.00000E+00         0.00000E+00         0.00000E+00
 
   -0.22060E+06         0.94454E+07         0.00000E+00
    0.94454E+07        -0.21353E+08         0.00000E+00
    0.00000E+00         0.00000E+00         0.00000E+00
 
   -0.63906E+05         0.11439E+08         0.00000E+00
    0.11439E+08        -0.21426E+08         0.00000E+00
    0.00000E+00         0.00000E+00         0.00000E+00
 
   -0.76032E+07        -0.26803E+06         0.00000E+00
   -0.26803E+06        -0.21380E+08         0.00000E+00
    0.00000E+00         0.00000E+00         0.00000E+00
 
   -0.72797E+07        -0.67658E+06         0.00000E+00
   -0.67658E+06        -0.21466E+08         0.00000E+00
    0.00000E+00         0.00000E+00         0.00000E+00
 
   -0.68131E+07        -0.90202E+06         0.00000E+00
   -0.90202E+06        -0.21620E+08         0.00000E+00
    0.00000E+00         0.00000E+00         0.00000E+00
 
   -0.62443E+07        -0.93470E+06         0.00000E+00
   -0.93470E+06        -0.21819E+08         0.00000E+00
    0.00000E+00         0.00000E+00         0.00000E+00
 
   -0.56099E+07        -0.77044E+06         0.00000E+00
   -0.77044E+06        -0.22048E+08         0.00000E+00
    0.00000E+00         0.00000E+00         0.00000E+00
 
   -0.49408E+07        -0.40874E+06         0.00000E+00
   -0.40874E+06        -0.22290E+08         0.00000E+00
    0.00000E+00         0.00000E+00         0.00000E+00
 
   -0.42619E+07         0.14895E+06         0.00000E+00
    0.14895E+06        -0.22538E+08         0.00000E+00
    0.00000E+00         0.00000E+00         0.00000E+00
 
   -0.35929E+07         0.90039E+06         0.00000E+00
    0.90039E+06        -0.22782E+08         0.00000E+00
    0.00000E+00         0.00000E+00         0.00000E+00
 
   -0.29490E+07         0.18434E+07         0.00000E+00
    0.18434E+07        -0.23020E+08         0.00000E+00
    0.00000E+00         0.00000E+00         0.00000E+00
 
   -0.23418E+07         0.29758E+07         0.00000E+00
    0.29758E+07        -0.23248E+08         0.00000E+00
    0.00000E+00         0.00000E+00         0.00000E+00
 
   -0.17809E+07         0.42955E+07         0.00000E+00
    0.42955E+07        -0.23465E+08         0.00000E+00
    0.00000E+00         0.00000E+00         0.00000E+00
 
   -0.12747E+07         0.57992E+07         0.00000E+00
    0.57992E+07        -0.23667E+08         0.00000E+00
    0.00000E+00         0.00000E+00         0.00000E+00
 
   -0.83001E+06         0.74808E+07         0.00000E+00
    0.74808E+07        -0.23852E+08         0.00000E+00
    0.00000E+00         0.00000E+00         0.00000E+00
 
   -0.45088E+06         0.93322E+07         0.00000E+00
    0.93322E+07        -0.24017E+08         0.00000E+00
    0.00000E+00         0.00000E+00         0.00000E+00
 
   -0.13901E+06         0.11344E+08         0.00000E+00
    0.11344E+08        -0.24161E+08         0.00000E+00
    0.00000E+00         0.00000E+00         0.00000E+00
 
   -0.10304E+08        -0.31552E+06         0.00000E+00
   -0.31552E+06        -0.23545E+08         0.00000E+00
    0.00000E+00         0.00000E+00         0.00000E+00
 
   -0.97932E+07        -0.80064E+06         0.00000E+00
   -0.80064E+06        -0.23641E+08         0.00000E+00
    0.00000E+00         0.00000E+00         0.00000E+00
 
   -0.91281E+07        -0.10799E+07         0.00000E+00
   -0.10799E+07        -0.23810E+08         0.00000E+00
    0.00000E+00         0.00000E+00         0.00000E+00
 
   -0.83563E+07        -0.11470E+07         0.00000E+00
   -0.11470E+07        -0.24029E+08         0.00000E+00
    0.00000E+00         0.00000E+00         0.00000E+00
 
   -0.75190E+07        -0.10018E+07         0.00000E+00
   -0.10018E+07        -0.24278E+08         0.00000E+00
    0.00000E+00         0.00000E+00         0.00000E+00
 
   -0.66496E+07        -0.64815E+06         0.00000E+00
   -0.64815E+06        -0.24543E+08         0.00000E+00
    0.00000E+00         0.00000E+00         0.00000E+00
 
   -0.57744E+07        -0.91559E+05         0.00000E+00
   -0.91559E+05        -0.24815E+08         0.00000E+00
    0.00000E+00         0.00000E+00         0.00000E+00
 
   -0.49127E+07         0.66253E+06         0.00000E+00
    0.66253E+06        -0.25088E+08         0.00000E+00
    0.00000E+00         0.00000E+00         0.00000E+00
 
   -0.40787E+07         0.16098E+07         0.00000E+00
    0.16098E+07        -0.25361E+08         0.00000E+00
    0.00000E+00         0.00000E+00         0.00000E+00
 
   -0.32834E+07         0.27474E+07         0.00000E+00
    0.27474E+07        -0.25631E+08         0.00000E+00
    0.00000E+00         0.00000E+00         0.00000E+00
 
   -0.25364E+07         0.40735E+07         0.00000E+00
    0.40735E+07        -0.25899E+08         0.00000E+00
    0.00000E+00         0.00000E+00         0.00000E+00
 
   -0.18476E+07         0.55864E+07         0.00000E+00
    0.55864E+07        -0.26161E+08         0.00000E+00
    0.00000E+00         0.00000E+00         0.00000E+00
 
   -0.12275E+07         0.72814E+07         0.00000E+00
    0.72814E+07        -0.26412E+08         0.00000E+00
    0.00000E+00         0.00000E+00         0.00000E+00
 
   -0.68289E+06         0.91484E+07         0.00000E+00
    0.91484E+07        -0.26647E+08         0.00000E+00
    0.00000E+00         0.00000E+00         0.00000E+00
 
   -0.21496E+06         0.11176E+08         0.00000E+00
    0.11176E+08        -0.26864E+08         0.00000E+00
    0.00000E+00         0.00000E+00         0.00000E+00
 
   -0.13118E+08        -0.36836E+06         0.00000E+00
   -0.36836E+06        -0.25729E+08         0.00000E+00
    0.00000E+00         0.00000E+00         0.00000E+00
 
   -0.12394E+08        -0.93700E+06         0.00000E+00
   -0.93700E+06        -0.25834E+08         0.00000E+00
    0.00000E+00         0.00000E+00         0.00000E+00
 
   -0.11508E+08        -0.12732E+07         0.00000E+00
   -0.12732E+07        -0.26016E+08         0.00000E+00
    0.00000E+00         0.00000E+00         0.00000E+00
 
   -0.10514E+08        -0.13755E+07         0.00000E+00
   -0.13755E+07        -0.26249E+08         0.00000E+00
    0.00000E+00         0.00000E+00         0.00000E+00
 
   -0.94611E+07        -0.12495E+07         0.00000E+00
   -0.12495E+07        -0.26512E+08         0.00000E+00
    0.00000E+00         0.00000E+00         0.00000E+00
 
   -0.83833E+07        -0.90489E+06         0.00000E+00
   -0.90489E+06        -0.26790E+08         0.00000E+00
    0.00000E+00         0.00000E+00         0.00000E+00
 
   -0.73074E+07        -0.35210E+06         0.00000E+00
   -0.35210E+06        -0.27076E+08         0.00000E+00
    0.00000E+00         0.00000E+00         0.00000E+00
 
   -0.62514E+07         0.39966E+06         0.00000E+00
    0.39966E+06        -0.27367E+08         0.00000E+00
    0.00000E+00         0.00000E+00         0.00000E+00
 
   -0.52273E+07         0.13439E+07         0.00000E+00
    0.13439E+07        -0.27663E+08         0.00000E+00
    0.00000E+00         0.00000E+00         0.00000E+00
 
   -0.42439E+07         0.24770E+07         0.00000E+00
    0.24770E+07        -0.27967E+08         0.00000E+00
    0.00000E+00         0.00000E+00         0.00000E+00
 
   -0.33091E+07         0.37985E+07         0.00000E+00
    0.37985E+07        -0.28278E+08         0.00000E+00
    0.00000E+00         0.00000E+00         0.00000E+00
 
   -0.24331E+07         0.53096E+07         0.00000E+00
    0.53096E+07        -0.28598E+08         0.00000E+00
    0.00000E+00         0.00000E+00         0.00000E+00
 
   -0.16311E+07         0.70108E+07         0.00000E+00
    0.70108E+07        -0.28920E+08         0.00000E+00
    0.00000E+00         0.00000E+00         0.00000E+00
 
   -0.91869E+06         0.88921E+07         0.00000E+00
    0.88921E+07        -0.29232E+08         0.00000E+00
    0.00000E+00         0.00000E+00         0.00000E+00
 
   -0.29316E+06         0.10934E+08         0.00000E+00
    0.10934E+08        -0.29524E+08         0.00000E+00
    0.00000E+00         0.00000E+00         0.00000E+00
 
   -0.16055E+08        -0.42609E+06         0.00000E+00
   -0.42609E+06        -0.27934E+08         0.00000E+00
    0.00000E+00         0.00000E+00         0.00000E+00
 
   -0.15086E+08        -0.10835E+07         0.00000E+00
   -0.10835E+07        -0.28046E+08         0.00000E+00
    0.00000E+00         0.00000E+00         0.00000E+00
 
   -0.13952E+08        -0.14772E+07         0.00000E+00
   -0.14772E+07        -0.28237E+08         0.00000E+00
    0.00000E+00         0.00000E+00         0.00000E+00
 
   -0.12718E+08        -0.16128E+07         0.00000E+00
   -0.16128E+07        -0.28477E+08         0.00000E+00
    0.00000E+00         0.00000E+00         0.00000E+00
 
   -0.11436E+08        -0.15037E+07         0.00000E+00
   -0.15037E+07        -0.28742E+08         0.00000E+00
    0.00000E+00         0.00000E+00         0.00000E+00
 
   -0.10143E+08        -0.11672E+07         0.00000E+00
   -0.11672E+07        -0.29021E+08         0.00000E+00
    0.00000E+00         0.00000E+00         0.00000E+00
 
   -0.88649E+07        -0.62005E+06         0.00000E+00
   -0.62005E+06        -0.29307E+08         0.00000E+00
    0.00000E+00         0.00000E+00         0.00000E+00
 
   -0.76159E+07         0.12431E+06         0.00000E+00
    0.12431E+06        -0.29601E+08         0.00000E+00
    0.00000E+00         0.00000E+00         0.00000E+00
 
   -0.64044E+07         0.10570E+07         0.00000E+00
    0.10570E+07        -0.29907E+08         0.00000E+00
    0.00000E+00         0.00000E+00         0.00000E+00
 
   -0.52351E+07         0.21743E+07         0.00000E+00
    0.21743E+07        -0.30232E+08         0.00000E+00
    0.00000E+00         0.00000E+00         0.00000E+00
 
   -0.41127E+07         0.34771E+07         0.00000E+00
    0.34771E+07        -0.30578E+08         0.00000E+00
    0.00000E+00         0.00000E+00         0.00000E+00
 
   -0.30452E+07         0.49696E+07         0.00000E+00
    0.49696E+07        -0.30949E+08         0.00000E+00
    0.00000E+00         0.00000E+00         0.00000E+00
 
   -0.20488E+07         0.66593E+07         0.00000E+00
    0.66593E+07        -0.31343E+08         0.00000E+00
    0.00000E+00         0.00000E+00         0.00000E+00
 
   -0.11604E+07         0.85496E+07         0.00000E+00
    0.85496E+07        -0.31747E+08         0.00000E+00
    0.00000E+00         0.00000E+00         0.00000E+00
 
   -0.37485E+06         0.10604E+08         0.00000E+00
    0.10604E+08        -0.32154E+08         0.00000E+00
    0.00000E+00         0.00000E+00         0.00000E+00
 
   -0.19122E+08        -0.48798E+06         0.00000E+00
   -0.48798E+06        -0.30159E+08         0.00000E+00
    0.00000E+00         0.00000E+00         0.00000E+00
 
   -0.17872E+08        -0.12368E+07         0.00000E+00
   -0.12368E+07        -0.30276E+08         0.00000E+00
    0.00000E+00         0.00000E+00         0.00000E+00
 
   -0.16461E+08        -0.16851E+07         0.00000E+00
   -0.16851E+07        -0.30470E+08         0.00000E+00
    0.00000E+00         0.00000E+00         0.00000E+00
 
   -0.14965E+08        -0.18483E+07         0.00000E+00
   -0.18483E+07        -0.30707E+08         0.00000E+00
    0.00000E+00         0.00000E+00         0.00000E+00
 
   -0.13442E+08        -0.17508E+07         0.00000E+00
   -0.17508E+07        -0.30961E+08         0.00000E+00
    0.00000E+00         0.00000E+00         0.00000E+00
 
   -0.11930E+08        -0.14197E+07         0.00000E+00
   -0.14197E+07        -0.31223E+08         0.00000E+00
    0.00000E+00         0.00000E+00         0.00000E+00
 
   -0.10451E+08        -0.87924E+06         0.00000E+00
   -0.87924E+06        -0.31491E+08         0.00000E+00
    0.00000E+00         0.00000E+00         0.00000E+00
 
   -0.90137E+07        -0.14775E+06         0.00000E+00
   -0.14775E+06        -0.31771E+08         0.00000E+00
    0.00000E+00         0.00000E+00         0.00000E+00
 
   -0.76209E+07         0.76377E+06         0.00000E+00
    0.76377E+06        -0.32070E+08         0.00000E+00
    0.00000E+00         0.00000E+00         0.00000E+00
 
   -0.62709E+07         0.18518E+07         0.00000E+00
    0.18518E+07        -0.32400E+08         0.00000E+00
    0.00000E+00         0.00000E+00         0.00000E+00
 
   -0.49635E+07         0.31194E+07         0.00000E+00
    0.31194E+07        -0.32768E+08         0.00000E+00
    0.00000E+00         0.00000E+00         0.00000E+00
 
   -0.37038E+07         0.45746E+07         0.00000E+00
    0.45746E+07        -0.33179E+08         0.00000E+00
    0.00000E+00         0.00000E+00         0.00000E+00
 
   -0.25031E+07         0.62273E+07         0.00000E+00
    0.62273E+07        -0.33632E+08         0.00000E+00
    0.00000E+00         0.00000E+00         0.00000E+00
 
   -0.14083E+07         0.80969E+07         0.00000E+00
    0.80969E+07        -0.34118E+08         0.00000E+00
    0.00000E+00         0.00000E+00         0.00000E+00
 
   -0.61290E+06         0.10081E+08         0.00000E+00
    0.10081E+08        -0.34679E+08         0.00000E+00
    0.00000E+00         0.00000E+00        -0.16623E+06
 
   -0.22326E+08        -0.55312E+06         0.00000E+00
   -0.55312E+06        -0.32406E+08         0.00000E+00
    0.00000E+00         0.00000E+00         0.00000E+00
 
   -0.20749E+08        -0.13925E+07         0.00000E+00
   -0.13925E+07        -0.32524E+08         0.00000E+00
    0.00000E+00         0.00000E+00         0.00000E+00
 
   -0.19025E+08        -0.18875E+07         0.00000E+00
   -0.18875E+07        -0.32713E+08         0.00000E+00
    0.00000E+00         0.00000E+00         0.00000E+00
 
   -0.17246E+08        -0.20678E+07         0.00000E+00
   -0.20678E+07        -0.32932E+08         0.00000E+00
    0.00000E+00         0.00000E+00         0.00000E+00
 
   -0.15472E+08        -0.19730E+07         0.00000E+00
   -0.19730E+07        -0.33157E+08         0.00000E+00
    0.00000E+00         0.00000E+00         0.00000E+00
 
   -0.13742E+08        -0.16427E+07         0.00000E+00
   -0.16427E+07        -0.33381E+08         0.00000E+00
    0.00000E+00         0.00000E+00         0.00000E+00
 
   -0.12068E+08        -0.11099E+07         0.00000E+00
   -0.11099E+07        -0.33609E+08         0.00000E+00
    0.00000E+00         0.00000E+00         0.00000E+00
 
   -0.10453E+08        -0.39776E+06         0.00000E+00
   -0.39776E+06        -0.33852E+08         0.00000E+00
    0.00000E+00         0.00000E+00         0.00000E+00
 
   -0.88896E+07         0.48108E+06         0.00000E+00
    0.48108E+06        -0.34126E+08         0.00000E+00
    0.00000E+00         0.00000E+00         0.00000E+00
 
   -0.73677E+07         0.15240E+07         0.00000E+00
    0.15240E+07        -0.34445E+08         0.00000E+00
    0.00000E+00         0.00000E+00         0.00000E+00
 
   -0.58801E+07         0.27376E+07         0.00000E+00
    0.27376E+07        -0.34820E+08         0.00000E+00
    0.00000E+00         0.00000E+00         0.00000E+00
 
   -0.44267E+07         0.41362E+07         0.00000E+00
    0.41362E+07        -0.35259E+08         0.00000E+00
    0.00000E+00         0.00000E+00         0.00000E+00
 
   -0.30207E+07         0.57378E+07         0.00000E+00
    0.57378E+07        -0.35758E+08         0.00000E+00
    0.00000E+00         0.00000E+00         0.00000E+00
 
   -0.16572E+07         0.75688E+07         0.00000E+00
    0.75688E+07        -0.36308E+08         0.00000E+00
    0.00000E+00         0.00000E+00         0.00000E+00
 
   -0.11349E+07         0.93950E+07         0.00000E+00
    0.93950E+07        -0.36940E+08         0.00000E+00
    0.00000E+00         0.00000E+00        -0.65690E+06
 
   -0.25670E+08        -0.62030E+06         0.00000E+00
   -0.62030E+06        -0.34675E+08         0.00000E+00
    0.00000E+00         0.00000E+00         0.00000E+00
 
   -0.23710E+08        -0.15442E+07         0.00000E+00
   -0.15442E+07        -0.34790E+08         0.00000E+00
    0.00000E+00         0.00000E+00         0.00000E+00
 
   -0.21635E+08        -0.20710E+07         0.00000E+00
   -0.20710E+07        -0.34962E+08         0.00000E+00
    0.00000E+00         0.00000E+00         0.00000E+00
 
   -0.19550E+08        -0.22518E+07         0.00000E+00
   -0.22518E+07        -0.35144E+08         0.00000E+00
    0.00000E+00         0.00000E+00         0.00000E+00
 
   -0.17521E+08        -0.21471E+07         0.00000E+00
   -0.21471E+07        -0.35314E+08         0.00000E+00
    0.00000E+00         0.00000E+00         0.00000E+00
 
   -0.15577E+08        -0.18121E+07         0.00000E+00
   -0.18121E+07        -0.35473E+08         0.00000E+00
    0.00000E+00         0.00000E+00         0.00000E+00
 
   -0.13723E+08        -0.12889E+07         0.00000E+00
   -0.12889E+07        -0.35635E+08         0.00000E+00
    0.00000E+00         0.00000E+00         0.00000E+00
 
   -0.11945E+08        -0.60482E+06         0.00000E+00
   -0.60482E+06        -0.35819E+08         0.00000E+00
    0.00000E+00         0.00000E+00         0.00000E+00
 
   -0.10225E+08         0.22731E+06         0.00000E+00
    0.22731E+06        -0.36046E+08         0.00000E+00
    0.00000E+00         0.00000E+00         0.00000E+00
 
   -0.85441E+07         0.12068E+07         0.00000E+00
    0.12068E+07        -0.36336E+08         0.00000E+00
    0.00000E+00         0.00000E+00         0.00000E+00
 
   -0.68838E+07         0.23442E+07         0.00000E+00
    0.23442E+07        -0.36705E+08         0.00000E+00
    0.00000E+00         0.00000E+00         0.00000E+00
 
   -0.52352E+07         0.36613E+07         0.00000E+00
    0.36613E+07        -0.37163E+08         0.00000E+00
    0.00000E+00         0.00000E+00         0.00000E+00
 
   -0.36067E+07         0.51926E+07         0.00000E+00
    0.51926E+07        -0.37712E+08         0.00000E+00
    0.00000E+00         0.00000E+00         0.00000E+00
 
   -0.20109E+07         0.69568E+07         0.00000E+00
    0.69568E+07        -0.38344E+08         0.00000E+00
    0.00000E+00         0.00000E+00        -0.24092E+04
 
   -0.17747E+07         0.86853E+07         0.00000E+00
    0.86853E+07        -0.39039E+08         0.00000E+00
    0.00000E+00         0.00000E+00        -0.11945E+07
 
   -0.29152E+08        -0.68796E+06         0.00000E+00
   -0.68796E+06        -0.36966E+08         0.00000E+00
    0.00000E+00         0.00000E+00         0.00000E+00
 
   -0.26740E+08        -0.16825E+07         0.00000E+00
   -0.16825E+07        -0.37072E+08         0.00000E+00
    0.00000E+00         0.00000E+00         0.00000E+00
 
   -0.24267E+08        -0.22160E+07         0.00000E+00
   -0.22160E+07        -0.37208E+08         0.00000E+00
    0.00000E+00         0.00000E+00         0.00000E+00
 
   -0.21859E+08        -0.23731E+07         0.00000E+00
   -0.23731E+07        -0.37324E+08         0.00000E+00
    0.00000E+00         0.00000E+00         0.00000E+00
 
   -0.19578E+08        -0.22432E+07         0.00000E+00
   -0.22432E+07        -0.37406E+08         0.00000E+00
    0.00000E+00         0.00000E+00         0.00000E+00
 
   -0.17437E+08        -0.18994E+07         0.00000E+00
   -0.18994E+07        -0.37468E+08         0.00000E+00
    0.00000E+00         0.00000E+00         0.00000E+00
 
   -0.15421E+08        -0.13914E+07         0.00000E+00
   -0.13914E+07        -0.37536E+08         0.00000E+00
    0.00000E+00         0.00000E+00         0.00000E+00
 
   -0.13502E+08        -0.74765E+06         0.00000E+00
   -0.74765E+06        -0.37637E+08         0.00000E+00
    0.00000E+00         0.00000E+00         0.00000E+00
 
   -0.11646E+08         0.20347E+05         0.00000E+00
    0.20347E+05        -0.37798E+08         0.00000E+00
    0.00000E+00         0.00000E+00         0.00000E+00
 
   -0.98219E+07         0.91486E+06         0.00000E+00
    0.91486E+06        -0.38043E+08         0.00000E+00
    0.00000E+00         0.00000E+00         0.00000E+00
 
   -0.80001E+07         0.19506E+07         0.00000E+00
    0.19506E+07        -0.38393E+08         0.00000E+00
    0.00000E+00         0.00000E+00         0.00000E+00
 
   -0.61588E+07         0.31555E+07         0.00000E+00
    0.31555E+07        -0.38862E+08         0.00000E+00
    0.00000E+00         0.00000E+00         0.00000E+00
 
   -0.42882E+07         0.45737E+07         0.00000E+00
    0.45737E+07        -0.39459E+08         0.00000E+00
    0.00000E+00         0.00000E+00         0.00000E+00
 
   -0.25177E+07         0.62386E+07         0.00000E+00
    0.62386E+07        -0.40165E+08         0.00000E+00
    0.00000E+00         0.00000E+00        -0.10310E+06
 
   -0.23774E+07         0.79376E+07         0.00000E+00
    0.79376E+07        -0.40957E+08         0.00000E+00
    0.00000E+00         0.00000E+00        -0.16750E+07
 
   -0.32765E+08        -0.75384E+06         0.00000E+00
   -0.75384E+06        -0.39281E+08         0.00000E+00
    0.00000E+00         0.00000E+00         0.00000E+00
 
   -0.29811E+08        -0.17918E+07         0.00000E+00
   -0.17918E+07        -0.39365E+08         0.00000E+00
    0.00000E+00         0.00000E+00         0.00000E+00
 
   -0.26893E+08        -0.22921E+07         0.00000E+00
   -0.22921E+07        -0.39436E+08         0.00000E+00
    0.00000E+00         0.00000E+00         0.00000E+00
 
   -0.24154E+08        -0.23937E+07         0.00000E+00
   -0.23937E+07        -0.39443E+08         0.00000E+00
    0.00000E+00         0.00000E+00         0.00000E+00
 
   -0.21637E+08        -0.22245E+07         0.00000E+00
   -0.22245E+07        -0.39394E+08         0.00000E+00
    0.00000E+00         0.00000E+00         0.00000E+00
 
   -0.19325E+08        -0.18737E+07         0.00000E+00
   -0.18737E+07        -0.39322E+08         0.00000E+00
    0.00000E+00         0.00000E+00         0.00000E+00
 
   -0.17177E+08        -0.13928E+07         0.00000E+00
   -0.13928E+07        -0.39268E+08         0.00000E+00
    0.00000E+00         0.00000E+00         0.00000E+00
 
   -0.15142E+08        -0.80736E+06         0.00000E+00
   -0.80736E+06        -0.39266E+08         0.00000E+00
    0.00000E+00         0.00000E+00         0.00000E+00
 
   -0.13173E+08        -0.12494E+06         0.00000E+00
   -0.12494E+06        -0.39347E+08         0.00000E+00
    0.00000E+00         0.00000E+00         0.00000E+00
 
   -0.11225E+08         0.66018E+06         0.00000E+00
    0.66018E+06        -0.39536E+08         0.00000E+00
    0.00000E+00         0.00000E+00         0.00000E+00
 
   -0.92579E+07         0.15660E+07         0.00000E+00
    0.15660E+07        -0.39857E+08         0.00000E+00
    0.00000E+00         0.00000E+00         0.00000E+00
 
   -0.72326E+07         0.26247E+07         0.00000E+00
    0.26247E+07        -0.40330E+08         0.00000E+00
    0.00000E+00         0.00000E+00         0.00000E+00
 
   -0.51170E+07         0.38899E+07         0.00000E+00
    0.38899E+07        -0.40973E+08         0.00000E+00
    0.00000E+00         0.00000E+00         0.00000E+00
 
   -0.31514E+07         0.54109E+07         0.00000E+00
    0.54109E+07        -0.41773E+08         0.00000E+00
    0.00000E+00         0.00000E+00        -0.23392E+06
 
   -0.29184E+07         0.71033E+07         0.00000E+00
    0.71033E+07        -0.42669E+08         0.00000E+00
    0.00000E+00         0.00000E+00        -0.20669E+07
 
   -0.36491E+08        -0.81394E+06         0.00000E+00
   -0.81394E+06        -0.41619E+08         0.00000E+00
    0.00000E+00         0.00000E+00         0.00000E+00
 
   -0.32875E+08        -0.18438E+07         0.00000E+00
   -0.18438E+07        -0.41657E+08         0.00000E+00
    0.00000E+00         0.00000E+00         0.00000E+00
 
   -0.29468E+08        -0.22492E+07         0.00000E+00
   -0.22492E+07        -0.41609E+08         0.00000E+00
    0.00000E+00         0.00000E+00         0.00000E+00
 
   -0.26412E+08        -0.22611E+07         0.00000E+00
   -0.22611E+07        -0.41444E+08         0.00000E+00
    0.00000E+00         0.00000E+00         0.00000E+00
 
   -0.23698E+08        -0.20493E+07         0.00000E+00
   -0.20493E+07        -0.41212E+08         0.00000E+00
    0.00000E+00         0.00000E+00         0.00000E+00
 
   -0.21255E+08        -0.17060E+07         0.00000E+00
   -0.17060E+07        -0.40974E+08         0.00000E+00
    0.00000E+00         0.00000E+00         0.00000E+00
 
   -0.19007E+08        -0.12743E+07         0.00000E+00
   -0.12743E+07        -0.40777E+08         0.00000E+00
    0.00000E+00         0.00000E+00         0.00000E+00
 
   -0.16886E+08        -0.77143E+06         0.00000E+00
   -0.77143E+06        -0.40661E+08         0.00000E+00
    0.00000E+00         0.00000E+00         0.00000E+00
 
   -0.14829E+08        -0.19970E+06         0.00000E+00
   -0.19970E+06        -0.40653E+08         0.00000E+00
    0.00000E+00         0.00000E+00         0.00000E+00
 
   -0.12781E+08         0.44965E+06         0.00000E+00
    0.44965E+06        -0.40781E+08         0.00000E+00
    0.00000E+00         0.00000E+00         0.00000E+00
 
   -0.10688E+08         0.11960E+07         0.00000E+00
    0.11960E+07        -0.41070E+08         0.00000E+00
    0.00000E+00         0.00000E+00         0.00000E+00
 
   -0.84966E+07         0.20719E+07         0.00000E+00
    0.20719E+07        -0.41544E+08         0.00000E+00
    0.00000E+00         0.00000E+00         0.00000E+00
 
   -0.61474E+07         0.31289E+07         0.00000E+00
    0.31289E+07        -0.42233E+08         0.00000E+00
    0.00000E+00         0.00000E+00         0.00000E+00
 
   -0.38982E+07         0.44624E+07         0.00000E+00
    0.44624E+07        -0.43144E+08         0.00000E+00
    0.00000E+00         0.00000E+00        -0.29392E+06
 
   -0.34187E+07         0.61421E+07         0.00000E+00
    0.61421E+07        -0.44183E+08         0.00000E+00
    0.00000E+00         0.00000E+00        -0.23466E+07
 
   -0.40286E+08        -0.85868E+06         0.00000E+00
   -0.85868E+06        -0.43974E+08         0.00000E+00
    0.00000E+00         0.00000E+00         0.00000E+00
 
   -0.35848E+08        -0.17772E+07         0.00000E+00
   -0.17772E+07        -0.43913E+08         0.00000E+00
    0.00000E+00         0.00000E+00         0.00000E+00
 
   -0.31942E+08        -0.20030E+07         0.00000E+00
   -0.20030E+07        -0.43642E+08         0.00000E+00
    0.00000E+00         0.00000E+00         0.00000E+00
 
   -0.28631E+08        -0.19115E+07         0.00000E+00
   -0.19115E+07        -0.43221E+08         0.00000E+00
    0.00000E+00         0.00000E+00         0.00000E+00
 
   -0.25780E+08        -0.16816E+07         0.00000E+00
   -0.16816E+07        -0.42762E+08         0.00000E+00
    0.00000E+00         0.00000E+00         0.00000E+00
 
   -0.23252E+08        -0.13793E+07         0.00000E+00
   -0.13793E+07        -0.42339E+08         0.00000E+00
    0.00000E+00         0.00000E+00         0.00000E+00
 
   -0.20940E+08        -0.10291E+07         0.00000E+00
   -0.10291E+07        -0.41998E+08         0.00000E+00
    0.00000E+00         0.00000E+00         0.00000E+00
 
   -0.18760E+08        -0.63819E+06         0.00000E+00
   -0.63819E+06        -0.41770E+08         0.00000E+00
    0.00000E+00         0.00000E+00         0.00000E+00
 
   -0.16640E+08        -0.20392E+06         0.00000E+00
   -0.20392E+06        -0.41679E+08         0.00000E+00
    0.00000E+00         0.00000E+00         0.00000E+00
 
   -0.14515E+08         0.28344E+06         0.00000E+00
    0.28344E+06        -0.41749E+08         0.00000E+00
    0.00000E+00         0.00000E+00         0.00000E+00
 
   -0.12322E+08         0.84149E+06         0.00000E+00
    0.84149E+06        -0.42006E+08         0.00000E+00
    0.00000E+00         0.00000E+00         0.00000E+00
 
   -0.99923E+07         0.14986E+07         0.00000E+00
    0.14986E+07        -0.42480E+08         0.00000E+00
    0.00000E+00         0.00000E+00         0.00000E+00
 
   -0.74482E+07         0.22979E+07         0.00000E+00
    0.22979E+07        -0.43210E+08         0.00000E+00
    0.00000E+00         0.00000E+00         0.00000E+00
 
   -0.47998E+07         0.33606E+07         0.00000E+00
    0.33606E+07        -0.44244E+08         0.00000E+00
    0.00000E+00         0.00000E+00        -0.23716E+06
 
   -0.38869E+07         0.49722E+07         0.00000E+00
    0.49722E+07        -0.45492E+08         0.00000E+00
    0.00000E+00         0.00000E+00        -0.24921E+07
 
   -0.44039E+08        -0.85198E+06         0.00000E+00
   -0.85198E+06        -0.46325E+08         0.00000E+00
    0.00000E+00         0.00000E+00         0.00000E+00
 
   -0.38599E+08        -0.14375E+07         0.00000E+00
   -0.14375E+07        -0.45985E+08         0.00000E+00
    0.00000E+00         0.00000E+00         0.00000E+00
 
   -0.34302E+08        -0.14391E+07         0.00000E+00
   -0.14391E+07        -0.45328E+08         0.00000E+00
    0.00000E+00         0.00000E+00         0.00000E+00
 
   -0.30847E+08        -0.13014E+07         0.00000E+00
   -0.13014E+07        -0.44598E+08         0.00000E+00
    0.00000E+00         0.00000E+00         0.00000E+00
 
   -0.27925E+08        -0.11138E+07         0.00000E+00
   -0.11138E+07        -0.43914E+08         0.00000E+00
    0.00000E+00         0.00000E+00         0.00000E+00
 
   -0.25354E+08        -0.90107E+06         0.00000E+00
   -0.90107E+06        -0.43326E+08         0.00000E+00
    0.00000E+00         0.00000E+00         0.00000E+00
 
   -0.23007E+08        -0.67000E+06         0.00000E+00
   -0.67000E+06        -0.42862E+08         0.00000E+00
    0.00000E+00         0.00000E+00         0.00000E+00
 
   -0.20791E+08        -0.42044E+06         0.00000E+00
   -0.42044E+06        -0.42543E+08         0.00000E+00
    0.00000E+00         0.00000E+00         0.00000E+00
 
   -0.18629E+08        -0.14820E+06         0.00000E+00
   -0.14820E+06        -0.42387E+08         0.00000E+00
    0.00000E+00         0.00000E+00         0.00000E+00
 
   -0.16452E+08         0.15450E+06         0.00000E+00
    0.15450E+06        -0.42412E+08         0.00000E+00
    0.00000E+00         0.00000E+00         0.00000E+00
 
   -0.14188E+08         0.49998E+06         0.00000E+00
    0.49998E+06        -0.42644E+08         0.00000E+00
    0.00000E+00         0.00000E+00         0.00000E+00
 
   -0.11758E+08         0.90741E+06         0.00000E+00
    0.90741E+06        -0.43117E+08         0.00000E+00
    0.00000E+00         0.00000E+00         0.00000E+00
 
   -0.90702E+07         0.14079E+07         0.00000E+00
    0.14079E+07        -0.43878E+08         0.00000E+00
    0.00000E+00         0.00000E+00         0.00000E+00
 
   -0.59958E+07         0.20829E+07         0.00000E+00
    0.20829E+07        -0.45029E+08         0.00000E+00
    0.00000E+00         0.00000E+00        -0.85033E+05
 
   -0.43717E+07         0.34575E+07         0.00000E+00
    0.34575E+07        -0.46574E+08         0.00000E+00
    0.00000E+00         0.00000E+00        -0.24615E+07
 
   -0.47425E+08        -0.51620E+06         0.00000E+00
   -0.51620E+06        -0.48279E+08         0.00000E+00
    0.00000E+00         0.00000E+00         0.00000E+00
 
   -0.41073E+08        -0.58529E+06         0.00000E+00
   -0.58529E+06        -0.47363E+08         0.00000E+00
    0.00000E+00         0.00000E+00         0.00000E+00
 
   -0.36642E+08        -0.53087E+06         0.00000E+00
   -0.53087E+06        -0.46321E+08         0.00000E+00
    0.00000E+00         0.00000E+00         0.00000E+00
 
   -0.33135E+08        -0.46402E+06         0.00000E+00
   -0.46402E+06        -0.45364E+08         0.00000E+00
    0.00000E+00         0.00000E+00         0.00000E+00
 
   -0.30188E+08        -0.39048E+06         0.00000E+00
   -0.39048E+06        -0.44533E+08         0.00000E+00
    0.00000E+00         0.00000E+00         0.00000E+00
 
   -0.27598E+08        -0.31323E+06         0.00000E+00
   -0.31323E+06        -0.43845E+08         0.00000E+00
    0.00000E+00         0.00000E+00         0.00000E+00
 
   -0.25234E+08        -0.23220E+06         0.00000E+00
   -0.23220E+06        -0.43311E+08         0.00000E+00
    0.00000E+00         0.00000E+00         0.00000E+00
 
   -0.23000E+08        -0.14628E+06         0.00000E+00
   -0.14628E+06        -0.42941E+08         0.00000E+00
    0.00000E+00         0.00000E+00         0.00000E+00
 
   -0.20816E+08        -0.53471E+05         0.00000E+00
   -0.53471E+05        -0.42748E+08         0.00000E+00
    0.00000E+00         0.00000E+00         0.00000E+00
 
   -0.18610E+08         0.49204E+05         0.00000E+00
    0.49204E+05        -0.42749E+08         0.00000E+00
    0.00000E+00         0.00000E+00         0.00000E+00
 
   -0.16308E+08         0.16617E+06         0.00000E+00
    0.16617E+06        -0.42967E+08         0.00000E+00
    0.00000E+00         0.00000E+00         0.00000E+00
 
   -0.13824E+08         0.30401E+06         0.00000E+00
    0.30401E+06        -0.43439E+08         0.00000E+00
    0.00000E+00         0.00000E+00         0.00000E+00
 
   -0.11049E+08         0.47551E+06         0.00000E+00
    0.47551E+06        -0.44217E+08         0.00000E+00
    0.00000E+00         0.00000E+00         0.00000E+00
 
   -0.78095E+07         0.69685E+06         0.00000E+00
    0.69685E+06        -0.45400E+08         0.00000E+00
    0.00000E+00         0.00000E+00         0.00000E+00
 
   -0.49995E+07         0.13029E+07         0.00000E+00
    0.13029E+07        -0.47382E+08         0.00000E+00
    0.00000E+00         0.00000E+00        -0.22071E+07
 
TENSORS stresstot double 
   -0.45062E+08         0.25717E+06         0.00000E+00
    0.25717E+06        -0.58992E+08         0.00000E+00
    0.00000E+00         0.00000E+00        -0.58110E+08
 
   -0.45022E+08         0.19341E+06         0.00000E+00
    0.19341E+06        -0.58629E+08         0.00000E+00
    0.00000E+00         0.00000E+00        -0.58285E+08
 
   -0.45217E+08        -0.22093E+05         0.00000E+00
   -0.22093E+05        -0.58664E+08         0.00000E+00
    0.00000E+00         0.00000E+00        -0.59234E+08
 
   -0.45648E+08        -0.16401E+06         0.00000E+00
   -0.16401E+06        -0.59017E+08         0.00000E+00
    0.00000E+00         0.00000E+00        -0.60826E+08
 
   -0.46295E+08        -0.21057E+06         0.00000E+00
   -0.21057E+06        -0.59495E+08         0.00000E+00
    0.00000E+00         0.00000E+00        -0.62926E+08
 
   -0.47152E+08        -0.21324E+06         0.00000E+00
   -0.21324E+06        -0.59953E+08         0.00000E+00
    0.00000E+00         0.00000E+00        -0.65370E+08
 
   -0.48234E+08        -0.11216E+06         0.00000E+00
   -0.11216E+06        -0.60295E+08         0.00000E+00
    0.00000E+00         0.00000E+00        -0.68038E+08
 
   -0.49548E+08         0.92108E+05         0.00000E+00
    0.92108E+05        -0.60367E+08         0.00000E+00
    0.00000E+00         0.00000E+00        -0.70743E+08
 
   -0.51594E+08        -0.17451E+06         0.00000E+00
   -0.17451E+06        -0.60406E+08         0.00000E+00
    0.00000E+00         0.00000E+00        -0.72654E+08
 
   -0.55153E+08        -0.20220E+06         0.00000E+00
   -0.20220E+06        -0.60739E+08         0.00000E+00
    0.00000E+00         0.00000E+00        -0.72779E+08
 
   -0.57992E+08        -0.36181E+05         0.00000E+00
   -0.36181E+05        -0.60929E+08         0.00000E+00
    0.00000E+00         0.00000E+00        -0.72812E+08
 
   -0.60671E+08         0.13872E+06         0.00000E+00
    0.13872E+06        -0.60803E+08         0.00000E+00
    0.00000E+00         0.00000E+00        -0.72840E+08
 
   -0.63450E+08         0.33386E+06         0.00000E+00
    0.33386E+06        -0.60317E+08         0.00000E+00
    0.00000E+00         0.00000E+00        -0.72864E+08
 
   -0.66573E+08         0.57950E+06         0.00000E+00
    0.57950E+06        -0.59396E+08         0.00000E+00
    0.00000E+00         0.00000E+00        -0.72883E+08
 
   -0.70576E+08         0.10596E+07         0.00000E+00
    0.10596E+07        -0.57796E+08         0.00000E+00
    0.00000E+00         0.00000E+00        -0.72894E+08
 
   -0.44832E+08         0.36145E+06         0.00000E+00
    0.36145E+06        -0.60594E+08         0.00000E+00
    0.00000E+00         0.00000E+00        -0.61385E+08
 
   -0.45156E+08         0.26279E+06         0.00000E+00
    0.26279E+06        -0.60974E+08         0.00000E+00
    0.00000E+00         0.00000E+00        -0.62696E+08
 
   -0.45414E+08         0.49359E+05         0.00000E+00
    0.49359E+05        -0.60921E+08         0.00000E+00
    0.00000E+00         0.00000E+00        -0.63759E+08
 
   -0.45751E+08        -0.16552E+06         0.00000E+00
   -0.16552E+06        -0.60584E+08         0.00000E+00
    0.00000E+00         0.00000E+00        -0.64928E+08
 
   -0.46301E+08        -0.17553E+06         0.00000E+00
   -0.17553E+06        -0.60147E+08         0.00000E+00
    0.00000E+00         0.00000E+00        -0.66427E+08
 
   -0.47099E+08        -0.11562E+06         0.00000E+00
   -0.11562E+06        -0.59680E+08         0.00000E+00
    0.00000E+00         0.00000E+00        -0.68208E+08
 
   -0.48012E+08        -0.76261E+05         0.00000E+00
   -0.76261E+05        -0.59293E+08         0.00000E+00
    0.00000E+00         0.00000E+00        -0.69956E+08
 
   -0.49535E+08        -0.12362E+06         0.00000E+00
   -0.12362E+06        -0.59352E+08         0.00000E+00
    0.00000E+00         0.00000E+00        -0.70840E+08
 
   -0.52073E+08        -0.45493E+06         0.00000E+00
   -0.45493E+06        -0.59723E+08         0.00000E+00
    0.00000E+00         0.00000E+00        -0.70860E+08
 
   -0.54921E+08        -0.39169E+06         0.00000E+00
   -0.39169E+06        -0.59813E+08         0.00000E+00
    0.00000E+00         0.00000E+00        -0.70881E+08
 
   -0.57685E+08        -0.29764E+03         0.00000E+00
   -0.29764E+03        -0.59746E+08         0.00000E+00
    0.00000E+00         0.00000E+00        -0.70902E+08
 
   -0.60323E+08         0.47821E+06         0.00000E+00
    0.47821E+06        -0.59472E+08         0.00000E+00
    0.00000E+00         0.00000E+00        -0.70921E+08
 
   -0.63034E+08         0.10343E+07         0.00000E+00
    0.10343E+07        -0.58905E+08         0.00000E+00
    0.00000E+00         0.00000E+00        -0.70936E+08
 
   -0.65996E+08         0.17498E+07         0.00000E+00
    0.17498E+07        -0.57961E+08         0.00000E+00
    0.00000E+00         0.00000E+00        -0.70947E+08
 
   -0.69259E+08         0.29073E+07         0.00000E+00
    0.29073E+07        -0.56569E+08         0.00000E+00
    0.00000E+00         0.00000E+00        -0.70953E+08
 
   -0.44677E+08        -0.58697E+05         0.00000E+00
   -0.58697E+05        -0.60563E+08         0.00000E+00
    0.00000E+00         0.00000E+00        -0.65324E+08
 
   -0.45122E+08         0.12082E+06         0.00000E+00
    0.12082E+06        -0.60574E+08         0.00000E+00
    0.00000E+00         0.00000E+00        -0.66700E+08
 
   -0.45483E+08         0.23036E+06         0.00000E+00
    0.23036E+06        -0.60367E+08         0.00000E+00
    0.00000E+00         0.00000E+00        -0.67650E+08
 
   -0.45813E+08         0.26090E+06         0.00000E+00
    0.26090E+06        -0.60009E+08         0.00000E+00
    0.00000E+00         0.00000E+00        -0.68385E+08
 
   -0.46216E+08         0.17450E+06         0.00000E+00
    0.17450E+06        -0.59661E+08         0.00000E+00
    0.00000E+00         0.00000E+00        -0.68862E+08
 
   -0.47132E+08         0.92711E+05         0.00000E+00
    0.92711E+05        -0.59503E+08         0.00000E+00
    0.00000E+00         0.00000E+00        -0.68938E+08
 
   -0.48198E+08        -0.65841E+05         0.00000E+00
   -0.65841E+05        -0.59564E+08         0.00000E+00
    0.00000E+00         0.00000E+00        -0.68943E+08
 
   -0.49852E+08        -0.38726E+06         0.00000E+00
   -0.38726E+06        -0.59671E+08         0.00000E+00
    0.00000E+00         0.00000E+00        -0.68951E+08
 
   -0.52111E+08        -0.46116E+06         0.00000E+00
   -0.46116E+06        -0.59620E+08         0.00000E+00
    0.00000E+00         0.00000E+00        -0.68961E+08
 
   -0.54610E+08        -0.23655E+06         0.00000E+00
   -0.23655E+06        -0.59414E+08         0.00000E+00
    0.00000E+00         0.00000E+00        -0.68973E+08
 
   -0.57157E+08         0.26388E+06         0.00000E+00
    0.26388E+06        -0.59092E+08         0.00000E+00
    0.00000E+00         0.00000E+00        -0.68984E+08
 
   -0.59685E+08         0.95165E+06         0.00000E+00
    0.95165E+06        -0.58637E+08         0.00000E+00
    0.00000E+00         0.00000E+00        -0.68994E+08
 
   -0.62254E+08         0.17962E+07         0.00000E+00
    0.17962E+07        -0.57974E+08         0.00000E+00
    0.00000E+00         0.00000E+00        -0.69003E+08
 
   -0.64925E+08         0.28741E+07         0.00000E+00
    0.28741E+07        -0.57044E+08         0.00000E+00
    0.00000E+00         0.00000E+00        -0.69009E+08
 
   -0.67652E+08         0.43284E+07         0.00000E+00
    0.43284E+07        -0.55869E+08         0.00000E+00
    0.00000E+00         0.00000E+00        -0.69012E+08
 
   -0.44541E+08        -0.97040E+05         0.00000E+00
   -0.97040E+05        -0.59915E+08         0.00000E+00
    0.00000E+00         0.00000E+00        -0.66354E+08
 
   -0.44999E+08         0.15395E+06         0.00000E+00
    0.15395E+06        -0.59818E+08         0.00000E+00
    0.00000E+00         0.00000E+00        -0.66697E+08
 
   -0.45345E+08         0.30944E+06         0.00000E+00
    0.30944E+06        -0.59832E+08         0.00000E+00
    0.00000E+00         0.00000E+00        -0.66979E+08
 
   -0.45874E+08         0.35797E+06         0.00000E+00
    0.35797E+06        -0.59885E+08         0.00000E+00
    0.00000E+00         0.00000E+00        -0.67038E+08
 
   -0.46423E+08         0.23859E+06         0.00000E+00
    0.23859E+06        -0.59936E+08         0.00000E+00
    0.00000E+00         0.00000E+00        -0.67036E+08
 
   -0.47254E+08         0.62130E+05         0.00000E+00
    0.62130E+05        -0.59970E+08         0.00000E+00
    0.00000E+00         0.00000E+00        -0.67037E+08
 
   -0.48422E+08        -0.11955E+06         0.00000E+00
   -0.11955E+06        -0.59971E+08         0.00000E+00
    0.00000E+00         0.00000E+00        -0.67039E+08
 
   -0.50000E+08        -0.26652E+06         0.00000E+00
   -0.26652E+06        -0.59855E+08         0.00000E+00
    0.00000E+00         0.00000E+00        -0.67042E+08
 
   -0.51976E+08        -0.21218E+06         0.00000E+00
   -0.21218E+06        -0.59593E+08         0.00000E+00
    0.00000E+00         0.00000E+00        -0.67046E+08
 
   -0.54189E+08         0.12230E+06         0.00000E+00
    0.12230E+06        -0.59219E+08         0.00000E+00
    0.00000E+00         0.00000E+00        -0.67050E+08
 
   -0.56497E+08         0.72082E+06         0.00000E+00
    0.72082E+06        -0.58749E+08         0.00000E+00
    0.00000E+00         0.00000E+00        -0.67055E+08
 
   -0.58836E+08         0.15489E+07         0.00000E+00
    0.15489E+07        -0.58171E+08         0.00000E+00
    0.00000E+00         0.00000E+00        -0.67060E+08
 
   -0.61198E+08         0.25946E+07         0.00000E+00
    0.25946E+07        -0.57452E+08         0.00000E+00
    0.00000E+00         0.00000E+00        -0.67063E+08
 
   -0.63578E+08         0.38924E+07         0.00000E+00
    0.38924E+07        -0.56567E+08         0.00000E+00
    0.00000E+00         0.00000E+00        -0.67066E+08
 
   -0.65918E+08         0.55001E+07         0.00000E+00
    0.55001E+07        -0.55541E+08         0.00000E+00
    0.00000E+00         0.00000E+00        -0.67067E+08
 
   -0.44474E+08         0.59562E+05         0.00000E+00
    0.59562E+05        -0.59956E+08         0.00000E+00
    0.00000E+00         0.00000E+00        -0.64967E+08
 
   -0.44778E+08         0.16845E+06         0.00000E+00
    0.16845E+06        -0.59912E+08         0.00000E+00
    0.00000E+00         0.00000E+00        -0.65127E+08
 
   -0.45351E+08         0.24198E+06         0.00000E+00
    0.24198E+06        -0.59944E+08         0.00000E+00
    0.00000E+00         0.00000E+00        -0.65123E+08
 
   -0.45892E+08         0.23234E+06         0.00000E+00
    0.23234E+06        -0.60040E+08         0.00000E+00
    0.00000E+00         0.00000E+00        -0.65120E+08
 
   -0.46551E+08         0.17440E+06         0.00000E+00
    0.17440E+06        -0.60132E+08         0.00000E+00
    0.00000E+00         0.00000E+00        -0.65117E+08
 
   -0.47402E+08         0.60445E+05         0.00000E+00
    0.60445E+05        -0.60156E+08         0.00000E+00
    0.00000E+00         0.00000E+00        -0.65116E+08
 
   -0.48539E+08        -0.32803E+05         0.00000E+00
   -0.32803E+05        -0.60084E+08         0.00000E+00
    0.00000E+00         0.00000E+00        -0.65115E+08
 
   -0.49989E+08        -0.29568E+05         0.00000E+00
   -0.29568E+05        -0.59892E+08         0.00000E+00
    0.00000E+00         0.00000E+00        -0.65114E+08
 
   -0.51728E+08         0.15679E+06         0.00000E+00
    0.15679E+06        -0.59565E+08         0.00000E+00
    0.00000E+00         0.00000E+00        -0.65114E+08
 
   -0.53674E+08         0.58838E+06         0.00000E+00
    0.58838E+06        -0.59124E+08         0.00000E+00
    0.00000E+00         0.00000E+00        -0.65114E+08
 
   -0.55732E+08         0.12773E+07         0.00000E+00
    0.12773E+07        -0.58590E+08         0.00000E+00
    0.00000E+00         0.00000E+00        -0.65114E+08
 
   -0.57841E+08         0.22123E+07         0.00000E+00
    0.22123E+07        -0.57964E+08         0.00000E+00
    0.00000E+00         0.00000E+00        -0.65114E+08
 
   -0.59965E+08         0.33883E+07         0.00000E+00
    0.33883E+07        -0.57238E+08         0.00000E+00
    0.00000E+00         0.00000E+00        -0.65114E+08
 
   -0.62074E+08         0.48159E+07         0.00000E+00
    0.48159E+07        -0.56408E+08         0.00000E+00
    0.00000E+00         0.00000E+00        -0.65114E+08
 
   -0.64117E+08         0.65096E+07         0.00000E+00
    0.65096E+07        -0.55496E+08         0.00000E+00
    0.00000E+00         0.00000E+00        -0.65114E+08
 
   -0.44309E+08         0.10525E+06         0.00000E+00
    0.10525E+06        -0.60018E+08         0.00000E+00
    0.00000E+00         0.00000E+00        -0.63192E+08
 
   -0.44769E+08         0.13882E+06         0.00000E+00
    0.13882E+06        -0.60027E+08         0.00000E+00
    0.00000E+00         0.00000E+00        -0.63190E+08
 
   -0.45323E+08         0.15631E+06         0.00000E+00
    0.15631E+06        -0.60086E+08         0.00000E+00
    0.00000E+00         0.00000E+00        -0.63187E+08
 
   -0.45921E+08         0.15051E+06         0.00000E+00
    0.15051E+06        -0.60158E+08         0.00000E+00
    0.00000E+00         0.00000E+00        -0.63183E+08
 
   -0.46612E+08         0.12132E+06         0.00000E+00
    0.12132E+06        -0.60208E+08         0.00000E+00
    0.00000E+00         0.00000E+00        -0.63180E+08
 
   -0.47465E+08         0.93711E+05         0.00000E+00
    0.93711E+05        -0.60202E+08         0.00000E+00
    0.00000E+00         0.00000E+00        -0.63176E+08
 
   -0.48533E+08         0.11317E+06         0.00000E+00
    0.11317E+06        -0.60100E+08         0.00000E+00
    0.00000E+00         0.00000E+00        -0.63173E+08
 
   -0.49840E+08         0.24611E+06         0.00000E+00
    0.24611E+06        -0.59880E+08         0.00000E+00
    0.00000E+00         0.00000E+00        -0.63169E+08
 
   -0.51368E+08         0.55556E+06         0.00000E+00
    0.55556E+06        -0.59541E+08         0.00000E+00
    0.00000E+00         0.00000E+00        -0.63166E+08
 
   -0.53067E+08         0.10873E+07         0.00000E+00
    0.10873E+07        -0.59094E+08         0.00000E+00
    0.00000E+00         0.00000E+00        -0.63163E+08
 
   -0.54876E+08         0.18622E+07         0.00000E+00
    0.18622E+07        -0.58556E+08         0.00000E+00
    0.00000E+00         0.00000E+00        -0.63159E+08
 
   -0.56742E+08         0.28827E+07         0.00000E+00
    0.28827E+07        -0.57938E+08         0.00000E+00
    0.00000E+00         0.00000E+00        -0.63157E+08
 
   -0.58622E+08         0.41468E+07         0.00000E+00
    0.41468E+07        -0.57243E+08         0.00000E+00
    0.00000E+00         0.00000E+00        -0.63154E+08
 
   -0.60481E+08         0.56535E+07         0.00000E+00
    0.56535E+07        -0.56479E+08         0.00000E+00
    0.00000E+00         0.00000E+00        -0.63152E+08
 
   -0.62275E+08         0.73984E+07         0.00000E+00
    0.73984E+07        -0.55662E+08         0.00000E+00
    0.00000E+00         0.00000E+00        -0.63151E+08
 
   -0.44196E+08         0.58283E+05         0.00000E+00
    0.58283E+05        -0.60025E+08         0.00000E+00
    0.00000E+00         0.00000E+00        -0.61238E+08
 
   -0.44760E+08         0.96298E+05         0.00000E+00
    0.96298E+05        -0.60082E+08         0.00000E+00
    0.00000E+00         0.00000E+00        -0.61236E+08
 
   -0.45321E+08         0.91641E+05         0.00000E+00
    0.91641E+05        -0.60141E+08         0.00000E+00
    0.00000E+00         0.00000E+00        -0.61233E+08
 
   -0.45928E+08         0.90760E+05         0.00000E+00
    0.90760E+05        -0.60198E+08         0.00000E+00
    0.00000E+00         0.00000E+00        -0.61229E+08
 
   -0.46616E+08         0.10311E+06         0.00000E+00
    0.10311E+06        -0.60228E+08         0.00000E+00
    0.00000E+00         0.00000E+00        -0.61225E+08
 
   -0.47430E+08         0.15216E+06         0.00000E+00
    0.15216E+06        -0.60199E+08         0.00000E+00
    0.00000E+00         0.00000E+00        -0.61220E+08
 
   -0.48409E+08         0.27670E+06         0.00000E+00
    0.27670E+06        -0.60084E+08         0.00000E+00
    0.00000E+00         0.00000E+00        -0.61214E+08
 
   -0.49569E+08         0.52486E+06         0.00000E+00
    0.52486E+06        -0.59866E+08         0.00000E+00
    0.00000E+00         0.00000E+00        -0.61208E+08
 
   -0.50900E+08         0.94431E+06         0.00000E+00
    0.94431E+06        -0.59543E+08         0.00000E+00
    0.00000E+00         0.00000E+00        -0.61202E+08
 
   -0.52371E+08         0.15715E+07         0.00000E+00
    0.15715E+07        -0.59122E+08         0.00000E+00
    0.00000E+00         0.00000E+00        -0.61197E+08
 
   -0.53940E+08         0.24275E+07         0.00000E+00
    0.24275E+07        -0.58617E+08         0.00000E+00
    0.00000E+00         0.00000E+00        -0.61191E+08
 
   -0.55565E+08         0.35199E+07         0.00000E+00
    0.35199E+07        -0.58040E+08         0.00000E+00
    0.00000E+00         0.00000E+00        -0.61186E+08
 
   -0.57207E+08         0.48484E+07         0.00000E+00
    0.48484E+07        -0.57401E+08         0.00000E+00
    0.00000E+00         0.00000E+00        -0.61182E+08
 
   -0.58832E+08         0.64076E+07         0.00000E+00
    0.64076E+07        -0.56711E+08         0.00000E+00
    0.00000E+00         0.00000E+00        -0.61179E+08
 
   -0.60406E+08         0.81862E+07         0.00000E+00
    0.81862E+07        -0.55984E+08         0.00000E+00
    0.00000E+00         0.00000E+00        -0.61177E+08
 
   -0.44141E+08         0.14280E+05         0.00000E+00
    0.14280E+05        -0.60020E+08         0.00000E+00
    0.00000E+00         0.00000E+00        -0.59268E+08
 
   -0.44753E+08         0.26775E+05         0.00000E+00
    0.26775E+05        -0.60074E+08         0.00000E+00
    0.00000E+00         0.00000E+00        -0.59266E+08
 
   -0.45321E+08         0.28189E+05         0.00000E+00
    0.28189E+05        -0.60142E+08         0.00000E+00
    0.00000E+00         0.00000E+00        -0.59263E+08
 
   -0.45910E+08         0.45162E+05         0.00000E+00
    0.45162E+05        -0.60196E+08         0.00000E+00
    0.00000E+00         0.00000E+00        -0.59259E+08
 
   -0.46560E+08         0.10155E+06         0.00000E+00
    0.10155E+06        -0.60217E+08         0.00000E+00
    0.00000E+00         0.00000E+00        -0.59253E+08
 
   -0.47307E+08         0.22141E+06         0.00000E+00
    0.22141E+06        -0.60182E+08         0.00000E+00
    0.00000E+00         0.00000E+00        -0.59246E+08
 
   -0.48180E+08         0.43674E+06         0.00000E+00
    0.43674E+06        -0.60071E+08         0.00000E+00
    0.00000E+00         0.00000E+00        -0.59239E+08
 
   -0.49190E+08         0.78457E+06         0.00000E+00
    0.78457E+06        -0.59872E+08         0.00000E+00
    0.00000E+00         0.00000E+00        -0.59231E+08
 
   -0.50334E+08         0.13009E+07         0.00000E+00
    0.13009E+07        -0.59582E+08         0.00000E+00
    0.00000E+00         0.00000E+00        -0.59223E+08
 
   -0.51591E+08         0.20148E+07         0.00000E+00
    0.20148E+07        -0.59206E+08         0.00000E+00
    0.00000E+00         0.00000E+00        -0.59216E+08
 
   -0.52933E+08         0.29450E+07         0.00000E+00
    0.29450E+07        -0.58754E+08         0.00000E+00
    0.00000E+00         0.00000E+00        -0.59208E+08
 
   -0.54326E+08         0.40998E+07         0.00000E+00
    0.40998E+07        -0.58238E+08         0.00000E+00
    0.00000E+00         0.00000E+00        -0.59202E+08
 
   -0.55740E+08         0.54795E+07         0.00000E+00
    0.54795E+07        -0.57668E+08         0.00000E+00
    0.00000E+00         0.00000E+00        -0.59196E+08
 
   -0.57144E+08         0.70778E+07         0.00000E+00
    0.70778E+07        -0.57058E+08         0.00000E+00
    0.00000E+00         0.00000E+00        -0.59192E+08
 
   -0.58515E+08         0.88820E+07         0.00000E+00
    0.88820E+07        -0.56418E+08         0.00000E+00
    0.00000E+00         0.00000E+00        -0.59190E+08
 
   -0.44146E+08        -0.19474E+05         0.00000E+00
   -0.19474E+05        -0.60016E+08         0.00000E+00
    0.00000E+00         0.00000E+00        -0.57282E+08
 
   -0.44756E+08        -0.40122E+05         0.00000E+00
   -0.40122E+05        -0.60062E+08         0.00000E+00
    0.00000E+00         0.00000E+00        -0.57280E+08
 
   -0.45308E+08        -0.37227E+05         0.00000E+00
   -0.37227E+05        -0.60125E+08         0.00000E+00
    0.00000E+00         0.00000E+00        -0.57276E+08
 
   -0.45859E+08         0.33599E+04         0.00000E+00
    0.33599E+04        -0.60178E+08         0.00000E+00
    0.00000E+00         0.00000E+00        -0.57271E+08
 
   -0.46449E+08         0.10296E+06         0.00000E+00
    0.10296E+06        -0.60200E+08         0.00000E+00
    0.00000E+00         0.00000E+00        -0.57264E+08
 
   -0.47109E+08         0.28576E+06         0.00000E+00
    0.28576E+06        -0.60172E+08         0.00000E+00
    0.00000E+00         0.00000E+00        -0.57256E+08
 
   -0.47862E+08         0.57894E+06         0.00000E+00
    0.57894E+06        -0.60079E+08         0.00000E+00
    0.00000E+00         0.00000E+00        -0.57247E+08
 
   -0.48720E+08         0.10118E+07         0.00000E+00
    0.10118E+07        -0.59910E+08         0.00000E+00
    0.00000E+00         0.00000E+00        -0.57238E+08
 
   -0.49681E+08         0.16121E+07         0.00000E+00
    0.16121E+07        -0.59664E+08         0.00000E+00
    0.00000E+00         0.00000E+00        -0.57229E+08
 
   -0.50735E+08         0.24028E+07         0.00000E+00
    0.24028E+07        -0.59343E+08         0.00000E+00
    0.00000E+00         0.00000E+00        -0.57219E+08
 
   -0.51860E+08         0.33993E+07         0.00000E+00
    0.33993E+07        -0.58954E+08         0.00000E+00
    0.00000E+00         0.00000E+00        -0.57210E+08
 
   -0.53033E+08         0.46092E+07         0.00000E+00
    0.46092E+07        -0.58509E+08         0.00000E+00
    0.00000E+00         0.00000E+00        -0.57203E+08
 
   -0.54230E+08         0.60327E+07         0.00000E+00
    0.60327E+07        -0.58016E+08         0.00000E+00
    0.00000E+00         0.00000E+00        -0.57196E+08
 
   -0.55428E+08         0.76636E+07         0.00000E+00
    0.76636E+07        -0.57488E+08         0.00000E+00
    0.00000E+00         0.00000E+00        -0.57191E+08
 
   -0.56606E+08         0.94901E+07         0.00000E+00
    0.94901E+07        -0.56934E+08         0.00000E+00
    0.00000E+00         0.00000E+00        -0.57189E+08
 
   -0.44202E+08        -0.45978E+05         0.00000E+00
   -0.45978E+05        -0.60013E+08         0.00000E+00
    0.00000E+00         0.00000E+00        -0.55280E+08
 
   -0.44774E+08        -0.98532E+05         0.00000E+00
   -0.98532E+05        -0.60052E+08         0.00000E+00
    0.00000E+00         0.00000E+00        -0.55278E+08
 
   -0.45285E+08        -0.99759E+05         0.00000E+00
   -0.99759E+05        -0.60110E+08         0.00000E+00
    0.00000E+00         0.00000E+00        -0.55273E+08
 
   -0.45777E+08        -0.40241E+05         0.00000E+00
   -0.40241E+05        -0.60164E+08         0.00000E+00
    0.00000E+00         0.00000E+00        -0.55267E+08
 
   -0.46287E+08         0.97298E+05         0.00000E+00
    0.97298E+05        -0.60193E+08         0.00000E+00
    0.00000E+00         0.00000E+00        -0.55259E+08
 
   -0.46844E+08         0.33399E+06         0.00000E+00
    0.33399E+06        -0.60180E+08         0.00000E+00
    0.00000E+00         0.00000E+00        -0.55250E+08
 
   -0.47468E+08         0.69294E+06         0.00000E+00
    0.69294E+06        -0.60113E+08         0.00000E+00
    0.00000E+00         0.00000E+00        -0.55239E+08
 
   -0.48170E+08         0.11976E+07         0.00000E+00
    0.11976E+07        -0.59983E+08         0.00000E+00
    0.00000E+00         0.00000E+00        -0.55229E+08
 
   -0.48953E+08         0.18699E+07         0.00000E+00
    0.18699E+07        -0.59787E+08         0.00000E+00
    0.00000E+00         0.00000E+00        -0.55218E+08
 
   -0.49811E+08         0.27277E+07         0.00000E+00
    0.27277E+07        -0.59526E+08         0.00000E+00
    0.00000E+00         0.00000E+00        -0.55207E+08
 
   -0.50730E+08         0.37831E+07         0.00000E+00
    0.37831E+07        -0.59207E+08         0.00000E+00
    0.00000E+00         0.00000E+00        -0.55197E+08
 
   -0.51694E+08         0.50422E+07         0.00000E+00
    0.50422E+07        -0.58836E+08         0.00000E+00
    0.00000E+00         0.00000E+00        -0.55188E+08
 
   -0.52685E+08         0.65047E+07         0.00000E+00
    0.65047E+07        -0.58424E+08         0.00000E+00
    0.00000E+00         0.00000E+00        -0.55181E+08
 
   -0.53685E+08         0.81651E+07         0.00000E+00
    0.81651E+07        -0.57978E+08         0.00000E+00
    0.00000E+00         0.00000E+00        -0.55176E+08
 
   -0.54678E+08         0.10013E+08         0.00000E+00
    0.10013E+08        -0.57508E+08         0.00000E+00
    0.00000E+00         0.00000E+00        -0.55173E+08
 
   -0.44300E+08        -0.68118E+05         0.00000E+00
   -0.68118E+05        -0.60011E+08         0.00000E+00
    0.00000E+00         0.00000E+00        -0.53261E+08
 
   -0.44811E+08        -0.15090E+06         0.00000E+00
   -0.15090E+06        -0.60047E+08         0.00000E+00
    0.00000E+00         0.00000E+00        -0.53259E+08
 
   -0.45257E+08        -0.16091E+06         0.00000E+00
   -0.16091E+06        -0.60104E+08         0.00000E+00
    0.00000E+00         0.00000E+00        -0.53253E+08
 
   -0.45671E+08        -0.89522E+05         0.00000E+00
   -0.89522E+05        -0.60162E+08         0.00000E+00
    0.00000E+00         0.00000E+00        -0.53246E+08
 
   -0.46084E+08         0.77680E+05         0.00000E+00
    0.77680E+05        -0.60203E+08         0.00000E+00
    0.00000E+00         0.00000E+00        -0.53237E+08
 
   -0.46524E+08         0.35842E+06         0.00000E+00
    0.35842E+06        -0.60212E+08         0.00000E+00
    0.00000E+00         0.00000E+00        -0.53227E+08
 
   -0.47010E+08         0.77179E+06         0.00000E+00
    0.77179E+06        -0.60177E+08         0.00000E+00
    0.00000E+00         0.00000E+00        -0.53215E+08
 
   -0.47554E+08         0.13367E+07         0.00000E+00
    0.13367E+07        -0.60090E+08         0.00000E+00
    0.00000E+00         0.00000E+00        -0.53203E+08
 
   -0.48160E+08         0.20701E+07         0.00000E+00
    0.20701E+07        -0.59948E+08         0.00000E+00
    0.00000E+00         0.00000E+00        -0.53191E+08
 
   -0.48828E+08         0.29859E+07         0.00000E+00
    0.29859E+07        -0.59750E+08         0.00000E+00
    0.00000E+00         0.00000E+00        -0.53179E+08
 
   -0.49549E+08         0.40933E+07         0.00000E+00
    0.40933E+07        -0.59502E+08         0.00000E+00
    0.00000E+00         0.00000E+00        -0.53168E+08
 
   -0.50313E+08         0.53966E+07         0.00000E+00
    0.53966E+07        -0.59207E+08         0.00000E+00
    0.00000E+00         0.00000E+00        -0.53158E+08
 
   -0.51107E+08         0.68951E+07         0.00000E+00
    0.68951E+07        -0.58875E+08         0.00000E+00
    0.00000E+00         0.00000E+00        -0.53150E+08
 
   -0.51917E+08         0.85832E+07         0.00000E+00
    0.85832E+07        -0.58512E+08         0.00000E+00
    0.00000E+00         0.00000E+00        -0.53145E+08
 
   -0.52733E+08         0.10452E+08         0.00000E+00
    0.10452E+08        -0.58124E+08         0.00000E+00
    0.00000E+00         0.00000E+00        -0.53142E+08
 
   -0.44438E+08        -0.88460E+05         0.00000E+00
   -0.88460E+05        -0.60011E+08         0.00000E+00
    0.00000E+00         0.00000E+00        -0.51226E+08
 
   -0.44869E+08        -0.20170E+06         0.00000E+00
   -0.20170E+06        -0.60047E+08         0.00000E+00
    0.00000E+00         0.00000E+00        -0.51223E+08
 
   -0.45230E+08        -0.22508E+06         0.00000E+00
   -0.22508E+06        -0.60107E+08         0.00000E+00
    0.00000E+00         0.00000E+00        -0.51217E+08
 
   -0.45547E+08        -0.14915E+06         0.00000E+00
   -0.14915E+06        -0.60174E+08         0.00000E+00
    0.00000E+00         0.00000E+00        -0.51209E+08
 
   -0.45849E+08         0.38846E+05         0.00000E+00
    0.38846E+05        -0.60232E+08         0.00000E+00
    0.00000E+00         0.00000E+00        -0.51198E+08
 
   -0.46160E+08         0.35372E+06         0.00000E+00
    0.35372E+06        -0.60267E+08         0.00000E+00
    0.00000E+00         0.00000E+00        -0.51187E+08
 
   -0.46499E+08         0.81098E+06         0.00000E+00
    0.81098E+06        -0.60269E+08         0.00000E+00
    0.00000E+00         0.00000E+00        -0.51174E+08
 
   -0.46881E+08         0.14255E+07         0.00000E+00
    0.14255E+07        -0.60228E+08         0.00000E+00
    0.00000E+00         0.00000E+00        -0.51161E+08
 
   -0.47312E+08         0.22105E+07         0.00000E+00
    0.22105E+07        -0.60141E+08         0.00000E+00
    0.00000E+00         0.00000E+00        -0.51147E+08
 
   -0.47793E+08         0.31763E+07         0.00000E+00
    0.31763E+07        -0.60008E+08         0.00000E+00
    0.00000E+00         0.00000E+00        -0.51134E+08
 
   -0.48323E+08         0.43295E+07         0.00000E+00
    0.43295E+07        -0.59830E+08         0.00000E+00
    0.00000E+00         0.00000E+00        -0.51122E+08
 
   -0.48893E+08         0.56728E+07         0.00000E+00
    0.56728E+07        -0.59611E+08         0.00000E+00
    0.00000E+00         0.00000E+00        -0.51112E+08
 
   -0.49497E+08         0.72046E+07         0.00000E+00
    0.72046E+07        -0.59358E+08         0.00000E+00
    0.00000E+00         0.00000E+00        -0.51103E+08
 
   -0.50125E+08         0.89196E+07         0.00000E+00
    0.89196E+07        -0.59075E+08         0.00000E+00
    0.00000E+00         0.00000E+00        -0.51097E+08
 
   -0.50769E+08         0.10810E+08         0.00000E+00
    0.10810E+08        -0.58768E+08         0.00000E+00
    0.00000E+00         0.00000E+00        -0.51094E+08
 
   -0.44613E+08        -0.10921E+06         0.00000E+00
   -0.10921E+06        -0.60012E+08         0.00000E+00
    0.00000E+00         0.00000E+00        -0.49173E+08
 
   -0.44952E+08        -0.25546E+06         0.00000E+00
   -0.25546E+06        -0.60051E+08         0.00000E+00
    0.00000E+00         0.00000E+00        -0.49170E+08
 
   -0.45210E+08        -0.29728E+06         0.00000E+00
   -0.29728E+06        -0.60118E+08         0.00000E+00
    0.00000E+00         0.00000E+00        -0.49163E+08
 
   -0.45414E+08        -0.22394E+06         0.00000E+00
   -0.22394E+06        -0.60199E+08         0.00000E+00
    0.00000E+00         0.00000E+00        -0.49154E+08
 
   -0.45590E+08        -0.23621E+05         0.00000E+00
   -0.23621E+05        -0.60279E+08         0.00000E+00
    0.00000E+00         0.00000E+00        -0.49143E+08
 
   -0.45761E+08         0.31614E+06         0.00000E+00
    0.31614E+06        -0.60344E+08         0.00000E+00
    0.00000E+00         0.00000E+00        -0.49130E+08
 
   -0.45946E+08         0.80772E+06         0.00000E+00
    0.80772E+06        -0.60384E+08         0.00000E+00
    0.00000E+00         0.00000E+00        -0.49116E+08
 
   -0.46161E+08         0.14626E+07         0.00000E+00
    0.14626E+07        -0.60391E+08         0.00000E+00
    0.00000E+00         0.00000E+00        -0.49101E+08
 
   -0.46416E+08         0.22907E+07         0.00000E+00
    0.22907E+07        -0.60361E+08         0.00000E+00
    0.00000E+00         0.00000E+00        -0.49087E+08
 
   -0.46713E+08         0.32993E+07         0.00000E+00
    0.32993E+07        -0.60291E+08         0.00000E+00
    0.00000E+00         0.00000E+00        -0.49073E+08
 
   -0.47055E+08         0.44928E+07         0.00000E+00
    0.44928E+07        -0.60182E+08         0.00000E+00
    0.00000E+00         0.00000E+00        -0.49060E+08
 
   -0.47439E+08         0.58722E+07         0.00000E+00
    0.58722E+07        -0.60037E+08         0.00000E+00
    0.00000E+00         0.00000E+00        -0.49049E+08
 
   -0.47859E+08         0.74351E+07         0.00000E+00
    0.74351E+07        -0.59861E+08         0.00000E+00
    0.00000E+00         0.00000E+00        -0.49040E+08
 
   -0.48310E+08         0.91762E+07         0.00000E+00
    0.91762E+07        -0.59656E+08         0.00000E+00
    0.00000E+00         0.00000E+00        -0.49033E+08
 
   -0.48785E+08         0.11087E+08         0.00000E+00
    0.11087E+08        -0.59428E+08         0.00000E+00
    0.00000E+00         0.00000E+00        -0.49030E+08
 
   -0.44829E+08        -0.13215E+06         0.00000E+00
   -0.13215E+06        -0.60013E+08         0.00000E+00
    0.00000E+00         0.00000E+00        -0.47103E+08
 
   -0.45063E+08        -0.31611E+06         0.00000E+00
   -0.31611E+06        -0.60058E+08         0.00000E+00
    0.00000E+00         0.00000E+00        -0.47099E+08
 
   -0.45204E+08        -0.38208E+06         0.00000E+00
   -0.38208E+06        -0.60137E+08         0.00000E+00
    0.00000E+00         0.00000E+00        -0.47092E+08
 
   -0.45280E+08        -0.31816E+06         0.00000E+00
   -0.31816E+06        -0.60236E+08         0.00000E+00
    0.00000E+00         0.00000E+00        -0.47082E+08
 
   -0.45316E+08        -0.11325E+06         0.00000E+00
   -0.11325E+06        -0.60341E+08         0.00000E+00
    0.00000E+00         0.00000E+00        -0.47070E+08
 
   -0.45336E+08         0.24310E+06         0.00000E+00
    0.24310E+06        -0.60438E+08         0.00000E+00
    0.00000E+00         0.00000E+00        -0.47056E+08
 
   -0.45360E+08         0.76058E+06         0.00000E+00
    0.76058E+06        -0.60519E+08         0.00000E+00
    0.00000E+00         0.00000E+00        -0.47040E+08
 
   -0.45404E+08         0.14477E+07         0.00000E+00
    0.14477E+07        -0.60574E+08         0.00000E+00
    0.00000E+00         0.00000E+00        -0.47025E+08
 
   -0.45480E+08         0.23113E+07         0.00000E+00
    0.23113E+07        -0.60598E+08         0.00000E+00
    0.00000E+00         0.00000E+00        -0.47009E+08
 
   -0.45595E+08         0.33563E+07         0.00000E+00
    0.33563E+07        -0.60590E+08         0.00000E+00
    0.00000E+00         0.00000E+00        -0.46994E+08
 
   -0.45752E+08         0.45850E+07         0.00000E+00
    0.45850E+07        -0.60549E+08         0.00000E+00
    0.00000E+00         0.00000E+00        -0.46980E+08
 
   -0.45952E+08         0.59969E+07         0.00000E+00
    0.59969E+07        -0.60476E+08         0.00000E+00
    0.00000E+00         0.00000E+00        -0.46968E+08
 
   -0.46192E+08         0.75889E+07         0.00000E+00
    0.75889E+07        -0.60374E+08         0.00000E+00
    0.00000E+00         0.00000E+00        -0.46959E+08
 
   -0.46471E+08         0.93550E+07         0.00000E+00
    0.93550E+07        -0.60245E+08         0.00000E+00
    0.00000E+00         0.00000E+00        -0.46952E+08
 
   -0.46783E+08         0.11287E+08         0.00000E+00
    0.11287E+08        -0.60094E+08         0.00000E+00
    0.00000E+00         0.00000E+00        -0.46948E+08
 
   -0.45093E+08        -0.15868E+06         0.00000E+00
   -0.15868E+06        -0.60015E+08         0.00000E+00
    0.00000E+00         0.00000E+00        -0.45016E+08
 
   -0.45208E+08        -0.38678E+06         0.00000E+00
   -0.38678E+06        -0.60068E+08         0.00000E+00
    0.00000E+00         0.00000E+00        -0.45011E+08
 
   -0.45218E+08        -0.48311E+06         0.00000E+00
   -0.48311E+06        -0.60161E+08         0.00000E+00
    0.00000E+00         0.00000E+00        -0.45003E+08
 
   -0.45151E+08        -0.43509E+06         0.00000E+00
   -0.43509E+06        -0.60281E+08         0.00000E+00
    0.00000E+00         0.00000E+00        -0.44992E+08
 
   -0.45035E+08        -0.23248E+06         0.00000E+00
   -0.23248E+06        -0.60413E+08         0.00000E+00
    0.00000E+00         0.00000E+00        -0.44979E+08
 
   -0.44893E+08         0.13327E+06         0.00000E+00
    0.13327E+06        -0.60544E+08         0.00000E+00
    0.00000E+00         0.00000E+00        -0.44964E+08
 
   -0.44747E+08         0.66930E+06         0.00000E+00
    0.66930E+06        -0.60665E+08         0.00000E+00
    0.00000E+00         0.00000E+00        -0.44947E+08
 
   -0.44616E+08         0.13814E+07         0.00000E+00
    0.13814E+07        -0.60767E+08         0.00000E+00
    0.00000E+00         0.00000E+00        -0.44930E+08
 
   -0.44511E+08         0.22739E+07         0.00000E+00
    0.22739E+07        -0.60845E+08         0.00000E+00
    0.00000E+00         0.00000E+00        -0.44914E+08
 
   -0.44443E+08         0.33495E+07         0.00000E+00
    0.33495E+07        -0.60897E+08         0.00000E+00
    0.00000E+00         0.00000E+00        -0.44898E+08
 
   -0.44416E+08         0.46085E+07         0.00000E+00
    0.46085E+07        -0.60921E+08         0.00000E+00
    0.00000E+00         0.00000E+00        -0.44883E+08
 
   -0.44435E+08         0.60495E+07         0.00000E+00
    0.60495E+07        -0.60917E+08         0.00000E+00
    0.00000E+00         0.00000E+00        -0.44870E+08
 
   -0.44500E+08         0.76681E+07         0.00000E+00
    0.76681E+07        -0.60887E+08         0.00000E+00
    0.00000E+00         0.00000E+00        -0.44860E+08
 
   -0.44609E+08         0.94582E+07         0.00000E+00
    0.94582E+07        -0.60832E+08         0.00000E+00
    0.00000E+00         0.00000E+00        -0.44853E+08
 
   -0.44762E+08         0.11412E+08         0.00000E+00
    0.11412E+08        -0.60756E+08         0.00000E+00
    0.00000E+00         0.00000E+00        -0.44849E+08
 
   -0.45410E+08        -0.18979E+06         0.00000E+00
   -0.18979E+06        -0.60018E+08         0.00000E+00
    0.00000E+00         0.00000E+00        -0.42910E+08
 
   -0.45394E+08        -0.46967E+06         0.00000E+00
   -0.46967E+06        -0.60079E+08         0.00000E+00
    0.00000E+00         0.00000E+00        -0.42905E+08
 
   -0.45258E+08        -0.60284E+06         0.00000E+00
   -0.60284E+06        -0.60189E+08         0.00000E+00
    0.00000E+00         0.00000E+00        -0.42897E+08
 
   -0.45035E+08        -0.57673E+06         0.00000E+00
   -0.57673E+06        -0.60331E+08         0.00000E+00
    0.00000E+00         0.00000E+00        -0.42885E+08
 
   -0.44753E+08        -0.38239E+06         0.00000E+00
   -0.38239E+06        -0.60491E+08         0.00000E+00
    0.00000E+00         0.00000E+00        -0.42870E+08
 
   -0.44439E+08        -0.13369E+05         0.00000E+00
   -0.13369E+05        -0.60655E+08         0.00000E+00
    0.00000E+00         0.00000E+00        -0.42854E+08
 
   -0.44116E+08         0.53492E+06         0.00000E+00
    0.53492E+06        -0.60815E+08         0.00000E+00
    0.00000E+00         0.00000E+00        -0.42836E+08
 
   -0.43803E+08         0.12657E+07         0.00000E+00
    0.12657E+07        -0.60962E+08         0.00000E+00
    0.00000E+00         0.00000E+00        -0.42818E+08
 
   -0.43515E+08         0.21810E+07         0.00000E+00
    0.21810E+07        -0.61092E+08         0.00000E+00
    0.00000E+00         0.00000E+00        -0.42800E+08
 
   -0.43262E+08         0.32814E+07         0.00000E+00
    0.32814E+07        -0.61200E+08         0.00000E+00
    0.00000E+00         0.00000E+00        -0.42783E+08
 
   -0.43053E+08         0.45662E+07         0.00000E+00
    0.45662E+07        -0.61286E+08         0.00000E+00
    0.00000E+00         0.00000E+00        -0.42768E+08
 
   -0.42892E+08         0.60324E+07         0.00000E+00
    0.60324E+07        -0.61349E+08         0.00000E+00
    0.00000E+00         0.00000E+00        -0.42754E+08
 
   -0.42783E+08         0.76752E+07         0.00000E+00
    0.76752E+07        -0.61388E+08         0.00000E+00
    0.00000E+00         0.00000E+00        -0.42743E+08
 
   -0.42726E+08         0.94878E+07         0.00000E+00
    0.94878E+07        -0.61406E+08         0.00000E+00
    0.00000E+00         0.00000E+00        -0.42736E+08
 
   -0.42721E+08         0.11462E+08         0.00000E+00
    0.11462E+08        -0.61402E+08         0.00000E+00
    0.00000E+00         0.00000E+00        -0.42732E+08
 
   -0.45792E+08        -0.22613E+06         0.00000E+00
   -0.22613E+06        -0.60020E+08         0.00000E+00
    0.00000E+00         0.00000E+00        -0.40786E+08
 
   -0.45628E+08        -0.56612E+06         0.00000E+00
   -0.56612E+06        -0.60092E+08         0.00000E+00
    0.00000E+00         0.00000E+00        -0.40781E+08
 
   -0.45331E+08        -0.74250E+06         0.00000E+00
   -0.74250E+06        -0.60218E+08         0.00000E+00
    0.00000E+00         0.00000E+00        -0.40772E+08
 
   -0.44935E+08        -0.74364E+06         0.00000E+00
   -0.74364E+06        -0.60383E+08         0.00000E+00
    0.00000E+00         0.00000E+00        -0.40759E+08
 
   -0.44475E+08        -0.56249E+06         0.00000E+00
   -0.56249E+06        -0.60569E+08         0.00000E+00
    0.00000E+00         0.00000E+00        -0.40743E+08
 
   -0.43979E+08        -0.19521E+06         0.00000E+00
   -0.19521E+06        -0.60766E+08         0.00000E+00
    0.00000E+00         0.00000E+00        -0.40725E+08
 
   -0.43472E+08         0.36000E+06         0.00000E+00
    0.36000E+06        -0.60962E+08         0.00000E+00
    0.00000E+00         0.00000E+00        -0.40706E+08
 
   -0.42973E+08         0.11037E+07         0.00000E+00
    0.11037E+07        -0.61150E+08         0.00000E+00
    0.00000E+00         0.00000E+00        -0.40687E+08
 
   -0.42498E+08         0.20359E+07         0.00000E+00
    0.20359E+07        -0.61327E+08         0.00000E+00
    0.00000E+00         0.00000E+00        -0.40668E+08
 
   -0.42060E+08         0.31555E+07         0.00000E+00
    0.31555E+07        -0.61488E+08         0.00000E+00
    0.00000E+00         0.00000E+00        -0.40650E+08
 
   -0.41667E+08         0.44608E+07         0.00000E+00
    0.44608E+07        -0.61633E+08         0.00000E+00
    0.00000E+00         0.00000E+00        -0.40634E+08
 
   -0.41326E+08         0.59482E+07         0.00000E+00
    0.59482E+07        -0.61759E+08         0.00000E+00
    0.00000E+00         0.00000E+00        -0.40620E+08
 
   -0.41044E+08         0.76122E+07         0.00000E+00
    0.76122E+07        -0.61866E+08         0.00000E+00
    0.00000E+00         0.00000E+00        -0.40608E+08
 
   -0.40821E+08         0.94454E+07         0.00000E+00
    0.94454E+07        -0.61954E+08         0.00000E+00
    0.00000E+00         0.00000E+00        -0.40601E+08
 
   -0.40660E+08         0.11439E+08         0.00000E+00
    0.11439E+08        -0.62022E+08         0.00000E+00
    0.00000E+00         0.00000E+00        -0.40597E+08
 
   -0.46247E+08        -0.26803E+06         0.00000E+00
   -0.26803E+06        -0.60023E+08         0.00000E+00
    0.00000E+00         0.00000E+00        -0.38643E+08
 
   -0.45918E+08        -0.67658E+06         0.00000E+00
   -0.67658E+06        -0.60104E+08         0.00000E+00
    0.00000E+00         0.00000E+00        -0.38638E+08
 
   -0.45441E+08        -0.90202E+06         0.00000E+00
   -0.90202E+06        -0.60247E+08         0.00000E+00
    0.00000E+00         0.00000E+00        -0.38628E+08
 
   -0.44858E+08        -0.93470E+06         0.00000E+00
   -0.93470E+06        -0.60433E+08         0.00000E+00
    0.00000E+00         0.00000E+00        -0.38614E+08
 
   -0.44207E+08        -0.77044E+06         0.00000E+00
   -0.77044E+06        -0.60644E+08         0.00000E+00
    0.00000E+00         0.00000E+00        -0.38597E+08
 
   -0.43518E+08        -0.40874E+06         0.00000E+00
   -0.40874E+06        -0.60868E+08         0.00000E+00
    0.00000E+00         0.00000E+00        -0.38578E+08
 
   -0.42819E+08         0.14895E+06         0.00000E+00
    0.14895E+06        -0.61095E+08         0.00000E+00
    0.00000E+00         0.00000E+00        -0.38558E+08
 
   -0.42130E+08         0.90039E+06         0.00000E+00
    0.90039E+06        -0.61319E+08         0.00000E+00
    0.00000E+00         0.00000E+00        -0.38537E+08
 
   -0.41466E+08         0.18434E+07         0.00000E+00
    0.18434E+07        -0.61537E+08         0.00000E+00
    0.00000E+00         0.00000E+00        -0.38517E+08
 
   -0.40840E+08         0.29758E+07         0.00000E+00
    0.29758E+07        -0.61747E+08         0.00000E+00
    0.00000E+00         0.00000E+00        -0.38498E+08
 
   -0.40262E+08         0.42955E+07         0.00000E+00
    0.42955E+07        -0.61946E+08         0.00000E+00
    0.00000E+00         0.00000E+00        -0.38481E+08
 
   -0.39741E+08         0.57992E+07         0.00000E+00
    0.57992E+07        -0.62133E+08         0.00000E+00
    0.00000E+00         0.00000E+00        -0.38467E+08
 
   -0.39285E+08         0.74808E+07         0.00000E+00
    0.74808E+07        -0.62307E+08         0.00000E+00
    0.00000E+00         0.00000E+00        -0.38455E+08
 
   -0.38898E+08         0.93322E+07         0.00000E+00
    0.93322E+07        -0.62463E+08         0.00000E+00
    0.00000E+00         0.00000E+00        -0.38447E+08
 
   -0.38581E+08         0.11344E+08         0.00000E+00
    0.11344E+08        -0.62603E+08         0.00000E+00
    0.00000E+00         0.00000E+00        -0.38442E+08
 
   -0.46785E+08        -0.31552E+06         0.00000E+00
   -0.31552E+06        -0.60026E+08         0.00000E+00
    0.00000E+00         0.00000E+00        -0.36481E+08
 
   -0.46269E+08        -0.80064E+06         0.00000E+00
   -0.80064E+06        -0.60116E+08         0.00000E+00
    0.00000E+00         0.00000E+00        -0.36475E+08
 
   -0.45593E+08        -0.10799E+07         0.00000E+00
   -0.10799E+07        -0.60275E+08         0.00000E+00
    0.00000E+00         0.00000E+00        -0.36464E+08
 
   -0.44806E+08        -0.11470E+07         0.00000E+00
   -0.11470E+07        -0.60478E+08         0.00000E+00
    0.00000E+00         0.00000E+00        -0.36449E+08
 
   -0.43950E+08        -0.10018E+07         0.00000E+00
   -0.10018E+07        -0.60709E+08         0.00000E+00
    0.00000E+00         0.00000E+00        -0.36431E+08
 
   -0.43061E+08        -0.64815E+06         0.00000E+00
   -0.64815E+06        -0.60954E+08         0.00000E+00
    0.00000E+00         0.00000E+00        -0.36411E+08
 
   -0.42164E+08        -0.91559E+05         0.00000E+00
   -0.91559E+05        -0.61205E+08         0.00000E+00
    0.00000E+00         0.00000E+00        -0.36390E+08
 
   -0.41281E+08         0.66253E+06         0.00000E+00
    0.66253E+06        -0.61456E+08         0.00000E+00
    0.00000E+00         0.00000E+00        -0.36368E+08
 
   -0.40426E+08         0.16098E+07         0.00000E+00
    0.16098E+07        -0.61708E+08         0.00000E+00
    0.00000E+00         0.00000E+00        -0.36347E+08
 
   -0.39611E+08         0.27474E+07         0.00000E+00
    0.27474E+07        -0.61958E+08         0.00000E+00
    0.00000E+00         0.00000E+00        -0.36327E+08
 
   -0.38846E+08         0.40735E+07         0.00000E+00
    0.40735E+07        -0.62208E+08         0.00000E+00
    0.00000E+00         0.00000E+00        -0.36310E+08
 
   -0.38142E+08         0.55864E+07         0.00000E+00
    0.55864E+07        -0.62455E+08         0.00000E+00
    0.00000E+00         0.00000E+00        -0.36294E+08
 
   -0.37510E+08         0.72814E+07         0.00000E+00
    0.72814E+07        -0.62695E+08         0.00000E+00
    0.00000E+00         0.00000E+00        -0.36282E+08
 
   -0.36957E+08         0.91484E+07         0.00000E+00
    0.91484E+07        -0.62921E+08         0.00000E+00
    0.00000E+00         0.00000E+00        -0.36274E+08
 
   -0.36485E+08         0.11176E+08         0.00000E+00
    0.11176E+08        -0.63133E+08         0.00000E+00
    0.00000E+00         0.00000E+00        -0.36270E+08
 
   -0.47417E+08        -0.36836E+06         0.00000E+00
   -0.36836E+06        -0.60029E+08         0.00000E+00
    0.00000E+00         0.00000E+00        -0.34300E+08
 
   -0.46687E+08        -0.93700E+06         0.00000E+00
   -0.93700E+06        -0.60127E+08         0.00000E+00
    0.00000E+00         0.00000E+00        -0.34293E+08
 
   -0.45789E+08        -0.12732E+07         0.00000E+00
   -0.12732E+07        -0.60298E+08         0.00000E+00
    0.00000E+00         0.00000E+00        -0.34281E+08
 
   -0.44779E+08        -0.13755E+07         0.00000E+00
   -0.13755E+07        -0.60514E+08         0.00000E+00
    0.00000E+00         0.00000E+00        -0.34265E+08
 
   -0.43707E+08        -0.12495E+07         0.00000E+00
   -0.12495E+07        -0.60758E+08         0.00000E+00
    0.00000E+00         0.00000E+00        -0.34246E+08
 
   -0.42608E+08        -0.90489E+06         0.00000E+00
   -0.90489E+06        -0.61014E+08         0.00000E+00
    0.00000E+00         0.00000E+00        -0.34224E+08
 
   -0.41509E+08        -0.35210E+06         0.00000E+00
   -0.35210E+06        -0.61278E+08         0.00000E+00
    0.00000E+00         0.00000E+00        -0.34202E+08
 
   -0.40431E+08         0.39966E+06         0.00000E+00
    0.39966E+06        -0.61546E+08         0.00000E+00
    0.00000E+00         0.00000E+00        -0.34180E+08
 
   -0.39385E+08         0.13439E+07         0.00000E+00
    0.13439E+07        -0.61821E+08         0.00000E+00
    0.00000E+00         0.00000E+00        -0.34158E+08
 
   -0.38381E+08         0.24770E+07         0.00000E+00
    0.24770E+07        -0.62104E+08         0.00000E+00
    0.00000E+00         0.00000E+00        -0.34137E+08
 
   -0.37428E+08         0.37985E+07         0.00000E+00
    0.37985E+07        -0.62397E+08         0.00000E+00
    0.00000E+00         0.00000E+00        -0.34119E+08
 
   -0.36536E+08         0.53096E+07         0.00000E+00
    0.53096E+07        -0.62701E+08         0.00000E+00
    0.00000E+00         0.00000E+00        -0.34103E+08
 
   -0.35722E+08         0.70108E+07         0.00000E+00
    0.70108E+07        -0.63011E+08         0.00000E+00
    0.00000E+00         0.00000E+00        -0.34091E+08
 
   -0.35001E+08         0.88921E+07         0.00000E+00
    0.88921E+07        -0.63314E+08         0.00000E+00
    0.00000E+00         0.00000E+00        -0.34082E+08
 
   -0.34371E+08         0.10934E+08         0.00000E+00
    0.10934E+08        -0.63602E+08         0.00000E+00
    0.00000E+00         0.00000E+00        -0.34078E+08
 
   -0.48152E+08        -0.42609E+06         0.00000E+00
   -0.42609E+06        -0.60031E+08         0.00000E+00
    0.00000E+00         0.00000E+00        -0.32097E+08
 
   -0.47177E+08        -0.10835E+07         0.00000E+00
   -0.10835E+07        -0.60136E+08         0.00000E+00
    0.00000E+00         0.00000E+00        -0.32090E+08
 
   -0.46030E+08        -0.14772E+07         0.00000E+00
   -0.14772E+07        -0.60315E+08         0.00000E+00
    0.00000E+00         0.00000E+00        -0.32077E+08
 
   -0.44779E+08        -0.16128E+07         0.00000E+00
   -0.16128E+07        -0.60537E+08         0.00000E+00
    0.00000E+00         0.00000E+00        -0.32060E+08
 
   -0.43476E+08        -0.15037E+07         0.00000E+00
   -0.15037E+07        -0.60782E+08         0.00000E+00
    0.00000E+00         0.00000E+00        -0.32040E+08
 
   -0.42161E+08        -0.11672E+07         0.00000E+00
   -0.11672E+07        -0.61038E+08         0.00000E+00
    0.00000E+00         0.00000E+00        -0.32018E+08
 
   -0.40859E+08        -0.62005E+06         0.00000E+00
   -0.62005E+06        -0.61301E+08         0.00000E+00
    0.00000E+00         0.00000E+00        -0.31994E+08
 
   -0.39587E+08         0.12431E+06         0.00000E+00
    0.12431E+06        -0.61572E+08         0.00000E+00
    0.00000E+00         0.00000E+00        -0.31971E+08
 
   -0.38353E+08         0.10570E+07         0.00000E+00
    0.10570E+07        -0.61856E+08         0.00000E+00
    0.00000E+00         0.00000E+00        -0.31949E+08
 
   -0.37163E+08         0.21743E+07         0.00000E+00
    0.21743E+07        -0.62159E+08         0.00000E+00
    0.00000E+00         0.00000E+00        -0.31928E+08
 
   -0.36021E+08         0.34771E+07         0.00000E+00
    0.34771E+07        -0.62487E+08         0.00000E+00
    0.00000E+00         0.00000E+00        -0.31909E+08
 
   -0.34938E+08         0.49696E+07         0.00000E+00
    0.49696E+07        -0.62842E+08         0.00000E+00
    0.00000E+00         0.00000E+00        -0.31893E+08
 
   -0.33929E+08         0.66593E+07         0.00000E+00
    0.66593E+07        -0.63223E+08         0.00000E+00
    0.00000E+00         0.00000E+00        -0.31880E+08
 
   -0.33032E+08         0.85496E+07         0.00000E+00
    0.85496E+07        -0.63619E+08         0.00000E+00
    0.00000E+00         0.00000E+00        -0.31872E+08
 
   -0.32242E+08         0.10604E+08         0.00000E+00
    0.10604E+08        -0.64021E+08         0.00000E+00
    0.00000E+00         0.00000E+00        -0.31867E+08
 
   -0.48996E+08        -0.48798E+06         0.00000E+00
   -0.48798E+06        -0.60033E+08         0.00000E+00
    0.00000E+00         0.00000E+00        -0.29874E+08
 
   -0.47738E+08        -0.12368E+07         0.00000E+00
   -0.12368E+07        -0.60142E+08         0.00000E+00
    0.00000E+00         0.00000E+00        -0.29866E+08
 
   -0.46313E+08        -0.16851E+07         0.00000E+00
   -0.16851E+07        -0.60323E+08         0.00000E+00
    0.00000E+00         0.00000E+00        -0.29853E+08
 
   -0.44799E+08        -0.18483E+07         0.00000E+00
   -0.18483E+07        -0.60541E+08         0.00000E+00
    0.00000E+00         0.00000E+00        -0.29834E+08
 
   -0.43255E+08        -0.17508E+07         0.00000E+00
   -0.17508E+07        -0.60775E+08         0.00000E+00
    0.00000E+00         0.00000E+00        -0.29813E+08
 
   -0.41720E+08        -0.14197E+07         0.00000E+00
   -0.14197E+07        -0.61013E+08         0.00000E+00
    0.00000E+00         0.00000E+00        -0.29790E+08
 
   -0.40217E+08        -0.87924E+06         0.00000E+00
   -0.87924E+06        -0.61257E+08         0.00000E+00
    0.00000E+00         0.00000E+00        -0.29766E+08
 
   -0.38756E+08        -0.14775E+06         0.00000E+00
   -0.14775E+06        -0.61513E+08         0.00000E+00
    0.00000E+00         0.00000E+00        -0.29742E+08
 
   -0.37340E+08         0.76377E+06         0.00000E+00
    0.76377E+06        -0.61790E+08         0.00000E+00
    0.00000E+00         0.00000E+00        -0.29720E+08
 
   -0.35969E+08         0.18518E+07         0.00000E+00
    0.18518E+07        -0.62098E+08         0.00000E+00
    0.00000E+00         0.00000E+00        -0.29698E+08
 
   -0.34643E+08         0.31194E+07         0.00000E+00
    0.31194E+07        -0.62448E+08         0.00000E+00
    0.00000E+00         0.00000E+00        -0.29679E+08
 
   -0.33367E+08         0.45746E+07         0.00000E+00
    0.45746E+07        -0.62842E+08         0.00000E+00
    0.00000E+00         0.00000E+00        -0.29663E+08
 
   -0.32154E+08         0.62273E+07         0.00000E+00
    0.62273E+07        -0.63283E+08         0.00000E+00
    0.00000E+00         0.00000E+00        -0.29651E+08
 
   -0.31050E+08         0.80969E+07         0.00000E+00
    0.80969E+07        -0.63760E+08         0.00000E+00
    0.00000E+00         0.00000E+00        -0.29642E+08
 
   -0.30251E+08         0.10081E+08         0.00000E+00
    0.10081E+08        -0.64317E+08         0.00000E+00
    0.00000E+00         0.00000E+00        -0.29804E+08
 
   -0.49954E+08        -0.55312E+06         0.00000E+00
   -0.55312E+06        -0.60034E+08         0.00000E+00
    0.00000E+00         0.00000E+00        -0.27628E+08
 
   -0.48369E+08        -0.13925E+07         0.00000E+00
   -0.13925E+07        -0.60145E+08         0.00000E+00
    0.00000E+00         0.00000E+00        -0.27620E+08
 
   -0.46631E+08        -0.18875E+07         0.00000E+00
   -0.18875E+07        -0.60319E+08         0.00000E+00
    0.00000E+00         0.00000E+00        -0.27606E+08
 
   -0.44833E+08        -0.20678E+07         0.00000E+00
   -0.20678E+07        -0.60519E+08         0.00000E+00
    0.00000E+00         0.00000E+00        -0.27587E+08
 
   -0.43037E+08        -0.19730E+07         0.00000E+00
   -0.19730E+07        -0.60722E+08         0.00000E+00
    0.00000E+00         0.00000E+00        -0.27565E+08
 
   -0.41283E+08        -0.16427E+07         0.00000E+00
   -0.16427E+07        -0.60923E+08         0.00000E+00
    0.00000E+00         0.00000E+00        -0.27541E+08
 
   -0.39585E+08        -0.11099E+07         0.00000E+00
   -0.11099E+07        -0.61126E+08         0.00000E+00
    0.00000E+00         0.00000E+00        -0.27517E+08
 
   -0.37947E+08        -0.39776E+06         0.00000E+00
   -0.39776E+06        -0.61346E+08         0.00000E+00
    0.00000E+00         0.00000E+00        -0.27493E+08
 
   -0.36360E+08         0.48108E+06         0.00000E+00
    0.48108E+06        -0.61597E+08         0.00000E+00
    0.00000E+00         0.00000E+00        -0.27471E+08
 
   -0.34817E+08         0.15240E+07         0.00000E+00
    0.15240E+07        -0.61894E+08         0.00000E+00
    0.00000E+00         0.00000E+00        -0.27450E+08
 
   -0.33311E+08         0.27376E+07         0.00000E+00
    0.27376E+07        -0.62251E+08         0.00000E+00
    0.00000E+00         0.00000E+00        -0.27431E+08
 
   -0.31841E+08         0.41362E+07         0.00000E+00
    0.41362E+07        -0.62674E+08         0.00000E+00
    0.00000E+00         0.00000E+00        -0.27415E+08
 
   -0.30423E+08         0.57378E+07         0.00000E+00
    0.57378E+07        -0.63160E+08         0.00000E+00
    0.00000E+00         0.00000E+00        -0.27402E+08
 
   -0.29051E+08         0.75688E+07         0.00000E+00
    0.75688E+07        -0.63702E+08         0.00000E+00
    0.00000E+00         0.00000E+00        -0.27394E+08
 
   -0.28525E+08         0.93950E+07         0.00000E+00
    0.93950E+07        -0.64329E+08         0.00000E+00
    0.00000E+00         0.00000E+00        -0.28047E+08
 
   -0.51030E+08        -0.62030E+06         0.00000E+00
   -0.62030E+06        -0.60035E+08         0.00000E+00
    0.00000E+00         0.00000E+00        -0.25360E+08
 
   -0.49062E+08        -0.15442E+07         0.00000E+00
   -0.15442E+07        -0.60142E+08         0.00000E+00
    0.00000E+00         0.00000E+00        -0.25352E+08
 
   -0.46971E+08        -0.20710E+07         0.00000E+00
   -0.20710E+07        -0.60299E+08         0.00000E+00
    0.00000E+00         0.00000E+00        -0.25337E+08
 
   -0.44867E+08        -0.22518E+07         0.00000E+00
   -0.22518E+07        -0.60461E+08         0.00000E+00
    0.00000E+00         0.00000E+00        -0.25317E+08
 
   -0.42816E+08        -0.21471E+07         0.00000E+00
   -0.21471E+07        -0.60609E+08         0.00000E+00
    0.00000E+00         0.00000E+00        -0.25295E+08
 
   -0.40849E+08        -0.18121E+07         0.00000E+00
   -0.18121E+07        -0.60744E+08         0.00000E+00
    0.00000E+00         0.00000E+00        -0.25271E+08
 
   -0.38970E+08        -0.12889E+07         0.00000E+00
   -0.12889E+07        -0.60882E+08         0.00000E+00
    0.00000E+00         0.00000E+00        -0.25247E+08
 
   -0.37169E+08        -0.60482E+06         0.00000E+00
   -0.60482E+06        -0.61043E+08         0.00000E+00
    0.00000E+00         0.00000E+00        -0.25224E+08
 
   -0.35427E+08         0.22731E+06         0.00000E+00
    0.22731E+06        -0.61248E+08         0.00000E+00
    0.00000E+00         0.00000E+00        -0.25202E+08
 
   -0.33726E+08         0.12068E+07         0.00000E+00
    0.12068E+07        -0.61517E+08         0.00000E+00
    0.00000E+00         0.00000E+00        -0.25181E+08
 
   -0.32047E+08         0.23442E+07         0.00000E+00
    0.23442E+07        -0.61868E+08         0.00000E+00
    0.00000E+00         0.00000E+00        -0.25163E+08
 
   -0.30383E+08         0.36613E+07         0.00000E+00
    0.36613E+07        -0.62311E+08         0.00000E+00
    0.00000E+00         0.00000E+00        -0.25148E+08
 
   -0.28742E+08         0.51926E+07         0.00000E+00
    0.51926E+07        -0.62847E+08         0.00000E+00
    0.00000E+00         0.00000E+00        -0.25135E+08
 
   -0.27138E+08         0.69568E+07         0.00000E+00
    0.69568E+07        -0.63471E+08         0.00000E+00
    0.00000E+00         0.00000E+00        -0.25130E+08
 
   -0.26898E+08         0.86853E+07         0.00000E+00
    0.86853E+07        -0.64162E+08         0.00000E+00
    0.00000E+00         0.00000E+00        -0.26318E+08
 
   -0.52220E+08        -0.68796E+06         0.00000E+00
   -0.68796E+06        -0.60035E+08         0.00000E+00
    0.00000E+00         0.00000E+00        -0.23068E+08
 
   -0.49800E+08        -0.16825E+07         0.00000E+00
   -0.16825E+07        -0.60131E+08         0.00000E+00
    0.00000E+00         0.00000E+00        -0.23059E+08
 
   -0.47311E+08        -0.22160E+07         0.00000E+00
   -0.22160E+07        -0.60252E+08         0.00000E+00
    0.00000E+00         0.00000E+00        -0.23044E+08
 
   -0.44884E+08        -0.23731E+07         0.00000E+00
   -0.23731E+07        -0.60348E+08         0.00000E+00
    0.00000E+00         0.00000E+00        -0.23024E+08
 
   -0.42580E+08        -0.22432E+07         0.00000E+00
   -0.22432E+07        -0.60408E+08         0.00000E+00
    0.00000E+00         0.00000E+00        -0.23002E+08
 
   -0.40417E+08        -0.18994E+07         0.00000E+00
   -0.18994E+07        -0.60447E+08         0.00000E+00
    0.00000E+00         0.00000E+00        -0.22979E+08
 
   -0.38378E+08        -0.13914E+07         0.00000E+00
   -0.13914E+07        -0.60492E+08         0.00000E+00
    0.00000E+00         0.00000E+00        -0.22956E+08
 
   -0.36436E+08        -0.74765E+06         0.00000E+00
   -0.74765E+06        -0.60571E+08         0.00000E+00
    0.00000E+00         0.00000E+00        -0.22934E+08
 
   -0.34560E+08         0.20347E+05         0.00000E+00
    0.20347E+05        -0.60712E+08         0.00000E+00
    0.00000E+00         0.00000E+00        -0.22913E+08
 
   -0.32716E+08         0.91486E+06         0.00000E+00
    0.91486E+06        -0.60938E+08         0.00000E+00
    0.00000E+00         0.00000E+00        -0.22894E+08
 
   -0.30877E+08         0.19506E+07         0.00000E+00
    0.19506E+07        -0.61270E+08         0.00000E+00
    0.00000E+00         0.00000E+00        -0.22877E+08
 
   -0.29021E+08         0.31555E+07         0.00000E+00
    0.31555E+07        -0.61724E+08         0.00000E+00
    0.00000E+00         0.00000E+00        -0.22862E+08
 
   -0.27139E+08         0.45737E+07         0.00000E+00
    0.45737E+07        -0.62309E+08         0.00000E+00
    0.00000E+00         0.00000E+00        -0.22851E+08
 
   -0.25360E+08         0.62386E+07         0.00000E+00
    0.62386E+07        -0.63008E+08         0.00000E+00
    0.00000E+00         0.00000E+00        -0.22946E+08
 
   -0.25216E+08         0.79376E+07         0.00000E+00
    0.79376E+07        -0.63795E+08         0.00000E+00
    0.00000E+00         0.00000E+00        -0.24514E+08
 
   -0.53517E+08        -0.75384E+06         0.00000E+00
   -0.75384E+06        -0.60033E+08         0.00000E+00
    0.00000E+00         0.00000E+00        -0.20752E+08
 
   -0.50554E+08        -0.17918E+07         0.00000E+00
   -0.17918E+07        -0.60108E+08         0.00000E+00
    0.00000E+00         0.00000E+00        -0.20743E+08
 
   -0.47620E+08        -0.22921E+07         0.00000E+00
   -0.22921E+07        -0.60163E+08         0.00000E+00
    0.00000E+00         0.00000E+00        -0.20727E+08
 
   -0.44862E+08        -0.23937E+07         0.00000E+00
   -0.23937E+07        -0.60151E+08         0.00000E+00
    0.00000E+00         0.00000E+00        -0.20708E+08
 
   -0.42324E+08        -0.22245E+07         0.00000E+00
   -0.22245E+07        -0.60081E+08         0.00000E+00
    0.00000E+00         0.00000E+00        -0.20687E+08
 
   -0.39991E+08        -0.18737E+07         0.00000E+00
   -0.18737E+07        -0.59988E+08         0.00000E+00
    0.00000E+00         0.00000E+00        -0.20666E+08
 
   -0.37821E+08        -0.13928E+07         0.00000E+00
   -0.13928E+07        -0.59913E+08         0.00000E+00
    0.00000E+00         0.00000E+00        -0.20645E+08
 
   -0.35766E+08        -0.80736E+06         0.00000E+00
   -0.80736E+06        -0.59891E+08         0.00000E+00
    0.00000E+00         0.00000E+00        -0.20624E+08
 
   -0.33778E+08        -0.12494E+06         0.00000E+00
   -0.12494E+06        -0.59952E+08         0.00000E+00
    0.00000E+00         0.00000E+00        -0.20606E+08
 
   -0.31814E+08         0.66018E+06         0.00000E+00
    0.66018E+06        -0.60124E+08         0.00000E+00
    0.00000E+00         0.00000E+00        -0.20588E+08
 
   -0.29831E+08         0.15660E+07         0.00000E+00
    0.15660E+07        -0.60429E+08         0.00000E+00
    0.00000E+00         0.00000E+00        -0.20573E+08
 
   -0.27792E+08         0.26247E+07         0.00000E+00
    0.26247E+07        -0.60889E+08         0.00000E+00
    0.00000E+00         0.00000E+00        -0.20559E+08
 
   -0.25666E+08         0.38899E+07         0.00000E+00
    0.38899E+07        -0.61521E+08         0.00000E+00
    0.00000E+00         0.00000E+00        -0.20549E+08
 
   -0.23692E+08         0.54109E+07         0.00000E+00
    0.54109E+07        -0.62314E+08         0.00000E+00
    0.00000E+00         0.00000E+00        -0.20775E+08
 
   -0.23456E+08         0.71033E+07         0.00000E+00
    0.71033E+07        -0.63206E+08         0.00000E+00
    0.00000E+00         0.00000E+00        -0.22604E+08
 
   -0.54900E+08        -0.81394E+06         0.00000E+00
   -0.81394E+06        -0.60029E+08         0.00000E+00
    0.00000E+00         0.00000E+00        -0.18410E+08
 
   -0.51276E+08        -0.18438E+07         0.00000E+00
   -0.18438E+07        -0.60058E+08         0.00000E+00
    0.00000E+00         0.00000E+00        -0.18401E+08
 
   -0.47853E+08        -0.22492E+07         0.00000E+00
   -0.22492E+07        -0.59995E+08         0.00000E+00
    0.00000E+00         0.00000E+00        -0.18385E+08
 
   -0.44780E+08        -0.22611E+07         0.00000E+00
   -0.22611E+07        -0.59812E+08         0.00000E+00
    0.00000E+00         0.00000E+00        -0.18368E+08
 
   -0.42047E+08        -0.20493E+07         0.00000E+00
   -0.20493E+07        -0.59561E+08         0.00000E+00
    0.00000E+00         0.00000E+00        -0.18349E+08
 
   -0.39585E+08        -0.17060E+07         0.00000E+00
   -0.17060E+07        -0.59304E+08         0.00000E+00
    0.00000E+00         0.00000E+00        -0.18330E+08
 
   -0.37319E+08        -0.12743E+07         0.00000E+00
   -0.12743E+07        -0.59089E+08         0.00000E+00
    0.00000E+00         0.00000E+00        -0.18312E+08
 
   -0.35181E+08        -0.77143E+06         0.00000E+00
   -0.77143E+06        -0.58956E+08         0.00000E+00
    0.00000E+00         0.00000E+00        -0.18295E+08
 
   -0.33108E+08        -0.19970E+06         0.00000E+00
   -0.19970E+06        -0.58932E+08         0.00000E+00
    0.00000E+00         0.00000E+00        -0.18279E+08
 
   -0.31045E+08         0.44965E+06         0.00000E+00
    0.44965E+06        -0.59046E+08         0.00000E+00
    0.00000E+00         0.00000E+00        -0.18264E+08
 
   -0.28939E+08         0.11960E+07         0.00000E+00
    0.11960E+07        -0.59321E+08         0.00000E+00
    0.00000E+00         0.00000E+00        -0.18251E+08
 
   -0.26736E+08         0.20719E+07         0.00000E+00
    0.20719E+07        -0.59783E+08         0.00000E+00
    0.00000E+00         0.00000E+00        -0.18240E+08
 
   -0.24378E+08         0.31289E+07         0.00000E+00
    0.31289E+07        -0.60464E+08         0.00000E+00
    0.00000E+00         0.00000E+00        -0.18230E+08
 
   -0.22122E+08         0.44624E+07         0.00000E+00
    0.44624E+07        -0.61368E+08         0.00000E+00
    0.00000E+00         0.00000E+00        -0.18517E+08
 
   -0.21638E+08         0.61421E+07         0.00000E+00
    0.61421E+07        -0.62402E+08         0.00000E+00
    0.00000E+00         0.00000E+00        -0.20566E+08
 
   -0.56327E+08        -0.85868E+06         0.00000E+00
   -0.85868E+06        -0.60015E+08         0.00000E+00
    0.00000E+00         0.00000E+00        -0.16041E+08
 
   -0.51880E+08        -0.17772E+07         0.00000E+00
   -0.17772E+07        -0.59945E+08         0.00000E+00
    0.00000E+00         0.00000E+00        -0.16032E+08
 
   -0.47961E+08        -0.20030E+07         0.00000E+00
   -0.20030E+07        -0.59661E+08         0.00000E+00
    0.00000E+00         0.00000E+00        -0.16019E+08
 
   -0.44634E+08        -0.19115E+07         0.00000E+00
   -0.19115E+07        -0.59225E+08         0.00000E+00
    0.00000E+00         0.00000E+00        -0.16003E+08
 
   -0.41768E+08        -0.16816E+07         0.00000E+00
   -0.16816E+07        -0.58750E+08         0.00000E+00
    0.00000E+00         0.00000E+00        -0.15988E+08
 
   -0.39226E+08        -0.13793E+07         0.00000E+00
   -0.13793E+07        -0.58313E+08         0.00000E+00
    0.00000E+00         0.00000E+00        -0.15973E+08
 
   -0.36900E+08        -0.10291E+07         0.00000E+00
   -0.10291E+07        -0.57957E+08         0.00000E+00
    0.00000E+00         0.00000E+00        -0.15959E+08
 
   -0.34706E+08        -0.63819E+06         0.00000E+00
   -0.63819E+06        -0.57716E+08         0.00000E+00
    0.00000E+00         0.00000E+00        -0.15946E+08
 
   -0.32574E+08        -0.20392E+06         0.00000E+00
   -0.20392E+06        -0.57613E+08         0.00000E+00
    0.00000E+00         0.00000E+00        -0.15934E+08
 
   -0.30438E+08         0.28344E+06         0.00000E+00
    0.28344E+06        -0.57672E+08         0.00000E+00
    0.00000E+00         0.00000E+00        -0.15923E+08
 
   -0.28235E+08         0.84149E+06         0.00000E+00
    0.84149E+06        -0.57919E+08         0.00000E+00
    0.00000E+00         0.00000E+00        -0.15913E+08
 
   -0.25896E+08         0.14986E+07         0.00000E+00
    0.14986E+07        -0.58384E+08         0.00000E+00
    0.00000E+00         0.00000E+00        -0.15904E+08
 
   -0.23345E+08         0.22979E+07         0.00000E+00
    0.22979E+07        -0.59106E+08         0.00000E+00
    0.00000E+00         0.00000E+00        -0.15896E+08
 
   -0.20690E+08         0.33606E+07         0.00000E+00
    0.33606E+07        -0.60134E+08         0.00000E+00
    0.00000E+00         0.00000E+00        -0.16128E+08
 
   -0.19774E+08         0.49722E+07         0.00000E+00
    0.49722E+07        -0.61379E+08         0.00000E+00
    0.00000E+00         0.00000E+00        -0.18379E+08
 
   -0.57683E+08        -0.85198E+06         0.00000E+00
   -0.85198E+06        -0.59969E+08         0.00000E+00
    0.00000E+00         0.00000E+00        -0.13644E+08
 
   -0.52236E+08        -0.14375E+07         0.00000E+00
   -0.14375E+07        -0.59622E+08         0.00000E+00
    0.00000E+00         0.00000E+00        -0.13637E+08
 
   -0.47929E+08        -0.14391E+07         0.00000E+00
   -0.14391E+07        -0.58955E+08         0.00000E+00
    0.00000E+00         0.00000E+00        -0.13627E+08
 
   -0.44464E+08        -0.13014E+07         0.00000E+00
   -0.13014E+07        -0.58215E+08         0.00000E+00
    0.00000E+00         0.00000E+00        -0.13616E+08
 
   -0.41532E+08        -0.11138E+07         0.00000E+00
   -0.11138E+07        -0.57520E+08         0.00000E+00
    0.00000E+00         0.00000E+00        -0.13606E+08
 
   -0.38950E+08        -0.90107E+06         0.00000E+00
   -0.90107E+06        -0.56922E+08         0.00000E+00
    0.00000E+00         0.00000E+00        -0.13597E+08
 
   -0.36594E+08        -0.67000E+06         0.00000E+00
   -0.67000E+06        -0.56450E+08         0.00000E+00
    0.00000E+00         0.00000E+00        -0.13588E+08
 
   -0.34370E+08        -0.42044E+06         0.00000E+00
   -0.42044E+06        -0.56123E+08         0.00000E+00
    0.00000E+00         0.00000E+00        -0.13579E+08
 
   -0.32201E+08        -0.14820E+06         0.00000E+00
   -0.14820E+06        -0.55958E+08         0.00000E+00
    0.00000E+00         0.00000E+00        -0.13572E+08
 
   -0.30017E+08         0.15450E+06         0.00000E+00
    0.15450E+06        -0.55977E+08         0.00000E+00
    0.00000E+00         0.00000E+00        -0.13565E+08
 
   -0.27746E+08         0.49998E+06         0.00000E+00
    0.49998E+06        -0.56203E+08         0.00000E+00
    0.00000E+00         0.00000E+00        -0.13558E+08
 
   -0.25311E+08         0.90741E+06         0.00000E+00
    0.90741E+06        -0.56670E+08         0.00000E+00
    0.00000E+00         0.00000E+00        -0.13553E+08
 
   -0.22618E+08         0.14079E+07         0.00000E+00
    0.14079E+07        -0.57426E+08         0.00000E+00
    0.00000E+00         0.00000E+00        -0.13548E+08
 
   -0.19539E+08         0.20829E+07         0.00000E+00
    0.20829E+07        -0.58573E+08         0.00000E+00
    0.00000E+00         0.00000E+00        -0.13629E+08
 
   -0.17912E+08         0.34575E+07         0.00000E+00
    0.34575E+07        -0.60114E+08         0.00000E+00
    0.00000E+00         0.00000E+00        -0.16002E+08
 
   -0.58644E+08        -0.51620E+06         0.00000E+00
   -0.51620E+06        -0.59498E+08         0.00000E+00
    0.00000E+00         0.00000E+00        -0.11219E+08
 
   -0.52289E+08        -0.58529E+06         0.00000E+00
   -0.58529E+06        -0.58579E+08         0.00000E+00
    0.00000E+00         0.00000E+00        -0.11216E+08
 
   -0.47854E+08        -0.53087E+06         0.00000E+00
   -0.53087E+06        -0.57534E+08         0.00000E+00
    0.00000E+00         0.00000E+00        -0.11212E+08
 
   -0.44344E+08        -0.46402E+06         0.00000E+00
   -0.46402E+06        -0.56573E+08         0.00000E+00
    0.00000E+00         0.00000E+00        -0.11209E+08
 
   -0.41393E+08        -0.39048E+06         0.00000E+00
   -0.39048E+06        -0.55738E+08         0.00000E+00
    0.00000E+00         0.00000E+00        -0.11205E+08
 
   -0.38800E+08        -0.31323E+06         0.00000E+00
   -0.31323E+06        -0.55047E+08         0.00000E+00
    0.00000E+00         0.00000E+00        -0.11202E+08
 
   -0.36433E+08        -0.23220E+06         0.00000E+00
   -0.23220E+06        -0.54510E+08         0.00000E+00
    0.00000E+00         0.00000E+00        -0.11199E+08
 
   -0.34196E+08        -0.14628E+06         0.00000E+00
   -0.14628E+06        -0.54137E+08         0.00000E+00
    0.00000E+00         0.00000E+00        -0.11196E+08
 
   -0.32010E+08        -0.53471E+05         0.00000E+00
   -0.53471E+05        -0.53941E+08         0.00000E+00
    0.00000E+00         0.00000E+00        -0.11193E+08
 
   -0.29801E+08         0.49204E+05         0.00000E+00
    0.49204E+05        -0.53940E+08         0.00000E+00
    0.00000E+00         0.00000E+00        -0.11191E+08
 
   -0.27496E+08         0.16617E+06         0.00000E+00
    0.16617E+06        -0.54156E+08         0.00000E+00
    0.00000E+00         0.00000E+00        -0.11189E+08
 
   -0.25010E+08         0.30401E+06         0.00000E+00
    0.30401E+06        -0.54626E+08         0.00000E+00
    0.00000E+00         0.00000E+00        -0.11187E+08
 
   -0.22234E+08         0.47551E+06         0.00000E+00
    0.47551E+06        -0.55402E+08         0.00000E+00
    0.00000E+00         0.00000E+00        -0.11185E+08
 
   -0.18993E+08         0.69685E+06         0.00000E+00
    0.69685E+06        -0.56583E+08         0.00000E+00
    0.00000E+00         0.00000E+00        -0.11183E+08
 
   -0.16182E+08         0.13029E+07         0.00000E+00
    0.13029E+07        -0.58564E+08         0.00000E+00
    0.00000E+00         0.00000E+00        -0.13389E+08
 
SCALARS stresss double 
LOOKUP_TABLE default
  -54055011.0564642     
  -53978770.4508703     
  -54371474.2214217     
  -55163561.5796451     
  -56238758.3634215     
  -57491859.1596501     
  -58855826.2157691     
  -60219167.8151529     
  -61551341.7733111     
  -62890525.5739730     
  -63910950.3321968     
  -64771368.1792411     
  -65543980.0622716     
  -66284215.4328972     
  -67088693.0071649     
  -55603793.9351872     
  -56275328.4153707     
  -56698010.9667219     
  -57087882.4115283     
  -57624657.1105135     
  -58329147.5438743     
  -59086663.5936763     
  -59909262.1431860     
  -60885227.1860977     
  -61871916.4315249     
  -62777718.0746134     
  -63571943.3837064     
  -64291543.9083521     
  -64968067.6955040     
  -65593754.6336706     
  -56854737.7592114     
  -57465249.3018735     
  -57833183.5950978     
  -58068780.5636763     
  -58246496.1114382     
  -58524037.8966011     
  -58901509.5702183     
  -59491472.0204978     
  -60230572.7299881     
  -60998878.1742655     
  -61744305.4917858     
  -62438788.9702755     
  -63076812.0455516     
  -63659565.9081904     
  -64177602.2602996     
  -56936852.0093755     
  -57171416.1388277     
  -57385639.3903791     
  -57598630.9768963     
  -57798254.1487807     
  -58086785.5409273     
  -58477223.2847167     
  -58965533.5475152     
  -59538257.7450629     
  -60152983.2707640     
  -60767056.4054198     
  -61355527.8183856     
  -61904136.2891454     
  -62403329.3917241     
  -62841826.8685431     
  -56465716.0472402     
  -56605655.9322566     
  -56806315.3709361     
  -57017431.5775709     
  -57266836.4994776     
  -57557744.7359723     
  -57912630.9050276     
  -58331805.8807438     
  -58802502.5685393     
  -59303873.8428893     
  -59811939.4477958     
  -60306331.7804391     
  -60772420.4988967     
  -61198883.4638274     
  -61575528.6034989     
  -55839647.9472969     
  -55995136.9223345     
  -56198532.0543619     
  -56420634.9639676     
  -56666926.0076767     
  -56947829.8307250     
  -57268398.9204674     
  -57629825.8832840     
  -58025023.6633311     
  -58441382.7144131     
  -58864035.8141889     
  -59278647.3862041     
  -59673003.9280318     
  -60037147.3250225     
  -60362903.4236098     
  -55152872.0162683     
  -55359274.9140860     
  -55565132.3414563     
  -55785274.8860887     
  -56022684.1582945     
  -56282626.2462029     
  -56568798.8292419     
  -56881007.4990243     
  -57215111.3446506     
  -57563401.0269306     
  -57916235.0707402     
  -58263651.3155427     
  -58596492.0171517     
  -58906972.8328984     
  -59188971.1259175     
  -54476424.9099007     
  -54697853.7766873     
  -54908832.1563417     
  -55121362.4593175     
  -55343105.5308412     
  -55578457.8016199     
  -55830037.5063585     
  -56098033.6446315     
  -56379947.2779496     
  -56671016.6935627     
  -56964987.0916045     
  -57255057.3838751     
  -57534688.6153281     
  -57798191.0920645     
  -58041163.0630547     
  -53814632.2382523     
  -54032534.4436913     
  -54236688.9054524     
  -54436125.1222038     
  -54637563.4858384     
  -54845544.8707539     
  -55062594.6632261     
  -55289361.9182732     
  -55524637.2767911     
  -55765600.5513130     
  -56008301.7808818     
  -56248240.4572326     
  -56480934.0325804     
  -56702402.7316184     
  -56909569.2142769     
  -53164872.2555792     
  -53367971.4367618     
  -53556209.9693123     
  -53736061.9606276     
  -53913047.3156846     
  -54091289.9413178     
  -54273430.3865666     
  -54460632.4263844     
  -54652675.4333101     
  -54848142.8616295     
  -55044729.3537332     
  -55239623.7190376     
  -55429905.3570875     
  -55612909.7030976     
  -55786539.1153343     
  -52524314.5519779     
  -52705664.5439017     
  -52871305.5025628     
  -53026152.6739980     
  -53174766.4176047     
  -53320903.7110916     
  -53467291.8435824     
  -53615562.1478666     
  -53766287.5701922     
  -53919111.0320141     
  -54072949.9367005     
  -54226253.4754525     
  -54377278.8985477     
  -54524354.4042369     
  -54666103.8030431     
  -51891421.1956571     
  -52046305.7912529     
  -52184377.3585080     
  -52309735.3295598     
  -52426415.4277235     
  -52537991.0100626     
  -52647332.0608261     
  -52756493.7206994     
  -52866707.3979895     
  -52978451.5218073     
  -53091583.8653741     
  -53205514.7508288     
  -53319397.8253020     
  -53432314.5590638     
  -53543430.4931238     
  -51265893.5863525     
  -51390696.0447916     
  -51497149.5851047     
  -51589117.3651167     
  -51670505.7408454     
  -51744934.7394082     
  -51815515.0256300     
  -51884724.9091315     
  -51954372.1802859     
  -52025624.0467511     
  -52099088.1954169     
  -52174927.8322875     
  -52252992.7045284     
  -52332947.5791904     
  -52414379.7810482     
  -50648548.3587234     
  -50739978.9986334     
  -50811096.4838150     
  -50865967.5146830     
  -50908702.0973390     
  -50943184.9285207     
  -50972882.0162013     
  -51000723.0212317     
  -51029051.3782453     
  -51059629.8373704     
  -51093687.7636076     
  -51131996.6973310     
  -51174960.9122484     
  -51222709.0567095     
  -51275171.2196240     
  -50041109.3009341     
  -50095668.6907214     
  -50127609.0641708     
  -50141539.3966005     
  -50142044.1346919     
  -50133462.9681580     
  -50119728.0717231     
  -50104261.4395746     
  -50089926.6763313     
  -50079024.5545238     
  -50073320.3782536     
  -50074093.0969641     
  -50082199.1173779     
  -50098142.9489036     
  -50122142.0904441     
  -49445982.9774363     
  -49459572.2380678     
  -49448025.8572802     
  -49416763.2747568     
  -49371063.5472495     
  -49315880.3960784     
  -49255708.0281541     
  -49194500.0351578     
  -49135634.9762218     
  -49081915.5505275     
  -49035586.7874579     
  -48998365.1201377     
  -48971479.8326166     
  -48955735.0239613     
  -48951583.7725241     
  -48866036.4231559     
  -48833661.3804945     
  -48773580.0364989     
  -48692246.0077847     
  -48595815.5070926     
  -48489985.2945926     
  -48379884.8456014     
  -48270023.6828377     
  -48164284.7319702     
  -48065945.2786649     
  -47977698.4444405     
  -47901657.5114679     
  -47839362.2430219     
  -47791824.4189711     
  -47759651.7371700     
  -48304385.1698314     
  -48219914.5608930     
  -48105290.0163757     
  -47968201.8074713     
  -47815841.0330458     
  -47654748.4153915     
  -47490731.8611600     
  -47328851.5883520     
  -47173459.4145865     
  -47028268.1979832     
  -46896412.0322466     
  -46780422.2254176     
  -46682114.9686925     
  -46602582.0907461     
  -46542370.5604764     
  -47764192.3383807     
  -47620137.0023932     
  -47443803.4863939     
  -47244323.5021140     
  -47030068.4564306     
  -46808496.5964946     
  -46586097.6197770     
  -46368429.3571964     
  -46160226.6684707     
  -45965552.3303488     
  -45787953.7329666     
  -45630537.5044385     
  -45495606.8480751     
  -45384051.6858831     
  -45295856.8898249     
  -47248476.4184671     
  -47035756.1789000     
  -46789191.9923829     
  -46519591.6612655     
  -46236652.5624100     
  -45948794.2274149     
  -45663137.1625820     
  -45385612.6309015     
  -45121170.8622255     
  -44874050.3772239     
  -44648070.6635844     
  -44446973.3086554     
  -44274601.1774615     
  -44132486.8118336     
  -44017081.6488141     
  -46759923.1222316     
  -46467580.2999010     
  -46140679.6977255     
  -45792005.6935224     
  -45432739.3973734     
  -45072266.0264279     
  -44718208.0240033     
  -44376644.5307087     
  -44052458.6436206     
  -43749758.4114519     
  -43472340.6943884     
  -43224170.6931728     
  -43010706.0096519     
  -42840866.4153167     
  -42710322.3861716     
  -46300692.7891960     
  -45915493.2266672     
  -45496271.3999833     
  -45058204.1712601     
  -44614133.0304450     
  -44174347.8936420     
  -43746725.0114721     
  -43337123.4369763     
  -42949928.1663521     
  -42588657.2708601     
  -42256595.0199993     
  -41957444.8610057     
  -41695561.6002345     
  -41484259.9209524     
  -41457192.4981049     
  -45872205.6446932     
  -45378033.2149609     
  -44852214.1862679     
  -44312917.4241363     
  -43774828.2925306     
  -43248950.4296601     
  -42742970.0021526     
  -42261956.4365594     
  -41809186.7484052     
  -41386968.7735966     
  -40997434.3591797     
  -40643354.3190753     
  -40328471.4096057     
  -40048742.0322565     
  -40300293.8333258     
  -45474865.0596186     
  -44851750.2200346     
  -44202170.0140722     
  -43548159.0909112     
  -42906363.9347666     
  -42288029.4891621     
  -41699868.3542844     
  -41145305.1699638     
  -40625699.9773072     
  -40141392.9725680     
  -39692607.6405061     
  -39280313.9593254     
  -38908126.0844853     
  -38579579.5628786     
  -39125931.6272632     
  -45107629.9391203     
  -44330115.4817205     
  -43535866.5774480     
  -42752008.2816228     
  -41996959.0275614     
  -41281095.8589594     
  -40608782.4316173     
  -39980556.8930786     
  -39394870.0221141     
  -38849282.3442309     
  -38341303.6970347     
  -37869217.3352387     
  -37432907.1636376     
  -37104707.1337992     
  -37841746.2859594     
  -44767191.4314289     
  -43801482.5008562     
  -42836749.8101930     
  -41906785.5020522     
  -41030464.0731604     
  -40214798.4180903     
  -39459442.4074509     
  -38760389.3901569     
  -38112123.7624184     
  -37508700.9513644     
  -36944313.8547410     
  -36413579.5198394     
  -35911799.3795108     
  -35593762.7629091     
  -36421918.6429099     
  -44446196.2738894     
  -43244680.2436309     
  -42077771.1493988     
  -40986447.3657462     
  -39985465.1454076     
  -39072919.2071035     
  -38240206.4068120     
  -37477027.9230102     
  -36773045.4455556     
  -36118385.7396523     
  -35503669.1733196     
  -34919782.5483677     
  -34357161.3345593     
  -34002098.3616126     
  -34868919.2853646     
  -44127305.6698160     
  -42618939.4873018     
  -41213308.9791541     
  -39954150.6617402     
  -38835663.6089042     
  -37837257.3225343     
  -36938863.5134740     
  -36122778.0138806     
  -35373600.1805591     
  -34677618.7070379     
  -34022111.0220590     
  -33394705.4123785     
  -32782447.5405964     
  -32317310.5757463     
  -33177129.5137490     
  -43765031.3222484     
  -41831592.5258858     
  -40170304.0034260     
  -38764902.0409175     
  -37552695.0409060     
  -36489826.4185757     
  -35544057.4884169     
  -34690841.3155584     
  -33910459.1086161     
  -33186103.8608187     
  -32502457.2254666     
  -31844447.7951322     
  -31197194.0748834     
  -30580152.2048156     
  -31343015.4484490     
  -43120365.0148624     
  -40694721.4797125     
  -38866823.0153439     
  -37375044.3825468     
  -36112074.4297951     
  -35016156.8156226     
  -34047136.8065868     
  -33176285.8060961     
  -32381383.0647127     
  -31643889.2494021     
  -30947046.2945632     
  -30274331.2685230     
  -29607175.0128096     
  -28919709.9480684     
  -29378462.5506549     
SCALARS 2waySource double 
LOOKUP_TABLE default
  0.000000000000000E+000
  0.000000000000000E+000
  0.000000000000000E+000
  0.000000000000000E+000
  0.000000000000000E+000
  0.000000000000000E+000
  0.000000000000000E+000
  0.000000000000000E+000
  0.000000000000000E+000
  0.000000000000000E+000
  0.000000000000000E+000
  0.000000000000000E+000
  0.000000000000000E+000
  0.000000000000000E+000
  0.000000000000000E+000
  0.000000000000000E+000
  0.000000000000000E+000
  0.000000000000000E+000
  0.000000000000000E+000
  0.000000000000000E+000
  0.000000000000000E+000
  0.000000000000000E+000
  0.000000000000000E+000
  0.000000000000000E+000
  0.000000000000000E+000
  0.000000000000000E+000
  0.000000000000000E+000
  0.000000000000000E+000
  0.000000000000000E+000
  0.000000000000000E+000
  0.000000000000000E+000
  0.000000000000000E+000
  0.000000000000000E+000
  0.000000000000000E+000
  0.000000000000000E+000
  0.000000000000000E+000
  0.000000000000000E+000
  0.000000000000000E+000
  0.000000000000000E+000
  0.000000000000000E+000
  0.000000000000000E+000
  0.000000000000000E+000
  0.000000000000000E+000
  0.000000000000000E+000
  0.000000000000000E+000
  0.000000000000000E+000
  0.000000000000000E+000
  0.000000000000000E+000
  0.000000000000000E+000
  0.000000000000000E+000
  0.000000000000000E+000
  0.000000000000000E+000
  0.000000000000000E+000
  0.000000000000000E+000
  0.000000000000000E+000
  0.000000000000000E+000
  0.000000000000000E+000
  0.000000000000000E+000
  0.000000000000000E+000
  0.000000000000000E+000
  0.000000000000000E+000
  0.000000000000000E+000
  0.000000000000000E+000
  0.000000000000000E+000
  0.000000000000000E+000
  0.000000000000000E+000
  0.000000000000000E+000
  0.000000000000000E+000
  0.000000000000000E+000
  0.000000000000000E+000
  0.000000000000000E+000
  0.000000000000000E+000
  0.000000000000000E+000
  0.000000000000000E+000
  0.000000000000000E+000
  0.000000000000000E+000
  0.000000000000000E+000
  0.000000000000000E+000
  0.000000000000000E+000
  0.000000000000000E+000
  0.000000000000000E+000
  0.000000000000000E+000
  0.000000000000000E+000
  0.000000000000000E+000
  0.000000000000000E+000
  0.000000000000000E+000
  0.000000000000000E+000
  0.000000000000000E+000
  0.000000000000000E+000
  0.000000000000000E+000
  0.000000000000000E+000
  0.000000000000000E+000
  0.000000000000000E+000
  0.000000000000000E+000
  0.000000000000000E+000
  0.000000000000000E+000
  0.000000000000000E+000
  0.000000000000000E+000
  0.000000000000000E+000
  0.000000000000000E+000
  0.000000000000000E+000
  0.000000000000000E+000
  0.000000000000000E+000
  0.000000000000000E+000
  0.000000000000000E+000
  0.000000000000000E+000
  0.000000000000000E+000
  0.000000000000000E+000
  0.000000000000000E+000
  0.000000000000000E+000
  0.000000000000000E+000
  0.000000000000000E+000
  0.000000000000000E+000
  0.000000000000000E+000
  0.000000000000000E+000
  0.000000000000000E+000
  0.000000000000000E+000
  0.000000000000000E+000
  0.000000000000000E+000
  0.000000000000000E+000
  0.000000000000000E+000
  0.000000000000000E+000
  0.000000000000000E+000
  0.000000000000000E+000
  0.000000000000000E+000
  0.000000000000000E+000
  0.000000000000000E+000
  0.000000000000000E+000
  0.000000000000000E+000
  0.000000000000000E+000
  0.000000000000000E+000
  0.000000000000000E+000
  0.000000000000000E+000
  0.000000000000000E+000
  0.000000000000000E+000
  0.000000000000000E+000
  0.000000000000000E+000
  0.000000000000000E+000
  0.000000000000000E+000
  0.000000000000000E+000
  0.000000000000000E+000
  0.000000000000000E+000
  0.000000000000000E+000
  0.000000000000000E+000
  0.000000000000000E+000
  0.000000000000000E+000
  0.000000000000000E+000
  0.000000000000000E+000
  0.000000000000000E+000
  0.000000000000000E+000
  0.000000000000000E+000
  0.000000000000000E+000
  0.000000000000000E+000
  0.000000000000000E+000
  0.000000000000000E+000
  0.000000000000000E+000
  0.000000000000000E+000
  0.000000000000000E+000
  0.000000000000000E+000
  0.000000000000000E+000
  0.000000000000000E+000
  0.000000000000000E+000
  0.000000000000000E+000
  0.000000000000000E+000
  0.000000000000000E+000
  0.000000000000000E+000
  0.000000000000000E+000
  0.000000000000000E+000
  0.000000000000000E+000
  0.000000000000000E+000
  0.000000000000000E+000
  0.000000000000000E+000
  0.000000000000000E+000
  0.000000000000000E+000
  0.000000000000000E+000
  0.000000000000000E+000
  0.000000000000000E+000
  0.000000000000000E+000
  0.000000000000000E+000
  0.000000000000000E+000
  0.000000000000000E+000
  0.000000000000000E+000
  0.000000000000000E+000
  0.000000000000000E+000
  0.000000000000000E+000
  0.000000000000000E+000
  0.000000000000000E+000
  0.000000000000000E+000
  0.000000000000000E+000
  0.000000000000000E+000
  0.000000000000000E+000
  0.000000000000000E+000
  0.000000000000000E+000
  0.000000000000000E+000
  0.000000000000000E+000
  0.000000000000000E+000
  0.000000000000000E+000
  0.000000000000000E+000
  0.000000000000000E+000
  0.000000000000000E+000
  0.000000000000000E+000
  0.000000000000000E+000
  0.000000000000000E+000
  0.000000000000000E+000
  0.000000000000000E+000
  0.000000000000000E+000
  0.000000000000000E+000
  0.000000000000000E+000
  0.000000000000000E+000
  0.000000000000000E+000
  0.000000000000000E+000
  0.000000000000000E+000
  0.000000000000000E+000
  0.000000000000000E+000
  0.000000000000000E+000
  0.000000000000000E+000
  0.000000000000000E+000
  0.000000000000000E+000
  0.000000000000000E+000
  0.000000000000000E+000
  0.000000000000000E+000
  0.000000000000000E+000
  0.000000000000000E+000
  0.000000000000000E+000
  0.000000000000000E+000
  0.000000000000000E+000
  0.000000000000000E+000
  0.000000000000000E+000
  0.000000000000000E+000
  0.000000000000000E+000
  0.000000000000000E+000
  0.000000000000000E+000
  0.000000000000000E+000
  0.000000000000000E+000
  0.000000000000000E+000
  0.000000000000000E+000
  0.000000000000000E+000
  0.000000000000000E+000
  0.000000000000000E+000
  0.000000000000000E+000
  0.000000000000000E+000
  0.000000000000000E+000
  0.000000000000000E+000
  0.000000000000000E+000
  0.000000000000000E+000
  0.000000000000000E+000
  0.000000000000000E+000
  0.000000000000000E+000
  0.000000000000000E+000
  0.000000000000000E+000
  0.000000000000000E+000
  0.000000000000000E+000
  0.000000000000000E+000
  0.000000000000000E+000
  0.000000000000000E+000
  0.000000000000000E+000
  0.000000000000000E+000
  0.000000000000000E+000
  0.000000000000000E+000
  0.000000000000000E+000
  0.000000000000000E+000
  0.000000000000000E+000
  0.000000000000000E+000
  0.000000000000000E+000
  0.000000000000000E+000
  0.000000000000000E+000
  0.000000000000000E+000
  0.000000000000000E+000
  0.000000000000000E+000
  0.000000000000000E+000
  0.000000000000000E+000
  0.000000000000000E+000
  0.000000000000000E+000
  0.000000000000000E+000
  0.000000000000000E+000
  0.000000000000000E+000
  0.000000000000000E+000
  0.000000000000000E+000
  0.000000000000000E+000
  0.000000000000000E+000
  0.000000000000000E+000
  0.000000000000000E+000
  0.000000000000000E+000
  0.000000000000000E+000
  0.000000000000000E+000
  0.000000000000000E+000
  0.000000000000000E+000
  0.000000000000000E+000
  0.000000000000000E+000
  0.000000000000000E+000
  0.000000000000000E+000
  0.000000000000000E+000
  0.000000000000000E+000
  0.000000000000000E+000
  0.000000000000000E+000
  0.000000000000000E+000
  0.000000000000000E+000
  0.000000000000000E+000
  0.000000000000000E+000
  0.000000000000000E+000
  0.000000000000000E+000
  0.000000000000000E+000
  0.000000000000000E+000
  0.000000000000000E+000
  0.000000000000000E+000
  0.000000000000000E+000
  0.000000000000000E+000
  0.000000000000000E+000
  0.000000000000000E+000
  0.000000000000000E+000
  0.000000000000000E+000
  0.000000000000000E+000
  0.000000000000000E+000
  0.000000000000000E+000
  0.000000000000000E+000
  0.000000000000000E+000
  0.000000000000000E+000
  0.000000000000000E+000
  0.000000000000000E+000
  0.000000000000000E+000
  0.000000000000000E+000
  0.000000000000000E+000
  0.000000000000000E+000
  0.000000000000000E+000
  0.000000000000000E+000
  0.000000000000000E+000
  0.000000000000000E+000
  0.000000000000000E+000
  0.000000000000000E+000
  0.000000000000000E+000
  0.000000000000000E+000
  0.000000000000000E+000
  0.000000000000000E+000
  0.000000000000000E+000
  0.000000000000000E+000
  0.000000000000000E+000
  0.000000000000000E+000
  0.000000000000000E+000
  0.000000000000000E+000
  0.000000000000000E+000
  0.000000000000000E+000
  0.000000000000000E+000
  0.000000000000000E+000
  0.000000000000000E+000
  0.000000000000000E+000
  0.000000000000000E+000
  0.000000000000000E+000
  0.000000000000000E+000
  0.000000000000000E+000
  0.000000000000000E+000
  0.000000000000000E+000
  0.000000000000000E+000
  0.000000000000000E+000
  0.000000000000000E+000
  0.000000000000000E+000
  0.000000000000000E+000
  0.000000000000000E+000
  0.000000000000000E+000
  0.000000000000000E+000
  0.000000000000000E+000
  0.000000000000000E+000
  0.000000000000000E+000
  0.000000000000000E+000
  0.000000000000000E+000
  0.000000000000000E+000
  0.000000000000000E+000
  0.000000000000000E+000
  0.000000000000000E+000
  0.000000000000000E+000
  0.000000000000000E+000
  0.000000000000000E+000
  0.000000000000000E+000
  0.000000000000000E+000
  0.000000000000000E+000
  0.000000000000000E+000
  0.000000000000000E+000
  0.000000000000000E+000
  0.000000000000000E+000
  0.000000000000000E+000
  0.000000000000000E+000
  0.000000000000000E+000
  0.000000000000000E+000
  0.000000000000000E+000
  0.000000000000000E+000
  0.000000000000000E+000
  0.000000000000000E+000
  0.000000000000000E+000
  0.000000000000000E+000
  0.000000000000000E+000
  0.000000000000000E+000
  0.000000000000000E+000
  0.000000000000000E+000
  0.000000000000000E+000
  0.000000000000000E+000
  0.000000000000000E+000
  0.000000000000000E+000
  0.000000000000000E+000
  0.000000000000000E+000
  0.000000000000000E+000
  0.000000000000000E+000
  0.000000000000000E+000
  0.000000000000000E+000
  0.000000000000000E+000
  0.000000000000000E+000
  0.000000000000000E+000
  0.000000000000000E+000
  0.000000000000000E+000
  0.000000000000000E+000
  0.000000000000000E+000
  0.000000000000000E+000
  0.000000000000000E+000
  0.000000000000000E+000
  0.000000000000000E+000
  0.000000000000000E+000
  0.000000000000000E+000
  0.000000000000000E+000
  0.000000000000000E+000
  0.000000000000000E+000
  0.000000000000000E+000
  0.000000000000000E+000
  0.000000000000000E+000
  0.000000000000000E+000
  0.000000000000000E+000
  0.000000000000000E+000
  0.000000000000000E+000
  0.000000000000000E+000
  0.000000000000000E+000
  0.000000000000000E+000
  0.000000000000000E+000
  0.000000000000000E+000
  0.000000000000000E+000
  0.000000000000000E+000
  0.000000000000000E+000
  0.000000000000000E+000
  0.000000000000000E+000
  0.000000000000000E+000
  0.000000000000000E+000
  0.000000000000000E+000
  0.000000000000000E+000
  0.000000000000000E+000
  0.000000000000000E+000
  0.000000000000000E+000
  0.000000000000000E+000
  0.000000000000000E+000
  0.000000000000000E+000
  0.000000000000000E+000
  0.000000000000000E+000
  0.000000000000000E+000
  0.000000000000000E+000
  0.000000000000000E+000
SCALARS elementIsPlast double 
LOOKUP_TABLE default
   1.00000000000000     
   1.00000000000000     
   1.00000000000000     
   1.00000000000000     
   1.00000000000000     
   1.00000000000000     
   1.00000000000000     
   1.00000000000000     
   1.00000000000000     
  0.000000000000000E+000
  0.000000000000000E+000
  0.000000000000000E+000
  0.000000000000000E+000
  0.000000000000000E+000
  0.000000000000000E+000
   1.00000000000000     
   1.00000000000000     
   1.00000000000000     
   1.00000000000000     
   1.00000000000000     
   1.00000000000000     
   1.00000000000000     
  0.000000000000000E+000
  0.000000000000000E+000
  0.000000000000000E+000
  0.000000000000000E+000
  0.000000000000000E+000
  0.000000000000000E+000
  0.000000000000000E+000
  0.000000000000000E+000
   1.00000000000000     
   1.00000000000000     
   1.00000000000000     
   1.00000000000000     
   1.00000000000000     
  0.000000000000000E+000
  0.000000000000000E+000
  0.000000000000000E+000
  0.000000000000000E+000
  0.000000000000000E+000
  0.000000000000000E+000
  0.000000000000000E+000
  0.000000000000000E+000
  0.000000000000000E+000
  0.000000000000000E+000
  0.000000000000000E+000
  0.000000000000000E+000
  0.000000000000000E+000
  0.000000000000000E+000
  0.000000000000000E+000
  0.000000000000000E+000
  0.000000000000000E+000
  0.000000000000000E+000
  0.000000000000000E+000
  0.000000000000000E+000
  0.000000000000000E+000
  0.000000000000000E+000
  0.000000000000000E+000
  0.000000000000000E+000
  0.000000000000000E+000
  0.000000000000000E+000
  0.000000000000000E+000
  0.000000000000000E+000
  0.000000000000000E+000
  0.000000000000000E+000
  0.000000000000000E+000
  0.000000000000000E+000
  0.000000000000000E+000
  0.000000000000000E+000
  0.000000000000000E+000
  0.000000000000000E+000
  0.000000000000000E+000
  0.000000000000000E+000
  0.000000000000000E+000
  0.000000000000000E+000
  0.000000000000000E+000
  0.000000000000000E+000
  0.000000000000000E+000
  0.000000000000000E+000
  0.000000000000000E+000
  0.000000000000000E+000
  0.000000000000000E+000
  0.000000000000000E+000
  0.000000000000000E+000
  0.000000000000000E+000
  0.000000000000000E+000
  0.000000000000000E+000
  0.000000000000000E+000
  0.000000000000000E+000
  0.000000000000000E+000
  0.000000000000000E+000
  0.000000000000000E+000
  0.000000000000000E+000
  0.000000000000000E+000
  0.000000000000000E+000
  0.000000000000000E+000
  0.000000000000000E+000
  0.000000000000000E+000
  0.000000000000000E+000
  0.000000000000000E+000
  0.000000000000000E+000
  0.000000000000000E+000
  0.000000000000000E+000
  0.000000000000000E+000
  0.000000000000000E+000
  0.000000000000000E+000
  0.000000000000000E+000
  0.000000000000000E+000
  0.000000000000000E+000
  0.000000000000000E+000
  0.000000000000000E+000
  0.000000000000000E+000
  0.000000000000000E+000
  0.000000000000000E+000
  0.000000000000000E+000
  0.000000000000000E+000
  0.000000000000000E+000
  0.000000000000000E+000
  0.000000000000000E+000
  0.000000000000000E+000
  0.000000000000000E+000
  0.000000000000000E+000
  0.000000000000000E+000
  0.000000000000000E+000
  0.000000000000000E+000
  0.000000000000000E+000
  0.000000000000000E+000
  0.000000000000000E+000
  0.000000000000000E+000
  0.000000000000000E+000
  0.000000000000000E+000
  0.000000000000000E+000
  0.000000000000000E+000
  0.000000000000000E+000
  0.000000000000000E+000
  0.000000000000000E+000
  0.000000000000000E+000
  0.000000000000000E+000
  0.000000000000000E+000
  0.000000000000000E+000
  0.000000000000000E+000
  0.000000000000000E+000
  0.000000000000000E+000
  0.000000000000000E+000
  0.000000000000000E+000
  0.000000000000000E+000
  0.000000000000000E+000
  0.000000000000000E+000
  0.000000000000000E+000
  0.000000000000000E+000
  0.000000000000000E+000
  0.000000000000000E+000
  0.000000000000000E+000
  0.000000000000000E+000
  0.000000000000000E+000
  0.000000000000000E+000
  0.000000000000000E+000
  0.000000000000000E+000
  0.000000000000000E+000
  0.000000000000000E+000
  0.000000000000000E+000
  0.000000000000000E+000
  0.000000000000000E+000
  0.000000000000000E+000
  0.000000000000000E+000
  0.000000000000000E+000
  0.000000000000000E+000
  0.000000000000000E+000
  0.000000000000000E+000
  0.000000000000000E+000
  0.000000000000000E+000
  0.000000000000000E+000
  0.000000000000000E+000
  0.000000000000000E+000
  0.000000000000000E+000
  0.000000000000000E+000
  0.000000000000000E+000
  0.000000000000000E+000
  0.000000000000000E+000
  0.000000000000000E+000
  0.000000000000000E+000
  0.000000000000000E+000
  0.000000000000000E+000
  0.000000000000000E+000
  0.000000000000000E+000
  0.000000000000000E+000
  0.000000000000000E+000
  0.000000000000000E+000
  0.000000000000000E+000
  0.000000000000000E+000
  0.000000000000000E+000
  0.000000000000000E+000
  0.000000000000000E+000
  0.000000000000000E+000
  0.000000000000000E+000
  0.000000000000000E+000
  0.000000000000000E+000
  0.000000000000000E+000
  0.000000000000000E+000
  0.000000000000000E+000
  0.000000000000000E+000
  0.000000000000000E+000
  0.000000000000000E+000
  0.000000000000000E+000
  0.000000000000000E+000
  0.000000000000000E+000
  0.000000000000000E+000
  0.000000000000000E+000
  0.000000000000000E+000
  0.000000000000000E+000
  0.000000000000000E+000
  0.000000000000000E+000
  0.000000000000000E+000
  0.000000000000000E+000
  0.000000000000000E+000
  0.000000000000000E+000
  0.000000000000000E+000
  0.000000000000000E+000
  0.000000000000000E+000
  0.000000000000000E+000
  0.000000000000000E+000
  0.000000000000000E+000
  0.000000000000000E+000
  0.000000000000000E+000
  0.000000000000000E+000
  0.000000000000000E+000
  0.000000000000000E+000
  0.000000000000000E+000
  0.000000000000000E+000
  0.000000000000000E+000
  0.000000000000000E+000
  0.000000000000000E+000
  0.000000000000000E+000
  0.000000000000000E+000
  0.000000000000000E+000
  0.000000000000000E+000
  0.000000000000000E+000
  0.000000000000000E+000
  0.000000000000000E+000
  0.000000000000000E+000
  0.000000000000000E+000
  0.000000000000000E+000
  0.000000000000000E+000
  0.000000000000000E+000
  0.000000000000000E+000
  0.000000000000000E+000
  0.000000000000000E+000
  0.000000000000000E+000
  0.000000000000000E+000
  0.000000000000000E+000
  0.000000000000000E+000
  0.000000000000000E+000
  0.000000000000000E+000
  0.000000000000000E+000
  0.000000000000000E+000
  0.000000000000000E+000
  0.000000000000000E+000
  0.000000000000000E+000
  0.000000000000000E+000
  0.000000000000000E+000
  0.000000000000000E+000
  0.000000000000000E+000
  0.000000000000000E+000
  0.000000000000000E+000
  0.000000000000000E+000
  0.000000000000000E+000
  0.000000000000000E+000
  0.000000000000000E+000
  0.000000000000000E+000
  0.000000000000000E+000
  0.000000000000000E+000
  0.000000000000000E+000
  0.000000000000000E+000
  0.000000000000000E+000
  0.000000000000000E+000
  0.000000000000000E+000
  0.000000000000000E+000
  0.000000000000000E+000
  0.000000000000000E+000
  0.000000000000000E+000
  0.000000000000000E+000
  0.000000000000000E+000
  0.000000000000000E+000
  0.000000000000000E+000
  0.000000000000000E+000
  0.000000000000000E+000
  0.000000000000000E+000
  0.000000000000000E+000
  0.000000000000000E+000
  0.000000000000000E+000
  0.000000000000000E+000
  0.000000000000000E+000
  0.000000000000000E+000
  0.000000000000000E+000
  0.000000000000000E+000
  0.000000000000000E+000
  0.000000000000000E+000
  0.000000000000000E+000
  0.000000000000000E+000
  0.000000000000000E+000
  0.000000000000000E+000
  0.000000000000000E+000
  0.000000000000000E+000
  0.000000000000000E+000
  0.000000000000000E+000
  0.000000000000000E+000
  0.000000000000000E+000
  0.000000000000000E+000
  0.000000000000000E+000
  0.000000000000000E+000
  0.000000000000000E+000
  0.000000000000000E+000
  0.000000000000000E+000
  0.000000000000000E+000
  0.000000000000000E+000
  0.000000000000000E+000
  0.000000000000000E+000
  0.000000000000000E+000
  0.000000000000000E+000
  0.000000000000000E+000
  0.000000000000000E+000
  0.000000000000000E+000
  0.000000000000000E+000
  0.000000000000000E+000
  0.000000000000000E+000
  0.000000000000000E+000
  0.000000000000000E+000
  0.000000000000000E+000
  0.000000000000000E+000
  0.000000000000000E+000
  0.000000000000000E+000
  0.000000000000000E+000
  0.000000000000000E+000
  0.000000000000000E+000
  0.000000000000000E+000
  0.000000000000000E+000
  0.000000000000000E+000
  0.000000000000000E+000
  0.000000000000000E+000
  0.000000000000000E+000
  0.000000000000000E+000
  0.000000000000000E+000
  0.000000000000000E+000
  0.000000000000000E+000
  0.000000000000000E+000
  0.000000000000000E+000
  0.000000000000000E+000
  0.000000000000000E+000
  0.000000000000000E+000
  0.000000000000000E+000
  0.000000000000000E+000
  0.000000000000000E+000
  0.000000000000000E+000
  0.000000000000000E+000
  0.000000000000000E+000
  0.000000000000000E+000
  0.000000000000000E+000
  0.000000000000000E+000
  0.000000000000000E+000
  0.000000000000000E+000
  0.000000000000000E+000
  0.000000000000000E+000
  0.000000000000000E+000
  0.000000000000000E+000
  0.000000000000000E+000
  0.000000000000000E+000
  0.000000000000000E+000
  0.000000000000000E+000
  0.000000000000000E+000
  0.000000000000000E+000
  0.000000000000000E+000
  0.000000000000000E+000
  0.000000000000000E+000
  0.000000000000000E+000
  0.000000000000000E+000
  0.000000000000000E+000
  0.000000000000000E+000
  0.000000000000000E+000
  0.000000000000000E+000
  0.000000000000000E+000
  0.000000000000000E+000
  0.000000000000000E+000
  0.000000000000000E+000
  0.000000000000000E+000
  0.000000000000000E+000
  0.000000000000000E+000
  0.000000000000000E+000
  0.000000000000000E+000
  0.000000000000000E+000
  0.000000000000000E+000
  0.000000000000000E+000
  0.000000000000000E+000
  0.000000000000000E+000
  0.000000000000000E+000
  0.000000000000000E+000
  0.000000000000000E+000
  0.000000000000000E+000
  0.000000000000000E+000
  0.000000000000000E+000
  0.000000000000000E+000
  0.000000000000000E+000
  0.000000000000000E+000
  0.000000000000000E+000
  0.000000000000000E+000
  0.000000000000000E+000
  0.000000000000000E+000
  0.000000000000000E+000
  0.000000000000000E+000
  0.000000000000000E+000
  0.000000000000000E+000
  0.000000000000000E+000
  0.000000000000000E+000
  0.000000000000000E+000
  0.000000000000000E+000
  0.000000000000000E+000
  0.000000000000000E+000
  0.000000000000000E+000
  0.000000000000000E+000
  0.000000000000000E+000
  0.000000000000000E+000
  0.000000000000000E+000
  0.000000000000000E+000
  0.000000000000000E+000
  0.000000000000000E+000
  0.000000000000000E+000
  0.000000000000000E+000
  0.000000000000000E+000
  0.000000000000000E+000
  0.000000000000000E+000
  0.000000000000000E+000
  0.000000000000000E+000
  0.000000000000000E+000
  0.000000000000000E+000
  0.000000000000000E+000
  0.000000000000000E+000
  0.000000000000000E+000
  0.000000000000000E+000
  0.000000000000000E+000
  0.000000000000000E+000
  0.000000000000000E+000
  0.000000000000000E+000
  0.000000000000000E+000
  0.000000000000000E+000
  0.000000000000000E+000
  0.000000000000000E+000
  0.000000000000000E+000
  0.000000000000000E+000
  0.000000000000000E+000
  0.000000000000000E+000
  0.000000000000000E+000
SCALARS poroL double 
LOOKUP_TABLE default
  0.276557117076544     
  0.274990096392452     
  0.272580434864238     
  0.269854494775623     
  0.267144985473792     
  0.264592423951459     
  0.262219034202798     
  0.260084153746170     
  0.258423843957233     
  0.257416398696833     
  0.256675429561254     
  0.256051558400854     
  0.255490211599989     
  0.254949023973549     
  0.254353759089257     
  0.268007600048346     
  0.265915087664857     
  0.264434397260658     
  0.263149961986704     
  0.261799706866904     
  0.260392864718491     
  0.259120698517256     
  0.258198253593583     
  0.257481400168870     
  0.256757184868034     
  0.256093229805484     
  0.255511486607256     
  0.254983384097013     
  0.254484348678357     
  0.254019412245154     
  0.260974928730281     
  0.259700717023808     
  0.258929065538408     
  0.258399825380958     
  0.258045909898497     
  0.257810106015387     
  0.257531119339190     
  0.257094781995478     
  0.256548162689143     
  0.255980395739667     
  0.255429806921463     
  0.254916761346670     
  0.254444690333576     
  0.254012104990857     
  0.253625809913490     
  0.257972831917221     
  0.257597977282735     
  0.257275506565548     
  0.257079202253916     
  0.256928394507728     
  0.256712359271270     
  0.256421051135358     
  0.256057192736870     
  0.255630664381570     
  0.255173060441451     
  0.254716065025510     
  0.254278020466648     
  0.253869250695826     
  0.253496644742282     
  0.253168611763371     
  0.256602573692061     
  0.256391204100893     
  0.256237727257620     
  0.256076783879001     
  0.255887880903424     
  0.255668487357997     
  0.255401560302098     
  0.255086730848287     
  0.254733489870516     
  0.254357426749753     
  0.253976467554726     
  0.253605787450002     
  0.253256253045207     
  0.252936315276861     
  0.252653710268805     
  0.255514079306179     
  0.255396072795561     
  0.255241273692711     
  0.255072107325960     
  0.254884746423917     
  0.254671454192589     
  0.254428415845312     
  0.254154717245514     
  0.253855704094774     
  0.253540901167435     
  0.253221537969118     
  0.252908439245856     
  0.252610842159191     
  0.252336330164943     
  0.252091219676910     
  0.254563564373167     
  0.254407658193574     
  0.254251143644385     
  0.254083134929798     
  0.253901636597823     
  0.253702842464664     
  0.253484070163010     
  0.253245554576575     
  0.252990520827467     
  0.252724904278410     
  0.252456109688577     
  0.252191791220803     
  0.251939009144493     
  0.251703814769992     
  0.251491046702852     
  0.253593621582477     
  0.253426323033996     
  0.253265694305750     
  0.253102871157088     
  0.252932292320006     
  0.252750838415108     
  0.252556708774414     
  0.252349931330462     
  0.252132573268893     
  0.251908426028967     
  0.251682421925165     
  0.251459915826290     
  0.251246074960090     
  0.251045439610853     
  0.250861596080108     
  0.252600643979993     
  0.252435748063017     
  0.252279785937562     
  0.252126134567621     
  0.251969935634035     
  0.251807985921166     
  0.251638605953384     
  0.251461538708386     
  0.251277942214125     
  0.251090204835098     
  0.250901580086600     
  0.250715745576124     
  0.250536370916549     
  0.250366750434693     
  0.250209500698632     
  0.251586367446571     
  0.251432298053362     
  0.251287765394329     
  0.251148107015449     
  0.251009397308202     
  0.250868781047728     
  0.250724536457653     
  0.250576069160223     
  0.250423842720355     
  0.250269235431273     
  0.250114305423244     
  0.249961497220782     
  0.249813338132858     
  0.249672158714404     
  0.249539855093221     
  0.250552735541150     
  0.250414698457838     
  0.250286596966149     
  0.250164990228633     
  0.250046719412257     
  0.249929248998604     
  0.249810836561539     
  0.249690580710727     
  0.249568390407111     
  0.249444885079567     
  0.249321236223555     
  0.249198968371348     
  0.249079745605633     
  0.248965168577227     
  0.248856601099317     
  0.249500734159042     
  0.249382269933879     
  0.249274332285651     
  0.249174145769376     
  0.249078997760595     
  0.248986540116751     
  0.248894969565293     
  0.248803109030704     
  0.248710410877134     
  0.248616899495063     
  0.248523066861766     
  0.248429736857661     
  0.248337916288345     
  0.248248651006629     
  0.248162904055193     
  0.248430410359702     
  0.248334233391211     
  0.248249498481714     
  0.248173661155666     
  0.248104160905782     
  0.248038666963560     
  0.247975243224624     
  0.247912437219900     
  0.247849304756754     
  0.247785382911922     
  0.247720624213898     
  0.247655305072565     
  0.247589922267980     
  0.247525091751453     
  0.247461463876849     
  0.247340954151785     
  0.247269528695019     
  0.247210780281185     
  0.247162067284613     
  0.247120733532687     
  0.247084303979761     
  0.247050624818010     
  0.247017947167259     
  0.246984960049213     
  0.246950781756838     
  0.246914919798937     
  0.246877209620567     
  0.246837742269610     
  0.246796791711271     
  0.246754753705277     
  0.246230847701822     
  0.246186789791509     
  0.246156895415637     
  0.246138175797587     
  0.246127678872929     
  0.246122644473540     
  0.246120618889785     
  0.246119526086023     
  0.246117699172743     
  0.246113879624690     
  0.246107192845670     
  0.246097107521729     
  0.246083384245585     
  0.246066019613859     
  0.246045195320297     
  0.245098029014768     
  0.245084399346441     
  0.245086570591504     
  0.245101012213041     
  0.245124315355938     
  0.245153317782443     
  0.245185194742292     
  0.245217513153281     
  0.245248252930906     
  0.245275804313312     
  0.245298951276176     
  0.245316846739482     
  0.245328978708300     
  0.245335121920891     
  0.245335281518540     
  0.243940055181354     
  0.243960582285601     
  0.243998579717514     
  0.244049816392316     
  0.244110295439143     
  0.244176358590442     
  0.244244755561993     
  0.244312676706932     
  0.244377754488427     
  0.244438046084795     
  0.244492015899493     
  0.244538530130298     
  0.244576849331247     
  0.244606592876746     
  0.244627647495765     
  0.242754258396224     
  0.242813521666903     
  0.242891824282827     
  0.242984094184981     
  0.243085635246930     
  0.243192220524909     
  0.243300141553187     
  0.243406213406951     
  0.243507743826699     
  0.243602482304122     
  0.243688576346186     
  0.243764588582924     
  0.243829576772329     
  0.243883097337489     
  0.243925074691003     
  0.241537893857749     
  0.241641491117204     
  0.241765448545513     
  0.241903713445779     
  0.242050789629153     
  0.242201829192517     
  0.242352661391028     
  0.242499761109410     
  0.242640169405538     
  0.242771385938941     
  0.242891257449221     
  0.242997924562097     
  0.243090087341203     
  0.243167448658879     
  0.243230334616838     
  0.240288281142407     
  0.240443005693084     
  0.240618991800545     
  0.240809046760284     
  0.241006774275182     
  0.241206674756278     
  0.241404149699219     
  0.241595419264679     
  0.241777373958397     
  0.241947384559735     
  0.242103094898714     
  0.242242175464128     
  0.242362188317405     
  0.242462361689334     
  0.242545631778972     
  0.239002942413642     
  0.239217000435860     
  0.239452590182971     
  0.239701173240298     
  0.239955344566800     
  0.240208949867012     
  0.240457052494392     
  0.240695775426808     
  0.240922056903395     
  0.241133355111856     
  0.241327320651624     
  0.241501453201189     
  0.241652121356468     
  0.241773064391082     
  0.241867762785416     
  0.237679743823900     
  0.237963056651893     
  0.238267254585879     
  0.238582164729019     
  0.238899250057962     
  0.239211744063294     
  0.239514545986233     
  0.239803940859187     
  0.240077219853415     
  0.240332256185635     
  0.240567060574276     
  0.240779316844878     
  0.240966224362476     
  0.241118307838355     
  0.241183136094968     
  0.236317053410098     
  0.236681715648002     
  0.237065274726600     
  0.237455500641342     
  0.237842593566937     
  0.238219308249928     
  0.238580693167679     
  0.238923599545075     
  0.239246106484807     
  0.239546947400157     
  0.239824956172661     
  0.240078493939665     
  0.240305227321003     
  0.240508747920441     
  0.240501867637281     
  0.234913945477887     
  0.235374959504841     
  0.235850843120704     
  0.236326684375172     
  0.236791332697628     
  0.237237396939803     
  0.237660632049841     
  0.238059066893872     
  0.238432149764187     
  0.238780021109249     
  0.239102886160395     
  0.239400416120486     
  0.239670379150287     
  0.239911311286841     
  0.239829712762520     
  0.233470518369932     
  0.234047030059182     
  0.234631077159137     
  0.235204178416282     
  0.235753958169806     
  0.236273669582246     
  0.236760761081372     
  0.237215335055150     
  0.237638928349377     
  0.238033679132513     
  0.238401750192698     
  0.238744763657774     
  0.239063250676806     
  0.239330538165065     
  0.239207687814094     
  0.231988509931688     
  0.232705965353785     
  0.233417805321416     
  0.234100817659639     
  0.234742336403105     
  0.235338057408246     
  0.235888834803888     
  0.236398054005300     
  0.236870116083255     
  0.237309691459038     
  0.237721342361278     
  0.238109354639785     
  0.238477610417884     
  0.238770944298304     
  0.238647752777043     
  0.230472630623674     
  0.231366928598539     
  0.232230788969924     
  0.233035856483104     
  0.233772479215017     
  0.234442847916296     
  0.235053825511768     
  0.235613372751543     
  0.236129396568074     
  0.236609422192297     
  0.237060605422686     
  0.237489932890727     
  0.237904801860686     
  0.238240482535414     
  0.238142146534947     
  0.228935035600358     
  0.230059838674920     
  0.231103938689983     
  0.232036982612373     
  0.232864411558905     
  0.233602124177863     
  0.234265382423335     
  0.234867571253944     
  0.235420304595077     
  0.235933915507857     
  0.236417998424017     
  0.236881898212358     
  0.237335405379431     
  0.237738833788830     
  0.237690272543657     
  0.227409024286049     
  0.228853887631406     
  0.230092368052043     
  0.231138643014023     
  0.232040237332212     
  0.232830212241761     
  0.233532810189695     
  0.234166466337911     
  0.234745981835968     
  0.235283972054484     
  0.235791938218068     
  0.236281195877783     
  0.236762898256772     
  0.237243093978674     
  0.237286587448719     
  0.226074028476816     
  0.227891125333434     
  0.229259194831120     
  0.230375229992055     
  0.231319796841396     
  0.232139241433289     
  0.232863685533179     
  0.233514675412418     
  0.234108875291811     
  0.234660189097058     
  0.235181185664136     
  0.235684254442137     
  0.236183312820351     
  0.236697718044930     
  0.236914020982191     
