# vtk DataFile Version 3.0
vtk output
ASCII
DATASET UNSTRUCTURED_GRID
POINTS       496 double 
  0.00000000E+00  3.00000000E+02  0.00000000E+00
  0.00000000E+00  2.80000000E+02  0.00000000E+00
  0.00000000E+00  2.60000000E+02  0.00000000E+00
  0.00000000E+00  2.40000000E+02  0.00000000E+00
  0.00000000E+00  2.20000000E+02  0.00000000E+00
  0.00000000E+00  2.00000000E+02  0.00000000E+00
  0.00000000E+00  1.80000000E+02  0.00000000E+00
  0.00000000E+00  1.60000000E+02  0.00000000E+00
  0.00000000E+00  1.40000000E+02  0.00000000E+00
  0.00000000E+00  1.20000000E+02  0.00000000E+00
  0.00000000E+00  1.00000000E+02  0.00000000E+00
  0.00000000E+00  8.00000000E+01  0.00000000E+00
  0.00000000E+00  6.00000000E+01  0.00000000E+00
  0.00000000E+00  4.00000000E+01  0.00000000E+00
  0.00000000E+00  2.00000000E+01  0.00000000E+00
  0.00000000E+00  4.99600361E-14  0.00000000E+00
  2.00000000E+01  3.00000000E+02  0.00000000E+00
  2.00000000E+01  2.80000000E+02  0.00000000E+00
  2.00000000E+01  2.60000000E+02  0.00000000E+00
  2.00000000E+01  2.40000000E+02  0.00000000E+00
  2.00000000E+01  2.20000000E+02  0.00000000E+00
  2.00000000E+01  2.00000000E+02  0.00000000E+00
  2.00000000E+01  1.80000000E+02  0.00000000E+00
  2.00000000E+01  1.60000000E+02  0.00000000E+00
  2.00000000E+01  1.40000000E+02  0.00000000E+00
  2.00000000E+01  1.20000000E+02  0.00000000E+00
  2.00000000E+01  1.00000000E+02  0.00000000E+00
  2.00000000E+01  8.00000000E+01  0.00000000E+00
  2.00000000E+01  6.00000000E+01  0.00000000E+00
  2.00000000E+01  4.00000000E+01  0.00000000E+00
  2.00000000E+01  2.00000000E+01  0.00000000E+00
  2.00000000E+01  4.99600361E-14  0.00000000E+00
  4.00000000E+01  3.00000000E+02  0.00000000E+00
  4.00000000E+01  2.80000000E+02  0.00000000E+00
  4.00000000E+01  2.60000000E+02  0.00000000E+00
  4.00000000E+01  2.40000000E+02  0.00000000E+00
  4.00000000E+01  2.20000000E+02  0.00000000E+00
  4.00000000E+01  2.00000000E+02  0.00000000E+00
  4.00000000E+01  1.80000000E+02  0.00000000E+00
  4.00000000E+01  1.60000000E+02  0.00000000E+00
  4.00000000E+01  1.40000000E+02  0.00000000E+00
  4.00000000E+01  1.20000000E+02  0.00000000E+00
  4.00000000E+01  1.00000000E+02  0.00000000E+00
  4.00000000E+01  8.00000000E+01  0.00000000E+00
  4.00000000E+01  6.00000000E+01  0.00000000E+00
  4.00000000E+01  4.00000000E+01  0.00000000E+00
  4.00000000E+01  2.00000000E+01  0.00000000E+00
  4.00000000E+01  4.99600361E-14  0.00000000E+00
  6.00000000E+01  3.00000000E+02  0.00000000E+00
  6.00000000E+01  2.80000000E+02  0.00000000E+00
  6.00000000E+01  2.60000000E+02  0.00000000E+00
  6.00000000E+01  2.40000000E+02  0.00000000E+00
  6.00000000E+01  2.20000000E+02  0.00000000E+00
  6.00000000E+01  2.00000000E+02  0.00000000E+00
  6.00000000E+01  1.80000000E+02  0.00000000E+00
  6.00000000E+01  1.60000000E+02  0.00000000E+00
  6.00000000E+01  1.40000000E+02  0.00000000E+00
  6.00000000E+01  1.20000000E+02  0.00000000E+00
  6.00000000E+01  1.00000000E+02  0.00000000E+00
  6.00000000E+01  8.00000000E+01  0.00000000E+00
  6.00000000E+01  6.00000000E+01  0.00000000E+00
  6.00000000E+01  4.00000000E+01  0.00000000E+00
  6.00000000E+01  2.00000000E+01  0.00000000E+00
  6.00000000E+01  4.99600361E-14  0.00000000E+00
  8.00000000E+01  3.00000000E+02  0.00000000E+00
  8.00000000E+01  2.80000000E+02  0.00000000E+00
  8.00000000E+01  2.60000000E+02  0.00000000E+00
  8.00000000E+01  2.40000000E+02  0.00000000E+00
  8.00000000E+01  2.20000000E+02  0.00000000E+00
  8.00000000E+01  2.00000000E+02  0.00000000E+00
  8.00000000E+01  1.80000000E+02  0.00000000E+00
  8.00000000E+01  1.60000000E+02  0.00000000E+00
  8.00000000E+01  1.40000000E+02  0.00000000E+00
  8.00000000E+01  1.20000000E+02  0.00000000E+00
  8.00000000E+01  1.00000000E+02  0.00000000E+00
  8.00000000E+01  8.00000000E+01  0.00000000E+00
  8.00000000E+01  6.00000000E+01  0.00000000E+00
  8.00000000E+01  4.00000000E+01  0.00000000E+00
  8.00000000E+01  2.00000000E+01  0.00000000E+00
  8.00000000E+01  4.99600361E-14  0.00000000E+00
  1.00000000E+02  3.00000000E+02  0.00000000E+00
  1.00000000E+02  2.80000000E+02  0.00000000E+00
  1.00000000E+02  2.60000000E+02  0.00000000E+00
  1.00000000E+02  2.40000000E+02  0.00000000E+00
  1.00000000E+02  2.20000000E+02  0.00000000E+00
  1.00000000E+02  2.00000000E+02  0.00000000E+00
  1.00000000E+02  1.80000000E+02  0.00000000E+00
  1.00000000E+02  1.60000000E+02  0.00000000E+00
  1.00000000E+02  1.40000000E+02  0.00000000E+00
  1.00000000E+02  1.20000000E+02  0.00000000E+00
  1.00000000E+02  1.00000000E+02  0.00000000E+00
  1.00000000E+02  8.00000000E+01  0.00000000E+00
  1.00000000E+02  6.00000000E+01  0.00000000E+00
  1.00000000E+02  4.00000000E+01  0.00000000E+00
  1.00000000E+02  2.00000000E+01  0.00000000E+00
  1.00000000E+02  4.99600361E-14  0.00000000E+00
  1.20000000E+02  3.00000000E+02  0.00000000E+00
  1.20000000E+02  2.80000000E+02  0.00000000E+00
  1.20000000E+02  2.60000000E+02  0.00000000E+00
  1.20000000E+02  2.40000000E+02  0.00000000E+00
  1.20000000E+02  2.20000000E+02  0.00000000E+00
  1.20000000E+02  2.00000000E+02  0.00000000E+00
  1.20000000E+02  1.80000000E+02  0.00000000E+00
  1.20000000E+02  1.60000000E+02  0.00000000E+00
  1.20000000E+02  1.40000000E+02  0.00000000E+00
  1.20000000E+02  1.20000000E+02  0.00000000E+00
  1.20000000E+02  1.00000000E+02  0.00000000E+00
  1.20000000E+02  8.00000000E+01  0.00000000E+00
  1.20000000E+02  6.00000000E+01  0.00000000E+00
  1.20000000E+02  4.00000000E+01  0.00000000E+00
  1.20000000E+02  2.00000000E+01  0.00000000E+00
  1.20000000E+02  4.99600361E-14  0.00000000E+00
  1.40000000E+02  3.00000000E+02  0.00000000E+00
  1.40000000E+02  2.80000000E+02  0.00000000E+00
  1.40000000E+02  2.60000000E+02  0.00000000E+00
  1.40000000E+02  2.40000000E+02  0.00000000E+00
  1.40000000E+02  2.20000000E+02  0.00000000E+00
  1.40000000E+02  2.00000000E+02  0.00000000E+00
  1.40000000E+02  1.80000000E+02  0.00000000E+00
  1.40000000E+02  1.60000000E+02  0.00000000E+00
  1.40000000E+02  1.40000000E+02  0.00000000E+00
  1.40000000E+02  1.20000000E+02  0.00000000E+00
  1.40000000E+02  1.00000000E+02  0.00000000E+00
  1.40000000E+02  8.00000000E+01  0.00000000E+00
  1.40000000E+02  6.00000000E+01  0.00000000E+00
  1.40000000E+02  4.00000000E+01  0.00000000E+00
  1.40000000E+02  2.00000000E+01  0.00000000E+00
  1.40000000E+02  4.99600361E-14  0.00000000E+00
  1.60000000E+02  3.00000000E+02  0.00000000E+00
  1.60000000E+02  2.80000000E+02  0.00000000E+00
  1.60000000E+02  2.60000000E+02  0.00000000E+00
  1.60000000E+02  2.40000000E+02  0.00000000E+00
  1.60000000E+02  2.20000000E+02  0.00000000E+00
  1.60000000E+02  2.00000000E+02  0.00000000E+00
  1.60000000E+02  1.80000000E+02  0.00000000E+00
  1.60000000E+02  1.60000000E+02  0.00000000E+00
  1.60000000E+02  1.40000000E+02  0.00000000E+00
  1.60000000E+02  1.20000000E+02  0.00000000E+00
  1.60000000E+02  1.00000000E+02  0.00000000E+00
  1.60000000E+02  8.00000000E+01  0.00000000E+00
  1.60000000E+02  6.00000000E+01  0.00000000E+00
  1.60000000E+02  4.00000000E+01  0.00000000E+00
  1.60000000E+02  2.00000000E+01  0.00000000E+00
  1.60000000E+02  4.99600361E-14  0.00000000E+00
  1.80000000E+02  3.00000000E+02  0.00000000E+00
  1.80000000E+02  2.80000000E+02  0.00000000E+00
  1.80000000E+02  2.60000000E+02  0.00000000E+00
  1.80000000E+02  2.40000000E+02  0.00000000E+00
  1.80000000E+02  2.20000000E+02  0.00000000E+00
  1.80000000E+02  2.00000000E+02  0.00000000E+00
  1.80000000E+02  1.80000000E+02  0.00000000E+00
  1.80000000E+02  1.60000000E+02  0.00000000E+00
  1.80000000E+02  1.40000000E+02  0.00000000E+00
  1.80000000E+02  1.20000000E+02  0.00000000E+00
  1.80000000E+02  1.00000000E+02  0.00000000E+00
  1.80000000E+02  8.00000000E+01  0.00000000E+00
  1.80000000E+02  6.00000000E+01  0.00000000E+00
  1.80000000E+02  4.00000000E+01  0.00000000E+00
  1.80000000E+02  2.00000000E+01  0.00000000E+00
  1.80000000E+02  4.99600361E-14  0.00000000E+00
  2.00000000E+02  3.00000000E+02  0.00000000E+00
  2.00000000E+02  2.80000000E+02  0.00000000E+00
  2.00000000E+02  2.60000000E+02  0.00000000E+00
  2.00000000E+02  2.40000000E+02  0.00000000E+00
  2.00000000E+02  2.20000000E+02  0.00000000E+00
  2.00000000E+02  2.00000000E+02  0.00000000E+00
  2.00000000E+02  1.80000000E+02  0.00000000E+00
  2.00000000E+02  1.60000000E+02  0.00000000E+00
  2.00000000E+02  1.40000000E+02  0.00000000E+00
  2.00000000E+02  1.20000000E+02  0.00000000E+00
  2.00000000E+02  1.00000000E+02  0.00000000E+00
  2.00000000E+02  8.00000000E+01  0.00000000E+00
  2.00000000E+02  6.00000000E+01  0.00000000E+00
  2.00000000E+02  4.00000000E+01  0.00000000E+00
  2.00000000E+02  2.00000000E+01  0.00000000E+00
  2.00000000E+02  4.99600361E-14  0.00000000E+00
  2.20000000E+02  3.00000000E+02  0.00000000E+00
  2.20000000E+02  2.80000000E+02  0.00000000E+00
  2.20000000E+02  2.60000000E+02  0.00000000E+00
  2.20000000E+02  2.40000000E+02  0.00000000E+00
  2.20000000E+02  2.20000000E+02  0.00000000E+00
  2.20000000E+02  2.00000000E+02  0.00000000E+00
  2.20000000E+02  1.80000000E+02  0.00000000E+00
  2.20000000E+02  1.60000000E+02  0.00000000E+00
  2.20000000E+02  1.40000000E+02  0.00000000E+00
  2.20000000E+02  1.20000000E+02  0.00000000E+00
  2.20000000E+02  1.00000000E+02  0.00000000E+00
  2.20000000E+02  8.00000000E+01  0.00000000E+00
  2.20000000E+02  6.00000000E+01  0.00000000E+00
  2.20000000E+02  4.00000000E+01  0.00000000E+00
  2.20000000E+02  2.00000000E+01  0.00000000E+00
  2.20000000E+02  4.99600361E-14  0.00000000E+00
  2.40000000E+02  3.00000000E+02  0.00000000E+00
  2.40000000E+02  2.80000000E+02  0.00000000E+00
  2.40000000E+02  2.60000000E+02  0.00000000E+00
  2.40000000E+02  2.40000000E+02  0.00000000E+00
  2.40000000E+02  2.20000000E+02  0.00000000E+00
  2.40000000E+02  2.00000000E+02  0.00000000E+00
  2.40000000E+02  1.80000000E+02  0.00000000E+00
  2.40000000E+02  1.60000000E+02  0.00000000E+00
  2.40000000E+02  1.40000000E+02  0.00000000E+00
  2.40000000E+02  1.20000000E+02  0.00000000E+00
  2.40000000E+02  1.00000000E+02  0.00000000E+00
  2.40000000E+02  8.00000000E+01  0.00000000E+00
  2.40000000E+02  6.00000000E+01  0.00000000E+00
  2.40000000E+02  4.00000000E+01  0.00000000E+00
  2.40000000E+02  2.00000000E+01  0.00000000E+00
  2.40000000E+02  4.99600361E-14  0.00000000E+00
  2.60000000E+02  3.00000000E+02  0.00000000E+00
  2.60000000E+02  2.80000000E+02  0.00000000E+00
  2.60000000E+02  2.60000000E+02  0.00000000E+00
  2.60000000E+02  2.40000000E+02  0.00000000E+00
  2.60000000E+02  2.20000000E+02  0.00000000E+00
  2.60000000E+02  2.00000000E+02  0.00000000E+00
  2.60000000E+02  1.80000000E+02  0.00000000E+00
  2.60000000E+02  1.60000000E+02  0.00000000E+00
  2.60000000E+02  1.40000000E+02  0.00000000E+00
  2.60000000E+02  1.20000000E+02  0.00000000E+00
  2.60000000E+02  1.00000000E+02  0.00000000E+00
  2.60000000E+02  8.00000000E+01  0.00000000E+00
  2.60000000E+02  6.00000000E+01  0.00000000E+00
  2.60000000E+02  4.00000000E+01  0.00000000E+00
  2.60000000E+02  2.00000000E+01  0.00000000E+00
  2.60000000E+02  4.99600361E-14  0.00000000E+00
  2.80000000E+02  3.00000000E+02  0.00000000E+00
  2.80000000E+02  2.80000000E+02  0.00000000E+00
  2.80000000E+02  2.60000000E+02  0.00000000E+00
  2.80000000E+02  2.40000000E+02  0.00000000E+00
  2.80000000E+02  2.20000000E+02  0.00000000E+00
  2.80000000E+02  2.00000000E+02  0.00000000E+00
  2.80000000E+02  1.80000000E+02  0.00000000E+00
  2.80000000E+02  1.60000000E+02  0.00000000E+00
  2.80000000E+02  1.40000000E+02  0.00000000E+00
  2.80000000E+02  1.20000000E+02  0.00000000E+00
  2.80000000E+02  1.00000000E+02  0.00000000E+00
  2.80000000E+02  8.00000000E+01  0.00000000E+00
  2.80000000E+02  6.00000000E+01  0.00000000E+00
  2.80000000E+02  4.00000000E+01  0.00000000E+00
  2.80000000E+02  2.00000000E+01  0.00000000E+00
  2.80000000E+02  4.99600361E-14  0.00000000E+00
  3.00000000E+02  3.00000000E+02  0.00000000E+00
  3.00000000E+02  2.80000000E+02  0.00000000E+00
  3.00000000E+02  2.60000000E+02  0.00000000E+00
  3.00000000E+02  2.40000000E+02  0.00000000E+00
  3.00000000E+02  2.20000000E+02  0.00000000E+00
  3.00000000E+02  2.00000000E+02  0.00000000E+00
  3.00000000E+02  1.80000000E+02  0.00000000E+00
  3.00000000E+02  1.60000000E+02  0.00000000E+00
  3.00000000E+02  1.40000000E+02  0.00000000E+00
  3.00000000E+02  1.20000000E+02  0.00000000E+00
  3.00000000E+02  1.00000000E+02  0.00000000E+00
  3.00000000E+02  8.00000000E+01  0.00000000E+00
  3.00000000E+02  6.00000000E+01  0.00000000E+00
  3.00000000E+02  4.00000000E+01  0.00000000E+00
  3.00000000E+02  2.00000000E+01  0.00000000E+00
  3.00000000E+02  4.99600361E-14  0.00000000E+00
  3.20000000E+02  3.00000000E+02  0.00000000E+00
  3.20000000E+02  2.80000000E+02  0.00000000E+00
  3.20000000E+02  2.60000000E+02  0.00000000E+00
  3.20000000E+02  2.40000000E+02  0.00000000E+00
  3.20000000E+02  2.20000000E+02  0.00000000E+00
  3.20000000E+02  2.00000000E+02  0.00000000E+00
  3.20000000E+02  1.80000000E+02  0.00000000E+00
  3.20000000E+02  1.60000000E+02  0.00000000E+00
  3.20000000E+02  1.40000000E+02  0.00000000E+00
  3.20000000E+02  1.20000000E+02  0.00000000E+00
  3.20000000E+02  1.00000000E+02  0.00000000E+00
  3.20000000E+02  8.00000000E+01  0.00000000E+00
  3.20000000E+02  6.00000000E+01  0.00000000E+00
  3.20000000E+02  4.00000000E+01  0.00000000E+00
  3.20000000E+02  2.00000000E+01  0.00000000E+00
  3.20000000E+02  4.99600361E-14  0.00000000E+00
  3.40000000E+02  3.00000000E+02  0.00000000E+00
  3.40000000E+02  2.80000000E+02  0.00000000E+00
  3.40000000E+02  2.60000000E+02  0.00000000E+00
  3.40000000E+02  2.40000000E+02  0.00000000E+00
  3.40000000E+02  2.20000000E+02  0.00000000E+00
  3.40000000E+02  2.00000000E+02  0.00000000E+00
  3.40000000E+02  1.80000000E+02  0.00000000E+00
  3.40000000E+02  1.60000000E+02  0.00000000E+00
  3.40000000E+02  1.40000000E+02  0.00000000E+00
  3.40000000E+02  1.20000000E+02  0.00000000E+00
  3.40000000E+02  1.00000000E+02  0.00000000E+00
  3.40000000E+02  8.00000000E+01  0.00000000E+00
  3.40000000E+02  6.00000000E+01  0.00000000E+00
  3.40000000E+02  4.00000000E+01  0.00000000E+00
  3.40000000E+02  2.00000000E+01  0.00000000E+00
  3.40000000E+02  4.99600361E-14  0.00000000E+00
  3.60000000E+02  3.00000000E+02  0.00000000E+00
  3.60000000E+02  2.80000000E+02  0.00000000E+00
  3.60000000E+02  2.60000000E+02  0.00000000E+00
  3.60000000E+02  2.40000000E+02  0.00000000E+00
  3.60000000E+02  2.20000000E+02  0.00000000E+00
  3.60000000E+02  2.00000000E+02  0.00000000E+00
  3.60000000E+02  1.80000000E+02  0.00000000E+00
  3.60000000E+02  1.60000000E+02  0.00000000E+00
  3.60000000E+02  1.40000000E+02  0.00000000E+00
  3.60000000E+02  1.20000000E+02  0.00000000E+00
  3.60000000E+02  1.00000000E+02  0.00000000E+00
  3.60000000E+02  8.00000000E+01  0.00000000E+00
  3.60000000E+02  6.00000000E+01  0.00000000E+00
  3.60000000E+02  4.00000000E+01  0.00000000E+00
  3.60000000E+02  2.00000000E+01  0.00000000E+00
  3.60000000E+02  4.99600361E-14  0.00000000E+00
  3.80000000E+02  3.00000000E+02  0.00000000E+00
  3.80000000E+02  2.80000000E+02  0.00000000E+00
  3.80000000E+02  2.60000000E+02  0.00000000E+00
  3.80000000E+02  2.40000000E+02  0.00000000E+00
  3.80000000E+02  2.20000000E+02  0.00000000E+00
  3.80000000E+02  2.00000000E+02  0.00000000E+00
  3.80000000E+02  1.80000000E+02  0.00000000E+00
  3.80000000E+02  1.60000000E+02  0.00000000E+00
  3.80000000E+02  1.40000000E+02  0.00000000E+00
  3.80000000E+02  1.20000000E+02  0.00000000E+00
  3.80000000E+02  1.00000000E+02  0.00000000E+00
  3.80000000E+02  8.00000000E+01  0.00000000E+00
  3.80000000E+02  6.00000000E+01  0.00000000E+00
  3.80000000E+02  4.00000000E+01  0.00000000E+00
  3.80000000E+02  2.00000000E+01  0.00000000E+00
  3.80000000E+02  4.99600361E-14  0.00000000E+00
  4.00000000E+02  3.00000000E+02  0.00000000E+00
  4.00000000E+02  2.80000000E+02  0.00000000E+00
  4.00000000E+02  2.60000000E+02  0.00000000E+00
  4.00000000E+02  2.40000000E+02  0.00000000E+00
  4.00000000E+02  2.20000000E+02  0.00000000E+00
  4.00000000E+02  2.00000000E+02  0.00000000E+00
  4.00000000E+02  1.80000000E+02  0.00000000E+00
  4.00000000E+02  1.60000000E+02  0.00000000E+00
  4.00000000E+02  1.40000000E+02  0.00000000E+00
  4.00000000E+02  1.20000000E+02  0.00000000E+00
  4.00000000E+02  1.00000000E+02  0.00000000E+00
  4.00000000E+02  8.00000000E+01  0.00000000E+00
  4.00000000E+02  6.00000000E+01  0.00000000E+00
  4.00000000E+02  4.00000000E+01  0.00000000E+00
  4.00000000E+02  2.00000000E+01  0.00000000E+00
  4.00000000E+02  4.99600361E-14  0.00000000E+00
  4.20000000E+02  3.00000000E+02  0.00000000E+00
  4.20000000E+02  2.80000000E+02  0.00000000E+00
  4.20000000E+02  2.60000000E+02  0.00000000E+00
  4.20000000E+02  2.40000000E+02  0.00000000E+00
  4.20000000E+02  2.20000000E+02  0.00000000E+00
  4.20000000E+02  2.00000000E+02  0.00000000E+00
  4.20000000E+02  1.80000000E+02  0.00000000E+00
  4.20000000E+02  1.60000000E+02  0.00000000E+00
  4.20000000E+02  1.40000000E+02  0.00000000E+00
  4.20000000E+02  1.20000000E+02  0.00000000E+00
  4.20000000E+02  1.00000000E+02  0.00000000E+00
  4.20000000E+02  8.00000000E+01  0.00000000E+00
  4.20000000E+02  6.00000000E+01  0.00000000E+00
  4.20000000E+02  4.00000000E+01  0.00000000E+00
  4.20000000E+02  2.00000000E+01  0.00000000E+00
  4.20000000E+02  4.99600361E-14  0.00000000E+00
  4.40000000E+02  3.00000000E+02  0.00000000E+00
  4.40000000E+02  2.80000000E+02  0.00000000E+00
  4.40000000E+02  2.60000000E+02  0.00000000E+00
  4.40000000E+02  2.40000000E+02  0.00000000E+00
  4.40000000E+02  2.20000000E+02  0.00000000E+00
  4.40000000E+02  2.00000000E+02  0.00000000E+00
  4.40000000E+02  1.80000000E+02  0.00000000E+00
  4.40000000E+02  1.60000000E+02  0.00000000E+00
  4.40000000E+02  1.40000000E+02  0.00000000E+00
  4.40000000E+02  1.20000000E+02  0.00000000E+00
  4.40000000E+02  1.00000000E+02  0.00000000E+00
  4.40000000E+02  8.00000000E+01  0.00000000E+00
  4.40000000E+02  6.00000000E+01  0.00000000E+00
  4.40000000E+02  4.00000000E+01  0.00000000E+00
  4.40000000E+02  2.00000000E+01  0.00000000E+00
  4.40000000E+02  4.99600361E-14  0.00000000E+00
  4.60000000E+02  3.00000000E+02  0.00000000E+00
  4.60000000E+02  2.80000000E+02  0.00000000E+00
  4.60000000E+02  2.60000000E+02  0.00000000E+00
  4.60000000E+02  2.40000000E+02  0.00000000E+00
  4.60000000E+02  2.20000000E+02  0.00000000E+00
  4.60000000E+02  2.00000000E+02  0.00000000E+00
  4.60000000E+02  1.80000000E+02  0.00000000E+00
  4.60000000E+02  1.60000000E+02  0.00000000E+00
  4.60000000E+02  1.40000000E+02  0.00000000E+00
  4.60000000E+02  1.20000000E+02  0.00000000E+00
  4.60000000E+02  1.00000000E+02  0.00000000E+00
  4.60000000E+02  8.00000000E+01  0.00000000E+00
  4.60000000E+02  6.00000000E+01  0.00000000E+00
  4.60000000E+02  4.00000000E+01  0.00000000E+00
  4.60000000E+02  2.00000000E+01  0.00000000E+00
  4.60000000E+02  4.99600361E-14  0.00000000E+00
  4.80000000E+02  3.00000000E+02  0.00000000E+00
  4.80000000E+02  2.80000000E+02  0.00000000E+00
  4.80000000E+02  2.60000000E+02  0.00000000E+00
  4.80000000E+02  2.40000000E+02  0.00000000E+00
  4.80000000E+02  2.20000000E+02  0.00000000E+00
  4.80000000E+02  2.00000000E+02  0.00000000E+00
  4.80000000E+02  1.80000000E+02  0.00000000E+00
  4.80000000E+02  1.60000000E+02  0.00000000E+00
  4.80000000E+02  1.40000000E+02  0.00000000E+00
  4.80000000E+02  1.20000000E+02  0.00000000E+00
  4.80000000E+02  1.00000000E+02  0.00000000E+00
  4.80000000E+02  8.00000000E+01  0.00000000E+00
  4.80000000E+02  6.00000000E+01  0.00000000E+00
  4.80000000E+02  4.00000000E+01  0.00000000E+00
  4.80000000E+02  2.00000000E+01  0.00000000E+00
  4.80000000E+02  4.99600361E-14  0.00000000E+00
  5.00000000E+02  3.00000000E+02  0.00000000E+00
  5.00000000E+02  2.80000000E+02  0.00000000E+00
  5.00000000E+02  2.60000000E+02  0.00000000E+00
  5.00000000E+02  2.40000000E+02  0.00000000E+00
  5.00000000E+02  2.20000000E+02  0.00000000E+00
  5.00000000E+02  2.00000000E+02  0.00000000E+00
  5.00000000E+02  1.80000000E+02  0.00000000E+00
  5.00000000E+02  1.60000000E+02  0.00000000E+00
  5.00000000E+02  1.40000000E+02  0.00000000E+00
  5.00000000E+02  1.20000000E+02  0.00000000E+00
  5.00000000E+02  1.00000000E+02  0.00000000E+00
  5.00000000E+02  8.00000000E+01  0.00000000E+00
  5.00000000E+02  6.00000000E+01  0.00000000E+00
  5.00000000E+02  4.00000000E+01  0.00000000E+00
  5.00000000E+02  2.00000000E+01  0.00000000E+00
  5.00000000E+02  4.99600361E-14  0.00000000E+00
  5.20000000E+02  3.00000000E+02  0.00000000E+00
  5.20000000E+02  2.80000000E+02  0.00000000E+00
  5.20000000E+02  2.60000000E+02  0.00000000E+00
  5.20000000E+02  2.40000000E+02  0.00000000E+00
  5.20000000E+02  2.20000000E+02  0.00000000E+00
  5.20000000E+02  2.00000000E+02  0.00000000E+00
  5.20000000E+02  1.80000000E+02  0.00000000E+00
  5.20000000E+02  1.60000000E+02  0.00000000E+00
  5.20000000E+02  1.40000000E+02  0.00000000E+00
  5.20000000E+02  1.20000000E+02  0.00000000E+00
  5.20000000E+02  1.00000000E+02  0.00000000E+00
  5.20000000E+02  8.00000000E+01  0.00000000E+00
  5.20000000E+02  6.00000000E+01  0.00000000E+00
  5.20000000E+02  4.00000000E+01  0.00000000E+00
  5.20000000E+02  2.00000000E+01  0.00000000E+00
  5.20000000E+02  4.99600361E-14  0.00000000E+00
  5.40000000E+02  3.00000000E+02  0.00000000E+00
  5.40000000E+02  2.80000000E+02  0.00000000E+00
  5.40000000E+02  2.60000000E+02  0.00000000E+00
  5.40000000E+02  2.40000000E+02  0.00000000E+00
  5.40000000E+02  2.20000000E+02  0.00000000E+00
  5.40000000E+02  2.00000000E+02  0.00000000E+00
  5.40000000E+02  1.80000000E+02  0.00000000E+00
  5.40000000E+02  1.60000000E+02  0.00000000E+00
  5.40000000E+02  1.40000000E+02  0.00000000E+00
  5.40000000E+02  1.20000000E+02  0.00000000E+00
  5.40000000E+02  1.00000000E+02  0.00000000E+00
  5.40000000E+02  8.00000000E+01  0.00000000E+00
  5.40000000E+02  6.00000000E+01  0.00000000E+00
  5.40000000E+02  4.00000000E+01  0.00000000E+00
  5.40000000E+02  2.00000000E+01  0.00000000E+00
  5.40000000E+02  4.99600361E-14  0.00000000E+00
  5.60000000E+02  3.00000000E+02  0.00000000E+00
  5.60000000E+02  2.80000000E+02  0.00000000E+00
  5.60000000E+02  2.60000000E+02  0.00000000E+00
  5.60000000E+02  2.40000000E+02  0.00000000E+00
  5.60000000E+02  2.20000000E+02  0.00000000E+00
  5.60000000E+02  2.00000000E+02  0.00000000E+00
  5.60000000E+02  1.80000000E+02  0.00000000E+00
  5.60000000E+02  1.60000000E+02  0.00000000E+00
  5.60000000E+02  1.40000000E+02  0.00000000E+00
  5.60000000E+02  1.20000000E+02  0.00000000E+00
  5.60000000E+02  1.00000000E+02  0.00000000E+00
  5.60000000E+02  8.00000000E+01  0.00000000E+00
  5.60000000E+02  6.00000000E+01  0.00000000E+00
  5.60000000E+02  4.00000000E+01  0.00000000E+00
  5.60000000E+02  2.00000000E+01  0.00000000E+00
  5.60000000E+02  4.99600361E-14  0.00000000E+00
  5.80000000E+02  3.00000000E+02  0.00000000E+00
  5.80000000E+02  2.80000000E+02  0.00000000E+00
  5.80000000E+02  2.60000000E+02  0.00000000E+00
  5.80000000E+02  2.40000000E+02  0.00000000E+00
  5.80000000E+02  2.20000000E+02  0.00000000E+00
  5.80000000E+02  2.00000000E+02  0.00000000E+00
  5.80000000E+02  1.80000000E+02  0.00000000E+00
  5.80000000E+02  1.60000000E+02  0.00000000E+00
  5.80000000E+02  1.40000000E+02  0.00000000E+00
  5.80000000E+02  1.20000000E+02  0.00000000E+00
  5.80000000E+02  1.00000000E+02  0.00000000E+00
  5.80000000E+02  8.00000000E+01  0.00000000E+00
  5.80000000E+02  6.00000000E+01  0.00000000E+00
  5.80000000E+02  4.00000000E+01  0.00000000E+00
  5.80000000E+02  2.00000000E+01  0.00000000E+00
  5.80000000E+02  4.99600361E-14  0.00000000E+00
  6.00000000E+02  3.00000000E+02  0.00000000E+00
  6.00000000E+02  2.80000000E+02  0.00000000E+00
  6.00000000E+02  2.60000000E+02  0.00000000E+00
  6.00000000E+02  2.40000000E+02  0.00000000E+00
  6.00000000E+02  2.20000000E+02  0.00000000E+00
  6.00000000E+02  2.00000000E+02  0.00000000E+00
  6.00000000E+02  1.80000000E+02  0.00000000E+00
  6.00000000E+02  1.60000000E+02  0.00000000E+00
  6.00000000E+02  1.40000000E+02  0.00000000E+00
  6.00000000E+02  1.20000000E+02  0.00000000E+00
  6.00000000E+02  1.00000000E+02  0.00000000E+00
  6.00000000E+02  8.00000000E+01  0.00000000E+00
  6.00000000E+02  6.00000000E+01  0.00000000E+00
  6.00000000E+02  4.00000000E+01  0.00000000E+00
  6.00000000E+02  2.00000000E+01  0.00000000E+00
  6.00000000E+02  4.99600361E-14  0.00000000E+00
CELLS       450      2250
         4           0           1          17          16
         4           1           2          18          17
         4           2           3          19          18
         4           3           4          20          19
         4           4           5          21          20
         4           5           6          22          21
         4           6           7          23          22
         4           7           8          24          23
         4           8           9          25          24
         4           9          10          26          25
         4          10          11          27          26
         4          11          12          28          27
         4          12          13          29          28
         4          13          14          30          29
         4          14          15          31          30
         4          16          17          33          32
         4          17          18          34          33
         4          18          19          35          34
         4          19          20          36          35
         4          20          21          37          36
         4          21          22          38          37
         4          22          23          39          38
         4          23          24          40          39
         4          24          25          41          40
         4          25          26          42          41
         4          26          27          43          42
         4          27          28          44          43
         4          28          29          45          44
         4          29          30          46          45
         4          30          31          47          46
         4          32          33          49          48
         4          33          34          50          49
         4          34          35          51          50
         4          35          36          52          51
         4          36          37          53          52
         4          37          38          54          53
         4          38          39          55          54
         4          39          40          56          55
         4          40          41          57          56
         4          41          42          58          57
         4          42          43          59          58
         4          43          44          60          59
         4          44          45          61          60
         4          45          46          62          61
         4          46          47          63          62
         4          48          49          65          64
         4          49          50          66          65
         4          50          51          67          66
         4          51          52          68          67
         4          52          53          69          68
         4          53          54          70          69
         4          54          55          71          70
         4          55          56          72          71
         4          56          57          73          72
         4          57          58          74          73
         4          58          59          75          74
         4          59          60          76          75
         4          60          61          77          76
         4          61          62          78          77
         4          62          63          79          78
         4          64          65          81          80
         4          65          66          82          81
         4          66          67          83          82
         4          67          68          84          83
         4          68          69          85          84
         4          69          70          86          85
         4          70          71          87          86
         4          71          72          88          87
         4          72          73          89          88
         4          73          74          90          89
         4          74          75          91          90
         4          75          76          92          91
         4          76          77          93          92
         4          77          78          94          93
         4          78          79          95          94
         4          80          81          97          96
         4          81          82          98          97
         4          82          83          99          98
         4          83          84         100          99
         4          84          85         101         100
         4          85          86         102         101
         4          86          87         103         102
         4          87          88         104         103
         4          88          89         105         104
         4          89          90         106         105
         4          90          91         107         106
         4          91          92         108         107
         4          92          93         109         108
         4          93          94         110         109
         4          94          95         111         110
         4          96          97         113         112
         4          97          98         114         113
         4          98          99         115         114
         4          99         100         116         115
         4         100         101         117         116
         4         101         102         118         117
         4         102         103         119         118
         4         103         104         120         119
         4         104         105         121         120
         4         105         106         122         121
         4         106         107         123         122
         4         107         108         124         123
         4         108         109         125         124
         4         109         110         126         125
         4         110         111         127         126
         4         112         113         129         128
         4         113         114         130         129
         4         114         115         131         130
         4         115         116         132         131
         4         116         117         133         132
         4         117         118         134         133
         4         118         119         135         134
         4         119         120         136         135
         4         120         121         137         136
         4         121         122         138         137
         4         122         123         139         138
         4         123         124         140         139
         4         124         125         141         140
         4         125         126         142         141
         4         126         127         143         142
         4         128         129         145         144
         4         129         130         146         145
         4         130         131         147         146
         4         131         132         148         147
         4         132         133         149         148
         4         133         134         150         149
         4         134         135         151         150
         4         135         136         152         151
         4         136         137         153         152
         4         137         138         154         153
         4         138         139         155         154
         4         139         140         156         155
         4         140         141         157         156
         4         141         142         158         157
         4         142         143         159         158
         4         144         145         161         160
         4         145         146         162         161
         4         146         147         163         162
         4         147         148         164         163
         4         148         149         165         164
         4         149         150         166         165
         4         150         151         167         166
         4         151         152         168         167
         4         152         153         169         168
         4         153         154         170         169
         4         154         155         171         170
         4         155         156         172         171
         4         156         157         173         172
         4         157         158         174         173
         4         158         159         175         174
         4         160         161         177         176
         4         161         162         178         177
         4         162         163         179         178
         4         163         164         180         179
         4         164         165         181         180
         4         165         166         182         181
         4         166         167         183         182
         4         167         168         184         183
         4         168         169         185         184
         4         169         170         186         185
         4         170         171         187         186
         4         171         172         188         187
         4         172         173         189         188
         4         173         174         190         189
         4         174         175         191         190
         4         176         177         193         192
         4         177         178         194         193
         4         178         179         195         194
         4         179         180         196         195
         4         180         181         197         196
         4         181         182         198         197
         4         182         183         199         198
         4         183         184         200         199
         4         184         185         201         200
         4         185         186         202         201
         4         186         187         203         202
         4         187         188         204         203
         4         188         189         205         204
         4         189         190         206         205
         4         190         191         207         206
         4         192         193         209         208
         4         193         194         210         209
         4         194         195         211         210
         4         195         196         212         211
         4         196         197         213         212
         4         197         198         214         213
         4         198         199         215         214
         4         199         200         216         215
         4         200         201         217         216
         4         201         202         218         217
         4         202         203         219         218
         4         203         204         220         219
         4         204         205         221         220
         4         205         206         222         221
         4         206         207         223         222
         4         208         209         225         224
         4         209         210         226         225
         4         210         211         227         226
         4         211         212         228         227
         4         212         213         229         228
         4         213         214         230         229
         4         214         215         231         230
         4         215         216         232         231
         4         216         217         233         232
         4         217         218         234         233
         4         218         219         235         234
         4         219         220         236         235
         4         220         221         237         236
         4         221         222         238         237
         4         222         223         239         238
         4         224         225         241         240
         4         225         226         242         241
         4         226         227         243         242
         4         227         228         244         243
         4         228         229         245         244
         4         229         230         246         245
         4         230         231         247         246
         4         231         232         248         247
         4         232         233         249         248
         4         233         234         250         249
         4         234         235         251         250
         4         235         236         252         251
         4         236         237         253         252
         4         237         238         254         253
         4         238         239         255         254
         4         240         241         257         256
         4         241         242         258         257
         4         242         243         259         258
         4         243         244         260         259
         4         244         245         261         260
         4         245         246         262         261
         4         246         247         263         262
         4         247         248         264         263
         4         248         249         265         264
         4         249         250         266         265
         4         250         251         267         266
         4         251         252         268         267
         4         252         253         269         268
         4         253         254         270         269
         4         254         255         271         270
         4         256         257         273         272
         4         257         258         274         273
         4         258         259         275         274
         4         259         260         276         275
         4         260         261         277         276
         4         261         262         278         277
         4         262         263         279         278
         4         263         264         280         279
         4         264         265         281         280
         4         265         266         282         281
         4         266         267         283         282
         4         267         268         284         283
         4         268         269         285         284
         4         269         270         286         285
         4         270         271         287         286
         4         272         273         289         288
         4         273         274         290         289
         4         274         275         291         290
         4         275         276         292         291
         4         276         277         293         292
         4         277         278         294         293
         4         278         279         295         294
         4         279         280         296         295
         4         280         281         297         296
         4         281         282         298         297
         4         282         283         299         298
         4         283         284         300         299
         4         284         285         301         300
         4         285         286         302         301
         4         286         287         303         302
         4         288         289         305         304
         4         289         290         306         305
         4         290         291         307         306
         4         291         292         308         307
         4         292         293         309         308
         4         293         294         310         309
         4         294         295         311         310
         4         295         296         312         311
         4         296         297         313         312
         4         297         298         314         313
         4         298         299         315         314
         4         299         300         316         315
         4         300         301         317         316
         4         301         302         318         317
         4         302         303         319         318
         4         304         305         321         320
         4         305         306         322         321
         4         306         307         323         322
         4         307         308         324         323
         4         308         309         325         324
         4         309         310         326         325
         4         310         311         327         326
         4         311         312         328         327
         4         312         313         329         328
         4         313         314         330         329
         4         314         315         331         330
         4         315         316         332         331
         4         316         317         333         332
         4         317         318         334         333
         4         318         319         335         334
         4         320         321         337         336
         4         321         322         338         337
         4         322         323         339         338
         4         323         324         340         339
         4         324         325         341         340
         4         325         326         342         341
         4         326         327         343         342
         4         327         328         344         343
         4         328         329         345         344
         4         329         330         346         345
         4         330         331         347         346
         4         331         332         348         347
         4         332         333         349         348
         4         333         334         350         349
         4         334         335         351         350
         4         336         337         353         352
         4         337         338         354         353
         4         338         339         355         354
         4         339         340         356         355
         4         340         341         357         356
         4         341         342         358         357
         4         342         343         359         358
         4         343         344         360         359
         4         344         345         361         360
         4         345         346         362         361
         4         346         347         363         362
         4         347         348         364         363
         4         348         349         365         364
         4         349         350         366         365
         4         350         351         367         366
         4         352         353         369         368
         4         353         354         370         369
         4         354         355         371         370
         4         355         356         372         371
         4         356         357         373         372
         4         357         358         374         373
         4         358         359         375         374
         4         359         360         376         375
         4         360         361         377         376
         4         361         362         378         377
         4         362         363         379         378
         4         363         364         380         379
         4         364         365         381         380
         4         365         366         382         381
         4         366         367         383         382
         4         368         369         385         384
         4         369         370         386         385
         4         370         371         387         386
         4         371         372         388         387
         4         372         373         389         388
         4         373         374         390         389
         4         374         375         391         390
         4         375         376         392         391
         4         376         377         393         392
         4         377         378         394         393
         4         378         379         395         394
         4         379         380         396         395
         4         380         381         397         396
         4         381         382         398         397
         4         382         383         399         398
         4         384         385         401         400
         4         385         386         402         401
         4         386         387         403         402
         4         387         388         404         403
         4         388         389         405         404
         4         389         390         406         405
         4         390         391         407         406
         4         391         392         408         407
         4         392         393         409         408
         4         393         394         410         409
         4         394         395         411         410
         4         395         396         412         411
         4         396         397         413         412
         4         397         398         414         413
         4         398         399         415         414
         4         400         401         417         416
         4         401         402         418         417
         4         402         403         419         418
         4         403         404         420         419
         4         404         405         421         420
         4         405         406         422         421
         4         406         407         423         422
         4         407         408         424         423
         4         408         409         425         424
         4         409         410         426         425
         4         410         411         427         426
         4         411         412         428         427
         4         412         413         429         428
         4         413         414         430         429
         4         414         415         431         430
         4         416         417         433         432
         4         417         418         434         433
         4         418         419         435         434
         4         419         420         436         435
         4         420         421         437         436
         4         421         422         438         437
         4         422         423         439         438
         4         423         424         440         439
         4         424         425         441         440
         4         425         426         442         441
         4         426         427         443         442
         4         427         428         444         443
         4         428         429         445         444
         4         429         430         446         445
         4         430         431         447         446
         4         432         433         449         448
         4         433         434         450         449
         4         434         435         451         450
         4         435         436         452         451
         4         436         437         453         452
         4         437         438         454         453
         4         438         439         455         454
         4         439         440         456         455
         4         440         441         457         456
         4         441         442         458         457
         4         442         443         459         458
         4         443         444         460         459
         4         444         445         461         460
         4         445         446         462         461
         4         446         447         463         462
         4         448         449         465         464
         4         449         450         466         465
         4         450         451         467         466
         4         451         452         468         467
         4         452         453         469         468
         4         453         454         470         469
         4         454         455         471         470
         4         455         456         472         471
         4         456         457         473         472
         4         457         458         474         473
         4         458         459         475         474
         4         459         460         476         475
         4         460         461         477         476
         4         461         462         478         477
         4         462         463         479         478
         4         464         465         481         480
         4         465         466         482         481
         4         466         467         483         482
         4         467         468         484         483
         4         468         469         485         484
         4         469         470         486         485
         4         470         471         487         486
         4         471         472         488         487
         4         472         473         489         488
         4         473         474         490         489
         4         474         475         491         490
         4         475         476         492         491
         4         476         477         493         492
         4         477         478         494         493
         4         478         479         495         494
CELL_TYPES        450
9
9
9
9
9
9
9
9
9
9
9
9
9
9
9
9
9
9
9
9
9
9
9
9
9
9
9
9
9
9
9
9
9
9
9
9
9
9
9
9
9
9
9
9
9
9
9
9
9
9
9
9
9
9
9
9
9
9
9
9
9
9
9
9
9
9
9
9
9
9
9
9
9
9
9
9
9
9
9
9
9
9
9
9
9
9
9
9
9
9
9
9
9
9
9
9
9
9
9
9
9
9
9
9
9
9
9
9
9
9
9
9
9
9
9
9
9
9
9
9
9
9
9
9
9
9
9
9
9
9
9
9
9
9
9
9
9
9
9
9
9
9
9
9
9
9
9
9
9
9
9
9
9
9
9
9
9
9
9
9
9
9
9
9
9
9
9
9
9
9
9
9
9
9
9
9
9
9
9
9
9
9
9
9
9
9
9
9
9
9
9
9
9
9
9
9
9
9
9
9
9
9
9
9
9
9
9
9
9
9
9
9
9
9
9
9
9
9
9
9
9
9
9
9
9
9
9
9
9
9
9
9
9
9
9
9
9
9
9
9
9
9
9
9
9
9
9
9
9
9
9
9
9
9
9
9
9
9
9
9
9
9
9
9
9
9
9
9
9
9
9
9
9
9
9
9
9
9
9
9
9
9
9
9
9
9
9
9
9
9
9
9
9
9
9
9
9
9
9
9
9
9
9
9
9
9
9
9
9
9
9
9
9
9
9
9
9
9
9
9
9
9
9
9
9
9
9
9
9
9
9
9
9
9
9
9
9
9
9
9
9
9
9
9
9
9
9
9
9
9
9
9
9
9
9
9
9
9
9
9
9
9
9
9
9
9
9
9
9
9
9
9
9
9
9
9
9
9
9
9
9
9
9
9
9
9
9
9
9
9
9
9
9
9
9
9
9
9
9
9
9
9
9
9
9
9
9
9
9
9
9
9
9
9
9
9
9
9
9
9
9
9
9
9
9
9
9
9
9
9
9
9
9
9
9
9
9
9
9
9
9
9
9
9
9
9
9
9
9
9
POINT_DATA       496
SCALARS p double 
LOOKUP_TABLE default
   53667788.5278625     
   53683005.5568469     
   53734437.9243107     
   53837425.0647042     
   53999311.0239106     
   54192088.1950103     
   54392702.3356669     
   54591993.1980595     
   54784599.5118308     
   54967085.2118304     
   55136877.3639024     
   55291560.1904967     
   55428203.7855520     
   55542444.0251114     
   55626995.9398716     
   55664730.9259980     
   51926563.9671431     
   51934527.1211114     
   51966636.5249226     
   52044151.1109022     
   52178587.7651418     
   52349675.2024977     
   52534507.1422328     
   52721181.4207463     
   52903180.6184404     
   53076360.4210231     
   53237665.1600580     
   53384289.9641603     
   53512930.6684663     
   53618843.4870482     
   53693981.6840250     
   53725147.3005317     
   50414384.5098930     
   50424357.5901921     
   50456539.9936003     
   50523606.7255332     
   50631864.5666895     
   50772740.7136182     
   50931524.1109829     
   51096416.1015269     
   51259798.4231053     
   51416619.0521413     
   51563102.8086730     
   51695870.1628033     
   51811177.8500966     
   51904060.2419468     
   51967483.7511494     
   51991620.0718841     
   49119159.1889452     
   49127366.7676432     
   49155134.0802954     
   49209601.6781692     
   49294284.5200663     
   49405484.4345163     
   49534510.3442691     
   49672281.0767661     
   49811480.9654504     
   49946622.8324583     
   50073386.2917432     
   50187925.4926690     
   50286248.7349904     
   50363693.0466053     
   50414601.6808143     
   50432924.6436117     
   47991323.8505255     
   47995992.8021641     
   48014984.7407391     
   48054104.4347200     
   48116024.9625827     
   48199102.9051006     
   48298223.0939481     
   48406911.8664092     
   48519015.1311926     
   48629278.1475205     
   48733248.3242171     
   48826924.0807492     
   48906392.9395698     
   48967599.6554429     
   49006472.7909793     
   49019766.3446929     
   46984124.1457742     
   46985068.7732910     
   46993797.3549628     
   47016598.0473207     
   47056426.6289843     
   47112993.7443293     
   47183357.5717190     
   47263075.5002428     
   47347305.4459670     
   47431445.4400672     
   47511318.9824441     
   47583117.4456333     
   47643294.4541728     
   47688584.2366438     
   47716326.7911477     
   47725283.1712898     
   46059328.1304073     
   46056640.8090612     
   46055192.0079537     
   46062079.2933081     
   46081034.9397362     
   46112920.1351301     
   46156328.6559197     
   46208365.7110846     
   46265418.1587571     
   46323715.2497791     
   46379633.2370954     
   46429826.0607946     
   46471313.1451181     
   46501658.8094540     
   46519370.0241040     
   46524603.5138902     
   45185287.0166405     
   45179273.3475957     
   45168412.6151650     
   45160598.3744929     
   45160414.9061233     
   45169757.5800703     
   45188434.0909458     
   45214791.5517815     
   45246314.1796881     
   45280109.6803191     
   45313252.3460924     
   45343018.7180072     
   45367093.5176223     
   45383835.8082689     
   45392684.3803462     
   45394746.5862496     
   44335741.5184097     
   44326821.1350752     
   44307633.0065108     
   44286728.3159026     
   44269466.4222710     
   44258650.0284131     
   44255101.1443197     
   44258208.4885018     
   44266433.0686729     
   44277742.2155146     
   44289959.4108115     
   44301049.4155857     
   44309384.0297402     
   44314042.9729630     
   44315195.3783565     
   44314580.9319513     
   43488880.7767179     
   43477511.1827799     
   43451199.1426949     
   43418975.5002682     
   43386844.0047786     
   43358379.8903053     
   43335265.7274578     
   43317783.6534749     
   43305264.0401339     
   43296482.2346614     
   43290001.3612769     
   43284474.1186448     
   43278929.9743937     
   43273078.7634633     
   43267654.4789544     
   43264804.4407564     
   42626561.6324254     
   42613192.6440754     
   42580962.0056208     
   42539205.7038318     
   42494428.8236491     
   42450844.9065219     
   42410863.4825864     
   42375535.6618316     
   42344960.5270927     
   42318651.6085258     
   42295865.5121558     
   42275901.6496944     
   42258388.2549241     
   42243571.1581846     
   42232615.9030237     
   42227920.8893685     
   41733660.7073697     
   41718710.7170343     
   41681703.6134343     
   41632128.7054449     
   41576856.2315273     
   41520610.4315294     
   41466405.7626276     
   41415949.2611163     
   41370010.6504068     
   41328761.1655435     
   41292083.7203442     
   41259860.2180751     
   41232244.2782308     
   41209927.1176331     
   41194399.4773123     
   41188203.4639718     
   40797542.0938836     
   40781387.9893681     
   40740651.7257068     
   40684852.7593689     
   40621105.4651073     
   40554527.3484128     
   40488624.7996178     
   40425654.5713571     
   40366960.3979575     
   40313285.0692722     
   40265059.6335710     
   40222672.9569144     
   40186725.5554950     
   40158270.2808844     
   40139038.4388378     
   40131643.4802636     
   39807626.4028017     
   39790601.6162605     
   39747078.1818696     
   39686510.2331852     
   39616152.7607022     
   39541410.8092686     
   39466178.2398521     
   39393161.0117475     
   39324182.2939728     
   39260468.3849184     
   39202915.7874829     
   39152340.7186840     
   39109712.2928151     
   39076369.0255119     
   39054214.9336978     
   39045886.7070173     
   38755048.1134007     
   38737445.4125236     
   38691974.1909781     
   38627951.3288529     
   38552685.4798064     
   38471775.2072152     
   38389405.8295131     
   38308637.8568997     
   38231682.6631739     
   38160163.0923550     
   38095358.2010894     
   38038432.1679966     
   37990647.1990020     
   37953558.6481639     
   37929187.5137120     
   37920161.4961854     
   37632389.2866279     
   37614466.2500302     
   37567794.7069067     
   37501500.4281336     
   37422872.7263748     
   37337620.3110717     
   37250132.1468115     
   37163734.9466904     
   37080941.7833898     
   37003688.5421660     
   36933556.6561329     
   36871981.6425278     
   36820447.0066435     
   36780661.5828748     
   36754715.1877324     
   36745203.3301617     
   36433478.8553545     
   36415464.7482134     
   36368263.5885596     
   36300768.4368788     
   36220186.8109315     
   36132263.1341254     
   36041509.8415159     
   35951438.1491599     
   35864782.2521528     
   35783712.9914035     
   35710038.9959133     
   35645394.9695195     
   35591417.6590256     
   35549909.0153444     
   35522982.1949590     
   35513180.1408144     
   35153247.8135387     
   35135351.0119464     
   35088231.3351006     
   35020514.0674266     
   34939269.3953412     
   34850209.9309098     
   34757898.1781944     
   34665954.8726464     
   34577261.6047486     
   34494153.2181874     
   34418597.5521038     
   34352362.6193900     
   34297174.0331285     
   34254866.3185007     
   34227527.1028115     
   34217622.3870145     
   33787631.5576324     
   33770046.8951529     
   33723577.4670833     
   33656546.8913308     
   33575835.9052644     
   33487062.6030257     
   33394771.8579460     
   33302625.3742281     
   33213585.7505146     
   33130089.4605597     
   33054205.3453359     
   32987778.2386699     
   32932563.3142892     
   32890363.4403515     
   32863179.4491075     
   32853361.9351444     
   32333511.2536353     
   32316426.7525159     
   32271149.8040015     
   32205664.8843199     
   32126611.5424549     
   32039453.5782930     
   31948655.0630283     
   31857855.8557809     
   31770040.3184002     
   31687693.4877950     
   31612939.4952702     
   31547658.7406713     
   31493588.0129134     
   31452429.1467864     
   31426007.3000251     
   31416485.0847344     
   30788686.2684853     
   30772288.7055139     
   30728732.7306595     
   30665618.8186471     
   30589291.7497501     
   30505002.7502661     
   30417075.3028774     
   30329069.2393173     
   30243937.4474547     
   30164168.9376385     
   30091910.8848851     
   30029060.5850978     
   29977318.5547895     
   29938222.3170458     
   29913280.0787866     
   29904309.7207738     
   29151869.2484705     
   29136347.9099719     
   29095035.8503645     
   29035095.0589058     
   28962519.1599594     
   28882289.2591224     
   28798530.8405205     
   28714668.7660982     
   28633575.2730912     
   28557704.4068105     
   28489204.2905528     
   28429993.2742435     
   28381773.6352247     
   28345935.3511995     
   28323451.0601349     
   28315410.0554063     
   27422694.1466423     
   27408241.9656338     
   27369693.0163507     
   27313706.9958620     
   27245867.9243846     
   27170829.8861284     
   27092464.3709242     
   27014008.0612483     
   26938205.3063173     
   26867438.2867346     
   26803836.8485322     
   26749354.0970049     
   26705775.5197888     
   26674553.8943221     
   26656155.1457029     
   26649754.4748538     
   25601725.1413586     
   25588536.2169083     
   25553259.4662122     
   25501983.5466156     
   25439825.1096381     
   25371055.0218686     
   25299234.7380786     
   25227359.6486820     
   25157999.4249218     
   25093427.1930882     
   25035732.4739714     
   24986910.4202136     
   24948899.3250007     
   24923520.4354191     
   24911614.9323620     
   24909318.1264790     
   23690450.6658135     
   23678712.9907900     
   23647191.6155598     
   23601341.1813577     
   23545758.1480891     
   23484273.2017548     
   23420078.5787410     
   23355873.4711455     
   23294006.0266284     
   23236602.5866337     
   23185686.0315740     
   23143288.2822085     
   23111559.1482784     
   23092791.7822392     
   23090074.2283752     
   23094361.7060561     
   21691241.2470537     
   21681123.6527212     
   21653790.3889619     
   21614024.9073627     
   21565858.3684288     
   21512616.7177301     
   21457055.1077528     
   21401518.5823372     
   21348087.5584972     
   21298703.3104897     
   21255289.2742644     
   21219891.6683613     
   21194875.1295409     
   21183272.1796677     
   21188987.8622857     
   21196717.2639134     
   19607243.0959834     
   19598875.7993024     
   19576086.8522453     
   19543007.2014903     
   19503055.6140903     
   19458963.7513321     
   19412968.0358872     
   19367003.1340370     
   19322838.6307241     
   19282188.3329996     
   19246828.8986087     
   19218759.7097550     
   19200466.5622805     
   19195504.1830666     
   19206677.5739093     
   19215513.8735262     
   17442166.9674982     
   17435624.5367169     
   17417657.8027987     
   17391851.0052498     
   17360911.4994507     
   17326831.4911301     
   17291253.9222199     
   17255666.4057989     
   17221488.3564768     
   17190151.6263786     
   17163206.6386504     
   17142488.6992150     
   17130390.1507150     
   17130293.7906132     
   17144443.8821706     
   17154103.9508470     
   15199955.7687017     
   15195247.5333815     
   15182413.1036875     
   15164605.4929968     
   15143497.0987430     
   15120213.0208371     
   15095814.2287607     
   15071329.5669341     
   15047786.1320950     
   15026255.8918786     
   15007939.9358913     
   14994310.9543949     
   14987355.1148667     
   14989887.3930667     
   15004770.1505879     
   15015066.0347179     
   12884207.1263454     
   12881609.0797187     
   12874709.2838198     
   12865795.5165164     
   12855158.1365367     
   12843298.1856861     
   12830754.5517257     
   12818084.2541962     
   12805856.5862075     
   12794675.2072675     
   12785227.8677107     
   12778374.6634586     
   12775282.6415567     
   12777673.7055107     
   12789830.4792934     
   12799091.2678272     
   10500000.0000000     
   10500000.0000000     
   10500000.0000000     
   10500000.0000000     
   10500000.0000000     
   10500000.0000000     
   10500000.0000000     
   10500000.0000000     
   10500000.0000000     
   10500000.0000000     
   10500000.0000000     
   10500000.0000000     
   10500000.0000000     
   10500000.0000000     
   10500000.0000000     
   10500000.0000000     
VECTORS u double 
    0.00000E+00        -0.66019E+00         0.00000E+00
    0.00000E+00        -0.59189E+00         0.00000E+00
    0.00000E+00        -0.53993E+00         0.00000E+00
    0.00000E+00        -0.50203E+00         0.00000E+00
    0.00000E+00        -0.46719E+00         0.00000E+00
    0.00000E+00        -0.42727E+00         0.00000E+00
    0.00000E+00        -0.38396E+00         0.00000E+00
    0.00000E+00        -0.33871E+00         0.00000E+00
    0.00000E+00        -0.29241E+00         0.00000E+00
    0.00000E+00        -0.24577E+00         0.00000E+00
    0.00000E+00        -0.19943E+00         0.00000E+00
    0.00000E+00        -0.15401E+00         0.00000E+00
    0.00000E+00        -0.11019E+00         0.00000E+00
    0.00000E+00        -0.68834E-01         0.00000E+00
    0.00000E+00        -0.31148E-01         0.00000E+00
    0.00000E+00         0.00000E+00         0.00000E+00
    0.21317E+00        -0.66824E+00         0.00000E+00
    0.18149E+00        -0.61160E+00         0.00000E+00
    0.13982E+00        -0.56247E+00         0.00000E+00
    0.10606E+00        -0.51902E+00         0.00000E+00
    0.89549E-01        -0.47785E+00         0.00000E+00
    0.80703E-01        -0.43484E+00         0.00000E+00
    0.73714E-01        -0.38990E+00         0.00000E+00
    0.67543E-01        -0.34357E+00         0.00000E+00
    0.61727E-01        -0.29648E+00         0.00000E+00
    0.55984E-01        -0.24921E+00         0.00000E+00
    0.50077E-01        -0.20234E+00         0.00000E+00
    0.43749E-01        -0.15644E+00         0.00000E+00
    0.36659E-01        -0.11221E+00         0.00000E+00
    0.28237E-01        -0.70459E-01         0.00000E+00
    0.17355E-01        -0.32406E-01         0.00000E+00
    0.00000E+00         0.00000E+00         0.00000E+00
    0.32888E+00        -0.70318E+00         0.00000E+00
    0.27933E+00        -0.65476E+00         0.00000E+00
    0.23412E+00        -0.60558E+00         0.00000E+00
    0.19760E+00        -0.55505E+00         0.00000E+00
    0.17175E+00        -0.50489E+00         0.00000E+00
    0.15378E+00        -0.45578E+00         0.00000E+00
    0.13955E+00        -0.40684E+00         0.00000E+00
    0.12702E+00        -0.35766E+00         0.00000E+00
    0.11527E+00        -0.30837E+00         0.00000E+00
    0.10373E+00        -0.25929E+00         0.00000E+00
    0.91908E-01        -0.21086E+00         0.00000E+00
    0.79312E-01        -0.16357E+00         0.00000E+00
    0.65300E-01        -0.11803E+00         0.00000E+00
    0.48887E-01        -0.74994E-01         0.00000E+00
    0.28227E-01        -0.35414E-01         0.00000E+00
    0.00000E+00         0.00000E+00         0.00000E+00
    0.42403E+00        -0.76046E+00         0.00000E+00
    0.36797E+00        -0.70613E+00         0.00000E+00
    0.31960E+00        -0.65146E+00         0.00000E+00
    0.27895E+00        -0.59619E+00         0.00000E+00
    0.24634E+00        -0.54097E+00         0.00000E+00
    0.22045E+00        -0.48647E+00         0.00000E+00
    0.19899E+00        -0.43284E+00         0.00000E+00
    0.17999E+00        -0.37981E+00         0.00000E+00
    0.16223E+00        -0.32729E+00         0.00000E+00
    0.14485E+00        -0.27543E+00         0.00000E+00
    0.12716E+00        -0.22451E+00         0.00000E+00
    0.10845E+00        -0.17490E+00         0.00000E+00
    0.87872E-01        -0.12712E+00         0.00000E+00
    0.64228E-01        -0.81738E-01         0.00000E+00
    0.35751E-01        -0.39291E-01         0.00000E+00
    0.00000E+00         0.00000E+00         0.00000E+00
    0.51089E+00        -0.82318E+00         0.00000E+00
    0.45027E+00        -0.76317E+00         0.00000E+00
    0.39752E+00        -0.70312E+00         0.00000E+00
    0.35213E+00        -0.64306E+00         0.00000E+00
    0.31365E+00        -0.58325E+00         0.00000E+00
    0.28106E+00        -0.52411E+00         0.00000E+00
    0.25288E+00        -0.46589E+00         0.00000E+00
    0.22755E+00        -0.40861E+00         0.00000E+00
    0.20381E+00        -0.35224E+00         0.00000E+00
    0.18065E+00        -0.29685E+00         0.00000E+00
    0.15722E+00        -0.24262E+00         0.00000E+00
    0.13266E+00        -0.18985E+00         0.00000E+00
    0.10600E+00        -0.13889E+00         0.00000E+00
    0.76047E-01        -0.90130E-01         0.00000E+00
    0.41300E-01        -0.43834E-01         0.00000E+00
    0.00000E+00         0.00000E+00         0.00000E+00
    0.59074E+00        -0.88989E+00         0.00000E+00
    0.52604E+00        -0.82485E+00         0.00000E+00
    0.46882E+00        -0.75991E+00         0.00000E+00
    0.41855E+00        -0.69517E+00         0.00000E+00
    0.37460E+00        -0.63087E+00         0.00000E+00
    0.33605E+00        -0.56725E+00         0.00000E+00
    0.30174E+00        -0.50453E+00         0.00000E+00
    0.27043E+00        -0.44283E+00         0.00000E+00
    0.24091E+00        -0.38220E+00         0.00000E+00
    0.21216E+00        -0.32272E+00         0.00000E+00
    0.18322E+00        -0.26452E+00         0.00000E+00
    0.15314E+00        -0.20781E+00         0.00000E+00
    0.12095E+00        -0.15285E+00         0.00000E+00
    0.85517E-01        -0.99846E-01         0.00000E+00
    0.45625E-01        -0.48929E-01         0.00000E+00
    0.00000E+00         0.00000E+00         0.00000E+00
    0.66420E+00        -0.96029E+00         0.00000E+00
    0.59563E+00        -0.89063E+00         0.00000E+00
    0.53407E+00        -0.82111E+00         0.00000E+00
    0.47905E+00        -0.75188E+00         0.00000E+00
    0.42995E+00        -0.68312E+00         0.00000E+00
    0.38594E+00        -0.61502E+00         0.00000E+00
    0.34604E+00        -0.54778E+00         0.00000E+00
    0.30915E+00        -0.48151E+00         0.00000E+00
    0.27420E+00        -0.41631E+00         0.00000E+00
    0.24014E+00        -0.35229E+00         0.00000E+00
    0.20600E+00        -0.28956E+00         0.00000E+00
    0.17082E+00        -0.22827E+00         0.00000E+00
    0.13362E+00        -0.16860E+00         0.00000E+00
    0.93410E-01        -0.11066E+00         0.00000E+00
    0.49179E-01        -0.54496E-01         0.00000E+00
    0.00000E+00         0.00000E+00         0.00000E+00
    0.73175E+00        -0.10342E+01         0.00000E+00
    0.65944E+00        -0.96017E+00         0.00000E+00
    0.59369E+00        -0.88627E+00         0.00000E+00
    0.53414E+00        -0.81264E+00         0.00000E+00
    0.48021E+00        -0.73943E+00         0.00000E+00
    0.43118E+00        -0.66681E+00         0.00000E+00
    0.38615E+00        -0.59493E+00         0.00000E+00
    0.34414E+00        -0.52392E+00         0.00000E+00
    0.30414E+00        -0.45390E+00         0.00000E+00
    0.26516E+00        -0.38496E+00         0.00000E+00
    0.22621E+00        -0.31723E+00         0.00000E+00
    0.18635E+00        -0.25082E+00         0.00000E+00
    0.14466E+00        -0.18585E+00         0.00000E+00
    0.10023E+00        -0.12240E+00         0.00000E+00
    0.52246E-01        -0.60479E-01         0.00000E+00
    0.00000E+00         0.00000E+00         0.00000E+00
    0.79377E+00        -0.11116E+01         0.00000E+00
    0.71779E+00        -0.10333E+01         0.00000E+00
    0.64801E+00        -0.95508E+00         0.00000E+00
    0.58416E+00        -0.87708E+00         0.00000E+00
    0.52575E+00        -0.79939E+00         0.00000E+00
    0.47209E+00        -0.72216E+00         0.00000E+00
    0.42238E+00        -0.64550E+00         0.00000E+00
    0.37570E+00        -0.56956E+00         0.00000E+00
    0.33110E+00        -0.49444E+00         0.00000E+00
    0.28761E+00        -0.42026E+00         0.00000E+00
    0.24428E+00        -0.34711E+00         0.00000E+00
    0.20019E+00        -0.27512E+00         0.00000E+00
    0.15447E+00        -0.20438E+00         0.00000E+00
    0.10631E+00        -0.13494E+00         0.00000E+00
    0.55003E-01        -0.66834E-01         0.00000E+00
    0.00000E+00         0.00000E+00         0.00000E+00
    0.85054E+00        -0.11925E+01         0.00000E+00
    0.77088E+00        -0.11099E+01         0.00000E+00
    0.69721E+00        -0.10274E+01         0.00000E+00
    0.62932E+00        -0.94495E+00         0.00000E+00
    0.56675E+00        -0.86270E+00         0.00000E+00
    0.50888E+00        -0.78072E+00         0.00000E+00
    0.45493E+00        -0.69913E+00         0.00000E+00
    0.40405E+00        -0.61804E+00         0.00000E+00
    0.35531E+00        -0.53757E+00         0.00000E+00
    0.30777E+00        -0.45782E+00         0.00000E+00
    0.26051E+00        -0.37892E+00         0.00000E+00
    0.21265E+00        -0.30095E+00         0.00000E+00
    0.16334E+00        -0.22402E+00         0.00000E+00
    0.11185E+00        -0.14820E+00         0.00000E+00
    0.57556E-01        -0.73525E-01         0.00000E+00
    0.00000E+00         0.00000E+00         0.00000E+00
    0.90217E+00        -0.12769E+01         0.00000E+00
    0.81882E+00        -0.11900E+01         0.00000E+00
    0.74139E+00        -0.11031E+01         0.00000E+00
    0.66969E+00        -0.10161E+01         0.00000E+00
    0.60331E+00        -0.92917E+00         0.00000E+00
    0.54163E+00        -0.84228E+00         0.00000E+00
    0.48391E+00        -0.75555E+00         0.00000E+00
    0.42930E+00        -0.66909E+00         0.00000E+00
    0.37691E+00        -0.58300E+00         0.00000E+00
    0.32581E+00        -0.49740E+00         0.00000E+00
    0.27509E+00        -0.41241E+00         0.00000E+00
    0.22390E+00        -0.32813E+00         0.00000E+00
    0.17143E+00        -0.24466E+00         0.00000E+00
    0.11697E+00        -0.16210E+00         0.00000E+00
    0.59963E-01        -0.80529E-01         0.00000E+00
    0.00000E+00         0.00000E+00         0.00000E+00
    0.94867E+00        -0.13651E+01         0.00000E+00
    0.86159E+00        -0.12737E+01         0.00000E+00
    0.78052E+00        -0.11822E+01         0.00000E+00
    0.70527E+00        -0.10905E+01         0.00000E+00
    0.63543E+00        -0.99869E+00         0.00000E+00
    0.57037E+00        -0.90668E+00         0.00000E+00
    0.50934E+00        -0.81459E+00         0.00000E+00
    0.45150E+00        -0.72251E+00         0.00000E+00
    0.39596E+00        -0.63054E+00         0.00000E+00
    0.34179E+00        -0.53881E+00         0.00000E+00
    0.28810E+00        -0.44743E+00         0.00000E+00
    0.23403E+00        -0.35652E+00         0.00000E+00
    0.17880E+00        -0.26621E+00         0.00000E+00
    0.12172E+00        -0.17660E+00         0.00000E+00
    0.62249E-01        -0.87826E-01         0.00000E+00
    0.00000E+00         0.00000E+00         0.00000E+00
    0.98990E+00        -0.14571E+01         0.00000E+00
    0.89904E+00        -0.13610E+01         0.00000E+00
    0.81447E+00        -0.12648E+01         0.00000E+00
    0.73595E+00        -0.11682E+01         0.00000E+00
    0.66301E+00        -0.10712E+01         0.00000E+00
    0.59501E+00        -0.97380E+00         0.00000E+00
    0.53117E+00        -0.87610E+00         0.00000E+00
    0.47062E+00        -0.77815E+00         0.00000E+00
    0.41245E+00        -0.68005E+00         0.00000E+00
    0.35573E+00        -0.58191E+00         0.00000E+00
    0.29956E+00        -0.48386E+00         0.00000E+00
    0.24307E+00        -0.38604E+00         0.00000E+00
    0.18548E+00        -0.28858E+00         0.00000E+00
    0.12611E+00        -0.19165E+00         0.00000E+00
    0.64414E-01        -0.95400E-01         0.00000E+00
    0.00000E+00         0.00000E+00         0.00000E+00
    0.10256E+01        -0.15531E+01         0.00000E+00
    0.93093E+00        -0.14521E+01         0.00000E+00
    0.84302E+00        -0.13507E+01         0.00000E+00
    0.76152E+00        -0.12489E+01         0.00000E+00
    0.68589E+00        -0.11466E+01         0.00000E+00
    0.61542E+00        -0.10436E+01         0.00000E+00
    0.54928E+00        -0.93999E+00         0.00000E+00
    0.48656E+00        -0.83590E+00         0.00000E+00
    0.42631E+00        -0.73138E+00         0.00000E+00
    0.36757E+00        -0.62656E+00         0.00000E+00
    0.30942E+00        -0.52158E+00         0.00000E+00
    0.25098E+00        -0.41659E+00         0.00000E+00
    0.19144E+00        -0.31174E+00         0.00000E+00
    0.13012E+00        -0.20723E+00         0.00000E+00
    0.66444E-01        -0.10324E+00         0.00000E+00
    0.00000E+00         0.00000E+00         0.00000E+00
    0.10553E+01        -0.16532E+01         0.00000E+00
    0.95689E+00        -0.15469E+01         0.00000E+00
    0.86585E+00        -0.14402E+01         0.00000E+00
    0.78172E+00        -0.13329E+01         0.00000E+00
    0.70383E+00        -0.12248E+01         0.00000E+00
    0.63140E+00        -0.11159E+01         0.00000E+00
    0.56351E+00        -0.10061E+01         0.00000E+00
    0.49918E+00        -0.89562E+00         0.00000E+00
    0.43741E+00        -0.78443E+00         0.00000E+00
    0.37721E+00        -0.67268E+00         0.00000E+00
    0.31761E+00        -0.56051E+00         0.00000E+00
    0.25769E+00        -0.44810E+00         0.00000E+00
    0.19663E+00        -0.33562E+00         0.00000E+00
    0.13371E+00        -0.22328E+00         0.00000E+00
    0.68315E-01        -0.11132E+00         0.00000E+00
    0.00000E+00         0.00000E+00         0.00000E+00
    0.10784E+01        -0.17574E+01         0.00000E+00
    0.97644E+00        -0.16454E+01         0.00000E+00
    0.88256E+00        -0.15330E+01         0.00000E+00
    0.79619E+00        -0.14198E+01         0.00000E+00
    0.71654E+00        -0.13057E+01         0.00000E+00
    0.64269E+00        -0.11906E+01         0.00000E+00
    0.57362E+00        -0.10744E+01         0.00000E+00
    0.50828E+00        -0.95717E+00         0.00000E+00
    0.44560E+00        -0.83904E+00         0.00000E+00
    0.38451E+00        -0.72011E+00         0.00000E+00
    0.32400E+00        -0.60053E+00         0.00000E+00
    0.26311E+00        -0.48047E+00         0.00000E+00
    0.20097E+00        -0.36015E+00         0.00000E+00
    0.13681E+00        -0.23978E+00         0.00000E+00
    0.69993E-01        -0.11963E+00         0.00000E+00
    0.00000E+00         0.00000E+00         0.00000E+00
    0.10944E+01        -0.18656E+01         0.00000E+00
    0.98903E+00        -0.17476E+01         0.00000E+00
    0.89265E+00        -0.16291E+01         0.00000E+00
    0.80451E+00        -0.15097E+01         0.00000E+00
    0.72364E+00        -0.13892E+01         0.00000E+00
    0.64897E+00        -0.12675E+01         0.00000E+00
    0.57936E+00        -0.11446E+01         0.00000E+00
    0.51365E+00        -0.10204E+01         0.00000E+00
    0.45067E+00        -0.89504E+00         0.00000E+00
    0.38929E+00        -0.76869E+00         0.00000E+00
    0.32844E+00        -0.64149E+00         0.00000E+00
    0.26710E+00        -0.51360E+00         0.00000E+00
    0.20435E+00        -0.38525E+00         0.00000E+00
    0.13936E+00        -0.25667E+00         0.00000E+00
    0.71438E-01        -0.12814E+00         0.00000E+00
    0.00000E+00         0.00000E+00         0.00000E+00
    0.11025E+01        -0.19776E+01         0.00000E+00
    0.99398E+00        -0.18532E+01         0.00000E+00
    0.89557E+00        -0.17282E+01         0.00000E+00
    0.80622E+00        -0.16022E+01         0.00000E+00
    0.72476E+00        -0.14750E+01         0.00000E+00
    0.64992E+00        -0.13464E+01         0.00000E+00
    0.58044E+00        -0.12164E+01         0.00000E+00
    0.51501E+00        -0.10849E+01         0.00000E+00
    0.45238E+00        -0.95219E+00         0.00000E+00
    0.39135E+00        -0.81823E+00         0.00000E+00
    0.33075E+00        -0.68322E+00         0.00000E+00
    0.26952E+00        -0.54734E+00         0.00000E+00
    0.20665E+00        -0.41081E+00         0.00000E+00
    0.14127E+00        -0.27387E+00         0.00000E+00
    0.72603E-01        -0.13682E+00         0.00000E+00
    0.00000E+00         0.00000E+00         0.00000E+00
    0.11017E+01        -0.20932E+01         0.00000E+00
    0.99058E+00        -0.19619E+01         0.00000E+00
    0.89071E+00        -0.18300E+01         0.00000E+00
    0.80080E+00        -0.16971E+01         0.00000E+00
    0.71944E+00        -0.15628E+01         0.00000E+00
    0.64516E+00        -0.14269E+01         0.00000E+00
    0.57651E+00        -0.12895E+01         0.00000E+00
    0.51208E+00        -0.11506E+01         0.00000E+00
    0.45050E+00        -0.10102E+01         0.00000E+00
    0.39046E+00        -0.86844E+00         0.00000E+00
    0.33074E+00        -0.72549E+00         0.00000E+00
    0.27018E+00        -0.58151E+00         0.00000E+00
    0.20774E+00        -0.43670E+00         0.00000E+00
    0.14244E+00        -0.29131E+00         0.00000E+00
    0.73437E-01        -0.14562E+00         0.00000E+00
    0.00000E+00         0.00000E+00         0.00000E+00
    0.10912E+01        -0.22118E+01         0.00000E+00
    0.97800E+00        -0.20733E+01         0.00000E+00
    0.87738E+00        -0.19341E+01         0.00000E+00
    0.78768E+00        -0.17937E+01         0.00000E+00
    0.70721E+00        -0.16519E+01         0.00000E+00
    0.63428E+00        -0.15085E+01         0.00000E+00
    0.56724E+00        -0.13635E+01         0.00000E+00
    0.50455E+00        -0.12168E+01         0.00000E+00
    0.44472E+00        -0.10686E+01         0.00000E+00
    0.38635E+00        -0.91898E+00         0.00000E+00
    0.32816E+00        -0.76802E+00         0.00000E+00
    0.26890E+00        -0.61588E+00         0.00000E+00
    0.20744E+00        -0.46276E+00         0.00000E+00
    0.14275E+00        -0.30887E+00         0.00000E+00
    0.73876E-01        -0.15450E+00         0.00000E+00
    0.00000E+00         0.00000E+00         0.00000E+00
    0.10698E+01        -0.23330E+01         0.00000E+00
    0.95538E+00        -0.21867E+01         0.00000E+00
    0.85489E+00        -0.20397E+01         0.00000E+00
    0.76630E+00        -0.18915E+01         0.00000E+00
    0.68761E+00        -0.17419E+01         0.00000E+00
    0.61687E+00        -0.15906E+01         0.00000E+00
    0.55226E+00        -0.14377E+01         0.00000E+00
    0.49208E+00        -0.12831E+01         0.00000E+00
    0.43473E+00        -0.11270E+01         0.00000E+00
    0.37875E+00        -0.96941E+00         0.00000E+00
    0.32275E+00        -0.81042E+00         0.00000E+00
    0.26544E+00        -0.65016E+00         0.00000E+00
    0.20558E+00        -0.48877E+00         0.00000E+00
    0.14206E+00        -0.32642E+00         0.00000E+00
    0.73845E-01        -0.16339E+00         0.00000E+00
    0.00000E+00         0.00000E+00         0.00000E+00
    0.10365E+01        -0.24557E+01         0.00000E+00
    0.92182E+00        -0.23012E+01         0.00000E+00
    0.82250E+00        -0.21460E+01         0.00000E+00
    0.73607E+00        -0.19896E+01         0.00000E+00
    0.66015E+00        -0.18318E+01         0.00000E+00
    0.59254E+00        -0.16723E+01         0.00000E+00
    0.53120E+00        -0.15113E+01         0.00000E+00
    0.47431E+00        -0.13487E+01         0.00000E+00
    0.42019E+00        -0.11847E+01         0.00000E+00
    0.36730E+00        -0.10192E+01         0.00000E+00
    0.31420E+00        -0.85228E+00         0.00000E+00
    0.25952E+00        -0.68403E+00         0.00000E+00
    0.20194E+00        -0.51451E+00         0.00000E+00
    0.14022E+00        -0.34384E+00         0.00000E+00
    0.73246E-01        -0.17224E+00         0.00000E+00
    0.00000E+00         0.00000E+00         0.00000E+00
    0.99004E+00        -0.25789E+01         0.00000E+00
    0.87639E+00        -0.24158E+01         0.00000E+00
    0.77951E+00        -0.22519E+01         0.00000E+00
    0.69642E+00        -0.20869E+01         0.00000E+00
    0.62437E+00        -0.19205E+01         0.00000E+00
    0.56086E+00        -0.17527E+01         0.00000E+00
    0.50368E+00        -0.15834E+01         0.00000E+00
    0.45087E+00        -0.14128E+01         0.00000E+00
    0.40071E+00        -0.12409E+01         0.00000E+00
    0.35162E+00        -0.10676E+01         0.00000E+00
    0.30212E+00        -0.89305E+00         0.00000E+00
    0.25080E+00        -0.71710E+00         0.00000E+00
    0.19624E+00        -0.53974E+00         0.00000E+00
    0.13704E+00        -0.36099E+00         0.00000E+00
    0.71943E-01        -0.18099E+00         0.00000E+00
    0.00000E+00         0.00000E+00         0.00000E+00
    0.92924E+00        -0.27012E+01         0.00000E+00
    0.81816E+00        -0.25290E+01         0.00000E+00
    0.72521E+00        -0.23561E+01         0.00000E+00
    0.64683E+00        -0.21821E+01         0.00000E+00
    0.57985E+00        -0.20069E+01         0.00000E+00
    0.52146E+00        -0.18305E+01         0.00000E+00
    0.46931E+00        -0.16529E+01         0.00000E+00
    0.42136E+00        -0.14743E+01         0.00000E+00
    0.37586E+00        -0.12947E+01         0.00000E+00
    0.33125E+00        -0.11140E+01         0.00000E+00
    0.28606E+00        -0.93211E+00         0.00000E+00
    0.23885E+00        -0.74888E+00         0.00000E+00
    0.18811E+00        -0.56418E+00         0.00000E+00
    0.13231E+00        -0.37787E+00         0.00000E+00
    0.69720E-01        -0.18990E+00         0.00000E+00
    0.00000E+00         0.00000E+00         0.00000E+00
    0.85285E+00        -0.28210E+01         0.00000E+00
    0.74623E+00        -0.26392E+01         0.00000E+00
    0.65898E+00        -0.24568E+01         0.00000E+00
    0.58687E+00        -0.22735E+01         0.00000E+00
    0.52623E+00        -0.20892E+01         0.00000E+00
    0.47400E+00        -0.19041E+01         0.00000E+00
    0.42771E+00        -0.17184E+01         0.00000E+00
    0.38533E+00        -0.15321E+01         0.00000E+00
    0.34515E+00        -0.13451E+01         0.00000E+00
    0.30566E+00        -0.11574E+01         0.00000E+00
    0.26546E+00        -0.96868E+00         0.00000E+00
    0.22310E+00        -0.77879E+00         0.00000E+00
    0.17707E+00        -0.58741E+00         0.00000E+00
    0.12563E+00        -0.39427E+00         0.00000E+00
    0.66735E-01        -0.19928E+00         0.00000E+00
    0.00000E+00         0.00000E+00         0.00000E+00
    0.75961E+00        -0.29361E+01         0.00000E+00
    0.65978E+00        -0.27443E+01         0.00000E+00
    0.58032E+00        -0.25520E+01         0.00000E+00
    0.51619E+00        -0.23591E+01         0.00000E+00
    0.46322E+00        -0.21656E+01         0.00000E+00
    0.41815E+00        -0.19720E+01         0.00000E+00
    0.37850E+00        -0.17783E+01         0.00000E+00
    0.34231E+00        -0.15846E+01         0.00000E+00
    0.30802E+00        -0.13908E+01         0.00000E+00
    0.27422E+00        -0.11967E+01         0.00000E+00
    0.23962E+00        -0.10019E+01         0.00000E+00
    0.20287E+00        -0.80611E+00         0.00000E+00
    0.16247E+00        -0.60885E+00         0.00000E+00
    0.11653E+00        -0.40967E+00         0.00000E+00
    0.62971E-01        -0.20810E+00         0.00000E+00
    0.00000E+00         0.00000E+00         0.00000E+00
    0.64827E+00        -0.30438E+01         0.00000E+00
    0.55810E+00        -0.28416E+01         0.00000E+00
    0.48891E+00        -0.26391E+01         0.00000E+00
    0.43463E+00        -0.24364E+01         0.00000E+00
    0.39063E+00        -0.22339E+01         0.00000E+00
    0.35362E+00        -0.20320E+01         0.00000E+00
    0.32124E+00        -0.18309E+01         0.00000E+00
    0.29177E+00        -0.16305E+01         0.00000E+00
    0.26382E+00        -0.14306E+01         0.00000E+00
    0.23619E+00        -0.12309E+01         0.00000E+00
    0.20776E+00        -0.10309E+01         0.00000E+00
    0.17733E+00        -0.83003E+00         0.00000E+00
    0.14349E+00        -0.62778E+00         0.00000E+00
    0.10445E+00        -0.42346E+00         0.00000E+00
    0.57830E-01        -0.21589E+00         0.00000E+00
    0.00000E+00         0.00000E+00         0.00000E+00
    0.51758E+00        -0.31408E+01         0.00000E+00
    0.44075E+00        -0.29278E+01         0.00000E+00
    0.38472E+00        -0.27149E+01         0.00000E+00
    0.34219E+00        -0.25025E+01         0.00000E+00
    0.30832E+00        -0.22914E+01         0.00000E+00
    0.28006E+00        -0.20821E+01         0.00000E+00
    0.25545E+00        -0.18744E+01         0.00000E+00
    0.23306E+00        -0.16683E+01         0.00000E+00
    0.21181E+00        -0.14633E+01         0.00000E+00
    0.19074E+00        -0.12589E+01         0.00000E+00
    0.16896E+00        -0.10546E+01         0.00000E+00
    0.14549E+00        -0.84970E+00         0.00000E+00
    0.11914E+00        -0.64346E+00         0.00000E+00
    0.88357E-01        -0.43494E+00         0.00000E+00
    0.50580E-01        -0.22256E+00         0.00000E+00
    0.00000E+00         0.00000E+00         0.00000E+00
    0.36633E+00        -0.32226E+01         0.00000E+00
    0.30773E+00        -0.29985E+01         0.00000E+00
    0.26813E+00        -0.27752E+01         0.00000E+00
    0.23901E+00        -0.25539E+01         0.00000E+00
    0.21608E+00        -0.23354E+01         0.00000E+00
    0.19706E+00        -0.21199E+01         0.00000E+00
    0.18051E+00        -0.19071E+01         0.00000E+00
    0.16546E+00        -0.16964E+01         0.00000E+00
    0.15115E+00        -0.14875E+01         0.00000E+00
    0.13693E+00        -0.12797E+01         0.00000E+00
    0.12218E+00        -0.10722E+01         0.00000E+00
    0.10620E+00        -0.86438E+00         0.00000E+00
    0.88128E-01        -0.65522E+00         0.00000E+00
    0.66838E-01        -0.44362E+00         0.00000E+00
    0.40016E-01        -0.22789E+00         0.00000E+00
    0.00000E+00         0.00000E+00         0.00000E+00
    0.19343E+00        -0.32826E+01         0.00000E+00
    0.16011E+00        -0.30473E+01         0.00000E+00
    0.13982E+00        -0.28148E+01         0.00000E+00
    0.12509E+00        -0.25868E+01         0.00000E+00
    0.11354E+00        -0.23632E+01         0.00000E+00
    0.10398E+00        -0.21435E+01         0.00000E+00
    0.95664E-01        -0.19273E+01         0.00000E+00
    0.88093E-01        -0.17138E+01         0.00000E+00
    0.80887E-01        -0.15025E+01         0.00000E+00
    0.73716E-01        -0.12925E+01         0.00000E+00
    0.66260E-01        -0.10831E+01         0.00000E+00
    0.58161E-01        -0.87346E+00         0.00000E+00
    0.48976E-01        -0.66254E+00         0.00000E+00
    0.38030E-01        -0.44910E+00         0.00000E+00
    0.24308E-01        -0.23145E+00         0.00000E+00
    0.00000E+00         0.00000E+00         0.00000E+00
    0.00000E+00        -0.33082E+01         0.00000E+00
    0.00000E+00        -0.30653E+01         0.00000E+00
    0.00000E+00        -0.28288E+01         0.00000E+00
    0.00000E+00        -0.25981E+01         0.00000E+00
    0.00000E+00        -0.23727E+01         0.00000E+00
    0.00000E+00        -0.21516E+01         0.00000E+00
    0.00000E+00        -0.19342E+01         0.00000E+00
    0.00000E+00        -0.17197E+01         0.00000E+00
    0.00000E+00        -0.15075E+01         0.00000E+00
    0.00000E+00        -0.12968E+01         0.00000E+00
    0.00000E+00        -0.10868E+01         0.00000E+00
    0.00000E+00        -0.87653E+00         0.00000E+00
    0.00000E+00        -0.66504E+00         0.00000E+00
    0.00000E+00        -0.45101E+00         0.00000E+00
    0.00000E+00        -0.23272E+00         0.00000E+00
    0.00000E+00         0.00000E+00         0.00000E+00
CELL_DATA        450
VECTORS vDarcy double 
    0.10612E-05         0.70493E-08         0.00000E+00
    0.10573E-05         0.25120E-07         0.00000E+00
    0.10572E-05         0.53585E-07         0.00000E+00
    0.10618E-05         0.87060E-07         0.00000E+00
    0.10682E-05         0.10611E-06         0.00000E+00
    0.10738E-05         0.11185E-06         0.00000E+00
    0.10779E-05         0.11157E-06         0.00000E+00
    0.10811E-05         0.10793E-06         0.00000E+00
    0.10838E-05         0.10219E-06         0.00000E+00
    0.10861E-05         0.94885E-07         0.00000E+00
    0.10882E-05         0.86139E-07         0.00000E+00
    0.10902E-05         0.75659E-07         0.00000E+00
    0.10921E-05         0.62632E-07         0.00000E+00
    0.10941E-05         0.45303E-07         0.00000E+00
    0.10945E-05         0.19473E-07         0.00000E+00
    0.88568E-06         0.52561E-08         0.00000E+00
    0.88206E-06         0.18776E-07         0.00000E+00
    0.88469E-06         0.42206E-07         0.00000E+00
    0.89342E-06         0.70691E-07         0.00000E+00
    0.90577E-06         0.90460E-07         0.00000E+00
    0.91819E-06         0.99217E-07         0.00000E+00
    0.92868E-06         0.10115E-06         0.00000E+00
    0.93741E-06         0.99067E-07         0.00000E+00
    0.94485E-06         0.94395E-07         0.00000E+00
    0.95137E-06         0.87821E-07         0.00000E+00
    0.95729E-06         0.79530E-07         0.00000E+00
    0.96281E-06         0.69281E-07         0.00000E+00
    0.96803E-06         0.56326E-07         0.00000E+00
    0.97260E-06         0.39161E-07         0.00000E+00
    0.97539E-06         0.15590E-07         0.00000E+00
    0.75481E-06         0.52939E-08         0.00000E+00
    0.75471E-06         0.17412E-07         0.00000E+00
    0.75802E-06         0.35224E-07         0.00000E+00
    0.76662E-06         0.55783E-07         0.00000E+00
    0.77966E-06         0.72660E-07         0.00000E+00
    0.79416E-06         0.82686E-07         0.00000E+00
    0.80798E-06         0.86683E-07         0.00000E+00
    0.82034E-06         0.86414E-07         0.00000E+00
    0.83129E-06         0.83166E-07         0.00000E+00
    0.84107E-06         0.77649E-07         0.00000E+00
    0.84995E-06         0.70120E-07         0.00000E+00
    0.85808E-06         0.60442E-07         0.00000E+00
    0.86543E-06         0.48089E-07         0.00000E+00
    0.87154E-06         0.32214E-07         0.00000E+00
    0.87504E-06         0.11940E-07         0.00000E+00
    0.65383E-06         0.37266E-08         0.00000E+00
    0.65596E-06         0.13503E-07         0.00000E+00
    0.66142E-06         0.26964E-07         0.00000E+00
    0.67078E-06         0.42138E-07         0.00000E+00
    0.68362E-06         0.55695E-07         0.00000E+00
    0.69834E-06         0.65225E-07         0.00000E+00
    0.71327E-06         0.70270E-07         0.00000E+00
    0.72742E-06         0.71468E-07         0.00000E+00
    0.74044E-06         0.69624E-07         0.00000E+00
    0.75229E-06         0.65317E-07         0.00000E+00
    0.76306E-06         0.58819E-07         0.00000E+00
    0.77276E-06         0.50127E-07         0.00000E+00
    0.78121E-06         0.39019E-07         0.00000E+00
    0.78782E-06         0.25223E-07         0.00000E+00
    0.79145E-06         0.88694E-08         0.00000E+00
    0.58076E-06         0.16154E-08         0.00000E+00
    0.58362E-06         0.79613E-08         0.00000E+00
    0.58999E-06         0.17745E-07         0.00000E+00
    0.59963E-06         0.29093E-07         0.00000E+00
    0.61208E-06         0.39835E-07         0.00000E+00
    0.62633E-06         0.48230E-07         0.00000E+00
    0.64122E-06         0.53486E-07         0.00000E+00
    0.65584E-06         0.55608E-07         0.00000E+00
    0.66967E-06         0.54941E-07         0.00000E+00
    0.68247E-06         0.51851E-07         0.00000E+00
    0.69410E-06         0.46581E-07         0.00000E+00
    0.70444E-06         0.39241E-07         0.00000E+00
    0.71318E-06         0.29877E-07         0.00000E+00
    0.71973E-06         0.18662E-07         0.00000E+00
    0.72320E-06         0.62257E-08         0.00000E+00
    0.53053E-06        -0.49889E-09         0.00000E+00
    0.53349E-06         0.20801E-08         0.00000E+00
    0.53985E-06         0.84659E-08         0.00000E+00
    0.54917E-06         0.16728E-07         0.00000E+00
    0.56091E-06         0.25115E-07         0.00000E+00
    0.57431E-06         0.32234E-07         0.00000E+00
    0.58852E-06         0.37248E-07         0.00000E+00
    0.60276E-06         0.39858E-07         0.00000E+00
    0.61649E-06         0.40103E-07         0.00000E+00
    0.62933E-06         0.38160E-07         0.00000E+00
    0.64101E-06         0.34222E-07         0.00000E+00
    0.65127E-06         0.28474E-07         0.00000E+00
    0.65974E-06         0.21154E-07         0.00000E+00
    0.66589E-06         0.12697E-07         0.00000E+00
    0.66906E-06         0.39597E-08         0.00000E+00
    0.49895E-06        -0.24788E-08         0.00000E+00
    0.50168E-06        -0.35005E-08         0.00000E+00
    0.50756E-06        -0.26310E-09         0.00000E+00
    0.51613E-06         0.53174E-08         0.00000E+00
    0.52687E-06         0.11655E-07         0.00000E+00
    0.53914E-06         0.17515E-07         0.00000E+00
    0.55226E-06         0.22072E-07         0.00000E+00
    0.56559E-06         0.24891E-07         0.00000E+00
    0.57859E-06         0.25832E-07         0.00000E+00
    0.59084E-06         0.24939E-07         0.00000E+00
    0.60197E-06         0.22354E-07         0.00000E+00
    0.61166E-06         0.18303E-07         0.00000E+00
    0.61952E-06         0.13128E-07         0.00000E+00
    0.62509E-06         0.73968E-08         0.00000E+00
    0.62788E-06         0.20300E-08         0.00000E+00
    0.48264E-06        -0.42349E-08         0.00000E+00
    0.48497E-06        -0.85060E-08         0.00000E+00
    0.49012E-06        -0.81145E-08         0.00000E+00
    0.49770E-06        -0.49198E-08         0.00000E+00
    0.50723E-06        -0.41481E-09         0.00000E+00
    0.51818E-06         0.42500E-08         0.00000E+00
    0.52998E-06         0.82626E-08         0.00000E+00
    0.54207E-06         0.11126E-07         0.00000E+00
    0.55395E-06         0.12605E-07         0.00000E+00
    0.56519E-06         0.12656E-07         0.00000E+00
    0.57540E-06         0.11383E-07         0.00000E+00
    0.58421E-06         0.90176E-08         0.00000E+00
    0.59126E-06         0.59477E-08         0.00000E+00
    0.59616E-06         0.27766E-08         0.00000E+00
    0.59856E-06         0.40163E-09         0.00000E+00
    0.47883E-06        -0.57279E-08         0.00000E+00
    0.48069E-06        -0.12822E-07         0.00000E+00
    0.48500E-06        -0.14945E-07         0.00000E+00
    0.49147E-06        -0.13869E-07         0.00000E+00
    0.49970E-06        -0.11009E-07         0.00000E+00
    0.50922E-06        -0.74597E-08         0.00000E+00
    0.51956E-06        -0.40148E-08         0.00000E+00
    0.53024E-06        -0.11976E-08         0.00000E+00
    0.54078E-06         0.70363E-09         0.00000E+00
    0.55078E-06         0.15947E-08         0.00000E+00
    0.55985E-06         0.15444E-08         0.00000E+00
    0.56763E-06         0.77378E-09         0.00000E+00
    0.57377E-06        -0.33025E-09         0.00000E+00
    0.57798E-06        -0.11822E-08         0.00000E+00
    0.57998E-06        -0.95806E-09         0.00000E+00
    0.48526E-06        -0.69526E-08         0.00000E+00
    0.48662E-06        -0.16424E-07         0.00000E+00
    0.49008E-06        -0.20718E-07         0.00000E+00
    0.49542E-06        -0.21500E-07         0.00000E+00
    0.50231E-06        -0.20106E-07         0.00000E+00
    0.51038E-06        -0.17579E-07         0.00000E+00
    0.51922E-06        -0.14689E-07         0.00000E+00
    0.52840E-06        -0.11969E-07         0.00000E+00
    0.53751E-06        -0.97319E-08         0.00000E+00
    0.54617E-06        -0.81060E-08         0.00000E+00
    0.55401E-06        -0.70516E-08         0.00000E+00
    0.56069E-06        -0.63713E-08         0.00000E+00
    0.56591E-06        -0.57055E-08         0.00000E+00
    0.56943E-06        -0.45177E-08         0.00000E+00
    0.57107E-06        -0.20796E-08         0.00000E+00
    0.50006E-06        -0.79228E-08         0.00000E+00
    0.50094E-06        -0.19336E-07         0.00000E+00
    0.50357E-06        -0.25461E-07         0.00000E+00
    0.50780E-06        -0.27844E-07         0.00000E+00
    0.51340E-06        -0.27737E-07         0.00000E+00
    0.52005E-06        -0.26128E-07         0.00000E+00
    0.52740E-06        -0.23762E-07         0.00000E+00
    0.53510E-06        -0.21164E-07         0.00000E+00
    0.54277E-06        -0.18662E-07         0.00000E+00
    0.55006E-06        -0.16406E-07         0.00000E+00
    0.55666E-06        -0.14383E-07         0.00000E+00
    0.56225E-06        -0.12425E-07         0.00000E+00
    0.56658E-06        -0.10214E-07         0.00000E+00
    0.56946E-06        -0.72789E-08         0.00000E+00
    0.57075E-06        -0.29915E-08         0.00000E+00
    0.52167E-06        -0.86612E-08         0.00000E+00
    0.52210E-06        -0.21609E-07         0.00000E+00
    0.52396E-06        -0.29238E-07         0.00000E+00
    0.52716E-06        -0.32970E-07         0.00000E+00
    0.53154E-06        -0.33971E-07         0.00000E+00
    0.53684E-06        -0.33170E-07         0.00000E+00
    0.54278E-06        -0.31282E-07         0.00000E+00
    0.54904E-06        -0.28820E-07         0.00000E+00
    0.55531E-06        -0.26115E-07         0.00000E+00
    0.56129E-06        -0.23332E-07         0.00000E+00
    0.56669E-06        -0.20483E-07         0.00000E+00
    0.57124E-06        -0.17434E-07         0.00000E+00
    0.57474E-06        -0.13914E-07         0.00000E+00
    0.57702E-06        -0.95191E-08         0.00000E+00
    0.57800E-06        -0.37197E-08         0.00000E+00
    0.54881E-06        -0.91932E-08         0.00000E+00
    0.54883E-06        -0.23304E-07         0.00000E+00
    0.54998E-06        -0.32130E-07         0.00000E+00
    0.55225E-06        -0.36969E-07         0.00000E+00
    0.55551E-06        -0.38901E-07         0.00000E+00
    0.55956E-06        -0.38797E-07         0.00000E+00
    0.56417E-06        -0.37335E-07         0.00000E+00
    0.56910E-06        -0.35011E-07         0.00000E+00
    0.57406E-06        -0.32157E-07         0.00000E+00
    0.57880E-06        -0.28948E-07         0.00000E+00
    0.58307E-06        -0.25418E-07         0.00000E+00
    0.58666E-06        -0.21467E-07         0.00000E+00
    0.58939E-06        -0.16871E-07         0.00000E+00
    0.59113E-06        -0.11291E-07         0.00000E+00
    0.59184E-06        -0.42872E-08         0.00000E+00
    0.58037E-06        -0.95439E-08         0.00000E+00
    0.58003E-06        -0.24484E-07         0.00000E+00
    0.58056E-06        -0.34221E-07         0.00000E+00
    0.58199E-06        -0.39939E-07         0.00000E+00
    0.58423E-06        -0.42631E-07         0.00000E+00
    0.58715E-06        -0.43112E-07         0.00000E+00
    0.59057E-06        -0.42021E-07         0.00000E+00
    0.59426E-06        -0.39835E-07         0.00000E+00
    0.59801E-06        -0.36880E-07         0.00000E+00
    0.60161E-06        -0.33341E-07         0.00000E+00
    0.60486E-06        -0.29270E-07         0.00000E+00
    0.60756E-06        -0.24600E-07         0.00000E+00
    0.60960E-06        -0.19151E-07         0.00000E+00
    0.61086E-06        -0.12643E-07         0.00000E+00
    0.61133E-06        -0.47136E-08         0.00000E+00
    0.61541E-06        -0.97357E-08         0.00000E+00
    0.61475E-06        -0.25207E-07         0.00000E+00
    0.61475E-06        -0.35595E-07         0.00000E+00
    0.61544E-06        -0.41978E-07         0.00000E+00
    0.61679E-06        -0.45269E-07         0.00000E+00
    0.61870E-06        -0.46226E-07         0.00000E+00
    0.62104E-06        -0.45450E-07         0.00000E+00
    0.62362E-06        -0.43396E-07         0.00000E+00
    0.62629E-06        -0.40384E-07         0.00000E+00
    0.62886E-06        -0.36603E-07         0.00000E+00
    0.63117E-06        -0.32124E-07         0.00000E+00
    0.63308E-06        -0.26909E-07         0.00000E+00
    0.63448E-06        -0.20817E-07         0.00000E+00
    0.63532E-06        -0.13619E-07         0.00000E+00
    0.63558E-06        -0.50150E-08         0.00000E+00
    0.65308E-06        -0.97876E-08         0.00000E+00
    0.65217E-06        -0.25524E-07         0.00000E+00
    0.65172E-06        -0.36326E-07         0.00000E+00
    0.65178E-06        -0.43176E-07         0.00000E+00
    0.65236E-06        -0.46915E-07         0.00000E+00
    0.65338E-06        -0.48244E-07         0.00000E+00
    0.65476E-06        -0.47728E-07         0.00000E+00
    0.65637E-06        -0.45799E-07         0.00000E+00
    0.65806E-06        -0.42767E-07         0.00000E+00
    0.65971E-06        -0.38825E-07         0.00000E+00
    0.66118E-06        -0.34061E-07         0.00000E+00
    0.66238E-06        -0.28461E-07         0.00000E+00
    0.66323E-06        -0.21919E-07         0.00000E+00
    0.66369E-06        -0.14250E-07         0.00000E+00
    0.66377E-06        -0.52034E-08         0.00000E+00
    0.69262E-06        -0.97146E-08         0.00000E+00
    0.69153E-06        -0.25477E-07         0.00000E+00
    0.69072E-06        -0.36478E-07         0.00000E+00
    0.69026E-06        -0.43614E-07         0.00000E+00
    0.69018E-06        -0.47660E-07         0.00000E+00
    0.69045E-06        -0.49265E-07         0.00000E+00
    0.69100E-06        -0.48956E-07         0.00000E+00
    0.69175E-06        -0.47142E-07         0.00000E+00
    0.69259E-06        -0.44123E-07         0.00000E+00
    0.69342E-06        -0.40093E-07         0.00000E+00
    0.69415E-06        -0.35152E-07         0.00000E+00
    0.69471E-06        -0.29312E-07         0.00000E+00
    0.69506E-06        -0.22499E-07         0.00000E+00
    0.69519E-06        -0.14563E-07         0.00000E+00
    0.69511E-06        -0.52869E-08         0.00000E+00
    0.73334E-06        -0.95280E-08         0.00000E+00
    0.73214E-06        -0.25100E-07         0.00000E+00
    0.73106E-06        -0.36102E-07         0.00000E+00
    0.73019E-06        -0.43359E-07         0.00000E+00
    0.72957E-06        -0.47584E-07         0.00000E+00
    0.72921E-06        -0.49376E-07         0.00000E+00
    0.72906E-06        -0.49226E-07         0.00000E+00
    0.72908E-06        -0.47518E-07         0.00000E+00
    0.72918E-06        -0.44537E-07         0.00000E+00
    0.72931E-06        -0.40479E-07         0.00000E+00
    0.72938E-06        -0.35457E-07         0.00000E+00
    0.72937E-06        -0.29505E-07         0.00000E+00
    0.72927E-06        -0.22582E-07         0.00000E+00
    0.72908E-06        -0.14567E-07         0.00000E+00
    0.72886E-06        -0.52682E-08         0.00000E+00
    0.77458E-06        -0.92353E-08         0.00000E+00
    0.77336E-06        -0.24416E-07         0.00000E+00
    0.77211E-06        -0.35241E-07         0.00000E+00
    0.77094E-06        -0.42470E-07         0.00000E+00
    0.76990E-06        -0.46758E-07         0.00000E+00
    0.76903E-06        -0.48657E-07         0.00000E+00
    0.76831E-06        -0.48622E-07         0.00000E+00
    0.76772E-06        -0.47008E-07         0.00000E+00
    0.76721E-06        -0.44088E-07         0.00000E+00
    0.76673E-06        -0.40053E-07         0.00000E+00
    0.76624E-06        -0.35025E-07         0.00000E+00
    0.76572E-06        -0.29065E-07         0.00000E+00
    0.76518E-06        -0.22171E-07         0.00000E+00
    0.76469E-06        -0.14258E-07         0.00000E+00
    0.76434E-06        -0.51433E-08         0.00000E+00
    0.81568E-06        -0.88414E-08         0.00000E+00
    0.81455E-06        -0.23443E-07         0.00000E+00
    0.81325E-06        -0.33928E-07         0.00000E+00
    0.81189E-06        -0.40994E-07         0.00000E+00
    0.81057E-06        -0.45241E-07         0.00000E+00
    0.80932E-06        -0.47177E-07         0.00000E+00
    0.80816E-06        -0.47217E-07         0.00000E+00
    0.80708E-06        -0.45692E-07         0.00000E+00
    0.80607E-06        -0.42850E-07         0.00000E+00
    0.80510E-06        -0.38876E-07         0.00000E+00
    0.80413E-06        -0.33897E-07         0.00000E+00
    0.80315E-06        -0.28002E-07         0.00000E+00
    0.80220E-06        -0.21244E-07         0.00000E+00
    0.80139E-06        -0.13599E-07         0.00000E+00
    0.80089E-06        -0.48962E-08         0.00000E+00
    0.85603E-06        -0.83488E-08         0.00000E+00
    0.85511E-06        -0.22196E-07         0.00000E+00
    0.85389E-06        -0.32190E-07         0.00000E+00
    0.85249E-06        -0.38971E-07         0.00000E+00
    0.85101E-06        -0.43086E-07         0.00000E+00
    0.84951E-06        -0.44998E-07         0.00000E+00
    0.84804E-06        -0.45083E-07         0.00000E+00
    0.84662E-06        -0.43640E-07         0.00000E+00
    0.84524E-06        -0.40895E-07         0.00000E+00
    0.84389E-06        -0.37014E-07         0.00000E+00
    0.84254E-06        -0.32120E-07         0.00000E+00
    0.84117E-06        -0.26321E-07         0.00000E+00
    0.83979E-06        -0.19741E-07         0.00000E+00
    0.83858E-06        -0.12498E-07         0.00000E+00
    0.83786E-06        -0.44839E-08         0.00000E+00
    0.89502E-06        -0.77596E-08         0.00000E+00
    0.89448E-06        -0.20685E-07         0.00000E+00
    0.89349E-06        -0.30051E-07         0.00000E+00
    0.89219E-06        -0.36439E-07         0.00000E+00
    0.89071E-06        -0.40342E-07         0.00000E+00
    0.88910E-06        -0.42178E-07         0.00000E+00
    0.88746E-06        -0.42284E-07         0.00000E+00
    0.88581E-06        -0.40924E-07         0.00000E+00
    0.88419E-06        -0.38296E-07         0.00000E+00
    0.88259E-06        -0.34539E-07         0.00000E+00
    0.88099E-06        -0.29757E-07         0.00000E+00
    0.87933E-06        -0.24048E-07         0.00000E+00
    0.87756E-06        -0.17581E-07         0.00000E+00
    0.87575E-06        -0.10724E-07         0.00000E+00
    0.87458E-06        -0.37896E-08         0.00000E+00
    0.93208E-06        -0.70767E-08         0.00000E+00
    0.93210E-06        -0.18925E-07         0.00000E+00
    0.93153E-06        -0.27539E-07         0.00000E+00
    0.93051E-06        -0.33436E-07         0.00000E+00
    0.92917E-06        -0.37058E-07         0.00000E+00
    0.92762E-06        -0.38774E-07         0.00000E+00
    0.92593E-06        -0.38883E-07         0.00000E+00
    0.92420E-06        -0.37613E-07         0.00000E+00
    0.92246E-06        -0.35126E-07         0.00000E+00
    0.92074E-06        -0.31530E-07         0.00000E+00
    0.91903E-06        -0.26891E-07         0.00000E+00
    0.91724E-06        -0.21265E-07         0.00000E+00
    0.91522E-06        -0.14767E-07         0.00000E+00
    0.91267E-06        -0.79123E-08         0.00000E+00
    0.91031E-06        -0.22719E-08         0.00000E+00
    0.96667E-06        -0.63060E-08         0.00000E+00
    0.96748E-06        -0.16936E-07         0.00000E+00
    0.96755E-06        -0.24687E-07         0.00000E+00
    0.96701E-06        -0.30004E-07         0.00000E+00
    0.96600E-06        -0.33280E-07         0.00000E+00
    0.96464E-06        -0.34840E-07         0.00000E+00
    0.96306E-06        -0.34941E-07         0.00000E+00
    0.96135E-06        -0.33772E-07         0.00000E+00
    0.95962E-06        -0.31458E-07         0.00000E+00
    0.95791E-06        -0.28067E-07         0.00000E+00
    0.95622E-06        -0.23615E-07         0.00000E+00
    0.95448E-06        -0.18084E-07         0.00000E+00
    0.95248E-06        -0.11463E-07         0.00000E+00
    0.94944E-06        -0.38014E-08         0.00000E+00
    0.94545E-06         0.51755E-09         0.00000E+00
    0.99830E-06        -0.54589E-08         0.00000E+00
    0.10002E-05        -0.14750E-07         0.00000E+00
    0.10012E-05        -0.21533E-07         0.00000E+00
    0.10014E-05        -0.26187E-07         0.00000E+00
    0.10009E-05        -0.29058E-07         0.00000E+00
    0.99984E-06        -0.30431E-07         0.00000E+00
    0.99847E-06        -0.30520E-07         0.00000E+00
    0.99692E-06        -0.29471E-07         0.00000E+00
    0.99530E-06        -0.27366E-07         0.00000E+00
    0.99372E-06        -0.24232E-07         0.00000E+00
    0.99220E-06        -0.20029E-07         0.00000E+00
    0.99069E-06        -0.14640E-07         0.00000E+00
    0.98893E-06        -0.78496E-08         0.00000E+00
    0.98651E-06         0.77617E-09         0.00000E+00
    0.98301E-06         0.31097E-08         0.00000E+00
    0.10266E-05        -0.45550E-08         0.00000E+00
    0.10300E-05        -0.12410E-07         0.00000E+00
    0.10322E-05        -0.18125E-07         0.00000E+00
    0.10334E-05        -0.22027E-07         0.00000E+00
    0.10335E-05        -0.24438E-07         0.00000E+00
    0.10330E-05        -0.25601E-07         0.00000E+00
    0.10319E-05        -0.25681E-07         0.00000E+00
    0.10306E-05        -0.24775E-07         0.00000E+00
    0.10292E-05        -0.22926E-07         0.00000E+00
    0.10278E-05        -0.20116E-07         0.00000E+00
    0.10266E-05        -0.16250E-07         0.00000E+00
    0.10256E-05        -0.11117E-07         0.00000E+00
    0.10245E-05        -0.42619E-08         0.00000E+00
    0.10235E-05         0.43540E-08         0.00000E+00
    0.10211E-05         0.42678E-08         0.00000E+00
    0.10515E-05        -0.36219E-08         0.00000E+00
    0.10568E-05        -0.99665E-08         0.00000E+00
    0.10607E-05        -0.14493E-07         0.00000E+00
    0.10629E-05        -0.17551E-07         0.00000E+00
    0.10639E-05        -0.19457E-07         0.00000E+00
    0.10639E-05        -0.20401E-07         0.00000E+00
    0.10632E-05        -0.20483E-07         0.00000E+00
    0.10622E-05        -0.19753E-07         0.00000E+00
    0.10610E-05        -0.18215E-07         0.00000E+00
    0.10600E-05        -0.15816E-07         0.00000E+00
    0.10592E-05        -0.12422E-07         0.00000E+00
    0.10588E-05        -0.77609E-08         0.00000E+00
    0.10590E-05        -0.12955E-08         0.00000E+00
    0.10596E-05         0.65011E-08         0.00000E+00
    0.10580E-05         0.47456E-08         0.00000E+00
    0.10729E-05        -0.26927E-08         0.00000E+00
    0.10809E-05        -0.74389E-08         0.00000E+00
    0.10867E-05        -0.10621E-07         0.00000E+00
    0.10903E-05        -0.12767E-07         0.00000E+00
    0.10920E-05        -0.14160E-07         0.00000E+00
    0.10926E-05        -0.14886E-07         0.00000E+00
    0.10923E-05        -0.14982E-07         0.00000E+00
    0.10915E-05        -0.14457E-07         0.00000E+00
    0.10907E-05        -0.13293E-07         0.00000E+00
    0.10899E-05        -0.11422E-07         0.00000E+00
    0.10896E-05        -0.86967E-08         0.00000E+00
    0.10901E-05        -0.48404E-08         0.00000E+00
    0.10917E-05         0.62082E-09         0.00000E+00
    0.10942E-05         0.74222E-08         0.00000E+00
    0.10936E-05         0.51007E-08         0.00000E+00
    0.10914E-05        -0.17225E-08         0.00000E+00
    0.11031E-05        -0.47104E-08         0.00000E+00
    0.11109E-05        -0.64443E-08         0.00000E+00
    0.11156E-05        -0.77209E-08         0.00000E+00
    0.11182E-05        -0.86079E-08         0.00000E+00
    0.11192E-05        -0.91030E-08         0.00000E+00
    0.11192E-05        -0.92034E-08         0.00000E+00
    0.11186E-05        -0.89018E-08         0.00000E+00
    0.11179E-05        -0.81745E-08         0.00000E+00
    0.11174E-05        -0.69647E-08         0.00000E+00
    0.11175E-05        -0.51569E-08         0.00000E+00
    0.11188E-05        -0.25388E-08         0.00000E+00
    0.11219E-05         0.12484E-08         0.00000E+00
    0.11268E-05         0.68823E-08         0.00000E+00
    0.11286E-05         0.49812E-08         0.00000E+00
    0.11086E-05        -0.60432E-09         0.00000E+00
    0.11245E-05        -0.16312E-08         0.00000E+00
    0.11339E-05        -0.21321E-08         0.00000E+00
    0.11397E-05        -0.25679E-08         0.00000E+00
    0.11428E-05        -0.28847E-08         0.00000E+00
    0.11441E-05        -0.30704E-08         0.00000E+00
    0.11442E-05        -0.31184E-08         0.00000E+00
    0.11436E-05        -0.30241E-08         0.00000E+00
    0.11427E-05        -0.27774E-08         0.00000E+00
    0.11422E-05        -0.23561E-08         0.00000E+00
    0.11424E-05        -0.17156E-08         0.00000E+00
    0.11442E-05        -0.77691E-09         0.00000E+00
    0.11483E-05         0.60306E-09         0.00000E+00
    0.11567E-05         0.30785E-08         0.00000E+00
    0.11649E-05         0.23509E-08         0.00000E+00
POINT_DATA        496
VECTORS vDarcyNodal double 
    0.10590E-05         0.92553E-08         0.00000E+00
    0.10575E-05         0.20093E-07         0.00000E+00
    0.10564E-05         0.46039E-07         0.00000E+00
    0.10592E-05         0.78136E-07         0.00000E+00
    0.10659E-05         0.10378E-06         0.00000E+00
    0.10719E-05         0.11443E-06         0.00000E+00
    0.10763E-05         0.11582E-06         0.00000E+00
    0.10798E-05         0.11310E-06         0.00000E+00
    0.10827E-05         0.10793E-06         0.00000E+00
    0.10851E-05         0.10109E-06         0.00000E+00
    0.10872E-05         0.92880E-07         0.00000E+00
    0.10892E-05         0.83192E-07         0.00000E+00
    0.10911E-05         0.71471E-07         0.00000E+00
    0.10930E-05         0.56487E-07         0.00000E+00
    0.10947E-05         0.34652E-07         0.00000E+00
    0.10963E-05         0.21329E-07         0.00000E+00
    0.97266E-06         0.47552E-08         0.00000E+00
    0.97053E-06         0.11894E-07         0.00000E+00
    0.96910E-06         0.32336E-07         0.00000E+00
    0.97300E-06         0.62147E-07         0.00000E+00
    0.98245E-06         0.89078E-07         0.00000E+00
    0.99224E-06         0.10325E-06         0.00000E+00
    0.10002E-05         0.10734E-06         0.00000E+00
    0.10067E-05         0.10616E-06         0.00000E+00
    0.10121E-05         0.10197E-06         0.00000E+00
    0.10167E-05         0.95773E-07         0.00000E+00
    0.10208E-05         0.87953E-07         0.00000E+00
    0.10247E-05         0.78439E-07         0.00000E+00
    0.10283E-05         0.66681E-07         0.00000E+00
    0.10317E-05         0.51346E-07         0.00000E+00
    0.10347E-05         0.30073E-07         0.00000E+00
    0.10369E-05         0.17594E-07         0.00000E+00
    0.82028E-06         0.58265E-08         0.00000E+00
    0.81898E-06         0.12286E-07         0.00000E+00
    0.81851E-06         0.28881E-07         0.00000E+00
    0.82375E-06         0.50924E-07         0.00000E+00
    0.83565E-06         0.72145E-07         0.00000E+00
    0.84976E-06         0.86461E-07         0.00000E+00
    0.86276E-06         0.93067E-07         0.00000E+00
    0.87405E-06         0.94096E-07         0.00000E+00
    0.88382E-06         0.91526E-07         0.00000E+00
    0.89240E-06         0.86476E-07         0.00000E+00
    0.90010E-06         0.79430E-07         0.00000E+00
    0.90716E-06         0.70404E-07         0.00000E+00
    0.91372E-06         0.58956E-07         0.00000E+00
    0.91970E-06         0.44168E-07         0.00000E+00
    0.92445E-06         0.24693E-07         0.00000E+00
    0.92703E-06         0.13592E-07         0.00000E+00
    0.70355E-06         0.47652E-08         0.00000E+00
    0.70426E-06         0.10424E-07         0.00000E+00
    0.70646E-06         0.23782E-07         0.00000E+00
    0.71289E-06         0.40151E-07         0.00000E+00
    0.72436E-06         0.56377E-07         0.00000E+00
    0.73882E-06         0.68944E-07         0.00000E+00
    0.75370E-06         0.76347E-07         0.00000E+00
    0.76761E-06         0.79040E-07         0.00000E+00
    0.78022E-06         0.78089E-07         0.00000E+00
    0.79156E-06         0.74372E-07         0.00000E+00
    0.80184E-06         0.68370E-07         0.00000E+00
    0.81120E-06         0.60186E-07         0.00000E+00
    0.81967E-06         0.49600E-07         0.00000E+00
    0.82701E-06         0.36153E-07         0.00000E+00
    0.83243E-06         0.19470E-07         0.00000E+00
    0.83477E-06         0.10293E-07         0.00000E+00
    0.61625E-06         0.26948E-08         0.00000E+00
    0.61770E-06         0.68169E-08         0.00000E+00
    0.62184E-06         0.16711E-07         0.00000E+00
    0.62952E-06         0.28992E-07         0.00000E+00
    0.64084E-06         0.41509E-07         0.00000E+00
    0.65481E-06         0.52030E-07         0.00000E+00
    0.66984E-06         0.59194E-07         0.00000E+00
    0.68467E-06         0.62739E-07         0.00000E+00
    0.69863E-06         0.63039E-07         0.00000E+00
    0.71151E-06         0.60600E-07         0.00000E+00
    0.72328E-06         0.55794E-07         0.00000E+00
    0.73392E-06         0.48784E-07         0.00000E+00
    0.74332E-06         0.39566E-07         0.00000E+00
    0.75112E-06         0.28104E-07         0.00000E+00
    0.75652E-06         0.14630E-07         0.00000E+00
    0.75864E-06         0.74489E-08         0.00000E+00
    0.55459E-06         0.54226E-09         0.00000E+00
    0.55616E-06         0.27716E-08         0.00000E+00
    0.56090E-06         0.90186E-08         0.00000E+00
    0.56890E-06         0.17879E-07         0.00000E+00
    0.57987E-06         0.27460E-07         0.00000E+00
    0.59310E-06         0.36078E-07         0.00000E+00
    0.60754E-06         0.42563E-07         0.00000E+00
    0.62221E-06         0.46393E-07         0.00000E+00
    0.63642E-06         0.47544E-07         0.00000E+00
    0.64977E-06         0.46221E-07         0.00000E+00
    0.66205E-06         0.42663E-07         0.00000E+00
    0.67310E-06         0.37059E-07         0.00000E+00
    0.68266E-06         0.29568E-07         0.00000E+00
    0.69031E-06         0.20447E-07         0.00000E+00
    0.69538E-06         0.10263E-07         0.00000E+00
    0.69725E-06         0.50053E-08         0.00000E+00
    0.51375E-06        -0.15349E-08         0.00000E+00
    0.51526E-06        -0.11804E-08         0.00000E+00
    0.51986E-06         0.15464E-08         0.00000E+00
    0.52752E-06         0.73411E-08         0.00000E+00
    0.53777E-06         0.14415E-07         0.00000E+00
    0.55000E-06         0.21306E-07         0.00000E+00
    0.56345E-06         0.26953E-07         0.00000E+00
    0.57734E-06         0.30745E-07         0.00000E+00
    0.59103E-06         0.32447E-07         0.00000E+00
    0.60407E-06         0.32069E-07         0.00000E+00
    0.61612E-06         0.29743E-07         0.00000E+00
    0.62690E-06         0.25657E-07         0.00000E+00
    0.63608E-06         0.20075E-07         0.00000E+00
    0.64323E-06         0.13414E-07         0.00000E+00
    0.64782E-06         0.63982E-08         0.00000E+00
    0.64943E-06         0.29166E-08         0.00000E+00
    0.48991E-06        -0.34185E-08         0.00000E+00
    0.49124E-06        -0.47907E-08         0.00000E+00
    0.49537E-06        -0.52943E-08         0.00000E+00
    0.50229E-06        -0.22647E-08         0.00000E+00
    0.51153E-06         0.25835E-08         0.00000E+00
    0.52256E-06         0.78933E-08         0.00000E+00
    0.53476E-06         0.12664E-07         0.00000E+00
    0.54749E-06         0.16247E-07         0.00000E+00
    0.56019E-06         0.18303E-07         0.00000E+00
    0.57238E-06         0.18726E-07         0.00000E+00
    0.58368E-06         0.17571E-07         0.00000E+00
    0.59373E-06         0.15017E-07         0.00000E+00
    0.60219E-06         0.11370E-07         0.00000E+00
    0.60864E-06         0.71209E-08         0.00000E+00
    0.61267E-06         0.30334E-08         0.00000E+00
    0.61403E-06         0.11459E-08         0.00000E+00
    0.47998E-06        -0.50478E-08         0.00000E+00
    0.48107E-06        -0.79434E-08         0.00000E+00
    0.48457E-06        -0.11313E-07         0.00000E+00
    0.49055E-06        -0.10751E-07         0.00000E+00
    0.49862E-06        -0.78955E-08         0.00000E+00
    0.50831E-06        -0.40330E-08         0.00000E+00
    0.51910E-06        -0.12534E-09         0.00000E+00
    0.53045E-06         0.31674E-08         0.00000E+00
    0.54187E-06         0.54523E-08         0.00000E+00
    0.55289E-06         0.65571E-08         0.00000E+00
    0.56311E-06         0.64869E-08         0.00000E+00
    0.57217E-06         0.53994E-08         0.00000E+00
    0.57971E-06         0.36077E-08         0.00000E+00
    0.58537E-06         0.16121E-08         0.00000E+00
    0.58882E-06         0.14925E-09         0.00000E+00
    0.58995E-06        -0.34037E-09         0.00000E+00
    0.48142E-06        -0.64050E-08         0.00000E+00
    0.48225E-06        -0.10601E-07         0.00000E+00
    0.48505E-06        -0.16443E-07         0.00000E+00
    0.49003E-06        -0.18046E-07         0.00000E+00
    0.49686E-06        -0.16963E-07         0.00000E+00
    0.50515E-06        -0.14414E-07         0.00000E+00
    0.51446E-06        -0.11326E-07         0.00000E+00
    0.52433E-06        -0.83567E-08         0.00000E+00
    0.53432E-06        -0.59242E-08         0.00000E+00
    0.54400E-06        -0.42385E-08         0.00000E+00
    0.55298E-06        -0.33301E-08         0.00000E+00
    0.56091E-06        -0.30664E-08         0.00000E+00
    0.56744E-06        -0.31527E-08         0.00000E+00
    0.57229E-06        -0.31166E-08         0.00000E+00
    0.57517E-06        -0.22855E-08         0.00000E+00
    0.57609E-06        -0.15737E-08         0.00000E+00
    0.49216E-06        -0.74975E-08         0.00000E+00
    0.49272E-06        -0.12770E-07         0.00000E+00
    0.49484E-06        -0.20689E-07         0.00000E+00
    0.49882E-06        -0.24157E-07         0.00000E+00
    0.50441E-06        -0.24626E-07         0.00000E+00
    0.51131E-06        -0.23251E-07         0.00000E+00
    0.51914E-06        -0.20921E-07         0.00000E+00
    0.52750E-06        -0.18281E-07         0.00000E+00
    0.53601E-06        -0.15756E-07         0.00000E+00
    0.54429E-06        -0.13581E-07         0.00000E+00
    0.55197E-06        -0.11811E-07         0.00000E+00
    0.55872E-06        -0.10343E-07         0.00000E+00
    0.56425E-06        -0.89135E-08         0.00000E+00
    0.56829E-06        -0.70993E-08         0.00000E+00
    0.57064E-06        -0.43082E-08         0.00000E+00
    0.57137E-06        -0.25836E-08         0.00000E+00
    0.51048E-06        -0.83455E-08         0.00000E+00
    0.51079E-06        -0.14483E-07         0.00000E+00
    0.51226E-06        -0.24099E-07         0.00000E+00
    0.51528E-06        -0.29135E-07         0.00000E+00
    0.51970E-06        -0.30939E-07         0.00000E+00
    0.52526E-06        -0.30595E-07         0.00000E+00
    0.53165E-06        -0.28949E-07         0.00000E+00
    0.53855E-06        -0.26626E-07         0.00000E+00
    0.54561E-06        -0.24051E-07         0.00000E+00
    0.55249E-06        -0.21471E-07         0.00000E+00
    0.55888E-06        -0.18963E-07         0.00000E+00
    0.56448E-06        -0.16452E-07         0.00000E+00
    0.56903E-06        -0.13716E-07         0.00000E+00
    0.57232E-06        -0.10388E-07         0.00000E+00
    0.57419E-06        -0.59589E-08         0.00000E+00
    0.57475E-06        -0.33976E-08         0.00000E+00
    0.53495E-06        -0.89742E-08         0.00000E+00
    0.53505E-06        -0.15782E-07         0.00000E+00
    0.53591E-06        -0.26739E-07         0.00000E+00
    0.53806E-06        -0.33061E-07         0.00000E+00
    0.54138E-06        -0.35986E-07         0.00000E+00
    0.54569E-06        -0.36529E-07         0.00000E+00
    0.55073E-06        -0.35486E-07         0.00000E+00
    0.55624E-06        -0.33458E-07         0.00000E+00
    0.56192E-06        -0.30866E-07         0.00000E+00
    0.56748E-06        -0.27960E-07         0.00000E+00
    0.57264E-06        -0.24838E-07         0.00000E+00
    0.57714E-06        -0.21453E-07         0.00000E+00
    0.58078E-06        -0.17624E-07         0.00000E+00
    0.58337E-06        -0.13040E-07         0.00000E+00
    0.58481E-06        -0.72769E-08         0.00000E+00
    0.58521E-06        -0.40402E-08         0.00000E+00
    0.56439E-06        -0.94095E-08         0.00000E+00
    0.56428E-06        -0.16711E-07         0.00000E+00
    0.56461E-06        -0.28686E-07         0.00000E+00
    0.56597E-06        -0.36026E-07         0.00000E+00
    0.56830E-06        -0.39868E-07         0.00000E+00
    0.57147E-06        -0.41153E-07         0.00000E+00
    0.57527E-06        -0.40629E-07         0.00000E+00
    0.57949E-06        -0.38872E-07         0.00000E+00
    0.58389E-06        -0.36287E-07         0.00000E+00
    0.58821E-06        -0.33131E-07         0.00000E+00
    0.59223E-06        -0.29516E-07         0.00000E+00
    0.59572E-06        -0.25422E-07         0.00000E+00
    0.59852E-06        -0.20707E-07         0.00000E+00
    0.60048E-06        -0.15117E-07         0.00000E+00
    0.60153E-06        -0.82988E-08         0.00000E+00
    0.60181E-06        -0.45329E-08         0.00000E+00
    0.59777E-06        -0.96755E-08         0.00000E+00
    0.59749E-06        -0.17313E-07         0.00000E+00
    0.59735E-06        -0.30011E-07         0.00000E+00
    0.59801E-06        -0.38123E-07         0.00000E+00
    0.59946E-06        -0.42688E-07         0.00000E+00
    0.60160E-06        -0.44576E-07         0.00000E+00
    0.60429E-06        -0.44489E-07         0.00000E+00
    0.60734E-06        -0.42970E-07         0.00000E+00
    0.61056E-06        -0.40415E-07         0.00000E+00
    0.61376E-06        -0.37078E-07         0.00000E+00
    0.61673E-06        -0.33085E-07         0.00000E+00
    0.61931E-06        -0.28440E-07         0.00000E+00
    0.62135E-06        -0.23038E-07         0.00000E+00
    0.62275E-06        -0.16674E-07         0.00000E+00
    0.62345E-06        -0.90562E-08         0.00000E+00
    0.62362E-06        -0.48934E-08         0.00000E+00
    0.63419E-06        -0.97931E-08         0.00000E+00
    0.63376E-06        -0.17626E-07         0.00000E+00
    0.63323E-06        -0.30783E-07         0.00000E+00
    0.63330E-06        -0.39439E-07         0.00000E+00
    0.63398E-06        -0.44546E-07         0.00000E+00
    0.63522E-06        -0.46906E-07         0.00000E+00
    0.63691E-06        -0.47173E-07         0.00000E+00
    0.63892E-06        -0.45863E-07         0.00000E+00
    0.64109E-06        -0.43353E-07         0.00000E+00
    0.64327E-06        -0.39898E-07         0.00000E+00
    0.64531E-06        -0.35634E-07         0.00000E+00
    0.64705E-06        -0.30586E-07         0.00000E+00
    0.64841E-06        -0.24682E-07         0.00000E+00
    0.64931E-06        -0.17758E-07         0.00000E+00
    0.64971E-06        -0.95757E-08         0.00000E+00
    0.64978E-06        -0.51358E-08         0.00000E+00
    0.67285E-06        -0.97794E-08         0.00000E+00
    0.67232E-06        -0.17682E-07         0.00000E+00
    0.67147E-06        -0.31059E-07         0.00000E+00
    0.67104E-06        -0.40053E-07         0.00000E+00
    0.67106E-06        -0.45533E-07         0.00000E+00
    0.67152E-06        -0.48241E-07         0.00000E+00
    0.67235E-06        -0.48787E-07         0.00000E+00
    0.67345E-06        -0.47653E-07         0.00000E+00
    0.67469E-06        -0.45202E-07         0.00000E+00
    0.67597E-06        -0.41685E-07         0.00000E+00
    0.67717E-06        -0.37246E-07         0.00000E+00
    0.67817E-06        -0.31930E-07         0.00000E+00
    0.67892E-06        -0.25694E-07         0.00000E+00
    0.67937E-06        -0.18409E-07         0.00000E+00
    0.67951E-06        -0.98769E-08         0.00000E+00
    0.67949E-06        -0.52705E-08         0.00000E+00
    0.71304E-06        -0.96473E-08         0.00000E+00
    0.71243E-06        -0.17506E-07         0.00000E+00
    0.71134E-06        -0.30888E-07         0.00000E+00
    0.71052E-06        -0.40030E-07         0.00000E+00
    0.71000E-06        -0.45730E-07         0.00000E+00
    0.70981E-06        -0.48673E-07         0.00000E+00
    0.70989E-06        -0.49424E-07         0.00000E+00
    0.71020E-06        -0.48437E-07         0.00000E+00
    0.71065E-06        -0.46055E-07         0.00000E+00
    0.71114E-06        -0.42523E-07         0.00000E+00
    0.71159E-06        -0.37994E-07         0.00000E+00
    0.71194E-06        -0.32530E-07         0.00000E+00
    0.71214E-06        -0.26115E-07         0.00000E+00
    0.71218E-06        -0.18652E-07         0.00000E+00
    0.71207E-06        -0.99720E-08         0.00000E+00
    0.71199E-06        -0.53029E-08         0.00000E+00
    0.75407E-06        -0.94064E-08         0.00000E+00
    0.75342E-06        -0.17118E-07         0.00000E+00
    0.75219E-06        -0.30307E-07         0.00000E+00
    0.75107E-06        -0.39424E-07         0.00000E+00
    0.75013E-06        -0.45206E-07         0.00000E+00
    0.74940E-06        -0.48280E-07         0.00000E+00
    0.74888E-06        -0.49171E-07         0.00000E+00
    0.74852E-06        -0.48301E-07         0.00000E+00
    0.74829E-06        -0.45995E-07         0.00000E+00
    0.74811E-06        -0.42489E-07         0.00000E+00
    0.74792E-06        -0.37940E-07         0.00000E+00
    0.74769E-06        -0.32430E-07         0.00000E+00
    0.74739E-06        -0.25971E-07         0.00000E+00
    0.74704E-06        -0.18497E-07         0.00000E+00
    0.74671E-06        -0.98632E-08         0.00000E+00
    0.74655E-06        -0.52334E-08         0.00000E+00
    0.79529E-06        -0.90624E-08         0.00000E+00
    0.79465E-06        -0.16530E-07         0.00000E+00
    0.79338E-06        -0.29345E-07         0.00000E+00
    0.79208E-06        -0.38282E-07         0.00000E+00
    0.79083E-06        -0.44017E-07         0.00000E+00
    0.78970E-06        -0.47131E-07         0.00000E+00
    0.78869E-06        -0.48104E-07         0.00000E+00
    0.78780E-06        -0.47326E-07         0.00000E+00
    0.78701E-06        -0.45099E-07         0.00000E+00
    0.78627E-06        -0.41651E-07         0.00000E+00
    0.78555E-06        -0.37137E-07         0.00000E+00
    0.78480E-06        -0.31660E-07         0.00000E+00
    0.78404E-06        -0.25266E-07         0.00000E+00
    0.78331E-06        -0.17933E-07         0.00000E+00
    0.78274E-06        -0.95381E-08         0.00000E+00
    0.78250E-06        -0.50535E-08         0.00000E+00
    0.83606E-06        -0.86190E-08         0.00000E+00
    0.83550E-06        -0.15752E-07         0.00000E+00
    0.83430E-06        -0.28024E-07         0.00000E+00
    0.83294E-06        -0.36637E-07         0.00000E+00
    0.83152E-06        -0.42215E-07         0.00000E+00
    0.83011E-06        -0.45286E-07         0.00000E+00
    0.82875E-06        -0.46290E-07         0.00000E+00
    0.82746E-06        -0.45583E-07         0.00000E+00
    0.82624E-06        -0.43443E-07         0.00000E+00
    0.82506E-06        -0.40076E-07         0.00000E+00
    0.82390E-06        -0.35637E-07         0.00000E+00
    0.82273E-06        -0.30242E-07         0.00000E+00
    0.82154E-06        -0.23983E-07         0.00000E+00
    0.82040E-06        -0.16913E-07         0.00000E+00
    0.81952E-06        -0.89580E-08         0.00000E+00
    0.81918E-06        -0.47395E-08         0.00000E+00
    0.87578E-06        -0.80780E-08         0.00000E+00
    0.87536E-06        -0.14791E-07         0.00000E+00
    0.87438E-06        -0.26361E-07         0.00000E+00
    0.87311E-06        -0.34523E-07         0.00000E+00
    0.87165E-06        -0.39843E-07         0.00000E+00
    0.87010E-06        -0.42800E-07         0.00000E+00
    0.86853E-06        -0.43794E-07         0.00000E+00
    0.86697E-06        -0.43143E-07         0.00000E+00
    0.86544E-06        -0.41096E-07         0.00000E+00
    0.86396E-06        -0.37836E-07         0.00000E+00
    0.86248E-06        -0.33501E-07         0.00000E+00
    0.86100E-06        -0.28204E-07         0.00000E+00
    0.85944E-06        -0.22083E-07         0.00000E+00
    0.85783E-06        -0.15330E-07         0.00000E+00
    0.85643E-06        -0.80262E-08         0.00000E+00
    0.85588E-06        -0.42295E-08         0.00000E+00
    0.91385E-06        -0.74414E-08         0.00000E+00
    0.91366E-06        -0.13654E-07         0.00000E+00
    0.91307E-06        -0.24377E-07         0.00000E+00
    0.91204E-06        -0.31970E-07         0.00000E+00
    0.91071E-06        -0.36943E-07         0.00000E+00
    0.90918E-06        -0.39726E-07         0.00000E+00
    0.90753E-06        -0.40675E-07         0.00000E+00
    0.90584E-06        -0.40072E-07         0.00000E+00
    0.90414E-06        -0.38131E-07         0.00000E+00
    0.90246E-06        -0.35005E-07         0.00000E+00
    0.90081E-06        -0.30802E-07         0.00000E+00
    0.89914E-06        -0.25608E-07         0.00000E+00
    0.89736E-06        -0.19553E-07         0.00000E+00
    0.89531E-06        -0.12980E-07         0.00000E+00
    0.89301E-06        -0.64907E-08         0.00000E+00
    0.89169E-06        -0.33515E-08         0.00000E+00
    0.94972E-06        -0.67132E-08         0.00000E+00
    0.94986E-06        -0.12350E-07         0.00000E+00
    0.94986E-06        -0.22092E-07         0.00000E+00
    0.94929E-06        -0.29013E-07         0.00000E+00
    0.94826E-06        -0.33560E-07         0.00000E+00
    0.94690E-06        -0.36115E-07         0.00000E+00
    0.94532E-06        -0.36992E-07         0.00000E+00
    0.94362E-06        -0.36434E-07         0.00000E+00
    0.94187E-06        -0.34617E-07         0.00000E+00
    0.94014E-06        -0.31660E-07         0.00000E+00
    0.93844E-06        -0.27627E-07         0.00000E+00
    0.93673E-06        -0.22556E-07         0.00000E+00
    0.93490E-06        -0.16487E-07         0.00000E+00
    0.93267E-06        -0.97074E-08         0.00000E+00
    0.92914E-06        -0.37003E-08         0.00000E+00
    0.92649E-06        -0.11971E-08         0.00000E+00
    0.98287E-06        -0.59012E-08         0.00000E+00
    0.98347E-06        -0.10896E-07         0.00000E+00
    0.98433E-06        -0.19539E-07         0.00000E+00
    0.98444E-06        -0.25690E-07         0.00000E+00
    0.98391E-06        -0.29738E-07         0.00000E+00
    0.98288E-06        -0.32019E-07         0.00000E+00
    0.98151E-06        -0.32803E-07         0.00000E+00
    0.97993E-06        -0.32293E-07         0.00000E+00
    0.97825E-06        -0.30625E-07         0.00000E+00
    0.97658E-06        -0.27876E-07         0.00000E+00
    0.97496E-06        -0.24065E-07         0.00000E+00
    0.97337E-06        -0.19152E-07         0.00000E+00
    0.97170E-06        -0.13069E-07         0.00000E+00
    0.96959E-06        -0.55670E-08         0.00000E+00
    0.96561E-06         0.40710E-09         0.00000E+00
    0.96293E-06         0.22242E-08         0.00000E+00
    0.10129E-05        -0.50203E-08         0.00000E+00
    0.10141E-05        -0.93191E-08         0.00000E+00
    0.10162E-05        -0.16757E-07         0.00000E+00
    0.10172E-05        -0.22047E-07         0.00000E+00
    0.10174E-05        -0.25525E-07         0.00000E+00
    0.10168E-05        -0.27489E-07         0.00000E+00
    0.10158E-05        -0.28166E-07         0.00000E+00
    0.10144E-05        -0.27714E-07         0.00000E+00
    0.10129E-05        -0.26226E-07         0.00000E+00
    0.10114E-05        -0.23735E-07         0.00000E+00
    0.10100E-05        -0.20208E-07         0.00000E+00
    0.10087E-05        -0.15526E-07         0.00000E+00
    0.10075E-05        -0.94296E-08         0.00000E+00
    0.10059E-05        -0.15155E-08         0.00000E+00
    0.10029E-05         0.34723E-08         0.00000E+00
    0.10015E-05         0.39915E-08         0.00000E+00
    0.10395E-05        -0.40945E-08         0.00000E+00
    0.10416E-05        -0.76550E-08         0.00000E+00
    0.10452E-05        -0.13794E-07         0.00000E+00
    0.10475E-05        -0.18125E-07         0.00000E+00
    0.10486E-05        -0.20962E-07         0.00000E+00
    0.10486E-05        -0.22571E-07         0.00000E+00
    0.10480E-05        -0.23136E-07         0.00000E+00
    0.10469E-05        -0.22761E-07         0.00000E+00
    0.10457E-05        -0.21492E-07         0.00000E+00
    0.10444E-05        -0.19321E-07         0.00000E+00
    0.10433E-05        -0.16170E-07         0.00000E+00
    0.10424E-05        -0.11850E-07         0.00000E+00
    0.10419E-05        -0.59572E-08         0.00000E+00
    0.10415E-05         0.16007E-08         0.00000E+00
    0.10401E-05         0.51463E-08         0.00000E+00
    0.10393E-05         0.45436E-08         0.00000E+00
    0.10626E-05        -0.31552E-08         0.00000E+00
    0.10659E-05        -0.59440E-08         0.00000E+00
    0.10716E-05        -0.10684E-07         0.00000E+00
    0.10754E-05        -0.13943E-07         0.00000E+00
    0.10774E-05        -0.16072E-07         0.00000E+00
    0.10781E-05        -0.17312E-07         0.00000E+00
    0.10780E-05        -0.17771E-07         0.00000E+00
    0.10773E-05        -0.17496E-07         0.00000E+00
    0.10763E-05        -0.16493E-07         0.00000E+00
    0.10753E-05        -0.14724E-07         0.00000E+00
    0.10745E-05        -0.12080E-07         0.00000E+00
    0.10743E-05        -0.83420E-08         0.00000E+00
    0.10747E-05        -0.31061E-08         0.00000E+00
    0.10759E-05         0.36004E-08         0.00000E+00
    0.10762E-05         0.60989E-08         0.00000E+00
    0.10756E-05         0.49476E-08         0.00000E+00
    0.10826E-05        -0.22369E-08         0.00000E+00
    0.10875E-05        -0.42000E-08         0.00000E+00
    0.10958E-05        -0.73972E-08         0.00000E+00
    0.11011E-05        -0.94714E-08         0.00000E+00
    0.11042E-05        -0.10881E-07         0.00000E+00
    0.11056E-05        -0.11759E-07         0.00000E+00
    0.11058E-05        -0.12120E-07         0.00000E+00
    0.11054E-05        -0.11963E-07         0.00000E+00
    0.11046E-05        -0.11275E-07         0.00000E+00
    0.11038E-05        -0.10005E-07         0.00000E+00
    0.11034E-05        -0.80495E-08         0.00000E+00
    0.11037E-05        -0.52034E-08         0.00000E+00
    0.11052E-05        -0.11185E-08         0.00000E+00
    0.11084E-05         0.44402E-08         0.00000E+00
    0.11109E-05         0.64234E-08         0.00000E+00
    0.11112E-05         0.52540E-08         0.00000E+00
    0.11005E-05        -0.12168E-08         0.00000E+00
    0.11074E-05        -0.22475E-08         0.00000E+00
    0.11184E-05        -0.37800E-08         0.00000E+00
    0.11252E-05        -0.47184E-08         0.00000E+00
    0.11292E-05        -0.54723E-08         0.00000E+00
    0.11311E-05        -0.59754E-08         0.00000E+00
    0.11317E-05        -0.62091E-08         0.00000E+00
    0.11313E-05        -0.61619E-08         0.00000E+00
    0.11306E-05        -0.58192E-08         0.00000E+00
    0.11299E-05        -0.51488E-08         0.00000E+00
    0.11296E-05        -0.40835E-08         0.00000E+00
    0.11303E-05        -0.24996E-08         0.00000E+00
    0.11327E-05        -0.17441E-09         0.00000E+00
    0.11376E-05         0.36911E-08         0.00000E+00
    0.11445E-05         0.54412E-08         0.00000E+00
    0.11481E-05         0.47097E-08         0.00000E+00
    0.11092E-05         0.00000E+00         0.00000E+00
    0.11170E-05         0.00000E+00         0.00000E+00
    0.11294E-05        -0.33415E-20         0.00000E+00
    0.11370E-05         0.58775E-21         0.00000E+00
    0.11414E-05         0.28103E-20         0.00000E+00
    0.11435E-05         0.00000E+00         0.00000E+00
    0.11442E-05         0.00000E+00         0.00000E+00
    0.11438E-05        -0.34549E-20         0.00000E+00
    0.11430E-05        -0.28791E-20         0.00000E+00
    0.11422E-05         0.34839E-20         0.00000E+00
    0.11420E-05         0.29033E-20         0.00000E+00
    0.11428E-05        -0.35101E-20         0.00000E+00
    0.11456E-05         0.11050E-22         0.00000E+00
    0.11512E-05         0.35258E-20         0.00000E+00
    0.11612E-05         0.58961E-21         0.00000E+00
    0.11673E-05         0.00000E+00         0.00000E+00
CELL_DATA        450
TENSORS stressef double 
    0.20983E+08         0.18917E+06         0.00000E+00
    0.18917E+06        -0.62683E+07         0.00000E+00
    0.00000E+00         0.00000E+00        -0.91117E+05
 
    0.20943E+08         0.13283E+05         0.00000E+00
    0.13283E+05        -0.63394E+07         0.00000E+00
    0.00000E+00         0.00000E+00        -0.60891E+05
 
    0.20771E+08        -0.22304E+06         0.00000E+00
   -0.22304E+06        -0.68436E+07         0.00000E+00
    0.00000E+00         0.00000E+00        -0.26790E+05
 
    0.19541E+08        -0.55659E+06         0.00000E+00
   -0.55659E+06        -0.75939E+07         0.00000E+00
    0.00000E+00         0.00000E+00        -0.52296E+03
 
    0.17025E+08        -0.46934E+06         0.00000E+00
   -0.46934E+06        -0.82928E+07         0.00000E+00
    0.00000E+00         0.00000E+00         0.00000E+00
 
    0.15442E+08        -0.32586E+06         0.00000E+00
   -0.32586E+06        -0.88253E+07         0.00000E+00
    0.00000E+00         0.00000E+00         0.00000E+00
 
    0.14126E+08        -0.23101E+06         0.00000E+00
   -0.23101E+06        -0.91587E+07         0.00000E+00
    0.00000E+00         0.00000E+00         0.00000E+00
 
    0.12927E+08        -0.15547E+06         0.00000E+00
   -0.15547E+06        -0.93388E+07         0.00000E+00
    0.00000E+00         0.00000E+00         0.00000E+00
 
    0.11771E+08        -0.88042E+05         0.00000E+00
   -0.88042E+05        -0.93901E+07         0.00000E+00
    0.00000E+00         0.00000E+00         0.00000E+00
 
    0.10606E+08        -0.21702E+05         0.00000E+00
   -0.21702E+05        -0.93218E+07         0.00000E+00
    0.00000E+00         0.00000E+00         0.00000E+00
 
    0.93826E+07         0.49220E+05         0.00000E+00
    0.49220E+05        -0.91315E+07         0.00000E+00
    0.00000E+00         0.00000E+00         0.00000E+00
 
    0.80408E+07         0.13172E+06         0.00000E+00
    0.13172E+06        -0.88052E+07         0.00000E+00
    0.00000E+00         0.00000E+00         0.00000E+00
 
    0.64896E+07         0.23889E+06         0.00000E+00
    0.23889E+06        -0.83106E+07         0.00000E+00
    0.00000E+00         0.00000E+00         0.00000E+00
 
    0.45593E+07         0.39992E+06         0.00000E+00
    0.39992E+06        -0.75740E+07         0.00000E+00
    0.00000E+00         0.00000E+00         0.00000E+00
 
    0.17355E+07         0.80487E+06         0.00000E+00
    0.80487E+06        -0.63553E+07         0.00000E+00
    0.00000E+00         0.00000E+00         0.00000E+00
 
    0.19648E+08         0.17957E+06         0.00000E+00
    0.17957E+06        -0.98494E+07         0.00000E+00
    0.00000E+00         0.00000E+00        -0.10874E+06
 
    0.19183E+08         0.31204E+05         0.00000E+00
    0.31204E+05        -0.98198E+07         0.00000E+00
    0.00000E+00         0.00000E+00        -0.22678E+04
 
    0.18584E+08        -0.44338E+06         0.00000E+00
   -0.44338E+06        -0.93969E+07         0.00000E+00
    0.00000E+00         0.00000E+00         0.00000E+00
 
    0.17374E+08        -0.10360E+07         0.00000E+00
   -0.10360E+07        -0.91331E+07         0.00000E+00
    0.00000E+00         0.00000E+00         0.00000E+00
 
    0.15528E+08        -0.10581E+07         0.00000E+00
   -0.10581E+07        -0.92116E+07         0.00000E+00
    0.00000E+00         0.00000E+00         0.00000E+00
 
    0.13891E+08        -0.83295E+06         0.00000E+00
   -0.83295E+06        -0.93892E+07         0.00000E+00
    0.00000E+00         0.00000E+00         0.00000E+00
 
    0.12531E+08        -0.61659E+06         0.00000E+00
   -0.61659E+06        -0.95510E+07         0.00000E+00
    0.00000E+00         0.00000E+00         0.00000E+00
 
    0.11302E+08        -0.42102E+06         0.00000E+00
   -0.42102E+06        -0.96380E+07         0.00000E+00
    0.00000E+00         0.00000E+00         0.00000E+00
 
    0.10129E+08        -0.23423E+06         0.00000E+00
   -0.23423E+06        -0.96342E+07         0.00000E+00
    0.00000E+00         0.00000E+00         0.00000E+00
 
    0.89575E+07        -0.43762E+05         0.00000E+00
   -0.43762E+05        -0.95310E+07         0.00000E+00
    0.00000E+00         0.00000E+00         0.00000E+00
 
    0.77394E+07         0.16390E+06         0.00000E+00
    0.16390E+06        -0.93179E+07         0.00000E+00
    0.00000E+00         0.00000E+00         0.00000E+00
 
    0.64204E+07         0.40793E+06         0.00000E+00
    0.40793E+06        -0.89774E+07         0.00000E+00
    0.00000E+00         0.00000E+00         0.00000E+00
 
    0.49291E+07         0.72391E+06         0.00000E+00
    0.72391E+06        -0.84786E+07         0.00000E+00
    0.00000E+00         0.00000E+00         0.00000E+00
 
    0.31521E+07         0.12000E+07         0.00000E+00
    0.12000E+07        -0.77633E+07         0.00000E+00
    0.00000E+00         0.00000E+00         0.00000E+00
 
    0.10871E+07         0.21287E+07         0.00000E+00
    0.21287E+07        -0.67820E+07         0.00000E+00
    0.00000E+00         0.00000E+00         0.00000E+00
 
    0.18352E+08        -0.15223E+06         0.00000E+00
   -0.15223E+06        -0.10262E+08         0.00000E+00
    0.00000E+00         0.00000E+00        -0.31226E+04
 
    0.17413E+08        -0.18322E+06         0.00000E+00
   -0.18322E+06        -0.10386E+08         0.00000E+00
    0.00000E+00         0.00000E+00         0.00000E+00
 
    0.16684E+08        -0.49271E+06         0.00000E+00
   -0.49271E+06        -0.10579E+08         0.00000E+00
    0.00000E+00         0.00000E+00         0.00000E+00
 
    0.15594E+08        -0.93800E+06         0.00000E+00
   -0.93800E+06        -0.10539E+08         0.00000E+00
    0.00000E+00         0.00000E+00         0.00000E+00
 
    0.14125E+08        -0.11453E+07         0.00000E+00
   -0.11453E+07        -0.10360E+08         0.00000E+00
    0.00000E+00         0.00000E+00         0.00000E+00
 
    0.12611E+08        -0.10498E+07         0.00000E+00
   -0.10498E+07        -0.10258E+08         0.00000E+00
    0.00000E+00         0.00000E+00         0.00000E+00
 
    0.11241E+08        -0.83107E+06         0.00000E+00
   -0.83107E+06        -0.10221E+08         0.00000E+00
    0.00000E+00         0.00000E+00         0.00000E+00
 
    0.99929E+07        -0.57818E+06         0.00000E+00
   -0.57818E+06        -0.10180E+08         0.00000E+00
    0.00000E+00         0.00000E+00         0.00000E+00
 
    0.88076E+07        -0.30731E+06         0.00000E+00
   -0.30731E+06        -0.10094E+08         0.00000E+00
    0.00000E+00         0.00000E+00         0.00000E+00
 
    0.76372E+07        -0.14011E+05         0.00000E+00
   -0.14011E+05        -0.99364E+07         0.00000E+00
    0.00000E+00         0.00000E+00         0.00000E+00
 
    0.64390E+07         0.31595E+06         0.00000E+00
    0.31595E+06        -0.96890E+07         0.00000E+00
    0.00000E+00         0.00000E+00         0.00000E+00
 
    0.51710E+07         0.70819E+06         0.00000E+00
    0.70819E+06        -0.93319E+07         0.00000E+00
    0.00000E+00         0.00000E+00         0.00000E+00
 
    0.37913E+07         0.12110E+07         0.00000E+00
    0.12110E+07        -0.88421E+07         0.00000E+00
    0.00000E+00         0.00000E+00         0.00000E+00
 
    0.22865E+07         0.19258E+07         0.00000E+00
    0.19258E+07        -0.82027E+07         0.00000E+00
    0.00000E+00         0.00000E+00         0.00000E+00
 
    0.75242E+06         0.30051E+07         0.00000E+00
    0.30051E+07        -0.74705E+07         0.00000E+00
    0.00000E+00         0.00000E+00         0.00000E+00
 
    0.16915E+08        -0.15455E+06         0.00000E+00
   -0.15455E+06        -0.11434E+08         0.00000E+00
    0.00000E+00         0.00000E+00         0.00000E+00
 
    0.16021E+08        -0.37870E+06         0.00000E+00
   -0.37870E+06        -0.11472E+08         0.00000E+00
    0.00000E+00         0.00000E+00         0.00000E+00
 
    0.15109E+08        -0.62434E+06         0.00000E+00
   -0.62434E+06        -0.11533E+08         0.00000E+00
    0.00000E+00         0.00000E+00         0.00000E+00
 
    0.14048E+08        -0.90206E+06         0.00000E+00
   -0.90206E+06        -0.11503E+08         0.00000E+00
    0.00000E+00         0.00000E+00         0.00000E+00
 
    0.12792E+08        -0.10722E+07         0.00000E+00
   -0.10722E+07        -0.11363E+08         0.00000E+00
    0.00000E+00         0.00000E+00         0.00000E+00
 
    0.11450E+08        -0.10525E+07         0.00000E+00
   -0.10525E+07        -0.11186E+08         0.00000E+00
    0.00000E+00         0.00000E+00         0.00000E+00
 
    0.10145E+08        -0.87716E+06         0.00000E+00
   -0.87716E+06        -0.11031E+08         0.00000E+00
    0.00000E+00         0.00000E+00         0.00000E+00
 
    0.89140E+07        -0.61244E+06         0.00000E+00
   -0.61244E+06        -0.10888E+08         0.00000E+00
    0.00000E+00         0.00000E+00         0.00000E+00
 
    0.77389E+07        -0.29156E+06         0.00000E+00
   -0.29156E+06        -0.10725E+08         0.00000E+00
    0.00000E+00         0.00000E+00         0.00000E+00
 
    0.65871E+07         0.79374E+05         0.00000E+00
    0.79374E+05        -0.10515E+08         0.00000E+00
    0.00000E+00         0.00000E+00         0.00000E+00
 
    0.54273E+07         0.51034E+06         0.00000E+00
    0.51034E+06        -0.10237E+08         0.00000E+00
    0.00000E+00         0.00000E+00         0.00000E+00
 
    0.42336E+07         0.10261E+07         0.00000E+00
    0.10261E+07        -0.98738E+07         0.00000E+00
    0.00000E+00         0.00000E+00         0.00000E+00
 
    0.29946E+07         0.16715E+07         0.00000E+00
    0.16715E+07        -0.94148E+07         0.00000E+00
    0.00000E+00         0.00000E+00         0.00000E+00
 
    0.17368E+07         0.25144E+07         0.00000E+00
    0.25144E+07        -0.88743E+07         0.00000E+00
    0.00000E+00         0.00000E+00         0.00000E+00
 
    0.55495E+06         0.36254E+07         0.00000E+00
    0.36254E+07        -0.83125E+07         0.00000E+00
    0.00000E+00         0.00000E+00         0.00000E+00
 
    0.15562E+08        -0.15417E+06         0.00000E+00
   -0.15417E+06        -0.12505E+08         0.00000E+00
    0.00000E+00         0.00000E+00         0.00000E+00
 
    0.14707E+08        -0.42438E+06         0.00000E+00
   -0.42438E+06        -0.12499E+08         0.00000E+00
    0.00000E+00         0.00000E+00         0.00000E+00
 
    0.13772E+08        -0.66222E+06         0.00000E+00
   -0.66222E+06        -0.12480E+08         0.00000E+00
    0.00000E+00         0.00000E+00         0.00000E+00
 
    0.12737E+08        -0.86474E+06         0.00000E+00
   -0.86474E+06        -0.12412E+08         0.00000E+00
    0.00000E+00         0.00000E+00         0.00000E+00
 
    0.11594E+08        -0.98109E+06         0.00000E+00
   -0.98109E+06        -0.12275E+08         0.00000E+00
    0.00000E+00         0.00000E+00         0.00000E+00
 
    0.10385E+08        -0.96429E+06         0.00000E+00
   -0.96429E+06        -0.12093E+08         0.00000E+00
    0.00000E+00         0.00000E+00         0.00000E+00
 
    0.91742E+07        -0.81089E+06         0.00000E+00
   -0.81089E+06        -0.11898E+08         0.00000E+00
    0.00000E+00         0.00000E+00         0.00000E+00
 
    0.79981E+07        -0.54657E+06         0.00000E+00
   -0.54657E+06        -0.11700E+08         0.00000E+00
    0.00000E+00         0.00000E+00         0.00000E+00
 
    0.68614E+07        -0.19612E+06         0.00000E+00
   -0.19612E+06        -0.11488E+08         0.00000E+00
    0.00000E+00         0.00000E+00         0.00000E+00
 
    0.57503E+07         0.23074E+06         0.00000E+00
    0.23074E+06        -0.11243E+08         0.00000E+00
    0.00000E+00         0.00000E+00         0.00000E+00
 
    0.46478E+07         0.73905E+06         0.00000E+00
    0.73905E+06        -0.10948E+08         0.00000E+00
    0.00000E+00         0.00000E+00         0.00000E+00
 
    0.35430E+07         0.13472E+07         0.00000E+00
    0.13472E+07        -0.10592E+08         0.00000E+00
    0.00000E+00         0.00000E+00         0.00000E+00
 
    0.24417E+07         0.20856E+07         0.00000E+00
    0.20856E+07        -0.10176E+08         0.00000E+00
    0.00000E+00         0.00000E+00         0.00000E+00
 
    0.13795E+07         0.29915E+07         0.00000E+00
    0.29915E+07        -0.97213E+07         0.00000E+00
    0.00000E+00         0.00000E+00         0.00000E+00
 
    0.43248E+06         0.40916E+07         0.00000E+00
    0.40916E+07        -0.92763E+07         0.00000E+00
    0.00000E+00         0.00000E+00         0.00000E+00
 
    0.14305E+08        -0.14572E+06         0.00000E+00
   -0.14572E+06        -0.13469E+08         0.00000E+00
    0.00000E+00         0.00000E+00         0.00000E+00
 
    0.13484E+08        -0.40961E+06         0.00000E+00
   -0.40961E+06        -0.13446E+08         0.00000E+00
    0.00000E+00         0.00000E+00         0.00000E+00
 
    0.12575E+08        -0.63112E+06         0.00000E+00
   -0.63112E+06        -0.13396E+08         0.00000E+00
    0.00000E+00         0.00000E+00         0.00000E+00
 
    0.11585E+08        -0.79497E+06         0.00000E+00
   -0.79497E+06        -0.13307E+08         0.00000E+00
    0.00000E+00         0.00000E+00         0.00000E+00
 
    0.10524E+08        -0.87358E+06         0.00000E+00
   -0.87358E+06        -0.13171E+08         0.00000E+00
    0.00000E+00         0.00000E+00         0.00000E+00
 
    0.94186E+07        -0.84039E+06         0.00000E+00
   -0.84039E+06        -0.12996E+08         0.00000E+00
    0.00000E+00         0.00000E+00         0.00000E+00
 
    0.83021E+07        -0.68558E+06         0.00000E+00
   -0.68558E+06        -0.12797E+08         0.00000E+00
    0.00000E+00         0.00000E+00         0.00000E+00
 
    0.72010E+07        -0.41605E+06         0.00000E+00
   -0.41605E+06        -0.12583E+08         0.00000E+00
    0.00000E+00         0.00000E+00         0.00000E+00
 
    0.61262E+07        -0.43943E+05         0.00000E+00
   -0.43943E+05        -0.12351E+08         0.00000E+00
    0.00000E+00         0.00000E+00         0.00000E+00
 
    0.50762E+07         0.42344E+06         0.00000E+00
    0.42344E+06        -0.12093E+08         0.00000E+00
    0.00000E+00         0.00000E+00         0.00000E+00
 
    0.40458E+07         0.98773E+06         0.00000E+00
    0.98773E+06        -0.11799E+08         0.00000E+00
    0.00000E+00         0.00000E+00         0.00000E+00
 
    0.30350E+07         0.16592E+07         0.00000E+00
    0.16592E+07        -0.11464E+08         0.00000E+00
    0.00000E+00         0.00000E+00         0.00000E+00
 
    0.20568E+07         0.24539E+07         0.00000E+00
    0.24539E+07        -0.11094E+08         0.00000E+00
    0.00000E+00         0.00000E+00         0.00000E+00
 
    0.11447E+07         0.33872E+07         0.00000E+00
    0.33872E+07        -0.10708E+08         0.00000E+00
    0.00000E+00         0.00000E+00         0.00000E+00
 
    0.35539E+06         0.44618E+07         0.00000E+00
    0.44618E+07        -0.10342E+08         0.00000E+00
    0.00000E+00         0.00000E+00         0.00000E+00
 
    0.13136E+08        -0.12937E+06         0.00000E+00
   -0.12937E+06        -0.14369E+08         0.00000E+00
    0.00000E+00         0.00000E+00         0.00000E+00
 
    0.12343E+08        -0.36908E+06         0.00000E+00
   -0.36908E+06        -0.14342E+08         0.00000E+00
    0.00000E+00         0.00000E+00         0.00000E+00
 
    0.11472E+08        -0.56699E+06         0.00000E+00
   -0.56699E+06        -0.14286E+08         0.00000E+00
    0.00000E+00         0.00000E+00         0.00000E+00
 
    0.10536E+08        -0.70243E+06         0.00000E+00
   -0.70243E+06        -0.14197E+08         0.00000E+00
    0.00000E+00         0.00000E+00         0.00000E+00
 
    0.95512E+07        -0.75327E+06         0.00000E+00
   -0.75327E+06        -0.14071E+08         0.00000E+00
    0.00000E+00         0.00000E+00         0.00000E+00
 
    0.85355E+07        -0.70053E+06         0.00000E+00
   -0.70053E+06        -0.13913E+08         0.00000E+00
    0.00000E+00         0.00000E+00         0.00000E+00
 
    0.75102E+07        -0.53383E+06         0.00000E+00
   -0.53383E+06        -0.13728E+08         0.00000E+00
    0.00000E+00         0.00000E+00         0.00000E+00
 
    0.64934E+07        -0.25238E+06         0.00000E+00
   -0.25238E+06        -0.13522E+08         0.00000E+00
    0.00000E+00         0.00000E+00         0.00000E+00
 
    0.54958E+07         0.13945E+06         0.00000E+00
    0.13945E+06        -0.13296E+08         0.00000E+00
    0.00000E+00         0.00000E+00         0.00000E+00
 
    0.45218E+07         0.63755E+06         0.00000E+00
    0.63755E+06        -0.13046E+08         0.00000E+00
    0.00000E+00         0.00000E+00         0.00000E+00
 
    0.35735E+07         0.12415E+07         0.00000E+00
    0.12415E+07        -0.12770E+08         0.00000E+00
    0.00000E+00         0.00000E+00         0.00000E+00
 
    0.26565E+07         0.19547E+07         0.00000E+00
    0.19547E+07        -0.12465E+08         0.00000E+00
    0.00000E+00         0.00000E+00         0.00000E+00
 
    0.17858E+07         0.27821E+07         0.00000E+00
    0.27821E+07        -0.12139E+08         0.00000E+00
    0.00000E+00         0.00000E+00         0.00000E+00
 
    0.98899E+06         0.37247E+07         0.00000E+00
    0.37247E+07        -0.11808E+08         0.00000E+00
    0.00000E+00         0.00000E+00         0.00000E+00
 
    0.30670E+06         0.47721E+07         0.00000E+00
    0.47721E+07        -0.11498E+08         0.00000E+00
    0.00000E+00         0.00000E+00         0.00000E+00
 
    0.12037E+08        -0.11022E+06         0.00000E+00
   -0.11022E+06        -0.15233E+08         0.00000E+00
    0.00000E+00         0.00000E+00         0.00000E+00
 
    0.11266E+08        -0.31995E+06         0.00000E+00
   -0.31995E+06        -0.15211E+08         0.00000E+00
    0.00000E+00         0.00000E+00         0.00000E+00
 
    0.10434E+08        -0.49236E+06         0.00000E+00
   -0.49236E+06        -0.15164E+08         0.00000E+00
    0.00000E+00         0.00000E+00         0.00000E+00
 
    0.95554E+07        -0.60302E+06         0.00000E+00
   -0.60302E+06        -0.15089E+08         0.00000E+00
    0.00000E+00         0.00000E+00         0.00000E+00
 
    0.86444E+07        -0.63069E+06         0.00000E+00
   -0.63069E+06        -0.14985E+08         0.00000E+00
    0.00000E+00         0.00000E+00         0.00000E+00
 
    0.77143E+07        -0.55854E+06         0.00000E+00
   -0.55854E+06        -0.14853E+08         0.00000E+00
    0.00000E+00         0.00000E+00         0.00000E+00
 
    0.67793E+07        -0.37599E+06         0.00000E+00
   -0.37599E+06        -0.14695E+08         0.00000E+00
    0.00000E+00         0.00000E+00         0.00000E+00
 
    0.58519E+07        -0.78963E+05         0.00000E+00
   -0.78963E+05        -0.14514E+08         0.00000E+00
    0.00000E+00         0.00000E+00         0.00000E+00
 
    0.49409E+07         0.33206E+06         0.00000E+00
    0.33206E+06        -0.14312E+08         0.00000E+00
    0.00000E+00         0.00000E+00         0.00000E+00
 
    0.40524E+07         0.85488E+06         0.00000E+00
    0.85488E+06        -0.14088E+08         0.00000E+00
    0.00000E+00         0.00000E+00         0.00000E+00
 
    0.31915E+07         0.14876E+07         0.00000E+00
    0.14876E+07        -0.13840E+08         0.00000E+00
    0.00000E+00         0.00000E+00         0.00000E+00
 
    0.23661E+07         0.22287E+07         0.00000E+00
    0.22287E+07        -0.13572E+08         0.00000E+00
    0.00000E+00         0.00000E+00         0.00000E+00
 
    0.15899E+07         0.30754E+07         0.00000E+00
    0.30754E+07        -0.13289E+08         0.00000E+00
    0.00000E+00         0.00000E+00         0.00000E+00
 
    0.88377E+06         0.40198E+07         0.00000E+00
    0.40198E+07        -0.13003E+08         0.00000E+00
    0.00000E+00         0.00000E+00         0.00000E+00
 
    0.27571E+06         0.50447E+07         0.00000E+00
    0.50447E+07        -0.12731E+08         0.00000E+00
    0.00000E+00         0.00000E+00         0.00000E+00
 
    0.10986E+08        -0.92482E+05         0.00000E+00
   -0.92482E+05        -0.16085E+08         0.00000E+00
    0.00000E+00         0.00000E+00         0.00000E+00
 
    0.10230E+08        -0.27338E+06         0.00000E+00
   -0.27338E+06        -0.16072E+08         0.00000E+00
    0.00000E+00         0.00000E+00         0.00000E+00
 
    0.94359E+07        -0.42172E+06         0.00000E+00
   -0.42172E+06        -0.16043E+08         0.00000E+00
    0.00000E+00         0.00000E+00         0.00000E+00
 
    0.86156E+07        -0.51038E+06         0.00000E+00
   -0.51038E+06        -0.15994E+08         0.00000E+00
    0.00000E+00         0.00000E+00         0.00000E+00
 
    0.77784E+07        -0.51755E+06         0.00000E+00
   -0.51755E+06        -0.15921E+08         0.00000E+00
    0.00000E+00         0.00000E+00         0.00000E+00
 
    0.69335E+07        -0.42676E+06         0.00000E+00
   -0.42676E+06        -0.15824E+08         0.00000E+00
    0.00000E+00         0.00000E+00         0.00000E+00
 
    0.60898E+07        -0.22708E+06         0.00000E+00
   -0.22708E+06        -0.15703E+08         0.00000E+00
    0.00000E+00         0.00000E+00         0.00000E+00
 
    0.52555E+07         0.87027E+05         0.00000E+00
    0.87027E+05        -0.15559E+08         0.00000E+00
    0.00000E+00         0.00000E+00         0.00000E+00
 
    0.44370E+07         0.51686E+06         0.00000E+00
    0.51686E+06        -0.15393E+08         0.00000E+00
    0.00000E+00         0.00000E+00         0.00000E+00
 
    0.36398E+07         0.10609E+07         0.00000E+00
    0.10609E+07        -0.15205E+08         0.00000E+00
    0.00000E+00         0.00000E+00         0.00000E+00
 
    0.28693E+07         0.17161E+07         0.00000E+00
    0.17161E+07        -0.14995E+08         0.00000E+00
    0.00000E+00         0.00000E+00         0.00000E+00
 
    0.21328E+07         0.24774E+07         0.00000E+00
    0.24774E+07        -0.14767E+08         0.00000E+00
    0.00000E+00         0.00000E+00         0.00000E+00
 
    0.14412E+07         0.33374E+07         0.00000E+00
    0.33374E+07        -0.14526E+08         0.00000E+00
    0.00000E+00         0.00000E+00         0.00000E+00
 
    0.80947E+06         0.42829E+07         0.00000E+00
    0.42829E+07        -0.14279E+08         0.00000E+00
    0.00000E+00         0.00000E+00         0.00000E+00
 
    0.25532E+06         0.52934E+07         0.00000E+00
    0.52934E+07        -0.14036E+08         0.00000E+00
    0.00000E+00         0.00000E+00         0.00000E+00
 
    0.99576E+07        -0.78966E+05         0.00000E+00
   -0.78966E+05        -0.16944E+08         0.00000E+00
    0.00000E+00         0.00000E+00         0.00000E+00
 
    0.92117E+07        -0.23676E+06         0.00000E+00
   -0.23676E+06        -0.16945E+08         0.00000E+00
    0.00000E+00         0.00000E+00         0.00000E+00
 
    0.84553E+07        -0.36507E+06         0.00000E+00
   -0.36507E+06        -0.16939E+08         0.00000E+00
    0.00000E+00         0.00000E+00         0.00000E+00
 
    0.76936E+07        -0.43503E+06         0.00000E+00
   -0.43503E+06        -0.16922E+08         0.00000E+00
    0.00000E+00         0.00000E+00         0.00000E+00
 
    0.69315E+07        -0.42417E+06         0.00000E+00
   -0.42417E+06        -0.16887E+08         0.00000E+00
    0.00000E+00         0.00000E+00         0.00000E+00
 
    0.61733E+07        -0.31585E+06         0.00000E+00
   -0.31585E+06        -0.16832E+08         0.00000E+00
    0.00000E+00         0.00000E+00         0.00000E+00
 
    0.54232E+07        -0.98924E+05         0.00000E+00
   -0.98924E+05        -0.16755E+08         0.00000E+00
    0.00000E+00         0.00000E+00         0.00000E+00
 
    0.46855E+07         0.23278E+06         0.00000E+00
    0.23278E+06        -0.16656E+08         0.00000E+00
    0.00000E+00         0.00000E+00         0.00000E+00
 
    0.39637E+07         0.68118E+06         0.00000E+00
    0.68118E+06        -0.16534E+08         0.00000E+00
    0.00000E+00         0.00000E+00         0.00000E+00
 
    0.32615E+07         0.12448E+07         0.00000E+00
    0.12448E+07        -0.16390E+08         0.00000E+00
    0.00000E+00         0.00000E+00         0.00000E+00
 
    0.25829E+07         0.19195E+07         0.00000E+00
    0.19195E+07        -0.16225E+08         0.00000E+00
    0.00000E+00         0.00000E+00         0.00000E+00
 
    0.19333E+07         0.26981E+07         0.00000E+00
    0.26981E+07        -0.16039E+08         0.00000E+00
    0.00000E+00         0.00000E+00         0.00000E+00
 
    0.13200E+07         0.35702E+07         0.00000E+00
    0.35702E+07        -0.15838E+08         0.00000E+00
    0.00000E+00         0.00000E+00         0.00000E+00
 
    0.75249E+06         0.45200E+07         0.00000E+00
    0.45200E+07        -0.15625E+08         0.00000E+00
    0.00000E+00         0.00000E+00         0.00000E+00
 
    0.24070E+06         0.55258E+07         0.00000E+00
    0.55258E+07        -0.15405E+08         0.00000E+00
    0.00000E+00         0.00000E+00         0.00000E+00
 
    0.89269E+07        -0.71418E+05         0.00000E+00
   -0.71418E+05        -0.17826E+08         0.00000E+00
    0.00000E+00         0.00000E+00         0.00000E+00
 
    0.81894E+07        -0.21497E+06         0.00000E+00
   -0.21497E+06        -0.17842E+08         0.00000E+00
    0.00000E+00         0.00000E+00         0.00000E+00
 
    0.74708E+07        -0.32932E+06         0.00000E+00
   -0.32932E+06        -0.17864E+08         0.00000E+00
    0.00000E+00         0.00000E+00         0.00000E+00
 
    0.67698E+07        -0.38484E+06         0.00000E+00
   -0.38484E+06        -0.17882E+08         0.00000E+00
    0.00000E+00         0.00000E+00         0.00000E+00
 
    0.60852E+07        -0.35876E+06         0.00000E+00
   -0.35876E+06        -0.17890E+08         0.00000E+00
    0.00000E+00         0.00000E+00         0.00000E+00
 
    0.54163E+07        -0.23441E+06         0.00000E+00
   -0.23441E+06        -0.17882E+08         0.00000E+00
    0.00000E+00         0.00000E+00         0.00000E+00
 
    0.47630E+07        -0.62591E+03         0.00000E+00
   -0.62591E+03        -0.17854E+08         0.00000E+00
    0.00000E+00         0.00000E+00         0.00000E+00
 
    0.41253E+07         0.34882E+06         0.00000E+00
    0.34882E+06        -0.17805E+08         0.00000E+00
    0.00000E+00         0.00000E+00         0.00000E+00
 
    0.35039E+07         0.81586E+06         0.00000E+00
    0.81586E+06        -0.17733E+08         0.00000E+00
    0.00000E+00         0.00000E+00         0.00000E+00
 
    0.28997E+07         0.13987E+07         0.00000E+00
    0.13987E+07        -0.17638E+08         0.00000E+00
    0.00000E+00         0.00000E+00         0.00000E+00
 
    0.23143E+07         0.20924E+07         0.00000E+00
    0.20924E+07        -0.17519E+08         0.00000E+00
    0.00000E+00         0.00000E+00         0.00000E+00
 
    0.17505E+07         0.28884E+07         0.00000E+00
    0.28884E+07        -0.17378E+08         0.00000E+00
    0.00000E+00         0.00000E+00         0.00000E+00
 
    0.12120E+07         0.37746E+07         0.00000E+00
    0.37746E+07        -0.17216E+08         0.00000E+00
    0.00000E+00         0.00000E+00         0.00000E+00
 
    0.70336E+06         0.47344E+07         0.00000E+00
    0.47344E+07        -0.17035E+08         0.00000E+00
    0.00000E+00         0.00000E+00         0.00000E+00
 
    0.22853E+06         0.57458E+07         0.00000E+00
    0.57458E+07        -0.16836E+08         0.00000E+00
    0.00000E+00         0.00000E+00         0.00000E+00
 
    0.78678E+07        -0.70902E+05         0.00000E+00
   -0.70902E+05        -0.18746E+08         0.00000E+00
    0.00000E+00         0.00000E+00         0.00000E+00
 
    0.71405E+07        -0.21110E+06         0.00000E+00
   -0.21110E+06        -0.18778E+08         0.00000E+00
    0.00000E+00         0.00000E+00         0.00000E+00
 
    0.64627E+07        -0.31910E+06         0.00000E+00
   -0.31910E+06        -0.18828E+08         0.00000E+00
    0.00000E+00         0.00000E+00         0.00000E+00
 
    0.58259E+07        -0.36538E+06         0.00000E+00
   -0.36538E+06        -0.18885E+08         0.00000E+00
    0.00000E+00         0.00000E+00         0.00000E+00
 
    0.52227E+07        -0.32739E+06         0.00000E+00
   -0.32739E+06        -0.18937E+08         0.00000E+00
    0.00000E+00         0.00000E+00         0.00000E+00
 
    0.46473E+07        -0.18882E+06         0.00000E+00
   -0.18882E+06        -0.18979E+08         0.00000E+00
    0.00000E+00         0.00000E+00         0.00000E+00
 
    0.40946E+07         0.61133E+05         0.00000E+00
    0.61133E+05        -0.19003E+08         0.00000E+00
    0.00000E+00         0.00000E+00         0.00000E+00
 
    0.35609E+07         0.42837E+06         0.00000E+00
    0.42837E+06        -0.19007E+08         0.00000E+00
    0.00000E+00         0.00000E+00         0.00000E+00
 
    0.30433E+07         0.91449E+06         0.00000E+00
    0.91449E+06        -0.18987E+08         0.00000E+00
    0.00000E+00         0.00000E+00         0.00000E+00
 
    0.25398E+07         0.15173E+07         0.00000E+00
    0.15173E+07        -0.18943E+08         0.00000E+00
    0.00000E+00         0.00000E+00         0.00000E+00
 
    0.20494E+07         0.22310E+07         0.00000E+00
    0.22310E+07        -0.18873E+08         0.00000E+00
    0.00000E+00         0.00000E+00         0.00000E+00
 
    0.15717E+07         0.30465E+07         0.00000E+00
    0.30465E+07        -0.18777E+08         0.00000E+00
    0.00000E+00         0.00000E+00         0.00000E+00
 
    0.11070E+07         0.39508E+07         0.00000E+00
    0.39508E+07        -0.18654E+08         0.00000E+00
    0.00000E+00         0.00000E+00         0.00000E+00
 
    0.65545E+06         0.49272E+07         0.00000E+00
    0.49272E+07        -0.18503E+08         0.00000E+00
    0.00000E+00         0.00000E+00         0.00000E+00
 
    0.21651E+06         0.59544E+07         0.00000E+00
    0.59544E+07        -0.18323E+08         0.00000E+00
    0.00000E+00         0.00000E+00         0.00000E+00
 
    0.67552E+07        -0.78033E+05         0.00000E+00
   -0.78033E+05        -0.19714E+08         0.00000E+00
    0.00000E+00         0.00000E+00         0.00000E+00
 
    0.60438E+07        -0.22703E+06         0.00000E+00
   -0.22703E+06        -0.19762E+08         0.00000E+00
    0.00000E+00         0.00000E+00         0.00000E+00
 
    0.54125E+07        -0.33732E+06         0.00000E+00
   -0.33732E+06        -0.19841E+08         0.00000E+00
    0.00000E+00         0.00000E+00         0.00000E+00
 
    0.48456E+07        -0.38024E+06         0.00000E+00
   -0.38024E+06        -0.19937E+08         0.00000E+00
    0.00000E+00         0.00000E+00         0.00000E+00
 
    0.43294E+07        -0.33409E+06         0.00000E+00
   -0.33409E+06        -0.20035E+08         0.00000E+00
    0.00000E+00         0.00000E+00         0.00000E+00
 
    0.38525E+07        -0.18338E+06         0.00000E+00
   -0.18338E+06        -0.20127E+08         0.00000E+00
    0.00000E+00         0.00000E+00         0.00000E+00
 
    0.34053E+07         0.81922E+05         0.00000E+00
    0.81922E+05        -0.20205E+08         0.00000E+00
    0.00000E+00         0.00000E+00         0.00000E+00
 
    0.29799E+07         0.46703E+06         0.00000E+00
    0.46703E+06        -0.20262E+08         0.00000E+00
    0.00000E+00         0.00000E+00         0.00000E+00
 
    0.25700E+07         0.97296E+06         0.00000E+00
    0.97296E+06        -0.20296E+08         0.00000E+00
    0.00000E+00         0.00000E+00         0.00000E+00
 
    0.21705E+07         0.15969E+07         0.00000E+00
    0.15969E+07        -0.20303E+08         0.00000E+00
    0.00000E+00         0.00000E+00         0.00000E+00
 
    0.17774E+07         0.23328E+07         0.00000E+00
    0.23328E+07        -0.20282E+08         0.00000E+00
    0.00000E+00         0.00000E+00         0.00000E+00
 
    0.13874E+07         0.31708E+07         0.00000E+00
    0.31708E+07        -0.20230E+08         0.00000E+00
    0.00000E+00         0.00000E+00         0.00000E+00
 
    0.99737E+06         0.40981E+07         0.00000E+00
    0.40981E+07        -0.20145E+08         0.00000E+00
    0.00000E+00         0.00000E+00         0.00000E+00
 
    0.60405E+06         0.50982E+07         0.00000E+00
    0.50982E+07        -0.20024E+08         0.00000E+00
    0.00000E+00         0.00000E+00         0.00000E+00
 
    0.20306E+06         0.61511E+07         0.00000E+00
    0.61511E+07        -0.19864E+08         0.00000E+00
    0.00000E+00         0.00000E+00         0.00000E+00
 
    0.55647E+07        -0.93121E+05         0.00000E+00
   -0.93121E+05        -0.20740E+08         0.00000E+00
    0.00000E+00         0.00000E+00         0.00000E+00
 
    0.48787E+07        -0.26372E+06         0.00000E+00
   -0.26372E+06        -0.20804E+08         0.00000E+00
    0.00000E+00         0.00000E+00         0.00000E+00
 
    0.43028E+07        -0.38551E+06         0.00000E+00
   -0.38551E+06        -0.20912E+08         0.00000E+00
    0.00000E+00         0.00000E+00         0.00000E+00
 
    0.38139E+07        -0.43136E+06         0.00000E+00
   -0.43136E+06        -0.21046E+08         0.00000E+00
    0.00000E+00         0.00000E+00         0.00000E+00
 
    0.33920E+07        -0.38104E+06         0.00000E+00
   -0.38104E+06        -0.21190E+08         0.00000E+00
    0.00000E+00         0.00000E+00         0.00000E+00
 
    0.30202E+07        -0.22040E+06         0.00000E+00
   -0.22040E+06        -0.21331E+08         0.00000E+00
    0.00000E+00         0.00000E+00         0.00000E+00
 
    0.26842E+07         0.59370E+05         0.00000E+00
    0.59370E+05        -0.21460E+08         0.00000E+00
    0.00000E+00         0.00000E+00         0.00000E+00
 
    0.23722E+07         0.46246E+06         0.00000E+00
    0.46246E+06        -0.21571E+08         0.00000E+00
    0.00000E+00         0.00000E+00         0.00000E+00
 
    0.20743E+07         0.98908E+06         0.00000E+00
    0.98908E+06        -0.21657E+08         0.00000E+00
    0.00000E+00         0.00000E+00         0.00000E+00
 
    0.17826E+07         0.16359E+07         0.00000E+00
    0.16359E+07        -0.21715E+08         0.00000E+00
    0.00000E+00         0.00000E+00         0.00000E+00
 
    0.14900E+07         0.23962E+07         0.00000E+00
    0.23962E+07        -0.21741E+08         0.00000E+00
    0.00000E+00         0.00000E+00         0.00000E+00
 
    0.11904E+07         0.32604E+07         0.00000E+00
    0.32604E+07        -0.21732E+08         0.00000E+00
    0.00000E+00         0.00000E+00         0.00000E+00
 
    0.87782E+06         0.42158E+07         0.00000E+00
    0.42158E+07        -0.21685E+08         0.00000E+00
    0.00000E+00         0.00000E+00         0.00000E+00
 
    0.54584E+06         0.52465E+07         0.00000E+00
    0.52465E+07        -0.21595E+08         0.00000E+00
    0.00000E+00         0.00000E+00         0.00000E+00
 
    0.18709E+06         0.63338E+07         0.00000E+00
    0.63338E+07        -0.21456E+08         0.00000E+00
    0.00000E+00         0.00000E+00         0.00000E+00
 
    0.42732E+07        -0.11625E+06         0.00000E+00
   -0.11625E+06        -0.21832E+08         0.00000E+00
    0.00000E+00         0.00000E+00         0.00000E+00
 
    0.36260E+07        -0.32143E+06         0.00000E+00
   -0.32143E+06        -0.21911E+08         0.00000E+00
    0.00000E+00         0.00000E+00         0.00000E+00
 
    0.31175E+07        -0.46407E+06         0.00000E+00
   -0.46407E+06        -0.22048E+08         0.00000E+00
    0.00000E+00         0.00000E+00         0.00000E+00
 
    0.27172E+07        -0.51920E+06         0.00000E+00
   -0.51920E+06        -0.22218E+08         0.00000E+00
    0.00000E+00         0.00000E+00         0.00000E+00
 
    0.23989E+07        -0.46869E+06         0.00000E+00
   -0.46869E+06        -0.22405E+08         0.00000E+00
    0.00000E+00         0.00000E+00         0.00000E+00
 
    0.21400E+07        -0.30032E+06         0.00000E+00
   -0.30032E+06        -0.22593E+08         0.00000E+00
    0.00000E+00         0.00000E+00         0.00000E+00
 
    0.19220E+07        -0.69707E+04         0.00000E+00
   -0.69707E+04        -0.22772E+08         0.00000E+00
    0.00000E+00         0.00000E+00         0.00000E+00
 
    0.17290E+07         0.41419E+06         0.00000E+00
    0.41419E+06        -0.22932E+08         0.00000E+00
    0.00000E+00         0.00000E+00         0.00000E+00
 
    0.15482E+07         0.96234E+06         0.00000E+00
    0.96234E+06        -0.23068E+08         0.00000E+00
    0.00000E+00         0.00000E+00         0.00000E+00
 
    0.13685E+07         0.16335E+07         0.00000E+00
    0.16335E+07        -0.23175E+08         0.00000E+00
    0.00000E+00         0.00000E+00         0.00000E+00
 
    0.11804E+07         0.24208E+07         0.00000E+00
    0.24208E+07        -0.23247E+08         0.00000E+00
    0.00000E+00         0.00000E+00         0.00000E+00
 
    0.97517E+06         0.33146E+07         0.00000E+00
    0.33146E+07        -0.23280E+08         0.00000E+00
    0.00000E+00         0.00000E+00         0.00000E+00
 
    0.74414E+06         0.43027E+07         0.00000E+00
    0.43027E+07        -0.23271E+08         0.00000E+00
    0.00000E+00         0.00000E+00         0.00000E+00
 
    0.47832E+06         0.53702E+07         0.00000E+00
    0.53702E+07        -0.23211E+08         0.00000E+00
    0.00000E+00         0.00000E+00         0.00000E+00
 
    0.16778E+06         0.64999E+07         0.00000E+00
    0.64999E+07        -0.23095E+08         0.00000E+00
    0.00000E+00         0.00000E+00         0.00000E+00
 
    0.28590E+07        -0.14732E+06         0.00000E+00
   -0.14732E+06        -0.22997E+08         0.00000E+00
    0.00000E+00         0.00000E+00         0.00000E+00
 
    0.22679E+07        -0.39982E+06         0.00000E+00
   -0.39982E+06        -0.23091E+08         0.00000E+00
    0.00000E+00         0.00000E+00         0.00000E+00
 
    0.18420E+07        -0.57238E+06         0.00000E+00
   -0.57238E+06        -0.23253E+08         0.00000E+00
    0.00000E+00         0.00000E+00         0.00000E+00
 
    0.15435E+07        -0.64285E+06         0.00000E+00
   -0.64285E+06        -0.23458E+08         0.00000E+00
    0.00000E+00         0.00000E+00         0.00000E+00
 
    0.13398E+07        -0.59588E+06         0.00000E+00
   -0.59588E+06        -0.23685E+08         0.00000E+00
    0.00000E+00         0.00000E+00         0.00000E+00
 
    0.12031E+07        -0.42181E+06         0.00000E+00
   -0.42181E+06        -0.23916E+08         0.00000E+00
    0.00000E+00         0.00000E+00         0.00000E+00
 
    0.11106E+07        -0.11571E+06         0.00000E+00
   -0.11571E+06        -0.24140E+08         0.00000E+00
    0.00000E+00         0.00000E+00         0.00000E+00
 
    0.10430E+07         0.32351E+06         0.00000E+00
    0.32351E+06        -0.24346E+08         0.00000E+00
    0.00000E+00         0.00000E+00         0.00000E+00
 
    0.98465E+06         0.89383E+06         0.00000E+00
    0.89383E+06        -0.24528E+08         0.00000E+00
    0.00000E+00         0.00000E+00         0.00000E+00
 
    0.92195E+06         0.15906E+07         0.00000E+00
    0.15906E+07        -0.24679E+08         0.00000E+00
    0.00000E+00         0.00000E+00         0.00000E+00
 
    0.84308E+06         0.24067E+07         0.00000E+00
    0.24067E+07        -0.24794E+08         0.00000E+00
    0.00000E+00         0.00000E+00         0.00000E+00
 
    0.73702E+06         0.33330E+07         0.00000E+00
    0.33330E+07        -0.24868E+08         0.00000E+00
    0.00000E+00         0.00000E+00         0.00000E+00
 
    0.59291E+06         0.43578E+07         0.00000E+00
    0.43578E+07        -0.24895E+08         0.00000E+00
    0.00000E+00         0.00000E+00         0.00000E+00
 
    0.39947E+06         0.54674E+07         0.00000E+00
    0.54674E+07        -0.24868E+08         0.00000E+00
    0.00000E+00         0.00000E+00         0.00000E+00
 
    0.14447E+06         0.66460E+07         0.00000E+00
    0.66460E+07        -0.24777E+08         0.00000E+00
    0.00000E+00         0.00000E+00         0.00000E+00
 
    0.13019E+07        -0.18605E+06         0.00000E+00
   -0.18605E+06        -0.24240E+08         0.00000E+00
    0.00000E+00         0.00000E+00         0.00000E+00
 
    0.78826E+06        -0.49801E+06         0.00000E+00
   -0.49801E+06        -0.24348E+08         0.00000E+00
    0.00000E+00         0.00000E+00         0.00000E+00
 
    0.46348E+06        -0.70887E+06         0.00000E+00
   -0.70887E+06        -0.24534E+08         0.00000E+00
    0.00000E+00         0.00000E+00         0.00000E+00
 
    0.28239E+06        -0.80009E+06         0.00000E+00
   -0.80009E+06        -0.24769E+08         0.00000E+00
    0.00000E+00         0.00000E+00         0.00000E+00
 
    0.20614E+06        -0.75984E+06         0.00000E+00
   -0.75984E+06        -0.25031E+08         0.00000E+00
    0.00000E+00         0.00000E+00         0.00000E+00
 
    0.20210E+06        -0.58173E+06         0.00000E+00
   -0.58173E+06        -0.25300E+08         0.00000E+00
    0.00000E+00         0.00000E+00         0.00000E+00
 
    0.24339E+06        -0.26362E+06         0.00000E+00
   -0.26362E+06        -0.25562E+08         0.00000E+00
    0.00000E+00         0.00000E+00         0.00000E+00
 
    0.30799E+06         0.19346E+06         0.00000E+00
    0.19346E+06        -0.25809E+08         0.00000E+00
    0.00000E+00         0.00000E+00         0.00000E+00
 
    0.37776E+06         0.78612E+06         0.00000E+00
    0.78612E+06        -0.26030E+08         0.00000E+00
    0.00000E+00         0.00000E+00         0.00000E+00
 
    0.43731E+06         0.15090E+07         0.00000E+00
    0.15090E+07        -0.26221E+08         0.00000E+00
    0.00000E+00         0.00000E+00         0.00000E+00
 
    0.47294E+06         0.23551E+07         0.00000E+00
    0.23551E+07        -0.26376E+08         0.00000E+00
    0.00000E+00         0.00000E+00         0.00000E+00
 
    0.47177E+06         0.33155E+07         0.00000E+00
    0.33155E+07        -0.26489E+08         0.00000E+00
    0.00000E+00         0.00000E+00         0.00000E+00
 
    0.42102E+06         0.43798E+07         0.00000E+00
    0.43798E+07        -0.26552E+08         0.00000E+00
    0.00000E+00         0.00000E+00         0.00000E+00
 
    0.30739E+06         0.55355E+07         0.00000E+00
    0.55355E+07        -0.26558E+08         0.00000E+00
    0.00000E+00         0.00000E+00         0.00000E+00
 
    0.11657E+06         0.67681E+07         0.00000E+00
    0.67681E+07        -0.26496E+08         0.00000E+00
    0.00000E+00         0.00000E+00         0.00000E+00
 
   -0.41634E+06        -0.23200E+06         0.00000E+00
   -0.23200E+06        -0.25567E+08         0.00000E+00
    0.00000E+00         0.00000E+00         0.00000E+00
 
   -0.82725E+06        -0.61454E+06         0.00000E+00
   -0.61454E+06        -0.25686E+08         0.00000E+00
    0.00000E+00         0.00000E+00         0.00000E+00
 
   -0.10291E+07        -0.87101E+06         0.00000E+00
   -0.87101E+06        -0.25893E+08         0.00000E+00
    0.00000E+00         0.00000E+00         0.00000E+00
 
   -0.10746E+07        -0.98732E+06         0.00000E+00
   -0.98732E+06        -0.26154E+08         0.00000E+00
    0.00000E+00         0.00000E+00         0.00000E+00
 
   -0.10089E+07        -0.95608E+06         0.00000E+00
   -0.95608E+06        -0.26444E+08         0.00000E+00
    0.00000E+00         0.00000E+00         0.00000E+00
 
   -0.86907E+06        -0.77505E+06         0.00000E+00
   -0.77505E+06        -0.26743E+08         0.00000E+00
    0.00000E+00         0.00000E+00         0.00000E+00
 
   -0.68531E+06        -0.44553E+06         0.00000E+00
   -0.44553E+06        -0.27037E+08         0.00000E+00
    0.00000E+00         0.00000E+00         0.00000E+00
 
   -0.48176E+06         0.28912E+05         0.00000E+00
    0.28912E+05        -0.27315E+08         0.00000E+00
    0.00000E+00         0.00000E+00         0.00000E+00
 
   -0.27806E+06         0.64331E+06         0.00000E+00
    0.64331E+06        -0.27570E+08         0.00000E+00
    0.00000E+00         0.00000E+00         0.00000E+00
 
   -0.90808E+05         0.13918E+07         0.00000E+00
    0.13918E+07        -0.27796E+08         0.00000E+00
    0.00000E+00         0.00000E+00         0.00000E+00
 
    0.65044E+05         0.22675E+07         0.00000E+00
    0.22675E+07        -0.27986E+08         0.00000E+00
    0.00000E+00         0.00000E+00         0.00000E+00
 
    0.17518E+06         0.32625E+07         0.00000E+00
    0.32625E+07        -0.28134E+08         0.00000E+00
    0.00000E+00         0.00000E+00         0.00000E+00
 
    0.22520E+06         0.43674E+07         0.00000E+00
    0.43674E+07        -0.28233E+08         0.00000E+00
    0.00000E+00         0.00000E+00         0.00000E+00
 
    0.20003E+06         0.55714E+07         0.00000E+00
    0.55714E+07        -0.28274E+08         0.00000E+00
    0.00000E+00         0.00000E+00         0.00000E+00
 
    0.83353E+05         0.68618E+07         0.00000E+00
    0.68618E+07        -0.28244E+08         0.00000E+00
    0.00000E+00         0.00000E+00         0.00000E+00
 
   -0.23121E+07        -0.28459E+06         0.00000E+00
   -0.28459E+06        -0.26980E+08         0.00000E+00
    0.00000E+00         0.00000E+00         0.00000E+00
 
   -0.25906E+07        -0.74742E+06         0.00000E+00
   -0.74742E+06        -0.27109E+08         0.00000E+00
    0.00000E+00         0.00000E+00         0.00000E+00
 
   -0.26442E+07        -0.10552E+07         0.00000E+00
   -0.10552E+07        -0.27332E+08         0.00000E+00
    0.00000E+00         0.00000E+00         0.00000E+00
 
   -0.25338E+07        -0.11994E+07         0.00000E+00
   -0.11994E+07        -0.27613E+08         0.00000E+00
    0.00000E+00         0.00000E+00         0.00000E+00
 
   -0.23102E+07        -0.11782E+07         0.00000E+00
   -0.11782E+07        -0.27924E+08         0.00000E+00
    0.00000E+00         0.00000E+00         0.00000E+00
 
   -0.20148E+07        -0.99460E+06         0.00000E+00
   -0.99460E+06        -0.28244E+08         0.00000E+00
    0.00000E+00         0.00000E+00         0.00000E+00
 
   -0.16801E+07        -0.65408E+06         0.00000E+00
   -0.65408E+06        -0.28559E+08         0.00000E+00
    0.00000E+00         0.00000E+00         0.00000E+00
 
   -0.13313E+07        -0.16329E+06         0.00000E+00
   -0.16329E+06        -0.28860E+08         0.00000E+00
    0.00000E+00         0.00000E+00         0.00000E+00
 
   -0.98841E+06         0.47115E+06         0.00000E+00
    0.47115E+06        -0.29139E+08         0.00000E+00
    0.00000E+00         0.00000E+00         0.00000E+00
 
   -0.66816E+06         0.12430E+07         0.00000E+00
    0.12430E+07        -0.29391E+08         0.00000E+00
    0.00000E+00         0.00000E+00         0.00000E+00
 
   -0.38607E+06         0.21463E+07         0.00000E+00
    0.21463E+07        -0.29612E+08         0.00000E+00
    0.00000E+00         0.00000E+00         0.00000E+00
 
   -0.15753E+06         0.31742E+07         0.00000E+00
    0.31742E+07        -0.29793E+08         0.00000E+00
    0.00000E+00         0.00000E+00         0.00000E+00
 
    0.16327E+04         0.43191E+07         0.00000E+00
    0.43191E+07        -0.29928E+08         0.00000E+00
    0.00000E+00         0.00000E+00         0.00000E+00
 
    0.74834E+05         0.55717E+07         0.00000E+00
    0.55717E+07        -0.30005E+08         0.00000E+00
    0.00000E+00         0.00000E+00         0.00000E+00
 
    0.43906E+05         0.69217E+07         0.00000E+00
    0.69217E+07        -0.30013E+08         0.00000E+00
    0.00000E+00         0.00000E+00         0.00000E+00
 
   -0.43992E+07        -0.34305E+06         0.00000E+00
   -0.34305E+06        -0.28482E+08         0.00000E+00
    0.00000E+00         0.00000E+00         0.00000E+00
 
   -0.45110E+07        -0.89402E+06         0.00000E+00
   -0.89402E+06        -0.28619E+08         0.00000E+00
    0.00000E+00         0.00000E+00         0.00000E+00
 
   -0.43877E+07        -0.12567E+07         0.00000E+00
   -0.12567E+07        -0.28853E+08         0.00000E+00
    0.00000E+00         0.00000E+00         0.00000E+00
 
   -0.40986E+07        -0.14295E+07         0.00000E+00
   -0.14295E+07        -0.29146E+08         0.00000E+00
    0.00000E+00         0.00000E+00         0.00000E+00
 
   -0.37005E+07        -0.14177E+07         0.00000E+00
   -0.14177E+07        -0.29468E+08         0.00000E+00
    0.00000E+00         0.00000E+00         0.00000E+00
 
   -0.32381E+07        -0.12308E+07         0.00000E+00
   -0.12308E+07        -0.29797E+08         0.00000E+00
    0.00000E+00         0.00000E+00         0.00000E+00
 
   -0.27449E+07        -0.87946E+06         0.00000E+00
   -0.87946E+06        -0.30121E+08         0.00000E+00
    0.00000E+00         0.00000E+00         0.00000E+00
 
   -0.22458E+07        -0.37402E+06         0.00000E+00
   -0.37402E+06        -0.30432E+08         0.00000E+00
    0.00000E+00         0.00000E+00         0.00000E+00
 
   -0.17595E+07         0.27720E+06         0.00000E+00
    0.27720E+06        -0.30724E+08         0.00000E+00
    0.00000E+00         0.00000E+00         0.00000E+00
 
   -0.13016E+07         0.10680E+07         0.00000E+00
    0.10680E+07        -0.30995E+08         0.00000E+00
    0.00000E+00         0.00000E+00         0.00000E+00
 
   -0.88710E+06         0.19939E+07         0.00000E+00
    0.19939E+07        -0.31240E+08         0.00000E+00
    0.00000E+00         0.00000E+00         0.00000E+00
 
   -0.53219E+06         0.30507E+07         0.00000E+00
    0.30507E+07        -0.31452E+08         0.00000E+00
    0.00000E+00         0.00000E+00         0.00000E+00
 
   -0.25441E+06         0.42326E+07         0.00000E+00
    0.42326E+07        -0.31623E+08         0.00000E+00
    0.00000E+00         0.00000E+00         0.00000E+00
 
   -0.71640E+05         0.55321E+07         0.00000E+00
    0.55321E+07        -0.31740E+08         0.00000E+00
    0.00000E+00         0.00000E+00         0.00000E+00
 
   -0.31180E+04         0.69414E+07         0.00000E+00
    0.69414E+07        -0.31790E+08         0.00000E+00
    0.00000E+00         0.00000E+00         0.00000E+00
 
   -0.66888E+07        -0.40644E+06         0.00000E+00
   -0.40644E+06        -0.30074E+08         0.00000E+00
    0.00000E+00         0.00000E+00         0.00000E+00
 
   -0.65944E+07        -0.10510E+07         0.00000E+00
   -0.10510E+07        -0.30217E+08         0.00000E+00
    0.00000E+00         0.00000E+00         0.00000E+00
 
   -0.62618E+07        -0.14694E+07         0.00000E+00
   -0.14694E+07        -0.30456E+08         0.00000E+00
    0.00000E+00         0.00000E+00         0.00000E+00
 
   -0.57695E+07        -0.16687E+07         0.00000E+00
   -0.16687E+07        -0.30752E+08         0.00000E+00
    0.00000E+00         0.00000E+00         0.00000E+00
 
   -0.51800E+07        -0.16633E+07         0.00000E+00
   -0.16633E+07        -0.31072E+08         0.00000E+00
    0.00000E+00         0.00000E+00         0.00000E+00
 
   -0.45401E+07        -0.14710E+07         0.00000E+00
   -0.14710E+07        -0.31396E+08         0.00000E+00
    0.00000E+00         0.00000E+00         0.00000E+00
 
   -0.38828E+07        -0.11089E+07         0.00000E+00
   -0.11089E+07        -0.31712E+08         0.00000E+00
    0.00000E+00         0.00000E+00         0.00000E+00
 
   -0.32306E+07        -0.59146E+06         0.00000E+00
   -0.59146E+06        -0.32017E+08         0.00000E+00
    0.00000E+00         0.00000E+00         0.00000E+00
 
   -0.25988E+07         0.71241E+05         0.00000E+00
    0.71241E+05        -0.32309E+08         0.00000E+00
    0.00000E+00         0.00000E+00         0.00000E+00
 
   -0.20000E+07         0.87348E+06         0.00000E+00
    0.87348E+06        -0.32588E+08         0.00000E+00
    0.00000E+00         0.00000E+00         0.00000E+00
 
   -0.14471E+07         0.18133E+07         0.00000E+00
    0.18133E+07        -0.32851E+08         0.00000E+00
    0.00000E+00         0.00000E+00         0.00000E+00
 
   -0.95640E+06         0.28909E+07         0.00000E+00
    0.28909E+07        -0.33092E+08         0.00000E+00
    0.00000E+00         0.00000E+00         0.00000E+00
 
   -0.54872E+06         0.41045E+07         0.00000E+00
    0.41045E+07        -0.33301E+08         0.00000E+00
    0.00000E+00         0.00000E+00         0.00000E+00
 
   -0.24411E+06         0.54469E+07         0.00000E+00
    0.54469E+07        -0.33463E+08         0.00000E+00
    0.00000E+00         0.00000E+00         0.00000E+00
 
   -0.59877E+05         0.69124E+07         0.00000E+00
    0.69124E+07        -0.33563E+08         0.00000E+00
    0.00000E+00         0.00000E+00         0.00000E+00
 
   -0.91888E+07        -0.47366E+06         0.00000E+00
   -0.47366E+06        -0.31758E+08         0.00000E+00
    0.00000E+00         0.00000E+00         0.00000E+00
 
   -0.88428E+07        -0.12141E+07         0.00000E+00
   -0.12141E+07        -0.31902E+08         0.00000E+00
    0.00000E+00         0.00000E+00         0.00000E+00
 
   -0.82645E+07        -0.16851E+07         0.00000E+00
   -0.16851E+07        -0.32140E+08         0.00000E+00
    0.00000E+00         0.00000E+00         0.00000E+00
 
   -0.75428E+07        -0.19051E+07         0.00000E+00
   -0.19051E+07        -0.32426E+08         0.00000E+00
    0.00000E+00         0.00000E+00         0.00000E+00
 
   -0.67457E+07        -0.19005E+07         0.00000E+00
   -0.19005E+07        -0.32728E+08         0.00000E+00
    0.00000E+00         0.00000E+00         0.00000E+00
 
   -0.59203E+07        -0.16993E+07         0.00000E+00
   -0.16993E+07        -0.33028E+08         0.00000E+00
    0.00000E+00         0.00000E+00         0.00000E+00
 
   -0.50965E+07        -0.13264E+07         0.00000E+00
   -0.13264E+07        -0.33319E+08         0.00000E+00
    0.00000E+00         0.00000E+00         0.00000E+00
 
   -0.42917E+07        -0.80079E+06         0.00000E+00
   -0.80079E+06        -0.33600E+08         0.00000E+00
    0.00000E+00         0.00000E+00         0.00000E+00
 
   -0.35157E+07        -0.13436E+06         0.00000E+00
   -0.13436E+06        -0.33875E+08         0.00000E+00
    0.00000E+00         0.00000E+00         0.00000E+00
 
   -0.27753E+07         0.66816E+06         0.00000E+00
    0.66816E+06        -0.34148E+08         0.00000E+00
    0.00000E+00         0.00000E+00         0.00000E+00
 
   -0.20792E+07         0.16083E+07         0.00000E+00
    0.16083E+07        -0.34420E+08         0.00000E+00
    0.00000E+00         0.00000E+00         0.00000E+00
 
   -0.14417E+07         0.26920E+07         0.00000E+00
    0.26920E+07        -0.34689E+08         0.00000E+00
    0.00000E+00         0.00000E+00         0.00000E+00
 
   -0.88829E+06         0.39267E+07         0.00000E+00
    0.39267E+07        -0.34942E+08         0.00000E+00
    0.00000E+00         0.00000E+00         0.00000E+00
 
   -0.44868E+06         0.53079E+07         0.00000E+00
    0.53079E+07        -0.35160E+08         0.00000E+00
    0.00000E+00         0.00000E+00         0.00000E+00
 
   -0.13035E+06         0.68217E+07         0.00000E+00
    0.68217E+07        -0.35323E+08         0.00000E+00
    0.00000E+00         0.00000E+00         0.00000E+00
 
   -0.11903E+08        -0.54342E+06         0.00000E+00
   -0.54342E+06        -0.33534E+08         0.00000E+00
    0.00000E+00         0.00000E+00         0.00000E+00
 
   -0.11253E+08        -0.13781E+07         0.00000E+00
   -0.13781E+07        -0.33675E+08         0.00000E+00
    0.00000E+00         0.00000E+00         0.00000E+00
 
   -0.10388E+08        -0.18935E+07         0.00000E+00
   -0.18935E+07        -0.33901E+08         0.00000E+00
    0.00000E+00         0.00000E+00         0.00000E+00
 
   -0.94105E+07        -0.21237E+07         0.00000E+00
   -0.21237E+07        -0.34162E+08         0.00000E+00
    0.00000E+00         0.00000E+00         0.00000E+00
 
   -0.83916E+07        -0.21107E+07         0.00000E+00
   -0.21107E+07        -0.34426E+08         0.00000E+00
    0.00000E+00         0.00000E+00         0.00000E+00
 
   -0.73765E+07        -0.18957E+07         0.00000E+00
   -0.18957E+07        -0.34679E+08         0.00000E+00
    0.00000E+00         0.00000E+00         0.00000E+00
 
   -0.63885E+07        -0.15122E+07         0.00000E+00
   -0.15122E+07        -0.34921E+08         0.00000E+00
    0.00000E+00         0.00000E+00         0.00000E+00
 
   -0.54365E+07        -0.98413E+06         0.00000E+00
   -0.98413E+06        -0.35157E+08         0.00000E+00
    0.00000E+00         0.00000E+00         0.00000E+00
 
   -0.45215E+07        -0.32448E+06         0.00000E+00
   -0.32448E+06        -0.35396E+08         0.00000E+00
    0.00000E+00         0.00000E+00         0.00000E+00
 
   -0.36425E+07         0.46347E+06         0.00000E+00
    0.46347E+06        -0.35648E+08         0.00000E+00
    0.00000E+00         0.00000E+00         0.00000E+00
 
   -0.28013E+07         0.13853E+07         0.00000E+00
    0.13853E+07        -0.35918E+08         0.00000E+00
    0.00000E+00         0.00000E+00         0.00000E+00
 
   -0.20078E+07         0.24535E+07         0.00000E+00
    0.24535E+07        -0.36206E+08         0.00000E+00
    0.00000E+00         0.00000E+00         0.00000E+00
 
   -0.12855E+07         0.36849E+07         0.00000E+00
    0.36849E+07        -0.36506E+08         0.00000E+00
    0.00000E+00         0.00000E+00         0.00000E+00
 
   -0.69526E+06         0.50947E+07         0.00000E+00
    0.50947E+07        -0.36796E+08         0.00000E+00
    0.00000E+00         0.00000E+00         0.00000E+00
 
   -0.23294E+06         0.66339E+07         0.00000E+00
    0.66339E+07        -0.37080E+08         0.00000E+00
    0.00000E+00         0.00000E+00        -0.10771E+05
 
   -0.14832E+08        -0.61423E+06         0.00000E+00
   -0.61423E+06        -0.35399E+08         0.00000E+00
    0.00000E+00         0.00000E+00         0.00000E+00
 
   -0.13816E+08        -0.15360E+07         0.00000E+00
   -0.15360E+07        -0.35533E+08         0.00000E+00
    0.00000E+00         0.00000E+00         0.00000E+00
 
   -0.12619E+08        -0.20805E+07         0.00000E+00
   -0.20805E+07        -0.35734E+08         0.00000E+00
    0.00000E+00         0.00000E+00         0.00000E+00
 
   -0.11359E+08        -0.23041E+07         0.00000E+00
   -0.23041E+07        -0.35949E+08         0.00000E+00
    0.00000E+00         0.00000E+00         0.00000E+00
 
   -0.10109E+08        -0.22703E+07         0.00000E+00
   -0.22703E+07        -0.36148E+08         0.00000E+00
    0.00000E+00         0.00000E+00         0.00000E+00
 
   -0.89059E+07        -0.20358E+07         0.00000E+00
   -0.20358E+07        -0.36327E+08         0.00000E+00
    0.00000E+00         0.00000E+00         0.00000E+00
 
   -0.77622E+07        -0.16436E+07         0.00000E+00
   -0.16436E+07        -0.36493E+08         0.00000E+00
    0.00000E+00         0.00000E+00         0.00000E+00
 
   -0.66738E+07        -0.11211E+07         0.00000E+00
   -0.11211E+07        -0.36661E+08         0.00000E+00
    0.00000E+00         0.00000E+00         0.00000E+00
 
   -0.56301E+07        -0.48182E+06         0.00000E+00
   -0.48182E+06        -0.36844E+08         0.00000E+00
    0.00000E+00         0.00000E+00         0.00000E+00
 
   -0.46198E+07         0.27334E+06         0.00000E+00
    0.27334E+06        -0.37057E+08         0.00000E+00
    0.00000E+00         0.00000E+00         0.00000E+00
 
   -0.36353E+07         0.11543E+07         0.00000E+00
    0.11543E+07        -0.37311E+08         0.00000E+00
    0.00000E+00         0.00000E+00         0.00000E+00
 
   -0.26792E+07         0.21812E+07         0.00000E+00
    0.21812E+07        -0.37609E+08         0.00000E+00
    0.00000E+00         0.00000E+00         0.00000E+00
 
   -0.17719E+07         0.33807E+07         0.00000E+00
    0.33807E+07        -0.37945E+08         0.00000E+00
    0.00000E+00         0.00000E+00         0.00000E+00
 
   -0.96579E+06         0.47853E+07         0.00000E+00
    0.47853E+07        -0.38295E+08         0.00000E+00
    0.00000E+00         0.00000E+00         0.00000E+00
 
   -0.56241E+06         0.62693E+07         0.00000E+00
    0.62693E+07        -0.38679E+08         0.00000E+00
    0.00000E+00         0.00000E+00        -0.26673E+06
 
   -0.17969E+08        -0.68428E+06         0.00000E+00
   -0.68428E+06        -0.37353E+08         0.00000E+00
    0.00000E+00         0.00000E+00         0.00000E+00
 
   -0.16511E+08        -0.16778E+07         0.00000E+00
   -0.16778E+07        -0.37471E+08         0.00000E+00
    0.00000E+00         0.00000E+00         0.00000E+00
 
   -0.14934E+08        -0.22261E+07         0.00000E+00
   -0.22261E+07        -0.37629E+08         0.00000E+00
    0.00000E+00         0.00000E+00         0.00000E+00
 
   -0.13368E+08        -0.24192E+07         0.00000E+00
   -0.24192E+07        -0.37768E+08         0.00000E+00
    0.00000E+00         0.00000E+00         0.00000E+00
 
   -0.11886E+08        -0.23494E+07         0.00000E+00
   -0.23494E+07        -0.37870E+08         0.00000E+00
    0.00000E+00         0.00000E+00         0.00000E+00
 
   -0.10506E+08        -0.20913E+07         0.00000E+00
   -0.20913E+07        -0.37942E+08         0.00000E+00
    0.00000E+00         0.00000E+00         0.00000E+00
 
   -0.92229E+07        -0.16954E+07         0.00000E+00
   -0.16954E+07        -0.38004E+08         0.00000E+00
    0.00000E+00         0.00000E+00         0.00000E+00
 
   -0.80149E+07        -0.11906E+07         0.00000E+00
   -0.11906E+07        -0.38079E+08         0.00000E+00
    0.00000E+00         0.00000E+00         0.00000E+00
 
   -0.68577E+07        -0.58868E+06         0.00000E+00
   -0.58868E+06        -0.38186E+08         0.00000E+00
    0.00000E+00         0.00000E+00         0.00000E+00
 
   -0.57277E+07         0.11255E+06         0.00000E+00
    0.11255E+06        -0.38345E+08         0.00000E+00
    0.00000E+00         0.00000E+00         0.00000E+00
 
   -0.46061E+07         0.92761E+06         0.00000E+00
    0.92761E+06        -0.38568E+08         0.00000E+00
    0.00000E+00         0.00000E+00         0.00000E+00
 
   -0.34829E+07         0.18841E+07         0.00000E+00
    0.18841E+07        -0.38865E+08         0.00000E+00
    0.00000E+00         0.00000E+00         0.00000E+00
 
   -0.23706E+07         0.30261E+07         0.00000E+00
    0.30261E+07        -0.39232E+08         0.00000E+00
    0.00000E+00         0.00000E+00         0.00000E+00
 
   -0.12977E+07         0.44090E+07         0.00000E+00
    0.44090E+07        -0.39645E+08         0.00000E+00
    0.00000E+00         0.00000E+00        -0.11519E+05
 
   -0.10992E+07         0.58299E+07         0.00000E+00
    0.58299E+07        -0.40078E+08         0.00000E+00
    0.00000E+00         0.00000E+00        -0.73498E+06
 
   -0.21302E+08        -0.75113E+06         0.00000E+00
   -0.75113E+06        -0.39391E+08         0.00000E+00
    0.00000E+00         0.00000E+00         0.00000E+00
 
   -0.19309E+08        -0.17880E+07         0.00000E+00
   -0.17880E+07        -0.39483E+08         0.00000E+00
    0.00000E+00         0.00000E+00         0.00000E+00
 
   -0.17297E+08        -0.23000E+07         0.00000E+00
   -0.23000E+07        -0.39567E+08         0.00000E+00
    0.00000E+00         0.00000E+00         0.00000E+00
 
   -0.15415E+08        -0.24311E+07         0.00000E+00
   -0.24311E+07        -0.39589E+08         0.00000E+00
    0.00000E+00         0.00000E+00         0.00000E+00
 
   -0.13712E+08        -0.23114E+07         0.00000E+00
   -0.23114E+07        -0.39550E+08         0.00000E+00
    0.00000E+00         0.00000E+00         0.00000E+00
 
   -0.12179E+08        -0.20314E+07         0.00000E+00
   -0.20314E+07        -0.39479E+08         0.00000E+00
    0.00000E+00         0.00000E+00         0.00000E+00
 
   -0.10780E+08        -0.16436E+07         0.00000E+00
   -0.16436E+07        -0.39410E+08         0.00000E+00
    0.00000E+00         0.00000E+00         0.00000E+00
 
   -0.94745E+07        -0.11738E+07         0.00000E+00
   -0.11738E+07        -0.39371E+08         0.00000E+00
    0.00000E+00         0.00000E+00         0.00000E+00
 
   -0.82227E+07        -0.62995E+06         0.00000E+00
   -0.62995E+06        -0.39388E+08         0.00000E+00
    0.00000E+00         0.00000E+00         0.00000E+00
 
   -0.69884E+07        -0.61914E+04         0.00000E+00
   -0.61914E+04        -0.39479E+08         0.00000E+00
    0.00000E+00         0.00000E+00         0.00000E+00
 
   -0.57399E+07         0.71595E+06         0.00000E+00
    0.71595E+06        -0.39663E+08         0.00000E+00
    0.00000E+00         0.00000E+00         0.00000E+00
 
   -0.44515E+07         0.15700E+07         0.00000E+00
    0.15700E+07        -0.39951E+08         0.00000E+00
    0.00000E+00         0.00000E+00         0.00000E+00
 
   -0.31058E+07         0.26129E+07         0.00000E+00
    0.26129E+07        -0.40349E+08         0.00000E+00
    0.00000E+00         0.00000E+00         0.00000E+00
 
   -0.17997E+07         0.39149E+07         0.00000E+00
    0.39149E+07        -0.40841E+08         0.00000E+00
    0.00000E+00         0.00000E+00        -0.82220E+05
 
   -0.16232E+07         0.53476E+07         0.00000E+00
    0.53476E+07        -0.41379E+08         0.00000E+00
    0.00000E+00         0.00000E+00        -0.11349E+07
 
   -0.24804E+08        -0.81079E+06         0.00000E+00
   -0.81079E+06        -0.41509E+08         0.00000E+00
    0.00000E+00         0.00000E+00         0.00000E+00
 
   -0.22154E+08        -0.18385E+07         0.00000E+00
   -0.18385E+07        -0.41551E+08         0.00000E+00
    0.00000E+00         0.00000E+00         0.00000E+00
 
   -0.19663E+08        -0.22530E+07         0.00000E+00
   -0.22530E+07        -0.41509E+08         0.00000E+00
    0.00000E+00         0.00000E+00         0.00000E+00
 
   -0.17475E+08        -0.22881E+07         0.00000E+00
   -0.22881E+07        -0.41351E+08         0.00000E+00
    0.00000E+00         0.00000E+00         0.00000E+00
 
   -0.15587E+08        -0.21154E+07         0.00000E+00
   -0.21154E+07        -0.41122E+08         0.00000E+00
    0.00000E+00         0.00000E+00         0.00000E+00
 
   -0.13934E+08        -0.18279E+07         0.00000E+00
   -0.18279E+07        -0.40876E+08         0.00000E+00
    0.00000E+00         0.00000E+00         0.00000E+00
 
   -0.12450E+08        -0.14696E+07         0.00000E+00
   -0.14696E+07        -0.40656E+08         0.00000E+00
    0.00000E+00         0.00000E+00         0.00000E+00
 
   -0.11071E+08        -0.10583E+07         0.00000E+00
   -0.10583E+07        -0.40493E+08         0.00000E+00
    0.00000E+00         0.00000E+00         0.00000E+00
 
   -0.97455E+07        -0.59658E+06         0.00000E+00
   -0.59658E+06        -0.40412E+08         0.00000E+00
    0.00000E+00         0.00000E+00         0.00000E+00
 
   -0.84249E+07        -0.75476E+05         0.00000E+00
   -0.75476E+05        -0.40432E+08         0.00000E+00
    0.00000E+00         0.00000E+00         0.00000E+00
 
   -0.70645E+07         0.52548E+06         0.00000E+00
    0.52548E+06        -0.40571E+08         0.00000E+00
    0.00000E+00         0.00000E+00         0.00000E+00
 
   -0.56201E+07         0.12420E+07         0.00000E+00
    0.12420E+07        -0.40849E+08         0.00000E+00
    0.00000E+00         0.00000E+00         0.00000E+00
 
   -0.40446E+07         0.21336E+07         0.00000E+00
    0.21336E+07        -0.41283E+08         0.00000E+00
    0.00000E+00         0.00000E+00         0.00000E+00
 
   -0.24565E+07         0.32919E+07         0.00000E+00
    0.32919E+07        -0.41878E+08         0.00000E+00
    0.00000E+00         0.00000E+00        -0.13365E+06
 
   -0.21144E+07         0.47475E+07         0.00000E+00
    0.47475E+07        -0.42555E+08         0.00000E+00
    0.00000E+00         0.00000E+00        -0.14346E+07
 
   -0.28426E+08        -0.85387E+06         0.00000E+00
   -0.85387E+06        -0.43697E+08         0.00000E+00
    0.00000E+00         0.00000E+00         0.00000E+00
 
   -0.24960E+08        -0.17693E+07         0.00000E+00
   -0.17693E+07        -0.43636E+08         0.00000E+00
    0.00000E+00         0.00000E+00         0.00000E+00
 
   -0.21977E+08        -0.20023E+07         0.00000E+00
   -0.20023E+07        -0.43368E+08         0.00000E+00
    0.00000E+00         0.00000E+00         0.00000E+00
 
   -0.19541E+08        -0.19281E+07         0.00000E+00
   -0.19281E+07        -0.42949E+08         0.00000E+00
    0.00000E+00         0.00000E+00         0.00000E+00
 
   -0.17524E+08        -0.17266E+07         0.00000E+00
   -0.17266E+07        -0.42487E+08         0.00000E+00
    0.00000E+00         0.00000E+00         0.00000E+00
 
   -0.15794E+08        -0.14645E+07         0.00000E+00
   -0.14645E+07        -0.42050E+08         0.00000E+00
    0.00000E+00         0.00000E+00         0.00000E+00
 
   -0.14254E+08        -0.11674E+07         0.00000E+00
   -0.11674E+07        -0.41677E+08         0.00000E+00
    0.00000E+00         0.00000E+00         0.00000E+00
 
   -0.12827E+08        -0.84299E+06         0.00000E+00
   -0.84299E+06        -0.41395E+08         0.00000E+00
    0.00000E+00         0.00000E+00         0.00000E+00
 
   -0.11447E+08        -0.48892E+06         0.00000E+00
   -0.48892E+06        -0.41222E+08         0.00000E+00
    0.00000E+00         0.00000E+00         0.00000E+00
 
   -0.10060E+08        -0.95269E+05         0.00000E+00
   -0.95269E+05        -0.41175E+08         0.00000E+00
    0.00000E+00         0.00000E+00         0.00000E+00
 
   -0.86079E+07         0.35673E+06         0.00000E+00
    0.35673E+06        -0.41273E+08         0.00000E+00
    0.00000E+00         0.00000E+00         0.00000E+00
 
   -0.70301E+07         0.89900E+06         0.00000E+00
    0.89900E+06        -0.41541E+08         0.00000E+00
    0.00000E+00         0.00000E+00         0.00000E+00
 
   -0.52527E+07         0.15818E+07         0.00000E+00
    0.15818E+07        -0.42012E+08         0.00000E+00
    0.00000E+00         0.00000E+00         0.00000E+00
 
   -0.32975E+07         0.25181E+07         0.00000E+00
    0.25181E+07        -0.42723E+08         0.00000E+00
    0.00000E+00         0.00000E+00        -0.10078E+06
 
   -0.25913E+07         0.39500E+07         0.00000E+00
    0.39500E+07        -0.43603E+08         0.00000E+00
    0.00000E+00         0.00000E+00        -0.16057E+07
 
   -0.32052E+08        -0.84502E+06         0.00000E+00
   -0.84502E+06        -0.45929E+08         0.00000E+00
    0.00000E+00         0.00000E+00         0.00000E+00
 
   -0.27593E+08        -0.14286E+07         0.00000E+00
   -0.14286E+07        -0.45589E+08         0.00000E+00
    0.00000E+00         0.00000E+00         0.00000E+00
 
   -0.24223E+08        -0.14361E+07         0.00000E+00
   -0.14361E+07        -0.44935E+08         0.00000E+00
    0.00000E+00         0.00000E+00         0.00000E+00
 
   -0.21647E+08        -0.13094E+07         0.00000E+00
   -0.13094E+07        -0.44206E+08         0.00000E+00
    0.00000E+00         0.00000E+00         0.00000E+00
 
   -0.19562E+08        -0.11388E+07         0.00000E+00
   -0.11388E+07        -0.43514E+08         0.00000E+00
    0.00000E+00         0.00000E+00         0.00000E+00
 
   -0.17793E+08        -0.95023E+06         0.00000E+00
   -0.95023E+06        -0.42908E+08         0.00000E+00
    0.00000E+00         0.00000E+00         0.00000E+00
 
   -0.16221E+08        -0.75120E+06         0.00000E+00
   -0.75120E+06        -0.42408E+08         0.00000E+00
    0.00000E+00         0.00000E+00         0.00000E+00
 
   -0.14763E+08        -0.54205E+06         0.00000E+00
   -0.54205E+06        -0.42029E+08         0.00000E+00
    0.00000E+00         0.00000E+00         0.00000E+00
 
   -0.13348E+08        -0.31882E+06         0.00000E+00
   -0.31882E+06        -0.41783E+08         0.00000E+00
    0.00000E+00         0.00000E+00         0.00000E+00
 
   -0.11913E+08        -0.73646E+05         0.00000E+00
   -0.73646E+05        -0.41683E+08         0.00000E+00
    0.00000E+00         0.00000E+00         0.00000E+00
 
   -0.10395E+08         0.20645E+06         0.00000E+00
    0.20645E+06        -0.41749E+08         0.00000E+00
    0.00000E+00         0.00000E+00         0.00000E+00
 
   -0.87186E+07         0.54265E+06         0.00000E+00
    0.54265E+06        -0.42008E+08         0.00000E+00
    0.00000E+00         0.00000E+00         0.00000E+00
 
   -0.67960E+07         0.97147E+06         0.00000E+00
    0.97147E+06        -0.42505E+08         0.00000E+00
    0.00000E+00         0.00000E+00         0.00000E+00
 
   -0.44517E+07         0.15754E+07         0.00000E+00
    0.15754E+07        -0.43338E+08         0.00000E+00
    0.00000E+00         0.00000E+00         0.00000E+00
 
   -0.30811E+07         0.28192E+07         0.00000E+00
    0.28192E+07        -0.44494E+08         0.00000E+00
    0.00000E+00         0.00000E+00        -0.16083E+07
 
   -0.35354E+08        -0.51078E+06         0.00000E+00
   -0.51078E+06        -0.47814E+08         0.00000E+00
    0.00000E+00         0.00000E+00         0.00000E+00
 
   -0.29993E+08        -0.58114E+06         0.00000E+00
   -0.58114E+06        -0.46904E+08         0.00000E+00
    0.00000E+00         0.00000E+00         0.00000E+00
 
   -0.26491E+08        -0.52923E+06         0.00000E+00
   -0.52923E+06        -0.45868E+08         0.00000E+00
    0.00000E+00         0.00000E+00         0.00000E+00
 
   -0.23863E+08        -0.46601E+06         0.00000E+00
   -0.46601E+06        -0.44911E+08         0.00000E+00
    0.00000E+00         0.00000E+00         0.00000E+00
 
   -0.21753E+08        -0.39801E+06         0.00000E+00
   -0.39801E+06        -0.44072E+08         0.00000E+00
    0.00000E+00         0.00000E+00         0.00000E+00
 
   -0.19965E+08        -0.32871E+06         0.00000E+00
   -0.32871E+06        -0.43363E+08         0.00000E+00
    0.00000E+00         0.00000E+00         0.00000E+00
 
   -0.18376E+08        -0.25834E+06         0.00000E+00
   -0.25834E+06        -0.42790E+08         0.00000E+00
    0.00000E+00         0.00000E+00         0.00000E+00
 
   -0.16898E+08        -0.18597E+06         0.00000E+00
   -0.18597E+06        -0.42357E+08         0.00000E+00
    0.00000E+00         0.00000E+00         0.00000E+00
 
   -0.15460E+08        -0.10971E+06         0.00000E+00
   -0.10971E+06        -0.42071E+08         0.00000E+00
    0.00000E+00         0.00000E+00         0.00000E+00
 
   -0.13998E+08        -0.26603E+05         0.00000E+00
   -0.26603E+05        -0.41942E+08         0.00000E+00
    0.00000E+00         0.00000E+00         0.00000E+00
 
   -0.12442E+08         0.67979E+05         0.00000E+00
    0.67979E+05        -0.41988E+08         0.00000E+00
    0.00000E+00         0.00000E+00         0.00000E+00
 
   -0.10714E+08         0.18088E+06         0.00000E+00
    0.18088E+06        -0.42240E+08         0.00000E+00
    0.00000E+00         0.00000E+00         0.00000E+00
 
   -0.87006E+07         0.32649E+06         0.00000E+00
    0.32649E+06        -0.42747E+08         0.00000E+00
    0.00000E+00         0.00000E+00         0.00000E+00
 
   -0.62338E+07         0.52682E+06         0.00000E+00
    0.52682E+06        -0.43595E+08         0.00000E+00
    0.00000E+00         0.00000E+00         0.00000E+00
 
   -0.36989E+07         0.10817E+07         0.00000E+00
    0.10817E+07        -0.45186E+08         0.00000E+00
    0.00000E+00         0.00000E+00        -0.13840E+07
 
TENSORS stresstot double 
   -0.31820E+08         0.18917E+06         0.00000E+00
    0.18917E+06        -0.59071E+08         0.00000E+00
    0.00000E+00         0.00000E+00        -0.52894E+08
 
   -0.31887E+08         0.13283E+05         0.00000E+00
    0.13283E+05        -0.59169E+08         0.00000E+00
    0.00000E+00         0.00000E+00        -0.52891E+08
 
   -0.32124E+08        -0.22304E+06         0.00000E+00
   -0.22304E+06        -0.59739E+08         0.00000E+00
    0.00000E+00         0.00000E+00        -0.52922E+08
 
   -0.33474E+08        -0.55659E+06         0.00000E+00
   -0.55659E+06        -0.60609E+08         0.00000E+00
    0.00000E+00         0.00000E+00        -0.53015E+08
 
   -0.36155E+08        -0.46934E+06         0.00000E+00
   -0.46934E+06        -0.61473E+08         0.00000E+00
    0.00000E+00         0.00000E+00        -0.53180E+08
 
   -0.37926E+08        -0.32586E+06         0.00000E+00
   -0.32586E+06        -0.62193E+08         0.00000E+00
    0.00000E+00         0.00000E+00        -0.53367E+08
 
   -0.39434E+08        -0.23101E+06         0.00000E+00
   -0.23101E+06        -0.62719E+08         0.00000E+00
    0.00000E+00         0.00000E+00        -0.53560E+08
 
   -0.40823E+08        -0.15547E+06         0.00000E+00
   -0.15547E+06        -0.63089E+08         0.00000E+00
    0.00000E+00         0.00000E+00        -0.53750E+08
 
   -0.42162E+08        -0.88042E+05         0.00000E+00
   -0.88042E+05        -0.63323E+08         0.00000E+00
    0.00000E+00         0.00000E+00        -0.53933E+08
 
   -0.43498E+08        -0.21702E+05         0.00000E+00
   -0.21702E+05        -0.63426E+08         0.00000E+00
    0.00000E+00         0.00000E+00        -0.54104E+08
 
   -0.44880E+08         0.49220E+05         0.00000E+00
    0.49220E+05        -0.63394E+08         0.00000E+00
    0.00000E+00         0.00000E+00        -0.54263E+08
 
   -0.46363E+08         0.13172E+06         0.00000E+00
    0.13172E+06        -0.63209E+08         0.00000E+00
    0.00000E+00         0.00000E+00        -0.54404E+08
 
   -0.48036E+08         0.23889E+06         0.00000E+00
    0.23889E+06        -0.62836E+08         0.00000E+00
    0.00000E+00         0.00000E+00        -0.54526E+08
 
   -0.50061E+08         0.39992E+06         0.00000E+00
    0.39992E+06        -0.62195E+08         0.00000E+00
    0.00000E+00         0.00000E+00        -0.54621E+08
 
   -0.52942E+08         0.80487E+06         0.00000E+00
    0.80487E+06        -0.61033E+08         0.00000E+00
    0.00000E+00         0.00000E+00        -0.54678E+08
 
   -0.31527E+08         0.17957E+06         0.00000E+00
    0.17957E+06        -0.61024E+08         0.00000E+00
    0.00000E+00         0.00000E+00        -0.51284E+08
 
   -0.32012E+08         0.31204E+05         0.00000E+00
    0.31204E+05        -0.61015E+08         0.00000E+00
    0.00000E+00         0.00000E+00        -0.51198E+08
 
   -0.32664E+08        -0.44338E+06         0.00000E+00
   -0.44338E+06        -0.60645E+08         0.00000E+00
    0.00000E+00         0.00000E+00        -0.51248E+08
 
   -0.33970E+08        -0.10360E+07         0.00000E+00
   -0.10360E+07        -0.60478E+08         0.00000E+00
    0.00000E+00         0.00000E+00        -0.51345E+08
 
   -0.35955E+08        -0.10581E+07         0.00000E+00
   -0.10581E+07        -0.60695E+08         0.00000E+00
    0.00000E+00         0.00000E+00        -0.51483E+08
 
   -0.37756E+08        -0.83295E+06         0.00000E+00
   -0.83295E+06        -0.61036E+08         0.00000E+00
    0.00000E+00         0.00000E+00        -0.51647E+08
 
   -0.39290E+08        -0.61659E+06         0.00000E+00
   -0.61659E+06        -0.61372E+08         0.00000E+00
    0.00000E+00         0.00000E+00        -0.51821E+08
 
   -0.40693E+08        -0.42102E+06         0.00000E+00
   -0.42102E+06        -0.61633E+08         0.00000E+00
    0.00000E+00         0.00000E+00        -0.51995E+08
 
   -0.42035E+08        -0.23423E+06         0.00000E+00
   -0.23423E+06        -0.61798E+08         0.00000E+00
    0.00000E+00         0.00000E+00        -0.52164E+08
 
   -0.43366E+08        -0.43762E+05         0.00000E+00
   -0.43762E+05        -0.61854E+08         0.00000E+00
    0.00000E+00         0.00000E+00        -0.52323E+08
 
   -0.44731E+08         0.16390E+06         0.00000E+00
    0.16390E+06        -0.61788E+08         0.00000E+00
    0.00000E+00         0.00000E+00        -0.52470E+08
 
   -0.46181E+08         0.40793E+06         0.00000E+00
    0.40793E+06        -0.61578E+08         0.00000E+00
    0.00000E+00         0.00000E+00        -0.52601E+08
 
   -0.47783E+08         0.72391E+06         0.00000E+00
    0.72391E+06        -0.61190E+08         0.00000E+00
    0.00000E+00         0.00000E+00        -0.52712E+08
 
   -0.49644E+08         0.12000E+07         0.00000E+00
    0.12000E+07        -0.60559E+08         0.00000E+00
    0.00000E+00         0.00000E+00        -0.52796E+08
 
   -0.51757E+08         0.21287E+07         0.00000E+00
    0.21287E+07        -0.59627E+08         0.00000E+00
    0.00000E+00         0.00000E+00        -0.52845E+08
 
   -0.31419E+08        -0.15223E+06         0.00000E+00
   -0.15223E+06        -0.60034E+08         0.00000E+00
    0.00000E+00         0.00000E+00        -0.49774E+08
 
   -0.32378E+08        -0.18322E+06         0.00000E+00
   -0.18322E+06        -0.60177E+08         0.00000E+00
    0.00000E+00         0.00000E+00        -0.49791E+08
 
   -0.33152E+08        -0.49271E+06         0.00000E+00
   -0.49271E+06        -0.60415E+08         0.00000E+00
    0.00000E+00         0.00000E+00        -0.49836E+08
 
   -0.34321E+08        -0.93800E+06         0.00000E+00
   -0.93800E+06        -0.60454E+08         0.00000E+00
    0.00000E+00         0.00000E+00        -0.49915E+08
 
   -0.35901E+08        -0.11453E+07         0.00000E+00
   -0.11453E+07        -0.60387E+08         0.00000E+00
    0.00000E+00         0.00000E+00        -0.50026E+08
 
   -0.37550E+08        -0.10498E+07         0.00000E+00
   -0.10498E+07        -0.60419E+08         0.00000E+00
    0.00000E+00         0.00000E+00        -0.50161E+08
 
   -0.39067E+08        -0.83107E+06         0.00000E+00
   -0.83107E+06        -0.60530E+08         0.00000E+00
    0.00000E+00         0.00000E+00        -0.50309E+08
 
   -0.40467E+08        -0.57818E+06         0.00000E+00
   -0.57818E+06        -0.60640E+08         0.00000E+00
    0.00000E+00         0.00000E+00        -0.50460E+08
 
   -0.41801E+08        -0.30731E+06         0.00000E+00
   -0.30731E+06        -0.60702E+08         0.00000E+00
    0.00000E+00         0.00000E+00        -0.50609E+08
 
   -0.43113E+08        -0.14011E+05         0.00000E+00
   -0.14011E+05        -0.60686E+08         0.00000E+00
    0.00000E+00         0.00000E+00        -0.50750E+08
 
   -0.44441E+08         0.31595E+06         0.00000E+00
    0.31595E+06        -0.60569E+08         0.00000E+00
    0.00000E+00         0.00000E+00        -0.50880E+08
 
   -0.45824E+08         0.70819E+06         0.00000E+00
    0.70819E+06        -0.60327E+08         0.00000E+00
    0.00000E+00         0.00000E+00        -0.50995E+08
 
   -0.47300E+08         0.12110E+07         0.00000E+00
    0.12110E+07        -0.59933E+08         0.00000E+00
    0.00000E+00         0.00000E+00        -0.51091E+08
 
   -0.48876E+08         0.19258E+07         0.00000E+00
    0.19258E+07        -0.59365E+08         0.00000E+00
    0.00000E+00         0.00000E+00        -0.51162E+08
 
   -0.50449E+08         0.30051E+07         0.00000E+00
    0.30051E+07        -0.58672E+08         0.00000E+00
    0.00000E+00         0.00000E+00        -0.51202E+08
 
   -0.31643E+08        -0.15455E+06         0.00000E+00
   -0.15455E+06        -0.59992E+08         0.00000E+00
    0.00000E+00         0.00000E+00        -0.48558E+08
 
   -0.32553E+08        -0.37870E+06         0.00000E+00
   -0.37870E+06        -0.60045E+08         0.00000E+00
    0.00000E+00         0.00000E+00        -0.48573E+08
 
   -0.33499E+08        -0.62434E+06         0.00000E+00
   -0.62434E+06        -0.60142E+08         0.00000E+00
    0.00000E+00         0.00000E+00        -0.48608E+08
 
   -0.34620E+08        -0.90206E+06         0.00000E+00
   -0.90206E+06        -0.60172E+08         0.00000E+00
    0.00000E+00         0.00000E+00        -0.48669E+08
 
   -0.35962E+08        -0.10722E+07         0.00000E+00
   -0.10722E+07        -0.60117E+08         0.00000E+00
    0.00000E+00         0.00000E+00        -0.48754E+08
 
   -0.37409E+08        -0.10525E+07         0.00000E+00
   -0.10525E+07        -0.60045E+08         0.00000E+00
    0.00000E+00         0.00000E+00        -0.48859E+08
 
   -0.38833E+08        -0.87716E+06         0.00000E+00
   -0.87716E+06        -0.60009E+08         0.00000E+00
    0.00000E+00         0.00000E+00        -0.48978E+08
 
   -0.40188E+08        -0.61244E+06         0.00000E+00
   -0.61244E+06        -0.59991E+08         0.00000E+00
    0.00000E+00         0.00000E+00        -0.49102E+08
 
   -0.41488E+08        -0.29156E+06         0.00000E+00
   -0.29156E+06        -0.59952E+08         0.00000E+00
    0.00000E+00         0.00000E+00        -0.49227E+08
 
   -0.42759E+08         0.79374E+05         0.00000E+00
    0.79374E+05        -0.59861E+08         0.00000E+00
    0.00000E+00         0.00000E+00        -0.49346E+08
 
   -0.44028E+08         0.51034E+06         0.00000E+00
    0.51034E+06        -0.59693E+08         0.00000E+00
    0.00000E+00         0.00000E+00        -0.49455E+08
 
   -0.45318E+08         0.10261E+07         0.00000E+00
    0.10261E+07        -0.59426E+08         0.00000E+00
    0.00000E+00         0.00000E+00        -0.49552E+08
 
   -0.46636E+08         0.16715E+07         0.00000E+00
    0.16715E+07        -0.59046E+08         0.00000E+00
    0.00000E+00         0.00000E+00        -0.49631E+08
 
   -0.47951E+08         0.25144E+07         0.00000E+00
    0.25144E+07        -0.58562E+08         0.00000E+00
    0.00000E+00         0.00000E+00        -0.49688E+08
 
   -0.49163E+08         0.36254E+07         0.00000E+00
    0.36254E+07        -0.58031E+08         0.00000E+00
    0.00000E+00         0.00000E+00        -0.49718E+08
 
   -0.31927E+08        -0.15417E+06         0.00000E+00
   -0.15417E+06        -0.59994E+08         0.00000E+00
    0.00000E+00         0.00000E+00        -0.47489E+08
 
   -0.32790E+08        -0.42438E+06         0.00000E+00
   -0.42438E+06        -0.59996E+08         0.00000E+00
    0.00000E+00         0.00000E+00        -0.47497E+08
 
   -0.33748E+08        -0.66222E+06         0.00000E+00
   -0.66222E+06        -0.60000E+08         0.00000E+00
    0.00000E+00         0.00000E+00        -0.47520E+08
 
   -0.34824E+08        -0.86474E+06         0.00000E+00
   -0.86474E+06        -0.59972E+08         0.00000E+00
    0.00000E+00         0.00000E+00        -0.47561E+08
 
   -0.36027E+08        -0.98109E+06         0.00000E+00
   -0.98109E+06        -0.59896E+08         0.00000E+00
    0.00000E+00         0.00000E+00        -0.47621E+08
 
   -0.37313E+08        -0.96429E+06         0.00000E+00
   -0.96429E+06        -0.59792E+08         0.00000E+00
    0.00000E+00         0.00000E+00        -0.47698E+08
 
   -0.38614E+08        -0.81089E+06         0.00000E+00
   -0.81089E+06        -0.59686E+08         0.00000E+00
    0.00000E+00         0.00000E+00        -0.47788E+08
 
   -0.39886E+08        -0.54657E+06         0.00000E+00
   -0.54657E+06        -0.59584E+08         0.00000E+00
    0.00000E+00         0.00000E+00        -0.47884E+08
 
   -0.41120E+08        -0.19612E+06         0.00000E+00
   -0.19612E+06        -0.59470E+08         0.00000E+00
    0.00000E+00         0.00000E+00        -0.47982E+08
 
   -0.42326E+08         0.23074E+06         0.00000E+00
    0.23074E+06        -0.59319E+08         0.00000E+00
    0.00000E+00         0.00000E+00        -0.48076E+08
 
   -0.43516E+08         0.73905E+06         0.00000E+00
    0.73905E+06        -0.59111E+08         0.00000E+00
    0.00000E+00         0.00000E+00        -0.48164E+08
 
   -0.44697E+08         0.13472E+07         0.00000E+00
    0.13472E+07        -0.58832E+08         0.00000E+00
    0.00000E+00         0.00000E+00        -0.48240E+08
 
   -0.45860E+08         0.20856E+07         0.00000E+00
    0.20856E+07        -0.58478E+08         0.00000E+00
    0.00000E+00         0.00000E+00        -0.48301E+08
 
   -0.46965E+08         0.29915E+07         0.00000E+00
    0.29915E+07        -0.58066E+08         0.00000E+00
    0.00000E+00         0.00000E+00        -0.48345E+08
 
   -0.47934E+08         0.40916E+07         0.00000E+00
    0.40916E+07        -0.57643E+08         0.00000E+00
    0.00000E+00         0.00000E+00        -0.48367E+08
 
   -0.32216E+08        -0.14572E+06         0.00000E+00
   -0.14572E+06        -0.59991E+08         0.00000E+00
    0.00000E+00         0.00000E+00        -0.46521E+08
 
   -0.33039E+08        -0.40961E+06         0.00000E+00
   -0.40961E+06        -0.59969E+08         0.00000E+00
    0.00000E+00         0.00000E+00        -0.46523E+08
 
   -0.33957E+08        -0.63112E+06         0.00000E+00
   -0.63112E+06        -0.59928E+08         0.00000E+00
    0.00000E+00         0.00000E+00        -0.46532E+08
 
   -0.34969E+08        -0.79497E+06         0.00000E+00
   -0.79497E+06        -0.59861E+08         0.00000E+00
    0.00000E+00         0.00000E+00        -0.46554E+08
 
   -0.36067E+08        -0.87358E+06         0.00000E+00
   -0.87358E+06        -0.59762E+08         0.00000E+00
    0.00000E+00         0.00000E+00        -0.46591E+08
 
   -0.37223E+08        -0.84039E+06         0.00000E+00
   -0.84039E+06        -0.59638E+08         0.00000E+00
    0.00000E+00         0.00000E+00        -0.46641E+08
 
   -0.38401E+08        -0.68558E+06         0.00000E+00
   -0.68558E+06        -0.59500E+08         0.00000E+00
    0.00000E+00         0.00000E+00        -0.46703E+08
 
   -0.39570E+08        -0.41605E+06         0.00000E+00
   -0.41605E+06        -0.59354E+08         0.00000E+00
    0.00000E+00         0.00000E+00        -0.46771E+08
 
   -0.40716E+08        -0.43943E+05         0.00000E+00
   -0.43943E+05        -0.59193E+08         0.00000E+00
    0.00000E+00         0.00000E+00        -0.46842E+08
 
   -0.41835E+08         0.42344E+06         0.00000E+00
    0.42344E+06        -0.59004E+08         0.00000E+00
    0.00000E+00         0.00000E+00        -0.46912E+08
 
   -0.42930E+08         0.98773E+06         0.00000E+00
    0.98773E+06        -0.58775E+08         0.00000E+00
    0.00000E+00         0.00000E+00        -0.46976E+08
 
   -0.43997E+08         0.16592E+07         0.00000E+00
    0.16592E+07        -0.58496E+08         0.00000E+00
    0.00000E+00         0.00000E+00        -0.47032E+08
 
   -0.45019E+08         0.24539E+07         0.00000E+00
    0.24539E+07        -0.58170E+08         0.00000E+00
    0.00000E+00         0.00000E+00        -0.47076E+08
 
   -0.45962E+08         0.33872E+07         0.00000E+00
    0.33872E+07        -0.57814E+08         0.00000E+00
    0.00000E+00         0.00000E+00        -0.47106E+08
 
   -0.46766E+08         0.44618E+07         0.00000E+00
    0.44618E+07        -0.57464E+08         0.00000E+00
    0.00000E+00         0.00000E+00        -0.47121E+08
 
   -0.32484E+08        -0.12937E+06         0.00000E+00
   -0.12937E+06        -0.59989E+08         0.00000E+00
    0.00000E+00         0.00000E+00        -0.45620E+08
 
   -0.33271E+08        -0.36908E+06         0.00000E+00
   -0.36908E+06        -0.59957E+08         0.00000E+00
    0.00000E+00         0.00000E+00        -0.45615E+08
 
   -0.34140E+08        -0.56699E+06         0.00000E+00
   -0.56699E+06        -0.59898E+08         0.00000E+00
    0.00000E+00         0.00000E+00        -0.45612E+08
 
   -0.35080E+08        -0.70243E+06         0.00000E+00
   -0.70243E+06        -0.59813E+08         0.00000E+00
    0.00000E+00         0.00000E+00        -0.45616E+08
 
   -0.36080E+08        -0.75327E+06         0.00000E+00
   -0.75327E+06        -0.59702E+08         0.00000E+00
    0.00000E+00         0.00000E+00        -0.45631E+08
 
   -0.37121E+08        -0.70053E+06         0.00000E+00
   -0.70053E+06        -0.59570E+08         0.00000E+00
    0.00000E+00         0.00000E+00        -0.45657E+08
 
   -0.38182E+08        -0.53383E+06         0.00000E+00
   -0.53383E+06        -0.59420E+08         0.00000E+00
    0.00000E+00         0.00000E+00        -0.45692E+08
 
   -0.39240E+08        -0.25238E+06         0.00000E+00
   -0.25238E+06        -0.59256E+08         0.00000E+00
    0.00000E+00         0.00000E+00        -0.45734E+08
 
   -0.40283E+08         0.13945E+06         0.00000E+00
    0.13945E+06        -0.59075E+08         0.00000E+00
    0.00000E+00         0.00000E+00        -0.45779E+08
 
   -0.41302E+08         0.63755E+06         0.00000E+00
    0.63755E+06        -0.58871E+08         0.00000E+00
    0.00000E+00         0.00000E+00        -0.45824E+08
 
   -0.42293E+08         0.12415E+07         0.00000E+00
    0.12415E+07        -0.58636E+08         0.00000E+00
    0.00000E+00         0.00000E+00        -0.45866E+08
 
   -0.43246E+08         0.19547E+07         0.00000E+00
    0.19547E+07        -0.58368E+08         0.00000E+00
    0.00000E+00         0.00000E+00        -0.45903E+08
 
   -0.44145E+08         0.27821E+07         0.00000E+00
    0.27821E+07        -0.58070E+08         0.00000E+00
    0.00000E+00         0.00000E+00        -0.45931E+08
 
   -0.44960E+08         0.37247E+07         0.00000E+00
    0.37247E+07        -0.57757E+08         0.00000E+00
    0.00000E+00         0.00000E+00        -0.45949E+08
 
   -0.45651E+08         0.47721E+07         0.00000E+00
    0.47721E+07        -0.57455E+08         0.00000E+00
    0.00000E+00         0.00000E+00        -0.45958E+08
 
   -0.32720E+08        -0.11022E+06         0.00000E+00
   -0.11022E+06        -0.59990E+08         0.00000E+00
    0.00000E+00         0.00000E+00        -0.44757E+08
 
   -0.33479E+08        -0.31995E+06         0.00000E+00
   -0.31995E+06        -0.59956E+08         0.00000E+00
    0.00000E+00         0.00000E+00        -0.44746E+08
 
   -0.34297E+08        -0.49236E+06         0.00000E+00
   -0.49236E+06        -0.59894E+08         0.00000E+00
    0.00000E+00         0.00000E+00        -0.44731E+08
 
   -0.35164E+08        -0.60302E+06         0.00000E+00
   -0.60302E+06        -0.59809E+08         0.00000E+00
    0.00000E+00         0.00000E+00        -0.44719E+08
 
   -0.36070E+08        -0.63069E+06         0.00000E+00
   -0.63069E+06        -0.59700E+08         0.00000E+00
    0.00000E+00         0.00000E+00        -0.44715E+08
 
   -0.37004E+08        -0.55854E+06         0.00000E+00
   -0.55854E+06        -0.59571E+08         0.00000E+00
    0.00000E+00         0.00000E+00        -0.44718E+08
 
   -0.37950E+08        -0.37599E+06         0.00000E+00
   -0.37599E+06        -0.59424E+08         0.00000E+00
    0.00000E+00         0.00000E+00        -0.44729E+08
 
   -0.38895E+08        -0.78963E+05         0.00000E+00
   -0.78963E+05        -0.59261E+08         0.00000E+00
    0.00000E+00         0.00000E+00        -0.44746E+08
 
   -0.39827E+08         0.33206E+06         0.00000E+00
    0.33206E+06        -0.59080E+08         0.00000E+00
    0.00000E+00         0.00000E+00        -0.44768E+08
 
   -0.40738E+08         0.85488E+06         0.00000E+00
    0.85488E+06        -0.58878E+08         0.00000E+00
    0.00000E+00         0.00000E+00        -0.44790E+08
 
   -0.41620E+08         0.14876E+07         0.00000E+00
    0.14876E+07        -0.58652E+08         0.00000E+00
    0.00000E+00         0.00000E+00        -0.44812E+08
 
   -0.42464E+08         0.22287E+07         0.00000E+00
    0.22287E+07        -0.58402E+08         0.00000E+00
    0.00000E+00         0.00000E+00        -0.44830E+08
 
   -0.43254E+08         0.30754E+07         0.00000E+00
    0.30754E+07        -0.58132E+08         0.00000E+00
    0.00000E+00         0.00000E+00        -0.44844E+08
 
   -0.43968E+08         0.40198E+07         0.00000E+00
    0.40198E+07        -0.57854E+08         0.00000E+00
    0.00000E+00         0.00000E+00        -0.44851E+08
 
   -0.44579E+08         0.50447E+07         0.00000E+00
    0.50447E+07        -0.57586E+08         0.00000E+00
    0.00000E+00         0.00000E+00        -0.44854E+08
 
   -0.32922E+08        -0.92482E+05         0.00000E+00
   -0.92482E+05        -0.59992E+08         0.00000E+00
    0.00000E+00         0.00000E+00        -0.43907E+08
 
   -0.33661E+08        -0.27338E+06         0.00000E+00
   -0.27338E+06        -0.59963E+08         0.00000E+00
    0.00000E+00         0.00000E+00        -0.43891E+08
 
   -0.34430E+08        -0.42172E+06         0.00000E+00
   -0.42172E+06        -0.59910E+08         0.00000E+00
    0.00000E+00         0.00000E+00        -0.43866E+08
 
   -0.35225E+08        -0.51038E+06         0.00000E+00
   -0.51038E+06        -0.59835E+08         0.00000E+00
    0.00000E+00         0.00000E+00        -0.43841E+08
 
   -0.36040E+08        -0.51755E+06         0.00000E+00
   -0.51755E+06        -0.59740E+08         0.00000E+00
    0.00000E+00         0.00000E+00        -0.43818E+08
 
   -0.36868E+08        -0.42676E+06         0.00000E+00
   -0.42676E+06        -0.59626E+08         0.00000E+00
    0.00000E+00         0.00000E+00        -0.43802E+08
 
   -0.37702E+08        -0.22708E+06         0.00000E+00
   -0.22708E+06        -0.59495E+08         0.00000E+00
    0.00000E+00         0.00000E+00        -0.43792E+08
 
   -0.38531E+08         0.87027E+05         0.00000E+00
    0.87027E+05        -0.59346E+08         0.00000E+00
    0.00000E+00         0.00000E+00        -0.43787E+08
 
   -0.39349E+08         0.51686E+06         0.00000E+00
    0.51686E+06        -0.59179E+08         0.00000E+00
    0.00000E+00         0.00000E+00        -0.43786E+08
 
   -0.40149E+08         0.10609E+07         0.00000E+00
    0.10609E+07        -0.58993E+08         0.00000E+00
    0.00000E+00         0.00000E+00        -0.43789E+08
 
   -0.40922E+08         0.17161E+07         0.00000E+00
    0.17161E+07        -0.58787E+08         0.00000E+00
    0.00000E+00         0.00000E+00        -0.43791E+08
 
   -0.41661E+08         0.24774E+07         0.00000E+00
    0.24774E+07        -0.58561E+08         0.00000E+00
    0.00000E+00         0.00000E+00        -0.43793E+08
 
   -0.42353E+08         0.33374E+07         0.00000E+00
    0.33374E+07        -0.58320E+08         0.00000E+00
    0.00000E+00         0.00000E+00        -0.43794E+08
 
   -0.42983E+08         0.42829E+07         0.00000E+00
    0.42829E+07        -0.58071E+08         0.00000E+00
    0.00000E+00         0.00000E+00        -0.43792E+08
 
   -0.43535E+08         0.52934E+07         0.00000E+00
    0.52934E+07        -0.57826E+08         0.00000E+00
    0.00000E+00         0.00000E+00        -0.43791E+08
 
   -0.33094E+08        -0.78966E+05         0.00000E+00
   -0.78966E+05        -0.59996E+08         0.00000E+00
    0.00000E+00         0.00000E+00        -0.43052E+08
 
   -0.33819E+08        -0.23676E+06         0.00000E+00
   -0.23676E+06        -0.59975E+08         0.00000E+00
    0.00000E+00         0.00000E+00        -0.43031E+08
 
   -0.34542E+08        -0.36507E+06         0.00000E+00
   -0.36507E+06        -0.59937E+08         0.00000E+00
    0.00000E+00         0.00000E+00        -0.42998E+08
 
   -0.35266E+08        -0.43503E+06         0.00000E+00
   -0.43503E+06        -0.59882E+08         0.00000E+00
    0.00000E+00         0.00000E+00        -0.42960E+08
 
   -0.35991E+08        -0.42417E+06         0.00000E+00
   -0.42417E+06        -0.59810E+08         0.00000E+00
    0.00000E+00         0.00000E+00        -0.42923E+08
 
   -0.36716E+08        -0.31585E+06         0.00000E+00
   -0.31585E+06        -0.59721E+08         0.00000E+00
    0.00000E+00         0.00000E+00        -0.42889E+08
 
   -0.37437E+08        -0.98924E+05         0.00000E+00
   -0.98924E+05        -0.59615E+08         0.00000E+00
    0.00000E+00         0.00000E+00        -0.42860E+08
 
   -0.38150E+08         0.23278E+06         0.00000E+00
    0.23278E+06        -0.59492E+08         0.00000E+00
    0.00000E+00         0.00000E+00        -0.42836E+08
 
   -0.38853E+08         0.68118E+06         0.00000E+00
    0.68118E+06        -0.59351E+08         0.00000E+00
    0.00000E+00         0.00000E+00        -0.42816E+08
 
   -0.39539E+08         0.12448E+07         0.00000E+00
    0.12448E+07        -0.59190E+08         0.00000E+00
    0.00000E+00         0.00000E+00        -0.42800E+08
 
   -0.40204E+08         0.19195E+07         0.00000E+00
    0.19195E+07        -0.59011E+08         0.00000E+00
    0.00000E+00         0.00000E+00        -0.42787E+08
 
   -0.40841E+08         0.26981E+07         0.00000E+00
    0.26981E+07        -0.58814E+08         0.00000E+00
    0.00000E+00         0.00000E+00        -0.42774E+08
 
   -0.41443E+08         0.35702E+07         0.00000E+00
    0.35702E+07        -0.58601E+08         0.00000E+00
    0.00000E+00         0.00000E+00        -0.42763E+08
 
   -0.42002E+08         0.45200E+07         0.00000E+00
    0.45200E+07        -0.58379E+08         0.00000E+00
    0.00000E+00         0.00000E+00        -0.42754E+08
 
   -0.42508E+08         0.55258E+07         0.00000E+00
    0.55258E+07        -0.58154E+08         0.00000E+00
    0.00000E+00         0.00000E+00        -0.42748E+08
 
   -0.33246E+08        -0.71418E+05         0.00000E+00
   -0.71418E+05        -0.59999E+08         0.00000E+00
    0.00000E+00         0.00000E+00        -0.42173E+08
 
   -0.33959E+08        -0.21497E+06         0.00000E+00
   -0.21497E+06        -0.59991E+08         0.00000E+00
    0.00000E+00         0.00000E+00        -0.42149E+08
 
   -0.34638E+08        -0.32932E+06         0.00000E+00
   -0.32932E+06        -0.59972E+08         0.00000E+00
    0.00000E+00         0.00000E+00        -0.42109E+08
 
   -0.35291E+08        -0.38484E+06         0.00000E+00
   -0.38484E+06        -0.59943E+08         0.00000E+00
    0.00000E+00         0.00000E+00        -0.42061E+08
 
   -0.35926E+08        -0.35876E+06         0.00000E+00
   -0.35876E+06        -0.59901E+08         0.00000E+00
    0.00000E+00         0.00000E+00        -0.42011E+08
 
   -0.36546E+08        -0.23441E+06         0.00000E+00
   -0.23441E+06        -0.59844E+08         0.00000E+00
    0.00000E+00         0.00000E+00        -0.41962E+08
 
   -0.37154E+08        -0.62591E+03         0.00000E+00
   -0.62591E+03        -0.59771E+08         0.00000E+00
    0.00000E+00         0.00000E+00        -0.41917E+08
 
   -0.37751E+08         0.34882E+06         0.00000E+00
    0.34882E+06        -0.59682E+08         0.00000E+00
    0.00000E+00         0.00000E+00        -0.41877E+08
 
   -0.38337E+08         0.81586E+06         0.00000E+00
    0.81586E+06        -0.59574E+08         0.00000E+00
    0.00000E+00         0.00000E+00        -0.41841E+08
 
   -0.38909E+08         0.13987E+07         0.00000E+00
    0.13987E+07        -0.59447E+08         0.00000E+00
    0.00000E+00         0.00000E+00        -0.41809E+08
 
   -0.39467E+08         0.20924E+07         0.00000E+00
    0.20924E+07        -0.59300E+08         0.00000E+00
    0.00000E+00         0.00000E+00        -0.41781E+08
 
   -0.40006E+08         0.28884E+07         0.00000E+00
    0.28884E+07        -0.59135E+08         0.00000E+00
    0.00000E+00         0.00000E+00        -0.41757E+08
 
   -0.40524E+08         0.37746E+07         0.00000E+00
    0.37746E+07        -0.58952E+08         0.00000E+00
    0.00000E+00         0.00000E+00        -0.41736E+08
 
   -0.41017E+08         0.47344E+07         0.00000E+00
    0.47344E+07        -0.58755E+08         0.00000E+00
    0.00000E+00         0.00000E+00        -0.41720E+08
 
   -0.41482E+08         0.57458E+07         0.00000E+00
    0.57458E+07        -0.58546E+08         0.00000E+00
    0.00000E+00         0.00000E+00        -0.41711E+08
 
   -0.33390E+08        -0.70902E+05         0.00000E+00
   -0.70902E+05        -0.60004E+08         0.00000E+00
    0.00000E+00         0.00000E+00        -0.41258E+08
 
   -0.34090E+08        -0.21110E+06         0.00000E+00
   -0.21110E+06        -0.60008E+08         0.00000E+00
    0.00000E+00         0.00000E+00        -0.41231E+08
 
   -0.34722E+08        -0.31910E+06         0.00000E+00
   -0.31910E+06        -0.60013E+08         0.00000E+00
    0.00000E+00         0.00000E+00        -0.41185E+08
 
   -0.35303E+08        -0.36538E+06         0.00000E+00
   -0.36538E+06        -0.60013E+08         0.00000E+00
    0.00000E+00         0.00000E+00        -0.41129E+08
 
   -0.35846E+08        -0.32739E+06         0.00000E+00
   -0.32739E+06        -0.60006E+08         0.00000E+00
    0.00000E+00         0.00000E+00        -0.41068E+08
 
   -0.36360E+08        -0.18882E+06         0.00000E+00
   -0.18882E+06        -0.59986E+08         0.00000E+00
    0.00000E+00         0.00000E+00        -0.41008E+08
 
   -0.36855E+08         0.61133E+05         0.00000E+00
    0.61133E+05        -0.59952E+08         0.00000E+00
    0.00000E+00         0.00000E+00        -0.40949E+08
 
   -0.37334E+08         0.42837E+06         0.00000E+00
    0.42837E+06        -0.59902E+08         0.00000E+00
    0.00000E+00         0.00000E+00        -0.40895E+08
 
   -0.37801E+08         0.91449E+06         0.00000E+00
    0.91449E+06        -0.59832E+08         0.00000E+00
    0.00000E+00         0.00000E+00        -0.40845E+08
 
   -0.38260E+08         0.15173E+07         0.00000E+00
    0.15173E+07        -0.59743E+08         0.00000E+00
    0.00000E+00         0.00000E+00        -0.40800E+08
 
   -0.38711E+08         0.22310E+07         0.00000E+00
    0.22310E+07        -0.59633E+08         0.00000E+00
    0.00000E+00         0.00000E+00        -0.40760E+08
 
   -0.39154E+08         0.30465E+07         0.00000E+00
    0.30465E+07        -0.59502E+08         0.00000E+00
    0.00000E+00         0.00000E+00        -0.40725E+08
 
   -0.39590E+08         0.39508E+07         0.00000E+00
    0.39508E+07        -0.59350E+08         0.00000E+00
    0.00000E+00         0.00000E+00        -0.40697E+08
 
   -0.40020E+08         0.49272E+07         0.00000E+00
    0.49272E+07        -0.59178E+08         0.00000E+00
    0.00000E+00         0.00000E+00        -0.40675E+08
 
   -0.40447E+08         0.59544E+07         0.00000E+00
    0.59544E+07        -0.58986E+08         0.00000E+00
    0.00000E+00         0.00000E+00        -0.40663E+08
 
   -0.33539E+08        -0.78033E+05         0.00000E+00
   -0.78033E+05        -0.60008E+08         0.00000E+00
    0.00000E+00         0.00000E+00        -0.40294E+08
 
   -0.34221E+08        -0.22703E+06         0.00000E+00
   -0.22703E+06        -0.60027E+08         0.00000E+00
    0.00000E+00         0.00000E+00        -0.40265E+08
 
   -0.34802E+08        -0.33732E+06         0.00000E+00
   -0.33732E+06        -0.60056E+08         0.00000E+00
    0.00000E+00         0.00000E+00        -0.40215E+08
 
   -0.35307E+08        -0.38024E+06         0.00000E+00
   -0.38024E+06        -0.60089E+08         0.00000E+00
    0.00000E+00         0.00000E+00        -0.40152E+08
 
   -0.35754E+08        -0.33409E+06         0.00000E+00
   -0.33409E+06        -0.60119E+08         0.00000E+00
    0.00000E+00         0.00000E+00        -0.40083E+08
 
   -0.36160E+08        -0.18338E+06         0.00000E+00
   -0.18338E+06        -0.60140E+08         0.00000E+00
    0.00000E+00         0.00000E+00        -0.40013E+08
 
   -0.36538E+08         0.81922E+05         0.00000E+00
    0.81922E+05        -0.60148E+08         0.00000E+00
    0.00000E+00         0.00000E+00        -0.39943E+08
 
   -0.36898E+08         0.46703E+06         0.00000E+00
    0.46703E+06        -0.60140E+08         0.00000E+00
    0.00000E+00         0.00000E+00        -0.39877E+08
 
   -0.37246E+08         0.97296E+06         0.00000E+00
    0.97296E+06        -0.60112E+08         0.00000E+00
    0.00000E+00         0.00000E+00        -0.39816E+08
 
   -0.37590E+08         0.15969E+07         0.00000E+00
    0.15969E+07        -0.60064E+08         0.00000E+00
    0.00000E+00         0.00000E+00        -0.39760E+08
 
   -0.37933E+08         0.23328E+07         0.00000E+00
    0.23328E+07        -0.59992E+08         0.00000E+00
    0.00000E+00         0.00000E+00        -0.39711E+08
 
   -0.38280E+08         0.31708E+07         0.00000E+00
    0.31708E+07        -0.59897E+08         0.00000E+00
    0.00000E+00         0.00000E+00        -0.39668E+08
 
   -0.38635E+08         0.40981E+07         0.00000E+00
    0.40981E+07        -0.59778E+08         0.00000E+00
    0.00000E+00         0.00000E+00        -0.39633E+08
 
   -0.39003E+08         0.50982E+07         0.00000E+00
    0.50982E+07        -0.59631E+08         0.00000E+00
    0.00000E+00         0.00000E+00        -0.39607E+08
 
   -0.39390E+08         0.61511E+07         0.00000E+00
    0.61511E+07        -0.59456E+08         0.00000E+00
    0.00000E+00         0.00000E+00        -0.39593E+08
 
   -0.33708E+08        -0.93121E+05         0.00000E+00
   -0.93121E+05        -0.60012E+08         0.00000E+00
    0.00000E+00         0.00000E+00        -0.39273E+08
 
   -0.34363E+08        -0.26372E+06         0.00000E+00
   -0.26372E+06        -0.60045E+08         0.00000E+00
    0.00000E+00         0.00000E+00        -0.39242E+08
 
   -0.34886E+08        -0.38551E+06         0.00000E+00
   -0.38551E+06        -0.60101E+08         0.00000E+00
    0.00000E+00         0.00000E+00        -0.39188E+08
 
   -0.35307E+08        -0.43136E+06         0.00000E+00
   -0.43136E+06        -0.60167E+08         0.00000E+00
    0.00000E+00         0.00000E+00        -0.39121E+08
 
   -0.35653E+08        -0.38104E+06         0.00000E+00
   -0.38104E+06        -0.60235E+08         0.00000E+00
    0.00000E+00         0.00000E+00        -0.39046E+08
 
   -0.35947E+08        -0.22040E+06         0.00000E+00
   -0.22040E+06        -0.60298E+08         0.00000E+00
    0.00000E+00         0.00000E+00        -0.38967E+08
 
   -0.36205E+08         0.59370E+05         0.00000E+00
    0.59370E+05        -0.60350E+08         0.00000E+00
    0.00000E+00         0.00000E+00        -0.38889E+08
 
   -0.36442E+08         0.46246E+06         0.00000E+00
    0.46246E+06        -0.60385E+08         0.00000E+00
    0.00000E+00         0.00000E+00        -0.38814E+08
 
   -0.36670E+08         0.98908E+06         0.00000E+00
    0.98908E+06        -0.60401E+08         0.00000E+00
    0.00000E+00         0.00000E+00        -0.38744E+08
 
   -0.36897E+08         0.16359E+07         0.00000E+00
    0.16359E+07        -0.60394E+08         0.00000E+00
    0.00000E+00         0.00000E+00        -0.38680E+08
 
   -0.37132E+08         0.23962E+07         0.00000E+00
    0.23962E+07        -0.60363E+08         0.00000E+00
    0.00000E+00         0.00000E+00        -0.38622E+08
 
   -0.37382E+08         0.32604E+07         0.00000E+00
    0.32604E+07        -0.60305E+08         0.00000E+00
    0.00000E+00         0.00000E+00        -0.38573E+08
 
   -0.37655E+08         0.42158E+07         0.00000E+00
    0.42158E+07        -0.60218E+08         0.00000E+00
    0.00000E+00         0.00000E+00        -0.38533E+08
 
   -0.37957E+08         0.52465E+07         0.00000E+00
    0.52465E+07        -0.60099E+08         0.00000E+00
    0.00000E+00         0.00000E+00        -0.38503E+08
 
   -0.38300E+08         0.63338E+07         0.00000E+00
    0.63338E+07        -0.59943E+08         0.00000E+00
    0.00000E+00         0.00000E+00        -0.38487E+08
 
   -0.33912E+08        -0.11625E+06         0.00000E+00
   -0.11625E+06        -0.60017E+08         0.00000E+00
    0.00000E+00         0.00000E+00        -0.38185E+08
 
   -0.34527E+08        -0.32143E+06         0.00000E+00
   -0.32143E+06        -0.60064E+08         0.00000E+00
    0.00000E+00         0.00000E+00        -0.38153E+08
 
   -0.34980E+08        -0.46407E+06         0.00000E+00
   -0.46407E+06        -0.60145E+08         0.00000E+00
    0.00000E+00         0.00000E+00        -0.38097E+08
 
   -0.35309E+08        -0.51920E+06         0.00000E+00
   -0.51920E+06        -0.60245E+08         0.00000E+00
    0.00000E+00         0.00000E+00        -0.38026E+08
 
   -0.35547E+08        -0.46869E+06         0.00000E+00
   -0.46869E+06        -0.60351E+08         0.00000E+00
    0.00000E+00         0.00000E+00        -0.37946E+08
 
   -0.35722E+08        -0.30032E+06         0.00000E+00
   -0.30032E+06        -0.60456E+08         0.00000E+00
    0.00000E+00         0.00000E+00        -0.37862E+08
 
   -0.35856E+08        -0.69707E+04         0.00000E+00
   -0.69707E+04        -0.60550E+08         0.00000E+00
    0.00000E+00         0.00000E+00        -0.37778E+08
 
   -0.35967E+08         0.41419E+06         0.00000E+00
    0.41419E+06        -0.60629E+08         0.00000E+00
    0.00000E+00         0.00000E+00        -0.37696E+08
 
   -0.36071E+08         0.96234E+06         0.00000E+00
    0.96234E+06        -0.60687E+08         0.00000E+00
    0.00000E+00         0.00000E+00        -0.37619E+08
 
   -0.36180E+08         0.16335E+07         0.00000E+00
    0.16335E+07        -0.60723E+08         0.00000E+00
    0.00000E+00         0.00000E+00        -0.37548E+08
 
   -0.36304E+08         0.24208E+07         0.00000E+00
    0.24208E+07        -0.60731E+08         0.00000E+00
    0.00000E+00         0.00000E+00        -0.37485E+08
 
   -0.36455E+08         0.33146E+07         0.00000E+00
    0.33146E+07        -0.60711E+08         0.00000E+00
    0.00000E+00         0.00000E+00        -0.37430E+08
 
   -0.36642E+08         0.43027E+07         0.00000E+00
    0.43027E+07        -0.60657E+08         0.00000E+00
    0.00000E+00         0.00000E+00        -0.37386E+08
 
   -0.36876E+08         0.53702E+07         0.00000E+00
    0.53702E+07        -0.60566E+08         0.00000E+00
    0.00000E+00         0.00000E+00        -0.37355E+08
 
   -0.37170E+08         0.64999E+07         0.00000E+00
    0.64999E+07        -0.60432E+08         0.00000E+00
    0.00000E+00         0.00000E+00        -0.37337E+08
 
   -0.34165E+08        -0.14732E+06         0.00000E+00
   -0.14732E+06        -0.60021E+08         0.00000E+00
    0.00000E+00         0.00000E+00        -0.37024E+08
 
   -0.34724E+08        -0.39982E+06         0.00000E+00
   -0.39982E+06        -0.60082E+08         0.00000E+00
    0.00000E+00         0.00000E+00        -0.36991E+08
 
   -0.35093E+08        -0.57238E+06         0.00000E+00
   -0.57238E+06        -0.60188E+08         0.00000E+00
    0.00000E+00         0.00000E+00        -0.36935E+08
 
   -0.35318E+08        -0.64285E+06         0.00000E+00
   -0.64285E+06        -0.60320E+08         0.00000E+00
    0.00000E+00         0.00000E+00        -0.36861E+08
 
   -0.35438E+08        -0.59588E+06         0.00000E+00
   -0.59588E+06        -0.60463E+08         0.00000E+00
    0.00000E+00         0.00000E+00        -0.36778E+08
 
   -0.35487E+08        -0.42181E+06         0.00000E+00
   -0.42181E+06        -0.60607E+08         0.00000E+00
    0.00000E+00         0.00000E+00        -0.36690E+08
 
   -0.35491E+08        -0.11571E+06         0.00000E+00
   -0.11571E+06        -0.60741E+08         0.00000E+00
    0.00000E+00         0.00000E+00        -0.36602E+08
 
   -0.35472E+08         0.32351E+06         0.00000E+00
    0.32351E+06        -0.60861E+08         0.00000E+00
    0.00000E+00         0.00000E+00        -0.36515E+08
 
   -0.35449E+08         0.89383E+06         0.00000E+00
    0.89383E+06        -0.60961E+08         0.00000E+00
    0.00000E+00         0.00000E+00        -0.36433E+08
 
   -0.35436E+08         0.15906E+07         0.00000E+00
    0.15906E+07        -0.61036E+08         0.00000E+00
    0.00000E+00         0.00000E+00        -0.36358E+08
 
   -0.35447E+08         0.24067E+07         0.00000E+00
    0.24067E+07        -0.61084E+08         0.00000E+00
    0.00000E+00         0.00000E+00        -0.36290E+08
 
   -0.35495E+08         0.33330E+07         0.00000E+00
    0.33330E+07        -0.61100E+08         0.00000E+00
    0.00000E+00         0.00000E+00        -0.36232E+08
 
   -0.35593E+08         0.43578E+07         0.00000E+00
    0.43578E+07        -0.61081E+08         0.00000E+00
    0.00000E+00         0.00000E+00        -0.36186E+08
 
   -0.35753E+08         0.54674E+07         0.00000E+00
    0.54674E+07        -0.61020E+08         0.00000E+00
    0.00000E+00         0.00000E+00        -0.36152E+08
 
   -0.35990E+08         0.66460E+07         0.00000E+00
    0.66460E+07        -0.60911E+08         0.00000E+00
    0.00000E+00         0.00000E+00        -0.36134E+08
 
   -0.34482E+08        -0.18605E+06         0.00000E+00
   -0.18605E+06        -0.60025E+08         0.00000E+00
    0.00000E+00         0.00000E+00        -0.35784E+08
 
   -0.34964E+08        -0.49801E+06         0.00000E+00
   -0.49801E+06        -0.60100E+08         0.00000E+00
    0.00000E+00         0.00000E+00        -0.35752E+08
 
   -0.35231E+08        -0.70887E+06         0.00000E+00
   -0.70887E+06        -0.60228E+08         0.00000E+00
    0.00000E+00         0.00000E+00        -0.35694E+08
 
   -0.35338E+08        -0.80009E+06         0.00000E+00
   -0.80009E+06        -0.60389E+08         0.00000E+00
    0.00000E+00         0.00000E+00        -0.35620E+08
 
   -0.35329E+08        -0.75984E+06         0.00000E+00
   -0.75984E+06        -0.60566E+08         0.00000E+00
    0.00000E+00         0.00000E+00        -0.35535E+08
 
   -0.35243E+08        -0.58173E+06         0.00000E+00
   -0.58173E+06        -0.60745E+08         0.00000E+00
    0.00000E+00         0.00000E+00        -0.35445E+08
 
   -0.35111E+08        -0.26362E+06         0.00000E+00
   -0.26362E+06        -0.60917E+08         0.00000E+00
    0.00000E+00         0.00000E+00        -0.35354E+08
 
   -0.34957E+08         0.19346E+06         0.00000E+00
    0.19346E+06        -0.61073E+08         0.00000E+00
    0.00000E+00         0.00000E+00        -0.35265E+08
 
   -0.34802E+08         0.78612E+06         0.00000E+00
    0.78612E+06        -0.61210E+08         0.00000E+00
    0.00000E+00         0.00000E+00        -0.35180E+08
 
   -0.34664E+08         0.15090E+07         0.00000E+00
    0.15090E+07        -0.61323E+08         0.00000E+00
    0.00000E+00         0.00000E+00        -0.35102E+08
 
   -0.34559E+08         0.23551E+07         0.00000E+00
    0.23551E+07        -0.61408E+08         0.00000E+00
    0.00000E+00         0.00000E+00        -0.35032E+08
 
   -0.34500E+08         0.33155E+07         0.00000E+00
    0.33155E+07        -0.61460E+08         0.00000E+00
    0.00000E+00         0.00000E+00        -0.34972E+08
 
   -0.34502E+08         0.43798E+07         0.00000E+00
    0.43798E+07        -0.61475E+08         0.00000E+00
    0.00000E+00         0.00000E+00        -0.34923E+08
 
   -0.34581E+08         0.55355E+07         0.00000E+00
    0.55355E+07        -0.61447E+08         0.00000E+00
    0.00000E+00         0.00000E+00        -0.34889E+08
 
   -0.34754E+08         0.67681E+07         0.00000E+00
    0.67681E+07        -0.61366E+08         0.00000E+00
    0.00000E+00         0.00000E+00        -0.34870E+08
 
   -0.34878E+08        -0.23200E+06         0.00000E+00
   -0.23200E+06        -0.60028E+08         0.00000E+00
    0.00000E+00         0.00000E+00        -0.34462E+08
 
   -0.35257E+08        -0.61454E+06         0.00000E+00
   -0.61454E+06        -0.60115E+08         0.00000E+00
    0.00000E+00         0.00000E+00        -0.34429E+08
 
   -0.35401E+08        -0.87101E+06         0.00000E+00
   -0.87101E+06        -0.60265E+08         0.00000E+00
    0.00000E+00         0.00000E+00        -0.34372E+08
 
   -0.35373E+08        -0.98732E+06         0.00000E+00
   -0.98732E+06        -0.60452E+08         0.00000E+00
    0.00000E+00         0.00000E+00        -0.34298E+08
 
   -0.35222E+08        -0.95608E+06         0.00000E+00
   -0.95608E+06        -0.60657E+08         0.00000E+00
    0.00000E+00         0.00000E+00        -0.34213E+08
 
   -0.34992E+08        -0.77505E+06         0.00000E+00
   -0.77505E+06        -0.60866E+08         0.00000E+00
    0.00000E+00         0.00000E+00        -0.34122E+08
 
   -0.34716E+08        -0.44553E+06         0.00000E+00
   -0.44553E+06        -0.61068E+08         0.00000E+00
    0.00000E+00         0.00000E+00        -0.34030E+08
 
   -0.34422E+08         0.28912E+05         0.00000E+00
    0.28912E+05        -0.61255E+08         0.00000E+00
    0.00000E+00         0.00000E+00        -0.33940E+08
 
   -0.34132E+08         0.64331E+06         0.00000E+00
    0.64331E+06        -0.61424E+08         0.00000E+00
    0.00000E+00         0.00000E+00        -0.33854E+08
 
   -0.33865E+08         0.13918E+07         0.00000E+00
    0.13918E+07        -0.61570E+08         0.00000E+00
    0.00000E+00         0.00000E+00        -0.33774E+08
 
   -0.33638E+08         0.22675E+07         0.00000E+00
    0.22675E+07        -0.61689E+08         0.00000E+00
    0.00000E+00         0.00000E+00        -0.33703E+08
 
   -0.33467E+08         0.32625E+07         0.00000E+00
    0.32625E+07        -0.61777E+08         0.00000E+00
    0.00000E+00         0.00000E+00        -0.33642E+08
 
   -0.33369E+08         0.43674E+07         0.00000E+00
    0.43674E+07        -0.61827E+08         0.00000E+00
    0.00000E+00         0.00000E+00        -0.33594E+08
 
   -0.33359E+08         0.55714E+07         0.00000E+00
    0.55714E+07        -0.61833E+08         0.00000E+00
    0.00000E+00         0.00000E+00        -0.33559E+08
 
   -0.33457E+08         0.68618E+07         0.00000E+00
    0.68618E+07        -0.61785E+08         0.00000E+00
    0.00000E+00         0.00000E+00        -0.33540E+08
 
   -0.35364E+08        -0.28459E+06         0.00000E+00
   -0.28459E+06        -0.60032E+08         0.00000E+00
    0.00000E+00         0.00000E+00        -0.33052E+08
 
   -0.35611E+08        -0.74742E+06         0.00000E+00
   -0.74742E+06        -0.60129E+08         0.00000E+00
    0.00000E+00         0.00000E+00        -0.33020E+08
 
   -0.35608E+08        -0.10552E+07         0.00000E+00
   -0.10552E+07        -0.60296E+08         0.00000E+00
    0.00000E+00         0.00000E+00        -0.32964E+08
 
   -0.35425E+08        -0.11994E+07         0.00000E+00
   -0.11994E+07        -0.60504E+08         0.00000E+00
    0.00000E+00         0.00000E+00        -0.32891E+08
 
   -0.35117E+08        -0.11782E+07         0.00000E+00
   -0.11782E+07        -0.60731E+08         0.00000E+00
    0.00000E+00         0.00000E+00        -0.32807E+08
 
   -0.34732E+08        -0.99460E+06         0.00000E+00
   -0.99460E+06        -0.60962E+08         0.00000E+00
    0.00000E+00         0.00000E+00        -0.32717E+08
 
   -0.34306E+08        -0.65408E+06         0.00000E+00
   -0.65408E+06        -0.61185E+08         0.00000E+00
    0.00000E+00         0.00000E+00        -0.32626E+08
 
   -0.33867E+08        -0.16329E+06         0.00000E+00
   -0.16329E+06        -0.61396E+08         0.00000E+00
    0.00000E+00         0.00000E+00        -0.32536E+08
 
   -0.33439E+08         0.47115E+06         0.00000E+00
    0.47115E+06        -0.61589E+08         0.00000E+00
    0.00000E+00         0.00000E+00        -0.32450E+08
 
   -0.33039E+08         0.12430E+07         0.00000E+00
    0.12430E+07        -0.61763E+08         0.00000E+00
    0.00000E+00         0.00000E+00        -0.32371E+08
 
   -0.32687E+08         0.21463E+07         0.00000E+00
    0.21463E+07        -0.61912E+08         0.00000E+00
    0.00000E+00         0.00000E+00        -0.32301E+08
 
   -0.32398E+08         0.31742E+07         0.00000E+00
    0.31742E+07        -0.62034E+08         0.00000E+00
    0.00000E+00         0.00000E+00        -0.32240E+08
 
   -0.32191E+08         0.43191E+07         0.00000E+00
    0.43191E+07        -0.62120E+08         0.00000E+00
    0.00000E+00         0.00000E+00        -0.32192E+08
 
   -0.32083E+08         0.55717E+07         0.00000E+00
    0.55717E+07        -0.62163E+08         0.00000E+00
    0.00000E+00         0.00000E+00        -0.32158E+08
 
   -0.32096E+08         0.69217E+07         0.00000E+00
    0.69217E+07        -0.62152E+08         0.00000E+00
    0.00000E+00         0.00000E+00        -0.32140E+08
 
   -0.35952E+08        -0.34305E+06         0.00000E+00
   -0.34305E+06        -0.60034E+08         0.00000E+00
    0.00000E+00         0.00000E+00        -0.31553E+08
 
   -0.36033E+08        -0.89402E+06         0.00000E+00
   -0.89402E+06        -0.60141E+08         0.00000E+00
    0.00000E+00         0.00000E+00        -0.31522E+08
 
   -0.35855E+08        -0.12567E+07         0.00000E+00
   -0.12567E+07        -0.60321E+08         0.00000E+00
    0.00000E+00         0.00000E+00        -0.31468E+08
 
   -0.35495E+08        -0.14295E+07         0.00000E+00
   -0.14295E+07        -0.60543E+08         0.00000E+00
    0.00000E+00         0.00000E+00        -0.31397E+08
 
   -0.35016E+08        -0.14177E+07         0.00000E+00
   -0.14177E+07        -0.60783E+08         0.00000E+00
    0.00000E+00         0.00000E+00        -0.31315E+08
 
   -0.34466E+08        -0.12308E+07         0.00000E+00
   -0.12308E+07        -0.61025E+08         0.00000E+00
    0.00000E+00         0.00000E+00        -0.31228E+08
 
   -0.33883E+08        -0.87946E+06         0.00000E+00
   -0.87946E+06        -0.61259E+08         0.00000E+00
    0.00000E+00         0.00000E+00        -0.31138E+08
 
   -0.33296E+08        -0.37402E+06         0.00000E+00
   -0.37402E+06        -0.61482E+08         0.00000E+00
    0.00000E+00         0.00000E+00        -0.31050E+08
 
   -0.32726E+08         0.27720E+06         0.00000E+00
    0.27720E+06        -0.61690E+08         0.00000E+00
    0.00000E+00         0.00000E+00        -0.30966E+08
 
   -0.32191E+08         0.10680E+07         0.00000E+00
    0.10680E+07        -0.61884E+08         0.00000E+00
    0.00000E+00         0.00000E+00        -0.30889E+08
 
   -0.31707E+08         0.19939E+07         0.00000E+00
    0.19939E+07        -0.62060E+08         0.00000E+00
    0.00000E+00         0.00000E+00        -0.30820E+08
 
   -0.31294E+08         0.30507E+07         0.00000E+00
    0.30507E+07        -0.62214E+08         0.00000E+00
    0.00000E+00         0.00000E+00        -0.30762E+08
 
   -0.30970E+08         0.42326E+07         0.00000E+00
    0.42326E+07        -0.62338E+08         0.00000E+00
    0.00000E+00         0.00000E+00        -0.30715E+08
 
   -0.30754E+08         0.55321E+07         0.00000E+00
    0.55321E+07        -0.62422E+08         0.00000E+00
    0.00000E+00         0.00000E+00        -0.30682E+08
 
   -0.30668E+08         0.69414E+07         0.00000E+00
    0.69414E+07        -0.62455E+08         0.00000E+00
    0.00000E+00         0.00000E+00        -0.30665E+08
 
   -0.36651E+08        -0.40644E+06         0.00000E+00
   -0.40644E+06        -0.60037E+08         0.00000E+00
    0.00000E+00         0.00000E+00        -0.29962E+08
 
   -0.36527E+08        -0.10510E+07         0.00000E+00
   -0.10510E+07        -0.60150E+08         0.00000E+00
    0.00000E+00         0.00000E+00        -0.29933E+08
 
   -0.36143E+08        -0.14694E+07         0.00000E+00
   -0.14694E+07        -0.60338E+08         0.00000E+00
    0.00000E+00         0.00000E+00        -0.29881E+08
 
   -0.35583E+08        -0.16687E+07         0.00000E+00
   -0.16687E+07        -0.60565E+08         0.00000E+00
    0.00000E+00         0.00000E+00        -0.29813E+08
 
   -0.34915E+08        -0.16633E+07         0.00000E+00
   -0.16633E+07        -0.60806E+08         0.00000E+00
    0.00000E+00         0.00000E+00        -0.29735E+08
 
   -0.34191E+08        -0.14710E+07         0.00000E+00
   -0.14710E+07        -0.61046E+08         0.00000E+00
    0.00000E+00         0.00000E+00        -0.29651E+08
 
   -0.33448E+08        -0.11089E+07         0.00000E+00
   -0.11089E+07        -0.61277E+08         0.00000E+00
    0.00000E+00         0.00000E+00        -0.29565E+08
 
   -0.32711E+08        -0.59146E+06         0.00000E+00
   -0.59146E+06        -0.61498E+08         0.00000E+00
    0.00000E+00         0.00000E+00        -0.29480E+08
 
   -0.31999E+08         0.71241E+05         0.00000E+00
    0.71241E+05        -0.61709E+08         0.00000E+00
    0.00000E+00         0.00000E+00        -0.29400E+08
 
   -0.31326E+08         0.87348E+06         0.00000E+00
    0.87348E+06        -0.61913E+08         0.00000E+00
    0.00000E+00         0.00000E+00        -0.29326E+08
 
   -0.30707E+08         0.18133E+07         0.00000E+00
    0.18133E+07        -0.62111E+08         0.00000E+00
    0.00000E+00         0.00000E+00        -0.29260E+08
 
   -0.30161E+08         0.28909E+07         0.00000E+00
    0.28909E+07        -0.62297E+08         0.00000E+00
    0.00000E+00         0.00000E+00        -0.29205E+08
 
   -0.29710E+08         0.41045E+07         0.00000E+00
    0.41045E+07        -0.62462E+08         0.00000E+00
    0.00000E+00         0.00000E+00        -0.29161E+08
 
   -0.29374E+08         0.54469E+07         0.00000E+00
    0.54469E+07        -0.62593E+08         0.00000E+00
    0.00000E+00         0.00000E+00        -0.29130E+08
 
   -0.29174E+08         0.69124E+07         0.00000E+00
    0.69124E+07        -0.62677E+08         0.00000E+00
    0.00000E+00         0.00000E+00        -0.29114E+08
 
   -0.37469E+08        -0.47366E+06         0.00000E+00
   -0.47366E+06        -0.60038E+08         0.00000E+00
    0.00000E+00         0.00000E+00        -0.28280E+08
 
   -0.37095E+08        -0.12141E+07         0.00000E+00
   -0.12141E+07        -0.60155E+08         0.00000E+00
    0.00000E+00         0.00000E+00        -0.28252E+08
 
   -0.36468E+08        -0.16851E+07         0.00000E+00
   -0.16851E+07        -0.60344E+08         0.00000E+00
    0.00000E+00         0.00000E+00        -0.28203E+08
 
   -0.35682E+08        -0.19051E+07         0.00000E+00
   -0.19051E+07        -0.60565E+08         0.00000E+00
    0.00000E+00         0.00000E+00        -0.28139E+08
 
   -0.34811E+08        -0.19005E+07         0.00000E+00
   -0.19005E+07        -0.60793E+08         0.00000E+00
    0.00000E+00         0.00000E+00        -0.28065E+08
 
   -0.33906E+08        -0.16993E+07         0.00000E+00
   -0.16993E+07        -0.61014E+08         0.00000E+00
    0.00000E+00         0.00000E+00        -0.27986E+08
 
   -0.33001E+08        -0.13264E+07         0.00000E+00
   -0.13264E+07        -0.61223E+08         0.00000E+00
    0.00000E+00         0.00000E+00        -0.27905E+08
 
   -0.32117E+08        -0.80079E+06         0.00000E+00
   -0.80079E+06        -0.61425E+08         0.00000E+00
    0.00000E+00         0.00000E+00        -0.27825E+08
 
   -0.31265E+08        -0.13436E+06         0.00000E+00
   -0.13436E+06        -0.61624E+08         0.00000E+00
    0.00000E+00         0.00000E+00        -0.27749E+08
 
   -0.30455E+08         0.66816E+06         0.00000E+00
    0.66816E+06        -0.61827E+08         0.00000E+00
    0.00000E+00         0.00000E+00        -0.27680E+08
 
   -0.29697E+08         0.16083E+07         0.00000E+00
    0.16083E+07        -0.62038E+08         0.00000E+00
    0.00000E+00         0.00000E+00        -0.27618E+08
 
   -0.29008E+08         0.26920E+07         0.00000E+00
    0.26920E+07        -0.62255E+08         0.00000E+00
    0.00000E+00         0.00000E+00        -0.27567E+08
 
   -0.28415E+08         0.39267E+07         0.00000E+00
    0.39267E+07        -0.62469E+08         0.00000E+00
    0.00000E+00         0.00000E+00        -0.27527E+08
 
   -0.27949E+08         0.53079E+07         0.00000E+00
    0.53079E+07        -0.62660E+08         0.00000E+00
    0.00000E+00         0.00000E+00        -0.27500E+08
 
   -0.27617E+08         0.68217E+07         0.00000E+00
    0.68217E+07        -0.62809E+08         0.00000E+00
    0.00000E+00         0.00000E+00        -0.27486E+08
 
   -0.38409E+08        -0.54342E+06         0.00000E+00
   -0.54342E+06        -0.60039E+08         0.00000E+00
    0.00000E+00         0.00000E+00        -0.26505E+08
 
   -0.37733E+08        -0.13781E+07         0.00000E+00
   -0.13781E+07        -0.60155E+08         0.00000E+00
    0.00000E+00         0.00000E+00        -0.26480E+08
 
   -0.36823E+08        -0.18935E+07         0.00000E+00
   -0.18935E+07        -0.60336E+08         0.00000E+00
    0.00000E+00         0.00000E+00        -0.26435E+08
 
   -0.35786E+08        -0.21237E+07         0.00000E+00
   -0.21237E+07        -0.60537E+08         0.00000E+00
    0.00000E+00         0.00000E+00        -0.26375E+08
 
   -0.34699E+08        -0.21107E+07         0.00000E+00
   -0.21107E+07        -0.60732E+08         0.00000E+00
    0.00000E+00         0.00000E+00        -0.26307E+08
 
   -0.33610E+08        -0.18957E+07         0.00000E+00
   -0.18957E+07        -0.60912E+08         0.00000E+00
    0.00000E+00         0.00000E+00        -0.26233E+08
 
   -0.32547E+08        -0.15122E+07         0.00000E+00
   -0.15122E+07        -0.61079E+08         0.00000E+00
    0.00000E+00         0.00000E+00        -0.26158E+08
 
   -0.31521E+08        -0.98413E+06         0.00000E+00
   -0.98413E+06        -0.61241E+08         0.00000E+00
    0.00000E+00         0.00000E+00        -0.26084E+08
 
   -0.30536E+08        -0.32448E+06         0.00000E+00
   -0.32448E+06        -0.61410E+08         0.00000E+00
    0.00000E+00         0.00000E+00        -0.26014E+08
 
   -0.29593E+08         0.46347E+06         0.00000E+00
    0.46347E+06        -0.61598E+08         0.00000E+00
    0.00000E+00         0.00000E+00        -0.25950E+08
 
   -0.28695E+08         0.13853E+07         0.00000E+00
    0.13853E+07        -0.61812E+08         0.00000E+00
    0.00000E+00         0.00000E+00        -0.25894E+08
 
   -0.27856E+08         0.24535E+07         0.00000E+00
    0.24535E+07        -0.62054E+08         0.00000E+00
    0.00000E+00         0.00000E+00        -0.25848E+08
 
   -0.27099E+08         0.36849E+07         0.00000E+00
    0.36849E+07        -0.62319E+08         0.00000E+00
    0.00000E+00         0.00000E+00        -0.25813E+08
 
   -0.26487E+08         0.50947E+07         0.00000E+00
    0.50947E+07        -0.62588E+08         0.00000E+00
    0.00000E+00         0.00000E+00        -0.25791E+08
 
   -0.26015E+08         0.66339E+07         0.00000E+00
    0.66339E+07        -0.62862E+08         0.00000E+00
    0.00000E+00         0.00000E+00        -0.25792E+08
 
   -0.39472E+08        -0.61423E+06         0.00000E+00
   -0.61423E+06        -0.60039E+08         0.00000E+00
    0.00000E+00         0.00000E+00        -0.24640E+08
 
   -0.38432E+08        -0.15360E+07         0.00000E+00
   -0.15360E+07        -0.60150E+08         0.00000E+00
    0.00000E+00         0.00000E+00        -0.24617E+08
 
   -0.37195E+08        -0.20805E+07         0.00000E+00
   -0.20805E+07        -0.60310E+08         0.00000E+00
    0.00000E+00         0.00000E+00        -0.24576E+08
 
   -0.35881E+08        -0.23041E+07         0.00000E+00
   -0.23041E+07        -0.60471E+08         0.00000E+00
    0.00000E+00         0.00000E+00        -0.24522E+08
 
   -0.34569E+08        -0.22703E+07         0.00000E+00
   -0.22703E+07        -0.60608E+08         0.00000E+00
    0.00000E+00         0.00000E+00        -0.24460E+08
 
   -0.33300E+08        -0.20358E+07         0.00000E+00
   -0.20358E+07        -0.60721E+08         0.00000E+00
    0.00000E+00         0.00000E+00        -0.24394E+08
 
   -0.32088E+08        -0.16436E+07         0.00000E+00
   -0.16436E+07        -0.60819E+08         0.00000E+00
    0.00000E+00         0.00000E+00        -0.24326E+08
 
   -0.30933E+08        -0.11211E+07         0.00000E+00
   -0.11211E+07        -0.60919E+08         0.00000E+00
    0.00000E+00         0.00000E+00        -0.24259E+08
 
   -0.29826E+08        -0.48182E+06         0.00000E+00
   -0.48182E+06        -0.61039E+08         0.00000E+00
    0.00000E+00         0.00000E+00        -0.24196E+08
 
   -0.28758E+08         0.27334E+06         0.00000E+00
    0.27334E+06        -0.61195E+08         0.00000E+00
    0.00000E+00         0.00000E+00        -0.24138E+08
 
   -0.27723E+08         0.11543E+07         0.00000E+00
    0.11543E+07        -0.61399E+08         0.00000E+00
    0.00000E+00         0.00000E+00        -0.24088E+08
 
   -0.26727E+08         0.21812E+07         0.00000E+00
    0.21812E+07        -0.61657E+08         0.00000E+00
    0.00000E+00         0.00000E+00        -0.24048E+08
 
   -0.25791E+08         0.33807E+07         0.00000E+00
    0.33807E+07        -0.61965E+08         0.00000E+00
    0.00000E+00         0.00000E+00        -0.24019E+08
 
   -0.24970E+08         0.47853E+07         0.00000E+00
    0.47853E+07        -0.62299E+08         0.00000E+00
    0.00000E+00         0.00000E+00        -0.24005E+08
 
   -0.24564E+08         0.62693E+07         0.00000E+00
    0.62693E+07        -0.62681E+08         0.00000E+00
    0.00000E+00         0.00000E+00        -0.24268E+08
 
   -0.40655E+08        -0.68428E+06         0.00000E+00
   -0.68428E+06        -0.60038E+08         0.00000E+00
    0.00000E+00         0.00000E+00        -0.22685E+08
 
   -0.39177E+08        -0.16778E+07         0.00000E+00
   -0.16778E+07        -0.60137E+08         0.00000E+00
    0.00000E+00         0.00000E+00        -0.22665E+08
 
   -0.37563E+08        -0.22261E+07         0.00000E+00
   -0.22261E+07        -0.60258E+08         0.00000E+00
    0.00000E+00         0.00000E+00        -0.22629E+08
 
   -0.35950E+08        -0.24192E+07         0.00000E+00
   -0.24192E+07        -0.60350E+08         0.00000E+00
    0.00000E+00         0.00000E+00        -0.22582E+08
 
   -0.34413E+08        -0.23494E+07         0.00000E+00
   -0.23494E+07        -0.60397E+08         0.00000E+00
    0.00000E+00         0.00000E+00        -0.22527E+08
 
   -0.32975E+08        -0.20913E+07         0.00000E+00
   -0.20913E+07        -0.60411E+08         0.00000E+00
    0.00000E+00         0.00000E+00        -0.22469E+08
 
   -0.31631E+08        -0.16954E+07         0.00000E+00
   -0.16954E+07        -0.60413E+08         0.00000E+00
    0.00000E+00         0.00000E+00        -0.22409E+08
 
   -0.30365E+08        -0.11906E+07         0.00000E+00
   -0.11906E+07        -0.60428E+08         0.00000E+00
    0.00000E+00         0.00000E+00        -0.22350E+08
 
   -0.29152E+08        -0.58868E+06         0.00000E+00
   -0.58868E+06        -0.60480E+08         0.00000E+00
    0.00000E+00         0.00000E+00        -0.22294E+08
 
   -0.27972E+08         0.11255E+06         0.00000E+00
    0.11255E+06        -0.60589E+08         0.00000E+00
    0.00000E+00         0.00000E+00        -0.22244E+08
 
   -0.26807E+08         0.92761E+06         0.00000E+00
    0.92761E+06        -0.60769E+08         0.00000E+00
    0.00000E+00         0.00000E+00        -0.22201E+08
 
   -0.25650E+08         0.18841E+07         0.00000E+00
    0.18841E+07        -0.61033E+08         0.00000E+00
    0.00000E+00         0.00000E+00        -0.22167E+08
 
   -0.24516E+08         0.30261E+07         0.00000E+00
    0.30261E+07        -0.61377E+08         0.00000E+00
    0.00000E+00         0.00000E+00        -0.22146E+08
 
   -0.23437E+08         0.44090E+07         0.00000E+00
    0.44090E+07        -0.61784E+08         0.00000E+00
    0.00000E+00         0.00000E+00        -0.22150E+08
 
   -0.23242E+08         0.58299E+07         0.00000E+00
    0.58299E+07        -0.62221E+08         0.00000E+00
    0.00000E+00         0.00000E+00        -0.22878E+08
 
   -0.41946E+08        -0.75113E+06         0.00000E+00
   -0.75113E+06        -0.60035E+08         0.00000E+00
    0.00000E+00         0.00000E+00        -0.20645E+08
 
   -0.39936E+08        -0.17880E+07         0.00000E+00
   -0.17880E+07        -0.60110E+08         0.00000E+00
    0.00000E+00         0.00000E+00        -0.20627E+08
 
   -0.37894E+08        -0.23000E+07         0.00000E+00
   -0.23000E+07        -0.60163E+08         0.00000E+00
    0.00000E+00         0.00000E+00        -0.20597E+08
 
   -0.35972E+08        -0.24311E+07         0.00000E+00
   -0.24311E+07        -0.60145E+08         0.00000E+00
    0.00000E+00         0.00000E+00        -0.20556E+08
 
   -0.34223E+08        -0.23114E+07         0.00000E+00
   -0.23114E+07        -0.60060E+08         0.00000E+00
    0.00000E+00         0.00000E+00        -0.20510E+08
 
   -0.32639E+08        -0.20314E+07         0.00000E+00
   -0.20314E+07        -0.59940E+08         0.00000E+00
    0.00000E+00         0.00000E+00        -0.20460E+08
 
   -0.31190E+08        -0.16436E+07         0.00000E+00
   -0.16436E+07        -0.59819E+08         0.00000E+00
    0.00000E+00         0.00000E+00        -0.20410E+08
 
   -0.29834E+08        -0.11738E+07         0.00000E+00
   -0.11738E+07        -0.59731E+08         0.00000E+00
    0.00000E+00         0.00000E+00        -0.20360E+08
 
   -0.28536E+08        -0.62995E+06         0.00000E+00
   -0.62995E+06        -0.59701E+08         0.00000E+00
    0.00000E+00         0.00000E+00        -0.20313E+08
 
   -0.27259E+08        -0.61914E+04         0.00000E+00
   -0.61914E+04        -0.59750E+08         0.00000E+00
    0.00000E+00         0.00000E+00        -0.20271E+08
 
   -0.25975E+08         0.71595E+06         0.00000E+00
    0.71595E+06        -0.59898E+08         0.00000E+00
    0.00000E+00         0.00000E+00        -0.20235E+08
 
   -0.24660E+08         0.15700E+07         0.00000E+00
    0.15700E+07        -0.60159E+08         0.00000E+00
    0.00000E+00         0.00000E+00        -0.20208E+08
 
   -0.23299E+08         0.26129E+07         0.00000E+00
    0.26129E+07        -0.60543E+08         0.00000E+00
    0.00000E+00         0.00000E+00        -0.20194E+08
 
   -0.21993E+08         0.39149E+07         0.00000E+00
    0.39149E+07        -0.61035E+08         0.00000E+00
    0.00000E+00         0.00000E+00        -0.20276E+08
 
   -0.21825E+08         0.53476E+07         0.00000E+00
    0.53476E+07        -0.61581E+08         0.00000E+00
    0.00000E+00         0.00000E+00        -0.21337E+08
 
   -0.43325E+08        -0.81079E+06         0.00000E+00
   -0.81079E+06        -0.60030E+08         0.00000E+00
    0.00000E+00         0.00000E+00        -0.18521E+08
 
   -0.40662E+08        -0.18385E+07         0.00000E+00
   -0.18385E+07        -0.60058E+08         0.00000E+00
    0.00000E+00         0.00000E+00        -0.18507E+08
 
   -0.38145E+08        -0.22530E+07         0.00000E+00
   -0.22530E+07        -0.59991E+08         0.00000E+00
    0.00000E+00         0.00000E+00        -0.18482E+08
 
   -0.35925E+08        -0.22881E+07         0.00000E+00
   -0.22881E+07        -0.59801E+08         0.00000E+00
    0.00000E+00         0.00000E+00        -0.18450E+08
 
   -0.33999E+08        -0.21154E+07         0.00000E+00
   -0.21154E+07        -0.59534E+08         0.00000E+00
    0.00000E+00         0.00000E+00        -0.18412E+08
 
   -0.32307E+08        -0.18279E+07         0.00000E+00
   -0.18279E+07        -0.59248E+08         0.00000E+00
    0.00000E+00         0.00000E+00        -0.18373E+08
 
   -0.30781E+08        -0.14696E+07         0.00000E+00
   -0.14696E+07        -0.58987E+08         0.00000E+00
    0.00000E+00         0.00000E+00        -0.18332E+08
 
   -0.29363E+08        -0.10583E+07         0.00000E+00
   -0.10583E+07        -0.58785E+08         0.00000E+00
    0.00000E+00         0.00000E+00        -0.18292E+08
 
   -0.28000E+08        -0.59658E+06         0.00000E+00
   -0.59658E+06        -0.58666E+08         0.00000E+00
    0.00000E+00         0.00000E+00        -0.18254E+08
 
   -0.26646E+08        -0.75476E+05         0.00000E+00
   -0.75476E+05        -0.58653E+08         0.00000E+00
    0.00000E+00         0.00000E+00        -0.18221E+08
 
   -0.25257E+08         0.52548E+06         0.00000E+00
    0.52548E+06        -0.58764E+08         0.00000E+00
    0.00000E+00         0.00000E+00        -0.18193E+08
 
   -0.23793E+08         0.12420E+07         0.00000E+00
    0.12420E+07        -0.59022E+08         0.00000E+00
    0.00000E+00         0.00000E+00        -0.18173E+08
 
   -0.22209E+08         0.21336E+07         0.00000E+00
    0.21336E+07        -0.59448E+08         0.00000E+00
    0.00000E+00         0.00000E+00        -0.18164E+08
 
   -0.20626E+08         0.32919E+07         0.00000E+00
    0.32919E+07        -0.60047E+08         0.00000E+00
    0.00000E+00         0.00000E+00        -0.18303E+08
 
   -0.20295E+08         0.47475E+07         0.00000E+00
    0.47475E+07        -0.60735E+08         0.00000E+00
    0.00000E+00         0.00000E+00        -0.19615E+08
 
   -0.44745E+08        -0.85387E+06         0.00000E+00
   -0.85387E+06        -0.60016E+08         0.00000E+00
    0.00000E+00         0.00000E+00        -0.16318E+08
 
   -0.41268E+08        -0.17693E+07         0.00000E+00
   -0.17693E+07        -0.59944E+08         0.00000E+00
    0.00000E+00         0.00000E+00        -0.16308E+08
 
   -0.38266E+08        -0.20023E+07         0.00000E+00
   -0.20023E+07        -0.59657E+08         0.00000E+00
    0.00000E+00         0.00000E+00        -0.16289E+08
 
   -0.35806E+08        -0.19281E+07         0.00000E+00
   -0.19281E+07        -0.59214E+08         0.00000E+00
    0.00000E+00         0.00000E+00        -0.16265E+08
 
   -0.33761E+08        -0.17266E+07         0.00000E+00
   -0.17266E+07        -0.58724E+08         0.00000E+00
    0.00000E+00         0.00000E+00        -0.16238E+08
 
   -0.32003E+08        -0.14645E+07         0.00000E+00
   -0.14645E+07        -0.58258E+08         0.00000E+00
    0.00000E+00         0.00000E+00        -0.16209E+08
 
   -0.30433E+08        -0.11674E+07         0.00000E+00
   -0.11674E+07        -0.57856E+08         0.00000E+00
    0.00000E+00         0.00000E+00        -0.16179E+08
 
   -0.28976E+08        -0.84299E+06         0.00000E+00
   -0.84299E+06        -0.57544E+08         0.00000E+00
    0.00000E+00         0.00000E+00        -0.16149E+08
 
   -0.27569E+08        -0.48892E+06         0.00000E+00
   -0.48892E+06        -0.57343E+08         0.00000E+00
    0.00000E+00         0.00000E+00        -0.16121E+08
 
   -0.26157E+08        -0.95269E+05         0.00000E+00
   -0.95269E+05        -0.57271E+08         0.00000E+00
    0.00000E+00         0.00000E+00        -0.16097E+08
 
   -0.24685E+08         0.35673E+06         0.00000E+00
    0.35673E+06        -0.57350E+08         0.00000E+00
    0.00000E+00         0.00000E+00        -0.16077E+08
 
   -0.23094E+08         0.89900E+06         0.00000E+00
    0.89900E+06        -0.57604E+08         0.00000E+00
    0.00000E+00         0.00000E+00        -0.16064E+08
 
   -0.21312E+08         0.15818E+07         0.00000E+00
    0.15818E+07        -0.58071E+08         0.00000E+00
    0.00000E+00         0.00000E+00        -0.16059E+08
 
   -0.19365E+08         0.25181E+07         0.00000E+00
    0.25181E+07        -0.58791E+08         0.00000E+00
    0.00000E+00         0.00000E+00        -0.16168E+08
 
   -0.18671E+08         0.39500E+07         0.00000E+00
    0.39500E+07        -0.59682E+08         0.00000E+00
    0.00000E+00         0.00000E+00        -0.17685E+08
 
   -0.46092E+08        -0.84502E+06         0.00000E+00
   -0.84502E+06        -0.59969E+08         0.00000E+00
    0.00000E+00         0.00000E+00        -0.14040E+08
 
   -0.41627E+08        -0.14286E+07         0.00000E+00
   -0.14286E+07        -0.59623E+08         0.00000E+00
    0.00000E+00         0.00000E+00        -0.14033E+08
 
   -0.38245E+08        -0.14361E+07         0.00000E+00
   -0.14361E+07        -0.58957E+08         0.00000E+00
    0.00000E+00         0.00000E+00        -0.14022E+08
 
   -0.35654E+08        -0.13094E+07         0.00000E+00
   -0.13094E+07        -0.58213E+08         0.00000E+00
    0.00000E+00         0.00000E+00        -0.14007E+08
 
   -0.33552E+08        -0.11388E+07         0.00000E+00
   -0.11388E+07        -0.57505E+08         0.00000E+00
    0.00000E+00         0.00000E+00        -0.13991E+08
 
   -0.31765E+08        -0.95023E+06         0.00000E+00
   -0.95023E+06        -0.56880E+08         0.00000E+00
    0.00000E+00         0.00000E+00        -0.13973E+08
 
   -0.30175E+08        -0.75120E+06         0.00000E+00
   -0.75120E+06        -0.56362E+08         0.00000E+00
    0.00000E+00         0.00000E+00        -0.13954E+08
 
   -0.28699E+08        -0.54205E+06         0.00000E+00
   -0.54205E+06        -0.55965E+08         0.00000E+00
    0.00000E+00         0.00000E+00        -0.13936E+08
 
   -0.27266E+08        -0.31882E+06         0.00000E+00
   -0.31882E+06        -0.55702E+08         0.00000E+00
    0.00000E+00         0.00000E+00        -0.13919E+08
 
   -0.25817E+08        -0.73646E+05         0.00000E+00
   -0.73646E+05        -0.55587E+08         0.00000E+00
    0.00000E+00         0.00000E+00        -0.13904E+08
 
   -0.24287E+08         0.20645E+06         0.00000E+00
    0.20645E+06        -0.55640E+08         0.00000E+00
    0.00000E+00         0.00000E+00        -0.13891E+08
 
   -0.22602E+08         0.54265E+06         0.00000E+00
    0.54265E+06        -0.55892E+08         0.00000E+00
    0.00000E+00         0.00000E+00        -0.13884E+08
 
   -0.20679E+08         0.97147E+06         0.00000E+00
    0.97147E+06        -0.56387E+08         0.00000E+00
    0.00000E+00         0.00000E+00        -0.13883E+08
 
   -0.18342E+08         0.15754E+07         0.00000E+00
    0.15754E+07        -0.57228E+08         0.00000E+00
    0.00000E+00         0.00000E+00        -0.13891E+08
 
   -0.16983E+08         0.28192E+07         0.00000E+00
    0.28192E+07        -0.58396E+08         0.00000E+00
    0.00000E+00         0.00000E+00        -0.15511E+08
 
   -0.47046E+08        -0.51078E+06         0.00000E+00
   -0.51078E+06        -0.59505E+08         0.00000E+00
    0.00000E+00         0.00000E+00        -0.11691E+08
 
   -0.41682E+08        -0.58114E+06         0.00000E+00
   -0.58114E+06        -0.58593E+08         0.00000E+00
    0.00000E+00         0.00000E+00        -0.11689E+08
 
   -0.38176E+08        -0.52923E+06         0.00000E+00
   -0.52923E+06        -0.57553E+08         0.00000E+00
    0.00000E+00         0.00000E+00        -0.11685E+08
 
   -0.35543E+08        -0.46601E+06         0.00000E+00
   -0.46601E+06        -0.56591E+08         0.00000E+00
    0.00000E+00         0.00000E+00        -0.11680E+08
 
   -0.33427E+08        -0.39801E+06         0.00000E+00
   -0.39801E+06        -0.55746E+08         0.00000E+00
    0.00000E+00         0.00000E+00        -0.11675E+08
 
   -0.31633E+08        -0.32871E+06         0.00000E+00
   -0.32871E+06        -0.55032E+08         0.00000E+00
    0.00000E+00         0.00000E+00        -0.11669E+08
 
   -0.30038E+08        -0.25834E+06         0.00000E+00
   -0.25834E+06        -0.54452E+08         0.00000E+00
    0.00000E+00         0.00000E+00        -0.11662E+08
 
   -0.28554E+08        -0.18597E+06         0.00000E+00
   -0.18597E+06        -0.54013E+08         0.00000E+00
    0.00000E+00         0.00000E+00        -0.11656E+08
 
   -0.27110E+08        -0.10971E+06         0.00000E+00
   -0.10971E+06        -0.53721E+08         0.00000E+00
    0.00000E+00         0.00000E+00        -0.11650E+08
 
   -0.25643E+08        -0.26603E+05         0.00000E+00
   -0.26603E+05        -0.53587E+08         0.00000E+00
    0.00000E+00         0.00000E+00        -0.11645E+08
 
   -0.24083E+08         0.67979E+05         0.00000E+00
    0.67979E+05        -0.53629E+08         0.00000E+00
    0.00000E+00         0.00000E+00        -0.11641E+08
 
   -0.22352E+08         0.18088E+06         0.00000E+00
    0.18088E+06        -0.53879E+08         0.00000E+00
    0.00000E+00         0.00000E+00        -0.11638E+08
 
   -0.20339E+08         0.32649E+06         0.00000E+00
    0.32649E+06        -0.54386E+08         0.00000E+00
    0.00000E+00         0.00000E+00        -0.11638E+08
 
   -0.17876E+08         0.52682E+06         0.00000E+00
    0.52682E+06        -0.55237E+08         0.00000E+00
    0.00000E+00         0.00000E+00        -0.11642E+08
 
   -0.15346E+08         0.10817E+07         0.00000E+00
    0.10817E+07        -0.56833E+08         0.00000E+00
    0.00000E+00         0.00000E+00        -0.13031E+08
 
SCALARS stresss double 
LOOKUP_TABLE default
  -47928439.4460515     
  -47982165.0790714     
  -48262002.9659556     
  -49032760.7479887     
  -50269120.9246658     
  -51161777.9085732     
  -51904414.2169865     
  -52554182.7492427     
  -53139165.8211233     
  -53676415.7933077     
  -54178898.3127948     
  -54659059.6803665     
  -55132599.0163536     
  -55625491.6340692     
  -56217637.1393418     
  -47945100.8061104     
  -48075068.7555185     
  -48185473.3391153     
  -48597471.9772469     
  -49377705.0082709     
  -50146488.8216167     
  -50827634.7756340     
  -51440480.7700382     
  -51999076.3900292     
  -52514605.9797954     
  -52996412.2175424     
  -53453384.8965964     
  -53894904.9142390     
  -54333166.2813264     
  -54742839.5167356     
  -47075705.5418937     
  -47448526.7594369     
  -47801074.0596416     
  -48229757.2904214     
  -48771076.6471958     
  -49376895.0227638     
  -49968576.6401222     
  -50522417.0501836     
  -51037310.5640218     
  -51516302.3379466     
  -51963410.8526587     
  -52382269.0732550     
  -52774908.8279738     
  -53134514.4997055     
  -53441012.5800619     
  -46731220.0656423     
  -47056953.8255479     
  -47416549.8576478     
  -47820158.8744649     
  -48277385.6429333     
  -48771232.0252517     
  -49273489.2695186     
  -49760478.5833714     
  -50222073.0051265     
  -50655116.5337677     
  -51058719.9280673     
  -51431916.6356060     
  -51771048.9588595     
  -52067253.4728967     
  -52304299.2125905     
  -46470138.9230537     
  -46761354.2820738     
  -47089054.5185092     
  -47452294.6609641     
  -47848260.6847147     
  -48267796.6231935     
  -48695918.2285386     
  -49118125.7616024     
  -49523903.8436482     
  -49907070.9536180     
  -50263629.9245206     
  -50589686.8034790     
  -50879749.0742317     
  -51125363.2854773     
  -51314903.0126630     
  -46242637.1178406     
  -46510103.7842696     
  -46805836.3143872     
  -47128169.7455745     
  -47473166.2921371     
  -47833895.4126034     
  -48201074.6303740     
  -48564887.7858949     
  -48916875.0232756     
  -49250457.5574330     
  -49560389.0479093     
  -49841681.8644812     
  -50088619.1243227     
  -50294214.4015427     
  -50450418.4929137     
  -46031125.0023243     
  -46281026.3853691     
  -46549749.8071782     
  -46836301.4040732     
  -47137755.7961745     
  -47449255.7973825     
  -47764484.5834421     
  -48076563.2897674     
  -48378914.5780661     
  -48665714.2467990     
  -48931796.8623444     
  -49172251.4124611     
  -49382011.7778856     
  -49555727.7743024     
  -49688125.4322753     
  -45822213.3525035     
  -46060348.9383638     
  -46307451.1512500     
  -46563888.6773828     
  -46828254.9632234     
  -47097584.6698140     
  -47367747.8860949     
  -47633979.8846794     
  -47891393.5131492     
  -48135304.9201815     
  -48361322.7863349     
  -48565276.1088761     
  -48743143.1811051     
  -48891149.1718992     
  -49006154.8835534     
  -45607053.2648823     
  -45838335.1702197     
  -46068651.8728193     
  -46300012.5058110     
  -46532673.4769752     
  -46765447.4876514     
  -46996054.2641836     
  -47221506.9309332     
  -47438473.6737345     
  -47643551.4909776     
  -47833429.4807961     
  -48004980.6060488     
  -48155363.5317413     
  -48282226.3970899     
  -48384079.3757871     
  -45380378.0283278     
  -45608360.8746891     
  -45825642.8285621     
  -46035919.9027044     
  -46241119.7231615     
  -46441741.2080557     
  -46637182.0741912     
  -46826061.0909132     
  -47006516.1432502     
  -47176455.1982556     
  -47333755.1134210     
  -47476430.0385411     
  -47602812.5568034     
  -47711795.3068990     
  -47803166.5013148     
  -45139551.5037796     
  -45366234.1195607     
  -45572890.8797852     
  -45764838.1625734     
  -45945616.7806144     
  -46117324.1768972     
  -46280920.9919962     
  -46436520.0989105     
  -46583654.3599561     
  -46721517.0014429     
  -46849175.7995632     
  -46965774.2662098     
  -47070742.3494656     
  -47164040.2322294     
  -47246449.5220069     
  -44883822.2982992     
  -45109618.5859562     
  -45306620.2726022     
  -45481661.4389687     
  -45639810.1024174     
  -45784672.2961747     
  -45918674.7048155     
  -46043330.7007625     
  -46159490.1491603     
  -46267572.3324686     
  -46367784.4328015     
  -46460333.0248058     
  -46545639.5594996     
  -46624569.9240553     
  -46698681.7201997     
  -44613787.4549885     
  -44837559.7998581     
  -45024419.3397252     
  -45182617.7802073     
  -45318659.5598729     
  -45437569.0897406     
  -45543146.9502209     
  -45638216.0155663     
  -45724857.4576150     
  -45804636.5030616     
  -45878819.2106030     
  -45948583.4800117     
  -46015228.3402459     
  -46080383.8523946     
  -46146219.2396750     
  -44331004.7077678     
  -44550107.7574766     
  -44724895.8042373     
  -44864957.1380264     
  -44978149.3721907     
  -45070828.3282651     
  -45148077.5488912     
  -45213936.1534949     
  -45271623.0151197     
  -45323755.6049885     
  -45372562.6747171     
  -45420090.7259498     
  -45468403.9787339     
  -45519775.5287736     
  -45576863.5784069     
  -44037703.2617341     
  -44248016.1616726     
  -44407383.4427418     
  -44526673.0289135     
  -44615025.3859415     
  -44680046.3608673     
  -44728012.0409730     
  -44764080.8634825     
  -44792508.4656759     
  -44816861.1877552     
  -44840225.0027143     
  -44865407.4254888     
  -44895129.6325649     
  -44932203.7411503     
  -44979686.3152723     
  -43736558.5363482     
  -43932497.6443869     
  -44071692.0414233     
  -44166256.6591186     
  -44226558.8954361     
  -44261379.2842150     
  -44278095.5892477     
  -44282883.5826866     
  -44280927.0122635     
  -44276629.3462256     
  -44273821.2946369     
  -44275960.2197535     
  -44286318.2746691     
  -44308153.6341776     
  -44344853.1578913     
  -43430508.0126342     
  -43605016.9825477     
  -43717888.5724217     
  -43782475.6833090     
  -43810330.8750380     
  -43811338.7246712     
  -43793884.5987630     
  -43765051.2670484     
  -43730831.7540175     
  -43696345.8015751     
  -43666049.7344509     
  -43643934.9994633     
  -43633715.9613142     
  -43639005.0050712     
  -43663462.0748476     
  -43122592.8084992     
  -43267106.9930348     
  -43346095.9855013     
  -43374166.1701856     
  -43364027.2282760     
  -43326598.7479423     
  -43271170.7330455     
  -43205607.1906791     
  -43136575.3516801     
  -43069778.6844865     
  -43010174.3261818     
  -42962168.3216181     
  -42929798.6397238     
  -42916924.6162892     
  -42927412.0854900     
  -42815814.2576355     
  -42920193.0797214     
  -42956294.3181025     
  -42940023.1159916     
  -42885232.5763461     
  -42803804.7958771     
  -42705812.4730476     
  -42599746.6085863     
  -42492784.0676032     
  -42391061.2253508     
  -42299911.5956019     
  -42224043.4453175     
  -42167690.7984575     
  -42134803.0516405     
  -42129329.8045149     
  -42512997.4790811     
  -42565411.4275238     
  -42548105.0977512     
  -42478370.0213630     
  -42371205.8212303     
  -42239372.9350823     
  -42093569.1773015     
  -41942707.7623262     
  -41794257.3647713     
  -41654594.3646136     
  -41529311.7877815     
  -41423371.6286251     
  -41341093.2092524     
  -41286274.8179103     
  -41262612.2284312     
  -42216654.7430728     
  -42203401.1916969     
  -42120532.1696938     
  -41986879.7672065     
  -41818614.1015080     
  -41629263.6545720     
  -41429931.1255234     
  -41229662.9941274     
  -41035910.2191091     
  -40855014.5283421     
  -40692648.3647896     
  -40554147.3826761     
  -40444162.5598374     
  -40365852.6539811     
  -40321797.7177567     
  -41928839.2649562     
  -41834039.7805896     
  -41671616.7561114     
  -41462204.9780320     
  -41223192.1201182     
  -40968709.3873072     
  -40709936.7411091     
  -40455632.8146040     
  -40212781.2199621     
  -39987268.0474756     
  -39784535.8283903     
  -39610140.2056982     
  -39470474.7912709     
  -39369473.0819773     
  -39303965.2231498     
  -41650972.0669155     
  -41456065.9170744     
  -41197935.3698594     
  -40899452.8089507     
  -40579281.6475737     
  -40251871.7259422     
  -39927967.7291841     
  -39615421.7155029     
  -39320111.6434223     
  -39046850.7711946     
  -38800279.9158727     
  -38585774.3277690     
  -38410399.7405146     
  -38288662.8292726     
  -38222878.9859443     
  -41383603.1995561     
  -41066483.1737856     
  -40693812.3124486     
  -40291402.1684055     
  -39879194.8584681     
  -39471411.0261610     
  -39077522.2611595     
  -38703572.4481791     
  -38353476.7308553     
  -38030165.0099410     
  -37736617.5884019     
  -37477084.9803098     
  -37258262.9946788     
  -37091390.6370620     
  -37170792.8995316     
  -41126019.8581340     
  -40659515.7360597     
  -40150007.7309565     
  -39627304.5330381     
  -39112350.7991991     
  -38617985.0192472     
  -38150999.0748689     
  -37714347.4318924     
  -37308928.6140135     
  -36934865.6090401     
  -36592520.9113929     
  -36283458.1489682     
  -36012982.0407865     
  -35790247.9915172     
  -36113405.6468196     
  -40875458.1654600     
  -40224613.5035524     
  -39551397.0758366     
  -38891057.6950668     
  -38264199.2168002     
  -37679792.2073924     
  -37139591.7419909     
  -36641779.0381207     
  -36183110.8966894     
  -35760062.7636431     
  -35369503.4736529     
  -35009343.7268115     
  -34678493.8071239     
  -34434706.1375377     
  -34914338.7738839     
  -40625361.9269734     
  -39742090.9969415     
  -38872765.4852591     
  -38058558.2640648     
  -37315246.6498897     
  -36642477.9361623     
  -36033467.5887894     
  -35479863.1779325     
  -34973362.4515630     
  -34506241.2859587     
  -34071495.1327643     
  -33662642.1454936     
  -33273488.7834365     
  -32991997.2177093     
  -33548080.2478724     
  -40359506.4895080     
  -39173117.1992078     
  -38070712.6732045     
  -37095143.3211774     
  -36241273.7391949     
  -35489862.4986593     
  -34822433.7317373     
  -34222976.8221747     
  -33677831.6099974     
  -33175073.0364120     
  -32703830.7731736     
  -32253879.5938430     
  -31814342.6974421     
  -31441203.9271385     
  -32012799.7707037     
  -40033998.3310327     
  -38427687.8982514     
  -37074658.2119778     
  -35957940.9054267     
  -35015880.9958341     
  -34205907.9294725     
  -33497169.6651573     
  -32866528.3840336     
  -32295655.9960297     
  -31769083.8501639     
  -31272758.8354675     
  -30792699.7363652     
  -30316163.0870077     
  -29820286.3179377     
  -30296507.6516321     
  -39414115.6154004     
  -37321512.7337687     
  -35804703.7402533     
  -34604848.4045804     
  -33616047.6000233     
  -32777728.3006202     
  -32050845.1596346     
  -31407730.8440508     
  -30827152.2156019     
  -30291425.1432614     
  -29784402.9502511     
  -29289745.9037266     
  -28787531.2558704     
  -28251412.6162306     
  -28403481.3852115     
SCALARS 2waySource double 
LOOKUP_TABLE default
  2.806151204335187E-002
  2.327698752632117E-002
  2.414030359052689E-002
  3.119275549666000E-002
  4.860037424994844E-002
  5.921401130571122E-002
  6.732172174569911E-002
  7.398333877463645E-002
  7.973002217328784E-002
  8.487798565600224E-002
  8.966099443913204E-002
  9.429230024091829E-002
  9.902264532599610E-002
  0.104225252138313     
  0.111013278948563     
  3.145525353809482E-002
  2.995833396263453E-002
  2.647779912170695E-002
  2.639560542583133E-002
  3.388738868539213E-002
  4.200892004270049E-002
  4.882349865031752E-002
  5.471039742301156E-002
  5.991134983291625E-002
  6.462284471960700E-002
  6.900661364520674E-002
  7.321293897780810E-002
  7.739858093118930E-002
  8.177236524638942E-002
  8.637696074665549E-002
  2.053404134901928E-002
  2.083038804127958E-002
  2.008834746433274E-002
  2.083774493979272E-002
  2.426276850875837E-002
  2.937850212038758E-002
  3.455400873512343E-002
  3.934453239022208E-002
  4.373719193998120E-002
  4.778376839683079E-002
  5.155288136033778E-002
  5.510992865542171E-002
  5.850640220410210E-002
  6.172908539867065E-002
  6.459345235993050E-002
  1.620046979863072E-002
  1.508013008346046E-002
  1.461173763238686E-002
  1.510261628148012E-002
  1.699217845151103E-002
  2.002361915963794E-002
  2.358111610992249E-002
  2.718084011846080E-002
  3.063449990607529E-002
  3.388480921722315E-002
  3.691633203126234E-002
  3.971974042010924E-002
  4.226159619210525E-002
  4.444519109567142E-002
  4.604634396324003E-002
  1.348133559590176E-002
  1.156733586777015E-002
  1.052760673424693E-002
  1.039454102860217E-002
  1.122514902520101E-002
  1.289976816261421E-002
  1.512182828847117E-002
  1.758766278984805E-002
  2.008645415739677E-002
  2.250030981855225E-002
  2.475725114300353E-002
  2.679590134911139E-002
  2.853828984639577E-002
  2.986175464754664E-002
  3.057548222761412E-002
  1.167657695351957E-002
  9.237843671639396E-003
  7.605091606276613E-003
  6.785145683883349E-003
  6.751367515886572E-003
  7.403652551256803E-003
  8.566280200397087E-003
  1.003764178837294E-002
  1.164293886877889E-002
  1.325036568868588E-002
  1.476012448822631E-002
  1.608397660367956E-002
  1.712620801444188E-002
  1.776832623525356E-002
  1.786196285964524E-002
  1.048033452361699E-002
  7.646449092122740E-003
  5.514501652330448E-003
  4.088875725549999E-003
  3.335208568208733E-003
  3.172746572435892E-003
  3.478646182498395E-003
  4.108980634604662E-003
  4.923325457264958E-003
  5.798764919579376E-003
  6.629876893505570E-003
  7.320719192658441E-003
  7.775129511496590E-003
  7.890027427369745E-003
  7.555830669734157E-003
  9.635288795016680E-003
  6.523927316714057E-003
  4.002371887088924E-003
  2.084859773083398E-003
  7.472923657523984E-004
 -7.077436475485068E-005
 -4.597621018873979E-004
 -5.280709344244949E-004
 -3.884296380973776E-004
 -1.482008243317591E-004
  9.399308357456264E-005
  2.467516293350307E-004
  2.228496289235000E-004
 -6.194246360814541E-005
 -6.852195642360218E-004
  8.964188724996047E-003
  5.681341326819584E-003
  2.878038744265421E-003
  5.831929913031710E-004
 -1.212355623185927E-003
 -2.549912964947082E-003
 -3.495953911053500E-003
 -4.133410504452759E-003
 -4.552609742671812E-003
 -4.844010619370951E-003
 -5.093965469493931E-003
 -5.383052484747364E-003
 -5.785321402304106E-003
 -6.366380577434867E-003
 -7.178493098379497E-003
  8.353842110281950E-003
  4.988216553507035E-003
  2.000449216421122E-003
 -5.662111857795281E-004
 -2.706034578480217E-003
 -4.443321014938915E-003
 -5.825290774467832E-003
 -6.914813243971070E-003
 -7.783376995868202E-003
 -8.505108220732546E-003
 -9.152332994951478E-003
 -9.792463305321717E-003
 -1.048533121203851E-002
 -1.127980251144423E-002
 -1.220862221976596E-002
  7.736395690046477E-003
  4.358270457801201E-003
  1.269147885559547E-003
 -1.476431411955345E-003
 -3.860030783934853E-003
 -5.891577299448633E-003
 -7.602452483664285E-003
 -9.039024070601793E-003
 -1.025665889751301E-002
 -1.131446518715770E-002
 -1.227090831545571E-002
 -1.318013021592126E-002
 -1.408848352457317E-002
 -1.503063639575613E-002
 -1.602468823852150E-002
  7.075031589643721E-003
  3.738085517076609E-003
  6.161520100499248E-004
 -2.228936534765709E-003
 -4.769131887676095E-003
 -7.002877450202658E-003
 -8.948663292385054E-003
 -1.063918559080798E-002
 -1.211604158378945E-002
 -1.342498818743544E-002
 -1.461175586043628E-002
 -1.571827417616576E-002
 -1.677902207379623E-002
 -1.781715446487835E-002
 -1.884012861350231E-002
  6.354057776244938E-003
  3.098277538310074E-003
 -1.203070610720303E-006
 -2.879301018769328E-003
 -5.501676910734821E-003
 -7.858221537905951E-003
 -9.957253633540344E-003
 -1.182029802104290E-002
 -1.347736368156354E-002
 -1.496267563919582E-002
 -1.631079882277586E-002
 -1.755303611088235E-002
 -1.871392703622566E-002
 -1.980766396253387E-002
 -2.083430814382634E-002
  5.572071545148690E-003
  2.426815661385327E-003
 -6.062359000917944E-004
 -3.462433068969975E-003
 -6.104322889678162E-003
 -8.516041164151410E-003
 -1.069825541832378E-002
 -1.266360015634749E-002
 -1.443254080748968E-002
 -1.602960480977949E-002
 -1.747990760209033E-002
 -1.880587982818320E-002
 -2.002408801455294E-002
 -2.114205682040008E-002
 -2.215506239491436E-002
  4.737162260331269E-003
  1.724027141881877E-003
 -1.207718581398896E-003
 -3.997050130694763E-003
 -6.606254492229545E-003
 -9.016251651408368E-003
 -1.122233345526387E-002
 -1.323029891347664E-002
 -1.505294078686998E-002
 -1.670682594089227E-002
 -1.820930089815787E-002
 -1.957564591469019E-002
 -2.081630454823464E-002
 -2.193414353833374E-002
 -2.292175719894505E-002
  3.863478417078154E-003
  9.988698041677267E-004
 -1.803655686636539E-003
 -4.489382378577452E-003
 -7.022785418199847E-003
 -9.383766920741030E-003
 -1.156421389181540E-002
 -1.356486963268227E-002
 -1.539248666742113E-002
 -1.705721309378681E-002
 -1.857014887536221E-002
 -1.994099868880891E-002
 -2.117575710943583E-002
 -2.227439113836666E-002
 -2.322855079385507E-002
  2.968734154737736E-003
  2.661449856170065E-004
 -2.384233970099420E-003
 -4.936192422013749E-003
 -7.358400461162766E-003
 -9.631543883277673E-003
 -1.174571642379841E-002
 -1.369805403473867E-002
 -1.549059122504241E-002
 -1.712830990900390E-002
 -1.861732452414765E-002
 -1.996311664208207E-002
 -2.116871991392508E-002
 -2.223279997145378E-002
 -2.314761874961757E-002
  2.072380978013584E-003
 -4.555961758892240E-004
 -2.934129221266440E-003
 -5.327239336184554E-003
 -7.609331064373710E-003
 -9.763237268991313E-003
 -1.177846922597063E-002
 -1.364963135766684E-002
 -1.537498873674651E-002
 -1.695521645284820E-002
 -1.839231676202874E-002
 -1.968857675445182E-002
 -2.084538745522659E-002
 -2.186170340213558E-002
 -2.273209795286504E-002
  1.194258947662122E-003
 -1.145642765972710E-003
 -3.434339919437872E-003
 -5.647327854789691E-003
 -7.765777821654549E-003
 -9.775553240752332E-003
 -1.166636677654048E-002
 -1.343098768382925E-002
 -1.506448366400896E-002
 -1.656358164780231E-002
 -1.792641385483443E-002
 -1.915255790008947E-002
 -2.024278885711658E-002
 -2.119827624782093E-002
 -2.201833532073100E-002
  3.535942904217813E-004
 -1.782363949704928E-003
 -3.863705136920517E-003
 -5.878091094008756E-003
 -7.813909794591387E-003
 -9.660402656364768E-003
 -1.140782346030858E-002
 -1.304746232441447E-002
 -1.457148438917374E-002
 -1.597268461706461E-002
 -1.724449812993240E-002
 -1.838278352674677E-002
 -1.938823047761293E-002
 -2.026629873520549E-002
 -2.102646443808298E-002
 -4.317583958647173E-004
 -2.344234231557525E-003
 -4.200262619845876E-003
 -5.999667779006949E-003
 -7.737792631767429E-003
 -9.406982254269832E-003
 -1.099790242578626E-002
 -1.250044025603982E-002
 -1.390408390907572E-002
 -1.519780731632552E-002
 -1.636964371298223E-002
 -1.740652057467048E-002
 -1.830418078637042E-002
 -1.907770442512771E-002
 -1.975508460892067E-002
 -1.145915292823620E-003
 -2.810778032339287E-003
 -4.422614121639192E-003
 -5.992454936949788E-003
 -7.521424785803594E-003
 -9.003952886201212E-003
 -1.043046948263375E-002
 -1.178927951871513E-002
 -1.306751456243429E-002
 -1.425109406584146E-002
 -1.532359686190477E-002
 -1.626302847378490E-002
 -1.703225464506322E-002
 -1.762909707814934E-002
 -1.815603382346547E-002
 -1.775487343908292E-003
 -3.163582339112326E-003
 -4.511489800311552E-003
 -5.839141628857514E-003
 -7.151082119894186E-003
 -8.441914200980498E-003
 -9.700601867684688E-003
 -1.091338652792775E-002
 -1.206537789061175E-002
 -1.314089565622277E-002
 -1.412212325716850E-002
 -1.498610816846042E-002
 -1.568895166698378E-002
 -1.606820355648460E-002
 -1.585955072476545E-002
 -2.310122203985287E-003
 -3.387560726441520E-003
 -4.451744766015831E-003
 -5.527253859121343E-003
 -6.618167663763423E-003
 -7.716351944162030E-003
 -8.807481699418336E-003
 -9.874880881081082E-003
 -1.090169667836007E-002
 -1.187184813868062E-002
 -1.276999238759129E-002
 -1.357839642412516E-002
 -1.428631985066989E-002
 -1.487164788236714E-002
 -1.103489611604015E-002
 -2.743175822735029E-003
 -3.472715977266475E-003
 -4.235086467182573E-003
 -5.052460708805905E-003
 -5.922716063018078E-003
 -6.831123182543423E-003
 -7.757829596230177E-003
 -8.682095491212408E-003
 -9.584597332374966E-003
 -1.044893822789583E-002
 -1.126292542009139E-002
 -1.202089738930420E-002
 -1.271009098952943E-002
 -1.330855372323954E-002
 -5.674492365346168E-003
 -3.072649619002625E-003
 -3.416765401718960E-003
 -3.863938204214352E-003
 -4.422891735143862E-003
 -5.077589318770606E-003
 -5.802339611185515E-003
 -6.569619209783394E-003
 -7.353540815390811E-003
 -8.131418562579018E-003
 -8.884989194802739E-003
 -9.602877677642931E-003
 -1.028508609284978E-002
 -1.095490105632365E-002
 -1.079240648953626E-002
 -2.839534270998255E-003
 -3.302545872679759E-003
 -3.229251590341520E-003
 -3.356996942597814E-003
 -3.664634406327196E-003
 -4.113163728528071E-003
 -4.662237343440209E-003
 -5.275490414808607E-003
 -5.921446739930915E-003
 -6.573325433114284E-003
 -7.209094105773551E-003
 -7.812536924875027E-003
 -8.379135795458150E-003
 -8.936498456784840E-003
 -8.321711957834949E-003
 -6.266744759458174E-004
 -3.444962063437315E-003
 -2.938317806681637E-003
 -2.757234655402665E-003
 -2.828155090889646E-003
 -3.081799577817637E-003
 -3.462338151621622E-003
 -3.925196015838301E-003
 -4.433888262624429E-003
 -4.957645423079015E-003
 -5.469689827354030E-003
 -5.946158188866225E-003
 -6.364230867037694E-003
 -6.708464451663136E-003
 -6.256975708557948E-003
  1.854128031975469E-003
 -3.523280640887037E-003
 -2.603777782913565E-003
 -2.142315053580989E-003
 -1.993758291587234E-003
 -2.060639562861100E-003
 -2.275146197779675E-003
 -2.586668350782991E-003
 -2.955189113032124E-003
 -3.347069247379991E-003
 -3.731804065022158E-003
 -4.078800074737034E-003
 -4.353219438967841E-003
 -4.489073644276738E-003
 -4.371930607514474E-003
  4.621523449929395E-003
 -3.595744242582917E-003
 -2.339429422012731E-003
 -1.630447185013078E-003
 -1.271921701037001E-003
 -1.151430106271480E-003
 -1.194091161027440E-003
 -1.345869377828649E-003
 -1.565095480633403E-003
 -1.817177899795854E-003
 -2.070371601065526E-003
 -2.291363795387148E-003
 -2.440589296713197E-003
 -2.475095854573005E-003
 -2.358422952903469E-003
  7.075178086437529E-003
SCALARS elementIsPlast double 
LOOKUP_TABLE default
   1.00000000000000     
   1.00000000000000     
   1.00000000000000     
   1.00000000000000     
  0.000000000000000E+000
  0.000000000000000E+000
  0.000000000000000E+000
  0.000000000000000E+000
  0.000000000000000E+000
  0.000000000000000E+000
  0.000000000000000E+000
  0.000000000000000E+000
  0.000000000000000E+000
  0.000000000000000E+000
  0.000000000000000E+000
   1.00000000000000     
   1.00000000000000     
  0.000000000000000E+000
  0.000000000000000E+000
  0.000000000000000E+000
  0.000000000000000E+000
  0.000000000000000E+000
  0.000000000000000E+000
  0.000000000000000E+000
  0.000000000000000E+000
  0.000000000000000E+000
  0.000000000000000E+000
  0.000000000000000E+000
  0.000000000000000E+000
  0.000000000000000E+000
   1.00000000000000     
  0.000000000000000E+000
  0.000000000000000E+000
  0.000000000000000E+000
  0.000000000000000E+000
  0.000000000000000E+000
  0.000000000000000E+000
  0.000000000000000E+000
  0.000000000000000E+000
  0.000000000000000E+000
  0.000000000000000E+000
  0.000000000000000E+000
  0.000000000000000E+000
  0.000000000000000E+000
  0.000000000000000E+000
  0.000000000000000E+000
  0.000000000000000E+000
  0.000000000000000E+000
  0.000000000000000E+000
  0.000000000000000E+000
  0.000000000000000E+000
  0.000000000000000E+000
  0.000000000000000E+000
  0.000000000000000E+000
  0.000000000000000E+000
  0.000000000000000E+000
  0.000000000000000E+000
  0.000000000000000E+000
  0.000000000000000E+000
  0.000000000000000E+000
  0.000000000000000E+000
  0.000000000000000E+000
  0.000000000000000E+000
  0.000000000000000E+000
  0.000000000000000E+000
  0.000000000000000E+000
  0.000000000000000E+000
  0.000000000000000E+000
  0.000000000000000E+000
  0.000000000000000E+000
  0.000000000000000E+000
  0.000000000000000E+000
  0.000000000000000E+000
  0.000000000000000E+000
  0.000000000000000E+000
  0.000000000000000E+000
  0.000000000000000E+000
  0.000000000000000E+000
  0.000000000000000E+000
  0.000000000000000E+000
  0.000000000000000E+000
  0.000000000000000E+000
  0.000000000000000E+000
  0.000000000000000E+000
  0.000000000000000E+000
  0.000000000000000E+000
  0.000000000000000E+000
  0.000000000000000E+000
  0.000000000000000E+000
  0.000000000000000E+000
  0.000000000000000E+000
  0.000000000000000E+000
  0.000000000000000E+000
  0.000000000000000E+000
  0.000000000000000E+000
  0.000000000000000E+000
  0.000000000000000E+000
  0.000000000000000E+000
  0.000000000000000E+000
  0.000000000000000E+000
  0.000000000000000E+000
  0.000000000000000E+000
  0.000000000000000E+000
  0.000000000000000E+000
  0.000000000000000E+000
  0.000000000000000E+000
  0.000000000000000E+000
  0.000000000000000E+000
  0.000000000000000E+000
  0.000000000000000E+000
  0.000000000000000E+000
  0.000000000000000E+000
  0.000000000000000E+000
  0.000000000000000E+000
  0.000000000000000E+000
  0.000000000000000E+000
  0.000000000000000E+000
  0.000000000000000E+000
  0.000000000000000E+000
  0.000000000000000E+000
  0.000000000000000E+000
  0.000000000000000E+000
  0.000000000000000E+000
  0.000000000000000E+000
  0.000000000000000E+000
  0.000000000000000E+000
  0.000000000000000E+000
  0.000000000000000E+000
  0.000000000000000E+000
  0.000000000000000E+000
  0.000000000000000E+000
  0.000000000000000E+000
  0.000000000000000E+000
  0.000000000000000E+000
  0.000000000000000E+000
  0.000000000000000E+000
  0.000000000000000E+000
  0.000000000000000E+000
  0.000000000000000E+000
  0.000000000000000E+000
  0.000000000000000E+000
  0.000000000000000E+000
  0.000000000000000E+000
  0.000000000000000E+000
  0.000000000000000E+000
  0.000000000000000E+000
  0.000000000000000E+000
  0.000000000000000E+000
  0.000000000000000E+000
  0.000000000000000E+000
  0.000000000000000E+000
  0.000000000000000E+000
  0.000000000000000E+000
  0.000000000000000E+000
  0.000000000000000E+000
  0.000000000000000E+000
  0.000000000000000E+000
  0.000000000000000E+000
  0.000000000000000E+000
  0.000000000000000E+000
  0.000000000000000E+000
  0.000000000000000E+000
  0.000000000000000E+000
  0.000000000000000E+000
  0.000000000000000E+000
  0.000000000000000E+000
  0.000000000000000E+000
  0.000000000000000E+000
  0.000000000000000E+000
  0.000000000000000E+000
  0.000000000000000E+000
  0.000000000000000E+000
  0.000000000000000E+000
  0.000000000000000E+000
  0.000000000000000E+000
  0.000000000000000E+000
  0.000000000000000E+000
  0.000000000000000E+000
  0.000000000000000E+000
  0.000000000000000E+000
  0.000000000000000E+000
  0.000000000000000E+000
  0.000000000000000E+000
  0.000000000000000E+000
  0.000000000000000E+000
  0.000000000000000E+000
  0.000000000000000E+000
  0.000000000000000E+000
  0.000000000000000E+000
  0.000000000000000E+000
  0.000000000000000E+000
  0.000000000000000E+000
  0.000000000000000E+000
  0.000000000000000E+000
  0.000000000000000E+000
  0.000000000000000E+000
  0.000000000000000E+000
  0.000000000000000E+000
  0.000000000000000E+000
  0.000000000000000E+000
  0.000000000000000E+000
  0.000000000000000E+000
  0.000000000000000E+000
  0.000000000000000E+000
  0.000000000000000E+000
  0.000000000000000E+000
  0.000000000000000E+000
  0.000000000000000E+000
  0.000000000000000E+000
  0.000000000000000E+000
  0.000000000000000E+000
  0.000000000000000E+000
  0.000000000000000E+000
  0.000000000000000E+000
  0.000000000000000E+000
  0.000000000000000E+000
  0.000000000000000E+000
  0.000000000000000E+000
  0.000000000000000E+000
  0.000000000000000E+000
  0.000000000000000E+000
  0.000000000000000E+000
  0.000000000000000E+000
  0.000000000000000E+000
  0.000000000000000E+000
  0.000000000000000E+000
  0.000000000000000E+000
  0.000000000000000E+000
  0.000000000000000E+000
  0.000000000000000E+000
  0.000000000000000E+000
  0.000000000000000E+000
  0.000000000000000E+000
  0.000000000000000E+000
  0.000000000000000E+000
  0.000000000000000E+000
  0.000000000000000E+000
  0.000000000000000E+000
  0.000000000000000E+000
  0.000000000000000E+000
  0.000000000000000E+000
  0.000000000000000E+000
  0.000000000000000E+000
  0.000000000000000E+000
  0.000000000000000E+000
  0.000000000000000E+000
  0.000000000000000E+000
  0.000000000000000E+000
  0.000000000000000E+000
  0.000000000000000E+000
  0.000000000000000E+000
  0.000000000000000E+000
  0.000000000000000E+000
  0.000000000000000E+000
  0.000000000000000E+000
  0.000000000000000E+000
  0.000000000000000E+000
  0.000000000000000E+000
  0.000000000000000E+000
  0.000000000000000E+000
  0.000000000000000E+000
  0.000000000000000E+000
  0.000000000000000E+000
  0.000000000000000E+000
  0.000000000000000E+000
  0.000000000000000E+000
  0.000000000000000E+000
  0.000000000000000E+000
  0.000000000000000E+000
  0.000000000000000E+000
  0.000000000000000E+000
  0.000000000000000E+000
  0.000000000000000E+000
  0.000000000000000E+000
  0.000000000000000E+000
  0.000000000000000E+000
  0.000000000000000E+000
  0.000000000000000E+000
  0.000000000000000E+000
  0.000000000000000E+000
  0.000000000000000E+000
  0.000000000000000E+000
  0.000000000000000E+000
  0.000000000000000E+000
  0.000000000000000E+000
  0.000000000000000E+000
  0.000000000000000E+000
  0.000000000000000E+000
  0.000000000000000E+000
  0.000000000000000E+000
  0.000000000000000E+000
  0.000000000000000E+000
  0.000000000000000E+000
  0.000000000000000E+000
  0.000000000000000E+000
  0.000000000000000E+000
  0.000000000000000E+000
  0.000000000000000E+000
  0.000000000000000E+000
  0.000000000000000E+000
  0.000000000000000E+000
  0.000000000000000E+000
  0.000000000000000E+000
  0.000000000000000E+000
  0.000000000000000E+000
  0.000000000000000E+000
  0.000000000000000E+000
  0.000000000000000E+000
  0.000000000000000E+000
  0.000000000000000E+000
  0.000000000000000E+000
  0.000000000000000E+000
  0.000000000000000E+000
  0.000000000000000E+000
  0.000000000000000E+000
  0.000000000000000E+000
  0.000000000000000E+000
  0.000000000000000E+000
  0.000000000000000E+000
  0.000000000000000E+000
  0.000000000000000E+000
  0.000000000000000E+000
  0.000000000000000E+000
  0.000000000000000E+000
  0.000000000000000E+000
  0.000000000000000E+000
  0.000000000000000E+000
  0.000000000000000E+000
  0.000000000000000E+000
  0.000000000000000E+000
  0.000000000000000E+000
  0.000000000000000E+000
  0.000000000000000E+000
  0.000000000000000E+000
  0.000000000000000E+000
  0.000000000000000E+000
  0.000000000000000E+000
  0.000000000000000E+000
  0.000000000000000E+000
  0.000000000000000E+000
  0.000000000000000E+000
  0.000000000000000E+000
  0.000000000000000E+000
  0.000000000000000E+000
   1.00000000000000     
  0.000000000000000E+000
  0.000000000000000E+000
  0.000000000000000E+000
  0.000000000000000E+000
  0.000000000000000E+000
  0.000000000000000E+000
  0.000000000000000E+000
  0.000000000000000E+000
  0.000000000000000E+000
  0.000000000000000E+000
  0.000000000000000E+000
  0.000000000000000E+000
  0.000000000000000E+000
  0.000000000000000E+000
   1.00000000000000     
  0.000000000000000E+000
  0.000000000000000E+000
  0.000000000000000E+000
  0.000000000000000E+000
  0.000000000000000E+000
  0.000000000000000E+000
  0.000000000000000E+000
  0.000000000000000E+000
  0.000000000000000E+000
  0.000000000000000E+000
  0.000000000000000E+000
  0.000000000000000E+000
  0.000000000000000E+000
   1.00000000000000     
   1.00000000000000     
  0.000000000000000E+000
  0.000000000000000E+000
  0.000000000000000E+000
  0.000000000000000E+000
  0.000000000000000E+000
  0.000000000000000E+000
  0.000000000000000E+000
  0.000000000000000E+000
  0.000000000000000E+000
  0.000000000000000E+000
  0.000000000000000E+000
  0.000000000000000E+000
  0.000000000000000E+000
   1.00000000000000     
   1.00000000000000     
  0.000000000000000E+000
  0.000000000000000E+000
  0.000000000000000E+000
  0.000000000000000E+000
  0.000000000000000E+000
  0.000000000000000E+000
  0.000000000000000E+000
  0.000000000000000E+000
  0.000000000000000E+000
  0.000000000000000E+000
  0.000000000000000E+000
  0.000000000000000E+000
  0.000000000000000E+000
   1.00000000000000     
   1.00000000000000     
  0.000000000000000E+000
  0.000000000000000E+000
  0.000000000000000E+000
  0.000000000000000E+000
  0.000000000000000E+000
  0.000000000000000E+000
  0.000000000000000E+000
  0.000000000000000E+000
  0.000000000000000E+000
  0.000000000000000E+000
  0.000000000000000E+000
  0.000000000000000E+000
  0.000000000000000E+000
   1.00000000000000     
   1.00000000000000     
  0.000000000000000E+000
  0.000000000000000E+000
  0.000000000000000E+000
  0.000000000000000E+000
  0.000000000000000E+000
  0.000000000000000E+000
  0.000000000000000E+000
  0.000000000000000E+000
  0.000000000000000E+000
  0.000000000000000E+000
  0.000000000000000E+000
  0.000000000000000E+000
  0.000000000000000E+000
  0.000000000000000E+000
   1.00000000000000     
  0.000000000000000E+000
  0.000000000000000E+000
  0.000000000000000E+000
  0.000000000000000E+000
  0.000000000000000E+000
  0.000000000000000E+000
  0.000000000000000E+000
  0.000000000000000E+000
  0.000000000000000E+000
  0.000000000000000E+000
  0.000000000000000E+000
  0.000000000000000E+000
  0.000000000000000E+000
  0.000000000000000E+000
   1.00000000000000     
SCALARS poroL double 
LOOKUP_TABLE default
  0.256743038241917     
  0.255505449491314     
  0.254113295098926     
  0.252989937742664     
  0.252183095966481     
  0.251654098982709     
  0.251241761355392     
  0.250897041953520     
  0.250595230464743     
  0.250321060934422     
  0.250062774892645     
  0.249808889853852     
  0.249544754856393     
  0.249246305987459     
  0.248845057617449     
  0.252712327525106     
  0.252345584784325     
  0.252296695187218     
  0.252060310423615     
  0.251579134040287     
  0.251125467228037     
  0.250744954313679     
  0.250415997528187     
  0.250123684928986     
  0.249856623160509     
  0.249605364854786     
  0.249360761698589     
  0.249112636110738     
  0.248847194507287     
  0.248576289013871     
  0.252026343406425     
  0.251756742136372     
  0.251526359919818     
  0.251263811561645     
  0.250941262683645     
  0.250588127408562     
  0.250255079701198     
  0.249953182818646     
  0.249678489815700     
  0.249425222806231     
  0.249187495252235     
  0.248959777365164     
  0.248737289605327     
  0.248520958885318     
  0.248320483717602     
  0.251370430440008     
  0.251137311829122     
  0.250893929781875     
  0.250636258768315     
  0.250357253921975     
  0.250066073626905     
  0.249778369244372     
  0.249506457757437     
  0.249253394698022     
  0.249017888023913     
  0.248797488339458     
  0.248589967132291     
  0.248394950976469     
  0.248215628740423     
  0.248060606614326     
  0.250764241352414     
  0.250552079976787     
  0.250323112469445     
  0.250081370393078     
  0.249829657281651     
  0.249572967029186     
  0.249318980334656     
  0.249074463418263     
  0.248843392898154     
  0.248626938827458     
  0.248425016712805     
  0.248237684069914     
  0.248066289060419     
  0.247914536937307     
  0.247789044446398     
  0.250208990010095     
  0.250009428214036     
  0.249794560271124     
  0.249569398736322     
  0.249338258177431     
  0.249105628460628     
  0.248876280422026     
  0.248654615063588     
  0.248443822037775     
  0.248245803002435     
  0.248061688662687     
  0.247892654433961     
  0.247740695152768     
  0.247609202922846     
  0.247503233036646     
  0.249691755492701     
  0.249500389982181     
  0.249296365574164     
  0.249084797855756     
  0.248869957070568     
  0.248655703238600     
  0.248445621564243     
  0.248242869332920     
  0.248049981054302     
  0.247868847536142     
  0.247700976796115     
  0.247547921085943     
  0.247411722656673     
  0.247295244610931     
  0.247202294270404     
  0.249200925551445     
  0.249013889565792     
  0.248817543945076     
  0.248616559995486     
  0.248414737953247     
  0.248215300780842     
  0.248021039449594     
  0.247834342703111     
  0.247657192204675     
  0.247491220744752     
  0.247337872889717     
  0.247198645233522     
  0.247075334425783     
  0.246970217847313     
  0.246886110201754     
  0.248725139041273     
  0.248539341959909     
  0.248348111588894     
  0.248155368291246     
  0.247964246207100     
  0.247777301282479     
  0.247596651616941     
  0.247424061536322     
  0.247261005037008     
  0.247108746110941     
  0.246968456196838     
  0.246841359083907     
  0.246728871552549     
  0.246632699876008     
  0.246554859573788     
  0.248253368898004     
  0.248066766526828     
  0.247878957069656     
  0.247692957704071     
  0.247511128512364     
  0.247335322970247     
  0.247167010042860     
  0.247007368659790     
  0.246857367594515     
  0.246717846235675     
  0.246589604160266     
  0.246473495095655     
  0.246370509610704     
  0.246281826076756     
  0.246208811820033     
  0.247775109941085     
  0.247586806094110     
  0.247401706845473     
  0.247221862527655     
  0.247048801238269     
  0.246883642726689     
  0.246727200662533     
  0.246580070444651     
  0.246442706220952     
  0.246315492625150     
  0.246198813981628     
  0.246093118250516     
  0.245998967764583     
  0.245917066136357     
  0.245848251558559     
  0.247280502308961     
  0.247090746194072     
  0.246908660446290     
  0.246735305763545     
  0.246571348575045     
  0.246417152342029     
  0.246272862920398     
  0.246138484764585     
  0.246013948128726     
  0.245899168798536     
  0.245794101024568     
  0.245698782045530     
  0.245613364186421     
  0.245538129178459     
  0.245473479621172     
  0.246760376552943     
  0.246570527558832     
  0.246392765413981     
  0.246227153143288     
  0.246073479652000     
  0.245931337157160     
  0.245800193279067     
  0.245679455164894     
  0.245568524934186     
  0.245466846786812     
  0.245373946047670     
  0.245289459550724     
  0.245213155711323     
  0.245144941988004     
  0.245084857487709     
  0.246206256758859     
  0.246018750319699     
  0.245847612009613     
  0.245691900859458     
  0.245550517519043     
  0.245422273144898     
  0.245305951139209     
  0.245200359852215     
  0.245104375820114     
  0.245016978071105     
  0.244937274283072     
  0.244864519276506     
  0.244798125859479     
  0.244737667751123     
  0.244682874313185     
  0.245610350502934     
  0.245428677983828     
  0.245267441290732     
  0.245124684596409     
  0.244998409783882     
  0.244886640259589     
  0.244787474240504     
  0.244699126336792     
  0.244619957915946     
  0.244548497826385     
  0.244483455373167     
  0.244423727183915     
  0.244368399232455     
  0.244316745243978     
  0.244268222925007     
  0.244965543436531     
  0.244794249759280     
  0.244647167311522     
  0.244521306581096     
  0.244413757637642     
  0.244321751555625     
  0.244242706136348     
  0.244174255525121     
  0.244114265785011     
  0.244060839962634     
  0.244012316328540     
  0.243967262574757     
  0.243924467905977     
  0.243882935020788     
  0.243841875291644     
  0.244265408195972     
  0.244110108016305     
  0.243982416838427     
  0.243878281745752     
  0.243793863582092     
  0.243725598659886     
  0.243670236746212     
  0.243624855964471     
  0.243586859321954     
  0.243553959915870     
  0.243524161599836     
  0.243495739240602     
  0.243467219346389     
  0.243437362114624     
  0.243405149411164     
  0.243504232383301     
  0.243371646013214     
  0.243269591091051     
  0.243192906545991     
  0.243136800422769     
  0.243096915170933     
  0.243069356378281     
  0.243050687282391     
  0.243037897867617     
  0.243028362032170     
  0.243019796209520     
  0.243010225922313     
  0.242997957352633     
  0.242981544596053     
  0.242959757974772     
  0.242677067392824     
  0.242575080362475     
  0.242505955332686     
  0.242463356267388     
  0.242441506248185     
  0.242435260734772     
  0.242440123423524     
  0.242452210162108     
  0.242468176140036     
  0.242485128041417     
  0.242500550394539     
  0.242512265223489     
  0.242518408885096     
  0.242517393836820     
  0.242507821478303     
  0.241779798074467     
  0.241717553552987     
  0.241689764846242     
  0.241688820045573     
  0.241707913062971     
  0.241741130303900     
  0.241783446015962     
  0.241830638464684     
  0.241879152012288     
  0.241925937877588     
  0.241968310479025     
  0.242003901133557     
  0.242030722223974     
  0.242047157419563     
  0.242051806238237     
  0.240809232467528     
  0.240797275080573     
  0.240820441333713     
  0.240869688572207     
  0.240937121221200     
  0.241016095662718     
  0.241101178683760     
  0.241187987265522     
  0.241272952222855     
  0.241353049451222     
  0.241425545420429     
  0.241487791847247     
  0.241537487428546     
  0.241573277160858     
  0.241594236258264     
  0.239763211789543     
  0.239813717428743     
  0.239898824480695     
  0.240007819230059     
  0.240131638327960     
  0.240262989401400     
  0.240396235951442     
  0.240527111152814     
  0.240652337198707     
  0.240769208433011     
  0.240875170974395     
  0.240967437944400     
  0.241042401106647     
  0.241097913085647     
  0.241136670595656     
  0.238640745475540     
  0.238767900061901     
  0.238927544039801     
  0.239106919813881     
  0.239295709628448     
  0.239486143208731     
  0.239672724231662     
  0.239851728546092     
  0.240020616932007     
  0.240177443447040     
  0.240320258908043     
  0.240446470384550     
  0.240552090664839     
  0.240627098704509     
  0.240672087586258     
  0.237442189790621     
  0.237662831423936     
  0.237911598729991     
  0.238173118621015     
  0.238435774758902     
  0.238691687019212     
  0.238936085761002     
  0.239166427895999     
  0.239381524057722     
  0.239580772796032     
  0.239763465035192     
  0.239927934485212     
  0.240070697258542     
  0.240184832280653     
  0.240195761332136     
  0.236169521710720     
  0.236504266694461     
  0.236859309469266     
  0.237215830838704     
  0.237561081857351     
  0.237887890661686     
  0.238193224270094     
  0.238476642983320     
  0.238739065942412     
  0.238981903518775     
  0.239206388427032     
  0.239412959056097     
  0.239599481889359     
  0.239764447677793     
  0.239721253334244     
  0.234826872087479     
  0.235302141752316     
  0.235783997696259     
  0.236249071620832     
  0.236684443297071     
  0.237085456521837     
  0.237452533354759     
  0.237788562203709     
  0.238097382671116     
  0.238383017267836     
  0.238649266685571     
  0.238899365905505     
  0.239136276779886     
  0.239340711133104     
  0.239271666907360     
  0.233421711754676     
  0.234073727688118     
  0.234707038922640     
  0.235293361049504     
  0.235822895454333     
  0.236297519772985     
  0.236723691464272     
  0.237108914465370     
  0.237460603213811     
  0.237785764441150     
  0.238090994390345     
  0.238382788101248     
  0.238668006166174     
  0.238917448309630     
  0.238857637400748     
  0.231969056659050     
  0.232850963908704     
  0.233663814383484     
  0.234377554714700     
  0.234997442153759     
  0.235538999250308     
  0.236017061724393     
  0.236444568094864     
  0.236832691668782     
  0.237191361615091     
  0.237529866837898     
  0.237857317476966     
  0.238183854186155     
  0.238495162790767     
  0.238474750979516     
  0.230504692409503     
  0.231704355138925     
  0.232710416977958     
  0.233536992366829     
  0.234230995460962     
  0.234824959050460     
  0.235342619488935     
  0.235801926813118     
  0.236217240593749     
  0.236600830656642     
  0.236964028389922     
  0.237318348330403     
  0.237674789970057     
  0.238052690585633     
  0.238123852842460     
  0.229208003827087     
  0.230775675142837     
  0.231910316844873     
  0.232806542506512     
  0.233543924860399     
  0.234168088662800     
  0.234708523406384     
  0.235186190774538     
  0.235617235549575     
  0.236015162969112     
  0.236392373261906     
  0.236761501316895     
  0.237138030873172     
  0.237542847572478     
  0.237788265776347     
