# vtk DataFile Version 3.0
vtk output
ASCII
DATASET UNSTRUCTURED_GRID
POINTS       496 double 
  0.00000000E+00  3.00000000E+02  0.00000000E+00
  0.00000000E+00  2.80000000E+02  0.00000000E+00
  0.00000000E+00  2.60000000E+02  0.00000000E+00
  0.00000000E+00  2.40000000E+02  0.00000000E+00
  0.00000000E+00  2.20000000E+02  0.00000000E+00
  0.00000000E+00  2.00000000E+02  0.00000000E+00
  0.00000000E+00  1.80000000E+02  0.00000000E+00
  0.00000000E+00  1.60000000E+02  0.00000000E+00
  0.00000000E+00  1.40000000E+02  0.00000000E+00
  0.00000000E+00  1.20000000E+02  0.00000000E+00
  0.00000000E+00  1.00000000E+02  0.00000000E+00
  0.00000000E+00  8.00000000E+01  0.00000000E+00
  0.00000000E+00  6.00000000E+01  0.00000000E+00
  0.00000000E+00  4.00000000E+01  0.00000000E+00
  0.00000000E+00  2.00000000E+01  0.00000000E+00
  0.00000000E+00  4.99600361E-14  0.00000000E+00
  2.00000000E+01  3.00000000E+02  0.00000000E+00
  2.00000000E+01  2.80000000E+02  0.00000000E+00
  2.00000000E+01  2.60000000E+02  0.00000000E+00
  2.00000000E+01  2.40000000E+02  0.00000000E+00
  2.00000000E+01  2.20000000E+02  0.00000000E+00
  2.00000000E+01  2.00000000E+02  0.00000000E+00
  2.00000000E+01  1.80000000E+02  0.00000000E+00
  2.00000000E+01  1.60000000E+02  0.00000000E+00
  2.00000000E+01  1.40000000E+02  0.00000000E+00
  2.00000000E+01  1.20000000E+02  0.00000000E+00
  2.00000000E+01  1.00000000E+02  0.00000000E+00
  2.00000000E+01  8.00000000E+01  0.00000000E+00
  2.00000000E+01  6.00000000E+01  0.00000000E+00
  2.00000000E+01  4.00000000E+01  0.00000000E+00
  2.00000000E+01  2.00000000E+01  0.00000000E+00
  2.00000000E+01  4.99600361E-14  0.00000000E+00
  4.00000000E+01  3.00000000E+02  0.00000000E+00
  4.00000000E+01  2.80000000E+02  0.00000000E+00
  4.00000000E+01  2.60000000E+02  0.00000000E+00
  4.00000000E+01  2.40000000E+02  0.00000000E+00
  4.00000000E+01  2.20000000E+02  0.00000000E+00
  4.00000000E+01  2.00000000E+02  0.00000000E+00
  4.00000000E+01  1.80000000E+02  0.00000000E+00
  4.00000000E+01  1.60000000E+02  0.00000000E+00
  4.00000000E+01  1.40000000E+02  0.00000000E+00
  4.00000000E+01  1.20000000E+02  0.00000000E+00
  4.00000000E+01  1.00000000E+02  0.00000000E+00
  4.00000000E+01  8.00000000E+01  0.00000000E+00
  4.00000000E+01  6.00000000E+01  0.00000000E+00
  4.00000000E+01  4.00000000E+01  0.00000000E+00
  4.00000000E+01  2.00000000E+01  0.00000000E+00
  4.00000000E+01  4.99600361E-14  0.00000000E+00
  6.00000000E+01  3.00000000E+02  0.00000000E+00
  6.00000000E+01  2.80000000E+02  0.00000000E+00
  6.00000000E+01  2.60000000E+02  0.00000000E+00
  6.00000000E+01  2.40000000E+02  0.00000000E+00
  6.00000000E+01  2.20000000E+02  0.00000000E+00
  6.00000000E+01  2.00000000E+02  0.00000000E+00
  6.00000000E+01  1.80000000E+02  0.00000000E+00
  6.00000000E+01  1.60000000E+02  0.00000000E+00
  6.00000000E+01  1.40000000E+02  0.00000000E+00
  6.00000000E+01  1.20000000E+02  0.00000000E+00
  6.00000000E+01  1.00000000E+02  0.00000000E+00
  6.00000000E+01  8.00000000E+01  0.00000000E+00
  6.00000000E+01  6.00000000E+01  0.00000000E+00
  6.00000000E+01  4.00000000E+01  0.00000000E+00
  6.00000000E+01  2.00000000E+01  0.00000000E+00
  6.00000000E+01  4.99600361E-14  0.00000000E+00
  8.00000000E+01  3.00000000E+02  0.00000000E+00
  8.00000000E+01  2.80000000E+02  0.00000000E+00
  8.00000000E+01  2.60000000E+02  0.00000000E+00
  8.00000000E+01  2.40000000E+02  0.00000000E+00
  8.00000000E+01  2.20000000E+02  0.00000000E+00
  8.00000000E+01  2.00000000E+02  0.00000000E+00
  8.00000000E+01  1.80000000E+02  0.00000000E+00
  8.00000000E+01  1.60000000E+02  0.00000000E+00
  8.00000000E+01  1.40000000E+02  0.00000000E+00
  8.00000000E+01  1.20000000E+02  0.00000000E+00
  8.00000000E+01  1.00000000E+02  0.00000000E+00
  8.00000000E+01  8.00000000E+01  0.00000000E+00
  8.00000000E+01  6.00000000E+01  0.00000000E+00
  8.00000000E+01  4.00000000E+01  0.00000000E+00
  8.00000000E+01  2.00000000E+01  0.00000000E+00
  8.00000000E+01  4.99600361E-14  0.00000000E+00
  1.00000000E+02  3.00000000E+02  0.00000000E+00
  1.00000000E+02  2.80000000E+02  0.00000000E+00
  1.00000000E+02  2.60000000E+02  0.00000000E+00
  1.00000000E+02  2.40000000E+02  0.00000000E+00
  1.00000000E+02  2.20000000E+02  0.00000000E+00
  1.00000000E+02  2.00000000E+02  0.00000000E+00
  1.00000000E+02  1.80000000E+02  0.00000000E+00
  1.00000000E+02  1.60000000E+02  0.00000000E+00
  1.00000000E+02  1.40000000E+02  0.00000000E+00
  1.00000000E+02  1.20000000E+02  0.00000000E+00
  1.00000000E+02  1.00000000E+02  0.00000000E+00
  1.00000000E+02  8.00000000E+01  0.00000000E+00
  1.00000000E+02  6.00000000E+01  0.00000000E+00
  1.00000000E+02  4.00000000E+01  0.00000000E+00
  1.00000000E+02  2.00000000E+01  0.00000000E+00
  1.00000000E+02  4.99600361E-14  0.00000000E+00
  1.20000000E+02  3.00000000E+02  0.00000000E+00
  1.20000000E+02  2.80000000E+02  0.00000000E+00
  1.20000000E+02  2.60000000E+02  0.00000000E+00
  1.20000000E+02  2.40000000E+02  0.00000000E+00
  1.20000000E+02  2.20000000E+02  0.00000000E+00
  1.20000000E+02  2.00000000E+02  0.00000000E+00
  1.20000000E+02  1.80000000E+02  0.00000000E+00
  1.20000000E+02  1.60000000E+02  0.00000000E+00
  1.20000000E+02  1.40000000E+02  0.00000000E+00
  1.20000000E+02  1.20000000E+02  0.00000000E+00
  1.20000000E+02  1.00000000E+02  0.00000000E+00
  1.20000000E+02  8.00000000E+01  0.00000000E+00
  1.20000000E+02  6.00000000E+01  0.00000000E+00
  1.20000000E+02  4.00000000E+01  0.00000000E+00
  1.20000000E+02  2.00000000E+01  0.00000000E+00
  1.20000000E+02  4.99600361E-14  0.00000000E+00
  1.40000000E+02  3.00000000E+02  0.00000000E+00
  1.40000000E+02  2.80000000E+02  0.00000000E+00
  1.40000000E+02  2.60000000E+02  0.00000000E+00
  1.40000000E+02  2.40000000E+02  0.00000000E+00
  1.40000000E+02  2.20000000E+02  0.00000000E+00
  1.40000000E+02  2.00000000E+02  0.00000000E+00
  1.40000000E+02  1.80000000E+02  0.00000000E+00
  1.40000000E+02  1.60000000E+02  0.00000000E+00
  1.40000000E+02  1.40000000E+02  0.00000000E+00
  1.40000000E+02  1.20000000E+02  0.00000000E+00
  1.40000000E+02  1.00000000E+02  0.00000000E+00
  1.40000000E+02  8.00000000E+01  0.00000000E+00
  1.40000000E+02  6.00000000E+01  0.00000000E+00
  1.40000000E+02  4.00000000E+01  0.00000000E+00
  1.40000000E+02  2.00000000E+01  0.00000000E+00
  1.40000000E+02  4.99600361E-14  0.00000000E+00
  1.60000000E+02  3.00000000E+02  0.00000000E+00
  1.60000000E+02  2.80000000E+02  0.00000000E+00
  1.60000000E+02  2.60000000E+02  0.00000000E+00
  1.60000000E+02  2.40000000E+02  0.00000000E+00
  1.60000000E+02  2.20000000E+02  0.00000000E+00
  1.60000000E+02  2.00000000E+02  0.00000000E+00
  1.60000000E+02  1.80000000E+02  0.00000000E+00
  1.60000000E+02  1.60000000E+02  0.00000000E+00
  1.60000000E+02  1.40000000E+02  0.00000000E+00
  1.60000000E+02  1.20000000E+02  0.00000000E+00
  1.60000000E+02  1.00000000E+02  0.00000000E+00
  1.60000000E+02  8.00000000E+01  0.00000000E+00
  1.60000000E+02  6.00000000E+01  0.00000000E+00
  1.60000000E+02  4.00000000E+01  0.00000000E+00
  1.60000000E+02  2.00000000E+01  0.00000000E+00
  1.60000000E+02  4.99600361E-14  0.00000000E+00
  1.80000000E+02  3.00000000E+02  0.00000000E+00
  1.80000000E+02  2.80000000E+02  0.00000000E+00
  1.80000000E+02  2.60000000E+02  0.00000000E+00
  1.80000000E+02  2.40000000E+02  0.00000000E+00
  1.80000000E+02  2.20000000E+02  0.00000000E+00
  1.80000000E+02  2.00000000E+02  0.00000000E+00
  1.80000000E+02  1.80000000E+02  0.00000000E+00
  1.80000000E+02  1.60000000E+02  0.00000000E+00
  1.80000000E+02  1.40000000E+02  0.00000000E+00
  1.80000000E+02  1.20000000E+02  0.00000000E+00
  1.80000000E+02  1.00000000E+02  0.00000000E+00
  1.80000000E+02  8.00000000E+01  0.00000000E+00
  1.80000000E+02  6.00000000E+01  0.00000000E+00
  1.80000000E+02  4.00000000E+01  0.00000000E+00
  1.80000000E+02  2.00000000E+01  0.00000000E+00
  1.80000000E+02  4.99600361E-14  0.00000000E+00
  2.00000000E+02  3.00000000E+02  0.00000000E+00
  2.00000000E+02  2.80000000E+02  0.00000000E+00
  2.00000000E+02  2.60000000E+02  0.00000000E+00
  2.00000000E+02  2.40000000E+02  0.00000000E+00
  2.00000000E+02  2.20000000E+02  0.00000000E+00
  2.00000000E+02  2.00000000E+02  0.00000000E+00
  2.00000000E+02  1.80000000E+02  0.00000000E+00
  2.00000000E+02  1.60000000E+02  0.00000000E+00
  2.00000000E+02  1.40000000E+02  0.00000000E+00
  2.00000000E+02  1.20000000E+02  0.00000000E+00
  2.00000000E+02  1.00000000E+02  0.00000000E+00
  2.00000000E+02  8.00000000E+01  0.00000000E+00
  2.00000000E+02  6.00000000E+01  0.00000000E+00
  2.00000000E+02  4.00000000E+01  0.00000000E+00
  2.00000000E+02  2.00000000E+01  0.00000000E+00
  2.00000000E+02  4.99600361E-14  0.00000000E+00
  2.20000000E+02  3.00000000E+02  0.00000000E+00
  2.20000000E+02  2.80000000E+02  0.00000000E+00
  2.20000000E+02  2.60000000E+02  0.00000000E+00
  2.20000000E+02  2.40000000E+02  0.00000000E+00
  2.20000000E+02  2.20000000E+02  0.00000000E+00
  2.20000000E+02  2.00000000E+02  0.00000000E+00
  2.20000000E+02  1.80000000E+02  0.00000000E+00
  2.20000000E+02  1.60000000E+02  0.00000000E+00
  2.20000000E+02  1.40000000E+02  0.00000000E+00
  2.20000000E+02  1.20000000E+02  0.00000000E+00
  2.20000000E+02  1.00000000E+02  0.00000000E+00
  2.20000000E+02  8.00000000E+01  0.00000000E+00
  2.20000000E+02  6.00000000E+01  0.00000000E+00
  2.20000000E+02  4.00000000E+01  0.00000000E+00
  2.20000000E+02  2.00000000E+01  0.00000000E+00
  2.20000000E+02  4.99600361E-14  0.00000000E+00
  2.40000000E+02  3.00000000E+02  0.00000000E+00
  2.40000000E+02  2.80000000E+02  0.00000000E+00
  2.40000000E+02  2.60000000E+02  0.00000000E+00
  2.40000000E+02  2.40000000E+02  0.00000000E+00
  2.40000000E+02  2.20000000E+02  0.00000000E+00
  2.40000000E+02  2.00000000E+02  0.00000000E+00
  2.40000000E+02  1.80000000E+02  0.00000000E+00
  2.40000000E+02  1.60000000E+02  0.00000000E+00
  2.40000000E+02  1.40000000E+02  0.00000000E+00
  2.40000000E+02  1.20000000E+02  0.00000000E+00
  2.40000000E+02  1.00000000E+02  0.00000000E+00
  2.40000000E+02  8.00000000E+01  0.00000000E+00
  2.40000000E+02  6.00000000E+01  0.00000000E+00
  2.40000000E+02  4.00000000E+01  0.00000000E+00
  2.40000000E+02  2.00000000E+01  0.00000000E+00
  2.40000000E+02  4.99600361E-14  0.00000000E+00
  2.60000000E+02  3.00000000E+02  0.00000000E+00
  2.60000000E+02  2.80000000E+02  0.00000000E+00
  2.60000000E+02  2.60000000E+02  0.00000000E+00
  2.60000000E+02  2.40000000E+02  0.00000000E+00
  2.60000000E+02  2.20000000E+02  0.00000000E+00
  2.60000000E+02  2.00000000E+02  0.00000000E+00
  2.60000000E+02  1.80000000E+02  0.00000000E+00
  2.60000000E+02  1.60000000E+02  0.00000000E+00
  2.60000000E+02  1.40000000E+02  0.00000000E+00
  2.60000000E+02  1.20000000E+02  0.00000000E+00
  2.60000000E+02  1.00000000E+02  0.00000000E+00
  2.60000000E+02  8.00000000E+01  0.00000000E+00
  2.60000000E+02  6.00000000E+01  0.00000000E+00
  2.60000000E+02  4.00000000E+01  0.00000000E+00
  2.60000000E+02  2.00000000E+01  0.00000000E+00
  2.60000000E+02  4.99600361E-14  0.00000000E+00
  2.80000000E+02  3.00000000E+02  0.00000000E+00
  2.80000000E+02  2.80000000E+02  0.00000000E+00
  2.80000000E+02  2.60000000E+02  0.00000000E+00
  2.80000000E+02  2.40000000E+02  0.00000000E+00
  2.80000000E+02  2.20000000E+02  0.00000000E+00
  2.80000000E+02  2.00000000E+02  0.00000000E+00
  2.80000000E+02  1.80000000E+02  0.00000000E+00
  2.80000000E+02  1.60000000E+02  0.00000000E+00
  2.80000000E+02  1.40000000E+02  0.00000000E+00
  2.80000000E+02  1.20000000E+02  0.00000000E+00
  2.80000000E+02  1.00000000E+02  0.00000000E+00
  2.80000000E+02  8.00000000E+01  0.00000000E+00
  2.80000000E+02  6.00000000E+01  0.00000000E+00
  2.80000000E+02  4.00000000E+01  0.00000000E+00
  2.80000000E+02  2.00000000E+01  0.00000000E+00
  2.80000000E+02  4.99600361E-14  0.00000000E+00
  3.00000000E+02  3.00000000E+02  0.00000000E+00
  3.00000000E+02  2.80000000E+02  0.00000000E+00
  3.00000000E+02  2.60000000E+02  0.00000000E+00
  3.00000000E+02  2.40000000E+02  0.00000000E+00
  3.00000000E+02  2.20000000E+02  0.00000000E+00
  3.00000000E+02  2.00000000E+02  0.00000000E+00
  3.00000000E+02  1.80000000E+02  0.00000000E+00
  3.00000000E+02  1.60000000E+02  0.00000000E+00
  3.00000000E+02  1.40000000E+02  0.00000000E+00
  3.00000000E+02  1.20000000E+02  0.00000000E+00
  3.00000000E+02  1.00000000E+02  0.00000000E+00
  3.00000000E+02  8.00000000E+01  0.00000000E+00
  3.00000000E+02  6.00000000E+01  0.00000000E+00
  3.00000000E+02  4.00000000E+01  0.00000000E+00
  3.00000000E+02  2.00000000E+01  0.00000000E+00
  3.00000000E+02  4.99600361E-14  0.00000000E+00
  3.20000000E+02  3.00000000E+02  0.00000000E+00
  3.20000000E+02  2.80000000E+02  0.00000000E+00
  3.20000000E+02  2.60000000E+02  0.00000000E+00
  3.20000000E+02  2.40000000E+02  0.00000000E+00
  3.20000000E+02  2.20000000E+02  0.00000000E+00
  3.20000000E+02  2.00000000E+02  0.00000000E+00
  3.20000000E+02  1.80000000E+02  0.00000000E+00
  3.20000000E+02  1.60000000E+02  0.00000000E+00
  3.20000000E+02  1.40000000E+02  0.00000000E+00
  3.20000000E+02  1.20000000E+02  0.00000000E+00
  3.20000000E+02  1.00000000E+02  0.00000000E+00
  3.20000000E+02  8.00000000E+01  0.00000000E+00
  3.20000000E+02  6.00000000E+01  0.00000000E+00
  3.20000000E+02  4.00000000E+01  0.00000000E+00
  3.20000000E+02  2.00000000E+01  0.00000000E+00
  3.20000000E+02  4.99600361E-14  0.00000000E+00
  3.40000000E+02  3.00000000E+02  0.00000000E+00
  3.40000000E+02  2.80000000E+02  0.00000000E+00
  3.40000000E+02  2.60000000E+02  0.00000000E+00
  3.40000000E+02  2.40000000E+02  0.00000000E+00
  3.40000000E+02  2.20000000E+02  0.00000000E+00
  3.40000000E+02  2.00000000E+02  0.00000000E+00
  3.40000000E+02  1.80000000E+02  0.00000000E+00
  3.40000000E+02  1.60000000E+02  0.00000000E+00
  3.40000000E+02  1.40000000E+02  0.00000000E+00
  3.40000000E+02  1.20000000E+02  0.00000000E+00
  3.40000000E+02  1.00000000E+02  0.00000000E+00
  3.40000000E+02  8.00000000E+01  0.00000000E+00
  3.40000000E+02  6.00000000E+01  0.00000000E+00
  3.40000000E+02  4.00000000E+01  0.00000000E+00
  3.40000000E+02  2.00000000E+01  0.00000000E+00
  3.40000000E+02  4.99600361E-14  0.00000000E+00
  3.60000000E+02  3.00000000E+02  0.00000000E+00
  3.60000000E+02  2.80000000E+02  0.00000000E+00
  3.60000000E+02  2.60000000E+02  0.00000000E+00
  3.60000000E+02  2.40000000E+02  0.00000000E+00
  3.60000000E+02  2.20000000E+02  0.00000000E+00
  3.60000000E+02  2.00000000E+02  0.00000000E+00
  3.60000000E+02  1.80000000E+02  0.00000000E+00
  3.60000000E+02  1.60000000E+02  0.00000000E+00
  3.60000000E+02  1.40000000E+02  0.00000000E+00
  3.60000000E+02  1.20000000E+02  0.00000000E+00
  3.60000000E+02  1.00000000E+02  0.00000000E+00
  3.60000000E+02  8.00000000E+01  0.00000000E+00
  3.60000000E+02  6.00000000E+01  0.00000000E+00
  3.60000000E+02  4.00000000E+01  0.00000000E+00
  3.60000000E+02  2.00000000E+01  0.00000000E+00
  3.60000000E+02  4.99600361E-14  0.00000000E+00
  3.80000000E+02  3.00000000E+02  0.00000000E+00
  3.80000000E+02  2.80000000E+02  0.00000000E+00
  3.80000000E+02  2.60000000E+02  0.00000000E+00
  3.80000000E+02  2.40000000E+02  0.00000000E+00
  3.80000000E+02  2.20000000E+02  0.00000000E+00
  3.80000000E+02  2.00000000E+02  0.00000000E+00
  3.80000000E+02  1.80000000E+02  0.00000000E+00
  3.80000000E+02  1.60000000E+02  0.00000000E+00
  3.80000000E+02  1.40000000E+02  0.00000000E+00
  3.80000000E+02  1.20000000E+02  0.00000000E+00
  3.80000000E+02  1.00000000E+02  0.00000000E+00
  3.80000000E+02  8.00000000E+01  0.00000000E+00
  3.80000000E+02  6.00000000E+01  0.00000000E+00
  3.80000000E+02  4.00000000E+01  0.00000000E+00
  3.80000000E+02  2.00000000E+01  0.00000000E+00
  3.80000000E+02  4.99600361E-14  0.00000000E+00
  4.00000000E+02  3.00000000E+02  0.00000000E+00
  4.00000000E+02  2.80000000E+02  0.00000000E+00
  4.00000000E+02  2.60000000E+02  0.00000000E+00
  4.00000000E+02  2.40000000E+02  0.00000000E+00
  4.00000000E+02  2.20000000E+02  0.00000000E+00
  4.00000000E+02  2.00000000E+02  0.00000000E+00
  4.00000000E+02  1.80000000E+02  0.00000000E+00
  4.00000000E+02  1.60000000E+02  0.00000000E+00
  4.00000000E+02  1.40000000E+02  0.00000000E+00
  4.00000000E+02  1.20000000E+02  0.00000000E+00
  4.00000000E+02  1.00000000E+02  0.00000000E+00
  4.00000000E+02  8.00000000E+01  0.00000000E+00
  4.00000000E+02  6.00000000E+01  0.00000000E+00
  4.00000000E+02  4.00000000E+01  0.00000000E+00
  4.00000000E+02  2.00000000E+01  0.00000000E+00
  4.00000000E+02  4.99600361E-14  0.00000000E+00
  4.20000000E+02  3.00000000E+02  0.00000000E+00
  4.20000000E+02  2.80000000E+02  0.00000000E+00
  4.20000000E+02  2.60000000E+02  0.00000000E+00
  4.20000000E+02  2.40000000E+02  0.00000000E+00
  4.20000000E+02  2.20000000E+02  0.00000000E+00
  4.20000000E+02  2.00000000E+02  0.00000000E+00
  4.20000000E+02  1.80000000E+02  0.00000000E+00
  4.20000000E+02  1.60000000E+02  0.00000000E+00
  4.20000000E+02  1.40000000E+02  0.00000000E+00
  4.20000000E+02  1.20000000E+02  0.00000000E+00
  4.20000000E+02  1.00000000E+02  0.00000000E+00
  4.20000000E+02  8.00000000E+01  0.00000000E+00
  4.20000000E+02  6.00000000E+01  0.00000000E+00
  4.20000000E+02  4.00000000E+01  0.00000000E+00
  4.20000000E+02  2.00000000E+01  0.00000000E+00
  4.20000000E+02  4.99600361E-14  0.00000000E+00
  4.40000000E+02  3.00000000E+02  0.00000000E+00
  4.40000000E+02  2.80000000E+02  0.00000000E+00
  4.40000000E+02  2.60000000E+02  0.00000000E+00
  4.40000000E+02  2.40000000E+02  0.00000000E+00
  4.40000000E+02  2.20000000E+02  0.00000000E+00
  4.40000000E+02  2.00000000E+02  0.00000000E+00
  4.40000000E+02  1.80000000E+02  0.00000000E+00
  4.40000000E+02  1.60000000E+02  0.00000000E+00
  4.40000000E+02  1.40000000E+02  0.00000000E+00
  4.40000000E+02  1.20000000E+02  0.00000000E+00
  4.40000000E+02  1.00000000E+02  0.00000000E+00
  4.40000000E+02  8.00000000E+01  0.00000000E+00
  4.40000000E+02  6.00000000E+01  0.00000000E+00
  4.40000000E+02  4.00000000E+01  0.00000000E+00
  4.40000000E+02  2.00000000E+01  0.00000000E+00
  4.40000000E+02  4.99600361E-14  0.00000000E+00
  4.60000000E+02  3.00000000E+02  0.00000000E+00
  4.60000000E+02  2.80000000E+02  0.00000000E+00
  4.60000000E+02  2.60000000E+02  0.00000000E+00
  4.60000000E+02  2.40000000E+02  0.00000000E+00
  4.60000000E+02  2.20000000E+02  0.00000000E+00
  4.60000000E+02  2.00000000E+02  0.00000000E+00
  4.60000000E+02  1.80000000E+02  0.00000000E+00
  4.60000000E+02  1.60000000E+02  0.00000000E+00
  4.60000000E+02  1.40000000E+02  0.00000000E+00
  4.60000000E+02  1.20000000E+02  0.00000000E+00
  4.60000000E+02  1.00000000E+02  0.00000000E+00
  4.60000000E+02  8.00000000E+01  0.00000000E+00
  4.60000000E+02  6.00000000E+01  0.00000000E+00
  4.60000000E+02  4.00000000E+01  0.00000000E+00
  4.60000000E+02  2.00000000E+01  0.00000000E+00
  4.60000000E+02  4.99600361E-14  0.00000000E+00
  4.80000000E+02  3.00000000E+02  0.00000000E+00
  4.80000000E+02  2.80000000E+02  0.00000000E+00
  4.80000000E+02  2.60000000E+02  0.00000000E+00
  4.80000000E+02  2.40000000E+02  0.00000000E+00
  4.80000000E+02  2.20000000E+02  0.00000000E+00
  4.80000000E+02  2.00000000E+02  0.00000000E+00
  4.80000000E+02  1.80000000E+02  0.00000000E+00
  4.80000000E+02  1.60000000E+02  0.00000000E+00
  4.80000000E+02  1.40000000E+02  0.00000000E+00
  4.80000000E+02  1.20000000E+02  0.00000000E+00
  4.80000000E+02  1.00000000E+02  0.00000000E+00
  4.80000000E+02  8.00000000E+01  0.00000000E+00
  4.80000000E+02  6.00000000E+01  0.00000000E+00
  4.80000000E+02  4.00000000E+01  0.00000000E+00
  4.80000000E+02  2.00000000E+01  0.00000000E+00
  4.80000000E+02  4.99600361E-14  0.00000000E+00
  5.00000000E+02  3.00000000E+02  0.00000000E+00
  5.00000000E+02  2.80000000E+02  0.00000000E+00
  5.00000000E+02  2.60000000E+02  0.00000000E+00
  5.00000000E+02  2.40000000E+02  0.00000000E+00
  5.00000000E+02  2.20000000E+02  0.00000000E+00
  5.00000000E+02  2.00000000E+02  0.00000000E+00
  5.00000000E+02  1.80000000E+02  0.00000000E+00
  5.00000000E+02  1.60000000E+02  0.00000000E+00
  5.00000000E+02  1.40000000E+02  0.00000000E+00
  5.00000000E+02  1.20000000E+02  0.00000000E+00
  5.00000000E+02  1.00000000E+02  0.00000000E+00
  5.00000000E+02  8.00000000E+01  0.00000000E+00
  5.00000000E+02  6.00000000E+01  0.00000000E+00
  5.00000000E+02  4.00000000E+01  0.00000000E+00
  5.00000000E+02  2.00000000E+01  0.00000000E+00
  5.00000000E+02  4.99600361E-14  0.00000000E+00
  5.20000000E+02  3.00000000E+02  0.00000000E+00
  5.20000000E+02  2.80000000E+02  0.00000000E+00
  5.20000000E+02  2.60000000E+02  0.00000000E+00
  5.20000000E+02  2.40000000E+02  0.00000000E+00
  5.20000000E+02  2.20000000E+02  0.00000000E+00
  5.20000000E+02  2.00000000E+02  0.00000000E+00
  5.20000000E+02  1.80000000E+02  0.00000000E+00
  5.20000000E+02  1.60000000E+02  0.00000000E+00
  5.20000000E+02  1.40000000E+02  0.00000000E+00
  5.20000000E+02  1.20000000E+02  0.00000000E+00
  5.20000000E+02  1.00000000E+02  0.00000000E+00
  5.20000000E+02  8.00000000E+01  0.00000000E+00
  5.20000000E+02  6.00000000E+01  0.00000000E+00
  5.20000000E+02  4.00000000E+01  0.00000000E+00
  5.20000000E+02  2.00000000E+01  0.00000000E+00
  5.20000000E+02  4.99600361E-14  0.00000000E+00
  5.40000000E+02  3.00000000E+02  0.00000000E+00
  5.40000000E+02  2.80000000E+02  0.00000000E+00
  5.40000000E+02  2.60000000E+02  0.00000000E+00
  5.40000000E+02  2.40000000E+02  0.00000000E+00
  5.40000000E+02  2.20000000E+02  0.00000000E+00
  5.40000000E+02  2.00000000E+02  0.00000000E+00
  5.40000000E+02  1.80000000E+02  0.00000000E+00
  5.40000000E+02  1.60000000E+02  0.00000000E+00
  5.40000000E+02  1.40000000E+02  0.00000000E+00
  5.40000000E+02  1.20000000E+02  0.00000000E+00
  5.40000000E+02  1.00000000E+02  0.00000000E+00
  5.40000000E+02  8.00000000E+01  0.00000000E+00
  5.40000000E+02  6.00000000E+01  0.00000000E+00
  5.40000000E+02  4.00000000E+01  0.00000000E+00
  5.40000000E+02  2.00000000E+01  0.00000000E+00
  5.40000000E+02  4.99600361E-14  0.00000000E+00
  5.60000000E+02  3.00000000E+02  0.00000000E+00
  5.60000000E+02  2.80000000E+02  0.00000000E+00
  5.60000000E+02  2.60000000E+02  0.00000000E+00
  5.60000000E+02  2.40000000E+02  0.00000000E+00
  5.60000000E+02  2.20000000E+02  0.00000000E+00
  5.60000000E+02  2.00000000E+02  0.00000000E+00
  5.60000000E+02  1.80000000E+02  0.00000000E+00
  5.60000000E+02  1.60000000E+02  0.00000000E+00
  5.60000000E+02  1.40000000E+02  0.00000000E+00
  5.60000000E+02  1.20000000E+02  0.00000000E+00
  5.60000000E+02  1.00000000E+02  0.00000000E+00
  5.60000000E+02  8.00000000E+01  0.00000000E+00
  5.60000000E+02  6.00000000E+01  0.00000000E+00
  5.60000000E+02  4.00000000E+01  0.00000000E+00
  5.60000000E+02  2.00000000E+01  0.00000000E+00
  5.60000000E+02  4.99600361E-14  0.00000000E+00
  5.80000000E+02  3.00000000E+02  0.00000000E+00
  5.80000000E+02  2.80000000E+02  0.00000000E+00
  5.80000000E+02  2.60000000E+02  0.00000000E+00
  5.80000000E+02  2.40000000E+02  0.00000000E+00
  5.80000000E+02  2.20000000E+02  0.00000000E+00
  5.80000000E+02  2.00000000E+02  0.00000000E+00
  5.80000000E+02  1.80000000E+02  0.00000000E+00
  5.80000000E+02  1.60000000E+02  0.00000000E+00
  5.80000000E+02  1.40000000E+02  0.00000000E+00
  5.80000000E+02  1.20000000E+02  0.00000000E+00
  5.80000000E+02  1.00000000E+02  0.00000000E+00
  5.80000000E+02  8.00000000E+01  0.00000000E+00
  5.80000000E+02  6.00000000E+01  0.00000000E+00
  5.80000000E+02  4.00000000E+01  0.00000000E+00
  5.80000000E+02  2.00000000E+01  0.00000000E+00
  5.80000000E+02  4.99600361E-14  0.00000000E+00
  6.00000000E+02  3.00000000E+02  0.00000000E+00
  6.00000000E+02  2.80000000E+02  0.00000000E+00
  6.00000000E+02  2.60000000E+02  0.00000000E+00
  6.00000000E+02  2.40000000E+02  0.00000000E+00
  6.00000000E+02  2.20000000E+02  0.00000000E+00
  6.00000000E+02  2.00000000E+02  0.00000000E+00
  6.00000000E+02  1.80000000E+02  0.00000000E+00
  6.00000000E+02  1.60000000E+02  0.00000000E+00
  6.00000000E+02  1.40000000E+02  0.00000000E+00
  6.00000000E+02  1.20000000E+02  0.00000000E+00
  6.00000000E+02  1.00000000E+02  0.00000000E+00
  6.00000000E+02  8.00000000E+01  0.00000000E+00
  6.00000000E+02  6.00000000E+01  0.00000000E+00
  6.00000000E+02  4.00000000E+01  0.00000000E+00
  6.00000000E+02  2.00000000E+01  0.00000000E+00
  6.00000000E+02  4.99600361E-14  0.00000000E+00
CELLS       450      2250
         4           0           1          17          16
         4           1           2          18          17
         4           2           3          19          18
         4           3           4          20          19
         4           4           5          21          20
         4           5           6          22          21
         4           6           7          23          22
         4           7           8          24          23
         4           8           9          25          24
         4           9          10          26          25
         4          10          11          27          26
         4          11          12          28          27
         4          12          13          29          28
         4          13          14          30          29
         4          14          15          31          30
         4          16          17          33          32
         4          17          18          34          33
         4          18          19          35          34
         4          19          20          36          35
         4          20          21          37          36
         4          21          22          38          37
         4          22          23          39          38
         4          23          24          40          39
         4          24          25          41          40
         4          25          26          42          41
         4          26          27          43          42
         4          27          28          44          43
         4          28          29          45          44
         4          29          30          46          45
         4          30          31          47          46
         4          32          33          49          48
         4          33          34          50          49
         4          34          35          51          50
         4          35          36          52          51
         4          36          37          53          52
         4          37          38          54          53
         4          38          39          55          54
         4          39          40          56          55
         4          40          41          57          56
         4          41          42          58          57
         4          42          43          59          58
         4          43          44          60          59
         4          44          45          61          60
         4          45          46          62          61
         4          46          47          63          62
         4          48          49          65          64
         4          49          50          66          65
         4          50          51          67          66
         4          51          52          68          67
         4          52          53          69          68
         4          53          54          70          69
         4          54          55          71          70
         4          55          56          72          71
         4          56          57          73          72
         4          57          58          74          73
         4          58          59          75          74
         4          59          60          76          75
         4          60          61          77          76
         4          61          62          78          77
         4          62          63          79          78
         4          64          65          81          80
         4          65          66          82          81
         4          66          67          83          82
         4          67          68          84          83
         4          68          69          85          84
         4          69          70          86          85
         4          70          71          87          86
         4          71          72          88          87
         4          72          73          89          88
         4          73          74          90          89
         4          74          75          91          90
         4          75          76          92          91
         4          76          77          93          92
         4          77          78          94          93
         4          78          79          95          94
         4          80          81          97          96
         4          81          82          98          97
         4          82          83          99          98
         4          83          84         100          99
         4          84          85         101         100
         4          85          86         102         101
         4          86          87         103         102
         4          87          88         104         103
         4          88          89         105         104
         4          89          90         106         105
         4          90          91         107         106
         4          91          92         108         107
         4          92          93         109         108
         4          93          94         110         109
         4          94          95         111         110
         4          96          97         113         112
         4          97          98         114         113
         4          98          99         115         114
         4          99         100         116         115
         4         100         101         117         116
         4         101         102         118         117
         4         102         103         119         118
         4         103         104         120         119
         4         104         105         121         120
         4         105         106         122         121
         4         106         107         123         122
         4         107         108         124         123
         4         108         109         125         124
         4         109         110         126         125
         4         110         111         127         126
         4         112         113         129         128
         4         113         114         130         129
         4         114         115         131         130
         4         115         116         132         131
         4         116         117         133         132
         4         117         118         134         133
         4         118         119         135         134
         4         119         120         136         135
         4         120         121         137         136
         4         121         122         138         137
         4         122         123         139         138
         4         123         124         140         139
         4         124         125         141         140
         4         125         126         142         141
         4         126         127         143         142
         4         128         129         145         144
         4         129         130         146         145
         4         130         131         147         146
         4         131         132         148         147
         4         132         133         149         148
         4         133         134         150         149
         4         134         135         151         150
         4         135         136         152         151
         4         136         137         153         152
         4         137         138         154         153
         4         138         139         155         154
         4         139         140         156         155
         4         140         141         157         156
         4         141         142         158         157
         4         142         143         159         158
         4         144         145         161         160
         4         145         146         162         161
         4         146         147         163         162
         4         147         148         164         163
         4         148         149         165         164
         4         149         150         166         165
         4         150         151         167         166
         4         151         152         168         167
         4         152         153         169         168
         4         153         154         170         169
         4         154         155         171         170
         4         155         156         172         171
         4         156         157         173         172
         4         157         158         174         173
         4         158         159         175         174
         4         160         161         177         176
         4         161         162         178         177
         4         162         163         179         178
         4         163         164         180         179
         4         164         165         181         180
         4         165         166         182         181
         4         166         167         183         182
         4         167         168         184         183
         4         168         169         185         184
         4         169         170         186         185
         4         170         171         187         186
         4         171         172         188         187
         4         172         173         189         188
         4         173         174         190         189
         4         174         175         191         190
         4         176         177         193         192
         4         177         178         194         193
         4         178         179         195         194
         4         179         180         196         195
         4         180         181         197         196
         4         181         182         198         197
         4         182         183         199         198
         4         183         184         200         199
         4         184         185         201         200
         4         185         186         202         201
         4         186         187         203         202
         4         187         188         204         203
         4         188         189         205         204
         4         189         190         206         205
         4         190         191         207         206
         4         192         193         209         208
         4         193         194         210         209
         4         194         195         211         210
         4         195         196         212         211
         4         196         197         213         212
         4         197         198         214         213
         4         198         199         215         214
         4         199         200         216         215
         4         200         201         217         216
         4         201         202         218         217
         4         202         203         219         218
         4         203         204         220         219
         4         204         205         221         220
         4         205         206         222         221
         4         206         207         223         222
         4         208         209         225         224
         4         209         210         226         225
         4         210         211         227         226
         4         211         212         228         227
         4         212         213         229         228
         4         213         214         230         229
         4         214         215         231         230
         4         215         216         232         231
         4         216         217         233         232
         4         217         218         234         233
         4         218         219         235         234
         4         219         220         236         235
         4         220         221         237         236
         4         221         222         238         237
         4         222         223         239         238
         4         224         225         241         240
         4         225         226         242         241
         4         226         227         243         242
         4         227         228         244         243
         4         228         229         245         244
         4         229         230         246         245
         4         230         231         247         246
         4         231         232         248         247
         4         232         233         249         248
         4         233         234         250         249
         4         234         235         251         250
         4         235         236         252         251
         4         236         237         253         252
         4         237         238         254         253
         4         238         239         255         254
         4         240         241         257         256
         4         241         242         258         257
         4         242         243         259         258
         4         243         244         260         259
         4         244         245         261         260
         4         245         246         262         261
         4         246         247         263         262
         4         247         248         264         263
         4         248         249         265         264
         4         249         250         266         265
         4         250         251         267         266
         4         251         252         268         267
         4         252         253         269         268
         4         253         254         270         269
         4         254         255         271         270
         4         256         257         273         272
         4         257         258         274         273
         4         258         259         275         274
         4         259         260         276         275
         4         260         261         277         276
         4         261         262         278         277
         4         262         263         279         278
         4         263         264         280         279
         4         264         265         281         280
         4         265         266         282         281
         4         266         267         283         282
         4         267         268         284         283
         4         268         269         285         284
         4         269         270         286         285
         4         270         271         287         286
         4         272         273         289         288
         4         273         274         290         289
         4         274         275         291         290
         4         275         276         292         291
         4         276         277         293         292
         4         277         278         294         293
         4         278         279         295         294
         4         279         280         296         295
         4         280         281         297         296
         4         281         282         298         297
         4         282         283         299         298
         4         283         284         300         299
         4         284         285         301         300
         4         285         286         302         301
         4         286         287         303         302
         4         288         289         305         304
         4         289         290         306         305
         4         290         291         307         306
         4         291         292         308         307
         4         292         293         309         308
         4         293         294         310         309
         4         294         295         311         310
         4         295         296         312         311
         4         296         297         313         312
         4         297         298         314         313
         4         298         299         315         314
         4         299         300         316         315
         4         300         301         317         316
         4         301         302         318         317
         4         302         303         319         318
         4         304         305         321         320
         4         305         306         322         321
         4         306         307         323         322
         4         307         308         324         323
         4         308         309         325         324
         4         309         310         326         325
         4         310         311         327         326
         4         311         312         328         327
         4         312         313         329         328
         4         313         314         330         329
         4         314         315         331         330
         4         315         316         332         331
         4         316         317         333         332
         4         317         318         334         333
         4         318         319         335         334
         4         320         321         337         336
         4         321         322         338         337
         4         322         323         339         338
         4         323         324         340         339
         4         324         325         341         340
         4         325         326         342         341
         4         326         327         343         342
         4         327         328         344         343
         4         328         329         345         344
         4         329         330         346         345
         4         330         331         347         346
         4         331         332         348         347
         4         332         333         349         348
         4         333         334         350         349
         4         334         335         351         350
         4         336         337         353         352
         4         337         338         354         353
         4         338         339         355         354
         4         339         340         356         355
         4         340         341         357         356
         4         341         342         358         357
         4         342         343         359         358
         4         343         344         360         359
         4         344         345         361         360
         4         345         346         362         361
         4         346         347         363         362
         4         347         348         364         363
         4         348         349         365         364
         4         349         350         366         365
         4         350         351         367         366
         4         352         353         369         368
         4         353         354         370         369
         4         354         355         371         370
         4         355         356         372         371
         4         356         357         373         372
         4         357         358         374         373
         4         358         359         375         374
         4         359         360         376         375
         4         360         361         377         376
         4         361         362         378         377
         4         362         363         379         378
         4         363         364         380         379
         4         364         365         381         380
         4         365         366         382         381
         4         366         367         383         382
         4         368         369         385         384
         4         369         370         386         385
         4         370         371         387         386
         4         371         372         388         387
         4         372         373         389         388
         4         373         374         390         389
         4         374         375         391         390
         4         375         376         392         391
         4         376         377         393         392
         4         377         378         394         393
         4         378         379         395         394
         4         379         380         396         395
         4         380         381         397         396
         4         381         382         398         397
         4         382         383         399         398
         4         384         385         401         400
         4         385         386         402         401
         4         386         387         403         402
         4         387         388         404         403
         4         388         389         405         404
         4         389         390         406         405
         4         390         391         407         406
         4         391         392         408         407
         4         392         393         409         408
         4         393         394         410         409
         4         394         395         411         410
         4         395         396         412         411
         4         396         397         413         412
         4         397         398         414         413
         4         398         399         415         414
         4         400         401         417         416
         4         401         402         418         417
         4         402         403         419         418
         4         403         404         420         419
         4         404         405         421         420
         4         405         406         422         421
         4         406         407         423         422
         4         407         408         424         423
         4         408         409         425         424
         4         409         410         426         425
         4         410         411         427         426
         4         411         412         428         427
         4         412         413         429         428
         4         413         414         430         429
         4         414         415         431         430
         4         416         417         433         432
         4         417         418         434         433
         4         418         419         435         434
         4         419         420         436         435
         4         420         421         437         436
         4         421         422         438         437
         4         422         423         439         438
         4         423         424         440         439
         4         424         425         441         440
         4         425         426         442         441
         4         426         427         443         442
         4         427         428         444         443
         4         428         429         445         444
         4         429         430         446         445
         4         430         431         447         446
         4         432         433         449         448
         4         433         434         450         449
         4         434         435         451         450
         4         435         436         452         451
         4         436         437         453         452
         4         437         438         454         453
         4         438         439         455         454
         4         439         440         456         455
         4         440         441         457         456
         4         441         442         458         457
         4         442         443         459         458
         4         443         444         460         459
         4         444         445         461         460
         4         445         446         462         461
         4         446         447         463         462
         4         448         449         465         464
         4         449         450         466         465
         4         450         451         467         466
         4         451         452         468         467
         4         452         453         469         468
         4         453         454         470         469
         4         454         455         471         470
         4         455         456         472         471
         4         456         457         473         472
         4         457         458         474         473
         4         458         459         475         474
         4         459         460         476         475
         4         460         461         477         476
         4         461         462         478         477
         4         462         463         479         478
         4         464         465         481         480
         4         465         466         482         481
         4         466         467         483         482
         4         467         468         484         483
         4         468         469         485         484
         4         469         470         486         485
         4         470         471         487         486
         4         471         472         488         487
         4         472         473         489         488
         4         473         474         490         489
         4         474         475         491         490
         4         475         476         492         491
         4         476         477         493         492
         4         477         478         494         493
         4         478         479         495         494
CELL_TYPES        450
9
9
9
9
9
9
9
9
9
9
9
9
9
9
9
9
9
9
9
9
9
9
9
9
9
9
9
9
9
9
9
9
9
9
9
9
9
9
9
9
9
9
9
9
9
9
9
9
9
9
9
9
9
9
9
9
9
9
9
9
9
9
9
9
9
9
9
9
9
9
9
9
9
9
9
9
9
9
9
9
9
9
9
9
9
9
9
9
9
9
9
9
9
9
9
9
9
9
9
9
9
9
9
9
9
9
9
9
9
9
9
9
9
9
9
9
9
9
9
9
9
9
9
9
9
9
9
9
9
9
9
9
9
9
9
9
9
9
9
9
9
9
9
9
9
9
9
9
9
9
9
9
9
9
9
9
9
9
9
9
9
9
9
9
9
9
9
9
9
9
9
9
9
9
9
9
9
9
9
9
9
9
9
9
9
9
9
9
9
9
9
9
9
9
9
9
9
9
9
9
9
9
9
9
9
9
9
9
9
9
9
9
9
9
9
9
9
9
9
9
9
9
9
9
9
9
9
9
9
9
9
9
9
9
9
9
9
9
9
9
9
9
9
9
9
9
9
9
9
9
9
9
9
9
9
9
9
9
9
9
9
9
9
9
9
9
9
9
9
9
9
9
9
9
9
9
9
9
9
9
9
9
9
9
9
9
9
9
9
9
9
9
9
9
9
9
9
9
9
9
9
9
9
9
9
9
9
9
9
9
9
9
9
9
9
9
9
9
9
9
9
9
9
9
9
9
9
9
9
9
9
9
9
9
9
9
9
9
9
9
9
9
9
9
9
9
9
9
9
9
9
9
9
9
9
9
9
9
9
9
9
9
9
9
9
9
9
9
9
9
9
9
9
9
9
9
9
9
9
9
9
9
9
9
9
9
9
9
9
9
9
9
9
9
9
9
9
9
9
9
9
9
9
9
9
9
9
9
9
9
9
9
9
9
9
9
9
9
9
9
9
9
9
9
9
9
9
9
9
9
9
9
9
9
9
9
9
9
9
9
9
9
9
9
9
9
9
9
9
9
POINT_DATA       496
SCALARS p double 
LOOKUP_TABLE default
   59861975.2322993     
   59863424.5717919     
   59866110.0751856     
   59869448.1015924     
   59873420.6746850     
   59877865.0648341     
   59882612.3256430     
   59887508.9626800     
   59892413.7306483     
   59897208.0190366     
   59901793.2214886     
   59906107.5301759     
   59910121.6567606     
   59913790.8864261     
   59917443.9042167     
   59920758.8305485     
   59859893.3477080     
   59861207.1052143     
   59863832.3192550     
   59867234.9557819     
   59871289.6873625     
   59875816.0102276     
   59880641.2767458     
   59885608.0024592     
   59890572.7952311     
   59895414.7621652     
   59900033.5455353     
   59904363.6581524     
   59908371.0929698     
   59912008.6209690     
   59915535.3449878     
   59918617.4635828     
   59858421.1355179     
   59859752.9335120     
   59862528.7457741     
   59866165.8019548     
   59870476.6093779     
   59875255.9705946     
   59880318.1647659     
   59885497.5230980     
   59890644.4199339     
   59895631.8064541     
   59900353.7182485     
   59904736.1907788     
   59908734.3649781     
   59912292.6143457     
   59915578.8890360     
   59918278.5621072     
   59855494.8820870     
   59857236.7956932     
   59860538.4015302     
   59864640.8971458     
   59869408.6438010     
   59874624.3958557     
   59880090.2940224     
   59885631.2326461     
   59891088.1333917     
   59896324.9859940     
   59901226.7539102     
   59905708.8309786     
   59909714.9752296     
   59913180.9539976     
   59916251.9060121     
   59918671.2883981     
   59851186.9879071     
   59853484.0236236     
   59857534.7990702     
   59862330.2988992     
   59867767.4665469     
   59873614.6378492     
   59879661.4113913     
   59885722.0353730     
   59891625.8419006     
   59897225.4157834     
   59902394.2118616     
   59907034.6885682     
   59911078.0468904     
   59914455.4620852     
   59917286.1882972     
   59919383.0180199     
   59845653.6041258     
   59848654.8525314     
   59853694.5183278     
   59859411.6980815     
   59865738.6028682     
   59872423.5677253     
   59879239.8363256     
   59885989.5623790     
   59892488.5594328     
   59898575.9419289     
   59904111.3760497     
   59908981.4667820     
   59913100.6190995     
   59916393.4050663     
   59918924.7926066     
   59920567.5689897     
   59838793.5211188     
   59842709.1989174     
   59849016.7312957     
   59855906.7782861     
   59863360.9368193     
   59871104.2609569     
   59878892.0121429     
   59886513.3421088     
   59893769.2222822     
   59900483.7154396     
   59906500.5924970     
   59911687.3026819     
   59915937.1544722     
   59919163.5812296     
   59921362.4141640     
   59922472.0702099     
   59830593.3754913     
   59835646.6081816     
   59843522.2376915     
   59851856.0113847     
   59860692.4774677     
   59869730.5322528     
   59878706.2770166     
   59887396.0384543     
   59895585.4855361     
   59903082.8073756     
   59909714.2435572     
   59915325.0393646     
   59919782.8833091     
   59922985.2701841     
   59924844.6692162     
   59925370.5975121     
   59821039.4226734     
   59827484.8382667     
   59837265.5067508     
   59847337.9434320     
   59857831.0924935     
   59868416.5002979     
   59878811.4726592     
   59888781.1278534     
   59898096.6319864     
   59906550.6280888     
   59913950.9795694     
   59920118.1613161     
   59924889.5852236     
   59928140.6360519     
   59929687.9882165     
   59929607.2030791     
   59810135.2308342     
   59818256.4580294     
   59830311.2962178     
   59842441.2768302     
   59854884.2876667     
   59867285.0174979     
   59879344.0372350     
   59890818.7272764     
   59901468.2988632     
   59911071.8118586     
   59919419.1969951     
   59926304.4940311     
   59931530.4940491     
   59934943.2717303     
   59936253.0146762     
   59935588.3927679     
   59797920.2823875     
   59808028.9010229     
   59822759.2215637     
   59837287.4699827     
   59851989.8948600     
   59866486.4101288     
   59880464.8736510     
   59893680.6780875     
   59905885.9262016     
   59916850.3517185     
   59926348.2978132     
   59934147.1982974     
   59940011.4741101     
   59943749.2145938     
   59944955.7775656     
   59943787.5854874     
   59784474.6477442     
   59796908.6666124     
   59814744.3333751     
   59832030.0796093     
   59849313.7327259     
   59866194.2197933     
   59882352.9194215     
   59897551.7991724     
   59911543.7564931     
   59924096.6368661     
   59934974.3414442     
   59943919.8535555     
   59950656.7194235     
   59954944.8882077     
   59956260.3503533     
   59954746.4207257     
   59769934.5230632     
   59785053.9472518     
   59806448.4082303     
   59826864.0431313     
   59847056.9411522     
   59866610.1475283     
   59885207.2984589     
   59902628.9335856     
   59918640.7181608     
   59933020.4528631     
   59945530.8047105     
   59955895.9996163     
   59963798.4062860     
   59968938.2032303     
   59970673.2637675     
   59969072.5554211     
   59754499.0623816     
   59772680.9355823     
   59798103.7677886     
   59822028.7262938     
   59845457.3284982     
   59867963.0029610     
   59889242.8871648     
   59909112.4709578     
   59927367.6066955     
   59943814.0533930     
   59958228.3035859     
   59970326.9009624     
   59979754.3386051     
   59986138.5952828     
   59988728.6952909     
   59987433.3089341     
   59738445.4974813     
   59760078.4540887     
   59790012.2955529     
   59817827.1087550     
   59844807.9557801     
   59870524.3892771     
   59894701.6589197     
   59917212.0937803     
   59937906.6780955     
   59956645.6587851     
   59973242.8186763     
   59987425.8276921     
   59998810.4823618     
   60006939.2786284     
   60010974.5763133     
   60010544.0743690     
   59722118.5580808     
   59747598.4696120     
   59782529.0317923     
   59814611.2728159     
   59845441.2289150     
   59874590.1596963     
   59901828.6066243     
   59927115.4460590     
   59950391.9684243     
   59971611.5007777     
   59990660.4535411     
   60007308.1553848     
   60021159.5396671     
   60031660.8129602     
   60037924.5306777     
   60039141.6743159     
   59705953.0012068     
   59735690.4646962     
   59776130.8733311     
   59812858.8678464     
   59847809.8047420     
   59880557.0829591     
   59910940.6999476     
   59939046.1886841     
   59964955.1479898     
   59988768.9625919     
   60010498.7622966     
   60030001.7479450     
   60046903.6994725     
   60060544.0076883     
   60070050.4816005     
   60073957.9242020     
   59690414.1367256     
   59724833.7777385     
   59771307.1785514     
   59813067.6423411     
   59852376.3279641     
   59888808.8093242     
   59922302.1950565     
   59953125.8530881     
   59981571.6081124     
   60007967.0537854     
   60032522.8437373     
   60055254.7626050     
   60075859.8854483     
   60093574.0534108     
   60107625.8733521     
   60115638.1491585     
   59676001.9975457     
   59715642.3681831     
   59768829.9702071     
   59816067.3876896     
   59859947.4402352     
   59900040.4745656     
   59936432.9392430     
   59969659.4881671     
   60000322.2326869     
   60029082.3696934     
   60056455.6766452     
   60082716.3855862     
   60107715.3305400     
   60130589.3403005     
   60150818.9151897     
   60164722.5418925     
   59663284.2562640     
   59708719.8623140     
   59769388.4786813     
   59822612.2742774     
   59871227.2908946     
   59914795.4898551     
   59953618.8092198     
   59988620.8756189     
   60020850.9364045     
   60051450.7295843     
   60081384.0964691     
   60111332.4916670     
   60141422.4178251     
   60170744.9356747     
   60199196.9243178     
   60221390.2656502     
   59652164.1196733     
   59704637.0251993     
   59774178.0371281     
   59834207.0563524     
   59887731.5418861     
   59934360.0380963     
   59974771.4245647     
   60010468.1251622     
   60043140.3931342     
   60074596.5954391     
   60106436.9678063     
   60139947.4269833     
   60175731.6934460     
   60212911.9318874     
   60252134.3466566     
   60285622.0444737     
   59644219.3979248     
   59704886.2850023     
   59785223.3563326     
   59852956.7824915     
   59911396.8361082     
   59960255.3524781     
   60000832.9418989     
   60035498.5320211     
   60066823.7307722     
   60097509.4871704     
   60130013.8252183     
   60166507.8352722     
   60208358.7282294     
   60254918.2839082     
   60307930.9720085     
   60356403.8409182     
   59635429.6750466     
   59708066.7808131     
   59802441.3369373     
   59879877.9647811     
   59943227.0752987     
   59992910.8185925     
   60031420.6827788     
   60062452.7794619     
   60089772.7335851     
   60117194.5013283     
   60148274.7243539     
   60186415.5340993     
   60234257.5040926     
   60291886.4402981     
   60362944.3584323     
   60432460.0797537     
   59632255.2586907     
   59722069.3747443     
   59838025.4398272     
   59926734.6066988     
   59993936.7879258     
   60041631.1086277     
   60074445.4158912     
   60098003.0266830     
   60117513.5566092     
   60138034.9932272     
   60164358.9980785     
   60201503.1873824     
   60254021.5135411     
   60323341.5213685     
   60416406.9651701     
   60511204.1380445     
   59626969.9857062     
   59738518.2561663     
   59880306.5107234     
   59983072.8560722     
   60051933.7100682     
   60093039.6092386     
   60114838.3765766     
   60125721.3255560     
   60132463.8469232     
   60141252.5970498     
   60158037.0759344     
   60189825.6885768     
   60244283.4397376     
   60326660.1578699     
   60449822.7016184     
   60585936.2100541     
   59587714.4644019     
   59770106.2864977     
   59971446.3278551     
   60091664.7090038     
   60155086.2729113     
   60180540.2220407     
   60183154.2194543     
   60174409.5140176     
   60162213.8478783     
   60153137.8869176     
   60153583.1612696     
   60172248.1054175     
   60220766.4471162     
   60310674.5356751     
   60470768.4076628     
   60660744.3856455     
   59702314.1565912     
   59908515.5152529     
   60163135.5599469     
   60277111.1056478     
   60314757.6570691     
   60309227.7657479     
   60280849.6930140     
   60244105.8082044     
   60206177.3194333     
   60172338.2631668     
   60147672.4743505     
   60141877.5996039     
   60169825.1820872     
   60253446.1721498     
   60447670.4859192     
   60694671.5802672     
   59340532.5797509     
   59820369.2598479     
   60196682.6524186     
   60305161.1443644     
   60296256.9733676     
   60239419.1332435     
   60168825.4102235     
   60098274.0479060     
   60031100.1348960     
   59968511.3246670     
   59911441.8403521     
   59866844.4081783     
   59854978.0555768     
   59906127.5196160     
   60189289.5384356     
   60738920.0989194     
   59478018.4627489     
   60781117.6400882     
   61318111.0005885     
   61231472.1060278     
   61069301.7199100     
   60916231.9714721     
   60784727.3561742     
   60672570.1859266     
   60571765.7383452     
   60475441.7258218     
   60375735.9872998     
   60267493.5309586     
   60154313.4115078     
   60043272.0085324     
   60135734.7090126     
   60963352.9927570     
   64617373.7567886     
   63737362.0095153     
   62965708.8127381     
   62288705.1781736     
   61859472.7948027     
   61585090.1259988     
   61385387.3102061     
   61229177.7717619     
   61093883.9928609     
   60962774.6279143     
   60818260.7480715     
   60638727.2121419     
   60383447.7313895     
   59983034.7212165     
   59340965.1535775     
   58298286.0325361     
   43866666.6666667     
   43866666.6666667     
   43866666.6666667     
   43866666.6666667     
   43866666.6666667     
   43866666.6666667     
   43866666.6666667     
   43866666.6666667     
   43866666.6666667     
   43866666.6666667     
   43866666.6666667     
   43866666.6666667     
   43866666.6666667     
   43866666.6666667     
   43866666.6666667     
   43866666.6666667     
VECTORS u double 
    0.00000E+00        -0.53221E-02         0.00000E+00
    0.00000E+00        -0.46352E-02         0.00000E+00
    0.00000E+00        -0.39669E-02         0.00000E+00
    0.00000E+00        -0.33328E-02         0.00000E+00
    0.00000E+00        -0.27442E-02         0.00000E+00
    0.00000E+00        -0.22096E-02         0.00000E+00
    0.00000E+00        -0.17345E-02         0.00000E+00
    0.00000E+00        -0.13219E-02         0.00000E+00
    0.00000E+00        -0.97212E-03         0.00000E+00
    0.00000E+00        -0.68372E-03         0.00000E+00
    0.00000E+00        -0.45338E-03         0.00000E+00
    0.00000E+00        -0.27652E-03         0.00000E+00
    0.00000E+00        -0.14783E-03         0.00000E+00
    0.00000E+00        -0.61610E-04         0.00000E+00
    0.00000E+00        -0.13184E-04         0.00000E+00
    0.00000E+00         0.00000E+00         0.00000E+00
    0.70114E-03        -0.53290E-02         0.00000E+00
    0.68696E-03        -0.46359E-02         0.00000E+00
    0.65912E-03        -0.39643E-02         0.00000E+00
    0.61847E-03        -0.33281E-02         0.00000E+00
    0.56798E-03        -0.27381E-02         0.00000E+00
    0.51057E-03        -0.22027E-02         0.00000E+00
    0.44902E-03        -0.17273E-02         0.00000E+00
    0.38584E-03        -0.13148E-02         0.00000E+00
    0.32328E-03        -0.96561E-03         0.00000E+00
    0.26324E-03        -0.67808E-03         0.00000E+00
    0.20722E-03        -0.44884E-03         0.00000E+00
    0.15628E-03        -0.27324E-03         0.00000E+00
    0.11094E-03        -0.14585E-03         0.00000E+00
    0.71057E-04        -0.60897E-04         0.00000E+00
    0.35616E-04        -0.13588E-04         0.00000E+00
    0.00000E+00         0.00000E+00         0.00000E+00
    0.14028E-02        -0.53375E-02         0.00000E+00
    0.13757E-02        -0.46358E-02         0.00000E+00
    0.13181E-02        -0.39562E-02         0.00000E+00
    0.12353E-02        -0.33140E-02         0.00000E+00
    0.11331E-02        -0.27200E-02         0.00000E+00
    0.10172E-02        -0.21822E-02         0.00000E+00
    0.89314E-03        -0.17059E-02         0.00000E+00
    0.76595E-03        -0.12939E-02         0.00000E+00
    0.64013E-03        -0.94631E-03         0.00000E+00
    0.51948E-03        -0.66132E-03         0.00000E+00
    0.40706E-03        -0.43532E-03         0.00000E+00
    0.30498E-03        -0.26341E-03         0.00000E+00
    0.21433E-03        -0.13981E-03         0.00000E+00
    0.13489E-03        -0.58396E-04         0.00000E+00
    0.64685E-04        -0.13672E-04         0.00000E+00
    0.00000E+00         0.00000E+00         0.00000E+00
    0.21173E-02        -0.53497E-02         0.00000E+00
    0.20752E-02        -0.46342E-02         0.00000E+00
    0.19858E-02        -0.39429E-02         0.00000E+00
    0.18586E-02        -0.32914E-02         0.00000E+00
    0.17024E-02        -0.26908E-02         0.00000E+00
    0.15260E-02        -0.21491E-02         0.00000E+00
    0.13375E-02        -0.16714E-02         0.00000E+00
    0.11447E-02        -0.12600E-02         0.00000E+00
    0.95422E-03        -0.91493E-03         0.00000E+00
    0.77189E-03        -0.63399E-03         0.00000E+00
    0.60229E-03        -0.41320E-03         0.00000E+00
    0.44873E-03        -0.24718E-03         0.00000E+00
    0.31291E-03        -0.12959E-03         0.00000E+00
    0.19469E-03        -0.53573E-04         0.00000E+00
    0.91830E-04        -0.12508E-04         0.00000E+00
    0.00000E+00         0.00000E+00         0.00000E+00
    0.28508E-02        -0.53695E-02         0.00000E+00
    0.27903E-02        -0.46340E-02         0.00000E+00
    0.26663E-02        -0.39262E-02         0.00000E+00
    0.24915E-02        -0.32620E-02         0.00000E+00
    0.22781E-02        -0.26524E-02         0.00000E+00
    0.20381E-02        -0.21052E-02         0.00000E+00
    0.17826E-02        -0.16253E-02         0.00000E+00
    0.15218E-02        -0.12146E-02         0.00000E+00
    0.12647E-02        -0.87278E-03         0.00000E+00
    0.10190E-02        -0.59712E-03         0.00000E+00
    0.79117E-03        -0.38318E-03         0.00000E+00
    0.58561E-03        -0.22495E-03         0.00000E+00
    0.40487E-03        -0.11533E-03         0.00000E+00
    0.24916E-03        -0.46445E-04         0.00000E+00
    0.11603E-03        -0.10501E-04         0.00000E+00
    0.00000E+00         0.00000E+00         0.00000E+00
    0.36094E-02        -0.54001E-02         0.00000E+00
    0.35265E-02        -0.46388E-02         0.00000E+00
    0.33634E-02        -0.39096E-02         0.00000E+00
    0.31367E-02        -0.32291E-02         0.00000E+00
    0.28620E-02        -0.26078E-02         0.00000E+00
    0.25547E-02        -0.20535E-02         0.00000E+00
    0.22286E-02        -0.15704E-02         0.00000E+00
    0.18967E-02        -0.11602E-02         0.00000E+00
    0.15704E-02        -0.82185E-03         0.00000E+00
    0.12594E-02        -0.55231E-03         0.00000E+00
    0.97182E-03        -0.34644E-03         0.00000E+00
    0.71357E-03        -0.19751E-03         0.00000E+00
    0.48819E-03        -0.97497E-04         0.00000E+00
    0.29645E-03        -0.37384E-04         0.00000E+00
    0.13585E-03        -0.79273E-05         0.00000E+00
    0.00000E+00         0.00000E+00         0.00000E+00
    0.44002E-02        -0.54463E-02         0.00000E+00
    0.42892E-02        -0.46531E-02         0.00000E+00
    0.40815E-02        -0.38975E-02         0.00000E+00
    0.37974E-02        -0.31969E-02         0.00000E+00
    0.34564E-02        -0.25613E-02         0.00000E+00
    0.30770E-02        -0.19978E-02         0.00000E+00
    0.26763E-02        -0.15104E-02         0.00000E+00
    0.22697E-02        -0.11000E-02         0.00000E+00
    0.18711E-02        -0.76504E-03         0.00000E+00
    0.14923E-02        -0.50188E-03         0.00000E+00
    0.11432E-02        -0.30474E-03         0.00000E+00
    0.83130E-03        -0.16608E-03         0.00000E+00
    0.56145E-03        -0.76852E-04         0.00000E+00
    0.33520E-03        -0.26780E-04         0.00000E+00
    0.15036E-03        -0.48850E-05         0.00000E+00
    0.00000E+00         0.00000E+00         0.00000E+00
    0.52299E-02        -0.55140E-02         0.00000E+00
    0.50842E-02        -0.46827E-02         0.00000E+00
    0.48249E-02        -0.38958E-02         0.00000E+00
    0.44770E-02        -0.31713E-02         0.00000E+00
    0.40637E-02        -0.25184E-02         0.00000E+00
    0.36069E-02        -0.19438E-02         0.00000E+00
    0.31268E-02        -0.14504E-02         0.00000E+00
    0.26415E-02        -0.10386E-02         0.00000E+00
    0.21670E-02        -0.70631E-03         0.00000E+00
    0.17176E-02        -0.44908E-03         0.00000E+00
    0.13048E-02        -0.26053E-03         0.00000E+00
    0.93808E-03        -0.13233E-03         0.00000E+00
    0.62367E-03        -0.54411E-04         0.00000E+00
    0.36441E-03        -0.15106E-04         0.00000E+00
    0.15882E-03        -0.14929E-05         0.00000E+00
    0.00000E+00         0.00000E+00         0.00000E+00
    0.61058E-02        -0.56107E-02         0.00000E+00
    0.59168E-02        -0.47350E-02         0.00000E+00
    0.55980E-02        -0.39119E-02         0.00000E+00
    0.51787E-02        -0.31598E-02         0.00000E+00
    0.46863E-02        -0.24868E-02         0.00000E+00
    0.41463E-02        -0.18985E-02         0.00000E+00
    0.35817E-02        -0.13972E-02         0.00000E+00
    0.30133E-02        -0.98233E-03         0.00000E+00
    0.24593E-02        -0.65101E-03         0.00000E+00
    0.19360E-02        -0.39829E-03         0.00000E+00
    0.14572E-02        -0.21715E-03         0.00000E+00
    0.10340E-02        -0.98593E-04         0.00000E+00
    0.67461E-03        -0.31553E-04         0.00000E+00
    0.38359E-03        -0.30024E-05         0.00000E+00
    0.16077E-03         0.20841E-05         0.00000E+00
    0.00000E+00         0.00000E+00         0.00000E+00
    0.70350E-02        -0.57457E-02         0.00000E+00
    0.67927E-02        -0.48196E-02         0.00000E+00
    0.64048E-02        -0.39555E-02         0.00000E+00
    0.59057E-02        -0.31720E-02         0.00000E+00
    0.53270E-02        -0.24759E-02         0.00000E+00
    0.46976E-02        -0.18714E-02         0.00000E+00
    0.40433E-02        -0.13597E-02         0.00000E+00
    0.33872E-02        -0.93910E-03         0.00000E+00
    0.27500E-02        -0.60614E-03         0.00000E+00
    0.21496E-02        -0.35527E-03         0.00000E+00
    0.16020E-02        -0.17904E-03         0.00000E+00
    0.11203E-02        -0.67939E-04         0.00000E+00
    0.71503E-03        -0.10131E-04         0.00000E+00
    0.39297E-03         0.86737E-05         0.00000E+00
    0.15613E-03         0.56284E-05         0.00000E+00
    0.00000E+00         0.00000E+00         0.00000E+00
    0.80246E-02        -0.59302E-02         0.00000E+00
    0.77171E-02        -0.49478E-02         0.00000E+00
    0.72495E-02        -0.40382E-02         0.00000E+00
    0.66614E-02        -0.32199E-02         0.00000E+00
    0.59886E-02        -0.24978E-02         0.00000E+00
    0.52634E-02        -0.18742E-02         0.00000E+00
    0.45143E-02        -0.13490E-02         0.00000E+00
    0.37665E-02        -0.91924E-03         0.00000E+00
    0.30423E-02        -0.58075E-03         0.00000E+00
    0.23617E-02        -0.32755E-03         0.00000E+00
    0.17424E-02        -0.15201E-03         0.00000E+00
    0.11997E-02        -0.44441E-04         0.00000E+00
    0.74697E-03         0.73963E-05         0.00000E+00
    0.39379E-03         0.18773E-04         0.00000E+00
    0.14532E-03         0.88446E-05         0.00000E+00
    0.00000E+00         0.00000E+00         0.00000E+00
    0.90815E-02        -0.61777E-02         0.00000E+00
    0.86950E-02        -0.51336E-02         0.00000E+00
    0.81356E-02        -0.41744E-02         0.00000E+00
    0.74486E-02        -0.33183E-02         0.00000E+00
    0.66739E-02        -0.25673E-02         0.00000E+00
    0.58469E-02        -0.19217E-02         0.00000E+00
    0.49985E-02        -0.13792E-02         0.00000E+00
    0.41554E-02        -0.93581E-03         0.00000E+00
    0.33413E-02        -0.58640E-03         0.00000E+00
    0.25776E-02        -0.32480E-03         0.00000E+00
    0.18836E-02        -0.14357E-03         0.00000E+00
    0.12770E-02        -0.33410E-04         0.00000E+00
    0.77418E-03         0.17795E-04         0.00000E+00
    0.38850E-03         0.25774E-04         0.00000E+00
    0.12947E-03         0.11337E-04         0.00000E+00
    0.00000E+00         0.00000E+00         0.00000E+00
    0.10212E-01        -0.65041E-02         0.00000E+00
    0.97308E-02        -0.53935E-02         0.00000E+00
    0.90664E-02        -0.43815E-02         0.00000E+00
    0.82700E-02        -0.34851E-02         0.00000E+00
    0.73857E-02        -0.27027E-02         0.00000E+00
    0.64516E-02        -0.20319E-02         0.00000E+00
    0.55003E-02        -0.14679E-02         0.00000E+00
    0.45596E-02        -0.10052E-02         0.00000E+00
    0.36537E-02        -0.63765E-03         0.00000E+00
    0.28047E-02        -0.35929E-03         0.00000E+00
    0.20333E-02        -0.16338E-03         0.00000E+00
    0.13594E-02        -0.41696E-04         0.00000E+00
    0.80261E-03         0.16858E-04         0.00000E+00
    0.38126E-03         0.27676E-04         0.00000E+00
    0.11058E-03         0.12582E-04         0.00000E+00
    0.00000E+00         0.00000E+00         0.00000E+00
    0.11422E-01        -0.69279E-02         0.00000E+00
    0.10828E-01        -0.57472E-02         0.00000E+00
    0.10044E-01        -0.46799E-02         0.00000E+00
    0.91276E-02        -0.37417E-02         0.00000E+00
    0.81265E-02        -0.29261E-02         0.00000E+00
    0.70812E-02        -0.22270E-02         0.00000E+00
    0.60252E-02        -0.16367E-02         0.00000E+00
    0.49864E-02        -0.11475E-02         0.00000E+00
    0.39885E-02        -0.75267E-03         0.00000E+00
    0.30534E-02        -0.44647E-03         0.00000E+00
    0.22022E-02        -0.22363E-03         0.00000E+00
    0.14570E-02        -0.78053E-04         0.00000E+00
    0.84100E-03        -0.83324E-06         0.00000E+00
    0.37835E-03         0.21885E-04         0.00000E+00
    0.91873E-04         0.11894E-04         0.00000E+00
    0.00000E+00         0.00000E+00         0.00000E+00
    0.12716E-01        -0.74704E-02         0.00000E+00
    0.11988E-01        -0.62172E-02         0.00000E+00
    0.11070E-01        -0.50938E-02         0.00000E+00
    0.10023E-01        -0.41134E-02         0.00000E+00
    0.88985E-02        -0.32635E-02         0.00000E+00
    0.77396E-02        -0.25335E-02         0.00000E+00
    0.65796E-02        -0.19116E-02         0.00000E+00
    0.54448E-02        -0.13876E-02         0.00000E+00
    0.43574E-02        -0.95390E-03         0.00000E+00
    0.33372E-02        -0.60555E-03         0.00000E+00
    0.24049E-02        -0.33965E-03         0.00000E+00
    0.15840E-02        -0.15355E-03         0.00000E+00
    0.90164E-03        -0.42190E-04         0.00000E+00
    0.38883E-03         0.50585E-05         0.00000E+00
    0.78086E-04         0.83794E-05         0.00000E+00
    0.00000E+00         0.00000E+00         0.00000E+00
    0.14097E-01        -0.81556E-02         0.00000E+00
    0.13213E-01        -0.68295E-02         0.00000E+00
    0.12143E-01        -0.56509E-02         0.00000E+00
    0.10954E-01        -0.46295E-02         0.00000E+00
    0.97026E-02        -0.37458E-02         0.00000E+00
    0.84306E-02        -0.29828E-02         0.00000E+00
    0.71705E-02        -0.23238E-02         0.00000E+00
    0.59459E-02        -0.17554E-02         0.00000E+00
    0.47748E-02        -0.12687E-02         0.00000E+00
    0.36734E-02        -0.86019E-03         0.00000E+00
    0.26604E-02        -0.53045E-03         0.00000E+00
    0.17592E-02        -0.28205E-03         0.00000E+00
    0.10012E-02        -0.11594E-03         0.00000E+00
    0.42521E-03        -0.27055E-04         0.00000E+00
    0.75939E-04         0.89623E-06         0.00000E+00
    0.00000E+00         0.00000E+00         0.00000E+00
    0.15566E-01        -0.90106E-02         0.00000E+00
    0.14501E-01        -0.76131E-02         0.00000E+00
    0.13261E-01        -0.63825E-02         0.00000E+00
    0.11921E-01        -0.53239E-02         0.00000E+00
    0.10539E-01        -0.44087E-02         0.00000E+00
    0.91574E-02        -0.36120E-02         0.00000E+00
    0.78059E-02        -0.29107E-02         0.00000E+00
    0.65026E-02        -0.22867E-02         0.00000E+00
    0.52588E-02        -0.17301E-02         0.00000E+00
    0.40844E-02        -0.12392E-02         0.00000E+00
    0.29931E-02        -0.81937E-03         0.00000E+00
    0.20075E-02        -0.48070E-03         0.00000E+00
    0.11619E-02        -0.23298E-03         0.00000E+00
    0.50443E-03        -0.79820E-04         0.00000E+00
    0.94693E-04        -0.12020E-04         0.00000E+00
    0.00000E+00         0.00000E+00         0.00000E+00
    0.17121E-01        -0.10065E-01         0.00000E+00
    0.15848E-01        -0.86006E-02         0.00000E+00
    0.14420E-01        -0.73239E-02         0.00000E+00
    0.12918E-01        -0.62348E-02         0.00000E+00
    0.11405E-01        -0.52933E-02         0.00000E+00
    0.99221E-02        -0.44641E-02         0.00000E+00
    0.84939E-02        -0.37155E-02         0.00000E+00
    0.71298E-02        -0.30239E-02         0.00000E+00
    0.58310E-02        -0.23775E-02         0.00000E+00
    0.45971E-02        -0.17770E-02         0.00000E+00
    0.34340E-02        -0.12347E-02         0.00000E+00
    0.23602E-02        -0.77051E-03         0.00000E+00
    0.14125E-02        -0.40679E-03         0.00000E+00
    0.64880E-03        -0.15993E-03         0.00000E+00
    0.14673E-03        -0.32190E-04         0.00000E+00
    0.00000E+00         0.00000E+00         0.00000E+00
    0.18759E-01        -0.11352E-01         0.00000E+00
    0.17247E-01        -0.98275E-02         0.00000E+00
    0.15609E-01        -0.85143E-02         0.00000E+00
    0.13937E-01        -0.74054E-02         0.00000E+00
    0.12296E-01        -0.64463E-02         0.00000E+00
    0.10725E-01        -0.55885E-02         0.00000E+00
    0.92430E-02        -0.47886E-02         0.00000E+00
    0.78449E-02        -0.40160E-02         0.00000E+00
    0.65173E-02        -0.32566E-02         0.00000E+00
    0.52450E-02        -0.25144E-02         0.00000E+00
    0.40213E-02        -0.18100E-02         0.00000E+00
    0.28573E-02        -0.11768E-02         0.00000E+00
    0.17900E-02        -0.65386E-03         0.00000E+00
    0.88740E-03        -0.27567E-03         0.00000E+00
    0.24849E-03        -0.61938E-04         0.00000E+00
    0.00000E+00         0.00000E+00         0.00000E+00
    0.20473E-01        -0.12908E-01         0.00000E+00
    0.18688E-01        -0.11333E-01         0.00000E+00
    0.16818E-01        -0.99967E-02         0.00000E+00
    0.14965E-01        -0.88837E-02         0.00000E+00
    0.13202E-01        -0.79206E-02         0.00000E+00
    0.11566E-01        -0.70410E-02         0.00000E+00
    0.10062E-01        -0.61870E-02         0.00000E+00
    0.86670E-02        -0.53188E-02         0.00000E+00
    0.73477E-02        -0.44198E-02         0.00000E+00
    0.60674E-02        -0.34981E-02         0.00000E+00
    0.48011E-02        -0.25847E-02         0.00000E+00
    0.35477E-02        -0.17297E-02         0.00000E+00
    0.23407E-02        -0.99413E-03         0.00000E+00
    0.12573E-02        -0.43723E-03         0.00000E+00
    0.42118E-03        -0.10408E-03         0.00000E+00
    0.00000E+00         0.00000E+00         0.00000E+00
    0.22255E-01        -0.14772E-01         0.00000E+00
    0.20158E-01        -0.13159E-01         0.00000E+00
    0.18026E-01        -0.11819E-01         0.00000E+00
    0.15983E-01        -0.10724E-01         0.00000E+00
    0.14111E-01        -0.97759E-02         0.00000E+00
    0.12441E-01        -0.88845E-02         0.00000E+00
    0.10959E-01        -0.79737E-02         0.00000E+00
    0.96183E-02        -0.69933E-02         0.00000E+00
    0.83570E-02        -0.59244E-02         0.00000E+00
    0.71103E-02        -0.47800E-02         0.00000E+00
    0.58284E-02        -0.36035E-02         0.00000E+00
    0.44906E-02        -0.24646E-02         0.00000E+00
    0.31218E-02        -0.14517E-02         0.00000E+00
    0.18055E-02        -0.65722E-03         0.00000E+00
    0.69225E-03        -0.16224E-03         0.00000E+00
    0.00000E+00         0.00000E+00         0.00000E+00
    0.24098E-01        -0.16990E-01         0.00000E+00
    0.21639E-01        -0.15355E-01         0.00000E+00
    0.19210E-01        -0.14036E-01         0.00000E+00
    0.16968E-01        -0.12989E-01         0.00000E+00
    0.15007E-01        -0.12080E-01         0.00000E+00
    0.13346E-01        -0.11188E-01         0.00000E+00
    0.11946E-01        -0.10216E-01         0.00000E+00
    0.10725E-01        -0.91026E-02         0.00000E+00
    0.95849E-02        -0.78289E-02         0.00000E+00
    0.84260E-02        -0.64144E-02         0.00000E+00
    0.71661E-02        -0.49150E-02         0.00000E+00
    0.57565E-02        -0.34219E-02         0.00000E+00
    0.42037E-02        -0.20557E-02         0.00000E+00
    0.25913E-02        -0.95149E-03         0.00000E+00
    0.10972E-02        -0.24111E-03         0.00000E+00
    0.00000E+00         0.00000E+00         0.00000E+00
    0.25989E-01        -0.19621E-01         0.00000E+00
    0.23106E-01        -0.17978E-01         0.00000E+00
    0.20333E-01        -0.16714E-01         0.00000E+00
    0.17884E-01        -0.15753E-01         0.00000E+00
    0.15866E-01        -0.14912E-01         0.00000E+00
    0.14278E-01        -0.14027E-01         0.00000E+00
    0.13037E-01        -0.12980E-01         0.00000E+00
    0.12016E-01        -0.11704E-01         0.00000E+00
    0.11072E-01        -0.10186E-01         0.00000E+00
    0.10066E-01        -0.84523E-02         0.00000E+00
    0.88781E-02        -0.65695E-02         0.00000E+00
    0.74205E-02        -0.46479E-02         0.00000E+00
    0.56665E-02        -0.28423E-02         0.00000E+00
    0.36859E-02        -0.13409E-02         0.00000E+00
    0.16793E-02        -0.34644E-03         0.00000E+00
    0.00000E+00         0.00000E+00         0.00000E+00
    0.27933E-01        -0.22725E-01         0.00000E+00
    0.24534E-01        -0.21104E-01         0.00000E+00
    0.21358E-01        -0.19939E-01         0.00000E+00
    0.18701E-01        -0.19114E-01         0.00000E+00
    0.16684E-01        -0.18364E-01         0.00000E+00
    0.15258E-01        -0.17477E-01         0.00000E+00
    0.14272E-01        -0.16320E-01         0.00000E+00
    0.13539E-01        -0.14838E-01         0.00000E+00
    0.12870E-01        -0.13030E-01         0.00000E+00
    0.12090E-01        -0.10931E-01         0.00000E+00
    0.11037E-01        -0.86136E-02         0.00000E+00
    0.95724E-02        -0.61950E-02         0.00000E+00
    0.76136E-02        -0.38590E-02         0.00000E+00
    0.51879E-02        -0.18559E-02         0.00000E+00
    0.25042E-02        -0.48986E-03         0.00000E+00
    0.00000E+00         0.00000E+00         0.00000E+00
    0.29939E-01        -0.26442E-01         0.00000E+00
    0.25878E-01        -0.24845E-01         0.00000E+00
    0.22207E-01        -0.23839E-01         0.00000E+00
    0.19364E-01        -0.23205E-01         0.00000E+00
    0.17451E-01        -0.22546E-01         0.00000E+00
    0.16312E-01        -0.21605E-01         0.00000E+00
    0.15692E-01        -0.20262E-01         0.00000E+00
    0.15332E-01        -0.18501E-01         0.00000E+00
    0.15007E-01        -0.16351E-01         0.00000E+00
    0.14519E-01        -0.13857E-01         0.00000E+00
    0.13671E-01        -0.11080E-01         0.00000E+00
    0.12268E-01        -0.81211E-02         0.00000E+00
    0.10133E-01        -0.51710E-02         0.00000E+00
    0.72008E-02        -0.25425E-02         0.00000E+00
    0.36408E-02        -0.68214E-03         0.00000E+00
    0.00000E+00         0.00000E+00         0.00000E+00
    0.31966E-01        -0.30878E-01         0.00000E+00
    0.27053E-01        -0.29351E-01         0.00000E+00
    0.22796E-01        -0.28627E-01         0.00000E+00
    0.19873E-01        -0.28223E-01         0.00000E+00
    0.18247E-01        -0.27586E-01         0.00000E+00
    0.17564E-01        -0.26443E-01         0.00000E+00
    0.17414E-01        -0.24762E-01         0.00000E+00
    0.17479E-01        -0.22612E-01         0.00000E+00
    0.17528E-01        -0.20067E-01         0.00000E+00
    0.17368E-01        -0.17176E-01         0.00000E+00
    0.16796E-01        -0.13968E-01         0.00000E+00
    0.15555E-01        -0.10488E-01         0.00000E+00
    0.13339E-01        -0.68793E-02         0.00000E+00
    0.98854E-02        -0.34901E-02         0.00000E+00
    0.52264E-02        -0.96449E-03         0.00000E+00
    0.00000E+00         0.00000E+00         0.00000E+00
    0.34410E-01        -0.36337E-01         0.00000E+00
    0.28092E-01        -0.35107E-01         0.00000E+00
    0.23192E-01        -0.34674E-01         0.00000E+00
    0.20398E-01        -0.34468E-01         0.00000E+00
    0.19376E-01        -0.33589E-01         0.00000E+00
    0.19331E-01        -0.31916E-01         0.00000E+00
    0.19694E-01        -0.29648E-01         0.00000E+00
    0.20156E-01        -0.26966E-01         0.00000E+00
    0.20531E-01        -0.23982E-01         0.00000E+00
    0.20676E-01        -0.20735E-01         0.00000E+00
    0.20413E-01        -0.17205E-01         0.00000E+00
    0.19467E-01        -0.13341E-01         0.00000E+00
    0.17376E-01        -0.91350E-02         0.00000E+00
    0.13515E-01        -0.48516E-02         0.00000E+00
    0.75066E-02        -0.14058E-02         0.00000E+00
    0.00000E+00         0.00000E+00         0.00000E+00
    0.36456E-01        -0.44106E-01         0.00000E+00
    0.28321E-01        -0.42332E-01         0.00000E+00
    0.22653E-01        -0.42680E-01         0.00000E+00
    0.20773E-01        -0.42319E-01         0.00000E+00
    0.20823E-01        -0.40448E-01         0.00000E+00
    0.21470E-01        -0.37707E-01         0.00000E+00
    0.22240E-01        -0.34544E-01         0.00000E+00
    0.22947E-01        -0.31195E-01         0.00000E+00
    0.23505E-01        -0.27758E-01         0.00000E+00
    0.23842E-01        -0.24238E-01         0.00000E+00
    0.23847E-01        -0.20570E-01         0.00000E+00
    0.23288E-01        -0.16612E-01         0.00000E+00
    0.21679E-01        -0.12156E-01         0.00000E+00
    0.17930E-01        -0.69881E-02         0.00000E+00
    0.10557E-01        -0.20628E-02         0.00000E+00
    0.00000E+00         0.00000E+00         0.00000E+00
    0.39512E-01        -0.51677E-01         0.00000E+00
    0.27577E-01        -0.53649E-01         0.00000E+00
    0.23267E-01        -0.54451E-01         0.00000E+00
    0.23682E-01        -0.51610E-01         0.00000E+00
    0.24683E-01        -0.47472E-01         0.00000E+00
    0.25668E-01        -0.43097E-01         0.00000E+00
    0.26496E-01        -0.38835E-01         0.00000E+00
    0.27156E-01        -0.34781E-01         0.00000E+00
    0.27656E-01        -0.30934E-01         0.00000E+00
    0.27984E-01        -0.27247E-01         0.00000E+00
    0.28092E-01        -0.23630E-01         0.00000E+00
    0.27839E-01        -0.19929E-01         0.00000E+00
    0.26857E-01        -0.15863E-01         0.00000E+00
    0.24203E-01        -0.10839E-01         0.00000E+00
    0.16367E-01        -0.40359E-02         0.00000E+00
    0.00000E+00         0.00000E+00         0.00000E+00
    0.52207E-01        -0.76034E-01         0.00000E+00
    0.31599E-01        -0.77570E-01         0.00000E+00
    0.32210E-01        -0.68154E-01         0.00000E+00
    0.32860E-01        -0.59863E-01         0.00000E+00
    0.33469E-01        -0.52872E-01         0.00000E+00
    0.33923E-01        -0.46902E-01         0.00000E+00
    0.34259E-01        -0.41715E-01         0.00000E+00
    0.34501E-01        -0.37120E-01         0.00000E+00
    0.34659E-01        -0.32989E-01         0.00000E+00
    0.34727E-01        -0.29221E-01         0.00000E+00
    0.34675E-01        -0.25726E-01         0.00000E+00
    0.34418E-01        -0.22403E-01         0.00000E+00
    0.33750E-01        -0.19078E-01         0.00000E+00
    0.32004E-01        -0.15371E-01         0.00000E+00
    0.27241E-01        -0.10009E-01         0.00000E+00
    0.00000E+00         0.00000E+00         0.00000E+00
    0.00000E+00        -0.13662E+00         0.00000E+00
    0.00000E+00        -0.91731E-01         0.00000E+00
    0.00000E+00        -0.73368E-01         0.00000E+00
    0.00000E+00        -0.62522E-01         0.00000E+00
    0.00000E+00        -0.54481E-01         0.00000E+00
    0.00000E+00        -0.47996E-01         0.00000E+00
    0.00000E+00        -0.42522E-01         0.00000E+00
    0.00000E+00        -0.37765E-01         0.00000E+00
    0.00000E+00        -0.33546E-01         0.00000E+00
    0.00000E+00        -0.29748E-01         0.00000E+00
    0.00000E+00        -0.26281E-01         0.00000E+00
    0.00000E+00        -0.23057E-01         0.00000E+00
    0.00000E+00        -0.19955E-01         0.00000E+00
    0.00000E+00        -0.16687E-01         0.00000E+00
    0.00000E+00        -0.12717E-01         0.00000E+00
    0.00000E+00         0.00000E+00         0.00000E+00
CELL_DATA        450
VECTORS vDarcy double 
    0.85987E-11         0.55262E-11         0.00000E+00
    0.89904E-11         0.10621E-10         0.00000E+00
    0.89818E-11         0.13481E-10         0.00000E+00
    0.86883E-11         0.16055E-10         0.00000E+00
    0.83601E-11         0.17941E-10         0.00000E+00
    0.80402E-11         0.19145E-10         0.00000E+00
    0.77440E-11         0.19727E-10         0.00000E+00
    0.74838E-11         0.19739E-10         0.00000E+00
    0.72684E-11         0.19273E-10         0.00000E+00
    0.71059E-11         0.18408E-10         0.00000E+00
    0.70071E-11         0.17289E-10         0.00000E+00
    0.69889E-11         0.16043E-10         0.00000E+00
    0.70657E-11         0.14614E-10         0.00000E+00
    0.73816E-11         0.14359E-10         0.00000E+00
    0.80999E-11         0.12794E-10         0.00000E+00
    0.58528E-11         0.52911E-11         0.00000E+00
    0.55155E-11         0.10802E-10         0.00000E+00
    0.47455E-11         0.14079E-10         0.00000E+00
    0.37645E-11         0.16731E-10         0.00000E+00
    0.27462E-11         0.18611E-10         0.00000E+00
    0.17663E-11         0.19775E-10         0.00000E+00
    0.86718E-12         0.20292E-10         0.00000E+00
    0.77709E-13         0.20223E-10         0.00000E+00
   -0.57734E-12         0.19659E-10         0.00000E+00
   -0.10744E-11         0.18681E-10         0.00000E+00
   -0.13854E-11         0.17425E-10         0.00000E+00
   -0.14716E-11         0.16011E-10         0.00000E+00
   -0.12945E-11         0.14392E-10         0.00000E+00
   -0.65507E-12         0.13626E-10         0.00000E+00
    0.59071E-12         0.11564E-10         0.00000E+00
    0.10885E-10         0.61474E-11         0.00000E+00
    0.90130E-11         0.12155E-10         0.00000E+00
    0.70305E-11         0.15479E-10         0.00000E+00
    0.51857E-11         0.18157E-10         0.00000E+00
    0.33991E-11         0.19990E-10         0.00000E+00
    0.17189E-11         0.21056E-10         0.00000E+00
    0.18832E-12         0.21441E-10         0.00000E+00
   -0.11548E-11         0.21208E-10         0.00000E+00
   -0.22738E-11         0.20448E-10         0.00000E+00
   -0.31324E-11         0.19247E-10         0.00000E+00
   -0.36914E-11         0.17729E-10         0.00000E+00
   -0.39065E-11         0.16009E-10         0.00000E+00
   -0.37379E-11         0.14048E-10         0.00000E+00
   -0.31227E-11         0.12714E-10         0.00000E+00
   -0.21315E-11         0.10238E-10         0.00000E+00
    0.16121E-10         0.80779E-11         0.00000E+00
    0.13513E-10         0.14705E-10         0.00000E+00
    0.10628E-10         0.17796E-10         0.00000E+00
    0.79036E-11         0.20410E-10         0.00000E+00
    0.53019E-11         0.22126E-10         0.00000E+00
    0.28773E-11         0.23025E-10         0.00000E+00
    0.67616E-12         0.23203E-10         0.00000E+00
   -0.12570E-11         0.22721E-10         0.00000E+00
   -0.28763E-11         0.21673E-10         0.00000E+00
   -0.41358E-11         0.20141E-10         0.00000E+00
   -0.49866E-11         0.18245E-10         0.00000E+00
   -0.53779E-11         0.16099E-10         0.00000E+00
   -0.52752E-11         0.13687E-10         0.00000E+00
   -0.46176E-11         0.11803E-10         0.00000E+00
   -0.34920E-11         0.90324E-11         0.00000E+00
    0.20725E-10         0.10597E-10         0.00000E+00
    0.17339E-10         0.18181E-10         0.00000E+00
    0.13518E-10         0.21025E-10         0.00000E+00
    0.98949E-11         0.23528E-10         0.00000E+00
    0.64399E-11         0.25064E-10         0.00000E+00
    0.32253E-11         0.25726E-10         0.00000E+00
    0.30810E-12         0.25621E-10         0.00000E+00
   -0.22605E-11         0.24806E-10         0.00000E+00
   -0.44265E-11         0.23374E-10         0.00000E+00
   -0.61354E-11         0.21408E-10         0.00000E+00
   -0.73279E-11         0.19021E-10         0.00000E+00
   -0.79387E-11         0.16325E-10         0.00000E+00
   -0.79210E-11         0.13340E-10         0.00000E+00
   -0.71531E-11         0.10724E-10         0.00000E+00
   -0.56463E-11         0.74792E-11         0.00000E+00
    0.25611E-10         0.13834E-10         0.00000E+00
    0.21247E-10         0.22694E-10         0.00000E+00
    0.16365E-10         0.25214E-10         0.00000E+00
    0.11765E-10         0.27562E-10         0.00000E+00
    0.73939E-11         0.28857E-10         0.00000E+00
    0.33343E-11         0.29208E-10         0.00000E+00
   -0.35191E-12         0.28742E-10         0.00000E+00
   -0.36089E-11         0.27510E-10         0.00000E+00
   -0.63769E-11         0.25604E-10         0.00000E+00
   -0.85940E-11         0.23105E-10         0.00000E+00
   -0.10190E-10         0.20114E-10         0.00000E+00
   -0.11085E-10         0.16738E-10         0.00000E+00
   -0.11213E-10         0.13038E-10         0.00000E+00
   -0.10416E-10         0.94604E-11         0.00000E+00
   -0.86842E-11         0.55049E-11         0.00000E+00
    0.30525E-10         0.17938E-10         0.00000E+00
    0.25114E-10         0.28366E-10         0.00000E+00
    0.19091E-10         0.30448E-10         0.00000E+00
    0.13438E-10         0.32581E-10         0.00000E+00
    0.80844E-11         0.33563E-10         0.00000E+00
    0.31189E-11         0.33527E-10         0.00000E+00
   -0.13939E-11         0.32622E-10         0.00000E+00
   -0.53979E-11         0.30891E-10         0.00000E+00
   -0.88307E-11         0.28424E-10         0.00000E+00
   -0.11625E-10         0.25297E-10         0.00000E+00
   -0.13703E-10         0.21595E-10         0.00000E+00
   -0.14967E-10         0.17415E-10         0.00000E+00
   -0.15335E-10         0.12858E-10         0.00000E+00
   -0.14608E-10         0.81165E-11         0.00000E+00
   -0.12762E-10         0.32712E-11         0.00000E+00
    0.35431E-10         0.22997E-10         0.00000E+00
    0.28837E-10         0.35313E-10         0.00000E+00
    0.21550E-10         0.36812E-10         0.00000E+00
    0.14759E-10         0.38659E-10         0.00000E+00
    0.83508E-11         0.39247E-10         0.00000E+00
    0.24177E-11         0.38741E-10         0.00000E+00
   -0.29806E-11         0.37319E-10         0.00000E+00
   -0.77925E-11         0.35010E-10         0.00000E+00
   -0.11958E-10         0.31903E-10         0.00000E+00
   -0.15409E-10         0.28064E-10         0.00000E+00
   -0.18060E-10         0.23556E-10         0.00000E+00
   -0.19800E-10         0.18459E-10         0.00000E+00
   -0.20524E-10         0.12907E-10         0.00000E+00
   -0.19997E-10         0.68135E-11         0.00000E+00
   -0.18160E-10         0.89029E-12         0.00000E+00
    0.40265E-10         0.29133E-10         0.00000E+00
    0.32365E-10         0.43671E-10         0.00000E+00
    0.23702E-10         0.44405E-10         0.00000E+00
    0.15687E-10         0.45872E-10         0.00000E+00
    0.81566E-11         0.45972E-10         0.00000E+00
    0.11978E-11         0.44908E-10         0.00000E+00
   -0.51403E-11         0.42889E-10         0.00000E+00
   -0.10819E-10         0.39930E-10         0.00000E+00
   -0.15786E-10         0.36115E-10         0.00000E+00
   -0.19979E-10         0.31495E-10         0.00000E+00
   -0.23309E-10         0.26105E-10         0.00000E+00
   -0.25654E-10         0.19995E-10         0.00000E+00
   -0.26887E-10         0.13328E-10         0.00000E+00
   -0.26735E-10         0.57142E-11         0.00000E+00
   -0.25092E-10        -0.14908E-11         0.00000E+00
    0.44885E-10         0.36460E-10         0.00000E+00
    0.35559E-10         0.53570E-10         0.00000E+00
    0.25412E-10         0.53316E-10         0.00000E+00
    0.16096E-10         0.54291E-10         0.00000E+00
    0.73860E-11         0.53794E-10         0.00000E+00
   -0.64446E-12         0.52075E-10         0.00000E+00
   -0.79656E-11         0.49381E-10         0.00000E+00
   -0.14559E-10         0.45710E-10         0.00000E+00
   -0.20392E-10         0.41136E-10         0.00000E+00
   -0.25415E-10         0.35691E-10         0.00000E+00
   -0.29544E-10         0.29368E-10         0.00000E+00
   -0.32647E-10         0.22181E-10         0.00000E+00
   -0.34574E-10         0.14301E-10         0.00000E+00
   -0.35017E-10         0.50326E-11         0.00000E+00
   -0.33804E-10        -0.36656E-11         0.00000E+00
    0.49132E-10         0.45085E-10         0.00000E+00
    0.38270E-10         0.65132E-10         0.00000E+00
    0.26545E-10         0.63628E-10         0.00000E+00
    0.15867E-10         0.63972E-10         0.00000E+00
    0.59367E-11         0.62754E-10         0.00000E+00
   -0.31917E-11         0.60274E-10         0.00000E+00
   -0.11518E-10         0.56829E-10         0.00000E+00
   -0.19058E-10         0.52394E-10         0.00000E+00
   -0.25808E-10         0.47035E-10         0.00000E+00
   -0.31745E-10         0.40751E-10         0.00000E+00
   -0.36797E-10         0.33489E-10         0.00000E+00
   -0.40836E-10         0.25202E-10         0.00000E+00
   -0.43682E-10         0.16052E-10         0.00000E+00
   -0.45000E-10         0.50441E-11         0.00000E+00
   -0.44527E-10        -0.53642E-11         0.00000E+00
    0.52790E-10         0.55107E-10         0.00000E+00
    0.40301E-10         0.78460E-10         0.00000E+00
    0.26924E-10         0.75403E-10         0.00000E+00
    0.14846E-10         0.74953E-10         0.00000E+00
    0.36817E-11         0.72867E-10         0.00000E+00
   -0.65406E-11         0.69512E-10         0.00000E+00
   -0.15863E-10         0.65241E-10         0.00000E+00
   -0.24348E-10         0.60007E-10         0.00000E+00
   -0.32042E-10         0.53865E-10         0.00000E+00
   -0.38961E-10         0.46776E-10         0.00000E+00
   -0.45065E-10         0.38621E-10         0.00000E+00
   -0.50236E-10         0.29279E-10         0.00000E+00
   -0.54270E-10         0.18856E-10         0.00000E+00
   -0.56812E-10         0.61010E-11         0.00000E+00
   -0.57478E-10        -0.62293E-11         0.00000E+00
    0.55617E-10         0.66603E-10         0.00000E+00
    0.41435E-10         0.93635E-10         0.00000E+00
    0.26360E-10         0.88681E-10         0.00000E+00
    0.12870E-10         0.87243E-10         0.00000E+00
    0.49351E-12         0.84118E-10         0.00000E+00
   -0.10777E-10         0.79754E-10         0.00000E+00
   -0.21038E-10         0.74582E-10         0.00000E+00
   -0.30421E-10         0.68534E-10         0.00000E+00
   -0.39041E-10         0.61652E-10         0.00000E+00
   -0.46982E-10         0.53849E-10         0.00000E+00
   -0.54257E-10         0.44928E-10         0.00000E+00
   -0.60774E-10         0.34660E-10         0.00000E+00
   -0.66313E-10         0.23048E-10         0.00000E+00
   -0.70512E-10         0.86503E-11         0.00000E+00
   -0.72832E-10        -0.57922E-11         0.00000E+00
    0.57312E-10         0.79630E-10         0.00000E+00
    0.41388E-10         0.11071E-09         0.00000E+00
    0.24586E-10         0.10348E-09         0.00000E+00
    0.97020E-11         0.10082E-09         0.00000E+00
   -0.38240E-11         0.96444E-10         0.00000E+00
   -0.16040E-10         0.90914E-10         0.00000E+00
   -0.27117E-10         0.84760E-10         0.00000E+00
   -0.37277E-10         0.77899E-10         0.00000E+00
   -0.46741E-10         0.70371E-10         0.00000E+00
   -0.55692E-10         0.62023E-10         0.00000E+00
   -0.64227E-10         0.52563E-10         0.00000E+00
   -0.72310E-10         0.41624E-10         0.00000E+00
   -0.79714E-10         0.29026E-10         0.00000E+00
   -0.86093E-10         0.13251E-10         0.00000E+00
   -0.90713E-10        -0.34518E-11         0.00000E+00
    0.57614E-10         0.94226E-10         0.00000E+00
    0.39926E-10         0.12973E-09         0.00000E+00
    0.21398E-10         0.11979E-09         0.00000E+00
    0.51651E-11         0.11562E-09         0.00000E+00
   -0.93981E-11         0.10973E-09         0.00000E+00
   -0.22385E-10         0.10283E-09         0.00000E+00
   -0.34061E-10         0.95595E-10         0.00000E+00
   -0.44777E-10         0.87942E-10         0.00000E+00
   -0.54902E-10         0.79917E-10         0.00000E+00
   -0.64767E-10         0.71292E-10         0.00000E+00
   -0.74600E-10         0.61661E-10         0.00000E+00
   -0.84463E-10         0.50472E-10         0.00000E+00
   -0.94141E-10         0.37260E-10         0.00000E+00
   -0.10334E-09         0.20598E-10         0.00000E+00
   -0.11110E-09         0.15733E-11         0.00000E+00
    0.56147E-10         0.11043E-09         0.00000E+00
    0.36612E-10         0.15074E-09         0.00000E+00
    0.16301E-10         0.13762E-09         0.00000E+00
   -0.12323E-11         0.13156E-09         0.00000E+00
   -0.16671E-10         0.12379E-09         0.00000E+00
   -0.30158E-10         0.11524E-09         0.00000E+00
   -0.42086E-10         0.10678E-09         0.00000E+00
   -0.52988E-10         0.98371E-10         0.00000E+00
   -0.63441E-10         0.90067E-10         0.00000E+00
   -0.73992E-10         0.81558E-10         0.00000E+00
   -0.85064E-10         0.72301E-10         0.00000E+00
   -0.96876E-10         0.61507E-10         0.00000E+00
   -0.10925E-09         0.48283E-10         0.00000E+00
   -0.12202E-09         0.31540E-10         0.00000E+00
   -0.13388E-09         0.10249E-10         0.00000E+00
    0.52791E-10         0.12831E-09         0.00000E+00
    0.31361E-10         0.17383E-09         0.00000E+00
    0.92298E-11         0.15698E-09         0.00000E+00
   -0.95506E-11         0.14852E-09         0.00000E+00
   -0.25636E-10         0.13836E-09         0.00000E+00
   -0.39226E-10         0.12775E-09         0.00000E+00
   -0.50882E-10         0.11786E-09         0.00000E+00
   -0.61392E-10         0.10871E-09         0.00000E+00
   -0.71629E-10         0.10042E-09         0.00000E+00
   -0.82444E-10         0.92571E-10         0.00000E+00
   -0.94554E-10         0.84470E-10         0.00000E+00
   -0.10842E-09         0.75014E-10         0.00000E+00
   -0.12397E-09         0.62709E-10         0.00000E+00
   -0.14121E-09         0.47117E-10         0.00000E+00
   -0.15851E-09         0.23839E-10         0.00000E+00
    0.47207E-10         0.14812E-09         0.00000E+00
    0.23337E-10         0.19932E-09         0.00000E+00
   -0.10451E-11         0.17800E-09         0.00000E+00
   -0.21142E-10         0.16638E-09         0.00000E+00
   -0.37606E-10         0.15305E-09         0.00000E+00
   -0.50725E-10         0.13977E-09         0.00000E+00
   -0.61329E-10         0.12810E-09         0.00000E+00
   -0.70569E-10         0.11822E-09         0.00000E+00
   -0.79732E-10         0.11031E-09         0.00000E+00
   -0.90096E-10         0.10386E-09         0.00000E+00
   -0.10279E-09         0.97985E-10         0.00000E+00
   -0.11863E-09         0.91208E-10         0.00000E+00
   -0.13774E-09         0.81176E-10         0.00000E+00
   -0.16042E-09         0.68563E-10         0.00000E+00
   -0.18455E-09         0.43832E-10         0.00000E+00
    0.39280E-10         0.17015E-09         0.00000E+00
    0.12728E-10         0.22771E-09         0.00000E+00
   -0.14207E-10         0.20092E-09         0.00000E+00
   -0.35649E-10         0.18499E-09         0.00000E+00
   -0.52070E-10         0.16732E-09         0.00000E+00
   -0.63882E-10         0.15043E-09         0.00000E+00
   -0.72295E-10         0.13646E-09         0.00000E+00
   -0.78980E-10         0.12579E-09         0.00000E+00
   -0.85794E-10         0.11872E-09         0.00000E+00
   -0.94594E-10         0.11461E-09         0.00000E+00
   -0.10709E-09         0.11242E-09         0.00000E+00
   -0.12465E-09         0.11018E-09         0.00000E+00
   -0.14773E-09         0.10439E-09         0.00000E+00
   -0.17707E-09         0.97363E-10         0.00000E+00
   -0.21009E-09         0.72194E-10         0.00000E+00
    0.30406E-10         0.19582E-09         0.00000E+00
   -0.14134E-11         0.26042E-09         0.00000E+00
   -0.32769E-10         0.22651E-09         0.00000E+00
   -0.56198E-10         0.20428E-09         0.00000E+00
   -0.72138E-10         0.18039E-09         0.00000E+00
   -0.81434E-10         0.15847E-09         0.00000E+00
   -0.86000E-10         0.14140E-09         0.00000E+00
   -0.88273E-10         0.12980E-09         0.00000E+00
   -0.90871E-10         0.12411E-09         0.00000E+00
   -0.96397E-10         0.12355E-09         0.00000E+00
   -0.10734E-09         0.12692E-09         0.00000E+00
   -0.12585E-09         0.13175E-09         0.00000E+00
   -0.15295E-09         0.13301E-09         0.00000E+00
   -0.19021E-09         0.13535E-09         0.00000E+00
   -0.23434E-09         0.11136E-09         0.00000E+00
    0.15391E-10         0.22628E-09         0.00000E+00
   -0.22589E-10         0.29976E-09         0.00000E+00
   -0.59590E-10         0.25552E-09         0.00000E+00
   -0.84830E-10         0.22393E-09         0.00000E+00
   -0.99121E-10         0.19097E-09         0.00000E+00
   -0.10391E-09         0.16198E-09         0.00000E+00
   -0.10218E-09         0.14072E-09         0.00000E+00
   -0.97427E-10         0.12799E-09         0.00000E+00
   -0.93192E-10         0.12428E-09         0.00000E+00
   -0.92979E-10         0.12869E-09         0.00000E+00
   -0.10027E-09         0.14001E-09         0.00000E+00
   -0.11837E-09         0.15527E-09         0.00000E+00
   -0.14927E-09         0.16748E-09         0.00000E+00
   -0.19561E-09         0.18447E-09         0.00000E+00
   -0.25316E-09         0.16392E-09         0.00000E+00
    0.11218E-10         0.26661E-09         0.00000E+00
   -0.40797E-10         0.34942E-09         0.00000E+00
   -0.88278E-10         0.29034E-09         0.00000E+00
   -0.11750E-09         0.24358E-09         0.00000E+00
   -0.12897E-09         0.19708E-09         0.00000E+00
   -0.12649E-09         0.15817E-09         0.00000E+00
   -0.11508E-09         0.13140E-09         0.00000E+00
   -0.99807E-10         0.11729E-09         0.00000E+00
   -0.85268E-10         0.11622E-09         0.00000E+00
   -0.75892E-10         0.12717E-09         0.00000E+00
   -0.76337E-10         0.14927E-09         0.00000E+00
   -0.91613E-10         0.17939E-09         0.00000E+00
   -0.12573E-09         0.20838E-09         0.00000E+00
   -0.18396E-09         0.24814E-09         0.00000E+00
   -0.26214E-09         0.23598E-09         0.00000E+00
   -0.21656E-10         0.32490E-09         0.00000E+00
   -0.99173E-10         0.42066E-09         0.00000E+00
   -0.16488E-09         0.33229E-09         0.00000E+00
   -0.19513E-09         0.26110E-09         0.00000E+00
   -0.19886E-09         0.19476E-09         0.00000E+00
   -0.18349E-09         0.14265E-09         0.00000E+00
   -0.15715E-09         0.10918E-09         0.00000E+00
   -0.12658E-09         0.93661E-10         0.00000E+00
   -0.97163E-10         0.95886E-10         0.00000E+00
   -0.73850E-10         0.11481E-09         0.00000E+00
   -0.62344E-10         0.15057E-09         0.00000E+00
   -0.69703E-10         0.20072E-09         0.00000E+00
   -0.10244E-09         0.25390E-09         0.00000E+00
   -0.16984E-09         0.32825E-09         0.00000E+00
   -0.26441E-09         0.32863E-09         0.00000E+00
   -0.22327E-10         0.40272E-09         0.00000E+00
   -0.11746E-09         0.51549E-09         0.00000E+00
   -0.19724E-09         0.38295E-09         0.00000E+00
   -0.22867E-09         0.27213E-09         0.00000E+00
   -0.21881E-09         0.17760E-09         0.00000E+00
   -0.18360E-09         0.10923E-09         0.00000E+00
   -0.13622E-09         0.68881E-10         0.00000E+00
   -0.85337E-10         0.52506E-10         0.00000E+00
   -0.36336E-10         0.58620E-10         0.00000E+00
    0.62086E-11         0.86217E-10         0.00000E+00
    0.35999E-10         0.13787E-09         0.00000E+00
    0.42831E-10         0.21395E-09         0.00000E+00
    0.12839E-10         0.30339E-09         0.00000E+00
   -0.73469E-10         0.43246E-09         0.00000E+00
   -0.21630E-09         0.46182E-09         0.00000E+00
    0.15335E-10         0.58788E-09         0.00000E+00
   -0.24546E-09         0.68626E-09         0.00000E+00
   -0.39946E-09         0.44597E-09         0.00000E+00
   -0.42349E-09         0.26456E-09         0.00000E+00
   -0.38131E-09         0.13312E-09         0.00000E+00
   -0.31163E-09         0.48826E-10         0.00000E+00
   -0.23401E-09         0.42765E-11         0.00000E+00
   -0.15688E-09        -0.10906E-10         0.00000E+00
   -0.83271E-10        -0.57442E-12         0.00000E+00
   -0.14863E-10         0.34460E-10         0.00000E+00
    0.44063E-10         0.10091E-09         0.00000E+00
    0.82189E-10         0.20595E-09         0.00000E+00
    0.79005E-10         0.34457E-09         0.00000E+00
   -0.99202E-11         0.56651E-09         0.00000E+00
   -0.19151E-09         0.65218E-09         0.00000E+00
   -0.50602E-09         0.77719E-09         0.00000E+00
   -0.66020E-09         0.91192E-09         0.00000E+00
   -0.75427E-09         0.46839E-09         0.00000E+00
   -0.69024E-09         0.20214E-09         0.00000E+00
   -0.57672E-09         0.39848E-10         0.00000E+00
   -0.45277E-09        -0.51528E-10         0.00000E+00
   -0.33478E-09        -0.90977E-10         0.00000E+00
   -0.22732E-09        -0.10025E-09         0.00000E+00
   -0.12633E-09        -0.85830E-10         0.00000E+00
   -0.26579E-10        -0.48441E-10         0.00000E+00
    0.72562E-10         0.25740E-10         0.00000E+00
    0.16262E-09         0.15293E-09         0.00000E+00
    0.21634E-09         0.34706E-09         0.00000E+00
    0.16065E-09         0.70864E-09         0.00000E+00
   -0.21659E-10         0.87395E-09         0.00000E+00
    0.89986E-09         0.13721E-08         0.00000E+00
    0.10920E-09         0.12619E-08         0.00000E+00
   -0.12319E-09         0.44491E-09         0.00000E+00
   -0.19099E-10         0.57485E-10         0.00000E+00
    0.17662E-09        -0.12474E-09         0.00000E+00
    0.36367E-09        -0.19794E-09         0.00000E+00
    0.51571E-09        -0.21459E-09         0.00000E+00
    0.64182E-09        -0.21020E-09         0.00000E+00
    0.75781E-09        -0.19286E-09         0.00000E+00
    0.88012E-09        -0.16347E-09         0.00000E+00
    0.10225E-08        -0.10078E-09         0.00000E+00
    0.11798E-08         0.32162E-10         0.00000E+00
    0.13243E-08         0.26954E-09         0.00000E+00
    0.12114E-08         0.95477E-09         0.00000E+00
    0.42826E-09         0.15933E-08         0.00000E+00
   -0.21965E-08         0.35659E-08         0.00000E+00
   -0.41644E-08         0.18266E-08         0.00000E+00
   -0.40955E-08         0.43679E-10         0.00000E+00
   -0.33987E-08        -0.34215E-09         0.00000E+00
   -0.28997E-08        -0.41982E-09         0.00000E+00
   -0.25854E-08        -0.40420E-09         0.00000E+00
   -0.23804E-08        -0.36542E-09         0.00000E+00
   -0.22299E-08        -0.33596E-09         0.00000E+00
   -0.20952E-08        -0.31783E-09         0.00000E+00
   -0.19424E-08        -0.31355E-09         0.00000E+00
   -0.17299E-08        -0.30568E-09         0.00000E+00
   -0.14000E-08        -0.25009E-09         0.00000E+00
   -0.87296E-09        -0.11978E-09         0.00000E+00
   -0.16718E-09         0.75125E-09         0.00000E+00
   -0.34176E-09         0.27545E-08         0.00000E+00
   -0.16191E-07         0.84617E-09         0.00000E+00
   -0.92077E-08        -0.46932E-09         0.00000E+00
   -0.54097E-08        -0.15273E-08         0.00000E+00
   -0.36948E-08        -0.11828E-08         0.00000E+00
   -0.29181E-08        -0.85490E-09         0.00000E+00
   -0.25390E-08        -0.66241E-09         0.00000E+00
   -0.23145E-08        -0.53673E-09         0.00000E+00
   -0.21575E-08        -0.47220E-09         0.00000E+00
   -0.20189E-08        -0.45487E-09         0.00000E+00
   -0.18597E-08        -0.48844E-09         0.00000E+00
   -0.16275E-08        -0.57555E-09         0.00000E+00
   -0.12007E-08        -0.73692E-09         0.00000E+00
   -0.33779E-09        -0.10229E-08         0.00000E+00
    0.17100E-08        -0.10992E-08         0.00000E+00
    0.69197E-08        -0.43012E-09         0.00000E+00
    0.81243E-07        -0.17600E-08         0.00000E+00
    0.77939E-07        -0.15433E-08         0.00000E+00
    0.75042E-07        -0.13540E-08         0.00000E+00
    0.72830E-07        -0.85846E-09         0.00000E+00
    0.71422E-07        -0.54877E-09         0.00000E+00
    0.70474E-07        -0.39941E-09         0.00000E+00
    0.69762E-07        -0.31242E-09         0.00000E+00
    0.69179E-07        -0.27059E-09         0.00000E+00
    0.68647E-07        -0.26222E-09         0.00000E+00
    0.68095E-07        -0.28903E-09         0.00000E+00
    0.67447E-07        -0.35907E-09         0.00000E+00
    0.66578E-07        -0.51056E-09         0.00000E+00
    0.65266E-07        -0.80083E-09         0.00000E+00
    0.63181E-07        -0.12841E-08         0.00000E+00
    0.59812E-07        -0.20854E-08         0.00000E+00
POINT_DATA        496
VECTORS vDarcyNodal double 
    0.83275E-11         0.57974E-11         0.00000E+00
    0.88699E-11         0.82697E-11         0.00000E+00
    0.91110E-11         0.12047E-10         0.00000E+00
    0.88526E-11         0.14621E-10         0.00000E+00
    0.85239E-11         0.16834E-10         0.00000E+00
    0.81962E-11         0.18383E-10         0.00000E+00
    0.78842E-11         0.19288E-10         0.00000E+00
    0.76038E-11         0.19603E-10         0.00000E+00
    0.73637E-11         0.19398E-10         0.00000E+00
    0.71730E-11         0.18759E-10         0.00000E+00
    0.70387E-11         0.17799E-10         0.00000E+00
    0.69755E-11         0.16657E-10         0.00000E+00
    0.70023E-11         0.15367E-10         0.00000E+00
    0.71291E-11         0.14644E-10         0.00000E+00
    0.76342E-11         0.13936E-10         0.00000E+00
    0.85655E-11         0.13260E-10         0.00000E+00
    0.71082E-11         0.52550E-11         0.00000E+00
    0.73433E-11         0.78779E-11         0.00000E+00
    0.71627E-11         0.12056E-10         0.00000E+00
    0.65646E-11         0.14915E-10         0.00000E+00
    0.58881E-11         0.17162E-10         0.00000E+00
    0.52182E-11         0.18703E-10         0.00000E+00
    0.45883E-11         0.19584E-10         0.00000E+00
    0.40229E-11         0.19863E-10         0.00000E+00
    0.35386E-11         0.19614E-10         0.00000E+00
    0.31524E-11         0.18922E-10         0.00000E+00
    0.28790E-11         0.17898E-10         0.00000E+00
    0.27427E-11         0.16675E-10         0.00000E+00
    0.27746E-11         0.15290E-10         0.00000E+00
    0.29965E-11         0.14329E-10         0.00000E+00
    0.37300E-11         0.13218E-10         0.00000E+00
    0.49605E-11         0.12328E-10         0.00000E+00
    0.87969E-11         0.53272E-11         0.00000E+00
    0.79406E-11         0.82152E-11         0.00000E+00
    0.65878E-11         0.12826E-10         0.00000E+00
    0.51881E-11         0.15896E-10         0.00000E+00
    0.37621E-11         0.18180E-10         0.00000E+00
    0.23832E-11         0.19683E-10         0.00000E+00
    0.11020E-11         0.20483E-10         0.00000E+00
   -0.46460E-13         0.20653E-10         0.00000E+00
   -0.10307E-11         0.20269E-10         0.00000E+00
   -0.18204E-11         0.19419E-10         0.00000E+00
   -0.23864E-11         0.18209E-10         0.00000E+00
   -0.26903E-11         0.16761E-10         0.00000E+00
   -0.26878E-11         0.15113E-10         0.00000E+00
   -0.23447E-11         0.13689E-10         0.00000E+00
   -0.14331E-11         0.11972E-10         0.00000E+00
   -0.10765E-12         0.10799E-10         0.00000E+00
    0.14468E-10         0.69677E-11         0.00000E+00
    0.12538E-10         0.10087E-10         0.00000E+00
    0.99879E-11         0.14808E-10         0.00000E+00
    0.76710E-11         0.17740E-10         0.00000E+00
    0.54183E-11         0.19967E-10         0.00000E+00
    0.32827E-11         0.21363E-10         0.00000E+00
    0.13135E-11         0.22014E-10         0.00000E+00
   -0.44902E-12         0.21996E-10         0.00000E+00
   -0.19628E-11         0.21388E-10         0.00000E+00
   -0.31872E-11         0.20277E-10         0.00000E+00
   -0.40810E-11         0.18768E-10         0.00000E+00
   -0.45970E-11         0.16976E-10         0.00000E+00
   -0.46874E-11         0.14944E-10         0.00000E+00
   -0.43257E-11         0.13074E-10         0.00000E+00
   -0.34146E-11         0.10981E-10         0.00000E+00
   -0.22089E-11         0.96775E-11         0.00000E+00
    0.19683E-10         0.91881E-11         0.00000E+00
    0.17164E-10         0.12696E-10         0.00000E+00
    0.13688E-10         0.17693E-10         0.00000E+00
    0.10458E-10         0.20465E-10         0.00000E+00
    0.73401E-11         0.22569E-10         0.00000E+00
    0.44017E-11         0.23788E-10         0.00000E+00
    0.17009E-11         0.24215E-10         0.00000E+00
   -0.71666E-12         0.23929E-10         0.00000E+00
   -0.28009E-11         0.23007E-10         0.00000E+00
   -0.45019E-11         0.21537E-10         0.00000E+00
   -0.57692E-11         0.19619E-10         0.00000E+00
   -0.65453E-11         0.17368E-10         0.00000E+00
   -0.67713E-11         0.14842E-10         0.00000E+00
   -0.64249E-11         0.12416E-10         0.00000E+00
   -0.53458E-11         0.98551E-11         0.00000E+00
   -0.37926E-11         0.83873E-11         0.00000E+00
    0.24787E-10         0.12005E-10         0.00000E+00
    0.21550E-10         0.16082E-10         0.00000E+00
    0.17036E-10         0.21514E-10         0.00000E+00
    0.12847E-10         0.24088E-10         0.00000E+00
    0.88131E-11         0.26024E-10         0.00000E+00
    0.50208E-11         0.27002E-10         0.00000E+00
    0.15388E-11         0.27132E-10         0.00000E+00
   -0.15826E-11         0.26497E-10         0.00000E+00
   -0.42868E-11         0.25173E-10         0.00000E+00
   -0.65166E-11         0.23246E-10         0.00000E+00
   -0.82128E-11         0.20811E-10         0.00000E+00
   -0.93052E-11         0.17978E-10         0.00000E+00
   -0.97182E-11         0.14824E-10         0.00000E+00
   -0.94162E-11         0.11648E-10         0.00000E+00
   -0.81525E-11         0.83483E-11         0.00000E+00
   -0.61781E-11         0.65711E-11         0.00000E+00
    0.30120E-10         0.15663E-10         0.00000E+00
    0.26016E-10         0.20446E-10         0.00000E+00
    0.20345E-10         0.26395E-10         0.00000E+00
    0.15111E-10         0.28688E-10         0.00000E+00
    0.10092E-10         0.30395E-10         0.00000E+00
    0.53861E-11         0.31062E-10         0.00000E+00
    0.10671E-11         0.30818E-10         0.00000E+00
   -0.28130E-11         0.29754E-10         0.00000E+00
   -0.61939E-11         0.27941E-10         0.00000E+00
   -0.90137E-11         0.25463E-10         0.00000E+00
   -0.11206E-10         0.22407E-10         0.00000E+00
   -0.12687E-10         0.18873E-10         0.00000E+00
   -0.13365E-10         0.14953E-10         0.00000E+00
   -0.13184E-10         0.10851E-10         0.00000E+00
   -0.11840E-10         0.66170E-11         0.00000E+00
   -0.96061E-11         0.44386E-11         0.00000E+00
    0.35508E-10         0.20213E-10         0.00000E+00
    0.30449E-10         0.25858E-10         0.00000E+00
    0.23502E-10         0.32419E-10         0.00000E+00
    0.17138E-10         0.34340E-10         0.00000E+00
    0.11060E-10         0.35749E-10         0.00000E+00
    0.53755E-11         0.36028E-10         0.00000E+00
    0.16108E-12         0.35331E-10         0.00000E+00
   -0.45356E-11         0.33758E-10         0.00000E+00
   -0.86548E-11         0.31374E-10         0.00000E+00
   -0.12134E-10         0.28258E-10         0.00000E+00
   -0.14901E-10         0.24484E-10         0.00000E+00
   -0.16862E-10         0.20137E-10         0.00000E+00
   -0.17905E-10         0.15320E-10         0.00000E+00
   -0.17954E-10         0.10124E-10         0.00000E+00
   -0.16651E-10         0.47707E-11         0.00000E+00
   -0.14270E-10         0.21037E-11         0.00000E+00
    0.40916E-10         0.25782E-10         0.00000E+00
    0.34780E-10         0.32452E-10         0.00000E+00
    0.26422E-10         0.39706E-10         0.00000E+00
    0.18829E-10         0.41131E-10         0.00000E+00
    0.11616E-10         0.42157E-10         0.00000E+00
    0.48910E-11         0.41961E-10         0.00000E+00
   -0.12755E-11         0.40729E-10         0.00000E+00
   -0.68454E-11         0.38570E-10         0.00000E+00
   -0.11766E-10         0.35539E-10         0.00000E+00
   -0.15978E-10         0.31709E-10         0.00000E+00
   -0.19410E-10         0.27135E-10         0.00000E+00
   -0.21959E-10         0.21877E-10         0.00000E+00
   -0.23495E-10         0.16045E-10         0.00000E+00
   -0.23916E-10         0.95968E-11         0.00000E+00
   -0.22817E-10         0.29331E-11         0.00000E+00
   -0.20436E-10        -0.32314E-12         0.00000E+00
    0.46238E-10         0.32485E-10         0.00000E+00
    0.38912E-10         0.40352E-10         0.00000E+00
    0.29013E-10         0.48370E-10         0.00000E+00
    0.20101E-10         0.49146E-10         0.00000E+00
    0.11682E-10         0.49687E-10         0.00000E+00
    0.38602E-11         0.48919E-10         0.00000E+00
   -0.33068E-11         0.47067E-10         0.00000E+00
   -0.97991E-11         0.44249E-10         0.00000E+00
   -0.15579E-10         0.40506E-10         0.00000E+00
   -0.20599E-10         0.35902E-10         0.00000E+00
   -0.24795E-10         0.30465E-10         0.00000E+00
   -0.28058E-10         0.24223E-10         0.00000E+00
   -0.30244E-10         0.17278E-10         0.00000E+00
   -0.31217E-10         0.94450E-11         0.00000E+00
   -0.30536E-10         0.12902E-11         0.00000E+00
   -0.28361E-10        -0.26585E-11         0.00000E+00
    0.51321E-10         0.40434E-10         0.00000E+00
    0.42696E-10         0.49678E-10         0.00000E+00
    0.31134E-10         0.58517E-10         0.00000E+00
    0.20822E-10         0.58461E-10         0.00000E+00
    0.11141E-10         0.58398E-10         0.00000E+00
    0.21816E-11         0.56950E-10         0.00000E+00
   -0.60178E-11         0.54389E-10         0.00000E+00
   -0.13466E-10         0.50842E-10         0.00000E+00
   -0.20151E-10         0.46339E-10         0.00000E+00
   -0.26050E-10         0.40925E-10         0.00000E+00
   -0.31110E-10         0.34594E-10         0.00000E+00
   -0.35231E-10         0.27326E-10         0.00000E+00
   -0.38252E-10         0.19204E-10         0.00000E+00
   -0.40003E-10         0.98886E-11         0.00000E+00
   -0.40015E-10         0.76742E-13         0.00000E+00
   -0.38316E-10        -0.46728E-11         0.00000E+00
    0.55972E-10         0.49736E-10         0.00000E+00
    0.45950E-10         0.60539E-10         0.00000E+00
    0.32622E-10         0.70243E-10         0.00000E+00
    0.20847E-10         0.69139E-10         0.00000E+00
    0.98659E-11         0.68328E-10         0.00000E+00
   -0.24747E-12         0.66078E-10         0.00000E+00
   -0.94848E-11         0.62715E-10         0.00000E+00
   -0.17897E-10         0.58382E-10         0.00000E+00
   -0.25510E-10         0.53090E-10         0.00000E+00
   -0.32340E-10         0.46861E-10         0.00000E+00
   -0.38365E-10         0.39646E-10         0.00000E+00
   -0.43498E-10         0.31365E-10         0.00000E+00
   -0.47574E-10         0.22050E-10         0.00000E+00
   -0.50378E-10         0.11207E-10         0.00000E+00
   -0.51435E-10        -0.39693E-12         0.00000E+00
   -0.50570E-10        -0.60557E-11         0.00000E+00
    0.59951E-10         0.60478E-10         0.00000E+00
    0.48455E-10         0.73028E-10         0.00000E+00
    0.33281E-10         0.83620E-10         0.00000E+00
    0.20003E-10         0.81217E-10         0.00000E+00
    0.77128E-11         0.79492E-10         0.00000E+00
   -0.35376E-11         0.76301E-10         0.00000E+00
   -0.13780E-10         0.72038E-10         0.00000E+00
   -0.23121E-10         0.66867E-10         0.00000E+00
   -0.31648E-10         0.60783E-10         0.00000E+00
   -0.39435E-10         0.53780E-10         0.00000E+00
   -0.46508E-10         0.45751E-10         0.00000E+00
   -0.52814E-10         0.36535E-10         0.00000E+00
   -0.58195E-10         0.26084E-10         0.00000E+00
   -0.62387E-10         0.13750E-10         0.00000E+00
   -0.64937E-10         0.26870E-12         0.00000E+00
   -0.65374E-10        -0.64028E-11         0.00000E+00
    0.62978E-10         0.72727E-10         0.00000E+00
    0.49951E-10         0.87209E-10         0.00000E+00
    0.32872E-10         0.98696E-10         0.00000E+00
    0.18074E-10         0.94707E-10         0.00000E+00
    0.44980E-11         0.91869E-10         0.00000E+00
   -0.78285E-11         0.87571E-10         0.00000E+00
   -0.18989E-10         0.82299E-10         0.00000E+00
   -0.29166E-10         0.76249E-10         0.00000E+00
   -0.38532E-10         0.69403E-10         0.00000E+00
   -0.47250E-10         0.61721E-10         0.00000E+00
   -0.55424E-10         0.53026E-10         0.00000E+00
   -0.63060E-10         0.43052E-10         0.00000E+00
   -0.70024E-10         0.31623E-10         0.00000E+00
   -0.76002E-10         0.17949E-10         0.00000E+00
   -0.80603E-10         0.25894E-11         0.00000E+00
   -0.82943E-10        -0.51815E-11         0.00000E+00
    0.64761E-10         0.86532E-10         0.00000E+00
    0.50165E-10         0.10313E-09         0.00000E+00
    0.31149E-10         0.11550E-09         0.00000E+00
    0.14835E-10         0.10959E-09         0.00000E+00
    0.32199E-13         0.10539E-09         0.00000E+00
   -0.13254E-10         0.99787E-10         0.00000E+00
   -0.25171E-10         0.93375E-10         0.00000E+00
   -0.36006E-10         0.86410E-10         0.00000E+00
   -0.46049E-10         0.78867E-10         0.00000E+00
   -0.55595E-10         0.70672E-10         0.00000E+00
   -0.64864E-10         0.61560E-10         0.00000E+00
   -0.73963E-10         0.51135E-10         0.00000E+00
   -0.82810E-10         0.39027E-10         0.00000E+00
   -0.91044E-10         0.24328E-10         0.00000E+00
   -0.98392E-10         0.72096E-11         0.00000E+00
   -0.10342E-09        -0.17220E-11         0.00000E+00
    0.64985E-10         0.10192E-09         0.00000E+00
    0.48776E-10         0.12082E-09         0.00000E+00
    0.27763E-10         0.13403E-09         0.00000E+00
    0.99365E-11         0.12582E-09         0.00000E+00
   -0.60037E-11         0.11996E-09         0.00000E+00
   -0.20065E-10         0.11277E-09         0.00000E+00
   -0.32478E-10         0.10505E-09         0.00000E+00
   -0.43668E-10         0.97127E-10         0.00000E+00
   -0.54097E-10         0.88992E-10         0.00000E+00
   -0.64247E-10         0.80537E-10         0.00000E+00
   -0.74512E-10         0.71393E-10         0.00000E+00
   -0.85152E-10         0.60998E-10         0.00000E+00
   -0.96186E-10         0.48705E-10         0.00000E+00
   -0.10721E-09         0.33530E-10         0.00000E+00
   -0.11815E-09         0.14962E-10         0.00000E+00
   -0.12683E-09         0.48686E-11         0.00000E+00
    0.63409E-10         0.11895E-09         0.00000E+00
    0.45529E-10         0.14036E-09         0.00000E+00
    0.22444E-10         0.15434E-09         0.00000E+00
    0.30873E-11         0.14336E-09         0.00000E+00
   -0.13870E-10         0.13540E-09         0.00000E+00
   -0.28437E-10         0.12626E-09         0.00000E+00
   -0.40947E-10         0.11698E-09         0.00000E+00
   -0.52021E-10         0.10803E-09         0.00000E+00
   -0.62359E-10         0.99446E-10         0.00000E+00
   -0.72711E-10         0.91087E-10         0.00000E+00
   -0.83725E-10         0.82466E-10         0.00000E+00
   -0.95893E-10         0.72810E-10         0.00000E+00
   -0.10940E-09         0.61085E-10         0.00000E+00
   -0.12383E-09         0.46294E-10         0.00000E+00
   -0.13940E-09         0.26828E-10         0.00000E+00
   -0.15299E-09         0.15630E-10         0.00000E+00
    0.59902E-10         0.13768E-09         0.00000E+00
    0.40096E-10         0.16179E-09         0.00000E+00
    0.14602E-10         0.17647E-09         0.00000E+00
   -0.64170E-11         0.16214E-09         0.00000E+00
   -0.24275E-10         0.15148E-09         0.00000E+00
   -0.38967E-10         0.13985E-09         0.00000E+00
   -0.50984E-10         0.12863E-09         0.00000E+00
   -0.61227E-10         0.11854E-09         0.00000E+00
   -0.70734E-10         0.10968E-09         0.00000E+00
   -0.80627E-10         0.10190E-09         0.00000E+00
   -0.91914E-10         0.94575E-10         0.00000E+00
   -0.10543E-09         0.86674E-10         0.00000E+00
   -0.12162E-09         0.76639E-10         0.00000E+00
   -0.14009E-09         0.63532E-10         0.00000E+00
   -0.16154E-09         0.44128E-10         0.00000E+00
   -0.18153E-09         0.32049E-10         0.00000E+00
    0.54260E-10         0.15856E-09         0.00000E+00
    0.32228E-10         0.18566E-09         0.00000E+00
    0.38374E-11         0.20085E-09         0.00000E+00
   -0.19089E-10         0.18223E-09         0.00000E+00
   -0.37702E-10         0.16795E-09         0.00000E+00
   -0.51973E-10         0.15297E-09         0.00000E+00
   -0.62633E-10         0.13924E-09         0.00000E+00
   -0.70990E-10         0.12778E-09         0.00000E+00
   -0.78559E-10         0.11885E-09         0.00000E+00
   -0.86967E-10         0.11227E-09         0.00000E+00
   -0.97723E-10         0.10727E-09         0.00000E+00
   -0.11216E-09         0.10252E-09         0.00000E+00
   -0.13113E-09         0.95746E-10         0.00000E+00
   -0.15434E-09         0.86207E-10         0.00000E+00
   -0.18314E-09         0.68266E-10         0.00000E+00
   -0.21150E-09         0.55615E-10         0.00000E+00
    0.47676E-10         0.18174E-09         0.00000E+00
    0.22011E-10         0.21221E-09         0.00000E+00
   -0.10696E-10         0.22778E-09         0.00000E+00
   -0.36279E-10         0.20368E-09         0.00000E+00
   -0.55568E-10         0.18437E-09         0.00000E+00
   -0.68639E-10         0.16478E-09         0.00000E+00
   -0.76677E-10         0.14765E-09         0.00000E+00
   -0.81617E-10         0.13446E-09         0.00000E+00
   -0.85636E-10         0.12566E-09         0.00000E+00
   -0.91028E-10         0.12107E-09         0.00000E+00
   -0.99963E-10         0.11976E-09         0.00000E+00
   -0.11446E-09         0.12008E-09         0.00000E+00
   -0.13603E-09         0.11882E-09         0.00000E+00
   -0.16465E-09         0.11555E-09         0.00000E+00
   -0.20263E-09         0.10129E-09         0.00000E+00
   -0.24180E-09         0.88773E-10         0.00000E+00
    0.38130E-10         0.20989E-09         0.00000E+00
    0.76672E-11         0.24403E-09         0.00000E+00
   -0.31670E-10         0.25914E-09         0.00000E+00
   -0.60689E-10         0.22711E-09         0.00000E+00
   -0.80339E-10         0.20031E-09         0.00000E+00
   -0.90920E-10         0.17408E-09         0.00000E+00
   -0.94428E-10         0.15222E-09         0.00000E+00
   -0.93755E-10         0.13674E-09         0.00000E+00
   -0.91946E-10         0.12826E-09         0.00000E+00
   -0.92118E-10         0.12659E-09         0.00000E+00
   -0.97259E-10         0.13070E-09         0.00000E+00
   -0.11035E-09         0.13859E-09         0.00000E+00
   -0.13387E-09         0.14593E-09         0.00000E+00
   -0.16835E-09         0.15281E-09         0.00000E+00
   -0.21747E-09         0.14542E-09         0.00000E+00
   -0.27003E-09         0.13395E-09         0.00000E+00
    0.33469E-10         0.24267E-09         0.00000E+00
   -0.68595E-11         0.28201E-09         0.00000E+00
   -0.56527E-10         0.29614E-09         0.00000E+00
   -0.91342E-10         0.25235E-09         0.00000E+00
   -0.11099E-09         0.21460E-09         0.00000E+00
   -0.11710E-09         0.17887E-09         0.00000E+00
   -0.11330E-09         0.15049E-09         0.00000E+00
   -0.10397E-09         0.13198E-09         0.00000E+00
   -0.93265E-10         0.12402E-09         0.00000E+00
   -0.85196E-10         0.12638E-09         0.00000E+00
   -0.83676E-10         0.13800E-09         0.00000E+00
   -0.92936E-10         0.15669E-09         0.00000E+00
   -0.11705E-09         0.17682E-09         0.00000E+00
   -0.15795E-09         0.19914E-09         0.00000E+00
   -0.22162E-09         0.20297E-09         0.00000E+00
   -0.29368E-09         0.19389E-09         0.00000E+00
    0.23928E-10         0.29055E-09         0.00000E+00
   -0.34366E-10         0.33402E-09         0.00000E+00
   -0.10560E-09         0.34362E-09         0.00000E+00
   -0.14756E-09         0.28157E-09         0.00000E+00
   -0.16508E-09         0.22607E-09         0.00000E+00
   -0.16275E-09         0.17639E-09         0.00000E+00
   -0.14722E-09         0.13908E-09         0.00000E+00
   -0.12501E-09         0.11670E-09         0.00000E+00
   -0.10138E-09         0.10948E-09         0.00000E+00
   -0.81051E-10         0.11700E-09         0.00000E+00
   -0.68690E-10         0.13844E-09         0.00000E+00
   -0.69991E-10         0.17197E-09         0.00000E+00
   -0.91326E-10         0.21094E-09         0.00000E+00
   -0.13685E-09         0.25737E-09         0.00000E+00
   -0.21695E-09         0.28115E-09         0.00000E+00
   -0.30960E-09         0.27806E-09         0.00000E+00
    0.16919E-10         0.35926E-09         0.00000E+00
   -0.60903E-10         0.41154E-09         0.00000E+00
   -0.15573E-09         0.40933E-09         0.00000E+00
   -0.20639E-09         0.31182E-09         0.00000E+00
   -0.21741E-09         0.22979E-09         0.00000E+00
   -0.20026E-09         0.16102E-09         0.00000E+00
   -0.16684E-09         0.11274E-09         0.00000E+00
   -0.12654E-09         0.86136E-10         0.00000E+00
   -0.85382E-10         0.80064E-10         0.00000E+00
   -0.48116E-10         0.93691E-10         0.00000E+00
   -0.19525E-10         0.12694E-09         0.00000E+00
   -0.68203E-11         0.17933E-09         0.00000E+00
   -0.20052E-10         0.24368E-09         0.00000E+00
   -0.69547E-10         0.32477E-09         0.00000E+00
   -0.17376E-09         0.37573E-09         0.00000E+00
   -0.30695E-09         0.37919E-09         0.00000E+00
    0.89082E-10         0.44619E-09         0.00000E+00
   -0.96074E-10         0.50667E-09         0.00000E+00
   -0.26684E-09         0.48911E-09         0.00000E+00
   -0.32986E-09         0.34325E-09         0.00000E+00
   -0.32230E-09         0.21993E-09         0.00000E+00
   -0.27782E-09         0.12581E-09         0.00000E+00
   -0.21742E-09         0.65363E-10         0.00000E+00
   -0.15281E-09         0.35251E-10         0.00000E+00
   -0.89401E-10         0.31063E-10         0.00000E+00
   -0.30206E-10         0.51146E-10         0.00000E+00
    0.21552E-10         0.97146E-10         0.00000E+00
    0.58510E-10         0.17249E-09         0.00000E+00
    0.66510E-10         0.27367E-09         0.00000E+00
    0.25334E-10         0.41108E-09         0.00000E+00
   -0.10872E-09         0.51855E-09         0.00000E+00
   -0.29908E-09         0.54445E-09         0.00000E+00
   -0.15069E-09         0.72957E-09         0.00000E+00
   -0.33999E-09         0.76746E-09         0.00000E+00
   -0.56566E-09         0.64312E-09         0.00000E+00
   -0.58808E-09         0.36728E-09         0.00000E+00
   -0.52565E-09         0.17775E-09         0.00000E+00
   -0.43238E-09         0.56136E-10         0.00000E+00
   -0.33202E-09        -0.12261E-10         0.00000E+00
   -0.23677E-09        -0.41881E-10         0.00000E+00
   -0.14743E-09        -0.42543E-10         0.00000E+00
   -0.62171E-10        -0.17261E-10         0.00000E+00
    0.20729E-10         0.38220E-10         0.00000E+00
    0.95896E-10         0.13437E-09         0.00000E+00
    0.14892E-09         0.27685E-09         0.00000E+00
    0.14643E-09         0.50000E-09         0.00000E+00
    0.43044E-11         0.70014E-09         0.00000E+00
   -0.21747E-09         0.75990E-09         0.00000E+00
    0.49436E-09         0.82481E-09         0.00000E+00
   -0.10053E-09         0.92164E-09         0.00000E+00
   -0.45047E-09         0.73719E-09         0.00000E+00
   -0.42699E-09         0.30324E-09         0.00000E+00
   -0.28234E-09         0.64233E-10         0.00000E+00
   -0.11776E-09        -0.67816E-10         0.00000E+00
    0.28658E-10        -0.13024E-09         0.00000E+00
    0.15227E-09        -0.14934E-09         0.00000E+00
    0.26223E-09        -0.14354E-09         0.00000E+00
    0.36925E-09        -0.11701E-09         0.00000E+00
    0.48428E-09        -0.60921E-10         0.00000E+00
    0.61081E-09         0.44305E-10         0.00000E+00
    0.73158E-09         0.22314E-09         0.00000E+00
    0.80909E-09         0.55569E-09         0.00000E+00
    0.56296E-09         0.88245E-09         0.00000E+00
   -0.15635E-09         0.98800E-09         0.00000E+00
    0.44859E-09         0.19193E-08         0.00000E+00
   -0.17452E-08         0.17123E-08         0.00000E+00
   -0.23100E-08         0.96958E-09         0.00000E+00
   -0.19087E-08         0.19915E-09         0.00000E+00
   -0.15091E-08        -0.13148E-09         0.00000E+00
   -0.12140E-08        -0.25486E-09         0.00000E+00
   -0.10078E-08        -0.28229E-09         0.00000E+00
   -0.85693E-09        -0.27545E-09         0.00000E+00
   -0.73118E-09        -0.25953E-09         0.00000E+00
   -0.60621E-09        -0.23932E-09         0.00000E+00
   -0.45613E-09        -0.20333E-09         0.00000E+00
   -0.25123E-09        -0.11293E-09         0.00000E+00
    0.31024E-10         0.78566E-10         0.00000E+00
    0.42035E-09         0.66862E-09         0.00000E+00
    0.62387E-09         0.16656E-08         0.00000E+00
   -0.53736E-09         0.21985E-08         0.00000E+00
   -0.10554E-07         0.52124E-08         0.00000E+00
   -0.78340E-08         0.36802E-08         0.00000E+00
   -0.55381E-08         0.90071E-09         0.00000E+00
   -0.39671E-08        -0.49762E-09         0.00000E+00
   -0.31264E-08        -0.63048E-09         0.00000E+00
   -0.26913E-08        -0.56915E-09         0.00000E+00
   -0.24331E-08        -0.48732E-09         0.00000E+00
   -0.22618E-08        -0.42592E-09         0.00000E+00
   -0.21256E-08        -0.39426E-09         0.00000E+00
   -0.19885E-08        -0.39206E-09         0.00000E+00
   -0.18136E-08        -0.41590E-09         0.00000E+00
   -0.15438E-08        -0.44285E-09         0.00000E+00
   -0.10569E-08        -0.44844E-09         0.00000E+00
   -0.15381E-09        -0.37157E-10         0.00000E+00
    0.16966E-08         0.18402E-08         0.00000E+00
    0.48813E-08         0.33105E-08         0.00000E+00
    0.31223E-07        -0.35200E-08         0.00000E+00
    0.33829E-07        -0.33033E-08         0.00000E+00
    0.34903E-07        -0.28973E-08         0.00000E+00
    0.34730E-07        -0.22125E-08         0.00000E+00
    0.34405E-07        -0.14072E-08         0.00000E+00
    0.34099E-07        -0.94817E-09         0.00000E+00
    0.33836E-07        -0.71182E-09         0.00000E+00
    0.33612E-07        -0.58301E-09         0.00000E+00
    0.33410E-07        -0.53281E-09         0.00000E+00
    0.33218E-07        -0.55125E-09         0.00000E+00
    0.33018E-07        -0.64809E-09         0.00000E+00
    0.32802E-07        -0.86963E-09         0.00000E+00
    0.32575E-07        -0.13114E-08         0.00000E+00
    0.32353E-07        -0.20850E-08         0.00000E+00
    0.32538E-07        -0.33695E-08         0.00000E+00
    0.34193E-07        -0.41707E-08         0.00000E+00
    0.83003E-07         0.00000E+00         0.00000E+00
    0.79483E-07         0.00000E+00         0.00000E+00
    0.76396E-07        -0.22352E-21         0.00000E+00
    0.73688E-07         0.00000E+00         0.00000E+00
    0.71971E-07         0.20489E-21         0.00000E+00
    0.70874E-07         0.00000E+00         0.00000E+00
    0.70075E-07         0.00000E+00         0.00000E+00
    0.69450E-07        -0.20489E-21         0.00000E+00
    0.68909E-07        -0.18626E-21         0.00000E+00
    0.68384E-07         0.18626E-21         0.00000E+00
    0.67806E-07         0.18626E-21         0.00000E+00
    0.67088E-07        -0.18626E-21         0.00000E+00
    0.66067E-07        -0.37253E-22         0.00000E+00
    0.64465E-07         0.16764E-21         0.00000E+00
    0.61897E-07         0.00000E+00         0.00000E+00
    0.57726E-07         0.00000E+00         0.00000E+00
CELL_DATA        450
TENSORS stressef double 
    0.13881E+06         0.33228E+03         0.00000E+00
    0.33228E+03        -0.13800E+06         0.00000E+00
    0.00000E+00         0.00000E+00         0.00000E+00
 
    0.13461E+06         0.14888E+04         0.00000E+00
    0.14888E+04        -0.13399E+06         0.00000E+00
    0.00000E+00         0.00000E+00         0.00000E+00
 
    0.12776E+06         0.23975E+04         0.00000E+00
    0.23975E+04        -0.12704E+06         0.00000E+00
    0.00000E+00         0.00000E+00         0.00000E+00
 
    0.11864E+06         0.30669E+04         0.00000E+00
    0.30669E+04        -0.11786E+06         0.00000E+00
    0.00000E+00         0.00000E+00         0.00000E+00
 
    0.10786E+06         0.35231E+04         0.00000E+00
    0.35231E+04        -0.10700E+06         0.00000E+00
    0.00000E+00         0.00000E+00         0.00000E+00
 
    0.95960E+05         0.37855E+04         0.00000E+00
    0.37855E+04        -0.95043E+05         0.00000E+00
    0.00000E+00         0.00000E+00         0.00000E+00
 
    0.83486E+05         0.38730E+04         0.00000E+00
    0.38730E+04        -0.82515E+05         0.00000E+00
    0.00000E+00         0.00000E+00         0.00000E+00
 
    0.70912E+05         0.38066E+04         0.00000E+00
    0.38066E+04        -0.69894E+05         0.00000E+00
    0.00000E+00         0.00000E+00         0.00000E+00
 
    0.58652E+05         0.36100E+04         0.00000E+00
    0.36100E+04        -0.57594E+05         0.00000E+00
    0.00000E+00         0.00000E+00         0.00000E+00
 
    0.47045E+05         0.33102E+04         0.00000E+00
    0.33102E+04        -0.45959E+05         0.00000E+00
    0.00000E+00         0.00000E+00         0.00000E+00
 
    0.36350E+05         0.29381E+04         0.00000E+00
    0.29381E+04        -0.35245E+05         0.00000E+00
    0.00000E+00         0.00000E+00         0.00000E+00
 
    0.26722E+05         0.25299E+04         0.00000E+00
    0.25299E+04        -0.25609E+05         0.00000E+00
    0.00000E+00         0.00000E+00         0.00000E+00
 
    0.18200E+05         0.21286E+04         0.00000E+00
    0.21286E+04        -0.17117E+05         0.00000E+00
    0.00000E+00         0.00000E+00         0.00000E+00
 
    0.10667E+05         0.17875E+04         0.00000E+00
    0.17875E+04        -0.95735E+04         0.00000E+00
    0.00000E+00         0.00000E+00         0.00000E+00
 
    0.35616E+04         0.17606E+04         0.00000E+00
    0.17606E+04        -0.26773E+04         0.00000E+00
    0.00000E+00         0.00000E+00         0.00000E+00
 
    0.13905E+06         0.16406E+04         0.00000E+00
    0.16406E+04        -0.13948E+06         0.00000E+00
    0.00000E+00         0.00000E+00         0.00000E+00
 
    0.13477E+06         0.46835E+04         0.00000E+00
    0.46835E+04        -0.13511E+06         0.00000E+00
    0.00000E+00         0.00000E+00         0.00000E+00
 
    0.12758E+06         0.72758E+04         0.00000E+00
    0.72758E+04        -0.12785E+06         0.00000E+00
    0.00000E+00         0.00000E+00         0.00000E+00
 
    0.11820E+06         0.92427E+04         0.00000E+00
    0.92427E+04        -0.11840E+06         0.00000E+00
    0.00000E+00         0.00000E+00         0.00000E+00
 
    0.10717E+06         0.10595E+05         0.00000E+00
    0.10595E+05        -0.10732E+06         0.00000E+00
    0.00000E+00         0.00000E+00         0.00000E+00
 
    0.95075E+05         0.11374E+05         0.00000E+00
    0.11374E+05        -0.95159E+05         0.00000E+00
    0.00000E+00         0.00000E+00         0.00000E+00
 
    0.82423E+05         0.11632E+05         0.00000E+00
    0.11632E+05        -0.82453E+05         0.00000E+00
    0.00000E+00         0.00000E+00         0.00000E+00
 
    0.69696E+05         0.11430E+05         0.00000E+00
    0.11430E+05        -0.69679E+05         0.00000E+00
    0.00000E+00         0.00000E+00         0.00000E+00
 
    0.57309E+05         0.10838E+05         0.00000E+00
    0.10838E+05        -0.57253E+05         0.00000E+00
    0.00000E+00         0.00000E+00         0.00000E+00
 
    0.45609E+05         0.99360E+04         0.00000E+00
    0.99360E+04        -0.45523E+05         0.00000E+00
    0.00000E+00         0.00000E+00         0.00000E+00
 
    0.34854E+05         0.88177E+04         0.00000E+00
    0.88177E+04        -0.34751E+05         0.00000E+00
    0.00000E+00         0.00000E+00         0.00000E+00
 
    0.25210E+05         0.75927E+04         0.00000E+00
    0.75927E+04        -0.25098E+05         0.00000E+00
    0.00000E+00         0.00000E+00         0.00000E+00
 
    0.16723E+05         0.63930E+04         0.00000E+00
    0.63930E+04        -0.16637E+05         0.00000E+00
    0.00000E+00         0.00000E+00         0.00000E+00
 
    0.92902E+04         0.54032E+04         0.00000E+00
    0.54032E+04        -0.92033E+04         0.00000E+00
    0.00000E+00         0.00000E+00         0.00000E+00
 
    0.29069E+04         0.50109E+04         0.00000E+00
    0.50109E+04        -0.27260E+04         0.00000E+00
    0.00000E+00         0.00000E+00         0.00000E+00
 
    0.14139E+06         0.29361E+04         0.00000E+00
    0.29361E+04        -0.14172E+06         0.00000E+00
    0.00000E+00         0.00000E+00         0.00000E+00
 
    0.13672E+06         0.80969E+04         0.00000E+00
    0.80969E+04        -0.13709E+06         0.00000E+00
    0.00000E+00         0.00000E+00         0.00000E+00
 
    0.12911E+06         0.12298E+05         0.00000E+00
    0.12298E+05        -0.12937E+06         0.00000E+00
    0.00000E+00         0.00000E+00         0.00000E+00
 
    0.11926E+06         0.15510E+05         0.00000E+00
    0.15510E+05        -0.11947E+06         0.00000E+00
    0.00000E+00         0.00000E+00         0.00000E+00
 
    0.10781E+06         0.17729E+05         0.00000E+00
    0.17729E+05        -0.10795E+06         0.00000E+00
    0.00000E+00         0.00000E+00         0.00000E+00
 
    0.95312E+05         0.19007E+05         0.00000E+00
    0.19007E+05        -0.95395E+05         0.00000E+00
    0.00000E+00         0.00000E+00         0.00000E+00
 
    0.82311E+05         0.19424E+05         0.00000E+00
    0.19424E+05        -0.82340E+05         0.00000E+00
    0.00000E+00         0.00000E+00         0.00000E+00
 
    0.69283E+05         0.19078E+05         0.00000E+00
    0.19078E+05        -0.69266E+05         0.00000E+00
    0.00000E+00         0.00000E+00         0.00000E+00
 
    0.56650E+05         0.18084E+05         0.00000E+00
    0.18084E+05        -0.56594E+05         0.00000E+00
    0.00000E+00         0.00000E+00         0.00000E+00
 
    0.44764E+05         0.16574E+05         0.00000E+00
    0.16574E+05        -0.44679E+05         0.00000E+00
    0.00000E+00         0.00000E+00         0.00000E+00
 
    0.33898E+05         0.14700E+05         0.00000E+00
    0.14700E+05        -0.33793E+05         0.00000E+00
    0.00000E+00         0.00000E+00         0.00000E+00
 
    0.24232E+05         0.12646E+05         0.00000E+00
    0.12646E+05        -0.24118E+05         0.00000E+00
    0.00000E+00         0.00000E+00         0.00000E+00
 
    0.15837E+05         0.10635E+05         0.00000E+00
    0.10635E+05        -0.15744E+05         0.00000E+00
    0.00000E+00         0.00000E+00         0.00000E+00
 
    0.86944E+04         0.89526E+04         0.00000E+00
    0.89526E+04        -0.85790E+04         0.00000E+00
    0.00000E+00         0.00000E+00         0.00000E+00
 
    0.27145E+04         0.78840E+04         0.00000E+00
    0.78840E+04        -0.26179E+04         0.00000E+00
    0.00000E+00         0.00000E+00         0.00000E+00
 
    0.14486E+06         0.41492E+04         0.00000E+00
    0.41492E+04        -0.14509E+06         0.00000E+00
    0.00000E+00         0.00000E+00         0.00000E+00
 
    0.13956E+06         0.11507E+05         0.00000E+00
    0.11507E+05        -0.13991E+06         0.00000E+00
    0.00000E+00         0.00000E+00         0.00000E+00
 
    0.13134E+06         0.17404E+05         0.00000E+00
    0.17404E+05        -0.13157E+06         0.00000E+00
    0.00000E+00         0.00000E+00         0.00000E+00
 
    0.12086E+06         0.21863E+05         0.00000E+00
    0.21863E+05        -0.12102E+06         0.00000E+00
    0.00000E+00         0.00000E+00         0.00000E+00
 
    0.10879E+06         0.24933E+05         0.00000E+00
    0.24933E+05        -0.10889E+06         0.00000E+00
    0.00000E+00         0.00000E+00         0.00000E+00
 
    0.95726E+05         0.26693E+05         0.00000E+00
    0.26693E+05        -0.95766E+05         0.00000E+00
    0.00000E+00         0.00000E+00         0.00000E+00
 
    0.82218E+05         0.27255E+05         0.00000E+00
    0.27255E+05        -0.82204E+05         0.00000E+00
    0.00000E+00         0.00000E+00         0.00000E+00
 
    0.68752E+05         0.26755E+05         0.00000E+00
    0.26755E+05        -0.68692E+05         0.00000E+00
    0.00000E+00         0.00000E+00         0.00000E+00
 
    0.55759E+05         0.25349E+05         0.00000E+00
    0.25349E+05        -0.55660E+05         0.00000E+00
    0.00000E+00         0.00000E+00         0.00000E+00
 
    0.43603E+05         0.23218E+05         0.00000E+00
    0.23218E+05        -0.43474E+05         0.00000E+00
    0.00000E+00         0.00000E+00         0.00000E+00
 
    0.32576E+05         0.20569E+05         0.00000E+00
    0.20569E+05        -0.32425E+05         0.00000E+00
    0.00000E+00         0.00000E+00         0.00000E+00
 
    0.22885E+05         0.17652E+05         0.00000E+00
    0.17652E+05        -0.22720E+05         0.00000E+00
    0.00000E+00         0.00000E+00         0.00000E+00
 
    0.14644E+05         0.14766E+05         0.00000E+00
    0.14766E+05        -0.14490E+05         0.00000E+00
    0.00000E+00         0.00000E+00         0.00000E+00
 
    0.78676E+04         0.12256E+05         0.00000E+00
    0.12256E+05        -0.77010E+04         0.00000E+00
    0.00000E+00         0.00000E+00         0.00000E+00
 
    0.24203E+04         0.10493E+05         0.00000E+00
    0.10493E+05        -0.23009E+04         0.00000E+00
    0.00000E+00         0.00000E+00         0.00000E+00
 
    0.14948E+06         0.53970E+04         0.00000E+00
    0.53970E+04        -0.14967E+06         0.00000E+00
    0.00000E+00         0.00000E+00         0.00000E+00
 
    0.14333E+06         0.14941E+05         0.00000E+00
    0.14941E+05        -0.14370E+06         0.00000E+00
    0.00000E+00         0.00000E+00         0.00000E+00
 
    0.13423E+06         0.22560E+05         0.00000E+00
    0.22560E+05        -0.13447E+06         0.00000E+00
    0.00000E+00         0.00000E+00         0.00000E+00
 
    0.12291E+06         0.28277E+05         0.00000E+00
    0.28277E+05        -0.12309E+06         0.00000E+00
    0.00000E+00         0.00000E+00         0.00000E+00
 
    0.11005E+06         0.32187E+05         0.00000E+00
    0.32187E+05        -0.11015E+06         0.00000E+00
    0.00000E+00         0.00000E+00         0.00000E+00
 
    0.96253E+05         0.34413E+05         0.00000E+00
    0.34413E+05        -0.96302E+05         0.00000E+00
    0.00000E+00         0.00000E+00         0.00000E+00
 
    0.82093E+05         0.35106E+05         0.00000E+00
    0.35106E+05        -0.82091E+05         0.00000E+00
    0.00000E+00         0.00000E+00         0.00000E+00
 
    0.68065E+05         0.34442E+05         0.00000E+00
    0.34442E+05        -0.68017E+05         0.00000E+00
    0.00000E+00         0.00000E+00         0.00000E+00
 
    0.54608E+05         0.32616E+05         0.00000E+00
    0.32616E+05        -0.54520E+05         0.00000E+00
    0.00000E+00         0.00000E+00         0.00000E+00
 
    0.42102E+05         0.29850E+05         0.00000E+00
    0.29850E+05        -0.41981E+05         0.00000E+00
    0.00000E+00         0.00000E+00         0.00000E+00
 
    0.30861E+05         0.26400E+05         0.00000E+00
    0.26400E+05        -0.30715E+05         0.00000E+00
    0.00000E+00         0.00000E+00         0.00000E+00
 
    0.21128E+05         0.22569E+05         0.00000E+00
    0.22569E+05        -0.20964E+05         0.00000E+00
    0.00000E+00         0.00000E+00         0.00000E+00
 
    0.13060E+05         0.18717E+05         0.00000E+00
    0.18717E+05        -0.12899E+05         0.00000E+00
    0.00000E+00         0.00000E+00         0.00000E+00
 
    0.67106E+04         0.15268E+05         0.00000E+00
    0.15268E+05        -0.65401E+04         0.00000E+00
    0.00000E+00         0.00000E+00         0.00000E+00
 
    0.19819E+04         0.12723E+05         0.00000E+00
    0.12723E+05        -0.18429E+04         0.00000E+00
    0.00000E+00         0.00000E+00         0.00000E+00
 
    0.15535E+06         0.66731E+04         0.00000E+00
    0.66731E+04        -0.15545E+06         0.00000E+00
    0.00000E+00         0.00000E+00         0.00000E+00
 
    0.14809E+06         0.18430E+05         0.00000E+00
    0.18430E+05        -0.14848E+06         0.00000E+00
    0.00000E+00         0.00000E+00         0.00000E+00
 
    0.13789E+06         0.27760E+05         0.00000E+00
    0.27760E+05        -0.13812E+06         0.00000E+00
    0.00000E+00         0.00000E+00         0.00000E+00
 
    0.12551E+06         0.34720E+05         0.00000E+00
    0.34720E+05        -0.12568E+06         0.00000E+00
    0.00000E+00         0.00000E+00         0.00000E+00
 
    0.11168E+06         0.39450E+05         0.00000E+00
    0.39450E+05        -0.11178E+06         0.00000E+00
    0.00000E+00         0.00000E+00         0.00000E+00
 
    0.97007E+05         0.42123E+05         0.00000E+00
    0.42123E+05        -0.97052E+05         0.00000E+00
    0.00000E+00         0.00000E+00         0.00000E+00
 
    0.82071E+05         0.42935E+05         0.00000E+00
    0.42935E+05        -0.82066E+05         0.00000E+00
    0.00000E+00         0.00000E+00         0.00000E+00
 
    0.67372E+05         0.42100E+05         0.00000E+00
    0.42100E+05        -0.67323E+05         0.00000E+00
    0.00000E+00         0.00000E+00         0.00000E+00
 
    0.53359E+05         0.39850E+05         0.00000E+00
    0.39850E+05        -0.53270E+05         0.00000E+00
    0.00000E+00         0.00000E+00         0.00000E+00
 
    0.40424E+05         0.36441E+05         0.00000E+00
    0.36441E+05        -0.40301E+05         0.00000E+00
    0.00000E+00         0.00000E+00         0.00000E+00
 
    0.28910E+05         0.32164E+05         0.00000E+00
    0.32164E+05        -0.28758E+05         0.00000E+00
    0.00000E+00         0.00000E+00         0.00000E+00
 
    0.19099E+05         0.27366E+05         0.00000E+00
    0.27366E+05        -0.18924E+05         0.00000E+00
    0.00000E+00         0.00000E+00         0.00000E+00
 
    0.11201E+05         0.22462E+05         0.00000E+00
    0.22462E+05        -0.11019E+05         0.00000E+00
    0.00000E+00         0.00000E+00         0.00000E+00
 
    0.53264E+04         0.17954E+05         0.00000E+00
    0.17954E+05        -0.51352E+04         0.00000E+00
    0.00000E+00         0.00000E+00         0.00000E+00
 
    0.14509E+04         0.14463E+05         0.00000E+00
    0.14463E+05        -0.12812E+04         0.00000E+00
    0.00000E+00         0.00000E+00         0.00000E+00
 
    0.16247E+06         0.79726E+04         0.00000E+00
    0.79726E+04        -0.16246E+06         0.00000E+00
    0.00000E+00         0.00000E+00         0.00000E+00
 
    0.15383E+06         0.21953E+05         0.00000E+00
    0.21953E+05        -0.15424E+06         0.00000E+00
    0.00000E+00         0.00000E+00         0.00000E+00
 
    0.14230E+06         0.32972E+05         0.00000E+00
    0.32972E+05        -0.14252E+06         0.00000E+00
    0.00000E+00         0.00000E+00         0.00000E+00
 
    0.12868E+06         0.41137E+05         0.00000E+00
    0.41137E+05        -0.12884E+06         0.00000E+00
    0.00000E+00         0.00000E+00         0.00000E+00
 
    0.11372E+06         0.46652E+05         0.00000E+00
    0.46652E+05        -0.11381E+06         0.00000E+00
    0.00000E+00         0.00000E+00         0.00000E+00
 
    0.98041E+05         0.49745E+05         0.00000E+00
    0.49745E+05        -0.98082E+05         0.00000E+00
    0.00000E+00         0.00000E+00         0.00000E+00
 
    0.82226E+05         0.50662E+05         0.00000E+00
    0.50662E+05        -0.82220E+05         0.00000E+00
    0.00000E+00         0.00000E+00         0.00000E+00
 
    0.66772E+05         0.49656E+05         0.00000E+00
    0.49656E+05        -0.66723E+05         0.00000E+00
    0.00000E+00         0.00000E+00         0.00000E+00
 
    0.52125E+05         0.46990E+05         0.00000E+00
    0.46990E+05        -0.52038E+05         0.00000E+00
    0.00000E+00         0.00000E+00         0.00000E+00
 
    0.38692E+05         0.42943E+05         0.00000E+00
    0.42943E+05        -0.38570E+05         0.00000E+00
    0.00000E+00         0.00000E+00         0.00000E+00
 
    0.26841E+05         0.37829E+05         0.00000E+00
    0.37829E+05        -0.26685E+05         0.00000E+00
    0.00000E+00         0.00000E+00         0.00000E+00
 
    0.16899E+05         0.32022E+05         0.00000E+00
    0.32022E+05        -0.16715E+05         0.00000E+00
    0.00000E+00         0.00000E+00         0.00000E+00
 
    0.91430E+04         0.25981E+05         0.00000E+00
    0.25981E+05        -0.89377E+04         0.00000E+00
    0.00000E+00         0.00000E+00         0.00000E+00
 
    0.37668E+04         0.20275E+05         0.00000E+00
    0.20275E+05        -0.35508E+04         0.00000E+00
    0.00000E+00         0.00000E+00         0.00000E+00
 
    0.84613E+03         0.15629E+05         0.00000E+00
    0.15629E+05        -0.63778E+03         0.00000E+00
    0.00000E+00         0.00000E+00         0.00000E+00
 
    0.17085E+06         0.92852E+04         0.00000E+00
    0.92852E+04        -0.17070E+06         0.00000E+00
    0.00000E+00         0.00000E+00         0.00000E+00
 
    0.16057E+06         0.25475E+05         0.00000E+00
    0.25475E+05        -0.16100E+06         0.00000E+00
    0.00000E+00         0.00000E+00         0.00000E+00
 
    0.14747E+06         0.38130E+05         0.00000E+00
    0.38130E+05        -0.14767E+06         0.00000E+00
    0.00000E+00         0.00000E+00         0.00000E+00
 
    0.13243E+06         0.47437E+05         0.00000E+00
    0.47437E+05        -0.13258E+06         0.00000E+00
    0.00000E+00         0.00000E+00         0.00000E+00
 
    0.11620E+06         0.53681E+05         0.00000E+00
    0.53681E+05        -0.11629E+06         0.00000E+00
    0.00000E+00         0.00000E+00         0.00000E+00
 
    0.99433E+05         0.57156E+05         0.00000E+00
    0.57156E+05        -0.99469E+05         0.00000E+00
    0.00000E+00         0.00000E+00         0.00000E+00
 
    0.82672E+05         0.58164E+05         0.00000E+00
    0.58164E+05        -0.82666E+05         0.00000E+00
    0.00000E+00         0.00000E+00         0.00000E+00
 
    0.66406E+05         0.56998E+05         0.00000E+00
    0.56998E+05        -0.66363E+05         0.00000E+00
    0.00000E+00         0.00000E+00         0.00000E+00
 
    0.51073E+05         0.53943E+05         0.00000E+00
    0.53943E+05        -0.50995E+05         0.00000E+00
    0.00000E+00         0.00000E+00         0.00000E+00
 
    0.37083E+05         0.49288E+05         0.00000E+00
    0.49288E+05        -0.36969E+05         0.00000E+00
    0.00000E+00         0.00000E+00         0.00000E+00
 
    0.24827E+05         0.43354E+05         0.00000E+00
    0.43354E+05        -0.24675E+05         0.00000E+00
    0.00000E+00         0.00000E+00         0.00000E+00
 
    0.14685E+05         0.36519E+05         0.00000E+00
    0.36519E+05        -0.14496E+05         0.00000E+00
    0.00000E+00         0.00000E+00         0.00000E+00
 
    0.70118E+04         0.29262E+05         0.00000E+00
    0.29262E+05        -0.67856E+04         0.00000E+00
    0.00000E+00         0.00000E+00         0.00000E+00
 
    0.21121E+04         0.22204E+05         0.00000E+00
    0.22204E+05        -0.18700E+04         0.00000E+00
    0.00000E+00         0.00000E+00         0.00000E+00
 
    0.19468E+03         0.16158E+05         0.00000E+00
    0.16158E+05         0.59119E+02         0.00000E+00
    0.00000E+00         0.00000E+00         0.00000E+00
 
    0.18050E+06         0.10589E+05         0.00000E+00
    0.10589E+05        -0.18018E+06         0.00000E+00
    0.00000E+00         0.00000E+00         0.00000E+00
 
    0.16827E+06         0.28931E+05         0.00000E+00
    0.28931E+05        -0.16872E+06         0.00000E+00
    0.00000E+00         0.00000E+00         0.00000E+00
 
    0.15339E+06         0.43131E+05         0.00000E+00
    0.43131E+05        -0.15357E+06         0.00000E+00
    0.00000E+00         0.00000E+00         0.00000E+00
 
    0.13678E+06         0.53483E+05         0.00000E+00
    0.53483E+05        -0.13691E+06         0.00000E+00
    0.00000E+00         0.00000E+00         0.00000E+00
 
    0.11920E+06         0.60373E+05         0.00000E+00
    0.60373E+05        -0.11927E+06         0.00000E+00
    0.00000E+00         0.00000E+00         0.00000E+00
 
    0.10128E+06         0.64179E+05         0.00000E+00
    0.64179E+05        -0.10131E+06         0.00000E+00
    0.00000E+00         0.00000E+00         0.00000E+00
 
    0.83550E+05         0.65266E+05         0.00000E+00
    0.65266E+05        -0.83546E+05         0.00000E+00
    0.00000E+00         0.00000E+00         0.00000E+00
 
    0.66461E+05         0.63965E+05         0.00000E+00
    0.63965E+05        -0.66427E+05         0.00000E+00
    0.00000E+00         0.00000E+00         0.00000E+00
 
    0.50424E+05         0.60576E+05         0.00000E+00
    0.60576E+05        -0.50360E+05         0.00000E+00
    0.00000E+00         0.00000E+00         0.00000E+00
 
    0.35836E+05         0.55382E+05         0.00000E+00
    0.55382E+05        -0.35736E+05         0.00000E+00
    0.00000E+00         0.00000E+00         0.00000E+00
 
    0.23107E+05         0.48682E+05         0.00000E+00
    0.48682E+05        -0.22966E+05         0.00000E+00
    0.00000E+00         0.00000E+00         0.00000E+00
 
    0.12672E+05         0.40835E+05         0.00000E+00
    0.40835E+05        -0.12485E+05         0.00000E+00
    0.00000E+00         0.00000E+00         0.00000E+00
 
    0.49805E+04         0.32309E+05         0.00000E+00
    0.32309E+05        -0.47356E+04         0.00000E+00
    0.00000E+00         0.00000E+00         0.00000E+00
 
    0.47451E+03         0.23744E+05         0.00000E+00
    0.23744E+05        -0.20412E+03         0.00000E+00
    0.00000E+00         0.00000E+00         0.00000E+00
 
   -0.46442E+03         0.16022E+05         0.00000E+00
    0.16022E+05         0.77125E+03         0.00000E+00
    0.00000E+00         0.00000E+00         0.00000E+00
 
    0.19140E+06         0.11853E+05         0.00000E+00
    0.11853E+05        -0.19085E+06         0.00000E+00
    0.00000E+00         0.00000E+00         0.00000E+00
 
    0.17691E+06         0.32231E+05         0.00000E+00
    0.32231E+05        -0.17737E+06         0.00000E+00
    0.00000E+00         0.00000E+00         0.00000E+00
 
    0.16003E+06         0.47828E+05         0.00000E+00
    0.47828E+05        -0.16017E+06         0.00000E+00
    0.00000E+00         0.00000E+00         0.00000E+00
 
    0.14172E+06         0.59080E+05         0.00000E+00
    0.59080E+05        -0.14183E+06         0.00000E+00
    0.00000E+00         0.00000E+00         0.00000E+00
 
    0.12274E+06         0.66499E+05         0.00000E+00
    0.66499E+05        -0.12280E+06         0.00000E+00
    0.00000E+00         0.00000E+00         0.00000E+00
 
    0.10368E+06         0.70568E+05         0.00000E+00
    0.70568E+05        -0.10371E+06         0.00000E+00
    0.00000E+00         0.00000E+00         0.00000E+00
 
    0.85028E+05         0.71722E+05         0.00000E+00
    0.71722E+05        -0.85028E+05         0.00000E+00
    0.00000E+00         0.00000E+00         0.00000E+00
 
    0.67163E+05         0.70332E+05         0.00000E+00
    0.70332E+05        -0.67144E+05         0.00000E+00
    0.00000E+00         0.00000E+00         0.00000E+00
 
    0.50448E+05         0.66703E+05         0.00000E+00
    0.66703E+05        -0.50407E+05         0.00000E+00
    0.00000E+00         0.00000E+00         0.00000E+00
 
    0.35250E+05         0.61090E+05         0.00000E+00
    0.61090E+05        -0.35177E+05         0.00000E+00
    0.00000E+00         0.00000E+00         0.00000E+00
 
    0.21985E+05         0.53741E+05         0.00000E+00
    0.53741E+05        -0.21867E+05         0.00000E+00
    0.00000E+00         0.00000E+00         0.00000E+00
 
    0.11139E+05         0.44953E+05         0.00000E+00
    0.44953E+05        -0.10965E+05         0.00000E+00
    0.00000E+00         0.00000E+00         0.00000E+00
 
    0.32748E+04         0.35143E+05         0.00000E+00
    0.35143E+05        -0.30182E+04         0.00000E+00
    0.00000E+00         0.00000E+00         0.00000E+00
 
   -0.99951E+03         0.24932E+05         0.00000E+00
    0.24932E+05         0.12974E+04         0.00000E+00
    0.00000E+00         0.00000E+00         0.00000E+00
 
   -0.10806E+04         0.15233E+05         0.00000E+00
    0.15233E+05         0.14473E+04         0.00000E+00
    0.00000E+00         0.00000E+00         0.00000E+00
 
    0.20349E+06         0.13035E+05         0.00000E+00
    0.13035E+05        -0.20265E+06         0.00000E+00
    0.00000E+00         0.00000E+00         0.00000E+00
 
    0.18641E+06         0.35250E+05         0.00000E+00
    0.35250E+05        -0.18688E+06         0.00000E+00
    0.00000E+00         0.00000E+00         0.00000E+00
 
    0.16734E+06         0.52027E+05         0.00000E+00
    0.52027E+05        -0.16743E+06         0.00000E+00
    0.00000E+00         0.00000E+00         0.00000E+00
 
    0.14725E+06         0.63973E+05         0.00000E+00
    0.63973E+05        -0.14732E+06         0.00000E+00
    0.00000E+00         0.00000E+00         0.00000E+00
 
    0.12688E+06         0.71760E+05         0.00000E+00
    0.71760E+05        -0.12691E+06         0.00000E+00
    0.00000E+00         0.00000E+00         0.00000E+00
 
    0.10677E+06         0.75996E+05         0.00000E+00
    0.75996E+05        -0.10678E+06         0.00000E+00
    0.00000E+00         0.00000E+00         0.00000E+00
 
    0.87304E+05         0.77204E+05         0.00000E+00
    0.77204E+05        -0.87310E+05         0.00000E+00
    0.00000E+00         0.00000E+00         0.00000E+00
 
    0.68787E+05         0.75797E+05         0.00000E+00
    0.75797E+05        -0.68790E+05         0.00000E+00
    0.00000E+00         0.00000E+00         0.00000E+00
 
    0.51487E+05         0.72072E+05         0.00000E+00
    0.72072E+05        -0.51480E+05         0.00000E+00
    0.00000E+00         0.00000E+00         0.00000E+00
 
    0.35709E+05         0.66231E+05         0.00000E+00
    0.66231E+05        -0.35677E+05         0.00000E+00
    0.00000E+00         0.00000E+00         0.00000E+00
 
    0.21852E+05         0.58430E+05         0.00000E+00
    0.58430E+05        -0.21773E+05         0.00000E+00
    0.00000E+00         0.00000E+00         0.00000E+00
 
    0.10452E+05         0.48854E+05         0.00000E+00
    0.48854E+05        -0.10304E+05         0.00000E+00
    0.00000E+00         0.00000E+00         0.00000E+00
 
    0.21923E+04         0.37813E+05         0.00000E+00
    0.37813E+05        -0.19356E+04         0.00000E+00
    0.00000E+00         0.00000E+00         0.00000E+00
 
   -0.21141E+04         0.25850E+05         0.00000E+00
    0.25850E+05         0.24366E+04         0.00000E+00
    0.00000E+00         0.00000E+00         0.00000E+00
 
   -0.15854E+04         0.13864E+05         0.00000E+00
    0.13864E+05         0.20182E+04         0.00000E+00
    0.00000E+00         0.00000E+00         0.00000E+00
 
    0.21665E+06         0.14080E+05         0.00000E+00
    0.14080E+05        -0.21546E+06         0.00000E+00
    0.00000E+00         0.00000E+00         0.00000E+00
 
    0.19665E+06         0.37834E+05         0.00000E+00
    0.37834E+05        -0.19712E+06         0.00000E+00
    0.00000E+00         0.00000E+00         0.00000E+00
 
    0.17522E+06         0.55480E+05         0.00000E+00
    0.55480E+05        -0.17524E+06         0.00000E+00
    0.00000E+00         0.00000E+00         0.00000E+00
 
    0.15332E+06         0.67837E+05         0.00000E+00
    0.67837E+05        -0.15334E+06         0.00000E+00
    0.00000E+00         0.00000E+00         0.00000E+00
 
    0.13165E+06         0.75770E+05         0.00000E+00
    0.75770E+05        -0.13164E+06         0.00000E+00
    0.00000E+00         0.00000E+00         0.00000E+00
 
    0.11065E+06         0.80043E+05         0.00000E+00
    0.80043E+05        -0.11065E+06         0.00000E+00
    0.00000E+00         0.00000E+00         0.00000E+00
 
    0.90603E+05         0.81287E+05         0.00000E+00
    0.81287E+05        -0.90617E+05         0.00000E+00
    0.00000E+00         0.00000E+00         0.00000E+00
 
    0.71659E+05         0.79962E+05         0.00000E+00
    0.79962E+05        -0.71693E+05         0.00000E+00
    0.00000E+00         0.00000E+00         0.00000E+00
 
    0.53954E+05         0.76348E+05         0.00000E+00
    0.76348E+05        -0.53996E+05         0.00000E+00
    0.00000E+00         0.00000E+00         0.00000E+00
 
    0.37685E+05         0.70561E+05         0.00000E+00
    0.70561E+05        -0.37713E+05         0.00000E+00
    0.00000E+00         0.00000E+00         0.00000E+00
 
    0.23203E+05         0.62616E+05         0.00000E+00
    0.62616E+05        -0.23184E+05         0.00000E+00
    0.00000E+00         0.00000E+00         0.00000E+00
 
    0.11075E+05         0.52521E+05         0.00000E+00
    0.52521E+05        -0.10976E+05         0.00000E+00
    0.00000E+00         0.00000E+00         0.00000E+00
 
    0.21188E+04         0.40400E+05         0.00000E+00
    0.40400E+05        -0.18797E+04         0.00000E+00
    0.00000E+00         0.00000E+00         0.00000E+00
 
   -0.26125E+04         0.26643E+05         0.00000E+00
    0.26643E+05         0.29531E+04         0.00000E+00
    0.00000E+00         0.00000E+00         0.00000E+00
 
   -0.18883E+04         0.12065E+05         0.00000E+00
    0.12065E+05         0.23920E+04         0.00000E+00
    0.00000E+00         0.00000E+00         0.00000E+00
 
    0.23072E+06         0.14925E+05         0.00000E+00
    0.14925E+05        -0.22912E+06         0.00000E+00
    0.00000E+00         0.00000E+00         0.00000E+00
 
    0.20747E+06         0.39797E+05         0.00000E+00
    0.39797E+05        -0.20793E+06         0.00000E+00
    0.00000E+00         0.00000E+00         0.00000E+00
 
    0.18353E+06         0.57890E+05         0.00000E+00
    0.57890E+05        -0.18346E+06         0.00000E+00
    0.00000E+00         0.00000E+00         0.00000E+00
 
    0.15984E+06         0.70273E+05         0.00000E+00
    0.70273E+05        -0.15980E+06         0.00000E+00
    0.00000E+00         0.00000E+00         0.00000E+00
 
    0.13704E+06         0.78049E+05         0.00000E+00
    0.78049E+05        -0.13699E+06         0.00000E+00
    0.00000E+00         0.00000E+00         0.00000E+00
 
    0.11545E+06         0.82176E+05         0.00000E+00
    0.82176E+05        -0.11543E+06         0.00000E+00
    0.00000E+00         0.00000E+00         0.00000E+00
 
    0.95174E+05         0.83424E+05         0.00000E+00
    0.83424E+05        -0.95197E+05         0.00000E+00
    0.00000E+00         0.00000E+00         0.00000E+00
 
    0.76161E+05         0.82314E+05         0.00000E+00
    0.82314E+05        -0.76235E+05         0.00000E+00
    0.00000E+00         0.00000E+00         0.00000E+00
 
    0.58346E+05         0.79095E+05         0.00000E+00
    0.79095E+05        -0.58457E+05         0.00000E+00
    0.00000E+00         0.00000E+00         0.00000E+00
 
    0.41760E+05         0.73762E+05         0.00000E+00
    0.73762E+05        -0.41875E+05         0.00000E+00
    0.00000E+00         0.00000E+00         0.00000E+00
 
    0.26654E+05         0.66127E+05         0.00000E+00
    0.66127E+05        -0.26726E+05         0.00000E+00
    0.00000E+00         0.00000E+00         0.00000E+00
 
    0.13599E+05         0.55934E+05         0.00000E+00
    0.55934E+05        -0.13577E+05         0.00000E+00
    0.00000E+00         0.00000E+00         0.00000E+00
 
    0.35486E+04         0.43026E+05         0.00000E+00
    0.43026E+05        -0.33536E+04         0.00000E+00
    0.00000E+00         0.00000E+00         0.00000E+00
 
   -0.21616E+04         0.27534E+05         0.00000E+00
    0.27534E+05         0.25084E+04         0.00000E+00
    0.00000E+00         0.00000E+00         0.00000E+00
 
   -0.18709E+04         0.10088E+05         0.00000E+00
    0.10088E+05         0.24477E+04         0.00000E+00
    0.00000E+00         0.00000E+00         0.00000E+00
 
    0.24546E+06         0.15494E+05         0.00000E+00
    0.15494E+05        -0.24338E+06         0.00000E+00
    0.00000E+00         0.00000E+00         0.00000E+00
 
    0.21863E+06         0.40923E+05         0.00000E+00
    0.40923E+05        -0.21906E+06         0.00000E+00
    0.00000E+00         0.00000E+00         0.00000E+00
 
    0.19206E+06         0.58906E+05         0.00000E+00
    0.58906E+05        -0.19187E+06         0.00000E+00
    0.00000E+00         0.00000E+00         0.00000E+00
 
    0.16668E+06         0.70804E+05         0.00000E+00
    0.70804E+05        -0.16655E+06         0.00000E+00
    0.00000E+00         0.00000E+00         0.00000E+00
 
    0.14303E+06         0.78013E+05         0.00000E+00
    0.78013E+05        -0.14291E+06         0.00000E+00
    0.00000E+00         0.00000E+00         0.00000E+00
 
    0.12128E+06         0.81738E+05         0.00000E+00
    0.81738E+05        -0.12122E+06         0.00000E+00
    0.00000E+00         0.00000E+00         0.00000E+00
 
    0.10128E+06         0.82933E+05         0.00000E+00
    0.82933E+05        -0.10132E+06         0.00000E+00
    0.00000E+00         0.00000E+00         0.00000E+00
 
    0.82730E+05         0.82200E+05         0.00000E+00
    0.82200E+05        -0.82853E+05         0.00000E+00
    0.00000E+00         0.00000E+00         0.00000E+00
 
    0.65257E+05         0.79751E+05         0.00000E+00
    0.79751E+05        -0.65456E+05         0.00000E+00
    0.00000E+00         0.00000E+00         0.00000E+00
 
    0.48643E+05         0.75418E+05         0.00000E+00
    0.75418E+05        -0.48874E+05         0.00000E+00
    0.00000E+00         0.00000E+00         0.00000E+00
 
    0.32968E+05         0.68733E+05         0.00000E+00
    0.68733E+05        -0.33167E+05         0.00000E+00
    0.00000E+00         0.00000E+00         0.00000E+00
 
    0.18764E+05         0.59072E+05         0.00000E+00
    0.59072E+05        -0.18858E+05         0.00000E+00
    0.00000E+00         0.00000E+00         0.00000E+00
 
    0.71118E+04         0.45864E+05         0.00000E+00
    0.45864E+05        -0.69966E+04         0.00000E+00
    0.00000E+00         0.00000E+00         0.00000E+00
 
   -0.33092E+03         0.28844E+05         0.00000E+00
    0.28844E+05         0.66696E+03         0.00000E+00
    0.00000E+00         0.00000E+00         0.00000E+00
 
   -0.13786E+04         0.83222E+04         0.00000E+00
    0.83222E+04         0.20274E+04         0.00000E+00
    0.00000E+00         0.00000E+00         0.00000E+00
 
    0.26056E+06         0.15710E+05         0.00000E+00
    0.15710E+05        -0.25793E+06         0.00000E+00
    0.00000E+00         0.00000E+00         0.00000E+00
 
    0.22981E+06         0.40978E+05         0.00000E+00
    0.40978E+05        -0.23020E+06         0.00000E+00
    0.00000E+00         0.00000E+00         0.00000E+00
 
    0.20052E+06         0.58132E+05         0.00000E+00
    0.58132E+05        -0.20019E+06         0.00000E+00
    0.00000E+00         0.00000E+00         0.00000E+00
 
    0.17361E+06         0.68874E+05         0.00000E+00
    0.68874E+05        -0.17336E+06         0.00000E+00
    0.00000E+00         0.00000E+00         0.00000E+00
 
    0.14951E+06         0.74960E+05         0.00000E+00
    0.74960E+05        -0.14931E+06         0.00000E+00
    0.00000E+00         0.00000E+00         0.00000E+00
 
    0.12819E+06         0.77925E+05         0.00000E+00
    0.77925E+05        -0.12808E+06         0.00000E+00
    0.00000E+00         0.00000E+00         0.00000E+00
 
    0.10920E+06         0.78965E+05         0.00000E+00
    0.78965E+05        -0.10924E+06         0.00000E+00
    0.00000E+00         0.00000E+00         0.00000E+00
 
    0.91850E+05         0.78801E+05         0.00000E+00
    0.78801E+05        -0.92038E+05         0.00000E+00
    0.00000E+00         0.00000E+00         0.00000E+00
 
    0.75371E+05         0.77604E+05         0.00000E+00
    0.77604E+05        -0.75687E+05         0.00000E+00
    0.00000E+00         0.00000E+00         0.00000E+00
 
    0.59175E+05         0.74996E+05         0.00000E+00
    0.74996E+05        -0.59564E+05         0.00000E+00
    0.00000E+00         0.00000E+00         0.00000E+00
 
    0.43073E+05         0.70138E+05         0.00000E+00
    0.70138E+05        -0.43450E+05         0.00000E+00
    0.00000E+00         0.00000E+00         0.00000E+00
 
    0.27484E+05         0.61905E+05         0.00000E+00
    0.61905E+05        -0.27747E+05         0.00000E+00
    0.00000E+00         0.00000E+00         0.00000E+00
 
    0.13596E+05         0.49148E+05         0.00000E+00
    0.49148E+05        -0.13613E+05         0.00000E+00
    0.00000E+00         0.00000E+00         0.00000E+00
 
    0.34236E+04         0.31021E+05         0.00000E+00
    0.31021E+05        -0.31272E+04         0.00000E+00
    0.00000E+00         0.00000E+00         0.00000E+00
 
   -0.21476E+03         0.73271E+04         0.00000E+00
    0.73271E+04         0.92757E+03         0.00000E+00
    0.00000E+00         0.00000E+00         0.00000E+00
 
    0.27563E+06         0.15498E+05         0.00000E+00
    0.15498E+05        -0.27236E+06         0.00000E+00
    0.00000E+00         0.00000E+00         0.00000E+00
 
    0.24061E+06         0.39721E+05         0.00000E+00
    0.39721E+05        -0.24092E+06         0.00000E+00
    0.00000E+00         0.00000E+00         0.00000E+00
 
    0.20852E+06         0.55138E+05         0.00000E+00
    0.55138E+05        -0.20800E+06         0.00000E+00
    0.00000E+00         0.00000E+00         0.00000E+00
 
    0.18030E+06         0.63848E+05         0.00000E+00
    0.63848E+05        -0.17989E+06         0.00000E+00
    0.00000E+00         0.00000E+00         0.00000E+00
 
    0.15630E+06         0.68069E+05         0.00000E+00
    0.68069E+05        -0.15596E+06         0.00000E+00
    0.00000E+00         0.00000E+00         0.00000E+00
 
    0.13621E+06         0.69772E+05         0.00000E+00
    0.69772E+05        -0.13603E+06         0.00000E+00
    0.00000E+00         0.00000E+00         0.00000E+00
 
    0.11920E+06         0.70490E+05         0.00000E+00
    0.70490E+05        -0.11924E+06         0.00000E+00
    0.00000E+00         0.00000E+00         0.00000E+00
 
    0.10407E+06         0.71111E+05         0.00000E+00
    0.71111E+05        -0.10433E+06         0.00000E+00
    0.00000E+00         0.00000E+00         0.00000E+00
 
    0.89491E+05         0.71767E+05         0.00000E+00
    0.71767E+05        -0.89949E+05         0.00000E+00
    0.00000E+00         0.00000E+00         0.00000E+00
 
    0.74367E+05         0.71822E+05         0.00000E+00
    0.71822E+05        -0.74954E+05         0.00000E+00
    0.00000E+00         0.00000E+00         0.00000E+00
 
    0.58098E+05         0.69960E+05         0.00000E+00
    0.69960E+05        -0.58707E+05         0.00000E+00
    0.00000E+00         0.00000E+00         0.00000E+00
 
    0.40893E+05         0.64393E+05         0.00000E+00
    0.64393E+05        -0.41383E+05         0.00000E+00
    0.00000E+00         0.00000E+00         0.00000E+00
 
    0.23993E+05         0.53184E+05         0.00000E+00
    0.53184E+05        -0.24204E+05         0.00000E+00
    0.00000E+00         0.00000E+00         0.00000E+00
 
    0.97977E+04         0.34667E+05         0.00000E+00
    0.34667E+05        -0.95751E+04         0.00000E+00
    0.00000E+00         0.00000E+00         0.00000E+00
 
    0.18754E+04         0.78858E+04         0.00000E+00
    0.78858E+04        -0.11124E+04         0.00000E+00
    0.00000E+00         0.00000E+00         0.00000E+00
 
    0.29018E+06         0.14788E+05         0.00000E+00
    0.14788E+05        -0.28622E+06         0.00000E+00
    0.00000E+00         0.00000E+00         0.00000E+00
 
    0.25050E+06         0.36924E+05         0.00000E+00
    0.36924E+05        -0.25073E+06         0.00000E+00
    0.00000E+00         0.00000E+00         0.00000E+00
 
    0.21552E+06         0.49470E+05         0.00000E+00
    0.49470E+05        -0.21477E+06         0.00000E+00
    0.00000E+00         0.00000E+00         0.00000E+00
 
    0.18629E+06         0.55011E+05         0.00000E+00
    0.55011E+05        -0.18568E+06         0.00000E+00
    0.00000E+00         0.00000E+00         0.00000E+00
 
    0.16307E+06         0.56378E+05         0.00000E+00
    0.56378E+05        -0.16258E+06         0.00000E+00
    0.00000E+00         0.00000E+00         0.00000E+00
 
    0.14527E+06         0.56133E+05         0.00000E+00
    0.56133E+05        -0.14500E+06         0.00000E+00
    0.00000E+00         0.00000E+00         0.00000E+00
 
    0.13152E+06         0.56268E+05         0.00000E+00
    0.56268E+05        -0.13156E+06         0.00000E+00
    0.00000E+00         0.00000E+00         0.00000E+00
 
    0.11995E+06         0.57908E+05         0.00000E+00
    0.57908E+05        -0.12030E+06         0.00000E+00
    0.00000E+00         0.00000E+00         0.00000E+00
 
    0.10850E+06         0.61156E+05         0.00000E+00
    0.61156E+05        -0.10914E+06         0.00000E+00
    0.00000E+00         0.00000E+00         0.00000E+00
 
    0.95363E+05         0.65063E+05         0.00000E+00
    0.65063E+05        -0.96214E+05         0.00000E+00
    0.00000E+00         0.00000E+00         0.00000E+00
 
    0.79359E+05         0.67717E+05         0.00000E+00
    0.67717E+05        -0.80282E+05         0.00000E+00
    0.00000E+00         0.00000E+00         0.00000E+00
 
    0.60334E+05         0.66478E+05         0.00000E+00
    0.66478E+05        -0.61145E+05         0.00000E+00
    0.00000E+00         0.00000E+00         0.00000E+00
 
    0.39498E+05         0.58366E+05         0.00000E+00
    0.58366E+05        -0.40002E+05         0.00000E+00
    0.00000E+00         0.00000E+00         0.00000E+00
 
    0.19640E+05         0.40577E+05         0.00000E+00
    0.40577E+05        -0.19554E+05         0.00000E+00
    0.00000E+00         0.00000E+00         0.00000E+00
 
    0.52033E+04         0.11062E+05         0.00000E+00
    0.11062E+05        -0.44210E+04         0.00000E+00
    0.00000E+00         0.00000E+00         0.00000E+00
 
    0.30368E+06         0.13553E+05         0.00000E+00
    0.13553E+05        -0.29896E+06         0.00000E+00
    0.00000E+00         0.00000E+00         0.00000E+00
 
    0.25888E+06         0.32395E+05         0.00000E+00
    0.32395E+05        -0.25898E+06         0.00000E+00
    0.00000E+00         0.00000E+00         0.00000E+00
 
    0.22086E+06         0.40661E+05         0.00000E+00
    0.40661E+05        -0.21980E+06         0.00000E+00
    0.00000E+00         0.00000E+00         0.00000E+00
 
    0.19095E+06         0.41563E+05         0.00000E+00
    0.41563E+05        -0.19006E+06         0.00000E+00
    0.00000E+00         0.00000E+00         0.00000E+00
 
    0.16941E+06         0.38772E+05         0.00000E+00
    0.38772E+05        -0.16870E+06         0.00000E+00
    0.00000E+00         0.00000E+00         0.00000E+00
 
    0.15525E+06         0.35664E+05         0.00000E+00
    0.35664E+05        -0.15485E+06         0.00000E+00
    0.00000E+00         0.00000E+00         0.00000E+00
 
    0.14641E+06         0.34846E+05         0.00000E+00
    0.34846E+05        -0.14642E+06         0.00000E+00
    0.00000E+00         0.00000E+00         0.00000E+00
 
    0.14014E+06         0.37757E+05         0.00000E+00
    0.37757E+05        -0.14058E+06         0.00000E+00
    0.00000E+00         0.00000E+00         0.00000E+00
 
    0.13342E+06         0.44483E+05         0.00000E+00
    0.44483E+05        -0.13427E+06         0.00000E+00
    0.00000E+00         0.00000E+00         0.00000E+00
 
    0.12352E+06         0.53708E+05         0.00000E+00
    0.53708E+05        -0.12467E+06         0.00000E+00
    0.00000E+00         0.00000E+00         0.00000E+00
 
    0.10843E+06         0.62806E+05         0.00000E+00
    0.62806E+05        -0.10974E+06         0.00000E+00
    0.00000E+00         0.00000E+00         0.00000E+00
 
    0.87456E+05         0.68075E+05         0.00000E+00
    0.68075E+05        -0.88668E+05         0.00000E+00
    0.00000E+00         0.00000E+00         0.00000E+00
 
    0.61609E+05         0.65178E+05         0.00000E+00
    0.65178E+05        -0.62505E+05         0.00000E+00
    0.00000E+00         0.00000E+00         0.00000E+00
 
    0.34037E+05         0.49775E+05         0.00000E+00
    0.49775E+05        -0.34147E+05         0.00000E+00
    0.00000E+00         0.00000E+00         0.00000E+00
 
    0.10177E+05         0.18273E+05         0.00000E+00
    0.18273E+05        -0.94127E+04         0.00000E+00
    0.00000E+00         0.00000E+00         0.00000E+00
 
    0.31557E+06         0.11786E+05         0.00000E+00
    0.11786E+05        -0.31001E+06         0.00000E+00
    0.00000E+00         0.00000E+00         0.00000E+00
 
    0.26497E+06         0.25991E+05         0.00000E+00
    0.25991E+05        -0.26491E+06         0.00000E+00
    0.00000E+00         0.00000E+00         0.00000E+00
 
    0.22362E+06         0.28228E+05         0.00000E+00
    0.28228E+05        -0.22219E+06         0.00000E+00
    0.00000E+00         0.00000E+00         0.00000E+00
 
    0.19344E+06         0.22586E+05         0.00000E+00
    0.22586E+05        -0.19222E+06         0.00000E+00
    0.00000E+00         0.00000E+00         0.00000E+00
 
    0.17472E+06         0.13950E+05         0.00000E+00
    0.13950E+05        -0.17375E+06         0.00000E+00
    0.00000E+00         0.00000E+00         0.00000E+00
 
    0.16593E+06         0.68127E+04         0.00000E+00
    0.68127E+04        -0.16538E+06         0.00000E+00
    0.00000E+00         0.00000E+00         0.00000E+00
 
    0.16407E+06         0.45711E+04         0.00000E+00
    0.45711E+04        -0.16408E+06         0.00000E+00
    0.00000E+00         0.00000E+00         0.00000E+00
 
    0.16526E+06         0.90422E+04         0.00000E+00
    0.90422E+04        -0.16584E+06         0.00000E+00
    0.00000E+00         0.00000E+00         0.00000E+00
 
    0.16529E+06         0.20286E+05         0.00000E+00
    0.20286E+05        -0.16639E+06         0.00000E+00
    0.00000E+00         0.00000E+00         0.00000E+00
 
    0.16023E+06         0.36581E+05         0.00000E+00
    0.36581E+05        -0.16177E+06         0.00000E+00
    0.00000E+00         0.00000E+00         0.00000E+00
 
    0.14703E+06         0.54492E+05         0.00000E+00
    0.54492E+05        -0.14882E+06         0.00000E+00
    0.00000E+00         0.00000E+00         0.00000E+00
 
    0.12410E+06         0.69052E+05         0.00000E+00
    0.69052E+05        -0.12586E+06         0.00000E+00
    0.00000E+00         0.00000E+00         0.00000E+00
 
    0.92054E+05         0.74207E+05         0.00000E+00
    0.74207E+05        -0.93509E+05         0.00000E+00
    0.00000E+00         0.00000E+00         0.00000E+00
 
    0.54260E+05         0.63567E+05         0.00000E+00
    0.63567E+05        -0.54688E+05         0.00000E+00
    0.00000E+00         0.00000E+00         0.00000E+00
 
    0.17269E+05         0.31377E+05         0.00000E+00
    0.31377E+05        -0.16601E+05         0.00000E+00
    0.00000E+00         0.00000E+00         0.00000E+00
 
    0.32518E+06         0.95770E+04         0.00000E+00
    0.95770E+04        -0.31883E+06         0.00000E+00
    0.00000E+00         0.00000E+00         0.00000E+00
 
    0.26780E+06         0.17675E+05         0.00000E+00
    0.17675E+05        -0.26759E+06         0.00000E+00
    0.00000E+00         0.00000E+00         0.00000E+00
 
    0.22268E+06         0.11633E+05         0.00000E+00
    0.11633E+05        -0.22080E+06         0.00000E+00
    0.00000E+00         0.00000E+00         0.00000E+00
 
    0.19277E+06        -0.30254E+04         0.00000E+00
   -0.30254E+04        -0.19113E+06         0.00000E+00
    0.00000E+00         0.00000E+00         0.00000E+00
 
    0.17837E+06        -0.19631E+05         0.00000E+00
   -0.19631E+05        -0.17710E+06         0.00000E+00
    0.00000E+00         0.00000E+00         0.00000E+00
 
    0.17716E+06        -0.32172E+05         0.00000E+00
   -0.32172E+05        -0.17648E+06         0.00000E+00
    0.00000E+00         0.00000E+00         0.00000E+00
 
    0.18483E+06        -0.36326E+05         0.00000E+00
   -0.36326E+05        -0.18486E+06         0.00000E+00
    0.00000E+00         0.00000E+00         0.00000E+00
 
    0.19605E+06        -0.29922E+05         0.00000E+00
   -0.29922E+05        -0.19679E+06         0.00000E+00
    0.00000E+00         0.00000E+00         0.00000E+00
 
    0.20522E+06        -0.12973E+05         0.00000E+00
   -0.12973E+05        -0.20661E+06         0.00000E+00
    0.00000E+00         0.00000E+00         0.00000E+00
 
    0.20702E+06         0.12380E+05         0.00000E+00
    0.12380E+05        -0.20899E+06         0.00000E+00
    0.00000E+00         0.00000E+00         0.00000E+00
 
    0.19702E+06         0.41884E+05         0.00000E+00
    0.41884E+05        -0.19939E+06         0.00000E+00
    0.00000E+00         0.00000E+00         0.00000E+00
 
    0.17241E+06         0.69175E+05         0.00000E+00
    0.69175E+05        -0.17485E+06         0.00000E+00
    0.00000E+00         0.00000E+00         0.00000E+00
 
    0.13293E+06         0.86104E+05         0.00000E+00
    0.86104E+05        -0.13514E+06         0.00000E+00
    0.00000E+00         0.00000E+00         0.00000E+00
 
    0.81924E+05         0.83560E+05         0.00000E+00
    0.83560E+05        -0.82814E+05         0.00000E+00
    0.00000E+00         0.00000E+00         0.00000E+00
 
    0.27107E+05         0.52764E+05         0.00000E+00
    0.52764E+05        -0.26631E+05         0.00000E+00
    0.00000E+00         0.00000E+00         0.00000E+00
 
    0.33240E+06         0.70976E+04         0.00000E+00
    0.70976E+04        -0.32478E+06         0.00000E+00
    0.00000E+00         0.00000E+00         0.00000E+00
 
    0.26654E+06         0.73406E+04         0.00000E+00
    0.73406E+04        -0.26590E+06         0.00000E+00
    0.00000E+00         0.00000E+00         0.00000E+00
 
    0.21692E+06        -0.98727E+04         0.00000E+00
   -0.98727E+04        -0.21422E+06         0.00000E+00
    0.00000E+00         0.00000E+00         0.00000E+00
 
    0.18803E+06        -0.36762E+05         0.00000E+00
   -0.36762E+05        -0.18570E+06         0.00000E+00
    0.00000E+00         0.00000E+00         0.00000E+00
 
    0.18006E+06        -0.63855E+05         0.00000E+00
   -0.63855E+05        -0.17833E+06         0.00000E+00
    0.00000E+00         0.00000E+00         0.00000E+00
 
    0.18924E+06        -0.83184E+05         0.00000E+00
   -0.83184E+05        -0.18833E+06         0.00000E+00
    0.00000E+00         0.00000E+00         0.00000E+00
 
    0.20941E+06        -0.89531E+05         0.00000E+00
   -0.89531E+05        -0.20937E+06         0.00000E+00
    0.00000E+00         0.00000E+00         0.00000E+00
 
    0.23348E+06        -0.80611E+05         0.00000E+00
   -0.80611E+05        -0.23426E+06         0.00000E+00
    0.00000E+00         0.00000E+00         0.00000E+00
 
    0.25437E+06        -0.56668E+05         0.00000E+00
   -0.56668E+05        -0.25590E+06         0.00000E+00
    0.00000E+00         0.00000E+00         0.00000E+00
 
    0.26534E+06        -0.20198E+05         0.00000E+00
   -0.20198E+05        -0.26759E+06         0.00000E+00
    0.00000E+00         0.00000E+00         0.00000E+00
 
    0.26036E+06         0.23923E+05         0.00000E+00
    0.23923E+05        -0.26321E+06         0.00000E+00
    0.00000E+00         0.00000E+00         0.00000E+00
 
    0.23478E+06         0.68017E+05         0.00000E+00
    0.68017E+05        -0.23790E+06         0.00000E+00
    0.00000E+00         0.00000E+00         0.00000E+00
 
    0.18678E+06         0.10152E+06         0.00000E+00
    0.10152E+06        -0.18987E+06         0.00000E+00
    0.00000E+00         0.00000E+00         0.00000E+00
 
    0.11908E+06         0.11171E+06         0.00000E+00
    0.11171E+06        -0.12054E+06         0.00000E+00
    0.00000E+00         0.00000E+00         0.00000E+00
 
    0.40494E+05         0.85529E+05         0.00000E+00
    0.85529E+05        -0.40335E+05         0.00000E+00
    0.00000E+00         0.00000E+00         0.00000E+00
 
    0.33581E+06         0.44610E+04         0.00000E+00
    0.44610E+04        -0.32773E+06         0.00000E+00
    0.00000E+00         0.00000E+00         0.00000E+00
 
    0.25892E+06        -0.49383E+04         0.00000E+00
   -0.49383E+04        -0.25832E+06         0.00000E+00
    0.00000E+00         0.00000E+00         0.00000E+00
 
    0.20377E+06        -0.37539E+05         0.00000E+00
   -0.37539E+05        -0.20076E+06         0.00000E+00
    0.00000E+00         0.00000E+00         0.00000E+00
 
    0.17746E+06        -0.80815E+05         0.00000E+00
   -0.80815E+05        -0.17504E+06         0.00000E+00
    0.00000E+00         0.00000E+00         0.00000E+00
 
    0.17911E+06        -0.12109E+06         0.00000E+00
   -0.12109E+06        -0.17766E+06         0.00000E+00
    0.00000E+00         0.00000E+00         0.00000E+00
 
    0.20231E+06        -0.14808E+06         0.00000E+00
   -0.14808E+06        -0.20199E+06         0.00000E+00
    0.00000E+00         0.00000E+00         0.00000E+00
 
    0.23818E+06        -0.15619E+06         0.00000E+00
   -0.15619E+06        -0.23885E+06         0.00000E+00
    0.00000E+00         0.00000E+00         0.00000E+00
 
    0.27771E+06        -0.14374E+06         0.00000E+00
   -0.14374E+06        -0.27918E+06         0.00000E+00
    0.00000E+00         0.00000E+00         0.00000E+00
 
    0.31266E+06        -0.11154E+06         0.00000E+00
   -0.11154E+06        -0.31486E+06         0.00000E+00
    0.00000E+00         0.00000E+00         0.00000E+00
 
    0.33520E+06        -0.62227E+05         0.00000E+00
   -0.62227E+05        -0.33821E+06         0.00000E+00
    0.00000E+00         0.00000E+00         0.00000E+00
 
    0.33760E+06        -0.67228E+03         0.00000E+00
   -0.67228E+03        -0.34148E+06         0.00000E+00
    0.00000E+00         0.00000E+00         0.00000E+00
 
    0.31267E+06         0.64708E+05         0.00000E+00
    0.64708E+05        -0.31717E+06         0.00000E+00
    0.00000E+00         0.00000E+00         0.00000E+00
 
    0.25573E+06         0.12085E+06         0.00000E+00
    0.12085E+06        -0.26057E+06         0.00000E+00
    0.00000E+00         0.00000E+00         0.00000E+00
 
    0.16767E+06         0.15030E+06         0.00000E+00
    0.15030E+06        -0.17049E+06         0.00000E+00
    0.00000E+00         0.00000E+00         0.00000E+00
 
    0.58212E+05         0.13356E+06         0.00000E+00
    0.13356E+06        -0.58755E+05         0.00000E+00
    0.00000E+00         0.00000E+00         0.00000E+00
 
    0.33721E+06         0.26506E+04         0.00000E+00
    0.26506E+04        -0.32634E+06         0.00000E+00
    0.00000E+00         0.00000E+00         0.00000E+00
 
    0.24527E+06        -0.20121E+05         0.00000E+00
   -0.20121E+05        -0.24290E+06         0.00000E+00
    0.00000E+00         0.00000E+00         0.00000E+00
 
    0.18420E+06        -0.74003E+05         0.00000E+00
   -0.74003E+05        -0.17855E+06         0.00000E+00
    0.00000E+00         0.00000E+00         0.00000E+00
 
    0.16351E+06        -0.13888E+06         0.00000E+00
   -0.13888E+06        -0.15917E+06         0.00000E+00
    0.00000E+00         0.00000E+00         0.00000E+00
 
    0.17977E+06        -0.19439E+06         0.00000E+00
   -0.19439E+06        -0.17719E+06         0.00000E+00
    0.00000E+00         0.00000E+00         0.00000E+00
 
    0.22147E+06        -0.22819E+06         0.00000E+00
   -0.22819E+06        -0.22040E+06         0.00000E+00
    0.00000E+00         0.00000E+00         0.00000E+00
 
    0.27581E+06        -0.23601E+06         0.00000E+00
   -0.23601E+06        -0.27572E+06         0.00000E+00
    0.00000E+00         0.00000E+00         0.00000E+00
 
    0.33222E+06        -0.21824E+06         0.00000E+00
   -0.21824E+06        -0.33267E+06         0.00000E+00
    0.00000E+00         0.00000E+00         0.00000E+00
 
    0.38233E+06        -0.17684E+06         0.00000E+00
   -0.17684E+06        -0.38326E+06         0.00000E+00
    0.00000E+00         0.00000E+00         0.00000E+00
 
    0.41832E+06        -0.11408E+06         0.00000E+00
   -0.11408E+06        -0.42004E+06         0.00000E+00
    0.00000E+00         0.00000E+00         0.00000E+00
 
    0.43108E+06        -0.33451E+05         0.00000E+00
   -0.33451E+05        -0.43402E+06         0.00000E+00
    0.00000E+00         0.00000E+00         0.00000E+00
 
    0.40990E+06         0.57459E+05         0.00000E+00
    0.57459E+05        -0.41416E+06         0.00000E+00
    0.00000E+00         0.00000E+00         0.00000E+00
 
    0.34492E+06         0.14373E+06         0.00000E+00
    0.14373E+06        -0.35045E+06         0.00000E+00
    0.00000E+00         0.00000E+00         0.00000E+00
 
    0.23269E+06         0.20160E+06         0.00000E+00
    0.20160E+06        -0.23605E+06         0.00000E+00
    0.00000E+00         0.00000E+00         0.00000E+00
 
    0.82484E+05         0.20200E+06         0.00000E+00
    0.20200E+06        -0.83630E+05         0.00000E+00
    0.00000E+00         0.00000E+00         0.00000E+00
 
    0.33501E+06         0.11614E+03         0.00000E+00
    0.11614E+03        -0.32170E+06         0.00000E+00
    0.00000E+00         0.00000E+00         0.00000E+00
 
    0.21939E+06        -0.39676E+05         0.00000E+00
   -0.39676E+05        -0.21713E+06         0.00000E+00
    0.00000E+00         0.00000E+00         0.00000E+00
 
    0.15121E+06        -0.12453E+06         0.00000E+00
   -0.12453E+06        -0.14591E+06         0.00000E+00
    0.00000E+00         0.00000E+00         0.00000E+00
 
    0.14299E+06        -0.21716E+06         0.00000E+00
   -0.21716E+06        -0.14087E+06         0.00000E+00
    0.00000E+00         0.00000E+00         0.00000E+00
 
    0.18213E+06        -0.28727E+06         0.00000E+00
   -0.28727E+06        -0.18287E+06         0.00000E+00
    0.00000E+00         0.00000E+00         0.00000E+00
 
    0.24739E+06        -0.32319E+06         0.00000E+00
   -0.32319E+06        -0.24992E+06         0.00000E+00
    0.00000E+00         0.00000E+00         0.00000E+00
 
    0.32124E+06        -0.32559E+06         0.00000E+00
   -0.32559E+06        -0.32431E+06         0.00000E+00
    0.00000E+00         0.00000E+00         0.00000E+00
 
    0.39296E+06        -0.29956E+06         0.00000E+00
   -0.29956E+06        -0.39585E+06         0.00000E+00
    0.00000E+00         0.00000E+00         0.00000E+00
 
    0.45652E+06        -0.24892E+06         0.00000E+00
   -0.24892E+06        -0.45925E+06         0.00000E+00
    0.00000E+00         0.00000E+00         0.00000E+00
 
    0.50629E+06        -0.17457E+06         0.00000E+00
   -0.17457E+06        -0.50950E+06         0.00000E+00
    0.00000E+00         0.00000E+00         0.00000E+00
 
    0.53298E+06        -0.76208E+05         0.00000E+00
   -0.76208E+05        -0.53773E+06         0.00000E+00
    0.00000E+00         0.00000E+00         0.00000E+00
 
    0.52153E+06         0.42750E+05         0.00000E+00
    0.42750E+05        -0.52861E+06         0.00000E+00
    0.00000E+00         0.00000E+00         0.00000E+00
 
    0.45328E+06         0.16799E+06         0.00000E+00
    0.16799E+06        -0.46316E+06         0.00000E+00
    0.00000E+00         0.00000E+00         0.00000E+00
 
    0.31495E+06         0.26824E+06         0.00000E+00
    0.26824E+06        -0.32264E+06         0.00000E+00
    0.00000E+00         0.00000E+00         0.00000E+00
 
    0.11367E+06         0.29764E+06         0.00000E+00
    0.29764E+06        -0.11720E+06         0.00000E+00
    0.00000E+00         0.00000E+00         0.00000E+00
 
    0.32023E+06         0.14986E+04         0.00000E+00
    0.14986E+04        -0.31233E+06         0.00000E+00
    0.00000E+00         0.00000E+00         0.00000E+00
 
    0.17647E+06        -0.68300E+05         0.00000E+00
   -0.68300E+05        -0.17306E+06         0.00000E+00
    0.00000E+00         0.00000E+00         0.00000E+00
 
    0.10987E+06        -0.20197E+06         0.00000E+00
   -0.20197E+06        -0.10386E+06         0.00000E+00
    0.00000E+00         0.00000E+00         0.00000E+00
 
    0.13060E+06        -0.32597E+06         0.00000E+00
   -0.32597E+06        -0.12953E+06         0.00000E+00
    0.00000E+00         0.00000E+00         0.00000E+00
 
    0.20492E+06        -0.40280E+06         0.00000E+00
   -0.40280E+06        -0.20846E+06         0.00000E+00
    0.00000E+00         0.00000E+00         0.00000E+00
 
    0.29751E+06        -0.42839E+06         0.00000E+00
   -0.42839E+06        -0.30237E+06         0.00000E+00
    0.00000E+00         0.00000E+00         0.00000E+00
 
    0.38701E+06        -0.41579E+06         0.00000E+00
   -0.41579E+06        -0.39109E+06         0.00000E+00
    0.00000E+00         0.00000E+00         0.00000E+00
 
    0.46681E+06        -0.37759E+06         0.00000E+00
   -0.37759E+06        -0.46949E+06         0.00000E+00
    0.00000E+00         0.00000E+00         0.00000E+00
 
    0.53702E+06        -0.31934E+06         0.00000E+00
   -0.31934E+06        -0.53849E+06         0.00000E+00
    0.00000E+00         0.00000E+00         0.00000E+00
 
    0.59738E+06        -0.23940E+06         0.00000E+00
   -0.23940E+06        -0.59852E+06         0.00000E+00
    0.00000E+00         0.00000E+00         0.00000E+00
 
    0.64120E+06        -0.13060E+06         0.00000E+00
   -0.13060E+06        -0.64387E+06         0.00000E+00
    0.00000E+00         0.00000E+00         0.00000E+00
 
    0.64931E+06         0.13754E+05         0.00000E+00
    0.13754E+05        -0.65593E+06         0.00000E+00
    0.00000E+00         0.00000E+00         0.00000E+00
 
    0.58900E+06         0.18651E+06         0.00000E+00
    0.18651E+06        -0.60177E+06         0.00000E+00
    0.00000E+00         0.00000E+00         0.00000E+00
 
    0.42702E+06         0.34945E+06         0.00000E+00
    0.34945E+06        -0.43859E+06         0.00000E+00
    0.00000E+00         0.00000E+00         0.00000E+00
 
    0.15855E+06         0.42924E+06         0.00000E+00
    0.42924E+06        -0.16466E+06         0.00000E+00
    0.00000E+00         0.00000E+00         0.00000E+00
 
    0.34828E+06         0.80203E+03         0.00000E+00
    0.80203E+03        -0.27572E+06         0.00000E+00
    0.00000E+00         0.00000E+00         0.00000E+00
 
    0.14341E+06        -0.13227E+06         0.00000E+00
   -0.13227E+06        -0.11577E+06         0.00000E+00
    0.00000E+00         0.00000E+00         0.00000E+00
 
    0.92059E+05        -0.32870E+06         0.00000E+00
   -0.32870E+06        -0.61061E+05         0.00000E+00
    0.00000E+00         0.00000E+00         0.00000E+00
 
    0.16536E+06        -0.48004E+06         0.00000E+00
   -0.48004E+06        -0.15158E+06         0.00000E+00
    0.00000E+00         0.00000E+00         0.00000E+00
 
    0.28955E+06        -0.53738E+06         0.00000E+00
   -0.53738E+06        -0.28156E+06         0.00000E+00
    0.00000E+00         0.00000E+00         0.00000E+00
 
    0.40467E+06        -0.52860E+06         0.00000E+00
   -0.52860E+06        -0.39494E+06         0.00000E+00
    0.00000E+00         0.00000E+00         0.00000E+00
 
    0.49563E+06        -0.48830E+06         0.00000E+00
   -0.48830E+06        -0.48316E+06         0.00000E+00
    0.00000E+00         0.00000E+00         0.00000E+00
 
    0.56797E+06        -0.43468E+06         0.00000E+00
   -0.43468E+06        -0.55288E+06         0.00000E+00
    0.00000E+00         0.00000E+00         0.00000E+00
 
    0.63107E+06        -0.37289E+06         0.00000E+00
   -0.37289E+06        -0.61383E+06         0.00000E+00
    0.00000E+00         0.00000E+00         0.00000E+00
 
    0.69245E+06        -0.29797E+06         0.00000E+00
   -0.29797E+06        -0.67379E+06         0.00000E+00
    0.00000E+00         0.00000E+00         0.00000E+00
 
    0.75285E+06        -0.19515E+06         0.00000E+00
   -0.19515E+06        -0.73432E+06         0.00000E+00
    0.00000E+00         0.00000E+00         0.00000E+00
 
    0.79482E+06        -0.40040E+05         0.00000E+00
   -0.40040E+05        -0.78156E+06         0.00000E+00
    0.00000E+00         0.00000E+00         0.00000E+00
 
    0.76661E+06         0.18485E+06         0.00000E+00
    0.18485E+06        -0.76726E+06         0.00000E+00
    0.00000E+00         0.00000E+00         0.00000E+00
 
    0.59096E+06         0.44323E+06         0.00000E+00
    0.44323E+06        -0.59714E+06         0.00000E+00
    0.00000E+00         0.00000E+00         0.00000E+00
 
    0.22802E+06         0.61458E+06         0.00000E+00
    0.61458E+06        -0.23703E+06         0.00000E+00
    0.00000E+00         0.00000E+00         0.00000E+00
 
    0.22755E+06        -0.26966E+05         0.00000E+00
   -0.26966E+05        -0.30039E+06         0.00000E+00
    0.00000E+00         0.00000E+00         0.00000E+00
 
   -0.30979E+05        -0.23312E+06         0.00000E+00
   -0.23312E+06        -0.85487E+04         0.00000E+00
    0.00000E+00         0.00000E+00         0.00000E+00
 
   -0.16377E+05        -0.55918E+06         0.00000E+00
   -0.55918E+06        -0.56662E+05         0.00000E+00
    0.00000E+00         0.00000E+00         0.00000E+00
 
    0.18223E+06        -0.68693E+06         0.00000E+00
   -0.68693E+06        -0.27509E+06         0.00000E+00
    0.00000E+00         0.00000E+00         0.00000E+00
 
    0.35853E+06        -0.66255E+06         0.00000E+00
   -0.66255E+06        -0.44133E+06         0.00000E+00
    0.00000E+00         0.00000E+00         0.00000E+00
 
    0.46846E+06        -0.59103E+06         0.00000E+00
   -0.59103E+06        -0.54312E+06         0.00000E+00
    0.00000E+00         0.00000E+00         0.00000E+00
 
    0.53378E+06        -0.51467E+06         0.00000E+00
   -0.51467E+06        -0.60306E+06         0.00000E+00
    0.00000E+00         0.00000E+00         0.00000E+00
 
    0.57651E+06        -0.44692E+06         0.00000E+00
   -0.44692E+06        -0.64214E+06         0.00000E+00
    0.00000E+00         0.00000E+00         0.00000E+00
 
    0.61401E+06        -0.38806E+06         0.00000E+00
   -0.38806E+06        -0.67669E+06         0.00000E+00
    0.00000E+00         0.00000E+00         0.00000E+00
 
    0.66012E+06        -0.33053E+06         0.00000E+00
   -0.33053E+06        -0.71985E+06         0.00000E+00
    0.00000E+00         0.00000E+00         0.00000E+00
 
    0.72560E+06        -0.25654E+06         0.00000E+00
   -0.25654E+06        -0.78213E+06         0.00000E+00
    0.00000E+00         0.00000E+00         0.00000E+00
 
    0.81251E+06        -0.12951E+06         0.00000E+00
   -0.12951E+06        -0.86624E+06         0.00000E+00
    0.00000E+00         0.00000E+00         0.00000E+00
 
    0.87187E+06         0.12264E+06         0.00000E+00
    0.12264E+06        -0.94510E+06         0.00000E+00
    0.00000E+00         0.00000E+00         0.00000E+00
 
    0.74651E+06         0.52940E+06         0.00000E+00
    0.52940E+06        -0.83712E+06         0.00000E+00
    0.00000E+00         0.00000E+00         0.00000E+00
 
    0.30500E+06         0.87031E+06         0.00000E+00
    0.87031E+06        -0.34685E+06         0.00000E+00
    0.00000E+00         0.00000E+00         0.00000E+00
 
    0.23116E+06         0.59066E+05         0.00000E+00
    0.59066E+05         0.19805E+05         0.00000E+00
    0.00000E+00         0.00000E+00         0.00000E+00
 
   -0.12963E+05        -0.65553E+06         0.00000E+00
   -0.65553E+06         0.11503E+06         0.00000E+00
    0.00000E+00         0.00000E+00         0.00000E+00
 
    0.35231E+06        -0.97985E+06         0.00000E+00
   -0.97985E+06        -0.32020E+06         0.00000E+00
    0.00000E+00         0.00000E+00         0.00000E+00
 
    0.67687E+06        -0.86831E+06         0.00000E+00
   -0.86831E+06        -0.60102E+06         0.00000E+00
    0.00000E+00         0.00000E+00         0.00000E+00
 
    0.80588E+06        -0.70231E+06         0.00000E+00
   -0.70231E+06        -0.71150E+06         0.00000E+00
    0.00000E+00         0.00000E+00         0.00000E+00
 
    0.84541E+06        -0.56402E+06         0.00000E+00
   -0.56402E+06        -0.74247E+06         0.00000E+00
    0.00000E+00         0.00000E+00         0.00000E+00
 
    0.84646E+06        -0.46222E+06         0.00000E+00
   -0.46222E+06        -0.74033E+06         0.00000E+00
    0.00000E+00         0.00000E+00         0.00000E+00
 
    0.83601E+06        -0.39094E+06         0.00000E+00
   -0.39094E+06        -0.72845E+06         0.00000E+00
    0.00000E+00         0.00000E+00         0.00000E+00
 
    0.82931E+06        -0.34254E+06         0.00000E+00
   -0.34254E+06        -0.72067E+06         0.00000E+00
    0.00000E+00         0.00000E+00         0.00000E+00
 
    0.83867E+06        -0.30907E+06         0.00000E+00
   -0.30907E+06        -0.72846E+06         0.00000E+00
    0.00000E+00         0.00000E+00         0.00000E+00
 
    0.87948E+06        -0.27830E+06         0.00000E+00
   -0.27830E+06        -0.76594E+06         0.00000E+00
    0.00000E+00         0.00000E+00         0.00000E+00
 
    0.97280E+06        -0.22169E+06         0.00000E+00
   -0.22169E+06        -0.85221E+06         0.00000E+00
    0.00000E+00         0.00000E+00         0.00000E+00
 
    0.11451E+07        -0.57780E+05         0.00000E+00
   -0.57780E+05        -0.10191E+07         0.00000E+00
    0.00000E+00         0.00000E+00         0.00000E+00
 
    0.12083E+07         0.46929E+06         0.00000E+00
    0.46929E+06        -0.11729E+07         0.00000E+00
    0.00000E+00         0.00000E+00         0.00000E+00
 
    0.58100E+06         0.12475E+07         0.00000E+00
    0.12475E+07        -0.60986E+06         0.00000E+00
    0.00000E+00         0.00000E+00         0.00000E+00
 
    0.16717E+07        -0.78665E+06         0.00000E+00
   -0.78665E+06         0.35077E+06         0.00000E+00
    0.00000E+00         0.00000E+00         0.00000E+00
 
    0.12965E+07        -0.16963E+07         0.00000E+00
   -0.16963E+07        -0.86131E+06         0.00000E+00
    0.00000E+00         0.00000E+00         0.00000E+00
 
    0.18122E+07        -0.11510E+07         0.00000E+00
   -0.11510E+07        -0.11132E+07         0.00000E+00
    0.00000E+00         0.00000E+00         0.00000E+00
 
    0.17964E+07        -0.76320E+06         0.00000E+00
   -0.76320E+06        -0.11129E+07         0.00000E+00
    0.00000E+00         0.00000E+00         0.00000E+00
 
    0.17041E+07        -0.53222E+06         0.00000E+00
   -0.53222E+06        -0.10345E+07         0.00000E+00
    0.00000E+00         0.00000E+00         0.00000E+00
 
    0.16018E+07        -0.39235E+06         0.00000E+00
   -0.39235E+06        -0.94488E+06         0.00000E+00
    0.00000E+00         0.00000E+00         0.00000E+00
 
    0.15107E+07        -0.30606E+06         0.00000E+00
   -0.30606E+06        -0.86488E+06         0.00000E+00
    0.00000E+00         0.00000E+00         0.00000E+00
 
    0.14347E+07        -0.25263E+06         0.00000E+00
   -0.25263E+06        -0.79783E+06         0.00000E+00
    0.00000E+00         0.00000E+00         0.00000E+00
 
    0.13746E+07        -0.22135E+06         0.00000E+00
   -0.22135E+06        -0.74553E+06         0.00000E+00
    0.00000E+00         0.00000E+00         0.00000E+00
 
    0.13325E+07        -0.20623E+06         0.00000E+00
   -0.20623E+06        -0.71112E+06         0.00000E+00
    0.00000E+00         0.00000E+00         0.00000E+00
 
    0.13162E+07        -0.20299E+06         0.00000E+00
   -0.20299E+06        -0.70246E+06         0.00000E+00
    0.00000E+00         0.00000E+00         0.00000E+00
 
    0.13472E+07        -0.20190E+06         0.00000E+00
   -0.20190E+06        -0.73909E+06         0.00000E+00
    0.00000E+00         0.00000E+00         0.00000E+00
 
    0.14693E+07        -0.16736E+06         0.00000E+00
   -0.16736E+06        -0.87305E+06         0.00000E+00
    0.00000E+00         0.00000E+00         0.00000E+00
 
    0.18675E+07         0.10474E+06         0.00000E+00
    0.10474E+06        -0.12166E+07         0.00000E+00
    0.00000E+00         0.00000E+00         0.00000E+00
 
    0.10874E+07         0.18817E+07         0.00000E+00
    0.18817E+07        -0.14044E+07         0.00000E+00
    0.00000E+00         0.00000E+00         0.00000E+00
 
   -0.83806E+07        -0.27069E+07         0.00000E+00
   -0.27069E+07        -0.43351E+07         0.00000E+00
    0.00000E+00         0.00000E+00         0.00000E+00
 
   -0.63809E+07        -0.99934E+06         0.00000E+00
   -0.99934E+06        -0.27779E+07         0.00000E+00
    0.00000E+00         0.00000E+00         0.00000E+00
 
   -0.65071E+07        -0.42612E+06         0.00000E+00
   -0.42612E+06        -0.19136E+07         0.00000E+00
    0.00000E+00         0.00000E+00         0.00000E+00
 
   -0.66329E+07        -0.24383E+06         0.00000E+00
   -0.24383E+06        -0.15032E+07         0.00000E+00
    0.00000E+00         0.00000E+00         0.00000E+00
 
   -0.67392E+07        -0.15789E+06         0.00000E+00
   -0.15789E+06        -0.12456E+07         0.00000E+00
    0.00000E+00         0.00000E+00         0.00000E+00
 
   -0.68182E+07        -0.11188E+06         0.00000E+00
   -0.11188E+06        -0.10661E+07         0.00000E+00
    0.00000E+00         0.00000E+00         0.00000E+00
 
   -0.68760E+07        -0.84645E+05         0.00000E+00
   -0.84645E+05        -0.93516E+06         0.00000E+00
    0.00000E+00         0.00000E+00         0.00000E+00
 
   -0.69159E+07        -0.67960E+05         0.00000E+00
   -0.67960E+05        -0.83494E+06         0.00000E+00
    0.00000E+00         0.00000E+00         0.00000E+00
 
   -0.69386E+07        -0.57649E+05         0.00000E+00
   -0.57649E+05        -0.75661E+06         0.00000E+00
    0.00000E+00         0.00000E+00         0.00000E+00
 
   -0.69402E+07        -0.51480E+05         0.00000E+00
   -0.51480E+05        -0.69626E+06         0.00000E+00
    0.00000E+00         0.00000E+00         0.00000E+00
 
   -0.69093E+07        -0.47625E+05         0.00000E+00
   -0.47625E+05        -0.65475E+06         0.00000E+00
    0.00000E+00         0.00000E+00         0.00000E+00
 
   -0.68168E+07        -0.43086E+05         0.00000E+00
   -0.43086E+05        -0.64269E+06         0.00000E+00
    0.00000E+00         0.00000E+00         0.00000E+00
 
   -0.65753E+07        -0.22358E+05         0.00000E+00
   -0.22358E+05        -0.69737E+06         0.00000E+00
    0.00000E+00         0.00000E+00         0.00000E+00
 
   -0.59245E+07         0.36899E+05         0.00000E+00
    0.36899E+05        -0.93329E+06         0.00000E+00
    0.00000E+00         0.00000E+00         0.00000E+00
 
   -0.27241E+07         0.12266E+07         0.00000E+00
    0.12266E+07        -0.22726E+07         0.00000E+00
    0.00000E+00         0.00000E+00         0.00000E+00
 
TENSORS stresstot double 
   -0.59723E+08         0.33228E+03         0.00000E+00
    0.33228E+03        -0.60000E+08         0.00000E+00
    0.00000E+00         0.00000E+00        -0.59862E+08
 
   -0.59729E+08         0.14888E+04         0.00000E+00
    0.14888E+04        -0.59998E+08         0.00000E+00
    0.00000E+00         0.00000E+00        -0.59864E+08
 
   -0.59739E+08         0.23975E+04         0.00000E+00
    0.23975E+04        -0.59994E+08         0.00000E+00
    0.00000E+00         0.00000E+00        -0.59867E+08
 
   -0.59752E+08         0.30669E+04         0.00000E+00
    0.30669E+04        -0.59988E+08         0.00000E+00
    0.00000E+00         0.00000E+00        -0.59870E+08
 
   -0.59767E+08         0.35231E+04         0.00000E+00
    0.35231E+04        -0.59982E+08         0.00000E+00
    0.00000E+00         0.00000E+00        -0.59875E+08
 
   -0.59783E+08         0.37855E+04         0.00000E+00
    0.37855E+04        -0.59974E+08         0.00000E+00
    0.00000E+00         0.00000E+00        -0.59879E+08
 
   -0.59801E+08         0.38730E+04         0.00000E+00
    0.38730E+04        -0.59967E+08         0.00000E+00
    0.00000E+00         0.00000E+00        -0.59884E+08
 
   -0.59818E+08         0.38066E+04         0.00000E+00
    0.38066E+04        -0.59959E+08         0.00000E+00
    0.00000E+00         0.00000E+00        -0.59889E+08
 
   -0.59835E+08         0.36100E+04         0.00000E+00
    0.36100E+04        -0.59951E+08         0.00000E+00
    0.00000E+00         0.00000E+00        -0.59894E+08
 
   -0.59852E+08         0.33102E+04         0.00000E+00
    0.33102E+04        -0.59945E+08         0.00000E+00
    0.00000E+00         0.00000E+00        -0.59899E+08
 
   -0.59867E+08         0.29381E+04         0.00000E+00
    0.29381E+04        -0.59938E+08         0.00000E+00
    0.00000E+00         0.00000E+00        -0.59903E+08
 
   -0.59881E+08         0.25299E+04         0.00000E+00
    0.25299E+04        -0.59933E+08         0.00000E+00
    0.00000E+00         0.00000E+00        -0.59907E+08
 
   -0.59893E+08         0.21286E+04         0.00000E+00
    0.21286E+04        -0.59928E+08         0.00000E+00
    0.00000E+00         0.00000E+00        -0.59911E+08
 
   -0.59904E+08         0.17875E+04         0.00000E+00
    0.17875E+04        -0.59924E+08         0.00000E+00
    0.00000E+00         0.00000E+00        -0.59915E+08
 
   -0.59915E+08         0.17606E+04         0.00000E+00
    0.17606E+04        -0.59921E+08         0.00000E+00
    0.00000E+00         0.00000E+00        -0.59918E+08
 
   -0.59721E+08         0.16406E+04         0.00000E+00
    0.16406E+04        -0.59999E+08         0.00000E+00
    0.00000E+00         0.00000E+00        -0.59860E+08
 
   -0.59727E+08         0.46835E+04         0.00000E+00
    0.46835E+04        -0.59997E+08         0.00000E+00
    0.00000E+00         0.00000E+00        -0.59862E+08
 
   -0.59737E+08         0.72758E+04         0.00000E+00
    0.72758E+04        -0.59993E+08         0.00000E+00
    0.00000E+00         0.00000E+00        -0.59865E+08
 
   -0.59751E+08         0.92427E+04         0.00000E+00
    0.92427E+04        -0.59987E+08         0.00000E+00
    0.00000E+00         0.00000E+00        -0.59869E+08
 
   -0.59766E+08         0.10595E+05         0.00000E+00
    0.10595E+05        -0.59981E+08         0.00000E+00
    0.00000E+00         0.00000E+00        -0.59873E+08
 
   -0.59783E+08         0.11374E+05         0.00000E+00
    0.11374E+05        -0.59973E+08         0.00000E+00
    0.00000E+00         0.00000E+00        -0.59878E+08
 
   -0.59801E+08         0.11632E+05         0.00000E+00
    0.11632E+05        -0.59965E+08         0.00000E+00
    0.00000E+00         0.00000E+00        -0.59883E+08
 
   -0.59818E+08         0.11430E+05         0.00000E+00
    0.11430E+05        -0.59958E+08         0.00000E+00
    0.00000E+00         0.00000E+00        -0.59888E+08
 
   -0.59836E+08         0.10838E+05         0.00000E+00
    0.10838E+05        -0.59950E+08         0.00000E+00
    0.00000E+00         0.00000E+00        -0.59893E+08
 
   -0.59852E+08         0.99360E+04         0.00000E+00
    0.99360E+04        -0.59943E+08         0.00000E+00
    0.00000E+00         0.00000E+00        -0.59898E+08
 
   -0.59868E+08         0.88177E+04         0.00000E+00
    0.88177E+04        -0.59937E+08         0.00000E+00
    0.00000E+00         0.00000E+00        -0.59902E+08
 
   -0.59881E+08         0.75927E+04         0.00000E+00
    0.75927E+04        -0.59932E+08         0.00000E+00
    0.00000E+00         0.00000E+00        -0.59907E+08
 
   -0.59894E+08         0.63930E+04         0.00000E+00
    0.63930E+04        -0.59927E+08         0.00000E+00
    0.00000E+00         0.00000E+00        -0.59910E+08
 
   -0.59905E+08         0.54032E+04         0.00000E+00
    0.54032E+04        -0.59923E+08         0.00000E+00
    0.00000E+00         0.00000E+00        -0.59914E+08
 
   -0.59914E+08         0.50109E+04         0.00000E+00
    0.50109E+04        -0.59920E+08         0.00000E+00
    0.00000E+00         0.00000E+00        -0.59917E+08
 
   -0.59716E+08         0.29361E+04         0.00000E+00
    0.29361E+04        -0.59999E+08         0.00000E+00
    0.00000E+00         0.00000E+00        -0.59858E+08
 
   -0.59723E+08         0.80969E+04         0.00000E+00
    0.80969E+04        -0.59997E+08         0.00000E+00
    0.00000E+00         0.00000E+00        -0.59860E+08
 
   -0.59734E+08         0.12298E+05         0.00000E+00
    0.12298E+05        -0.59993E+08         0.00000E+00
    0.00000E+00         0.00000E+00        -0.59863E+08
 
   -0.59748E+08         0.15510E+05         0.00000E+00
    0.15510E+05        -0.59987E+08         0.00000E+00
    0.00000E+00         0.00000E+00        -0.59868E+08
 
   -0.59765E+08         0.17729E+05         0.00000E+00
    0.17729E+05        -0.59980E+08         0.00000E+00
    0.00000E+00         0.00000E+00        -0.59872E+08
 
   -0.59782E+08         0.19007E+05         0.00000E+00
    0.19007E+05        -0.59973E+08         0.00000E+00
    0.00000E+00         0.00000E+00        -0.59878E+08
 
   -0.59801E+08         0.19424E+05         0.00000E+00
    0.19424E+05        -0.59965E+08         0.00000E+00
    0.00000E+00         0.00000E+00        -0.59883E+08
 
   -0.59819E+08         0.19078E+05         0.00000E+00
    0.19078E+05        -0.59957E+08         0.00000E+00
    0.00000E+00         0.00000E+00        -0.59888E+08
 
   -0.59837E+08         0.18084E+05         0.00000E+00
    0.18084E+05        -0.59950E+08         0.00000E+00
    0.00000E+00         0.00000E+00        -0.59893E+08
 
   -0.59854E+08         0.16574E+05         0.00000E+00
    0.16574E+05        -0.59943E+08         0.00000E+00
    0.00000E+00         0.00000E+00        -0.59898E+08
 
   -0.59869E+08         0.14700E+05         0.00000E+00
    0.14700E+05        -0.59937E+08         0.00000E+00
    0.00000E+00         0.00000E+00        -0.59903E+08
 
   -0.59883E+08         0.12646E+05         0.00000E+00
    0.12646E+05        -0.59931E+08         0.00000E+00
    0.00000E+00         0.00000E+00        -0.59907E+08
 
   -0.59895E+08         0.10635E+05         0.00000E+00
    0.10635E+05        -0.59927E+08         0.00000E+00
    0.00000E+00         0.00000E+00        -0.59911E+08
 
   -0.59906E+08         0.89526E+04         0.00000E+00
    0.89526E+04        -0.59923E+08         0.00000E+00
    0.00000E+00         0.00000E+00        -0.59914E+08
 
   -0.59914E+08         0.78840E+04         0.00000E+00
    0.78840E+04        -0.59920E+08         0.00000E+00
    0.00000E+00         0.00000E+00        -0.59917E+08
 
   -0.59709E+08         0.41492E+04         0.00000E+00
    0.41492E+04        -0.59999E+08         0.00000E+00
    0.00000E+00         0.00000E+00        -0.59854E+08
 
   -0.59718E+08         0.11507E+05         0.00000E+00
    0.11507E+05        -0.59997E+08         0.00000E+00
    0.00000E+00         0.00000E+00        -0.59857E+08
 
   -0.59730E+08         0.17404E+05         0.00000E+00
    0.17404E+05        -0.59993E+08         0.00000E+00
    0.00000E+00         0.00000E+00        -0.59861E+08
 
   -0.59745E+08         0.21863E+05         0.00000E+00
    0.21863E+05        -0.59987E+08         0.00000E+00
    0.00000E+00         0.00000E+00        -0.59866E+08
 
   -0.59763E+08         0.24933E+05         0.00000E+00
    0.24933E+05        -0.59980E+08         0.00000E+00
    0.00000E+00         0.00000E+00        -0.59871E+08
 
   -0.59781E+08         0.26693E+05         0.00000E+00
    0.26693E+05        -0.59973E+08         0.00000E+00
    0.00000E+00         0.00000E+00        -0.59877E+08
 
   -0.59801E+08         0.27255E+05         0.00000E+00
    0.27255E+05        -0.59965E+08         0.00000E+00
    0.00000E+00         0.00000E+00        -0.59883E+08
 
   -0.59820E+08         0.26755E+05         0.00000E+00
    0.26755E+05        -0.59957E+08         0.00000E+00
    0.00000E+00         0.00000E+00        -0.59889E+08
 
   -0.59838E+08         0.25349E+05         0.00000E+00
    0.25349E+05        -0.59950E+08         0.00000E+00
    0.00000E+00         0.00000E+00        -0.59894E+08
 
   -0.59856E+08         0.23218E+05         0.00000E+00
    0.23218E+05        -0.59943E+08         0.00000E+00
    0.00000E+00         0.00000E+00        -0.59899E+08
 
   -0.59872E+08         0.20569E+05         0.00000E+00
    0.20569E+05        -0.59937E+08         0.00000E+00
    0.00000E+00         0.00000E+00        -0.59904E+08
 
   -0.59885E+08         0.17652E+05         0.00000E+00
    0.17652E+05        -0.59931E+08         0.00000E+00
    0.00000E+00         0.00000E+00        -0.59908E+08
 
   -0.59897E+08         0.14766E+05         0.00000E+00
    0.14766E+05        -0.59927E+08         0.00000E+00
    0.00000E+00         0.00000E+00        -0.59912E+08
 
   -0.59907E+08         0.12256E+05         0.00000E+00
    0.12256E+05        -0.59923E+08         0.00000E+00
    0.00000E+00         0.00000E+00        -0.59915E+08
 
   -0.59915E+08         0.10493E+05         0.00000E+00
    0.10493E+05        -0.59920E+08         0.00000E+00
    0.00000E+00         0.00000E+00        -0.59918E+08
 
   -0.59700E+08         0.53970E+04         0.00000E+00
    0.53970E+04        -0.59999E+08         0.00000E+00
    0.00000E+00         0.00000E+00        -0.59850E+08
 
   -0.59710E+08         0.14941E+05         0.00000E+00
    0.14941E+05        -0.59997E+08         0.00000E+00
    0.00000E+00         0.00000E+00        -0.59853E+08
 
   -0.59724E+08         0.22560E+05         0.00000E+00
    0.22560E+05        -0.59993E+08         0.00000E+00
    0.00000E+00         0.00000E+00        -0.59858E+08
 
   -0.59741E+08         0.28277E+05         0.00000E+00
    0.28277E+05        -0.59987E+08         0.00000E+00
    0.00000E+00         0.00000E+00        -0.59864E+08
 
   -0.59760E+08         0.32187E+05         0.00000E+00
    0.32187E+05        -0.59980E+08         0.00000E+00
    0.00000E+00         0.00000E+00        -0.59870E+08
 
   -0.59780E+08         0.34413E+05         0.00000E+00
    0.34413E+05        -0.59973E+08         0.00000E+00
    0.00000E+00         0.00000E+00        -0.59876E+08
 
   -0.59801E+08         0.35106E+05         0.00000E+00
    0.35106E+05        -0.59965E+08         0.00000E+00
    0.00000E+00         0.00000E+00        -0.59883E+08
 
   -0.59821E+08         0.34442E+05         0.00000E+00
    0.34442E+05        -0.59957E+08         0.00000E+00
    0.00000E+00         0.00000E+00        -0.59889E+08
 
   -0.59840E+08         0.32616E+05         0.00000E+00
    0.32616E+05        -0.59949E+08         0.00000E+00
    0.00000E+00         0.00000E+00        -0.59895E+08
 
   -0.59858E+08         0.29850E+05         0.00000E+00
    0.29850E+05        -0.59943E+08         0.00000E+00
    0.00000E+00         0.00000E+00        -0.59901E+08
 
   -0.59875E+08         0.26400E+05         0.00000E+00
    0.26400E+05        -0.59936E+08         0.00000E+00
    0.00000E+00         0.00000E+00        -0.59906E+08
 
   -0.59889E+08         0.22569E+05         0.00000E+00
    0.22569E+05        -0.59931E+08         0.00000E+00
    0.00000E+00         0.00000E+00        -0.59910E+08
 
   -0.59901E+08         0.18717E+05         0.00000E+00
    0.18717E+05        -0.59927E+08         0.00000E+00
    0.00000E+00         0.00000E+00        -0.59914E+08
 
   -0.59910E+08         0.15268E+05         0.00000E+00
    0.15268E+05        -0.59923E+08         0.00000E+00
    0.00000E+00         0.00000E+00        -0.59917E+08
 
   -0.59917E+08         0.12723E+05         0.00000E+00
    0.12723E+05        -0.59921E+08         0.00000E+00
    0.00000E+00         0.00000E+00        -0.59919E+08
 
   -0.59689E+08         0.66731E+04         0.00000E+00
    0.66731E+04        -0.59999E+08         0.00000E+00
    0.00000E+00         0.00000E+00        -0.59844E+08
 
   -0.59700E+08         0.18430E+05         0.00000E+00
    0.18430E+05        -0.59997E+08         0.00000E+00
    0.00000E+00         0.00000E+00        -0.59849E+08
 
   -0.59717E+08         0.27760E+05         0.00000E+00
    0.27760E+05        -0.59993E+08         0.00000E+00
    0.00000E+00         0.00000E+00        -0.59855E+08
 
   -0.59736E+08         0.34720E+05         0.00000E+00
    0.34720E+05        -0.59987E+08         0.00000E+00
    0.00000E+00         0.00000E+00        -0.59861E+08
 
   -0.59756E+08         0.39450E+05         0.00000E+00
    0.39450E+05        -0.59980E+08         0.00000E+00
    0.00000E+00         0.00000E+00        -0.59868E+08
 
   -0.59778E+08         0.42123E+05         0.00000E+00
    0.42123E+05        -0.59972E+08         0.00000E+00
    0.00000E+00         0.00000E+00        -0.59875E+08
 
   -0.59801E+08         0.42935E+05         0.00000E+00
    0.42935E+05        -0.59965E+08         0.00000E+00
    0.00000E+00         0.00000E+00        -0.59883E+08
 
   -0.59822E+08         0.42100E+05         0.00000E+00
    0.42100E+05        -0.59957E+08         0.00000E+00
    0.00000E+00         0.00000E+00        -0.59890E+08
 
   -0.59843E+08         0.39850E+05         0.00000E+00
    0.39850E+05        -0.59950E+08         0.00000E+00
    0.00000E+00         0.00000E+00        -0.59896E+08
 
   -0.59862E+08         0.36441E+05         0.00000E+00
    0.36441E+05        -0.59943E+08         0.00000E+00
    0.00000E+00         0.00000E+00        -0.59902E+08
 
   -0.59879E+08         0.32164E+05         0.00000E+00
    0.32164E+05        -0.59937E+08         0.00000E+00
    0.00000E+00         0.00000E+00        -0.59908E+08
 
   -0.59893E+08         0.27366E+05         0.00000E+00
    0.27366E+05        -0.59931E+08         0.00000E+00
    0.00000E+00         0.00000E+00        -0.59912E+08
 
   -0.59905E+08         0.22462E+05         0.00000E+00
    0.22462E+05        -0.59927E+08         0.00000E+00
    0.00000E+00         0.00000E+00        -0.59916E+08
 
   -0.59914E+08         0.17954E+05         0.00000E+00
    0.17954E+05        -0.59924E+08         0.00000E+00
    0.00000E+00         0.00000E+00        -0.59919E+08
 
   -0.59919E+08         0.14463E+05         0.00000E+00
    0.14463E+05        -0.59922E+08         0.00000E+00
    0.00000E+00         0.00000E+00        -0.59921E+08
 
   -0.59674E+08         0.79726E+04         0.00000E+00
    0.79726E+04        -0.59999E+08         0.00000E+00
    0.00000E+00         0.00000E+00        -0.59837E+08
 
   -0.59689E+08         0.21953E+05         0.00000E+00
    0.21953E+05        -0.59997E+08         0.00000E+00
    0.00000E+00         0.00000E+00        -0.59843E+08
 
   -0.59708E+08         0.32972E+05         0.00000E+00
    0.32972E+05        -0.59993E+08         0.00000E+00
    0.00000E+00         0.00000E+00        -0.59850E+08
 
   -0.59729E+08         0.41137E+05         0.00000E+00
    0.41137E+05        -0.59987E+08         0.00000E+00
    0.00000E+00         0.00000E+00        -0.59858E+08
 
   -0.59753E+08         0.46652E+05         0.00000E+00
    0.46652E+05        -0.59980E+08         0.00000E+00
    0.00000E+00         0.00000E+00        -0.59866E+08
 
   -0.59777E+08         0.49745E+05         0.00000E+00
    0.49745E+05        -0.59973E+08         0.00000E+00
    0.00000E+00         0.00000E+00        -0.59875E+08
 
   -0.59801E+08         0.50662E+05         0.00000E+00
    0.50662E+05        -0.59965E+08         0.00000E+00
    0.00000E+00         0.00000E+00        -0.59883E+08
 
   -0.59824E+08         0.49656E+05         0.00000E+00
    0.49656E+05        -0.59958E+08         0.00000E+00
    0.00000E+00         0.00000E+00        -0.59891E+08
 
   -0.59846E+08         0.46990E+05         0.00000E+00
    0.46990E+05        -0.59950E+08         0.00000E+00
    0.00000E+00         0.00000E+00        -0.59898E+08
 
   -0.59866E+08         0.42943E+05         0.00000E+00
    0.42943E+05        -0.59944E+08         0.00000E+00
    0.00000E+00         0.00000E+00        -0.59905E+08
 
   -0.59884E+08         0.37829E+05         0.00000E+00
    0.37829E+05        -0.59937E+08         0.00000E+00
    0.00000E+00         0.00000E+00        -0.59911E+08
 
   -0.59899E+08         0.32022E+05         0.00000E+00
    0.32022E+05        -0.59932E+08         0.00000E+00
    0.00000E+00         0.00000E+00        -0.59916E+08
 
   -0.59910E+08         0.25981E+05         0.00000E+00
    0.25981E+05        -0.59928E+08         0.00000E+00
    0.00000E+00         0.00000E+00        -0.59919E+08
 
   -0.59918E+08         0.20275E+05         0.00000E+00
    0.20275E+05        -0.59926E+08         0.00000E+00
    0.00000E+00         0.00000E+00        -0.59922E+08
 
   -0.59923E+08         0.15629E+05         0.00000E+00
    0.15629E+05        -0.59924E+08         0.00000E+00
    0.00000E+00         0.00000E+00        -0.59924E+08
 
   -0.59658E+08         0.92852E+04         0.00000E+00
    0.92852E+04        -0.59999E+08         0.00000E+00
    0.00000E+00         0.00000E+00        -0.59829E+08
 
   -0.59675E+08         0.25475E+05         0.00000E+00
    0.25475E+05        -0.59997E+08         0.00000E+00
    0.00000E+00         0.00000E+00        -0.59836E+08
 
   -0.59698E+08         0.38130E+05         0.00000E+00
    0.38130E+05        -0.59993E+08         0.00000E+00
    0.00000E+00         0.00000E+00        -0.59845E+08
 
   -0.59722E+08         0.47437E+05         0.00000E+00
    0.47437E+05        -0.59987E+08         0.00000E+00
    0.00000E+00         0.00000E+00        -0.59854E+08
 
   -0.59748E+08         0.53681E+05         0.00000E+00
    0.53681E+05        -0.59980E+08         0.00000E+00
    0.00000E+00         0.00000E+00        -0.59864E+08
 
   -0.59774E+08         0.57156E+05         0.00000E+00
    0.57156E+05        -0.59973E+08         0.00000E+00
    0.00000E+00         0.00000E+00        -0.59874E+08
 
   -0.59801E+08         0.58164E+05         0.00000E+00
    0.58164E+05        -0.59966E+08         0.00000E+00
    0.00000E+00         0.00000E+00        -0.59883E+08
 
   -0.59826E+08         0.56998E+05         0.00000E+00
    0.56998E+05        -0.59959E+08         0.00000E+00
    0.00000E+00         0.00000E+00        -0.59892E+08
 
   -0.59850E+08         0.53943E+05         0.00000E+00
    0.53943E+05        -0.59952E+08         0.00000E+00
    0.00000E+00         0.00000E+00        -0.59901E+08
 
   -0.59871E+08         0.49288E+05         0.00000E+00
    0.49288E+05        -0.59945E+08         0.00000E+00
    0.00000E+00         0.00000E+00        -0.59908E+08
 
   -0.59890E+08         0.43354E+05         0.00000E+00
    0.43354E+05        -0.59939E+08         0.00000E+00
    0.00000E+00         0.00000E+00        -0.59915E+08
 
   -0.59905E+08         0.36519E+05         0.00000E+00
    0.36519E+05        -0.59935E+08         0.00000E+00
    0.00000E+00         0.00000E+00        -0.59920E+08
 
   -0.59917E+08         0.29262E+05         0.00000E+00
    0.29262E+05        -0.59931E+08         0.00000E+00
    0.00000E+00         0.00000E+00        -0.59924E+08
 
   -0.59924E+08         0.22204E+05         0.00000E+00
    0.22204E+05        -0.59928E+08         0.00000E+00
    0.00000E+00         0.00000E+00        -0.59926E+08
 
   -0.59927E+08         0.16158E+05         0.00000E+00
    0.16158E+05        -0.59927E+08         0.00000E+00
    0.00000E+00         0.00000E+00        -0.59927E+08
 
   -0.59639E+08         0.10589E+05         0.00000E+00
    0.10589E+05        -0.59999E+08         0.00000E+00
    0.00000E+00         0.00000E+00        -0.59819E+08
 
   -0.59660E+08         0.28931E+05         0.00000E+00
    0.28931E+05        -0.59997E+08         0.00000E+00
    0.00000E+00         0.00000E+00        -0.59828E+08
 
   -0.59686E+08         0.43131E+05         0.00000E+00
    0.43131E+05        -0.59993E+08         0.00000E+00
    0.00000E+00         0.00000E+00        -0.59839E+08
 
   -0.59714E+08         0.53483E+05         0.00000E+00
    0.53483E+05        -0.59988E+08         0.00000E+00
    0.00000E+00         0.00000E+00        -0.59851E+08
 
   -0.59743E+08         0.60373E+05         0.00000E+00
    0.60373E+05        -0.59981E+08         0.00000E+00
    0.00000E+00         0.00000E+00        -0.59862E+08
 
   -0.59772E+08         0.64179E+05         0.00000E+00
    0.64179E+05        -0.59975E+08         0.00000E+00
    0.00000E+00         0.00000E+00        -0.59873E+08
 
   -0.59801E+08         0.65266E+05         0.00000E+00
    0.65266E+05        -0.59968E+08         0.00000E+00
    0.00000E+00         0.00000E+00        -0.59884E+08
 
   -0.59828E+08         0.63965E+05         0.00000E+00
    0.63965E+05        -0.59961E+08         0.00000E+00
    0.00000E+00         0.00000E+00        -0.59895E+08
 
   -0.59854E+08         0.60576E+05         0.00000E+00
    0.60576E+05        -0.59955E+08         0.00000E+00
    0.00000E+00         0.00000E+00        -0.59904E+08
 
   -0.59877E+08         0.55382E+05         0.00000E+00
    0.55382E+05        -0.59948E+08         0.00000E+00
    0.00000E+00         0.00000E+00        -0.59913E+08
 
   -0.59897E+08         0.48682E+05         0.00000E+00
    0.48682E+05        -0.59943E+08         0.00000E+00
    0.00000E+00         0.00000E+00        -0.59920E+08
 
   -0.59913E+08         0.40835E+05         0.00000E+00
    0.40835E+05        -0.59938E+08         0.00000E+00
    0.00000E+00         0.00000E+00        -0.59926E+08
 
   -0.59925E+08         0.32309E+05         0.00000E+00
    0.32309E+05        -0.59935E+08         0.00000E+00
    0.00000E+00         0.00000E+00        -0.59930E+08
 
   -0.59932E+08         0.23744E+05         0.00000E+00
    0.23744E+05        -0.59932E+08         0.00000E+00
    0.00000E+00         0.00000E+00        -0.59932E+08
 
   -0.59933E+08         0.16022E+05         0.00000E+00
    0.16022E+05        -0.59932E+08         0.00000E+00
    0.00000E+00         0.00000E+00        -0.59933E+08
 
   -0.59617E+08         0.11853E+05         0.00000E+00
    0.11853E+05        -0.59999E+08         0.00000E+00
    0.00000E+00         0.00000E+00        -0.59809E+08
 
   -0.59643E+08         0.32231E+05         0.00000E+00
    0.32231E+05        -0.59997E+08         0.00000E+00
    0.00000E+00         0.00000E+00        -0.59820E+08
 
   -0.59673E+08         0.47828E+05         0.00000E+00
    0.47828E+05        -0.59993E+08         0.00000E+00
    0.00000E+00         0.00000E+00        -0.59833E+08
 
   -0.59705E+08         0.59080E+05         0.00000E+00
    0.59080E+05        -0.59988E+08         0.00000E+00
    0.00000E+00         0.00000E+00        -0.59847E+08
 
   -0.59737E+08         0.66499E+05         0.00000E+00
    0.66499E+05        -0.59983E+08         0.00000E+00
    0.00000E+00         0.00000E+00        -0.59860E+08
 
   -0.59770E+08         0.70568E+05         0.00000E+00
    0.70568E+05        -0.59977E+08         0.00000E+00
    0.00000E+00         0.00000E+00        -0.59873E+08
 
   -0.59801E+08         0.71722E+05         0.00000E+00
    0.71722E+05        -0.59971E+08         0.00000E+00
    0.00000E+00         0.00000E+00        -0.59886E+08
 
   -0.59831E+08         0.70332E+05         0.00000E+00
    0.70332E+05        -0.59965E+08         0.00000E+00
    0.00000E+00         0.00000E+00        -0.59898E+08
 
   -0.59858E+08         0.66703E+05         0.00000E+00
    0.66703E+05        -0.59959E+08         0.00000E+00
    0.00000E+00         0.00000E+00        -0.59909E+08
 
   -0.59883E+08         0.61090E+05         0.00000E+00
    0.61090E+05        -0.59954E+08         0.00000E+00
    0.00000E+00         0.00000E+00        -0.59918E+08
 
   -0.59905E+08         0.53741E+05         0.00000E+00
    0.53741E+05        -0.59948E+08         0.00000E+00
    0.00000E+00         0.00000E+00        -0.59927E+08
 
   -0.59922E+08         0.44953E+05         0.00000E+00
    0.44953E+05        -0.59944E+08         0.00000E+00
    0.00000E+00         0.00000E+00        -0.59933E+08
 
   -0.59934E+08         0.35143E+05         0.00000E+00
    0.35143E+05        -0.59941E+08         0.00000E+00
    0.00000E+00         0.00000E+00        -0.59938E+08
 
   -0.59941E+08         0.24932E+05         0.00000E+00
    0.24932E+05        -0.59939E+08         0.00000E+00
    0.00000E+00         0.00000E+00        -0.59940E+08
 
   -0.59941E+08         0.15233E+05         0.00000E+00
    0.15233E+05        -0.59939E+08         0.00000E+00
    0.00000E+00         0.00000E+00        -0.59940E+08
 
   -0.59593E+08         0.13035E+05         0.00000E+00
    0.13035E+05        -0.59999E+08         0.00000E+00
    0.00000E+00         0.00000E+00        -0.59797E+08
 
   -0.59624E+08         0.35250E+05         0.00000E+00
    0.35250E+05        -0.59997E+08         0.00000E+00
    0.00000E+00         0.00000E+00        -0.59811E+08
 
   -0.59659E+08         0.52027E+05         0.00000E+00
    0.52027E+05        -0.59994E+08         0.00000E+00
    0.00000E+00         0.00000E+00        -0.59827E+08
 
   -0.59695E+08         0.63973E+05         0.00000E+00
    0.63973E+05        -0.59990E+08         0.00000E+00
    0.00000E+00         0.00000E+00        -0.59843E+08
 
   -0.59732E+08         0.71760E+05         0.00000E+00
    0.71760E+05        -0.59985E+08         0.00000E+00
    0.00000E+00         0.00000E+00        -0.59858E+08
 
   -0.59767E+08         0.75996E+05         0.00000E+00
    0.75996E+05        -0.59981E+08         0.00000E+00
    0.00000E+00         0.00000E+00        -0.59874E+08
 
   -0.59801E+08         0.77204E+05         0.00000E+00
    0.77204E+05        -0.59976E+08         0.00000E+00
    0.00000E+00         0.00000E+00        -0.59889E+08
 
   -0.59833E+08         0.75797E+05         0.00000E+00
    0.75797E+05        -0.59971E+08         0.00000E+00
    0.00000E+00         0.00000E+00        -0.59902E+08
 
   -0.59863E+08         0.72072E+05         0.00000E+00
    0.72072E+05        -0.59966E+08         0.00000E+00
    0.00000E+00         0.00000E+00        -0.59915E+08
 
   -0.59890E+08         0.66231E+05         0.00000E+00
    0.66231E+05        -0.59961E+08         0.00000E+00
    0.00000E+00         0.00000E+00        -0.59926E+08
 
   -0.59913E+08         0.58430E+05         0.00000E+00
    0.58430E+05        -0.59957E+08         0.00000E+00
    0.00000E+00         0.00000E+00        -0.59935E+08
 
   -0.59932E+08         0.48854E+05         0.00000E+00
    0.48854E+05        -0.59952E+08         0.00000E+00
    0.00000E+00         0.00000E+00        -0.59942E+08
 
   -0.59945E+08         0.37813E+05         0.00000E+00
    0.37813E+05        -0.59949E+08         0.00000E+00
    0.00000E+00         0.00000E+00        -0.59947E+08
 
   -0.59952E+08         0.25850E+05         0.00000E+00
    0.25850E+05        -0.59948E+08         0.00000E+00
    0.00000E+00         0.00000E+00        -0.59950E+08
 
   -0.59952E+08         0.13864E+05         0.00000E+00
    0.13864E+05        -0.59948E+08         0.00000E+00
    0.00000E+00         0.00000E+00        -0.59950E+08
 
   -0.59567E+08         0.14080E+05         0.00000E+00
    0.14080E+05        -0.60000E+08         0.00000E+00
    0.00000E+00         0.00000E+00        -0.59784E+08
 
   -0.59604E+08         0.37834E+05         0.00000E+00
    0.37834E+05        -0.59998E+08         0.00000E+00
    0.00000E+00         0.00000E+00        -0.59801E+08
 
   -0.59645E+08         0.55480E+05         0.00000E+00
    0.55480E+05        -0.59995E+08         0.00000E+00
    0.00000E+00         0.00000E+00        -0.59820E+08
 
   -0.59685E+08         0.67837E+05         0.00000E+00
    0.67837E+05        -0.59992E+08         0.00000E+00
    0.00000E+00         0.00000E+00        -0.59839E+08
 
   -0.59726E+08         0.75770E+05         0.00000E+00
    0.75770E+05        -0.59989E+08         0.00000E+00
    0.00000E+00         0.00000E+00        -0.59857E+08
 
   -0.59764E+08         0.80043E+05         0.00000E+00
    0.80043E+05        -0.59986E+08         0.00000E+00
    0.00000E+00         0.00000E+00        -0.59875E+08
 
   -0.59801E+08         0.81287E+05         0.00000E+00
    0.81287E+05        -0.59983E+08         0.00000E+00
    0.00000E+00         0.00000E+00        -0.59892E+08
 
   -0.59836E+08         0.79962E+05         0.00000E+00
    0.79962E+05        -0.59979E+08         0.00000E+00
    0.00000E+00         0.00000E+00        -0.59908E+08
 
   -0.59868E+08         0.76348E+05         0.00000E+00
    0.76348E+05        -0.59976E+08         0.00000E+00
    0.00000E+00         0.00000E+00        -0.59922E+08
 
   -0.59897E+08         0.70561E+05         0.00000E+00
    0.70561E+05        -0.59972E+08         0.00000E+00
    0.00000E+00         0.00000E+00        -0.59934E+08
 
   -0.59922E+08         0.62616E+05         0.00000E+00
    0.62616E+05        -0.59968E+08         0.00000E+00
    0.00000E+00         0.00000E+00        -0.59945E+08
 
   -0.59942E+08         0.52521E+05         0.00000E+00
    0.52521E+05        -0.59965E+08         0.00000E+00
    0.00000E+00         0.00000E+00        -0.59954E+08
 
   -0.59957E+08         0.40400E+05         0.00000E+00
    0.40400E+05        -0.59961E+08         0.00000E+00
    0.00000E+00         0.00000E+00        -0.59960E+08
 
   -0.59965E+08         0.26643E+05         0.00000E+00
    0.26643E+05        -0.59960E+08         0.00000E+00
    0.00000E+00         0.00000E+00        -0.59963E+08
 
   -0.59965E+08         0.12065E+05         0.00000E+00
    0.12065E+05        -0.59960E+08         0.00000E+00
    0.00000E+00         0.00000E+00        -0.59963E+08
 
   -0.59540E+08         0.14925E+05         0.00000E+00
    0.14925E+05        -0.60000E+08         0.00000E+00
    0.00000E+00         0.00000E+00        -0.59771E+08
 
   -0.59583E+08         0.39797E+05         0.00000E+00
    0.39797E+05        -0.59999E+08         0.00000E+00
    0.00000E+00         0.00000E+00        -0.59791E+08
 
   -0.59630E+08         0.57890E+05         0.00000E+00
    0.57890E+05        -0.59997E+08         0.00000E+00
    0.00000E+00         0.00000E+00        -0.59813E+08
 
   -0.59676E+08         0.70273E+05         0.00000E+00
    0.70273E+05        -0.59995E+08         0.00000E+00
    0.00000E+00         0.00000E+00        -0.59835E+08
 
   -0.59720E+08         0.78049E+05         0.00000E+00
    0.78049E+05        -0.59994E+08         0.00000E+00
    0.00000E+00         0.00000E+00        -0.59857E+08
 
   -0.59762E+08         0.82176E+05         0.00000E+00
    0.82176E+05        -0.59993E+08         0.00000E+00
    0.00000E+00         0.00000E+00        -0.59877E+08
 
   -0.59801E+08         0.83424E+05         0.00000E+00
    0.83424E+05        -0.59992E+08         0.00000E+00
    0.00000E+00         0.00000E+00        -0.59897E+08
 
   -0.59838E+08         0.82314E+05         0.00000E+00
    0.82314E+05        -0.59991E+08         0.00000E+00
    0.00000E+00         0.00000E+00        -0.59914E+08
 
   -0.59872E+08         0.79095E+05         0.00000E+00
    0.79095E+05        -0.59989E+08         0.00000E+00
    0.00000E+00         0.00000E+00        -0.59931E+08
 
   -0.59903E+08         0.73762E+05         0.00000E+00
    0.73762E+05        -0.59987E+08         0.00000E+00
    0.00000E+00         0.00000E+00        -0.59945E+08
 
   -0.59931E+08         0.66127E+05         0.00000E+00
    0.66127E+05        -0.59984E+08         0.00000E+00
    0.00000E+00         0.00000E+00        -0.59957E+08
 
   -0.59954E+08         0.55934E+05         0.00000E+00
    0.55934E+05        -0.59981E+08         0.00000E+00
    0.00000E+00         0.00000E+00        -0.59967E+08
 
   -0.59971E+08         0.43026E+05         0.00000E+00
    0.43026E+05        -0.59978E+08         0.00000E+00
    0.00000E+00         0.00000E+00        -0.59975E+08
 
   -0.59981E+08         0.27534E+05         0.00000E+00
    0.27534E+05        -0.59976E+08         0.00000E+00
    0.00000E+00         0.00000E+00        -0.59979E+08
 
   -0.59981E+08         0.10088E+05         0.00000E+00
    0.10088E+05        -0.59977E+08         0.00000E+00
    0.00000E+00         0.00000E+00        -0.59979E+08
 
   -0.59511E+08         0.15494E+05         0.00000E+00
    0.15494E+05        -0.60000E+08         0.00000E+00
    0.00000E+00         0.00000E+00        -0.59756E+08
 
   -0.59562E+08         0.40923E+05         0.00000E+00
    0.40923E+05        -0.59999E+08         0.00000E+00
    0.00000E+00         0.00000E+00        -0.59780E+08
 
   -0.59615E+08         0.58906E+05         0.00000E+00
    0.58906E+05        -0.59999E+08         0.00000E+00
    0.00000E+00         0.00000E+00        -0.59807E+08
 
   -0.59666E+08         0.70804E+05         0.00000E+00
    0.70804E+05        -0.59999E+08         0.00000E+00
    0.00000E+00         0.00000E+00        -0.59833E+08
 
   -0.59714E+08         0.78013E+05         0.00000E+00
    0.78013E+05        -0.60000E+08         0.00000E+00
    0.00000E+00         0.00000E+00        -0.59857E+08
 
   -0.59759E+08         0.81738E+05         0.00000E+00
    0.81738E+05        -0.60002E+08         0.00000E+00
    0.00000E+00         0.00000E+00        -0.59881E+08
 
   -0.59801E+08         0.82933E+05         0.00000E+00
    0.82933E+05        -0.60004E+08         0.00000E+00
    0.00000E+00         0.00000E+00        -0.59903E+08
 
   -0.59840E+08         0.82200E+05         0.00000E+00
    0.82200E+05        -0.60006E+08         0.00000E+00
    0.00000E+00         0.00000E+00        -0.59923E+08
 
   -0.59876E+08         0.79751E+05         0.00000E+00
    0.79751E+05        -0.60007E+08         0.00000E+00
    0.00000E+00         0.00000E+00        -0.59941E+08
 
   -0.59909E+08         0.75418E+05         0.00000E+00
    0.75418E+05        -0.60007E+08         0.00000E+00
    0.00000E+00         0.00000E+00        -0.59958E+08
 
   -0.59939E+08         0.68733E+05         0.00000E+00
    0.68733E+05        -0.60005E+08         0.00000E+00
    0.00000E+00         0.00000E+00        -0.59972E+08
 
   -0.59965E+08         0.59072E+05         0.00000E+00
    0.59072E+05        -0.60003E+08         0.00000E+00
    0.00000E+00         0.00000E+00        -0.59984E+08
 
   -0.59986E+08         0.45864E+05         0.00000E+00
    0.45864E+05        -0.60000E+08         0.00000E+00
    0.00000E+00         0.00000E+00        -0.59993E+08
 
   -0.59999E+08         0.28844E+05         0.00000E+00
    0.28844E+05        -0.59998E+08         0.00000E+00
    0.00000E+00         0.00000E+00        -0.59998E+08
 
   -0.60001E+08         0.83222E+04         0.00000E+00
    0.83222E+04        -0.59997E+08         0.00000E+00
    0.00000E+00         0.00000E+00        -0.59999E+08
 
   -0.59481E+08         0.15710E+05         0.00000E+00
    0.15710E+05        -0.60000E+08         0.00000E+00
    0.00000E+00         0.00000E+00        -0.59742E+08
 
   -0.59540E+08         0.40978E+05         0.00000E+00
    0.40978E+05        -0.60000E+08         0.00000E+00
    0.00000E+00         0.00000E+00        -0.59770E+08
 
   -0.59601E+08         0.58132E+05         0.00000E+00
    0.58132E+05        -0.60001E+08         0.00000E+00
    0.00000E+00         0.00000E+00        -0.59801E+08
 
   -0.59657E+08         0.68874E+05         0.00000E+00
    0.68874E+05        -0.60004E+08         0.00000E+00
    0.00000E+00         0.00000E+00        -0.59831E+08
 
   -0.59709E+08         0.74960E+05         0.00000E+00
    0.74960E+05        -0.60008E+08         0.00000E+00
    0.00000E+00         0.00000E+00        -0.59859E+08
 
   -0.59757E+08         0.77925E+05         0.00000E+00
    0.77925E+05        -0.60013E+08         0.00000E+00
    0.00000E+00         0.00000E+00        -0.59885E+08
 
   -0.59801E+08         0.78965E+05         0.00000E+00
    0.78965E+05        -0.60019E+08         0.00000E+00
    0.00000E+00         0.00000E+00        -0.59910E+08
 
   -0.59841E+08         0.78801E+05         0.00000E+00
    0.78801E+05        -0.60025E+08         0.00000E+00
    0.00000E+00         0.00000E+00        -0.59933E+08
 
   -0.59879E+08         0.77604E+05         0.00000E+00
    0.77604E+05        -0.60030E+08         0.00000E+00
    0.00000E+00         0.00000E+00        -0.59954E+08
 
   -0.59914E+08         0.74996E+05         0.00000E+00
    0.74996E+05        -0.60033E+08         0.00000E+00
    0.00000E+00         0.00000E+00        -0.59973E+08
 
   -0.59947E+08         0.70138E+05         0.00000E+00
    0.70138E+05        -0.60033E+08         0.00000E+00
    0.00000E+00         0.00000E+00        -0.59990E+08
 
   -0.59976E+08         0.61905E+05         0.00000E+00
    0.61905E+05        -0.60031E+08         0.00000E+00
    0.00000E+00         0.00000E+00        -0.60004E+08
 
   -0.60001E+08         0.49148E+05         0.00000E+00
    0.49148E+05        -0.60028E+08         0.00000E+00
    0.00000E+00         0.00000E+00        -0.60015E+08
 
   -0.60018E+08         0.31021E+05         0.00000E+00
    0.31021E+05        -0.60025E+08         0.00000E+00
    0.00000E+00         0.00000E+00        -0.60022E+08
 
   -0.60025E+08         0.73271E+04         0.00000E+00
    0.73271E+04        -0.60024E+08         0.00000E+00
    0.00000E+00         0.00000E+00        -0.60025E+08
 
   -0.59452E+08         0.15498E+05         0.00000E+00
    0.15498E+05        -0.60000E+08         0.00000E+00
    0.00000E+00         0.00000E+00        -0.59728E+08
 
   -0.59520E+08         0.39721E+05         0.00000E+00
    0.39721E+05        -0.60001E+08         0.00000E+00
    0.00000E+00         0.00000E+00        -0.59760E+08
 
   -0.59588E+08         0.55138E+05         0.00000E+00
    0.55138E+05        -0.60005E+08         0.00000E+00
    0.00000E+00         0.00000E+00        -0.59797E+08
 
   -0.59650E+08         0.63848E+05         0.00000E+00
    0.63848E+05        -0.60010E+08         0.00000E+00
    0.00000E+00         0.00000E+00        -0.59830E+08
 
   -0.59706E+08         0.68069E+05         0.00000E+00
    0.68069E+05        -0.60018E+08         0.00000E+00
    0.00000E+00         0.00000E+00        -0.59862E+08
 
   -0.59756E+08         0.69772E+05         0.00000E+00
    0.69772E+05        -0.60028E+08         0.00000E+00
    0.00000E+00         0.00000E+00        -0.59892E+08
 
   -0.59801E+08         0.70490E+05         0.00000E+00
    0.70490E+05        -0.60039E+08         0.00000E+00
    0.00000E+00         0.00000E+00        -0.59920E+08
 
   -0.59841E+08         0.71111E+05         0.00000E+00
    0.71111E+05        -0.60050E+08         0.00000E+00
    0.00000E+00         0.00000E+00        -0.59945E+08
 
   -0.59879E+08         0.71767E+05         0.00000E+00
    0.71767E+05        -0.60059E+08         0.00000E+00
    0.00000E+00         0.00000E+00        -0.59969E+08
 
   -0.59916E+08         0.71822E+05         0.00000E+00
    0.71822E+05        -0.60065E+08         0.00000E+00
    0.00000E+00         0.00000E+00        -0.59990E+08
 
   -0.59952E+08         0.69960E+05         0.00000E+00
    0.69960E+05        -0.60068E+08         0.00000E+00
    0.00000E+00         0.00000E+00        -0.60010E+08
 
   -0.59985E+08         0.64393E+05         0.00000E+00
    0.64393E+05        -0.60068E+08         0.00000E+00
    0.00000E+00         0.00000E+00        -0.60026E+08
 
   -0.60016E+08         0.53184E+05         0.00000E+00
    0.53184E+05        -0.60064E+08         0.00000E+00
    0.00000E+00         0.00000E+00        -0.60040E+08
 
   -0.60040E+08         0.34667E+05         0.00000E+00
    0.34667E+05        -0.60060E+08         0.00000E+00
    0.00000E+00         0.00000E+00        -0.60050E+08
 
   -0.60053E+08         0.78858E+04         0.00000E+00
    0.78858E+04        -0.60056E+08         0.00000E+00
    0.00000E+00         0.00000E+00        -0.60055E+08
 
   -0.59424E+08         0.14788E+05         0.00000E+00
    0.14788E+05        -0.60000E+08         0.00000E+00
    0.00000E+00         0.00000E+00        -0.59714E+08
 
   -0.59501E+08         0.36924E+05         0.00000E+00
    0.36924E+05        -0.60003E+08         0.00000E+00
    0.00000E+00         0.00000E+00        -0.59752E+08
 
   -0.59578E+08         0.49470E+05         0.00000E+00
    0.49470E+05        -0.60008E+08         0.00000E+00
    0.00000E+00         0.00000E+00        -0.59793E+08
 
   -0.59645E+08         0.55011E+05         0.00000E+00
    0.55011E+05        -0.60017E+08         0.00000E+00
    0.00000E+00         0.00000E+00        -0.59832E+08
 
   -0.59704E+08         0.56378E+05         0.00000E+00
    0.56378E+05        -0.60030E+08         0.00000E+00
    0.00000E+00         0.00000E+00        -0.59867E+08
 
   -0.59755E+08         0.56133E+05         0.00000E+00
    0.56133E+05        -0.60046E+08         0.00000E+00
    0.00000E+00         0.00000E+00        -0.59901E+08
 
   -0.59800E+08         0.56268E+05         0.00000E+00
    0.56268E+05        -0.60063E+08         0.00000E+00
    0.00000E+00         0.00000E+00        -0.59931E+08
 
   -0.59840E+08         0.57908E+05         0.00000E+00
    0.57908E+05        -0.60080E+08         0.00000E+00
    0.00000E+00         0.00000E+00        -0.59960E+08
 
   -0.59877E+08         0.61156E+05         0.00000E+00
    0.61156E+05        -0.60095E+08         0.00000E+00
    0.00000E+00         0.00000E+00        -0.59986E+08
 
   -0.59915E+08         0.65063E+05         0.00000E+00
    0.65063E+05        -0.60106E+08         0.00000E+00
    0.00000E+00         0.00000E+00        -0.60010E+08
 
   -0.59953E+08         0.67717E+05         0.00000E+00
    0.67717E+05        -0.60112E+08         0.00000E+00
    0.00000E+00         0.00000E+00        -0.60032E+08
 
   -0.59992E+08         0.66478E+05         0.00000E+00
    0.66478E+05        -0.60113E+08         0.00000E+00
    0.00000E+00         0.00000E+00        -0.60052E+08
 
   -0.60030E+08         0.58366E+05         0.00000E+00
    0.58366E+05        -0.60109E+08         0.00000E+00
    0.00000E+00         0.00000E+00        -0.60069E+08
 
   -0.60063E+08         0.40577E+05         0.00000E+00
    0.40577E+05        -0.60103E+08         0.00000E+00
    0.00000E+00         0.00000E+00        -0.60083E+08
 
   -0.60087E+08         0.11062E+05         0.00000E+00
    0.11062E+05        -0.60096E+08         0.00000E+00
    0.00000E+00         0.00000E+00        -0.60092E+08
 
   -0.59398E+08         0.13553E+05         0.00000E+00
    0.13553E+05        -0.60001E+08         0.00000E+00
    0.00000E+00         0.00000E+00        -0.59702E+08
 
   -0.59486E+08         0.32395E+05         0.00000E+00
    0.32395E+05        -0.60004E+08         0.00000E+00
    0.00000E+00         0.00000E+00        -0.59745E+08
 
   -0.59571E+08         0.40661E+05         0.00000E+00
    0.40661E+05        -0.60012E+08         0.00000E+00
    0.00000E+00         0.00000E+00        -0.59792E+08
 
   -0.59644E+08         0.41563E+05         0.00000E+00
    0.41563E+05        -0.60025E+08         0.00000E+00
    0.00000E+00         0.00000E+00        -0.59835E+08
 
   -0.59706E+08         0.38772E+05         0.00000E+00
    0.38772E+05        -0.60044E+08         0.00000E+00
    0.00000E+00         0.00000E+00        -0.59875E+08
 
   -0.59757E+08         0.35664E+05         0.00000E+00
    0.35664E+05        -0.60067E+08         0.00000E+00
    0.00000E+00         0.00000E+00        -0.59912E+08
 
   -0.59799E+08         0.34846E+05         0.00000E+00
    0.34846E+05        -0.60092E+08         0.00000E+00
    0.00000E+00         0.00000E+00        -0.59945E+08
 
   -0.59836E+08         0.37757E+05         0.00000E+00
    0.37757E+05        -0.60117E+08         0.00000E+00
    0.00000E+00         0.00000E+00        -0.59976E+08
 
   -0.59871E+08         0.44483E+05         0.00000E+00
    0.44483E+05        -0.60139E+08         0.00000E+00
    0.00000E+00         0.00000E+00        -0.60005E+08
 
   -0.59908E+08         0.53708E+05         0.00000E+00
    0.53708E+05        -0.60156E+08         0.00000E+00
    0.00000E+00         0.00000E+00        -0.60032E+08
 
   -0.59948E+08         0.62806E+05         0.00000E+00
    0.62806E+05        -0.60166E+08         0.00000E+00
    0.00000E+00         0.00000E+00        -0.60057E+08
 
   -0.59993E+08         0.68075E+05         0.00000E+00
    0.68075E+05        -0.60169E+08         0.00000E+00
    0.00000E+00         0.00000E+00        -0.60080E+08
 
   -0.60040E+08         0.65178E+05         0.00000E+00
    0.65178E+05        -0.60164E+08         0.00000E+00
    0.00000E+00         0.00000E+00        -0.60102E+08
 
   -0.60087E+08         0.49775E+05         0.00000E+00
    0.49775E+05        -0.60155E+08         0.00000E+00
    0.00000E+00         0.00000E+00        -0.60121E+08
 
   -0.60125E+08         0.18273E+05         0.00000E+00
    0.18273E+05        -0.60144E+08         0.00000E+00
    0.00000E+00         0.00000E+00        -0.60135E+08
 
   -0.59375E+08         0.11786E+05         0.00000E+00
    0.11786E+05        -0.60001E+08         0.00000E+00
    0.00000E+00         0.00000E+00        -0.59691E+08
 
   -0.59476E+08         0.25991E+05         0.00000E+00
    0.25991E+05        -0.60006E+08         0.00000E+00
    0.00000E+00         0.00000E+00        -0.59741E+08
 
   -0.59571E+08         0.28228E+05         0.00000E+00
    0.28228E+05        -0.60016E+08         0.00000E+00
    0.00000E+00         0.00000E+00        -0.59794E+08
 
   -0.59649E+08         0.22586E+05         0.00000E+00
    0.22586E+05        -0.60035E+08         0.00000E+00
    0.00000E+00         0.00000E+00        -0.59842E+08
 
   -0.59712E+08         0.13950E+05         0.00000E+00
    0.13950E+05        -0.60060E+08         0.00000E+00
    0.00000E+00         0.00000E+00        -0.59887E+08
 
   -0.59760E+08         0.68127E+04         0.00000E+00
    0.68127E+04        -0.60092E+08         0.00000E+00
    0.00000E+00         0.00000E+00        -0.59926E+08
 
   -0.59798E+08         0.45711E+04         0.00000E+00
    0.45711E+04        -0.60126E+08         0.00000E+00
    0.00000E+00         0.00000E+00        -0.59962E+08
 
   -0.59830E+08         0.90422E+04         0.00000E+00
    0.90422E+04        -0.60161E+08         0.00000E+00
    0.00000E+00         0.00000E+00        -0.59995E+08
 
   -0.59860E+08         0.20286E+05         0.00000E+00
    0.20286E+05        -0.60192E+08         0.00000E+00
    0.00000E+00         0.00000E+00        -0.60025E+08
 
   -0.59894E+08         0.36581E+05         0.00000E+00
    0.36581E+05        -0.60216E+08         0.00000E+00
    0.00000E+00         0.00000E+00        -0.60055E+08
 
   -0.59936E+08         0.54492E+05         0.00000E+00
    0.54492E+05        -0.60232E+08         0.00000E+00
    0.00000E+00         0.00000E+00        -0.60083E+08
 
   -0.59987E+08         0.69052E+05         0.00000E+00
    0.69052E+05        -0.60237E+08         0.00000E+00
    0.00000E+00         0.00000E+00        -0.60111E+08
 
   -0.60046E+08         0.74207E+05         0.00000E+00
    0.74207E+05        -0.60231E+08         0.00000E+00
    0.00000E+00         0.00000E+00        -0.60138E+08
 
   -0.60109E+08         0.63567E+05         0.00000E+00
    0.63567E+05        -0.60218E+08         0.00000E+00
    0.00000E+00         0.00000E+00        -0.60163E+08
 
   -0.60167E+08         0.31377E+05         0.00000E+00
    0.31377E+05        -0.60201E+08         0.00000E+00
    0.00000E+00         0.00000E+00        -0.60184E+08
 
   -0.59357E+08         0.95770E+04         0.00000E+00
    0.95770E+04        -0.60001E+08         0.00000E+00
    0.00000E+00         0.00000E+00        -0.59682E+08
 
   -0.59471E+08         0.17675E+05         0.00000E+00
    0.17675E+05        -0.60007E+08         0.00000E+00
    0.00000E+00         0.00000E+00        -0.59739E+08
 
   -0.59577E+08         0.11633E+05         0.00000E+00
    0.11633E+05        -0.60021E+08         0.00000E+00
    0.00000E+00         0.00000E+00        -0.59800E+08
 
   -0.59661E+08        -0.30254E+04         0.00000E+00
   -0.30254E+04        -0.60045E+08         0.00000E+00
    0.00000E+00         0.00000E+00        -0.59854E+08
 
   -0.59724E+08        -0.19631E+05         0.00000E+00
   -0.19631E+05        -0.60079E+08         0.00000E+00
    0.00000E+00         0.00000E+00        -0.59902E+08
 
   -0.59767E+08        -0.32172E+05         0.00000E+00
   -0.32172E+05        -0.60121E+08         0.00000E+00
    0.00000E+00         0.00000E+00        -0.59944E+08
 
   -0.59797E+08        -0.36326E+05         0.00000E+00
   -0.36326E+05        -0.60167E+08         0.00000E+00
    0.00000E+00         0.00000E+00        -0.59982E+08
 
   -0.59820E+08        -0.29922E+05         0.00000E+00
   -0.29922E+05        -0.60213E+08         0.00000E+00
    0.00000E+00         0.00000E+00        -0.60016E+08
 
   -0.59842E+08        -0.12973E+05         0.00000E+00
   -0.12973E+05        -0.60254E+08         0.00000E+00
    0.00000E+00         0.00000E+00        -0.60048E+08
 
   -0.59871E+08         0.12380E+05         0.00000E+00
    0.12380E+05        -0.60287E+08         0.00000E+00
    0.00000E+00         0.00000E+00        -0.60078E+08
 
   -0.59913E+08         0.41884E+05         0.00000E+00
    0.41884E+05        -0.60309E+08         0.00000E+00
    0.00000E+00         0.00000E+00        -0.60110E+08
 
   -0.59970E+08         0.69175E+05         0.00000E+00
    0.69175E+05        -0.60317E+08         0.00000E+00
    0.00000E+00         0.00000E+00        -0.60142E+08
 
   -0.60042E+08         0.86104E+05         0.00000E+00
    0.86104E+05        -0.60310E+08         0.00000E+00
    0.00000E+00         0.00000E+00        -0.60175E+08
 
   -0.60127E+08         0.83560E+05         0.00000E+00
    0.83560E+05        -0.60292E+08         0.00000E+00
    0.00000E+00         0.00000E+00        -0.60209E+08
 
   -0.60212E+08         0.52764E+05         0.00000E+00
    0.52764E+05        -0.60266E+08         0.00000E+00
    0.00000E+00         0.00000E+00        -0.60240E+08
 
   -0.59344E+08         0.70976E+04         0.00000E+00
    0.70976E+04        -0.60001E+08         0.00000E+00
    0.00000E+00         0.00000E+00        -0.59676E+08
 
   -0.59476E+08         0.73406E+04         0.00000E+00
    0.73406E+04        -0.60008E+08         0.00000E+00
    0.00000E+00         0.00000E+00        -0.59742E+08
 
   -0.59595E+08        -0.98727E+04         0.00000E+00
   -0.98727E+04        -0.60026E+08         0.00000E+00
    0.00000E+00         0.00000E+00        -0.59812E+08
 
   -0.59684E+08        -0.36762E+05         0.00000E+00
   -0.36762E+05        -0.60057E+08         0.00000E+00
    0.00000E+00         0.00000E+00        -0.59872E+08
 
   -0.59743E+08        -0.63855E+05         0.00000E+00
   -0.63855E+05        -0.60102E+08         0.00000E+00
    0.00000E+00         0.00000E+00        -0.59923E+08
 
   -0.59778E+08        -0.83184E+05         0.00000E+00
   -0.83184E+05        -0.60156E+08         0.00000E+00
    0.00000E+00         0.00000E+00        -0.59968E+08
 
   -0.59796E+08        -0.89531E+05         0.00000E+00
   -0.89531E+05        -0.60215E+08         0.00000E+00
    0.00000E+00         0.00000E+00        -0.60005E+08
 
   -0.59806E+08        -0.80611E+05         0.00000E+00
   -0.80611E+05        -0.60273E+08         0.00000E+00
    0.00000E+00         0.00000E+00        -0.60039E+08
 
   -0.59816E+08        -0.56668E+05         0.00000E+00
   -0.56668E+05        -0.60326E+08         0.00000E+00
    0.00000E+00         0.00000E+00        -0.60071E+08
 
   -0.59837E+08        -0.20198E+05         0.00000E+00
   -0.20198E+05        -0.60370E+08         0.00000E+00
    0.00000E+00         0.00000E+00        -0.60102E+08
 
   -0.59875E+08         0.23923E+05         0.00000E+00
    0.23923E+05        -0.60399E+08         0.00000E+00
    0.00000E+00         0.00000E+00        -0.60136E+08
 
   -0.59938E+08         0.68017E+05         0.00000E+00
    0.68017E+05        -0.60411E+08         0.00000E+00
    0.00000E+00         0.00000E+00        -0.60173E+08
 
   -0.60026E+08         0.10152E+06         0.00000E+00
    0.10152E+06        -0.60403E+08         0.00000E+00
    0.00000E+00         0.00000E+00        -0.60213E+08
 
   -0.60138E+08         0.11171E+06         0.00000E+00
    0.11171E+06        -0.60378E+08         0.00000E+00
    0.00000E+00         0.00000E+00        -0.60257E+08
 
   -0.60260E+08         0.85529E+05         0.00000E+00
    0.85529E+05        -0.60341E+08         0.00000E+00
    0.00000E+00         0.00000E+00        -0.60301E+08
 
   -0.59337E+08         0.44610E+04         0.00000E+00
    0.44610E+04        -0.60001E+08         0.00000E+00
    0.00000E+00         0.00000E+00        -0.59673E+08
 
   -0.59491E+08        -0.49383E+04         0.00000E+00
   -0.49383E+04        -0.60008E+08         0.00000E+00
    0.00000E+00         0.00000E+00        -0.59750E+08
 
   -0.59626E+08        -0.37539E+05         0.00000E+00
   -0.37539E+05        -0.60031E+08         0.00000E+00
    0.00000E+00         0.00000E+00        -0.59830E+08
 
   -0.59719E+08        -0.80815E+05         0.00000E+00
   -0.80815E+05        -0.60072E+08         0.00000E+00
    0.00000E+00         0.00000E+00        -0.59897E+08
 
   -0.59773E+08        -0.12109E+06         0.00000E+00
   -0.12109E+06        -0.60130E+08         0.00000E+00
    0.00000E+00         0.00000E+00        -0.59952E+08
 
   -0.59794E+08        -0.14808E+06         0.00000E+00
   -0.14808E+06        -0.60198E+08         0.00000E+00
    0.00000E+00         0.00000E+00        -0.59996E+08
 
   -0.59794E+08        -0.15619E+06         0.00000E+00
   -0.15619E+06        -0.60271E+08         0.00000E+00
    0.00000E+00         0.00000E+00        -0.60033E+08
 
   -0.59786E+08        -0.14374E+06         0.00000E+00
   -0.14374E+06        -0.60343E+08         0.00000E+00
    0.00000E+00         0.00000E+00        -0.60064E+08
 
   -0.59780E+08        -0.11154E+06         0.00000E+00
   -0.11154E+06        -0.60408E+08         0.00000E+00
    0.00000E+00         0.00000E+00        -0.60093E+08
 
   -0.59788E+08        -0.62227E+05         0.00000E+00
   -0.62227E+05        -0.60461E+08         0.00000E+00
    0.00000E+00         0.00000E+00        -0.60123E+08
 
   -0.59820E+08        -0.67228E+03         0.00000E+00
   -0.67228E+03        -0.60499E+08         0.00000E+00
    0.00000E+00         0.00000E+00        -0.60158E+08
 
   -0.59886E+08         0.64708E+05         0.00000E+00
    0.64708E+05        -0.60516E+08         0.00000E+00
    0.00000E+00         0.00000E+00        -0.60199E+08
 
   -0.59992E+08         0.12085E+06         0.00000E+00
    0.12085E+06        -0.60508E+08         0.00000E+00
    0.00000E+00         0.00000E+00        -0.60247E+08
 
   -0.60137E+08         0.15030E+06         0.00000E+00
    0.15030E+06        -0.60475E+08         0.00000E+00
    0.00000E+00         0.00000E+00        -0.60304E+08
 
   -0.60307E+08         0.13356E+06         0.00000E+00
    0.13356E+06        -0.60424E+08         0.00000E+00
    0.00000E+00         0.00000E+00        -0.60365E+08
 
   -0.59337E+08         0.26506E+04         0.00000E+00
    0.26506E+04        -0.60001E+08         0.00000E+00
    0.00000E+00         0.00000E+00        -0.59674E+08
 
   -0.59522E+08        -0.20121E+05         0.00000E+00
   -0.20121E+05        -0.60011E+08         0.00000E+00
    0.00000E+00         0.00000E+00        -0.59768E+08
 
   -0.59678E+08        -0.74003E+05         0.00000E+00
   -0.74003E+05        -0.60040E+08         0.00000E+00
    0.00000E+00         0.00000E+00        -0.59862E+08
 
   -0.59772E+08        -0.13888E+06         0.00000E+00
   -0.13888E+06        -0.60095E+08         0.00000E+00
    0.00000E+00         0.00000E+00        -0.59936E+08
 
   -0.59813E+08        -0.19439E+06         0.00000E+00
   -0.19439E+06        -0.60170E+08         0.00000E+00
    0.00000E+00         0.00000E+00        -0.59993E+08
 
   -0.59814E+08        -0.22819E+06         0.00000E+00
   -0.22819E+06        -0.60255E+08         0.00000E+00
    0.00000E+00         0.00000E+00        -0.60035E+08
 
   -0.59791E+08        -0.23601E+06         0.00000E+00
   -0.23601E+06        -0.60342E+08         0.00000E+00
    0.00000E+00         0.00000E+00        -0.60067E+08
 
   -0.59760E+08        -0.21824E+06         0.00000E+00
   -0.21824E+06        -0.60425E+08         0.00000E+00
    0.00000E+00         0.00000E+00        -0.60092E+08
 
   -0.59733E+08        -0.17684E+06         0.00000E+00
   -0.17684E+06        -0.60499E+08         0.00000E+00
    0.00000E+00         0.00000E+00        -0.60116E+08
 
   -0.59724E+08        -0.11408E+06         0.00000E+00
   -0.11408E+06        -0.60562E+08         0.00000E+00
    0.00000E+00         0.00000E+00        -0.60142E+08
 
   -0.59744E+08        -0.33451E+05         0.00000E+00
   -0.33451E+05        -0.60609E+08         0.00000E+00
    0.00000E+00         0.00000E+00        -0.60175E+08
 
   -0.59809E+08         0.57459E+05         0.00000E+00
    0.57459E+05        -0.60633E+08         0.00000E+00
    0.00000E+00         0.00000E+00        -0.60219E+08
 
   -0.59931E+08         0.14373E+06         0.00000E+00
    0.14373E+06        -0.60626E+08         0.00000E+00
    0.00000E+00         0.00000E+00        -0.60276E+08
 
   -0.60116E+08         0.20160E+06         0.00000E+00
    0.20160E+06        -0.60585E+08         0.00000E+00
    0.00000E+00         0.00000E+00        -0.60349E+08
 
   -0.60348E+08         0.20200E+06         0.00000E+00
    0.20200E+06        -0.60514E+08         0.00000E+00
    0.00000E+00         0.00000E+00        -0.60431E+08
 
   -0.59345E+08         0.11614E+03         0.00000E+00
    0.11614E+03        -0.60002E+08         0.00000E+00
    0.00000E+00         0.00000E+00        -0.59680E+08
 
   -0.59575E+08        -0.39676E+05         0.00000E+00
   -0.39676E+05        -0.60012E+08         0.00000E+00
    0.00000E+00         0.00000E+00        -0.59795E+08
 
   -0.59756E+08        -0.12453E+06         0.00000E+00
   -0.12453E+06        -0.60053E+08         0.00000E+00
    0.00000E+00         0.00000E+00        -0.59907E+08
 
   -0.59846E+08        -0.21716E+06         0.00000E+00
   -0.21716E+06        -0.60130E+08         0.00000E+00
    0.00000E+00         0.00000E+00        -0.59989E+08
 
   -0.59863E+08        -0.28727E+06         0.00000E+00
   -0.28727E+06        -0.60228E+08         0.00000E+00
    0.00000E+00         0.00000E+00        -0.60045E+08
 
   -0.59834E+08        -0.32319E+06         0.00000E+00
   -0.32319E+06        -0.60331E+08         0.00000E+00
    0.00000E+00         0.00000E+00        -0.60081E+08
 
   -0.59782E+08        -0.32559E+06         0.00000E+00
   -0.32559E+06        -0.60428E+08         0.00000E+00
    0.00000E+00         0.00000E+00        -0.60103E+08
 
   -0.59725E+08        -0.29956E+06         0.00000E+00
   -0.29956E+06        -0.60514E+08         0.00000E+00
    0.00000E+00         0.00000E+00        -0.60118E+08
 
   -0.59676E+08        -0.24892E+06         0.00000E+00
   -0.24892E+06        -0.60592E+08         0.00000E+00
    0.00000E+00         0.00000E+00        -0.60132E+08
 
   -0.59644E+08        -0.17457E+06         0.00000E+00
   -0.17457E+06        -0.60660E+08         0.00000E+00
    0.00000E+00         0.00000E+00        -0.60150E+08
 
   -0.59645E+08        -0.76208E+05         0.00000E+00
   -0.76208E+05        -0.60716E+08         0.00000E+00
    0.00000E+00         0.00000E+00        -0.60178E+08
 
   -0.59701E+08         0.42750E+05         0.00000E+00
    0.42750E+05        -0.60751E+08         0.00000E+00
    0.00000E+00         0.00000E+00        -0.60222E+08
 
   -0.59834E+08         0.16799E+06         0.00000E+00
    0.16799E+06        -0.60750E+08         0.00000E+00
    0.00000E+00         0.00000E+00        -0.60287E+08
 
   -0.60064E+08         0.26824E+06         0.00000E+00
    0.26824E+06        -0.60702E+08         0.00000E+00
    0.00000E+00         0.00000E+00        -0.60379E+08
 
   -0.60377E+08         0.29764E+06         0.00000E+00
    0.29764E+06        -0.60608E+08         0.00000E+00
    0.00000E+00         0.00000E+00        -0.60491E+08
 
   -0.59361E+08         0.14986E+04         0.00000E+00
    0.14986E+04        -0.59993E+08         0.00000E+00
    0.00000E+00         0.00000E+00        -0.59681E+08
 
   -0.59664E+08        -0.68300E+05         0.00000E+00
   -0.68300E+05        -0.60013E+08         0.00000E+00
    0.00000E+00         0.00000E+00        -0.59840E+08
 
   -0.59872E+08        -0.20197E+06         0.00000E+00
   -0.20197E+06        -0.60085E+08         0.00000E+00
    0.00000E+00         0.00000E+00        -0.59982E+08
 
   -0.59940E+08        -0.32597E+06         0.00000E+00
   -0.32597E+06        -0.60200E+08         0.00000E+00
    0.00000E+00         0.00000E+00        -0.60070E+08
 
   -0.59915E+08        -0.40280E+06         0.00000E+00
   -0.40280E+06        -0.60329E+08         0.00000E+00
    0.00000E+00         0.00000E+00        -0.60120E+08
 
   -0.59845E+08        -0.42839E+06         0.00000E+00
   -0.42839E+06        -0.60445E+08         0.00000E+00
    0.00000E+00         0.00000E+00        -0.60143E+08
 
   -0.59763E+08        -0.41579E+06         0.00000E+00
   -0.41579E+06        -0.60541E+08         0.00000E+00
    0.00000E+00         0.00000E+00        -0.60150E+08
 
   -0.59682E+08        -0.37759E+06         0.00000E+00
   -0.37759E+06        -0.60618E+08         0.00000E+00
    0.00000E+00         0.00000E+00        -0.60149E+08
 
   -0.59610E+08        -0.31934E+06         0.00000E+00
   -0.31934E+06        -0.60686E+08         0.00000E+00
    0.00000E+00         0.00000E+00        -0.60147E+08
 
   -0.59554E+08        -0.23940E+06         0.00000E+00
   -0.23940E+06        -0.60750E+08         0.00000E+00
    0.00000E+00         0.00000E+00        -0.60152E+08
 
   -0.59527E+08        -0.13060E+06         0.00000E+00
   -0.13060E+06        -0.60812E+08         0.00000E+00
    0.00000E+00         0.00000E+00        -0.60168E+08
 
   -0.59557E+08         0.13754E+05         0.00000E+00
    0.13754E+05        -0.60863E+08         0.00000E+00
    0.00000E+00         0.00000E+00        -0.60207E+08
 
   -0.59687E+08         0.18651E+06         0.00000E+00
    0.18651E+06        -0.60877E+08         0.00000E+00
    0.00000E+00         0.00000E+00        -0.60276E+08
 
   -0.59962E+08         0.34945E+06         0.00000E+00
    0.34945E+06        -0.60828E+08         0.00000E+00
    0.00000E+00         0.00000E+00        -0.60389E+08
 
   -0.60383E+08         0.42924E+06         0.00000E+00
    0.42924E+06        -0.60706E+08         0.00000E+00
    0.00000E+00         0.00000E+00        -0.60542E+08
 
   -0.59394E+08         0.80203E+03         0.00000E+00
    0.80203E+03        -0.60018E+08         0.00000E+00
    0.00000E+00         0.00000E+00        -0.59742E+08
 
   -0.59810E+08        -0.13227E+06         0.00000E+00
   -0.13227E+06        -0.60069E+08         0.00000E+00
    0.00000E+00         0.00000E+00        -0.59953E+08
 
   -0.60034E+08        -0.32870E+06         0.00000E+00
   -0.32870E+06        -0.60187E+08         0.00000E+00
    0.00000E+00         0.00000E+00        -0.60126E+08
 
   -0.60044E+08        -0.48004E+06         0.00000E+00
   -0.48004E+06        -0.60361E+08         0.00000E+00
    0.00000E+00         0.00000E+00        -0.60210E+08
 
   -0.59950E+08        -0.53738E+06         0.00000E+00
   -0.53738E+06        -0.60521E+08         0.00000E+00
    0.00000E+00         0.00000E+00        -0.60240E+08
 
   -0.59834E+08        -0.52860E+06         0.00000E+00
   -0.52860E+06        -0.60633E+08         0.00000E+00
    0.00000E+00         0.00000E+00        -0.60238E+08
 
   -0.59725E+08        -0.48830E+06         0.00000E+00
   -0.48830E+06        -0.60704E+08         0.00000E+00
    0.00000E+00         0.00000E+00        -0.60221E+08
 
   -0.59629E+08        -0.43468E+06         0.00000E+00
   -0.43468E+06        -0.60750E+08         0.00000E+00
    0.00000E+00         0.00000E+00        -0.60197E+08
 
   -0.59542E+08        -0.37289E+06         0.00000E+00
   -0.37289E+06        -0.60787E+08         0.00000E+00
    0.00000E+00         0.00000E+00        -0.60173E+08
 
   -0.59464E+08        -0.29797E+06         0.00000E+00
   -0.29797E+06        -0.60830E+08         0.00000E+00
    0.00000E+00         0.00000E+00        -0.60157E+08
 
   -0.59401E+08        -0.19515E+06         0.00000E+00
   -0.19515E+06        -0.60888E+08         0.00000E+00
    0.00000E+00         0.00000E+00        -0.60154E+08
 
   -0.59381E+08        -0.40040E+05         0.00000E+00
   -0.40040E+05        -0.60958E+08         0.00000E+00
    0.00000E+00         0.00000E+00        -0.60176E+08
 
   -0.59472E+08         0.18485E+06         0.00000E+00
    0.18485E+06        -0.61006E+08         0.00000E+00
    0.00000E+00         0.00000E+00        -0.60239E+08
 
   -0.59780E+08         0.44323E+06         0.00000E+00
    0.44323E+06        -0.60968E+08         0.00000E+00
    0.00000E+00         0.00000E+00        -0.60371E+08
 
   -0.60340E+08         0.61458E+06         0.00000E+00
    0.61458E+06        -0.60805E+08         0.00000E+00
    0.00000E+00         0.00000E+00        -0.60568E+08
 
   -0.59465E+08        -0.26966E+05         0.00000E+00
   -0.26966E+05        -0.59993E+08         0.00000E+00
    0.00000E+00         0.00000E+00        -0.59693E+08
 
   -0.60053E+08        -0.23312E+06         0.00000E+00
   -0.23312E+06        -0.60031E+08         0.00000E+00
    0.00000E+00         0.00000E+00        -0.60022E+08
 
   -0.60252E+08        -0.55918E+06         0.00000E+00
   -0.55918E+06        -0.60292E+08         0.00000E+00
    0.00000E+00         0.00000E+00        -0.60236E+08
 
   -0.60116E+08        -0.68693E+06         0.00000E+00
   -0.68693E+06        -0.60573E+08         0.00000E+00
    0.00000E+00         0.00000E+00        -0.60298E+08
 
   -0.59931E+08        -0.66255E+06         0.00000E+00
   -0.66255E+06        -0.60731E+08         0.00000E+00
    0.00000E+00         0.00000E+00        -0.60290E+08
 
   -0.59781E+08        -0.59103E+06         0.00000E+00
   -0.59103E+06        -0.60793E+08         0.00000E+00
    0.00000E+00         0.00000E+00        -0.60250E+08
 
   -0.59664E+08        -0.51467E+06         0.00000E+00
   -0.51467E+06        -0.60801E+08         0.00000E+00
    0.00000E+00         0.00000E+00        -0.60198E+08
 
   -0.59568E+08        -0.44692E+06         0.00000E+00
   -0.44692E+06        -0.60787E+08         0.00000E+00
    0.00000E+00         0.00000E+00        -0.60145E+08
 
   -0.59481E+08        -0.38806E+06         0.00000E+00
   -0.38806E+06        -0.60771E+08         0.00000E+00
    0.00000E+00         0.00000E+00        -0.60095E+08
 
   -0.59390E+08        -0.33053E+06         0.00000E+00
   -0.33053E+06        -0.60770E+08         0.00000E+00
    0.00000E+00         0.00000E+00        -0.60050E+08
 
   -0.59291E+08        -0.25654E+06         0.00000E+00
   -0.25654E+06        -0.60799E+08         0.00000E+00
    0.00000E+00         0.00000E+00        -0.60017E+08
 
   -0.59196E+08        -0.12951E+06         0.00000E+00
   -0.12951E+06        -0.60875E+08         0.00000E+00
    0.00000E+00         0.00000E+00        -0.60008E+08
 
   -0.59174E+08         0.12264E+06         0.00000E+00
    0.12264E+06        -0.60991E+08         0.00000E+00
    0.00000E+00         0.00000E+00        -0.60046E+08
 
   -0.59453E+08         0.52940E+06         0.00000E+00
    0.52940E+06        -0.61036E+08         0.00000E+00
    0.00000E+00         0.00000E+00        -0.60199E+08
 
   -0.60213E+08         0.87031E+06         0.00000E+00
    0.87031E+06        -0.60864E+08         0.00000E+00
    0.00000E+00         0.00000E+00        -0.60518E+08
 
   -0.59624E+08         0.59066E+05         0.00000E+00
    0.59066E+05        -0.59835E+08         0.00000E+00
    0.00000E+00         0.00000E+00        -0.59855E+08
 
   -0.60542E+08        -0.65553E+06         0.00000E+00
   -0.65553E+06        -0.60414E+08         0.00000E+00
    0.00000E+00         0.00000E+00        -0.60529E+08
 
   -0.60411E+08        -0.97985E+06         0.00000E+00
   -0.97985E+06        -0.61083E+08         0.00000E+00
    0.00000E+00         0.00000E+00        -0.60763E+08
 
   -0.60049E+08        -0.86831E+06         0.00000E+00
   -0.86831E+06        -0.61327E+08         0.00000E+00
    0.00000E+00         0.00000E+00        -0.60726E+08
 
   -0.59824E+08        -0.70231E+06         0.00000E+00
   -0.70231E+06        -0.61342E+08         0.00000E+00
    0.00000E+00         0.00000E+00        -0.60630E+08
 
   -0.59682E+08        -0.56402E+06         0.00000E+00
   -0.56402E+06        -0.61270E+08         0.00000E+00
    0.00000E+00         0.00000E+00        -0.60527E+08
 
   -0.59585E+08        -0.46222E+06         0.00000E+00
   -0.46222E+06        -0.61171E+08         0.00000E+00
    0.00000E+00         0.00000E+00        -0.60431E+08
 
   -0.59507E+08        -0.39094E+06         0.00000E+00
   -0.39094E+06        -0.61072E+08         0.00000E+00
    0.00000E+00         0.00000E+00        -0.60343E+08
 
   -0.59432E+08        -0.34254E+06         0.00000E+00
   -0.34254E+06        -0.60982E+08         0.00000E+00
    0.00000E+00         0.00000E+00        -0.60262E+08
 
   -0.59344E+08        -0.30907E+06         0.00000E+00
   -0.30907E+06        -0.60911E+08         0.00000E+00
    0.00000E+00         0.00000E+00        -0.60183E+08
 
   -0.59226E+08        -0.27830E+06         0.00000E+00
   -0.27830E+06        -0.60871E+08         0.00000E+00
    0.00000E+00         0.00000E+00        -0.60105E+08
 
   -0.59063E+08        -0.22169E+06         0.00000E+00
   -0.22169E+06        -0.60888E+08         0.00000E+00
    0.00000E+00         0.00000E+00        -0.60036E+08
 
   -0.58845E+08        -0.57780E+05         0.00000E+00
   -0.57780E+05        -0.61009E+08         0.00000E+00
    0.00000E+00         0.00000E+00        -0.59990E+08
 
   -0.58860E+08         0.46929E+06         0.00000E+00
    0.46929E+06        -0.61241E+08         0.00000E+00
    0.00000E+00         0.00000E+00        -0.60069E+08
 
   -0.59926E+08         0.12475E+07         0.00000E+00
    0.12475E+07        -0.61117E+08         0.00000E+00
    0.00000E+00         0.00000E+00        -0.60507E+08
 
   -0.60482E+08        -0.78665E+06         0.00000E+00
   -0.78665E+06        -0.61803E+08         0.00000E+00
    0.00000E+00         0.00000E+00        -0.62153E+08
 
   -0.60904E+08        -0.16963E+07         0.00000E+00
   -0.16963E+07        -0.63062E+08         0.00000E+00
    0.00000E+00         0.00000E+00        -0.62201E+08
 
   -0.60139E+08        -0.11510E+07         0.00000E+00
   -0.11510E+07        -0.63064E+08         0.00000E+00
    0.00000E+00         0.00000E+00        -0.61951E+08
 
   -0.59816E+08        -0.76320E+06         0.00000E+00
   -0.76320E+06        -0.62725E+08         0.00000E+00
    0.00000E+00         0.00000E+00        -0.61612E+08
 
   -0.59653E+08        -0.53222E+06         0.00000E+00
   -0.53222E+06        -0.62392E+08         0.00000E+00
    0.00000E+00         0.00000E+00        -0.61358E+08
 
   -0.59566E+08        -0.39235E+06         0.00000E+00
   -0.39235E+06        -0.62113E+08         0.00000E+00
    0.00000E+00         0.00000E+00        -0.61168E+08
 
   -0.59507E+08        -0.30606E+06         0.00000E+00
   -0.30606E+06        -0.61883E+08         0.00000E+00
    0.00000E+00         0.00000E+00        -0.61018E+08
 
   -0.59457E+08        -0.25263E+06         0.00000E+00
   -0.25263E+06        -0.61690E+08         0.00000E+00
    0.00000E+00         0.00000E+00        -0.60892E+08
 
   -0.59401E+08        -0.22135E+06         0.00000E+00
   -0.22135E+06        -0.61521E+08         0.00000E+00
    0.00000E+00         0.00000E+00        -0.60776E+08
 
   -0.59326E+08        -0.20623E+06         0.00000E+00
   -0.20623E+06        -0.61369E+08         0.00000E+00
    0.00000E+00         0.00000E+00        -0.60658E+08
 
   -0.59209E+08        -0.20299E+06         0.00000E+00
   -0.20299E+06        -0.61228E+08         0.00000E+00
    0.00000E+00         0.00000E+00        -0.60525E+08
 
   -0.59014E+08        -0.20190E+06         0.00000E+00
   -0.20190E+06        -0.61100E+08         0.00000E+00
    0.00000E+00         0.00000E+00        -0.60361E+08
 
   -0.58672E+08        -0.16736E+06         0.00000E+00
   -0.16736E+06        -0.61014E+08         0.00000E+00
    0.00000E+00         0.00000E+00        -0.60141E+08
 
   -0.58008E+08         0.10474E+06         0.00000E+00
    0.10474E+06        -0.61092E+08         0.00000E+00
    0.00000E+00         0.00000E+00        -0.59876E+08
 
   -0.58597E+08         0.18817E+07         0.00000E+00
    0.18817E+07        -0.61089E+08         0.00000E+00
    0.00000E+00         0.00000E+00        -0.59685E+08
 
   -0.62403E+08        -0.27069E+07         0.00000E+00
   -0.27069E+07        -0.58357E+08         0.00000E+00
    0.00000E+00         0.00000E+00        -0.54022E+08
 
   -0.59990E+08        -0.99934E+06         0.00000E+00
   -0.99934E+06        -0.56387E+08         0.00000E+00
    0.00000E+00         0.00000E+00        -0.53609E+08
 
   -0.59754E+08        -0.42612E+06         0.00000E+00
   -0.42612E+06        -0.55161E+08         0.00000E+00
    0.00000E+00         0.00000E+00        -0.53247E+08
 
   -0.59603E+08        -0.24383E+06         0.00000E+00
   -0.24383E+06        -0.54474E+08         0.00000E+00
    0.00000E+00         0.00000E+00        -0.52970E+08
 
   -0.59534E+08        -0.15789E+06         0.00000E+00
   -0.15789E+06        -0.54040E+08         0.00000E+00
    0.00000E+00         0.00000E+00        -0.52794E+08
 
   -0.59494E+08        -0.11188E+06         0.00000E+00
   -0.11188E+06        -0.53742E+08         0.00000E+00
    0.00000E+00         0.00000E+00        -0.52676E+08
 
   -0.59463E+08        -0.84645E+05         0.00000E+00
   -0.84645E+05        -0.53522E+08         0.00000E+00
    0.00000E+00         0.00000E+00        -0.52587E+08
 
   -0.59430E+08        -0.67960E+05         0.00000E+00
   -0.67960E+05        -0.53349E+08         0.00000E+00
    0.00000E+00         0.00000E+00        -0.52514E+08
 
   -0.59386E+08        -0.57649E+05         0.00000E+00
   -0.57649E+05        -0.53204E+08         0.00000E+00
    0.00000E+00         0.00000E+00        -0.52447E+08
 
   -0.59319E+08        -0.51480E+05         0.00000E+00
   -0.51480E+05        -0.53075E+08         0.00000E+00
    0.00000E+00         0.00000E+00        -0.52379E+08
 
   -0.59207E+08        -0.47625E+05         0.00000E+00
   -0.47625E+05        -0.52952E+08         0.00000E+00
    0.00000E+00         0.00000E+00        -0.52298E+08
 
   -0.59006E+08        -0.43086E+05         0.00000E+00
   -0.43086E+05        -0.52832E+08         0.00000E+00
    0.00000E+00         0.00000E+00        -0.52189E+08
 
   -0.58600E+08        -0.22358E+05         0.00000E+00
   -0.22358E+05        -0.52722E+08         0.00000E+00
    0.00000E+00         0.00000E+00        -0.52025E+08
 
   -0.57689E+08         0.36899E+05         0.00000E+00
    0.36899E+05        -0.52698E+08         0.00000E+00
    0.00000E+00         0.00000E+00        -0.51764E+08
 
   -0.54067E+08         0.12266E+07         0.00000E+00
    0.12266E+07        -0.53616E+08         0.00000E+00
    0.00000E+00         0.00000E+00        -0.51343E+08
 
SCALARS stresss double 
LOOKUP_TABLE default
  -59861353.9745513     
  -59863437.0363991     
  -59866415.8222739     
  -59870085.5466737     
  -59874312.8320406     
  -59878928.1763843     
  -59883768.9486551     
  -59888686.3986651     
  -59893549.7855640     
  -59898250.1740247     
  -59902706.2608140     
  -59906869.9019830     
  -59910712.1472234     
  -59914330.0520767     
  -59917794.0933998     
  -59859964.1810386     
  -59861942.8653685     
  -59865030.6839742     
  -59868861.1273271     
  -59873257.6037251     
  -59878035.8528061     
  -59883026.2348477     
  -59888074.9972586     
  -59893047.2314678     
  -59897830.0176519     
  -59902337.2778392     
  -59906514.2594789     
  -59910323.1894364     
  -59913824.9127536     
  -59916942.2876844     
  -59857835.7039663     
  -59860136.5660802     
  -59863557.0828738     
  -59867741.4898643     
  -59872488.8505487     
  -59877599.9233524     
  -59882894.2658088     
  -59888209.7374149     
  -59893403.7268495     
  -59898355.7887456     
  -59902971.4415385     
  -59907185.5748415     
  -59910949.5763090     
  -59914287.6366532     
  -59917162.9910727     
  -59854426.9199303     
  -59857314.6951183     
  -59861337.8191937     
  -59866091.4225416     
  -59871386.7346764     
  -59877010.8780386     
  -59882771.8890086     
  -59888497.0266745     
  -59894033.2304277     
  -59899249.6614048     
  -59904040.7047255     
  -59908329.3379274     
  -59912056.0962419     
  -59915238.0737255     
  -59917858.2853734     
  -59849807.7604436     
  -59853466.9906646     
  -59858323.1154221     
  -59863870.3850273     
  -59869922.2054511     
  -59876251.2353790     
  -59882652.3190615     
  -59888940.3676439     
  -59894949.6654656     
  -59900536.5912475     
  -59905581.9078997     
  -59909994.1186383     
  -59913703.2209287     
  -59916708.1222776     
  -59918994.0330721     
  -59843986.9105758     
  -59848649.4898299     
  -59854584.9361103     
  -59861161.0893197     
  -59868191.2761786     
  -59875429.9242843     
  -59882657.0192441     
  -59889673.6820728     
  -59896299.8015279     
  -59902376.9158677     
  -59907769.5213540     
  -59912368.2465413     
  -59916087.8758675     
  -59918897.3097331     
  -59920775.1431104     
  -59836933.8430984     
  -59842860.8854224     
  -59850148.8559476     
  -59858007.6982242     
  -59866254.0117995     
  -59874621.6495860     
  -59882874.7180679     
  -59890799.8474532     
  -59898201.4483121     
  -59904904.6139141     
  -59910755.0331848     
  -59915621.5634667     
  -59919398.7761983     
  -59922016.9633558     
  -59923442.9888069     
  -59828642.3357155     
  -59836123.8558333     
  -59845063.1128477     
  -59854479.1706324     
  -59864196.7069405     
  -59873928.1599783     
  -59883421.9240472     
  -59892450.5315622     
  -59900802.8090334     
  -59908286.5564397     
  -59914726.5307852     
  -59919966.0325537     
  -59923874.1617495     
  -59926333.9295037     
  -59927293.0153740     
  -59819119.8413404     
  -59828479.6328678     
  -59839397.8383919     
  -59850667.3309749     
  -59862128.8010372     
  -59873474.0645155     
  -59884437.6408454     
  -59894779.9119570     
  -59904275.4229764     
  -59912715.0051223     
  -59919901.1912830     
  -59925648.3223063     
  -59929794.3339721     
  -59932166.0963876     
  -59932681.8721431     
  -59808400.0645379     
  -59819993.9150043     
  -59833246.2429238     
  -59846685.8500631     
  -59860179.9116482     
  -59873402.2258097     
  -59886077.2253002     
  -59897957.1116391     
  -59908805.4058224     
  -59918398.0305989     
  -59926515.3504235     
  -59932940.1128867     
  -59937473.0719030     
  -59939876.0176939     
  -59940023.9556051     
  -59796553.7762515     
  -59810767.9360920     
  -59826734.6320383     
  -59842678.4665934     
  -59858506.1877240     
  -59873878.1242665     
  -59888514.7283506     
  -59902166.5680709     
  -59914592.0562266     
  -59925556.7582787     
  -59934820.9886078     
  -59942134.5994381     
  -59947254.9993482     
  -59949870.0853890     
  -59949793.2790753     
  -59783698.8871932     
  -59800946.1331324     
  -59820028.1403707     
  -59838822.9429612     
  -59857292.2511640     
  -59875089.4801014     
  -59891939.9321066     
  -59907602.3846740     
  -59921839.6701513     
  -59934415.0931413     
  -59945074.1311072     
  -59953534.6516978     
  -59959504.8495261     
  -59962590.6698434     
  -59962520.2704545     
  -59770010.9713041     
  -59790724.8118518     
  -59813337.7721943     
  -59835336.4872760     
  -59856754.5163583     
  -59877246.8388182     
  -59896555.6229955     
  -59914461.9608247     
  -59930747.5683640     
  -59945186.6260423     
  -59957519.5835020     
  -59967436.7693359     
  -59974592.3807911     
  -59978504.0726359     
  -59978784.7160776     
  -59755733.5392650     
  -59780362.3629879     
  -59806930.5638909     
  -59832485.1205036     
  -59857148.6270243     
  -59880587.7861782     
  -59902577.4943075     
  -59922940.8871934     
  -59941499.8427560     
  -59958059.7099949     
  -59972372.4451122     
  -59984110.7360668     
  -59992872.2778666     
  -59998083.2729761     
  -59999203.9237056     
  -59741182.4108994     
  -59770183.0827801     
  -59801133.8870414     
  -59830588.0085398     
  -59858772.0061996     
  -59885375.6704991     
  -59910227.2027212     
  -59933219.1428863     
  -59954244.3036580     
  -59973169.6576921     
  -59989784.9918274     
  -60003763.5113541     
  -60014648.1866033     
  -60021775.9800448     
  -60024408.6128453     
  -59726751.6895993     
  -59760592.5082082     
  -59796358.1837962     
  -59830043.2192045     
  -59861988.6076488     
  -59891919.4643890     
  -59919744.4242840     
  -59945463.4551938     
  -59969084.4166130     
  -59990580.6784815     
  -60009820.1320625     
  -60026506.7990904     
  -60040137.5855570     
  -60049970.7562296     
  -60055014.2943364     
  -59712902.0706060     
  -59752066.7889998     
  -59793090.9436049     
  -59831325.3050982     
  -59867225.0142282     
  -59900563.3861937     
  -59931365.7210965     
  -59959792.8108591     
  -59986030.4163953     
  -60010223.1205745     
  -60032377.0544951     
  -60052275.1401692     
  -60069388.4757269     
  -60082919.8770809     
  -60091557.3311347     
  -59700149.3644316     
  -59745188.2693434     
  -59791966.4535302     
  -59835069.1252553     
  -59875055.0738455     
  -59911761.8018008     
  -59945383.6171570     
  -59976318.2460624     
  -60005018.4517386     
  -60031892.1834589     
  -60057171.1363980     
  -60080790.6364778     
  -60102233.3005212     
  -60120688.6718160     
  -60134446.7793604     
  -59689057.3885662     
  -59740628.2566935     
  -59793749.1537271     
  -59842056.4290760     
  -59886178.5912365     
  -59926041.5402025     
  -59962085.7681960     
  -59995055.8997233     
  -60025796.4492905     
  -60055107.0271193     
  -60083569.4524809     
  -60111381.4062679     
  -60138103.2350755     
  -60162980.4305838     
  -60183809.5973207     
  -59680084.0541763     
  -59739160.0506376     
  -59799470.7266311     
  -59853397.9805748     
  -59901605.0708244     
  -59944160.2745904     
  -59981879.3500724     
  -60016015.1634504     
  -60047975.4580987     
  -60079124.1146547     
  -60110564.7620253     
  -60142920.1928747     
  -60175939.7452444     
  -60209043.8669955     
  -60239427.1577851     
  -59673936.8877899     
  -59742015.0466954     
  -59810739.7087220     
  -59870798.6528077     
  -59922859.0486769     
  -59967252.3789594     
  -60005381.7207048     
  -60039241.7207083     
  -60071028.2761008     
  -60102888.4707178     
  -60136676.2293942     
  -60173674.8157499     
  -60214010.5421696     
  -60257460.2760288     
  -60300469.7005872     
  -59670456.9247741     
  -59749953.8919195     
  -59829121.0953735     
  -59896058.7209818     
  -59951466.0972335     
  -59996248.2913419     
  -60032775.9268096     
  -60064126.9349752     
  -60093558.6455277     
  -60124251.7949888     
  -60159096.2410282     
  -60200385.7969342     
  -60248968.1807403     
  -60305359.6371329     
  -60365115.5449205     
  -59670830.7948037     
  -59766860.6372098     
  -59859889.3220610     
  -59934497.8361287     
  -59992065.8096718     
  -60034745.1889718     
  -60066550.4405289     
  -60092085.5294340     
  -60115938.4710488     
  -60142539.1622804     
  -60176119.8617039     
  -60220466.9859985     
  -60277720.5064683     
  -60349764.3274527     
  -60431135.8790566     
  -59675515.6770488     
  -59793976.8158823     
  -59905269.8263017     
  -59988215.5572842     
  -60045379.1712786     
  -60081829.4610061     
  -60104273.2499677     
  -60119388.9119013     
  -60133223.8410591     
  -60151490.2084297     
  -60180014.1221373     
  -60224769.8791989     
  -60290370.8101150     
  -60381619.4189845     
  -60492019.5969660     
  -59678195.4400286     
  -59838957.7971363     
  -59979619.3999483     
  -60070082.5138832     
  -60121331.2337269     
  -60144512.8765762     
  -60150890.4769194     
  -60149595.5989510     
  -60147755.5704747     
  -60151880.8137007     
  -60169312.8610719     
  -60208988.4350921     
  -60279850.8085043     
  -60393340.6289228     
  -60543854.7877426     
  -59717977.3134096     
  -59944086.0157809     
  -60115506.8118791     
  -60205060.3128949     
  -60237237.3397607     
  -60235199.6893258     
  -60216473.5161086     
  -60191699.4315562     
  -60167721.0394769     
  -60150465.2886063     
  -60147666.2694089     
  -60171757.5018244     
  -60238895.5422130     
  -60372700.2875788     
  -60571465.3771599     
  -59717213.0074765     
  -60035351.5773755     
  -60259869.0262715     
  -60329275.9159109     
  -60317516.3726060     
  -60274466.8652892     
  -60221105.6547291     
  -60166791.8374434     
  -60115425.6791993     
  -60069901.5058387     
  -60035801.5016922     
  -60026292.6307030     
  -60070502.1881373     
  -60229334.1165508     
  -60531589.4936520     
  -59771354.1179061     
  -60495047.5381599     
  -60752153.5666517     
  -60700267.6695688     
  -60598844.6407734     
  -60492990.2516914     
  -60395724.8060680     
  -60307573.5977470     
  -60225491.6922503     
  -60146045.8971047     
  -60067532.6009174     
  -59995709.2064583     
  -59947679.7101278     
  -60056788.5860276     
  -60516445.7412829     
  -61479321.5545263     
  -62055522.2712522     
  -61718013.2059478     
  -61384405.9164732     
  -61134335.8016002     
  -60948882.4962475     
  -60802678.0264720     
  -60679549.2019004     
  -60566285.8986600     
  -60450914.2602259     
  -60320462.7374963     
  -60158284.1053322     
  -59942265.2257369     
  -59658783.7972674     
  -59790251.9867224     
  -58260580.2582716     
  -56662038.3532191     
  -56053827.7196229     
  -55682424.1144943     
  -55456064.8979820     
  -55304067.0726111     
  -55190680.2512419     
  -55097725.0411504     
  -55012563.8760031     
  -54924069.5252038     
  -54818925.5266694     
  -54675370.7831123     
  -54449188.5307324     
  -54050257.7043921     
  -53008704.7096311     
SCALARS 2waySource double 
LOOKUP_TABLE default
 -8.719524989597746E-004
 -8.623518194277178E-004
 -8.455643007068502E-004
 -8.239506885344268E-004
 -7.984574915535712E-004
 -7.701133797354890E-004
 -7.400134027183852E-004
 -7.091252955668878E-004
 -6.783185233966845E-004
 -6.483352583388619E-004
 -6.197544721187811E-004
 -5.929575054523608E-004
 -5.682465700912556E-004
 -5.452119503203165E-004
 -5.240264679014778E-004
 -8.804230798672815E-004
 -8.706314997126481E-004
 -8.528859528591279E-004
 -8.301071722845884E-004
 -8.034034561709633E-004
 -7.739027978944447E-004
 -7.427344419268915E-004
 -7.108994065005935E-004
 -6.792943274247225E-004
 -6.486861178246675E-004
 -6.196811173868503E-004
 -5.926934457238507E-004
 -5.680475456998744E-004
 -5.454717407253562E-004
 -5.251455873075624E-004
 -8.951607352024629E-004
 -8.836531924450916E-004
 -8.635903506779281E-004
 -8.384020107805774E-004
 -8.093288572302183E-004
 -7.775693206083093E-004
 -7.443285558125631E-004
 -7.106575091876535E-004
 -6.775015776478192E-004
 -6.456733288624082E-004
 -6.158269024380008E-004
 -5.884322618267859E-004
 -5.638636898236204E-004
 -5.419890497983692E-004
 -5.230987635955304E-004
 -9.178288537473125E-004
 -9.030000155324232E-004
 -8.789566552981287E-004
 -8.499877124397680E-004
 -8.172864259234468E-004
 -7.821013787910688E-004
 -7.457298460755951E-004
 -7.092843350383806E-004
 -6.737768197691862E-004
 -6.400830730580671E-004
 -6.089227569515685E-004
 -5.808370424141159E-004
 -5.562593534661962E-004
 -5.351610436905635E-004
 -5.178052209820932E-004
 -9.482447578231189E-004
 -9.290935865391343E-004
 -8.996053903687569E-004
 -8.654377297375947E-004
 -8.277759974907884E-004
 -7.879249462538863E-004
 -7.472943392335197E-004
 -7.070697600743825E-004
 -6.683440529992638E-004
 -6.320714021281018E-004
 -5.990528768043610E-004
 -5.699186430225916E-004
 -5.451709301591309E-004
 -5.249122191419845E-004
 -5.093663378730050E-004
 -9.863508930974020E-004
 -9.615963930562511E-004
 -9.250633075933590E-004
 -8.841758283099153E-004
 -8.401274182259834E-004
 -7.942827469001918E-004
 -7.481830747712033E-004
 -7.030950031235585E-004
 -6.602038442111393E-004
 -6.205548332754242E-004
 -5.850460820982469E-004
 -5.544178448557458E-004
 -5.292634643659649E-004
 -5.098711937337743E-004
 -4.964845330549226E-004
 -1.032399114149447E-003
 -1.000560584246958E-003
 -9.552025809176844E-004
 -9.059443735953256E-004
 -8.539693687909565E-004
 -8.007029448193015E-004
 -7.478314559386628E-004
 -6.967048516384646E-004
 -6.486075495004738E-004
 -6.046847490412874E-004
 -5.659450496420871E-004
 -5.332593585379425E-004
 -5.073362164252949E-004
 -4.886972716691351E-004
 -4.776321865616724E-004
 -1.086425089081460E-003
 -1.045872211757337E-003
 -9.897302037980393E-004
 -9.303096227149644E-004
 -8.687517772539877E-004
 -8.065313862831806E-004
 -7.454889251171974E-004
 -6.870525929419536E-004
 -6.326062073427122E-004
 -5.833982701379322E-004
 -5.405574165351960E-004
 -5.051039593766455E-004
 -4.778885267151542E-004
 -4.597133549524244E-004
 -4.509567415920897E-004
 -1.148400447708189E-003
 -1.097297094379696E-003
 -1.028209961644537E-003
 -9.566826345781440E-004
 -8.837646229073933E-004
 -8.109553293949438E-004
 -7.402488300599342E-004
 -6.731364759486648E-004
 -6.110926047230680E-004
 -5.554643191997245E-004
 -5.075035688006579E-004
 -4.683951598892421E-004
 -4.391601517642041E-004
 -4.209282409749166E-004
 -4.142237844796406E-004
 -1.218116455695125E-003
 -1.154442382127110E-003
 -1.070059734649003E-003
 -9.843400869241174E-004
 -8.981754368450887E-004
 -8.130524465310058E-004
 -7.311079618125996E-004
 -6.538688165408958E-004
 -5.828787674890801E-004
 -5.195673686203923E-004
 -4.653035369479402E-004
 -4.214449720723601E-004
 -3.892116690034722E-004
 -3.701050750036672E-004
 -3.648730573291155E-004
 -1.295128771063709E-003
 -1.216683151884298E-003
 -1.114477878278322E-003
 -1.012355667821870E-003
 -9.109695449140930E-004
 -8.117422440594825E-004
 -7.169301564282271E-004
 -6.280522014313280E-004
 -5.466839928923923E-004
 -4.743052237550789E-004
 -4.123811011325727E-004
 -3.624397845499541E-004
 -3.259269818569533E-004
 -3.047550537949887E-004
 -2.999989501606747E-004
 -1.378681465667211E-003
 -1.283105192564808E-003
 -1.160400755272689E-003
 -1.039571215279199E-003
 -9.209340789711365E-004
 -8.057846795532443E-004
 -6.964611663017944E-004
 -5.944117282507664E-004
 -5.011841119687130E-004
 -4.182531344816957E-004
 -3.471385174592623E-004
 -2.895195279826395E-004
 -2.470890358910135E-004
 -2.221998548092141E-004
 -2.163871216405314E-004
 -1.467670133734420E-003
 -1.352482536630333E-003
 -1.206496519430721E-003
 -1.064598539197940E-003
 -9.266715999890931E-004
 -7.938089112505592E-004
 -6.683772963743256E-004
 -5.516664286246756E-004
 -4.451064224395267E-004
 -3.500798863416601E-004
 -2.680882516669548E-004
 -2.009159582634634E-004
 -1.505129953121050E-004
 -1.196831451800034E-004
 -1.105917982940661E-004
 -1.560504467108909E-003
 -1.423123189744005E-003
 -1.250986369317881E-003
 -1.085642343984361E-003
 -9.264306096935631E-004
 -7.741636757013911E-004
 -6.311627798232398E-004
 -4.984396095848657E-004
 -3.771749477653613E-004
 -2.685265188735294E-004
 -1.738600188174891E-004
 -9.498079139164819E-005
 -3.408659534836015E-005
  5.582828199384279E-006
  2.102394767794639E-005
 -1.655268486317111E-003
 -1.493083466646529E-003
 -1.291917862214006E-003
 -1.100772781098788E-003
 -9.183902868848688E-004
 -7.452194047995422E-004
 -5.834449122185338E-004
 -4.336356622905518E-004
 -2.965332753712271E-004
 -1.728721024131091E-004
 -6.369934681595320E-005
  2.930323083154624E-005
  1.037348890542699E-004
  1.559877888672995E-004
  1.819590604767225E-004
 -1.749270906277963E-003
 -1.559519012693960E-003
 -1.326291965705421E-003
 -1.107010782428963E-003
 -8.997304808567646E-004
 -7.044736018819830E-004
 -5.231519772884827E-004
 -3.556670494564293E-004
 -2.020459745212583E-004
 -6.231072950539544E-005
  6.308308553543756E-005
  1.727998149292159E-004
  2.643277467199971E-004
  3.338063179506571E-004
  3.757382329186370E-004
 -1.840054554479885E-003
 -1.620082426299189E-003
 -1.351846798901144E-003
 -1.102116421415890E-003
 -8.684564961190342E-004
 -6.503925837198267E-004
 -4.494152816827820E-004
 -2.644319288826311E-004
 -9.436166947002594E-005
  6.190923553213920E-005
  2.049220972429027E-004
  3.340401949999950E-004
  4.468246846275881E-004
  5.394181397858541E-004
  6.045383678082580E-004
 -1.923637268712710E-003
 -1.669821719729779E-003
 -1.362652098260620E-003
 -1.079941828341605E-003
 -8.186352579363725E-004
 -5.777465192269200E-004
 -3.580289403771354E-004
 -1.569354877368119E-004
  2.830072211290120E-005
  2.005237365170895E-004
  3.618444970221198E-004
  5.128165151935487E-004
  6.513496516408959E-004
  7.738960656914653E-004
  8.710279706496067E-004
 -1.997890258653401E-003
 -1.707370680692302E-003
 -1.357784651120701E-003
 -1.039409645567590E-003
 -7.496492388498816E-004
 -4.868909968232572E-004
 -2.508594218432758E-004
 -3.682253570460257E-005
  1.604855673879352E-004
  3.464920308826004E-004
  5.256962756877339E-004
  7.006065258650417E-004
  8.699912679802284E-004
  1.031300526887455E-003
  1.172340468768236E-003
 -2.059084441518214E-003
 -1.723617447791148E-003
 -1.323256927341237E-003
 -9.650566276045167E-004
 -6.460965537231342E-004
 -3.639769764042252E-004
 -1.163689236995890E-004
  1.047121292417422E-004
  3.082360238584679E-004
  5.033286213785167E-004
  6.979480720647110E-004
  8.975280251572754E-004
  1.102378300806282E-003
  1.311692368612674E-003
  1.510264826698775E-003
 -2.101216615393551E-003
 -1.717114122725721E-003
 -1.260387513312006E-003
 -8.583456322829671E-004
 -5.109881567552224E-004
 -2.144505320078073E-004
  3.650371784726587E-005
  2.548801671297356E-004
  4.549144947976150E-004
  6.509198950961376E-004
  8.557333131762628E-004
  1.079200755959750E-003
  1.324432756872958E-003
  1.593942164179137E-003
  1.868379258336162E-003
 -2.141745745161967E-003
 -1.684102120358507E-003
 -1.147362454014097E-003
 -6.911000855355742E-004
 -3.157140220977497E-004
 -1.350189094357950E-005
  2.274079733973087E-004
  4.277109692557751E-004
  6.091254546644422E-004
  7.927404599429624E-004
  9.978766391694897E-004
  1.240612447507335E-003
  1.528811587621130E-003
  1.871308450651656E-003
  2.245546754720858E-003
 -2.118714226050724E-003
 -1.570130688218533E-003
 -9.362667099061688E-004
 -4.218593946168856E-004
 -2.702205990014307E-005
  2.637405242868103E-004
  4.725707230055507E-004
  6.316379597218035E-004
  7.721225865645390E-004
  9.233117663909540E-004
  1.112517080639698E-003
  1.364386124655512E-003
  1.694132123445698E-003
  2.119430549729223E-003
  2.612846891276129E-003
 -2.177644312243643E-003
 -1.500331460646600E-003
 -7.220260568413525E-004
 -1.251107485208533E-004
  2.789133456399743E-004
  5.314847354010042E-004
  6.760305780360784E-004
  7.619863967277433E-004
  8.317806570971170E-004
  9.228012737714337E-004
  1.071551674292476E-003
  1.314786534350444E-003
  1.682682194579280E-003
  2.218179213948891E-003
  2.897315094463265E-003
 -2.088094322151114E-003
 -1.069005607187098E-003
 -1.805659493405727E-005
  6.450553204362461E-004
  1.010331565364216E-003
  1.166622004935554E-003
  1.194529063554877E-003
  1.163509745491513E-003
  1.123285755616888E-003
  1.115242503020017E-003
  1.182903870902008E-003
  1.377124978666642E-003
  1.744479501527670E-003
  2.360171660513538E-003
  3.213822780409963E-003
 -1.803289178985967E-003
 -6.573174156388268E-004
  5.445287441289554E-004
  1.247114227393148E-003
  1.474937716474794E-003
  1.449729868979273E-003
  1.297825122286309E-003
  1.103711182971316E-003
  9.140898626998642E-004
  7.641911843872486E-004
  6.984123050867092E-004
  7.870872571012679E-004
  1.118815165470926E-003
  1.838240325993613E-003
  2.989865373561423E-003
 -2.931279324834970E-003
 -4.933985073323704E-004
  1.686727593682321E-003
  2.303740254135804E-003
  2.198053870999028E-003
  1.865001972527066E-003
  1.466143609105947E-003
  1.072185105861469E-003
  7.043604002435669E-004
  3.737423187166008E-004
  1.054653133147552E-004
 -2.932391484687811E-005
  1.154435004807307E-004
  9.148969437565932E-004
  2.714501711939239E-003
  9.041392628835822E-004
  6.190617538184081E-003
  8.081285186328346E-003
  7.396900449875864E-003
  6.446640054405491E-003
  5.605107446472147E-003
  4.872247294812802E-003
  4.236049679693073E-003
  3.657254878520535E-003
  3.098840874054000E-003
  2.532624090684622E-003
  1.959719425252730E-003
  1.411845051285234E-003
  1.401015107447289E-003
  2.541310152162132E-003
  7.393031999837603E-003
  8.434741248503075E-003
  4.893721030976692E-003
  2.398661291540623E-003
  5.628958410794979E-004
 -7.033704861283567E-004
 -1.666009170098685E-003
 -2.457131392475408E-003
 -3.165283091040637E-003
 -3.872730140785885E-003
 -4.660110944563998E-003
 -5.630153312956581E-003
 -6.943821834137201E-003
 -8.672943638569410E-003
 -9.792032844415875E-003
 -1.921873374116344E-002
 -3.074902351103519E-002
 -3.421210588825808E-002
 -3.593949655170124E-002
 -3.701070848656420E-002
 -3.771066488769032E-002
 -3.822430375268712E-002
 -3.864090764580379E-002
 -3.901429563132804E-002
 -3.939334210630036E-002
 -3.983055294248763E-002
 -4.040587131832558E-002
 -4.127504002823477E-002
 -4.276745941666549E-002
 -4.579220455297721E-002
SCALARS elementIsPlast double 
LOOKUP_TABLE default
  0.000000000000000E+000
  0.000000000000000E+000
  0.000000000000000E+000
  0.000000000000000E+000
  0.000000000000000E+000
  0.000000000000000E+000
  0.000000000000000E+000
  0.000000000000000E+000
  0.000000000000000E+000
  0.000000000000000E+000
  0.000000000000000E+000
  0.000000000000000E+000
  0.000000000000000E+000
  0.000000000000000E+000
  0.000000000000000E+000
  0.000000000000000E+000
  0.000000000000000E+000
  0.000000000000000E+000
  0.000000000000000E+000
  0.000000000000000E+000
  0.000000000000000E+000
  0.000000000000000E+000
  0.000000000000000E+000
  0.000000000000000E+000
  0.000000000000000E+000
  0.000000000000000E+000
  0.000000000000000E+000
  0.000000000000000E+000
  0.000000000000000E+000
  0.000000000000000E+000
  0.000000000000000E+000
  0.000000000000000E+000
  0.000000000000000E+000
  0.000000000000000E+000
  0.000000000000000E+000
  0.000000000000000E+000
  0.000000000000000E+000
  0.000000000000000E+000
  0.000000000000000E+000
  0.000000000000000E+000
  0.000000000000000E+000
  0.000000000000000E+000
  0.000000000000000E+000
  0.000000000000000E+000
  0.000000000000000E+000
  0.000000000000000E+000
  0.000000000000000E+000
  0.000000000000000E+000
  0.000000000000000E+000
  0.000000000000000E+000
  0.000000000000000E+000
  0.000000000000000E+000
  0.000000000000000E+000
  0.000000000000000E+000
  0.000000000000000E+000
  0.000000000000000E+000
  0.000000000000000E+000
  0.000000000000000E+000
  0.000000000000000E+000
  0.000000000000000E+000
  0.000000000000000E+000
  0.000000000000000E+000
  0.000000000000000E+000
  0.000000000000000E+000
  0.000000000000000E+000
  0.000000000000000E+000
  0.000000000000000E+000
  0.000000000000000E+000
  0.000000000000000E+000
  0.000000000000000E+000
  0.000000000000000E+000
  0.000000000000000E+000
  0.000000000000000E+000
  0.000000000000000E+000
  0.000000000000000E+000
  0.000000000000000E+000
  0.000000000000000E+000
  0.000000000000000E+000
  0.000000000000000E+000
  0.000000000000000E+000
  0.000000000000000E+000
  0.000000000000000E+000
  0.000000000000000E+000
  0.000000000000000E+000
  0.000000000000000E+000
  0.000000000000000E+000
  0.000000000000000E+000
  0.000000000000000E+000
  0.000000000000000E+000
  0.000000000000000E+000
  0.000000000000000E+000
  0.000000000000000E+000
  0.000000000000000E+000
  0.000000000000000E+000
  0.000000000000000E+000
  0.000000000000000E+000
  0.000000000000000E+000
  0.000000000000000E+000
  0.000000000000000E+000
  0.000000000000000E+000
  0.000000000000000E+000
  0.000000000000000E+000
  0.000000000000000E+000
  0.000000000000000E+000
  0.000000000000000E+000
  0.000000000000000E+000
  0.000000000000000E+000
  0.000000000000000E+000
  0.000000000000000E+000
  0.000000000000000E+000
  0.000000000000000E+000
  0.000000000000000E+000
  0.000000000000000E+000
  0.000000000000000E+000
  0.000000000000000E+000
  0.000000000000000E+000
  0.000000000000000E+000
  0.000000000000000E+000
  0.000000000000000E+000
  0.000000000000000E+000
  0.000000000000000E+000
  0.000000000000000E+000
  0.000000000000000E+000
  0.000000000000000E+000
  0.000000000000000E+000
  0.000000000000000E+000
  0.000000000000000E+000
  0.000000000000000E+000
  0.000000000000000E+000
  0.000000000000000E+000
  0.000000000000000E+000
  0.000000000000000E+000
  0.000000000000000E+000
  0.000000000000000E+000
  0.000000000000000E+000
  0.000000000000000E+000
  0.000000000000000E+000
  0.000000000000000E+000
  0.000000000000000E+000
  0.000000000000000E+000
  0.000000000000000E+000
  0.000000000000000E+000
  0.000000000000000E+000
  0.000000000000000E+000
  0.000000000000000E+000
  0.000000000000000E+000
  0.000000000000000E+000
  0.000000000000000E+000
  0.000000000000000E+000
  0.000000000000000E+000
  0.000000000000000E+000
  0.000000000000000E+000
  0.000000000000000E+000
  0.000000000000000E+000
  0.000000000000000E+000
  0.000000000000000E+000
  0.000000000000000E+000
  0.000000000000000E+000
  0.000000000000000E+000
  0.000000000000000E+000
  0.000000000000000E+000
  0.000000000000000E+000
  0.000000000000000E+000
  0.000000000000000E+000
  0.000000000000000E+000
  0.000000000000000E+000
  0.000000000000000E+000
  0.000000000000000E+000
  0.000000000000000E+000
  0.000000000000000E+000
  0.000000000000000E+000
  0.000000000000000E+000
  0.000000000000000E+000
  0.000000000000000E+000
  0.000000000000000E+000
  0.000000000000000E+000
  0.000000000000000E+000
  0.000000000000000E+000
  0.000000000000000E+000
  0.000000000000000E+000
  0.000000000000000E+000
  0.000000000000000E+000
  0.000000000000000E+000
  0.000000000000000E+000
  0.000000000000000E+000
  0.000000000000000E+000
  0.000000000000000E+000
  0.000000000000000E+000
  0.000000000000000E+000
  0.000000000000000E+000
  0.000000000000000E+000
  0.000000000000000E+000
  0.000000000000000E+000
  0.000000000000000E+000
  0.000000000000000E+000
  0.000000000000000E+000
  0.000000000000000E+000
  0.000000000000000E+000
  0.000000000000000E+000
  0.000000000000000E+000
  0.000000000000000E+000
  0.000000000000000E+000
  0.000000000000000E+000
  0.000000000000000E+000
  0.000000000000000E+000
  0.000000000000000E+000
  0.000000000000000E+000
  0.000000000000000E+000
  0.000000000000000E+000
  0.000000000000000E+000
  0.000000000000000E+000
  0.000000000000000E+000
  0.000000000000000E+000
  0.000000000000000E+000
  0.000000000000000E+000
  0.000000000000000E+000
  0.000000000000000E+000
  0.000000000000000E+000
  0.000000000000000E+000
  0.000000000000000E+000
  0.000000000000000E+000
  0.000000000000000E+000
  0.000000000000000E+000
  0.000000000000000E+000
  0.000000000000000E+000
  0.000000000000000E+000
  0.000000000000000E+000
  0.000000000000000E+000
  0.000000000000000E+000
  0.000000000000000E+000
  0.000000000000000E+000
  0.000000000000000E+000
  0.000000000000000E+000
  0.000000000000000E+000
  0.000000000000000E+000
  0.000000000000000E+000
  0.000000000000000E+000
  0.000000000000000E+000
  0.000000000000000E+000
  0.000000000000000E+000
  0.000000000000000E+000
  0.000000000000000E+000
  0.000000000000000E+000
  0.000000000000000E+000
  0.000000000000000E+000
  0.000000000000000E+000
  0.000000000000000E+000
  0.000000000000000E+000
  0.000000000000000E+000
  0.000000000000000E+000
  0.000000000000000E+000
  0.000000000000000E+000
  0.000000000000000E+000
  0.000000000000000E+000
  0.000000000000000E+000
  0.000000000000000E+000
  0.000000000000000E+000
  0.000000000000000E+000
  0.000000000000000E+000
  0.000000000000000E+000
  0.000000000000000E+000
  0.000000000000000E+000
  0.000000000000000E+000
  0.000000000000000E+000
  0.000000000000000E+000
  0.000000000000000E+000
  0.000000000000000E+000
  0.000000000000000E+000
  0.000000000000000E+000
  0.000000000000000E+000
  0.000000000000000E+000
  0.000000000000000E+000
  0.000000000000000E+000
  0.000000000000000E+000
  0.000000000000000E+000
  0.000000000000000E+000
  0.000000000000000E+000
  0.000000000000000E+000
  0.000000000000000E+000
  0.000000000000000E+000
  0.000000000000000E+000
  0.000000000000000E+000
  0.000000000000000E+000
  0.000000000000000E+000
  0.000000000000000E+000
  0.000000000000000E+000
  0.000000000000000E+000
  0.000000000000000E+000
  0.000000000000000E+000
  0.000000000000000E+000
  0.000000000000000E+000
  0.000000000000000E+000
  0.000000000000000E+000
  0.000000000000000E+000
  0.000000000000000E+000
  0.000000000000000E+000
  0.000000000000000E+000
  0.000000000000000E+000
  0.000000000000000E+000
  0.000000000000000E+000
  0.000000000000000E+000
  0.000000000000000E+000
  0.000000000000000E+000
  0.000000000000000E+000
  0.000000000000000E+000
  0.000000000000000E+000
  0.000000000000000E+000
  0.000000000000000E+000
  0.000000000000000E+000
  0.000000000000000E+000
  0.000000000000000E+000
  0.000000000000000E+000
  0.000000000000000E+000
  0.000000000000000E+000
  0.000000000000000E+000
  0.000000000000000E+000
  0.000000000000000E+000
  0.000000000000000E+000
  0.000000000000000E+000
  0.000000000000000E+000
  0.000000000000000E+000
  0.000000000000000E+000
  0.000000000000000E+000
  0.000000000000000E+000
  0.000000000000000E+000
  0.000000000000000E+000
  0.000000000000000E+000
  0.000000000000000E+000
  0.000000000000000E+000
  0.000000000000000E+000
  0.000000000000000E+000
  0.000000000000000E+000
  0.000000000000000E+000
  0.000000000000000E+000
  0.000000000000000E+000
  0.000000000000000E+000
  0.000000000000000E+000
  0.000000000000000E+000
  0.000000000000000E+000
  0.000000000000000E+000
  0.000000000000000E+000
  0.000000000000000E+000
  0.000000000000000E+000
  0.000000000000000E+000
  0.000000000000000E+000
  0.000000000000000E+000
  0.000000000000000E+000
  0.000000000000000E+000
  0.000000000000000E+000
  0.000000000000000E+000
  0.000000000000000E+000
  0.000000000000000E+000
  0.000000000000000E+000
  0.000000000000000E+000
  0.000000000000000E+000
  0.000000000000000E+000
  0.000000000000000E+000
  0.000000000000000E+000
  0.000000000000000E+000
  0.000000000000000E+000
  0.000000000000000E+000
  0.000000000000000E+000
  0.000000000000000E+000
  0.000000000000000E+000
  0.000000000000000E+000
  0.000000000000000E+000
  0.000000000000000E+000
  0.000000000000000E+000
  0.000000000000000E+000
  0.000000000000000E+000
  0.000000000000000E+000
  0.000000000000000E+000
  0.000000000000000E+000
  0.000000000000000E+000
  0.000000000000000E+000
  0.000000000000000E+000
  0.000000000000000E+000
  0.000000000000000E+000
  0.000000000000000E+000
  0.000000000000000E+000
  0.000000000000000E+000
  0.000000000000000E+000
  0.000000000000000E+000
  0.000000000000000E+000
  0.000000000000000E+000
  0.000000000000000E+000
  0.000000000000000E+000
  0.000000000000000E+000
  0.000000000000000E+000
  0.000000000000000E+000
  0.000000000000000E+000
  0.000000000000000E+000
  0.000000000000000E+000
  0.000000000000000E+000
  0.000000000000000E+000
  0.000000000000000E+000
  0.000000000000000E+000
  0.000000000000000E+000
  0.000000000000000E+000
  0.000000000000000E+000
  0.000000000000000E+000
  0.000000000000000E+000
  0.000000000000000E+000
  0.000000000000000E+000
  0.000000000000000E+000
  0.000000000000000E+000
  0.000000000000000E+000
  0.000000000000000E+000
  0.000000000000000E+000
  0.000000000000000E+000
  0.000000000000000E+000
  0.000000000000000E+000
  0.000000000000000E+000
  0.000000000000000E+000
  0.000000000000000E+000
  0.000000000000000E+000
  0.000000000000000E+000
  0.000000000000000E+000
  0.000000000000000E+000
  0.000000000000000E+000
  0.000000000000000E+000
  0.000000000000000E+000
  0.000000000000000E+000
  0.000000000000000E+000
  0.000000000000000E+000
  0.000000000000000E+000
  0.000000000000000E+000
  0.000000000000000E+000
  0.000000000000000E+000
  0.000000000000000E+000
  0.000000000000000E+000
  0.000000000000000E+000
  0.000000000000000E+000
  0.000000000000000E+000
  0.000000000000000E+000
  0.000000000000000E+000
  0.000000000000000E+000
  0.000000000000000E+000
  0.000000000000000E+000
  0.000000000000000E+000
  0.000000000000000E+000
  0.000000000000000E+000
  0.000000000000000E+000
  0.000000000000000E+000
  0.000000000000000E+000
  0.000000000000000E+000
  0.000000000000000E+000
  0.000000000000000E+000
  0.000000000000000E+000
  0.000000000000000E+000
