# vtk DataFile Version 3.0
vtk output
ASCII
DATASET UNSTRUCTURED_GRID
POINTS       496 double 
  0.00000000E+00  3.00000000E+02  0.00000000E+00
  0.00000000E+00  2.80000000E+02  0.00000000E+00
  0.00000000E+00  2.60000000E+02  0.00000000E+00
  0.00000000E+00  2.40000000E+02  0.00000000E+00
  0.00000000E+00  2.20000000E+02  0.00000000E+00
  0.00000000E+00  2.00000000E+02  0.00000000E+00
  0.00000000E+00  1.80000000E+02  0.00000000E+00
  0.00000000E+00  1.60000000E+02  0.00000000E+00
  0.00000000E+00  1.40000000E+02  0.00000000E+00
  0.00000000E+00  1.20000000E+02  0.00000000E+00
  0.00000000E+00  1.00000000E+02  0.00000000E+00
  0.00000000E+00  8.00000000E+01  0.00000000E+00
  0.00000000E+00  6.00000000E+01  0.00000000E+00
  0.00000000E+00  4.00000000E+01  0.00000000E+00
  0.00000000E+00  2.00000000E+01  0.00000000E+00
  0.00000000E+00  4.99600361E-14  0.00000000E+00
  2.00000000E+01  3.00000000E+02  0.00000000E+00
  2.00000000E+01  2.80000000E+02  0.00000000E+00
  2.00000000E+01  2.60000000E+02  0.00000000E+00
  2.00000000E+01  2.40000000E+02  0.00000000E+00
  2.00000000E+01  2.20000000E+02  0.00000000E+00
  2.00000000E+01  2.00000000E+02  0.00000000E+00
  2.00000000E+01  1.80000000E+02  0.00000000E+00
  2.00000000E+01  1.60000000E+02  0.00000000E+00
  2.00000000E+01  1.40000000E+02  0.00000000E+00
  2.00000000E+01  1.20000000E+02  0.00000000E+00
  2.00000000E+01  1.00000000E+02  0.00000000E+00
  2.00000000E+01  8.00000000E+01  0.00000000E+00
  2.00000000E+01  6.00000000E+01  0.00000000E+00
  2.00000000E+01  4.00000000E+01  0.00000000E+00
  2.00000000E+01  2.00000000E+01  0.00000000E+00
  2.00000000E+01  4.99600361E-14  0.00000000E+00
  4.00000000E+01  3.00000000E+02  0.00000000E+00
  4.00000000E+01  2.80000000E+02  0.00000000E+00
  4.00000000E+01  2.60000000E+02  0.00000000E+00
  4.00000000E+01  2.40000000E+02  0.00000000E+00
  4.00000000E+01  2.20000000E+02  0.00000000E+00
  4.00000000E+01  2.00000000E+02  0.00000000E+00
  4.00000000E+01  1.80000000E+02  0.00000000E+00
  4.00000000E+01  1.60000000E+02  0.00000000E+00
  4.00000000E+01  1.40000000E+02  0.00000000E+00
  4.00000000E+01  1.20000000E+02  0.00000000E+00
  4.00000000E+01  1.00000000E+02  0.00000000E+00
  4.00000000E+01  8.00000000E+01  0.00000000E+00
  4.00000000E+01  6.00000000E+01  0.00000000E+00
  4.00000000E+01  4.00000000E+01  0.00000000E+00
  4.00000000E+01  2.00000000E+01  0.00000000E+00
  4.00000000E+01  4.99600361E-14  0.00000000E+00
  6.00000000E+01  3.00000000E+02  0.00000000E+00
  6.00000000E+01  2.80000000E+02  0.00000000E+00
  6.00000000E+01  2.60000000E+02  0.00000000E+00
  6.00000000E+01  2.40000000E+02  0.00000000E+00
  6.00000000E+01  2.20000000E+02  0.00000000E+00
  6.00000000E+01  2.00000000E+02  0.00000000E+00
  6.00000000E+01  1.80000000E+02  0.00000000E+00
  6.00000000E+01  1.60000000E+02  0.00000000E+00
  6.00000000E+01  1.40000000E+02  0.00000000E+00
  6.00000000E+01  1.20000000E+02  0.00000000E+00
  6.00000000E+01  1.00000000E+02  0.00000000E+00
  6.00000000E+01  8.00000000E+01  0.00000000E+00
  6.00000000E+01  6.00000000E+01  0.00000000E+00
  6.00000000E+01  4.00000000E+01  0.00000000E+00
  6.00000000E+01  2.00000000E+01  0.00000000E+00
  6.00000000E+01  4.99600361E-14  0.00000000E+00
  8.00000000E+01  3.00000000E+02  0.00000000E+00
  8.00000000E+01  2.80000000E+02  0.00000000E+00
  8.00000000E+01  2.60000000E+02  0.00000000E+00
  8.00000000E+01  2.40000000E+02  0.00000000E+00
  8.00000000E+01  2.20000000E+02  0.00000000E+00
  8.00000000E+01  2.00000000E+02  0.00000000E+00
  8.00000000E+01  1.80000000E+02  0.00000000E+00
  8.00000000E+01  1.60000000E+02  0.00000000E+00
  8.00000000E+01  1.40000000E+02  0.00000000E+00
  8.00000000E+01  1.20000000E+02  0.00000000E+00
  8.00000000E+01  1.00000000E+02  0.00000000E+00
  8.00000000E+01  8.00000000E+01  0.00000000E+00
  8.00000000E+01  6.00000000E+01  0.00000000E+00
  8.00000000E+01  4.00000000E+01  0.00000000E+00
  8.00000000E+01  2.00000000E+01  0.00000000E+00
  8.00000000E+01  4.99600361E-14  0.00000000E+00
  1.00000000E+02  3.00000000E+02  0.00000000E+00
  1.00000000E+02  2.80000000E+02  0.00000000E+00
  1.00000000E+02  2.60000000E+02  0.00000000E+00
  1.00000000E+02  2.40000000E+02  0.00000000E+00
  1.00000000E+02  2.20000000E+02  0.00000000E+00
  1.00000000E+02  2.00000000E+02  0.00000000E+00
  1.00000000E+02  1.80000000E+02  0.00000000E+00
  1.00000000E+02  1.60000000E+02  0.00000000E+00
  1.00000000E+02  1.40000000E+02  0.00000000E+00
  1.00000000E+02  1.20000000E+02  0.00000000E+00
  1.00000000E+02  1.00000000E+02  0.00000000E+00
  1.00000000E+02  8.00000000E+01  0.00000000E+00
  1.00000000E+02  6.00000000E+01  0.00000000E+00
  1.00000000E+02  4.00000000E+01  0.00000000E+00
  1.00000000E+02  2.00000000E+01  0.00000000E+00
  1.00000000E+02  4.99600361E-14  0.00000000E+00
  1.20000000E+02  3.00000000E+02  0.00000000E+00
  1.20000000E+02  2.80000000E+02  0.00000000E+00
  1.20000000E+02  2.60000000E+02  0.00000000E+00
  1.20000000E+02  2.40000000E+02  0.00000000E+00
  1.20000000E+02  2.20000000E+02  0.00000000E+00
  1.20000000E+02  2.00000000E+02  0.00000000E+00
  1.20000000E+02  1.80000000E+02  0.00000000E+00
  1.20000000E+02  1.60000000E+02  0.00000000E+00
  1.20000000E+02  1.40000000E+02  0.00000000E+00
  1.20000000E+02  1.20000000E+02  0.00000000E+00
  1.20000000E+02  1.00000000E+02  0.00000000E+00
  1.20000000E+02  8.00000000E+01  0.00000000E+00
  1.20000000E+02  6.00000000E+01  0.00000000E+00
  1.20000000E+02  4.00000000E+01  0.00000000E+00
  1.20000000E+02  2.00000000E+01  0.00000000E+00
  1.20000000E+02  4.99600361E-14  0.00000000E+00
  1.40000000E+02  3.00000000E+02  0.00000000E+00
  1.40000000E+02  2.80000000E+02  0.00000000E+00
  1.40000000E+02  2.60000000E+02  0.00000000E+00
  1.40000000E+02  2.40000000E+02  0.00000000E+00
  1.40000000E+02  2.20000000E+02  0.00000000E+00
  1.40000000E+02  2.00000000E+02  0.00000000E+00
  1.40000000E+02  1.80000000E+02  0.00000000E+00
  1.40000000E+02  1.60000000E+02  0.00000000E+00
  1.40000000E+02  1.40000000E+02  0.00000000E+00
  1.40000000E+02  1.20000000E+02  0.00000000E+00
  1.40000000E+02  1.00000000E+02  0.00000000E+00
  1.40000000E+02  8.00000000E+01  0.00000000E+00
  1.40000000E+02  6.00000000E+01  0.00000000E+00
  1.40000000E+02  4.00000000E+01  0.00000000E+00
  1.40000000E+02  2.00000000E+01  0.00000000E+00
  1.40000000E+02  4.99600361E-14  0.00000000E+00
  1.60000000E+02  3.00000000E+02  0.00000000E+00
  1.60000000E+02  2.80000000E+02  0.00000000E+00
  1.60000000E+02  2.60000000E+02  0.00000000E+00
  1.60000000E+02  2.40000000E+02  0.00000000E+00
  1.60000000E+02  2.20000000E+02  0.00000000E+00
  1.60000000E+02  2.00000000E+02  0.00000000E+00
  1.60000000E+02  1.80000000E+02  0.00000000E+00
  1.60000000E+02  1.60000000E+02  0.00000000E+00
  1.60000000E+02  1.40000000E+02  0.00000000E+00
  1.60000000E+02  1.20000000E+02  0.00000000E+00
  1.60000000E+02  1.00000000E+02  0.00000000E+00
  1.60000000E+02  8.00000000E+01  0.00000000E+00
  1.60000000E+02  6.00000000E+01  0.00000000E+00
  1.60000000E+02  4.00000000E+01  0.00000000E+00
  1.60000000E+02  2.00000000E+01  0.00000000E+00
  1.60000000E+02  4.99600361E-14  0.00000000E+00
  1.80000000E+02  3.00000000E+02  0.00000000E+00
  1.80000000E+02  2.80000000E+02  0.00000000E+00
  1.80000000E+02  2.60000000E+02  0.00000000E+00
  1.80000000E+02  2.40000000E+02  0.00000000E+00
  1.80000000E+02  2.20000000E+02  0.00000000E+00
  1.80000000E+02  2.00000000E+02  0.00000000E+00
  1.80000000E+02  1.80000000E+02  0.00000000E+00
  1.80000000E+02  1.60000000E+02  0.00000000E+00
  1.80000000E+02  1.40000000E+02  0.00000000E+00
  1.80000000E+02  1.20000000E+02  0.00000000E+00
  1.80000000E+02  1.00000000E+02  0.00000000E+00
  1.80000000E+02  8.00000000E+01  0.00000000E+00
  1.80000000E+02  6.00000000E+01  0.00000000E+00
  1.80000000E+02  4.00000000E+01  0.00000000E+00
  1.80000000E+02  2.00000000E+01  0.00000000E+00
  1.80000000E+02  4.99600361E-14  0.00000000E+00
  2.00000000E+02  3.00000000E+02  0.00000000E+00
  2.00000000E+02  2.80000000E+02  0.00000000E+00
  2.00000000E+02  2.60000000E+02  0.00000000E+00
  2.00000000E+02  2.40000000E+02  0.00000000E+00
  2.00000000E+02  2.20000000E+02  0.00000000E+00
  2.00000000E+02  2.00000000E+02  0.00000000E+00
  2.00000000E+02  1.80000000E+02  0.00000000E+00
  2.00000000E+02  1.60000000E+02  0.00000000E+00
  2.00000000E+02  1.40000000E+02  0.00000000E+00
  2.00000000E+02  1.20000000E+02  0.00000000E+00
  2.00000000E+02  1.00000000E+02  0.00000000E+00
  2.00000000E+02  8.00000000E+01  0.00000000E+00
  2.00000000E+02  6.00000000E+01  0.00000000E+00
  2.00000000E+02  4.00000000E+01  0.00000000E+00
  2.00000000E+02  2.00000000E+01  0.00000000E+00
  2.00000000E+02  4.99600361E-14  0.00000000E+00
  2.20000000E+02  3.00000000E+02  0.00000000E+00
  2.20000000E+02  2.80000000E+02  0.00000000E+00
  2.20000000E+02  2.60000000E+02  0.00000000E+00
  2.20000000E+02  2.40000000E+02  0.00000000E+00
  2.20000000E+02  2.20000000E+02  0.00000000E+00
  2.20000000E+02  2.00000000E+02  0.00000000E+00
  2.20000000E+02  1.80000000E+02  0.00000000E+00
  2.20000000E+02  1.60000000E+02  0.00000000E+00
  2.20000000E+02  1.40000000E+02  0.00000000E+00
  2.20000000E+02  1.20000000E+02  0.00000000E+00
  2.20000000E+02  1.00000000E+02  0.00000000E+00
  2.20000000E+02  8.00000000E+01  0.00000000E+00
  2.20000000E+02  6.00000000E+01  0.00000000E+00
  2.20000000E+02  4.00000000E+01  0.00000000E+00
  2.20000000E+02  2.00000000E+01  0.00000000E+00
  2.20000000E+02  4.99600361E-14  0.00000000E+00
  2.40000000E+02  3.00000000E+02  0.00000000E+00
  2.40000000E+02  2.80000000E+02  0.00000000E+00
  2.40000000E+02  2.60000000E+02  0.00000000E+00
  2.40000000E+02  2.40000000E+02  0.00000000E+00
  2.40000000E+02  2.20000000E+02  0.00000000E+00
  2.40000000E+02  2.00000000E+02  0.00000000E+00
  2.40000000E+02  1.80000000E+02  0.00000000E+00
  2.40000000E+02  1.60000000E+02  0.00000000E+00
  2.40000000E+02  1.40000000E+02  0.00000000E+00
  2.40000000E+02  1.20000000E+02  0.00000000E+00
  2.40000000E+02  1.00000000E+02  0.00000000E+00
  2.40000000E+02  8.00000000E+01  0.00000000E+00
  2.40000000E+02  6.00000000E+01  0.00000000E+00
  2.40000000E+02  4.00000000E+01  0.00000000E+00
  2.40000000E+02  2.00000000E+01  0.00000000E+00
  2.40000000E+02  4.99600361E-14  0.00000000E+00
  2.60000000E+02  3.00000000E+02  0.00000000E+00
  2.60000000E+02  2.80000000E+02  0.00000000E+00
  2.60000000E+02  2.60000000E+02  0.00000000E+00
  2.60000000E+02  2.40000000E+02  0.00000000E+00
  2.60000000E+02  2.20000000E+02  0.00000000E+00
  2.60000000E+02  2.00000000E+02  0.00000000E+00
  2.60000000E+02  1.80000000E+02  0.00000000E+00
  2.60000000E+02  1.60000000E+02  0.00000000E+00
  2.60000000E+02  1.40000000E+02  0.00000000E+00
  2.60000000E+02  1.20000000E+02  0.00000000E+00
  2.60000000E+02  1.00000000E+02  0.00000000E+00
  2.60000000E+02  8.00000000E+01  0.00000000E+00
  2.60000000E+02  6.00000000E+01  0.00000000E+00
  2.60000000E+02  4.00000000E+01  0.00000000E+00
  2.60000000E+02  2.00000000E+01  0.00000000E+00
  2.60000000E+02  4.99600361E-14  0.00000000E+00
  2.80000000E+02  3.00000000E+02  0.00000000E+00
  2.80000000E+02  2.80000000E+02  0.00000000E+00
  2.80000000E+02  2.60000000E+02  0.00000000E+00
  2.80000000E+02  2.40000000E+02  0.00000000E+00
  2.80000000E+02  2.20000000E+02  0.00000000E+00
  2.80000000E+02  2.00000000E+02  0.00000000E+00
  2.80000000E+02  1.80000000E+02  0.00000000E+00
  2.80000000E+02  1.60000000E+02  0.00000000E+00
  2.80000000E+02  1.40000000E+02  0.00000000E+00
  2.80000000E+02  1.20000000E+02  0.00000000E+00
  2.80000000E+02  1.00000000E+02  0.00000000E+00
  2.80000000E+02  8.00000000E+01  0.00000000E+00
  2.80000000E+02  6.00000000E+01  0.00000000E+00
  2.80000000E+02  4.00000000E+01  0.00000000E+00
  2.80000000E+02  2.00000000E+01  0.00000000E+00
  2.80000000E+02  4.99600361E-14  0.00000000E+00
  3.00000000E+02  3.00000000E+02  0.00000000E+00
  3.00000000E+02  2.80000000E+02  0.00000000E+00
  3.00000000E+02  2.60000000E+02  0.00000000E+00
  3.00000000E+02  2.40000000E+02  0.00000000E+00
  3.00000000E+02  2.20000000E+02  0.00000000E+00
  3.00000000E+02  2.00000000E+02  0.00000000E+00
  3.00000000E+02  1.80000000E+02  0.00000000E+00
  3.00000000E+02  1.60000000E+02  0.00000000E+00
  3.00000000E+02  1.40000000E+02  0.00000000E+00
  3.00000000E+02  1.20000000E+02  0.00000000E+00
  3.00000000E+02  1.00000000E+02  0.00000000E+00
  3.00000000E+02  8.00000000E+01  0.00000000E+00
  3.00000000E+02  6.00000000E+01  0.00000000E+00
  3.00000000E+02  4.00000000E+01  0.00000000E+00
  3.00000000E+02  2.00000000E+01  0.00000000E+00
  3.00000000E+02  4.99600361E-14  0.00000000E+00
  3.20000000E+02  3.00000000E+02  0.00000000E+00
  3.20000000E+02  2.80000000E+02  0.00000000E+00
  3.20000000E+02  2.60000000E+02  0.00000000E+00
  3.20000000E+02  2.40000000E+02  0.00000000E+00
  3.20000000E+02  2.20000000E+02  0.00000000E+00
  3.20000000E+02  2.00000000E+02  0.00000000E+00
  3.20000000E+02  1.80000000E+02  0.00000000E+00
  3.20000000E+02  1.60000000E+02  0.00000000E+00
  3.20000000E+02  1.40000000E+02  0.00000000E+00
  3.20000000E+02  1.20000000E+02  0.00000000E+00
  3.20000000E+02  1.00000000E+02  0.00000000E+00
  3.20000000E+02  8.00000000E+01  0.00000000E+00
  3.20000000E+02  6.00000000E+01  0.00000000E+00
  3.20000000E+02  4.00000000E+01  0.00000000E+00
  3.20000000E+02  2.00000000E+01  0.00000000E+00
  3.20000000E+02  4.99600361E-14  0.00000000E+00
  3.40000000E+02  3.00000000E+02  0.00000000E+00
  3.40000000E+02  2.80000000E+02  0.00000000E+00
  3.40000000E+02  2.60000000E+02  0.00000000E+00
  3.40000000E+02  2.40000000E+02  0.00000000E+00
  3.40000000E+02  2.20000000E+02  0.00000000E+00
  3.40000000E+02  2.00000000E+02  0.00000000E+00
  3.40000000E+02  1.80000000E+02  0.00000000E+00
  3.40000000E+02  1.60000000E+02  0.00000000E+00
  3.40000000E+02  1.40000000E+02  0.00000000E+00
  3.40000000E+02  1.20000000E+02  0.00000000E+00
  3.40000000E+02  1.00000000E+02  0.00000000E+00
  3.40000000E+02  8.00000000E+01  0.00000000E+00
  3.40000000E+02  6.00000000E+01  0.00000000E+00
  3.40000000E+02  4.00000000E+01  0.00000000E+00
  3.40000000E+02  2.00000000E+01  0.00000000E+00
  3.40000000E+02  4.99600361E-14  0.00000000E+00
  3.60000000E+02  3.00000000E+02  0.00000000E+00
  3.60000000E+02  2.80000000E+02  0.00000000E+00
  3.60000000E+02  2.60000000E+02  0.00000000E+00
  3.60000000E+02  2.40000000E+02  0.00000000E+00
  3.60000000E+02  2.20000000E+02  0.00000000E+00
  3.60000000E+02  2.00000000E+02  0.00000000E+00
  3.60000000E+02  1.80000000E+02  0.00000000E+00
  3.60000000E+02  1.60000000E+02  0.00000000E+00
  3.60000000E+02  1.40000000E+02  0.00000000E+00
  3.60000000E+02  1.20000000E+02  0.00000000E+00
  3.60000000E+02  1.00000000E+02  0.00000000E+00
  3.60000000E+02  8.00000000E+01  0.00000000E+00
  3.60000000E+02  6.00000000E+01  0.00000000E+00
  3.60000000E+02  4.00000000E+01  0.00000000E+00
  3.60000000E+02  2.00000000E+01  0.00000000E+00
  3.60000000E+02  4.99600361E-14  0.00000000E+00
  3.80000000E+02  3.00000000E+02  0.00000000E+00
  3.80000000E+02  2.80000000E+02  0.00000000E+00
  3.80000000E+02  2.60000000E+02  0.00000000E+00
  3.80000000E+02  2.40000000E+02  0.00000000E+00
  3.80000000E+02  2.20000000E+02  0.00000000E+00
  3.80000000E+02  2.00000000E+02  0.00000000E+00
  3.80000000E+02  1.80000000E+02  0.00000000E+00
  3.80000000E+02  1.60000000E+02  0.00000000E+00
  3.80000000E+02  1.40000000E+02  0.00000000E+00
  3.80000000E+02  1.20000000E+02  0.00000000E+00
  3.80000000E+02  1.00000000E+02  0.00000000E+00
  3.80000000E+02  8.00000000E+01  0.00000000E+00
  3.80000000E+02  6.00000000E+01  0.00000000E+00
  3.80000000E+02  4.00000000E+01  0.00000000E+00
  3.80000000E+02  2.00000000E+01  0.00000000E+00
  3.80000000E+02  4.99600361E-14  0.00000000E+00
  4.00000000E+02  3.00000000E+02  0.00000000E+00
  4.00000000E+02  2.80000000E+02  0.00000000E+00
  4.00000000E+02  2.60000000E+02  0.00000000E+00
  4.00000000E+02  2.40000000E+02  0.00000000E+00
  4.00000000E+02  2.20000000E+02  0.00000000E+00
  4.00000000E+02  2.00000000E+02  0.00000000E+00
  4.00000000E+02  1.80000000E+02  0.00000000E+00
  4.00000000E+02  1.60000000E+02  0.00000000E+00
  4.00000000E+02  1.40000000E+02  0.00000000E+00
  4.00000000E+02  1.20000000E+02  0.00000000E+00
  4.00000000E+02  1.00000000E+02  0.00000000E+00
  4.00000000E+02  8.00000000E+01  0.00000000E+00
  4.00000000E+02  6.00000000E+01  0.00000000E+00
  4.00000000E+02  4.00000000E+01  0.00000000E+00
  4.00000000E+02  2.00000000E+01  0.00000000E+00
  4.00000000E+02  4.99600361E-14  0.00000000E+00
  4.20000000E+02  3.00000000E+02  0.00000000E+00
  4.20000000E+02  2.80000000E+02  0.00000000E+00
  4.20000000E+02  2.60000000E+02  0.00000000E+00
  4.20000000E+02  2.40000000E+02  0.00000000E+00
  4.20000000E+02  2.20000000E+02  0.00000000E+00
  4.20000000E+02  2.00000000E+02  0.00000000E+00
  4.20000000E+02  1.80000000E+02  0.00000000E+00
  4.20000000E+02  1.60000000E+02  0.00000000E+00
  4.20000000E+02  1.40000000E+02  0.00000000E+00
  4.20000000E+02  1.20000000E+02  0.00000000E+00
  4.20000000E+02  1.00000000E+02  0.00000000E+00
  4.20000000E+02  8.00000000E+01  0.00000000E+00
  4.20000000E+02  6.00000000E+01  0.00000000E+00
  4.20000000E+02  4.00000000E+01  0.00000000E+00
  4.20000000E+02  2.00000000E+01  0.00000000E+00
  4.20000000E+02  4.99600361E-14  0.00000000E+00
  4.40000000E+02  3.00000000E+02  0.00000000E+00
  4.40000000E+02  2.80000000E+02  0.00000000E+00
  4.40000000E+02  2.60000000E+02  0.00000000E+00
  4.40000000E+02  2.40000000E+02  0.00000000E+00
  4.40000000E+02  2.20000000E+02  0.00000000E+00
  4.40000000E+02  2.00000000E+02  0.00000000E+00
  4.40000000E+02  1.80000000E+02  0.00000000E+00
  4.40000000E+02  1.60000000E+02  0.00000000E+00
  4.40000000E+02  1.40000000E+02  0.00000000E+00
  4.40000000E+02  1.20000000E+02  0.00000000E+00
  4.40000000E+02  1.00000000E+02  0.00000000E+00
  4.40000000E+02  8.00000000E+01  0.00000000E+00
  4.40000000E+02  6.00000000E+01  0.00000000E+00
  4.40000000E+02  4.00000000E+01  0.00000000E+00
  4.40000000E+02  2.00000000E+01  0.00000000E+00
  4.40000000E+02  4.99600361E-14  0.00000000E+00
  4.60000000E+02  3.00000000E+02  0.00000000E+00
  4.60000000E+02  2.80000000E+02  0.00000000E+00
  4.60000000E+02  2.60000000E+02  0.00000000E+00
  4.60000000E+02  2.40000000E+02  0.00000000E+00
  4.60000000E+02  2.20000000E+02  0.00000000E+00
  4.60000000E+02  2.00000000E+02  0.00000000E+00
  4.60000000E+02  1.80000000E+02  0.00000000E+00
  4.60000000E+02  1.60000000E+02  0.00000000E+00
  4.60000000E+02  1.40000000E+02  0.00000000E+00
  4.60000000E+02  1.20000000E+02  0.00000000E+00
  4.60000000E+02  1.00000000E+02  0.00000000E+00
  4.60000000E+02  8.00000000E+01  0.00000000E+00
  4.60000000E+02  6.00000000E+01  0.00000000E+00
  4.60000000E+02  4.00000000E+01  0.00000000E+00
  4.60000000E+02  2.00000000E+01  0.00000000E+00
  4.60000000E+02  4.99600361E-14  0.00000000E+00
  4.80000000E+02  3.00000000E+02  0.00000000E+00
  4.80000000E+02  2.80000000E+02  0.00000000E+00
  4.80000000E+02  2.60000000E+02  0.00000000E+00
  4.80000000E+02  2.40000000E+02  0.00000000E+00
  4.80000000E+02  2.20000000E+02  0.00000000E+00
  4.80000000E+02  2.00000000E+02  0.00000000E+00
  4.80000000E+02  1.80000000E+02  0.00000000E+00
  4.80000000E+02  1.60000000E+02  0.00000000E+00
  4.80000000E+02  1.40000000E+02  0.00000000E+00
  4.80000000E+02  1.20000000E+02  0.00000000E+00
  4.80000000E+02  1.00000000E+02  0.00000000E+00
  4.80000000E+02  8.00000000E+01  0.00000000E+00
  4.80000000E+02  6.00000000E+01  0.00000000E+00
  4.80000000E+02  4.00000000E+01  0.00000000E+00
  4.80000000E+02  2.00000000E+01  0.00000000E+00
  4.80000000E+02  4.99600361E-14  0.00000000E+00
  5.00000000E+02  3.00000000E+02  0.00000000E+00
  5.00000000E+02  2.80000000E+02  0.00000000E+00
  5.00000000E+02  2.60000000E+02  0.00000000E+00
  5.00000000E+02  2.40000000E+02  0.00000000E+00
  5.00000000E+02  2.20000000E+02  0.00000000E+00
  5.00000000E+02  2.00000000E+02  0.00000000E+00
  5.00000000E+02  1.80000000E+02  0.00000000E+00
  5.00000000E+02  1.60000000E+02  0.00000000E+00
  5.00000000E+02  1.40000000E+02  0.00000000E+00
  5.00000000E+02  1.20000000E+02  0.00000000E+00
  5.00000000E+02  1.00000000E+02  0.00000000E+00
  5.00000000E+02  8.00000000E+01  0.00000000E+00
  5.00000000E+02  6.00000000E+01  0.00000000E+00
  5.00000000E+02  4.00000000E+01  0.00000000E+00
  5.00000000E+02  2.00000000E+01  0.00000000E+00
  5.00000000E+02  4.99600361E-14  0.00000000E+00
  5.20000000E+02  3.00000000E+02  0.00000000E+00
  5.20000000E+02  2.80000000E+02  0.00000000E+00
  5.20000000E+02  2.60000000E+02  0.00000000E+00
  5.20000000E+02  2.40000000E+02  0.00000000E+00
  5.20000000E+02  2.20000000E+02  0.00000000E+00
  5.20000000E+02  2.00000000E+02  0.00000000E+00
  5.20000000E+02  1.80000000E+02  0.00000000E+00
  5.20000000E+02  1.60000000E+02  0.00000000E+00
  5.20000000E+02  1.40000000E+02  0.00000000E+00
  5.20000000E+02  1.20000000E+02  0.00000000E+00
  5.20000000E+02  1.00000000E+02  0.00000000E+00
  5.20000000E+02  8.00000000E+01  0.00000000E+00
  5.20000000E+02  6.00000000E+01  0.00000000E+00
  5.20000000E+02  4.00000000E+01  0.00000000E+00
  5.20000000E+02  2.00000000E+01  0.00000000E+00
  5.20000000E+02  4.99600361E-14  0.00000000E+00
  5.40000000E+02  3.00000000E+02  0.00000000E+00
  5.40000000E+02  2.80000000E+02  0.00000000E+00
  5.40000000E+02  2.60000000E+02  0.00000000E+00
  5.40000000E+02  2.40000000E+02  0.00000000E+00
  5.40000000E+02  2.20000000E+02  0.00000000E+00
  5.40000000E+02  2.00000000E+02  0.00000000E+00
  5.40000000E+02  1.80000000E+02  0.00000000E+00
  5.40000000E+02  1.60000000E+02  0.00000000E+00
  5.40000000E+02  1.40000000E+02  0.00000000E+00
  5.40000000E+02  1.20000000E+02  0.00000000E+00
  5.40000000E+02  1.00000000E+02  0.00000000E+00
  5.40000000E+02  8.00000000E+01  0.00000000E+00
  5.40000000E+02  6.00000000E+01  0.00000000E+00
  5.40000000E+02  4.00000000E+01  0.00000000E+00
  5.40000000E+02  2.00000000E+01  0.00000000E+00
  5.40000000E+02  4.99600361E-14  0.00000000E+00
  5.60000000E+02  3.00000000E+02  0.00000000E+00
  5.60000000E+02  2.80000000E+02  0.00000000E+00
  5.60000000E+02  2.60000000E+02  0.00000000E+00
  5.60000000E+02  2.40000000E+02  0.00000000E+00
  5.60000000E+02  2.20000000E+02  0.00000000E+00
  5.60000000E+02  2.00000000E+02  0.00000000E+00
  5.60000000E+02  1.80000000E+02  0.00000000E+00
  5.60000000E+02  1.60000000E+02  0.00000000E+00
  5.60000000E+02  1.40000000E+02  0.00000000E+00
  5.60000000E+02  1.20000000E+02  0.00000000E+00
  5.60000000E+02  1.00000000E+02  0.00000000E+00
  5.60000000E+02  8.00000000E+01  0.00000000E+00
  5.60000000E+02  6.00000000E+01  0.00000000E+00
  5.60000000E+02  4.00000000E+01  0.00000000E+00
  5.60000000E+02  2.00000000E+01  0.00000000E+00
  5.60000000E+02  4.99600361E-14  0.00000000E+00
  5.80000000E+02  3.00000000E+02  0.00000000E+00
  5.80000000E+02  2.80000000E+02  0.00000000E+00
  5.80000000E+02  2.60000000E+02  0.00000000E+00
  5.80000000E+02  2.40000000E+02  0.00000000E+00
  5.80000000E+02  2.20000000E+02  0.00000000E+00
  5.80000000E+02  2.00000000E+02  0.00000000E+00
  5.80000000E+02  1.80000000E+02  0.00000000E+00
  5.80000000E+02  1.60000000E+02  0.00000000E+00
  5.80000000E+02  1.40000000E+02  0.00000000E+00
  5.80000000E+02  1.20000000E+02  0.00000000E+00
  5.80000000E+02  1.00000000E+02  0.00000000E+00
  5.80000000E+02  8.00000000E+01  0.00000000E+00
  5.80000000E+02  6.00000000E+01  0.00000000E+00
  5.80000000E+02  4.00000000E+01  0.00000000E+00
  5.80000000E+02  2.00000000E+01  0.00000000E+00
  5.80000000E+02  4.99600361E-14  0.00000000E+00
  6.00000000E+02  3.00000000E+02  0.00000000E+00
  6.00000000E+02  2.80000000E+02  0.00000000E+00
  6.00000000E+02  2.60000000E+02  0.00000000E+00
  6.00000000E+02  2.40000000E+02  0.00000000E+00
  6.00000000E+02  2.20000000E+02  0.00000000E+00
  6.00000000E+02  2.00000000E+02  0.00000000E+00
  6.00000000E+02  1.80000000E+02  0.00000000E+00
  6.00000000E+02  1.60000000E+02  0.00000000E+00
  6.00000000E+02  1.40000000E+02  0.00000000E+00
  6.00000000E+02  1.20000000E+02  0.00000000E+00
  6.00000000E+02  1.00000000E+02  0.00000000E+00
  6.00000000E+02  8.00000000E+01  0.00000000E+00
  6.00000000E+02  6.00000000E+01  0.00000000E+00
  6.00000000E+02  4.00000000E+01  0.00000000E+00
  6.00000000E+02  2.00000000E+01  0.00000000E+00
  6.00000000E+02  4.99600361E-14  0.00000000E+00
CELLS       450      2250
         4           0           1          17          16
         4           1           2          18          17
         4           2           3          19          18
         4           3           4          20          19
         4           4           5          21          20
         4           5           6          22          21
         4           6           7          23          22
         4           7           8          24          23
         4           8           9          25          24
         4           9          10          26          25
         4          10          11          27          26
         4          11          12          28          27
         4          12          13          29          28
         4          13          14          30          29
         4          14          15          31          30
         4          16          17          33          32
         4          17          18          34          33
         4          18          19          35          34
         4          19          20          36          35
         4          20          21          37          36
         4          21          22          38          37
         4          22          23          39          38
         4          23          24          40          39
         4          24          25          41          40
         4          25          26          42          41
         4          26          27          43          42
         4          27          28          44          43
         4          28          29          45          44
         4          29          30          46          45
         4          30          31          47          46
         4          32          33          49          48
         4          33          34          50          49
         4          34          35          51          50
         4          35          36          52          51
         4          36          37          53          52
         4          37          38          54          53
         4          38          39          55          54
         4          39          40          56          55
         4          40          41          57          56
         4          41          42          58          57
         4          42          43          59          58
         4          43          44          60          59
         4          44          45          61          60
         4          45          46          62          61
         4          46          47          63          62
         4          48          49          65          64
         4          49          50          66          65
         4          50          51          67          66
         4          51          52          68          67
         4          52          53          69          68
         4          53          54          70          69
         4          54          55          71          70
         4          55          56          72          71
         4          56          57          73          72
         4          57          58          74          73
         4          58          59          75          74
         4          59          60          76          75
         4          60          61          77          76
         4          61          62          78          77
         4          62          63          79          78
         4          64          65          81          80
         4          65          66          82          81
         4          66          67          83          82
         4          67          68          84          83
         4          68          69          85          84
         4          69          70          86          85
         4          70          71          87          86
         4          71          72          88          87
         4          72          73          89          88
         4          73          74          90          89
         4          74          75          91          90
         4          75          76          92          91
         4          76          77          93          92
         4          77          78          94          93
         4          78          79          95          94
         4          80          81          97          96
         4          81          82          98          97
         4          82          83          99          98
         4          83          84         100          99
         4          84          85         101         100
         4          85          86         102         101
         4          86          87         103         102
         4          87          88         104         103
         4          88          89         105         104
         4          89          90         106         105
         4          90          91         107         106
         4          91          92         108         107
         4          92          93         109         108
         4          93          94         110         109
         4          94          95         111         110
         4          96          97         113         112
         4          97          98         114         113
         4          98          99         115         114
         4          99         100         116         115
         4         100         101         117         116
         4         101         102         118         117
         4         102         103         119         118
         4         103         104         120         119
         4         104         105         121         120
         4         105         106         122         121
         4         106         107         123         122
         4         107         108         124         123
         4         108         109         125         124
         4         109         110         126         125
         4         110         111         127         126
         4         112         113         129         128
         4         113         114         130         129
         4         114         115         131         130
         4         115         116         132         131
         4         116         117         133         132
         4         117         118         134         133
         4         118         119         135         134
         4         119         120         136         135
         4         120         121         137         136
         4         121         122         138         137
         4         122         123         139         138
         4         123         124         140         139
         4         124         125         141         140
         4         125         126         142         141
         4         126         127         143         142
         4         128         129         145         144
         4         129         130         146         145
         4         130         131         147         146
         4         131         132         148         147
         4         132         133         149         148
         4         133         134         150         149
         4         134         135         151         150
         4         135         136         152         151
         4         136         137         153         152
         4         137         138         154         153
         4         138         139         155         154
         4         139         140         156         155
         4         140         141         157         156
         4         141         142         158         157
         4         142         143         159         158
         4         144         145         161         160
         4         145         146         162         161
         4         146         147         163         162
         4         147         148         164         163
         4         148         149         165         164
         4         149         150         166         165
         4         150         151         167         166
         4         151         152         168         167
         4         152         153         169         168
         4         153         154         170         169
         4         154         155         171         170
         4         155         156         172         171
         4         156         157         173         172
         4         157         158         174         173
         4         158         159         175         174
         4         160         161         177         176
         4         161         162         178         177
         4         162         163         179         178
         4         163         164         180         179
         4         164         165         181         180
         4         165         166         182         181
         4         166         167         183         182
         4         167         168         184         183
         4         168         169         185         184
         4         169         170         186         185
         4         170         171         187         186
         4         171         172         188         187
         4         172         173         189         188
         4         173         174         190         189
         4         174         175         191         190
         4         176         177         193         192
         4         177         178         194         193
         4         178         179         195         194
         4         179         180         196         195
         4         180         181         197         196
         4         181         182         198         197
         4         182         183         199         198
         4         183         184         200         199
         4         184         185         201         200
         4         185         186         202         201
         4         186         187         203         202
         4         187         188         204         203
         4         188         189         205         204
         4         189         190         206         205
         4         190         191         207         206
         4         192         193         209         208
         4         193         194         210         209
         4         194         195         211         210
         4         195         196         212         211
         4         196         197         213         212
         4         197         198         214         213
         4         198         199         215         214
         4         199         200         216         215
         4         200         201         217         216
         4         201         202         218         217
         4         202         203         219         218
         4         203         204         220         219
         4         204         205         221         220
         4         205         206         222         221
         4         206         207         223         222
         4         208         209         225         224
         4         209         210         226         225
         4         210         211         227         226
         4         211         212         228         227
         4         212         213         229         228
         4         213         214         230         229
         4         214         215         231         230
         4         215         216         232         231
         4         216         217         233         232
         4         217         218         234         233
         4         218         219         235         234
         4         219         220         236         235
         4         220         221         237         236
         4         221         222         238         237
         4         222         223         239         238
         4         224         225         241         240
         4         225         226         242         241
         4         226         227         243         242
         4         227         228         244         243
         4         228         229         245         244
         4         229         230         246         245
         4         230         231         247         246
         4         231         232         248         247
         4         232         233         249         248
         4         233         234         250         249
         4         234         235         251         250
         4         235         236         252         251
         4         236         237         253         252
         4         237         238         254         253
         4         238         239         255         254
         4         240         241         257         256
         4         241         242         258         257
         4         242         243         259         258
         4         243         244         260         259
         4         244         245         261         260
         4         245         246         262         261
         4         246         247         263         262
         4         247         248         264         263
         4         248         249         265         264
         4         249         250         266         265
         4         250         251         267         266
         4         251         252         268         267
         4         252         253         269         268
         4         253         254         270         269
         4         254         255         271         270
         4         256         257         273         272
         4         257         258         274         273
         4         258         259         275         274
         4         259         260         276         275
         4         260         261         277         276
         4         261         262         278         277
         4         262         263         279         278
         4         263         264         280         279
         4         264         265         281         280
         4         265         266         282         281
         4         266         267         283         282
         4         267         268         284         283
         4         268         269         285         284
         4         269         270         286         285
         4         270         271         287         286
         4         272         273         289         288
         4         273         274         290         289
         4         274         275         291         290
         4         275         276         292         291
         4         276         277         293         292
         4         277         278         294         293
         4         278         279         295         294
         4         279         280         296         295
         4         280         281         297         296
         4         281         282         298         297
         4         282         283         299         298
         4         283         284         300         299
         4         284         285         301         300
         4         285         286         302         301
         4         286         287         303         302
         4         288         289         305         304
         4         289         290         306         305
         4         290         291         307         306
         4         291         292         308         307
         4         292         293         309         308
         4         293         294         310         309
         4         294         295         311         310
         4         295         296         312         311
         4         296         297         313         312
         4         297         298         314         313
         4         298         299         315         314
         4         299         300         316         315
         4         300         301         317         316
         4         301         302         318         317
         4         302         303         319         318
         4         304         305         321         320
         4         305         306         322         321
         4         306         307         323         322
         4         307         308         324         323
         4         308         309         325         324
         4         309         310         326         325
         4         310         311         327         326
         4         311         312         328         327
         4         312         313         329         328
         4         313         314         330         329
         4         314         315         331         330
         4         315         316         332         331
         4         316         317         333         332
         4         317         318         334         333
         4         318         319         335         334
         4         320         321         337         336
         4         321         322         338         337
         4         322         323         339         338
         4         323         324         340         339
         4         324         325         341         340
         4         325         326         342         341
         4         326         327         343         342
         4         327         328         344         343
         4         328         329         345         344
         4         329         330         346         345
         4         330         331         347         346
         4         331         332         348         347
         4         332         333         349         348
         4         333         334         350         349
         4         334         335         351         350
         4         336         337         353         352
         4         337         338         354         353
         4         338         339         355         354
         4         339         340         356         355
         4         340         341         357         356
         4         341         342         358         357
         4         342         343         359         358
         4         343         344         360         359
         4         344         345         361         360
         4         345         346         362         361
         4         346         347         363         362
         4         347         348         364         363
         4         348         349         365         364
         4         349         350         366         365
         4         350         351         367         366
         4         352         353         369         368
         4         353         354         370         369
         4         354         355         371         370
         4         355         356         372         371
         4         356         357         373         372
         4         357         358         374         373
         4         358         359         375         374
         4         359         360         376         375
         4         360         361         377         376
         4         361         362         378         377
         4         362         363         379         378
         4         363         364         380         379
         4         364         365         381         380
         4         365         366         382         381
         4         366         367         383         382
         4         368         369         385         384
         4         369         370         386         385
         4         370         371         387         386
         4         371         372         388         387
         4         372         373         389         388
         4         373         374         390         389
         4         374         375         391         390
         4         375         376         392         391
         4         376         377         393         392
         4         377         378         394         393
         4         378         379         395         394
         4         379         380         396         395
         4         380         381         397         396
         4         381         382         398         397
         4         382         383         399         398
         4         384         385         401         400
         4         385         386         402         401
         4         386         387         403         402
         4         387         388         404         403
         4         388         389         405         404
         4         389         390         406         405
         4         390         391         407         406
         4         391         392         408         407
         4         392         393         409         408
         4         393         394         410         409
         4         394         395         411         410
         4         395         396         412         411
         4         396         397         413         412
         4         397         398         414         413
         4         398         399         415         414
         4         400         401         417         416
         4         401         402         418         417
         4         402         403         419         418
         4         403         404         420         419
         4         404         405         421         420
         4         405         406         422         421
         4         406         407         423         422
         4         407         408         424         423
         4         408         409         425         424
         4         409         410         426         425
         4         410         411         427         426
         4         411         412         428         427
         4         412         413         429         428
         4         413         414         430         429
         4         414         415         431         430
         4         416         417         433         432
         4         417         418         434         433
         4         418         419         435         434
         4         419         420         436         435
         4         420         421         437         436
         4         421         422         438         437
         4         422         423         439         438
         4         423         424         440         439
         4         424         425         441         440
         4         425         426         442         441
         4         426         427         443         442
         4         427         428         444         443
         4         428         429         445         444
         4         429         430         446         445
         4         430         431         447         446
         4         432         433         449         448
         4         433         434         450         449
         4         434         435         451         450
         4         435         436         452         451
         4         436         437         453         452
         4         437         438         454         453
         4         438         439         455         454
         4         439         440         456         455
         4         440         441         457         456
         4         441         442         458         457
         4         442         443         459         458
         4         443         444         460         459
         4         444         445         461         460
         4         445         446         462         461
         4         446         447         463         462
         4         448         449         465         464
         4         449         450         466         465
         4         450         451         467         466
         4         451         452         468         467
         4         452         453         469         468
         4         453         454         470         469
         4         454         455         471         470
         4         455         456         472         471
         4         456         457         473         472
         4         457         458         474         473
         4         458         459         475         474
         4         459         460         476         475
         4         460         461         477         476
         4         461         462         478         477
         4         462         463         479         478
         4         464         465         481         480
         4         465         466         482         481
         4         466         467         483         482
         4         467         468         484         483
         4         468         469         485         484
         4         469         470         486         485
         4         470         471         487         486
         4         471         472         488         487
         4         472         473         489         488
         4         473         474         490         489
         4         474         475         491         490
         4         475         476         492         491
         4         476         477         493         492
         4         477         478         494         493
         4         478         479         495         494
CELL_TYPES        450
9
9
9
9
9
9
9
9
9
9
9
9
9
9
9
9
9
9
9
9
9
9
9
9
9
9
9
9
9
9
9
9
9
9
9
9
9
9
9
9
9
9
9
9
9
9
9
9
9
9
9
9
9
9
9
9
9
9
9
9
9
9
9
9
9
9
9
9
9
9
9
9
9
9
9
9
9
9
9
9
9
9
9
9
9
9
9
9
9
9
9
9
9
9
9
9
9
9
9
9
9
9
9
9
9
9
9
9
9
9
9
9
9
9
9
9
9
9
9
9
9
9
9
9
9
9
9
9
9
9
9
9
9
9
9
9
9
9
9
9
9
9
9
9
9
9
9
9
9
9
9
9
9
9
9
9
9
9
9
9
9
9
9
9
9
9
9
9
9
9
9
9
9
9
9
9
9
9
9
9
9
9
9
9
9
9
9
9
9
9
9
9
9
9
9
9
9
9
9
9
9
9
9
9
9
9
9
9
9
9
9
9
9
9
9
9
9
9
9
9
9
9
9
9
9
9
9
9
9
9
9
9
9
9
9
9
9
9
9
9
9
9
9
9
9
9
9
9
9
9
9
9
9
9
9
9
9
9
9
9
9
9
9
9
9
9
9
9
9
9
9
9
9
9
9
9
9
9
9
9
9
9
9
9
9
9
9
9
9
9
9
9
9
9
9
9
9
9
9
9
9
9
9
9
9
9
9
9
9
9
9
9
9
9
9
9
9
9
9
9
9
9
9
9
9
9
9
9
9
9
9
9
9
9
9
9
9
9
9
9
9
9
9
9
9
9
9
9
9
9
9
9
9
9
9
9
9
9
9
9
9
9
9
9
9
9
9
9
9
9
9
9
9
9
9
9
9
9
9
9
9
9
9
9
9
9
9
9
9
9
9
9
9
9
9
9
9
9
9
9
9
9
9
9
9
9
9
9
9
9
9
9
9
9
9
9
9
9
9
9
9
9
9
9
9
9
9
9
9
9
9
9
9
9
9
9
9
9
9
9
9
9
9
9
9
9
9
9
9
9
POINT_DATA       496
SCALARS p double 
LOOKUP_TABLE default
   27387198.2157199     
   27387198.2170911     
   27387198.2201360     
   27387198.2234315     
   27387198.2265639     
   27387198.2295296     
   27387198.2323720     
   27387198.2350592     
   27387198.2375552     
   27387198.2398336     
   27387198.2418685     
   27387198.2436308     
   27387198.2450927     
   27387198.2462207     
   27387198.2469739     
   27387198.2472513     
   26883180.6860739     
   26883180.6863523     
   26883180.6871793     
   26883180.6883640     
   26883180.6897376     
   26883180.6912655     
   26883180.6928611     
   26883180.6944530     
   26883180.6959838     
   26883180.6974051     
   26883180.6986766     
   26883180.6997666     
   26883180.7006438     
   26883180.7012775     
   26883180.7016369     
   26883180.7017439     
   26379163.1381640     
   26379163.1380857     
   26379163.1379928     
   26379163.1381830     
   26379163.1387062     
   26379163.1393924     
   26379163.1401559     
   26379163.1409565     
   26379163.1417549     
   26379163.1425118     
   26379163.1431933     
   26379163.1437695     
   26379163.1442183     
   26379163.1445282     
   26379163.1447102     
   26379163.1447727     
   25875145.5736767     
   25875145.5736363     
   25875145.5736227     
   25875145.5737230     
   25875145.5739007     
   25875145.5741302     
   25875145.5743921     
   25875145.5746729     
   25875145.5749605     
   25875145.5752384     
   25875145.5754896     
   25875145.5757001     
   25875145.5758620     
   25875145.5759786     
   25875145.5760542     
   25875145.5760817     
   25371127.9958866     
   25371127.9958720     
   25371127.9958368     
   25371127.9958063     
   25371127.9957892     
   25371127.9957708     
   25371127.9957444     
   25371127.9957106     
   25371127.9956722     
   25371127.9956340     
   25371127.9955990     
   25371127.9955697     
   25371127.9955504     
   25371127.9955436     
   25371127.9955467     
   25371127.9955500     
   24867110.4053317     
   24867110.4052749     
   24867110.4051409     
   24867110.4049817     
   24867110.4048130     
   24867110.4046295     
   24867110.4044250     
   24867110.4042016     
   24867110.4039693     
   24867110.4037417     
   24867110.4035336     
   24867110.4033588     
   24867110.4032267     
   24867110.4031399     
   24867110.4030936     
   24867110.4030795     
   24363092.8020989     
   24363092.8020183     
   24363092.8018175     
   24363092.8015567     
   24363092.8012639     
   24363092.8009514     
   24363092.8006225     
   24363092.8002805     
   24363092.7999352     
   24363092.7996019     
   24363092.7992979     
   24363092.7990397     
   24363092.7988391     
   24363092.7987010     
   24363092.7986223     
   24363092.7985970     
   23859075.1863533     
   23859075.1862622     
   23859075.1860213     
   23859075.1856887     
   23859075.1853060     
   23859075.1848982     
   23859075.1844788     
   23859075.1840571     
   23859075.1836437     
   23859075.1832519     
   23859075.1828971     
   23859075.1825937     
   23859075.1823530     
   23859075.1821815     
   23859075.1820813     
   23859075.1820489     
   23355057.5582237     
   23355057.5581240     
   23355057.5578572     
   23355057.5574810     
   23355057.5570406     
   23355057.5565681     
   23355057.5560853     
   23355057.5556078     
   23355057.5551491     
   23355057.5547217     
   23355057.5543383     
   23355057.5540103     
   23355057.5537475     
   23355057.5535567     
   23355057.5534420     
   23355057.5534040     
   22851039.9177884     
   22851039.9176852     
   22851039.9174060     
   22851039.9170070     
   22851039.9165333     
   22851039.9160203     
   22851039.9154951     
   22851039.9149785     
   22851039.9144868     
   22851039.9140335     
   22851039.9136300     
   22851039.9132860     
   22851039.9130098     
   22851039.9128078     
   22851039.9126844     
   22851039.9126427     
   22347022.2651138     
   22347022.2650105     
   22347022.2647287     
   22347022.2643205     
   22347022.2638297     
   22347022.2632928     
   22347022.2627399     
   22347022.2621952     
   22347022.2616776     
   22347022.2612020     
   22347022.2607802     
   22347022.2604217     
   22347022.2601341     
   22347022.2599233     
   22347022.2597943     
   22347022.2597508     
   21843004.6002521     
   21843004.6001505     
   21843004.5998709     
   21843004.5994607     
   21843004.5989619     
   21843004.5984112     
   21843004.5978398     
   21843004.5972736     
   21843004.5967339     
   21843004.5962371     
   21843004.5957963     
   21843004.5954214     
   21843004.5951204     
   21843004.5948998     
   21843004.5947653     
   21843004.5947202     
   21338986.9232417     
   21338986.9231419     
   21338986.9228654     
   21338986.9224557     
   21338986.9219530     
   21338986.9213932     
   21338986.9208078     
   21338986.9202240     
   21338986.9196642     
   21338986.9191467     
   21338986.9186858     
   21338986.9182930     
   21338986.9179773     
   21338986.9177458     
   21338986.9176038     
   21338986.9175557     
   20834969.2341077     
   20834969.2340093     
   20834969.2337350     
   20834969.2333256     
   20834969.2328193     
   20834969.2322512     
   20834969.2316530     
   20834969.2310523     
   20834969.2304730     
   20834969.2299345     
   20834969.2294532     
   20834969.2290417     
   20834969.2287102     
   20834969.2284665     
   20834969.2283162     
   20834969.2282649     
   20330951.5328671     
   20330951.5327693     
   20330951.5324954     
   20330951.5320841     
   20330951.5315723     
   20330951.5309944     
   20330951.5303821     
   20330951.5297636     
   20330951.5291639     
   20330951.5286038     
   20330951.5281010     
   20330951.5276697     
   20330951.5273212     
   20330951.5270643     
   20330951.5269063     
   20330951.5268527     
   19826933.8195308     
   19826933.8194327     
   19826933.8191569     
   19826933.8187407     
   19826933.8182202     
   19826933.8176295     
   19826933.8170007     
   19826933.8163627     
   19826933.8157411     
   19826933.8151583     
   19826933.8146330     
   19826933.8141808     
   19826933.8138144     
   19826933.8135440     
   19826933.8133780     
   19826933.8133222     
   19322916.0941065     
   19322916.0940067     
   19322916.0937261     
   19322916.0933015     
   19322916.0927687     
   19322916.0921623     
   19322916.0915143     
   19322916.0908546     
   19322916.0902098     
   19322916.0896030     
   19322916.0890544     
   19322916.0885810     
   19322916.0881967     
   19322916.0879129     
   19322916.0877382     
   19322916.0876791     
   18818898.3565959     
   18818898.3564937     
   18818898.3562060     
   18818898.3557700     
   18818898.3552219     
   18818898.3545969     
   18818898.3539278     
   18818898.3532449     
   18818898.3525758     
   18818898.3519449     
   18818898.3513736     
   18818898.3508799     
   18818898.3504790     
   18818898.3501825     
   18818898.3499991     
   18818898.3499367     
   18314880.6069984     
   18314880.6068931     
   18314880.6065966     
   18314880.6061472     
   18314880.6055820     
   18314880.6049371     
   18314880.6042460     
   18314880.6035400     
   18314880.6028475     
   18314880.6021941     
   18314880.6016020     
   18314880.6010901     
   18314880.6006736     
   18314880.6003648     
   18314880.6001735     
   18314880.6001084     
   17810862.8453109     
   17810862.8452022     
   17810862.8448961     
   17810862.8444325     
   17810862.8438501     
   17810862.8431859     
   17810862.8424743     
   17810862.8417476     
   17810862.8410348     
   17810862.8403620     
   17810862.8397521     
   17810862.8392239     
   17810862.8387934     
   17810862.8384736     
   17810862.8382758     
   17810862.8382088     
   17306845.0715286     
   17306845.0714163     
   17306845.0711007     
   17306845.0706239     
   17306845.0700263     
   17306845.0693458     
   17306845.0686181     
   17306845.0678756     
   17306845.0671478     
   17306845.0664608     
   17306845.0658372     
   17306845.0652964     
   17306845.0648546     
   17306845.0645262     
   17306845.0643231     
   17306845.0642541     
   16802827.2856451     
   16802827.2855294     
   16802827.2852055     
   16802827.2847180     
   16802827.2841093     
   16802827.2834188     
   16802827.2826824     
   16802827.2819325     
   16802827.2811980     
   16802827.2805045     
   16802827.2798740     
   16802827.2793258     
   16802827.2788771     
   16802827.2785426     
   16802827.2783345     
   16802827.2782633     
   16298809.4876528     
   16298809.4875344     
   16298809.4872041     
   16298809.4867101     
   16298809.4860971     
   16298809.4854057     
   16298809.4846719     
   16298809.4839270     
   16298809.4831982     
   16298809.4825093     
   16298809.4818814     
   16298809.4813334     
   16298809.4808827     
   16298809.4805446     
   16298809.4803328     
   16298809.4802602     
   15794791.6775431     
   15794791.6774227     
   15794791.6770888     
   15794791.6765940     
   15794791.6759860     
   15794791.6753066     
   15794791.6745910     
   15794791.6738682     
   15794791.6731620     
   15794791.6724930     
   15794791.6718800     
   15794791.6713414     
   15794791.6708946     
   15794791.6705563     
   15794791.6703428     
   15794791.6702692     
   15290773.8553068     
   15290773.8551851     
   15290773.8548509     
   15290773.8543627     
   15290773.8537720     
   15290773.8531214     
   15290773.8524442     
   15290773.8517651     
   15290773.8511027     
   15290773.8504728     
   15290773.8498906     
   15290773.8493727     
   15290773.8489371     
   15290773.8486030     
   15290773.8483895     
   15290773.8483153     
   14786756.0209334     
   14786756.0208114     
   14786756.0204810     
   14786756.0200091     
   14786756.0194516     
   14786756.0188509     
   14786756.0182362     
   14786756.0176259     
   14786756.0170320     
   14786756.0164639     
   14786756.0159318     
   14786756.0154492     
   14786756.0150344     
   14786756.0147096     
   14786756.0144982     
   14786756.0144238     
   14282738.1744121     
   14282738.1742909     
   14282738.1739700     
   14282738.1735279     
   14282738.1730248     
   14282738.1724996     
   14282738.1719739     
   14282738.1714582     
   14282738.1709577     
   14282738.1704757     
   14282738.1700167     
   14282738.1695888     
   14282738.1692083     
   14282738.1688998     
   14282738.1686932     
   14282738.1686192     
   13778720.3157319     
   13778720.3156131     
   13778720.3153112     
   13778720.3149200     
   13778720.3144998     
   13778720.3140788     
   13778720.3136675     
   13778720.3132690     
   13778720.3128836     
   13778720.3125104     
   13778720.3121489     
   13778720.3118011     
   13778720.3114752     
   13778720.3111946     
   13778720.3109968     
   13778720.3109236     
   13274702.4448820     
   13274702.4447699     
   13274702.4445066     
   13274702.4442023     
   13274702.4439006     
   13274702.4436100     
   13274702.4433323     
   13274702.4430663     
   13274702.4428103     
   13274702.4425616     
   13274702.4423179     
   13274702.4420768     
   13274702.4418379     
   13274702.4416077     
   13274702.4414263     
   13274702.4413563     
   12770684.5618532     
   12770684.5617632     
   12770684.5615886     
   12770684.5614241     
   12770684.5612697     
   12770684.5611252     
   12770684.5609893     
   12770684.5608606     
   12770684.5607374     
   12770684.5606179     
   12770684.5605003     
   12770684.5603824     
   12770684.5602612     
   12770684.5601329     
   12770684.5599937     
   12770684.5599210     
   12266666.6666667     
   12266666.6666667     
   12266666.6666667     
   12266666.6666667     
   12266666.6666667     
   12266666.6666667     
   12266666.6666667     
   12266666.6666667     
   12266666.6666667     
   12266666.6666667     
   12266666.6666667     
   12266666.6666667     
   12266666.6666667     
   12266666.6666667     
   12266666.6666667     
   12266666.6666667     
VECTORS u double 
    0.00000E+00        -0.31814E-05         0.00000E+00
    0.00000E+00        -0.29503E-05         0.00000E+00
    0.00000E+00        -0.27174E-05         0.00000E+00
    0.00000E+00        -0.24855E-05         0.00000E+00
    0.00000E+00        -0.22574E-05         0.00000E+00
    0.00000E+00        -0.20341E-05         0.00000E+00
    0.00000E+00        -0.18149E-05         0.00000E+00
    0.00000E+00        -0.15992E-05         0.00000E+00
    0.00000E+00        -0.13869E-05         0.00000E+00
    0.00000E+00        -0.11778E-05         0.00000E+00
    0.00000E+00        -0.97190E-06         0.00000E+00
    0.00000E+00        -0.76936E-06         0.00000E+00
    0.00000E+00        -0.57037E-06         0.00000E+00
    0.00000E+00        -0.37529E-06         0.00000E+00
    0.00000E+00        -0.18471E-06         0.00000E+00
    0.00000E+00         0.00000E+00         0.00000E+00
    0.12482E-06        -0.31859E-05         0.00000E+00
    0.11615E-06        -0.29542E-05         0.00000E+00
    0.10561E-06        -0.27220E-05         0.00000E+00
    0.93392E-07        -0.24907E-05         0.00000E+00
    0.81521E-07        -0.22630E-05         0.00000E+00
    0.71210E-07        -0.20394E-05         0.00000E+00
    0.62151E-07        -0.18197E-05         0.00000E+00
    0.53980E-07        -0.16035E-05         0.00000E+00
    0.46588E-07        -0.13907E-05         0.00000E+00
    0.39653E-07        -0.11812E-05         0.00000E+00
    0.33035E-07        -0.97489E-06         0.00000E+00
    0.26678E-07        -0.77197E-06         0.00000E+00
    0.20380E-07        -0.57261E-06         0.00000E+00
    0.14027E-07        -0.37713E-06         0.00000E+00
    0.73581E-08        -0.18605E-06         0.00000E+00
    0.00000E+00         0.00000E+00         0.00000E+00
    0.22120E-06        -0.31949E-05         0.00000E+00
    0.20687E-06        -0.29644E-05         0.00000E+00
    0.18828E-06        -0.27338E-05         0.00000E+00
    0.16865E-06        -0.25042E-05         0.00000E+00
    0.14972E-06        -0.22772E-05         0.00000E+00
    0.13188E-06        -0.20532E-05         0.00000E+00
    0.11532E-06        -0.18325E-05         0.00000E+00
    0.10010E-06        -0.16152E-05         0.00000E+00
    0.86029E-07        -0.14013E-05         0.00000E+00
    0.72766E-07        -0.11906E-05         0.00000E+00
    0.60147E-07        -0.98324E-06         0.00000E+00
    0.47947E-07        -0.77924E-06         0.00000E+00
    0.35951E-07        -0.57874E-06         0.00000E+00
    0.23982E-07        -0.38198E-06         0.00000E+00
    0.11933E-07        -0.18912E-06         0.00000E+00
    0.00000E+00         0.00000E+00         0.00000E+00
    0.29277E-06        -0.32095E-05         0.00000E+00
    0.27379E-06        -0.29795E-05         0.00000E+00
    0.25261E-06        -0.27505E-05         0.00000E+00
    0.22970E-06        -0.25226E-05         0.00000E+00
    0.20616E-06        -0.22963E-05         0.00000E+00
    0.18295E-06        -0.20723E-05         0.00000E+00
    0.16058E-06        -0.18508E-05         0.00000E+00
    0.13947E-06        -0.16324E-05         0.00000E+00
    0.11956E-06        -0.14170E-05         0.00000E+00
    0.10065E-06        -0.12048E-05         0.00000E+00
    0.82588E-07        -0.99577E-06         0.00000E+00
    0.65155E-07        -0.79005E-06         0.00000E+00
    0.48164E-07        -0.58766E-06         0.00000E+00
    0.31527E-07        -0.38862E-06         0.00000E+00
    0.15370E-07        -0.19282E-06         0.00000E+00
    0.00000E+00         0.00000E+00         0.00000E+00
    0.35329E-06        -0.32293E-05         0.00000E+00
    0.33012E-06        -0.29994E-05         0.00000E+00
    0.30534E-06        -0.27712E-05         0.00000E+00
    0.27923E-06        -0.25444E-05         0.00000E+00
    0.25229E-06        -0.23188E-05         0.00000E+00
    0.22518E-06        -0.20949E-05         0.00000E+00
    0.19851E-06        -0.18730E-05         0.00000E+00
    0.17272E-06        -0.16534E-05         0.00000E+00
    0.14793E-06        -0.14365E-05         0.00000E+00
    0.12415E-06        -0.12225E-05         0.00000E+00
    0.10134E-06        -0.10114E-05         0.00000E+00
    0.79365E-07        -0.80339E-06         0.00000E+00
    0.58152E-07        -0.59838E-06         0.00000E+00
    0.37725E-07        -0.39628E-06         0.00000E+00
    0.18246E-07        -0.19689E-06         0.00000E+00
    0.00000E+00         0.00000E+00         0.00000E+00
    0.40583E-06        -0.32542E-05         0.00000E+00
    0.37789E-06        -0.30244E-05         0.00000E+00
    0.34913E-06        -0.27963E-05         0.00000E+00
    0.31974E-06        -0.25696E-05         0.00000E+00
    0.28986E-06        -0.23443E-05         0.00000E+00
    0.25972E-06        -0.21202E-05         0.00000E+00
    0.22976E-06        -0.18977E-05         0.00000E+00
    0.20034E-06        -0.16771E-05         0.00000E+00
    0.17167E-06        -0.14586E-05         0.00000E+00
    0.14391E-06        -0.12426E-05         0.00000E+00
    0.11713E-06        -0.10292E-05         0.00000E+00
    0.91354E-07        -0.81838E-06         0.00000E+00
    0.66633E-07        -0.61022E-06         0.00000E+00
    0.43063E-07        -0.40454E-06         0.00000E+00
    0.20782E-07        -0.20119E-06         0.00000E+00
    0.00000E+00         0.00000E+00         0.00000E+00
    0.45036E-06        -0.32841E-05         0.00000E+00
    0.41814E-06        -0.30540E-05         0.00000E+00
    0.38574E-06        -0.28255E-05         0.00000E+00
    0.35322E-06        -0.25984E-05         0.00000E+00
    0.32053E-06        -0.23725E-05         0.00000E+00
    0.28779E-06        -0.21478E-05         0.00000E+00
    0.25519E-06        -0.19245E-05         0.00000E+00
    0.22295E-06        -0.17026E-05         0.00000E+00
    0.19128E-06        -0.14825E-05         0.00000E+00
    0.16039E-06        -0.12643E-05         0.00000E+00
    0.13045E-06        -0.10483E-05         0.00000E+00
    0.10160E-06        -0.83440E-06         0.00000E+00
    0.73991E-07        -0.62274E-06         0.00000E+00
    0.47764E-07        -0.41319E-06         0.00000E+00
    0.23052E-07        -0.20565E-06         0.00000E+00
    0.00000E+00         0.00000E+00         0.00000E+00
    0.48753E-06        -0.33182E-05         0.00000E+00
    0.45177E-06        -0.30875E-05         0.00000E+00
    0.41620E-06        -0.28582E-05         0.00000E+00
    0.38080E-06        -0.26302E-05         0.00000E+00
    0.34557E-06        -0.24033E-05         0.00000E+00
    0.31052E-06        -0.21776E-05         0.00000E+00
    0.27571E-06        -0.19529E-05         0.00000E+00
    0.24124E-06        -0.17295E-05         0.00000E+00
    0.20727E-06        -0.15075E-05         0.00000E+00
    0.17400E-06        -0.12870E-05         0.00000E+00
    0.14164E-06        -0.10681E-05         0.00000E+00
    0.11038E-06        -0.85101E-06         0.00000E+00
    0.80418E-07        -0.63566E-06         0.00000E+00
    0.51934E-07        -0.42208E-06         0.00000E+00
    0.25081E-07        -0.21021E-06         0.00000E+00
    0.00000E+00         0.00000E+00         0.00000E+00
    0.51812E-06        -0.33557E-05         0.00000E+00
    0.47939E-06        -0.31242E-05         0.00000E+00
    0.44112E-06        -0.28939E-05         0.00000E+00
    0.40328E-06        -0.26646E-05         0.00000E+00
    0.36585E-06        -0.24364E-05         0.00000E+00
    0.32881E-06        -0.22091E-05         0.00000E+00
    0.29214E-06        -0.19829E-05         0.00000E+00
    0.25589E-06        -0.17576E-05         0.00000E+00
    0.22015E-06        -0.15333E-05         0.00000E+00
    0.18509E-06        -0.13102E-05         0.00000E+00
    0.15091E-06        -0.10884E-05         0.00000E+00
    0.11781E-06        -0.86792E-06         0.00000E+00
    0.85988E-07        -0.64880E-06         0.00000E+00
    0.55634E-07        -0.43110E-06         0.00000E+00
    0.26923E-07        -0.21484E-06         0.00000E+00
    0.00000E+00         0.00000E+00         0.00000E+00
    0.54266E-06        -0.33960E-05         0.00000E+00
    0.50152E-06        -0.31635E-05         0.00000E+00
    0.46105E-06        -0.29319E-05         0.00000E+00
    0.42122E-06        -0.27012E-05         0.00000E+00
    0.38198E-06        -0.24713E-05         0.00000E+00
    0.34329E-06        -0.22423E-05         0.00000E+00
    0.30511E-06        -0.20140E-05         0.00000E+00
    0.26745E-06        -0.17865E-05         0.00000E+00
    0.23037E-06        -0.15598E-05         0.00000E+00
    0.19399E-06        -0.13339E-05         0.00000E+00
    0.15847E-06        -0.11089E-05         0.00000E+00
    0.12399E-06        -0.88495E-06         0.00000E+00
    0.90725E-07        -0.66200E-06         0.00000E+00
    0.58864E-07        -0.44016E-06         0.00000E+00
    0.28579E-07        -0.21948E-06         0.00000E+00
    0.00000E+00         0.00000E+00         0.00000E+00
    0.56160E-06        -0.34385E-05         0.00000E+00
    0.51858E-06        -0.32048E-05         0.00000E+00
    0.47640E-06        -0.29718E-05         0.00000E+00
    0.43503E-06        -0.27394E-05         0.00000E+00
    0.39439E-06        -0.25077E-05         0.00000E+00
    0.35441E-06        -0.22766E-05         0.00000E+00
    0.31507E-06        -0.20461E-05         0.00000E+00
    0.27636E-06        -0.18161E-05         0.00000E+00
    0.23829E-06        -0.15866E-05         0.00000E+00
    0.20096E-06        -0.13578E-05         0.00000E+00
    0.16448E-06        -0.11296E-05         0.00000E+00
    0.12899E-06        -0.90202E-06         0.00000E+00
    0.94651E-07        -0.67521E-06         0.00000E+00
    0.61604E-07        -0.44921E-06         0.00000E+00
    0.30008E-07        -0.22411E-06         0.00000E+00
    0.00000E+00         0.00000E+00         0.00000E+00
    0.57539E-06        -0.34828E-05         0.00000E+00
    0.53095E-06        -0.32477E-05         0.00000E+00
    0.48753E-06        -0.30131E-05         0.00000E+00
    0.44503E-06        -0.27789E-05         0.00000E+00
    0.40338E-06        -0.25452E-05         0.00000E+00
    0.36250E-06        -0.23118E-05         0.00000E+00
    0.32235E-06        -0.20789E-05         0.00000E+00
    0.28291E-06        -0.18462E-05         0.00000E+00
    0.24419E-06        -0.16139E-05         0.00000E+00
    0.20622E-06        -0.13819E-05         0.00000E+00
    0.16910E-06        -0.11503E-05         0.00000E+00
    0.13292E-06        -0.91911E-06         0.00000E+00
    0.97790E-07        -0.68840E-06         0.00000E+00
    0.63842E-07        -0.45825E-06         0.00000E+00
    0.31200E-07        -0.22876E-06         0.00000E+00
    0.00000E+00         0.00000E+00         0.00000E+00
    0.58436E-06        -0.35284E-05         0.00000E+00
    0.53895E-06        -0.32917E-05         0.00000E+00
    0.49469E-06        -0.30554E-05         0.00000E+00
    0.45146E-06        -0.28193E-05         0.00000E+00
    0.40918E-06        -0.25834E-05         0.00000E+00
    0.36776E-06        -0.23477E-05         0.00000E+00
    0.32715E-06        -0.21122E-05         0.00000E+00
    0.28732E-06        -0.18767E-05         0.00000E+00
    0.24825E-06        -0.16414E-05         0.00000E+00
    0.20995E-06        -0.14062E-05         0.00000E+00
    0.17246E-06        -0.11711E-05         0.00000E+00
    0.13586E-06        -0.93619E-06         0.00000E+00
    0.10021E-06        -0.70154E-06         0.00000E+00
    0.65622E-07        -0.46723E-06         0.00000E+00
    0.32190E-07        -0.23335E-06         0.00000E+00
    0.00000E+00         0.00000E+00         0.00000E+00
    0.58879E-06        -0.35748E-05         0.00000E+00
    0.54279E-06        -0.33365E-05         0.00000E+00
    0.49806E-06        -0.30983E-05         0.00000E+00
    0.45448E-06        -0.28602E-05         0.00000E+00
    0.41193E-06        -0.26222E-05         0.00000E+00
    0.37034E-06        -0.23840E-05         0.00000E+00
    0.32962E-06        -0.21458E-05         0.00000E+00
    0.28971E-06        -0.19075E-05         0.00000E+00
    0.25059E-06        -0.16690E-05         0.00000E+00
    0.21224E-06        -0.14305E-05         0.00000E+00
    0.17466E-06        -0.11919E-05         0.00000E+00
    0.13789E-06        -0.95321E-06         0.00000E+00
    0.10198E-06        -0.71460E-06         0.00000E+00
    0.66983E-07        -0.47612E-06         0.00000E+00
    0.32975E-07        -0.23788E-06         0.00000E+00
    0.00000E+00         0.00000E+00         0.00000E+00
    0.58888E-06        -0.36217E-05         0.00000E+00
    0.54263E-06        -0.33817E-05         0.00000E+00
    0.49779E-06        -0.31417E-05         0.00000E+00
    0.45420E-06        -0.29015E-05         0.00000E+00
    0.41175E-06        -0.26611E-05         0.00000E+00
    0.37032E-06        -0.24205E-05         0.00000E+00
    0.32982E-06        -0.21796E-05         0.00000E+00
    0.29017E-06        -0.19383E-05         0.00000E+00
    0.25131E-06        -0.16967E-05         0.00000E+00
    0.21318E-06        -0.14548E-05         0.00000E+00
    0.17577E-06        -0.12126E-05         0.00000E+00
    0.13908E-06        -0.97017E-06         0.00000E+00
    0.10313E-06        -0.72758E-06         0.00000E+00
    0.67935E-07        -0.48495E-06         0.00000E+00
    0.33546E-07        -0.24238E-06         0.00000E+00
    0.00000E+00         0.00000E+00         0.00000E+00
    0.58473E-06        -0.36688E-05         0.00000E+00
    0.53856E-06        -0.34270E-05         0.00000E+00
    0.49394E-06        -0.31850E-05         0.00000E+00
    0.45070E-06        -0.29428E-05         0.00000E+00
    0.40869E-06        -0.27001E-05         0.00000E+00
    0.36777E-06        -0.24570E-05         0.00000E+00
    0.32783E-06        -0.22133E-05         0.00000E+00
    0.28874E-06        -0.19691E-05         0.00000E+00
    0.25043E-06        -0.17243E-05         0.00000E+00
    0.21281E-06        -0.14790E-05         0.00000E+00
    0.17583E-06        -0.12332E-05         0.00000E+00
    0.13946E-06        -0.98702E-06         0.00000E+00
    0.10368E-06        -0.74049E-06         0.00000E+00
    0.68491E-07        -0.49372E-06         0.00000E+00
    0.33916E-07        -0.24686E-06         0.00000E+00
    0.00000E+00         0.00000E+00         0.00000E+00
    0.57644E-06        -0.37157E-05         0.00000E+00
    0.53065E-06        -0.34721E-05         0.00000E+00
    0.48657E-06        -0.32282E-05         0.00000E+00
    0.44401E-06        -0.29838E-05         0.00000E+00
    0.40277E-06        -0.27389E-05         0.00000E+00
    0.36270E-06        -0.24932E-05         0.00000E+00
    0.32364E-06        -0.22468E-05         0.00000E+00
    0.28544E-06        -0.19996E-05         0.00000E+00
    0.24798E-06        -0.17517E-05         0.00000E+00
    0.21114E-06        -0.15030E-05         0.00000E+00
    0.17485E-06        -0.12537E-05         0.00000E+00
    0.13903E-06        -0.10038E-05         0.00000E+00
    0.10365E-06        -0.75330E-06         0.00000E+00
    0.68675E-07        -0.50244E-06         0.00000E+00
    0.34122E-07        -0.25129E-06         0.00000E+00
    0.00000E+00         0.00000E+00         0.00000E+00
    0.56402E-06        -0.37621E-05         0.00000E+00
    0.51891E-06        -0.35168E-05         0.00000E+00
    0.47569E-06        -0.32710E-05         0.00000E+00
    0.43412E-06        -0.30245E-05         0.00000E+00
    0.39400E-06        -0.27772E-05         0.00000E+00
    0.35511E-06        -0.25290E-05         0.00000E+00
    0.31725E-06        -0.22799E-05         0.00000E+00
    0.28026E-06        -0.20298E-05         0.00000E+00
    0.24395E-06        -0.17788E-05         0.00000E+00
    0.20818E-06        -0.15268E-05         0.00000E+00
    0.17284E-06        -0.12739E-05         0.00000E+00
    0.13782E-06        -0.10203E-05         0.00000E+00
    0.10307E-06        -0.76593E-06         0.00000E+00
    0.68529E-07        -0.51100E-06         0.00000E+00
    0.34182E-07        -0.25564E-06         0.00000E+00
    0.00000E+00         0.00000E+00         0.00000E+00
    0.54744E-06        -0.38078E-05         0.00000E+00
    0.50332E-06        -0.35607E-05         0.00000E+00
    0.46126E-06        -0.33130E-05         0.00000E+00
    0.42102E-06        -0.30644E-05         0.00000E+00
    0.38233E-06        -0.28148E-05         0.00000E+00
    0.34496E-06        -0.25642E-05         0.00000E+00
    0.30865E-06        -0.23124E-05         0.00000E+00
    0.27318E-06        -0.20595E-05         0.00000E+00
    0.23833E-06        -0.18054E-05         0.00000E+00
    0.20393E-06        -0.15501E-05         0.00000E+00
    0.16981E-06        -0.12938E-05         0.00000E+00
    0.13586E-06        -0.10365E-05         0.00000E+00
    0.10196E-06        -0.77831E-06         0.00000E+00
    0.68053E-07        -0.51939E-06         0.00000E+00
    0.34078E-07        -0.25990E-06         0.00000E+00
    0.00000E+00         0.00000E+00         0.00000E+00
    0.52666E-06        -0.38525E-05         0.00000E+00
    0.48382E-06        -0.36037E-05         0.00000E+00
    0.44325E-06        -0.33540E-05         0.00000E+00
    0.40466E-06        -0.31033E-05         0.00000E+00
    0.36774E-06        -0.28515E-05         0.00000E+00
    0.33222E-06        -0.25985E-05         0.00000E+00
    0.29778E-06        -0.23441E-05         0.00000E+00
    0.26416E-06        -0.20884E-05         0.00000E+00
    0.23109E-06        -0.18313E-05         0.00000E+00
    0.19836E-06        -0.15729E-05         0.00000E+00
    0.16576E-06        -0.13132E-05         0.00000E+00
    0.13312E-06        -0.10523E-05         0.00000E+00
    0.10031E-06        -0.79039E-06         0.00000E+00
    0.67229E-07        -0.52759E-06         0.00000E+00
    0.33801E-07        -0.26407E-06         0.00000E+00
    0.00000E+00         0.00000E+00         0.00000E+00
    0.50161E-06        -0.38959E-05         0.00000E+00
    0.46037E-06        -0.36453E-05         0.00000E+00
    0.42160E-06        -0.33938E-05         0.00000E+00
    0.38498E-06        -0.31410E-05         0.00000E+00
    0.35017E-06        -0.28870E-05         0.00000E+00
    0.31682E-06        -0.26316E-05         0.00000E+00
    0.28459E-06        -0.23747E-05         0.00000E+00
    0.25314E-06        -0.21163E-05         0.00000E+00
    0.22218E-06        -0.18563E-05         0.00000E+00
    0.19143E-06        -0.15949E-05         0.00000E+00
    0.16063E-06        -0.13319E-05         0.00000E+00
    0.12957E-06        -0.10676E-05         0.00000E+00
    0.98074E-07        -0.80214E-06         0.00000E+00
    0.66027E-07        -0.53559E-06         0.00000E+00
    0.33348E-07        -0.26815E-06         0.00000E+00
    0.00000E+00         0.00000E+00         0.00000E+00
    0.47222E-06        -0.39377E-05         0.00000E+00
    0.43289E-06        -0.36853E-05         0.00000E+00
    0.39626E-06        -0.34319E-05         0.00000E+00
    0.36194E-06        -0.31772E-05         0.00000E+00
    0.32955E-06        -0.29210E-05         0.00000E+00
    0.29871E-06        -0.26633E-05         0.00000E+00
    0.26900E-06        -0.24040E-05         0.00000E+00
    0.24006E-06        -0.21430E-05         0.00000E+00
    0.21151E-06        -0.18803E-05         0.00000E+00
    0.18303E-06        -0.16159E-05         0.00000E+00
    0.15431E-06        -0.13499E-05         0.00000E+00
    0.12510E-06        -0.10824E-05         0.00000E+00
    0.95179E-07        -0.81349E-06         0.00000E+00
    0.64411E-07        -0.54334E-06         0.00000E+00
    0.32703E-07        -0.27212E-06         0.00000E+00
    0.00000E+00         0.00000E+00         0.00000E+00
    0.43840E-06        -0.39775E-05         0.00000E+00
    0.40132E-06        -0.37234E-05         0.00000E+00
    0.36715E-06        -0.34681E-05         0.00000E+00
    0.33547E-06        -0.32114E-05         0.00000E+00
    0.30583E-06        -0.29531E-05         0.00000E+00
    0.27780E-06        -0.26932E-05         0.00000E+00
    0.25093E-06        -0.24315E-05         0.00000E+00
    0.22478E-06        -0.21681E-05         0.00000E+00
    0.19895E-06        -0.19028E-05         0.00000E+00
    0.17304E-06        -0.16358E-05         0.00000E+00
    0.14669E-06        -0.13670E-05         0.00000E+00
    0.11961E-06        -0.10965E-05         0.00000E+00
    0.91539E-07        -0.82435E-06         0.00000E+00
    0.62318E-07        -0.55079E-06         0.00000E+00
    0.31831E-07        -0.27594E-06         0.00000E+00
    0.00000E+00         0.00000E+00         0.00000E+00
    0.40008E-06        -0.40149E-05         0.00000E+00
    0.36561E-06        -0.37592E-05         0.00000E+00
    0.33425E-06        -0.35020E-05         0.00000E+00
    0.30553E-06        -0.32433E-05         0.00000E+00
    0.27896E-06        -0.29830E-05         0.00000E+00
    0.25403E-06        -0.27209E-05         0.00000E+00
    0.23027E-06        -0.24570E-05         0.00000E+00
    0.20719E-06        -0.21913E-05         0.00000E+00
    0.18433E-06        -0.19237E-05         0.00000E+00
    0.16126E-06        -0.16543E-05         0.00000E+00
    0.13757E-06        -0.13829E-05         0.00000E+00
    0.11292E-06        -0.11097E-05         0.00000E+00
    0.87014E-07        -0.83463E-06         0.00000E+00
    0.59649E-07        -0.55789E-06         0.00000E+00
    0.30674E-07        -0.27962E-06         0.00000E+00
    0.00000E+00         0.00000E+00         0.00000E+00
    0.35719E-06        -0.40498E-05         0.00000E+00
    0.32570E-06        -0.37923E-05         0.00000E+00
    0.29753E-06        -0.35333E-05         0.00000E+00
    0.27211E-06        -0.32726E-05         0.00000E+00
    0.24890E-06        -0.30102E-05         0.00000E+00
    0.22734E-06        -0.27461E-05         0.00000E+00
    0.20690E-06        -0.24801E-05         0.00000E+00
    0.18709E-06        -0.22123E-05         0.00000E+00
    0.16742E-06        -0.19426E-05         0.00000E+00
    0.14743E-06        -0.16710E-05         0.00000E+00
    0.12669E-06        -0.13975E-05         0.00000E+00
    0.10479E-06        -0.11219E-05         0.00000E+00
    0.81402E-07        -0.84423E-06         0.00000E+00
    0.56252E-07        -0.56461E-06         0.00000E+00
    0.29154E-07        -0.28314E-06         0.00000E+00
    0.00000E+00         0.00000E+00         0.00000E+00
    0.30965E-06        -0.40815E-05         0.00000E+00
    0.28158E-06        -0.38223E-05         0.00000E+00
    0.25699E-06        -0.35614E-05         0.00000E+00
    0.23522E-06        -0.32988E-05         0.00000E+00
    0.21564E-06        -0.30344E-05         0.00000E+00
    0.19765E-06        -0.27682E-05         0.00000E+00
    0.18069E-06        -0.25003E-05         0.00000E+00
    0.16428E-06        -0.22306E-05         0.00000E+00
    0.14794E-06        -0.19592E-05         0.00000E+00
    0.13122E-06        -0.16858E-05         0.00000E+00
    0.11368E-06        -0.14104E-05         0.00000E+00
    0.94890E-07        -0.11329E-05         0.00000E+00
    0.74417E-07        -0.85304E-06         0.00000E+00
    0.51922E-07        -0.57089E-06         0.00000E+00
    0.27164E-07        -0.28650E-06         0.00000E+00
    0.00000E+00         0.00000E+00         0.00000E+00
    0.25740E-06        -0.41097E-05         0.00000E+00
    0.23324E-06        -0.38487E-05         0.00000E+00
    0.21267E-06        -0.35860E-05         0.00000E+00
    0.19490E-06        -0.33214E-05         0.00000E+00
    0.17918E-06        -0.30550E-05         0.00000E+00
    0.16489E-06        -0.27869E-05         0.00000E+00
    0.15148E-06        -0.25172E-05         0.00000E+00
    0.13851E-06        -0.22460E-05         0.00000E+00
    0.12556E-06        -0.19730E-05         0.00000E+00
    0.11223E-06        -0.16983E-05         0.00000E+00
    0.98115E-07        -0.14215E-05         0.00000E+00
    0.82756E-07        -0.11425E-05         0.00000E+00
    0.65663E-07        -0.86093E-06         0.00000E+00
    0.46376E-07        -0.57667E-06         0.00000E+00
    0.24554E-07        -0.28967E-06         0.00000E+00
    0.00000E+00         0.00000E+00         0.00000E+00
    0.20038E-06        -0.41338E-05         0.00000E+00
    0.18072E-06        -0.38711E-05         0.00000E+00
    0.16467E-06        -0.36064E-05         0.00000E+00
    0.15122E-06        -0.33398E-05         0.00000E+00
    0.13953E-06        -0.30715E-05         0.00000E+00
    0.12896E-06        -0.28018E-05         0.00000E+00
    0.11908E-06        -0.25306E-05         0.00000E+00
    0.10951E-06        -0.22581E-05         0.00000E+00
    0.99932E-07        -0.19840E-05         0.00000E+00
    0.90030E-07        -0.17082E-05         0.00000E+00
    0.79460E-07        -0.14304E-05         0.00000E+00
    0.67821E-07        -0.11504E-05         0.00000E+00
    0.54603E-07        -0.86767E-06         0.00000E+00
    0.39205E-07        -0.58183E-06         0.00000E+00
    0.21107E-07        -0.29263E-06         0.00000E+00
    0.00000E+00         0.00000E+00         0.00000E+00
    0.13849E-06        -0.41531E-05         0.00000E+00
    0.12414E-06        -0.38886E-05         0.00000E+00
    0.11317E-06        -0.36219E-05         0.00000E+00
    0.10426E-06        -0.33535E-05         0.00000E+00
    0.96599E-07        -0.30836E-05         0.00000E+00
    0.89692E-07        -0.28125E-05         0.00000E+00
    0.83232E-07        -0.25402E-05         0.00000E+00
    0.76971E-07        -0.22667E-05         0.00000E+00
    0.70692E-07        -0.19918E-05         0.00000E+00
    0.64179E-07        -0.17153E-05         0.00000E+00
    0.57191E-07        -0.14369E-05         0.00000E+00
    0.49438E-07        -0.11563E-05         0.00000E+00
    0.40507E-07        -0.87291E-06         0.00000E+00
    0.29785E-07        -0.58617E-06         0.00000E+00
    0.16477E-07        -0.29533E-06         0.00000E+00
    0.00000E+00         0.00000E+00         0.00000E+00
    0.71649E-07        -0.41666E-05         0.00000E+00
    0.63763E-07        -0.39003E-05         0.00000E+00
    0.58322E-07        -0.36317E-05         0.00000E+00
    0.53955E-07        -0.33619E-05         0.00000E+00
    0.50200E-07        -0.30909E-05         0.00000E+00
    0.46815E-07        -0.28190E-05         0.00000E+00
    0.43647E-07        -0.25460E-05         0.00000E+00
    0.40576E-07        -0.22718E-05         0.00000E+00
    0.37491E-07        -0.19964E-05         0.00000E+00
    0.34284E-07        -0.17195E-05         0.00000E+00
    0.30836E-07        -0.14408E-05         0.00000E+00
    0.26996E-07        -0.11598E-05         0.00000E+00
    0.22547E-07        -0.87624E-06         0.00000E+00
    0.17103E-07        -0.58920E-06         0.00000E+00
    0.10001E-07        -0.29761E-06         0.00000E+00
    0.00000E+00         0.00000E+00         0.00000E+00
    0.00000E+00        -0.41723E-05         0.00000E+00
    0.00000E+00        -0.39045E-05         0.00000E+00
    0.00000E+00        -0.36351E-05         0.00000E+00
    0.00000E+00        -0.33647E-05         0.00000E+00
    0.00000E+00        -0.30934E-05         0.00000E+00
    0.00000E+00        -0.28211E-05         0.00000E+00
    0.00000E+00        -0.25479E-05         0.00000E+00
    0.00000E+00        -0.22735E-05         0.00000E+00
    0.00000E+00        -0.19979E-05         0.00000E+00
    0.00000E+00        -0.17209E-05         0.00000E+00
    0.00000E+00        -0.14420E-05         0.00000E+00
    0.00000E+00        -0.11610E-05         0.00000E+00
    0.00000E+00        -0.87738E-06         0.00000E+00
    0.00000E+00        -0.59031E-06         0.00000E+00
    0.00000E+00        -0.29864E-06         0.00000E+00
    0.00000E+00         0.00000E+00         0.00000E+00
CELL_DATA        450
VECTORS vDarcy double 
    0.34700E-05         0.56784E-14         0.00000E+00
    0.34700E-05         0.13328E-13         0.00000E+00
    0.34700E-05         0.15422E-13         0.00000E+00
    0.34700E-05         0.15511E-13         0.00000E+00
    0.34700E-05         0.15468E-13         0.00000E+00
    0.34700E-05         0.15277E-13         0.00000E+00
    0.34700E-05         0.14730E-13         0.00000E+00
    0.34700E-05         0.13862E-13         0.00000E+00
    0.34700E-05         0.12736E-13         0.00000E+00
    0.34700E-05         0.11382E-13         0.00000E+00
    0.34700E-05         0.98186E-14         0.00000E+00
    0.34700E-05         0.80520E-14         0.00000E+00
    0.34700E-05         0.60646E-14         0.00000E+00
    0.34700E-05         0.38298E-14         0.00000E+00
    0.34700E-05         0.13233E-14         0.00000E+00
    0.34700E-05         0.68885E-15         0.00000E+00
    0.34700E-05         0.25267E-14         0.00000E+00
    0.34700E-05         0.47330E-14         0.00000E+00
    0.34700E-05         0.65293E-14         0.00000E+00
    0.34700E-05         0.76219E-14         0.00000E+00
    0.34700E-05         0.81208E-14         0.00000E+00
    0.34700E-05         0.82358E-14         0.00000E+00
    0.34700E-05         0.80177E-14         0.00000E+00
    0.34700E-05         0.74982E-14         0.00000E+00
    0.34700E-05         0.67229E-14         0.00000E+00
    0.34700E-05         0.57359E-14         0.00000E+00
    0.34700E-05         0.45643E-14         0.00000E+00
    0.34700E-05         0.32484E-14         0.00000E+00
    0.34700E-05         0.18638E-14         0.00000E+00
    0.34700E-05         0.58351E-15         0.00000E+00
    0.34700E-05        -0.40890E-15         0.00000E+00
    0.34700E-05        -0.36690E-15         0.00000E+00
    0.34700E-05         0.10001E-14         0.00000E+00
    0.34700E-05         0.24127E-14         0.00000E+00
    0.34700E-05         0.31524E-14         0.00000E+00
    0.34700E-05         0.35298E-14         0.00000E+00
    0.34700E-05         0.37224E-14         0.00000E+00
    0.34700E-05         0.37384E-14         0.00000E+00
    0.34700E-05         0.35621E-14         0.00000E+00
    0.34700E-05         0.32108E-14         0.00000E+00
    0.34700E-05         0.27081E-14         0.00000E+00
    0.34700E-05         0.21021E-14         0.00000E+00
    0.34700E-05         0.14682E-14         0.00000E+00
    0.34700E-05         0.88706E-15         0.00000E+00
    0.34700E-05         0.30971E-15         0.00000E+00
    0.34700E-05        -0.18959E-15         0.00000E+00
    0.34700E-05        -0.16790E-15         0.00000E+00
    0.34700E-05         0.24022E-15         0.00000E+00
    0.34700E-05         0.55298E-15         0.00000E+00
    0.34700E-05         0.72663E-15         0.00000E+00
    0.34700E-05         0.81086E-15         0.00000E+00
    0.34700E-05         0.85015E-15         0.00000E+00
    0.34700E-05         0.85796E-15         0.00000E+00
    0.34700E-05         0.82488E-15         0.00000E+00
    0.34700E-05         0.74439E-15         0.00000E+00
    0.34700E-05         0.62369E-15         0.00000E+00
    0.34700E-05         0.49073E-15         0.00000E+00
    0.34700E-05         0.37791E-15         0.00000E+00
    0.34700E-05         0.27113E-15         0.00000E+00
    0.34700E-05         0.10613E-15         0.00000E+00
    0.34700E-05        -0.24564E-15         0.00000E+00
    0.34700E-05        -0.58249E-15         0.00000E+00
    0.34700E-05        -0.65298E-15         0.00000E+00
    0.34700E-05        -0.63927E-15         0.00000E+00
    0.34700E-05        -0.69504E-15         0.00000E+00
    0.34700E-05        -0.79502E-15         0.00000E+00
    0.34700E-05        -0.88516E-15         0.00000E+00
    0.34700E-05        -0.93203E-15         0.00000E+00
    0.34700E-05        -0.91510E-15         0.00000E+00
    0.34700E-05        -0.83664E-15         0.00000E+00
    0.34700E-05        -0.70259E-15         0.00000E+00
    0.34700E-05        -0.52144E-15         0.00000E+00
    0.34700E-05        -0.32230E-15         0.00000E+00
    0.34700E-05        -0.14872E-15         0.00000E+00
    0.34700E-05        -0.36986E-16         0.00000E+00
    0.34700E-05        -0.47275E-15         0.00000E+00
    0.34700E-05        -0.11528E-14         0.00000E+00
    0.34700E-05        -0.14459E-14         0.00000E+00
    0.34700E-05        -0.15882E-14         0.00000E+00
    0.34700E-05        -0.17074E-14         0.00000E+00
    0.34700E-05        -0.18364E-14         0.00000E+00
    0.34700E-05        -0.19462E-14         0.00000E+00
    0.34700E-05        -0.19886E-14         0.00000E+00
    0.34700E-05        -0.19308E-14         0.00000E+00
    0.34700E-05        -0.17624E-14         0.00000E+00
    0.34700E-05        -0.14909E-14         0.00000E+00
    0.34700E-05        -0.11451E-14         0.00000E+00
    0.34700E-05        -0.77429E-15         0.00000E+00
    0.34700E-05        -0.43035E-15         0.00000E+00
    0.34700E-05        -0.13555E-15         0.00000E+00
    0.34700E-05        -0.59120E-15         0.00000E+00
    0.34700E-05        -0.15203E-14         0.00000E+00
    0.34700E-05        -0.20429E-14         0.00000E+00
    0.34700E-05        -0.23252E-14         0.00000E+00
    0.34700E-05        -0.24794E-14         0.00000E+00
    0.34700E-05        -0.25759E-14         0.00000E+00
    0.34700E-05        -0.26290E-14         0.00000E+00
    0.34700E-05        -0.26120E-14         0.00000E+00
    0.34700E-05        -0.24960E-14         0.00000E+00
    0.34700E-05        -0.22677E-14         0.00000E+00
    0.34700E-05        -0.19332E-14         0.00000E+00
    0.34700E-05        -0.15190E-14         0.00000E+00
    0.34700E-05        -0.10657E-14         0.00000E+00
    0.34700E-05        -0.61593E-15         0.00000E+00
    0.34700E-05        -0.19846E-15         0.00000E+00
    0.34700E-05        -0.65689E-15         0.00000E+00
    0.34700E-05        -0.17475E-14         0.00000E+00
    0.34700E-05        -0.24397E-14         0.00000E+00
    0.34700E-05        -0.28337E-14         0.00000E+00
    0.34700E-05        -0.30302E-14         0.00000E+00
    0.34700E-05        -0.31057E-14         0.00000E+00
    0.34700E-05        -0.30951E-14         0.00000E+00
    0.34700E-05        -0.30026E-14         0.00000E+00
    0.34700E-05        -0.28199E-14         0.00000E+00
    0.34700E-05        -0.25412E-14         0.00000E+00
    0.34700E-05        -0.21731E-14         0.00000E+00
    0.34700E-05        -0.17334E-14         0.00000E+00
    0.34700E-05        -0.12471E-14         0.00000E+00
    0.34700E-05        -0.73972E-15         0.00000E+00
    0.34700E-05        -0.24200E-15         0.00000E+00
    0.34700E-05        -0.69844E-15         0.00000E+00
    0.34700E-05        -0.18794E-14         0.00000E+00
    0.34700E-05        -0.26685E-14         0.00000E+00
    0.34700E-05        -0.31467E-14         0.00000E+00
    0.34700E-05        -0.33926E-14         0.00000E+00
    0.34700E-05        -0.34699E-14         0.00000E+00
    0.34700E-05        -0.34217E-14         0.00000E+00
    0.34700E-05        -0.32719E-14         0.00000E+00
    0.34700E-05        -0.30316E-14         0.00000E+00
    0.34700E-05        -0.27087E-14         0.00000E+00
    0.34700E-05        -0.23129E-14         0.00000E+00
    0.34700E-05        -0.18557E-14         0.00000E+00
    0.34700E-05        -0.13520E-14         0.00000E+00
    0.34700E-05        -0.81953E-15         0.00000E+00
    0.34700E-05        -0.27425E-15         0.00000E+00
    0.34700E-05        -0.71098E-15         0.00000E+00
    0.34700E-05        -0.19308E-14         0.00000E+00
    0.34700E-05        -0.27789E-14         0.00000E+00
    0.34700E-05        -0.33201E-14         0.00000E+00
    0.34700E-05        -0.36142E-14         0.00000E+00
    0.34700E-05        -0.37112E-14         0.00000E+00
    0.34700E-05        -0.36534E-14         0.00000E+00
    0.34700E-05        -0.34742E-14         0.00000E+00
    0.34700E-05        -0.31977E-14         0.00000E+00
    0.34700E-05        -0.28410E-14         0.00000E+00
    0.34700E-05        -0.24180E-14         0.00000E+00
    0.34700E-05        -0.19411E-14         0.00000E+00
    0.34700E-05        -0.14208E-14         0.00000E+00
    0.34700E-05        -0.86880E-15         0.00000E+00
    0.34700E-05        -0.29334E-15         0.00000E+00
    0.34700E-05        -0.70529E-15         0.00000E+00
    0.34700E-05        -0.19324E-14         0.00000E+00
    0.34700E-05        -0.28172E-14         0.00000E+00
    0.34700E-05        -0.34065E-14         0.00000E+00
    0.34700E-05        -0.37440E-14         0.00000E+00
    0.34700E-05        -0.38703E-14         0.00000E+00
    0.34700E-05        -0.38240E-14         0.00000E+00
    0.34700E-05        -0.36397E-14         0.00000E+00
    0.34700E-05        -0.33472E-14         0.00000E+00
    0.34700E-05        -0.29696E-14         0.00000E+00
    0.34700E-05        -0.25245E-14         0.00000E+00
    0.34700E-05        -0.20262E-14         0.00000E+00
    0.34700E-05        -0.14851E-14         0.00000E+00
    0.34700E-05        -0.90718E-15         0.00000E+00
    0.34700E-05        -0.30469E-15         0.00000E+00
    0.34700E-05        -0.69301E-15         0.00000E+00
    0.34700E-05        -0.19145E-14         0.00000E+00
    0.34700E-05        -0.28222E-14         0.00000E+00
    0.34700E-05        -0.34475E-14         0.00000E+00
    0.34700E-05        -0.38229E-14         0.00000E+00
    0.34700E-05        -0.39821E-14         0.00000E+00
    0.34700E-05        -0.39587E-14         0.00000E+00
    0.34700E-05        -0.37851E-14         0.00000E+00
    0.34700E-05        -0.34915E-14         0.00000E+00
    0.34700E-05        -0.31039E-14         0.00000E+00
    0.34700E-05        -0.26427E-14         0.00000E+00
    0.34700E-05        -0.21229E-14         0.00000E+00
    0.34700E-05        -0.15564E-14         0.00000E+00
    0.34700E-05        -0.95185E-15         0.00000E+00
    0.34700E-05        -0.32041E-15         0.00000E+00
    0.34700E-05        -0.68206E-15         0.00000E+00
    0.34700E-05        -0.18962E-14         0.00000E+00
    0.34700E-05        -0.28195E-14         0.00000E+00
    0.34700E-05        -0.34734E-14         0.00000E+00
    0.34700E-05        -0.38825E-14         0.00000E+00
    0.34700E-05        -0.40743E-14         0.00000E+00
    0.34700E-05        -0.40774E-14         0.00000E+00
    0.34700E-05        -0.39214E-14         0.00000E+00
    0.34700E-05        -0.36349E-14         0.00000E+00
    0.34700E-05        -0.32434E-14         0.00000E+00
    0.34700E-05        -0.27686E-14         0.00000E+00
    0.34700E-05        -0.22278E-14         0.00000E+00
    0.34700E-05        -0.16359E-14         0.00000E+00
    0.34700E-05        -0.10063E-14         0.00000E+00
    0.34700E-05        -0.34188E-15         0.00000E+00
    0.34700E-05        -0.67548E-15         0.00000E+00
    0.34700E-05        -0.18869E-14         0.00000E+00
    0.34700E-05        -0.28251E-14         0.00000E+00
    0.34700E-05        -0.35048E-14         0.00000E+00
    0.34700E-05        -0.39447E-14         0.00000E+00
    0.34700E-05        -0.41671E-14         0.00000E+00
    0.34700E-05        -0.41965E-14         0.00000E+00
    0.34700E-05        -0.40590E-14         0.00000E+00
    0.34700E-05        -0.37814E-14         0.00000E+00
    0.34700E-05        -0.33878E-14         0.00000E+00
    0.34700E-05        -0.29012E-14         0.00000E+00
    0.34700E-05        -0.23407E-14         0.00000E+00
    0.34700E-05        -0.17231E-14         0.00000E+00
    0.34700E-05        -0.10616E-14         0.00000E+00
    0.34700E-05        -0.36065E-15         0.00000E+00
    0.34700E-05        -0.67467E-15         0.00000E+00
    0.34700E-05        -0.18919E-14         0.00000E+00
    0.34700E-05        -0.28485E-14         0.00000E+00
    0.34700E-05        -0.35540E-14         0.00000E+00
    0.34700E-05        -0.40225E-14         0.00000E+00
    0.34700E-05        -0.42724E-14         0.00000E+00
    0.34700E-05        -0.43251E-14         0.00000E+00
    0.34700E-05        -0.42043E-14         0.00000E+00
    0.34700E-05        -0.39343E-14         0.00000E+00
    0.34700E-05        -0.35390E-14         0.00000E+00
    0.34700E-05        -0.30413E-14         0.00000E+00
    0.34700E-05        -0.24611E-14         0.00000E+00
    0.34700E-05        -0.18151E-14         0.00000E+00
    0.34700E-05        -0.11152E-14         0.00000E+00
    0.34700E-05        -0.37657E-15         0.00000E+00
    0.34700E-05        -0.68124E-15         0.00000E+00
    0.34700E-05        -0.19151E-14         0.00000E+00
    0.34700E-05        -0.28944E-14         0.00000E+00
    0.34700E-05        -0.36260E-14         0.00000E+00
    0.34700E-05        -0.41209E-14         0.00000E+00
    0.34700E-05        -0.43949E-14         0.00000E+00
    0.34700E-05        -0.44672E-14         0.00000E+00
    0.34700E-05        -0.43595E-14         0.00000E+00
    0.34700E-05        -0.40949E-14         0.00000E+00
    0.34700E-05        -0.36967E-14         0.00000E+00
    0.34700E-05        -0.31864E-14         0.00000E+00
    0.34700E-05        -0.25843E-14         0.00000E+00
    0.34700E-05        -0.19079E-14         0.00000E+00
    0.34700E-05        -0.11723E-14         0.00000E+00
    0.34700E-05        -0.39583E-15         0.00000E+00
    0.34700E-05        -0.69499E-15         0.00000E+00
    0.34700E-05        -0.19563E-14         0.00000E+00
    0.34700E-05        -0.29627E-14         0.00000E+00
    0.34700E-05        -0.37204E-14         0.00000E+00
    0.34700E-05        -0.42393E-14         0.00000E+00
    0.34700E-05        -0.45337E-14         0.00000E+00
    0.34700E-05        -0.46215E-14         0.00000E+00
    0.34700E-05        -0.45232E-14         0.00000E+00
    0.34700E-05        -0.42604E-14         0.00000E+00
    0.34700E-05        -0.38552E-14         0.00000E+00
    0.34700E-05        -0.33291E-14         0.00000E+00
    0.34700E-05        -0.27029E-14         0.00000E+00
    0.34700E-05        -0.19976E-14         0.00000E+00
    0.34700E-05        -0.12324E-14         0.00000E+00
    0.34700E-05        -0.41849E-15         0.00000E+00
    0.34700E-05        -0.71408E-15         0.00000E+00
    0.34700E-05        -0.20111E-14         0.00000E+00
    0.34700E-05        -0.30482E-14         0.00000E+00
    0.34700E-05        -0.38318E-14         0.00000E+00
    0.34700E-05        -0.43718E-14         0.00000E+00
    0.34700E-05        -0.46824E-14         0.00000E+00
    0.34700E-05        -0.47810E-14         0.00000E+00
    0.34700E-05        -0.46870E-14         0.00000E+00
    0.34700E-05        -0.44211E-14         0.00000E+00
    0.34700E-05        -0.40050E-14         0.00000E+00
    0.34700E-05        -0.34614E-14         0.00000E+00
    0.34700E-05        -0.28137E-14         0.00000E+00
    0.34700E-05        -0.20837E-14         0.00000E+00
    0.34700E-05        -0.12896E-14         0.00000E+00
    0.34700E-05        -0.43934E-15         0.00000E+00
    0.34700E-05        -0.73682E-15         0.00000E+00
    0.34700E-05        -0.20744E-14         0.00000E+00
    0.34700E-05        -0.31429E-14         0.00000E+00
    0.34700E-05        -0.39500E-14         0.00000E+00
    0.34700E-05        -0.45068E-14         0.00000E+00
    0.34700E-05        -0.48284E-14         0.00000E+00
    0.34700E-05        -0.49320E-14         0.00000E+00
    0.34700E-05        -0.48373E-14         0.00000E+00
    0.34700E-05        -0.45650E-14         0.00000E+00
    0.34700E-05        -0.41380E-14         0.00000E+00
    0.34700E-05        -0.35804E-14         0.00000E+00
    0.34700E-05        -0.29157E-14         0.00000E+00
    0.34700E-05        -0.21637E-14         0.00000E+00
    0.34700E-05        -0.13392E-14         0.00000E+00
    0.34700E-05        -0.45521E-15         0.00000E+00
    0.34700E-05        -0.76108E-15         0.00000E+00
    0.34700E-05        -0.21401E-14         0.00000E+00
    0.34700E-05        -0.32370E-14         0.00000E+00
    0.34700E-05        -0.40620E-14         0.00000E+00
    0.34700E-05        -0.46289E-14         0.00000E+00
    0.34700E-05        -0.49545E-14         0.00000E+00
    0.34700E-05        -0.50576E-14         0.00000E+00
    0.34700E-05        -0.49591E-14         0.00000E+00
    0.34700E-05        -0.46806E-14         0.00000E+00
    0.34700E-05        -0.42464E-14         0.00000E+00
    0.34700E-05        -0.36800E-14         0.00000E+00
    0.34700E-05        -0.30025E-14         0.00000E+00
    0.34700E-05        -0.22312E-14         0.00000E+00
    0.34700E-05        -0.13802E-14         0.00000E+00
    0.34700E-05        -0.46823E-15         0.00000E+00
    0.34700E-05        -0.78469E-15         0.00000E+00
    0.34700E-05        -0.22015E-14         0.00000E+00
    0.34700E-05        -0.33193E-14         0.00000E+00
    0.34700E-05        -0.41525E-14         0.00000E+00
    0.34700E-05        -0.47192E-14         0.00000E+00
    0.34700E-05        -0.50401E-14         0.00000E+00
    0.34700E-05        -0.51373E-14         0.00000E+00
    0.34700E-05        -0.50337E-14         0.00000E+00
    0.34700E-05        -0.47524E-14         0.00000E+00
    0.34700E-05        -0.43170E-14         0.00000E+00
    0.34700E-05        -0.37486E-14         0.00000E+00
    0.34700E-05        -0.30652E-14         0.00000E+00
    0.34700E-05        -0.22820E-14         0.00000E+00
    0.34700E-05        -0.14158E-14         0.00000E+00
    0.34700E-05        -0.48227E-15         0.00000E+00
    0.34700E-05        -0.80559E-15         0.00000E+00
    0.34700E-05        -0.22521E-14         0.00000E+00
    0.34700E-05        -0.33787E-14         0.00000E+00
    0.34700E-05        -0.42053E-14         0.00000E+00
    0.34700E-05        -0.47569E-14         0.00000E+00
    0.34700E-05        -0.50611E-14         0.00000E+00
    0.34700E-05        -0.51457E-14         0.00000E+00
    0.34700E-05        -0.50370E-14         0.00000E+00
    0.34700E-05        -0.47589E-14         0.00000E+00
    0.34700E-05        -0.43320E-14         0.00000E+00
    0.34700E-05        -0.37732E-14         0.00000E+00
    0.34700E-05        -0.30961E-14         0.00000E+00
    0.34700E-05        -0.23153E-14         0.00000E+00
    0.34700E-05        -0.14454E-14         0.00000E+00
    0.34700E-05        -0.49490E-15         0.00000E+00
    0.34700E-05        -0.82206E-15         0.00000E+00
    0.34700E-05        -0.22865E-14         0.00000E+00
    0.34700E-05        -0.34040E-14         0.00000E+00
    0.34700E-05        -0.42029E-14         0.00000E+00
    0.34700E-05        -0.47185E-14         0.00000E+00
    0.34700E-05        -0.49895E-14         0.00000E+00
    0.34700E-05        -0.50526E-14         0.00000E+00
    0.34700E-05        -0.49397E-14         0.00000E+00
    0.34700E-05        -0.46743E-14         0.00000E+00
    0.34700E-05        -0.42715E-14         0.00000E+00
    0.34700E-05        -0.37407E-14         0.00000E+00
    0.34700E-05        -0.30895E-14         0.00000E+00
    0.34700E-05        -0.23280E-14         0.00000E+00
    0.34700E-05        -0.14640E-14         0.00000E+00
    0.34700E-05        -0.50347E-15         0.00000E+00
    0.34700E-05        -0.83329E-15         0.00000E+00
    0.34700E-05        -0.23000E-14         0.00000E+00
    0.34700E-05        -0.33841E-14         0.00000E+00
    0.34700E-05        -0.41262E-14         0.00000E+00
    0.34700E-05        -0.45780E-14         0.00000E+00
    0.34700E-05        -0.47946E-14         0.00000E+00
    0.34700E-05        -0.48261E-14         0.00000E+00
    0.34700E-05        -0.47110E-14         0.00000E+00
    0.34700E-05        -0.44712E-14         0.00000E+00
    0.34700E-05        -0.41140E-14         0.00000E+00
    0.34700E-05        -0.36372E-14         0.00000E+00
    0.34700E-05        -0.30375E-14         0.00000E+00
    0.34700E-05        -0.23144E-14         0.00000E+00
    0.34700E-05        -0.14699E-14         0.00000E+00
    0.34700E-05        -0.50903E-15         0.00000E+00
    0.34700E-05        -0.83872E-15         0.00000E+00
    0.34700E-05        -0.22878E-14         0.00000E+00
    0.34700E-05        -0.33052E-14         0.00000E+00
    0.34700E-05        -0.39525E-14         0.00000E+00
    0.34700E-05        -0.43070E-14         0.00000E+00
    0.34700E-05        -0.44473E-14         0.00000E+00
    0.34700E-05        -0.44388E-14         0.00000E+00
    0.34700E-05        -0.43245E-14         0.00000E+00
    0.34700E-05        -0.41239E-14         0.00000E+00
    0.34700E-05        -0.38358E-14         0.00000E+00
    0.34700E-05        -0.34442E-14         0.00000E+00
    0.34700E-05        -0.29273E-14         0.00000E+00
    0.34700E-05        -0.22684E-14         0.00000E+00
    0.34700E-05        -0.14624E-14         0.00000E+00
    0.34700E-05        -0.51146E-15         0.00000E+00
    0.34700E-05        -0.83735E-15         0.00000E+00
    0.34700E-05        -0.22418E-14         0.00000E+00
    0.34700E-05        -0.31463E-14         0.00000E+00
    0.34700E-05        -0.36511E-14         0.00000E+00
    0.34700E-05        -0.38754E-14         0.00000E+00
    0.34700E-05        -0.39258E-14         0.00000E+00
    0.34700E-05        -0.38762E-14         0.00000E+00
    0.34700E-05        -0.37674E-14         0.00000E+00
    0.34700E-05        -0.36146E-14         0.00000E+00
    0.34700E-05        -0.34119E-14         0.00000E+00
    0.34700E-05        -0.31341E-14         0.00000E+00
    0.34700E-05        -0.27377E-14         0.00000E+00
    0.34700E-05        -0.21800E-14         0.00000E+00
    0.34700E-05        -0.14389E-14         0.00000E+00
    0.34700E-05        -0.51059E-15         0.00000E+00
    0.34700E-05        -0.82629E-15         0.00000E+00
    0.34700E-05        -0.21438E-14         0.00000E+00
    0.34700E-05        -0.28683E-14         0.00000E+00
    0.34700E-05        -0.31786E-14         0.00000E+00
    0.34700E-05        -0.32569E-14         0.00000E+00
    0.34700E-05        -0.32258E-14         0.00000E+00
    0.34700E-05        -0.31470E-14         0.00000E+00
    0.34700E-05        -0.30496E-14         0.00000E+00
    0.34700E-05        -0.29437E-14         0.00000E+00
    0.34700E-05        -0.28244E-14         0.00000E+00
    0.34700E-05        -0.26701E-14         0.00000E+00
    0.34700E-05        -0.24319E-14         0.00000E+00
    0.34700E-05        -0.20277E-14         0.00000E+00
    0.34700E-05        -0.13923E-14         0.00000E+00
    0.34700E-05        -0.50636E-15         0.00000E+00
    0.34700E-05        -0.79462E-15         0.00000E+00
    0.34700E-05        -0.19455E-14         0.00000E+00
    0.34700E-05        -0.23942E-14         0.00000E+00
    0.34700E-05        -0.24851E-14         0.00000E+00
    0.34700E-05        -0.24494E-14         0.00000E+00
    0.34700E-05        -0.23722E-14         0.00000E+00
    0.34700E-05        -0.22871E-14         0.00000E+00
    0.34700E-05        -0.22083E-14         0.00000E+00
    0.34700E-05        -0.21407E-14         0.00000E+00
    0.34700E-05        -0.20834E-14         0.00000E+00
    0.34700E-05        -0.20272E-14         0.00000E+00
    0.34700E-05        -0.19443E-14         0.00000E+00
    0.34700E-05        -0.17581E-14         0.00000E+00
    0.34700E-05        -0.13054E-14         0.00000E+00
    0.34700E-05        -0.49282E-15         0.00000E+00
    0.34700E-05        -0.69567E-15         0.00000E+00
    0.34700E-05        -0.15073E-14         0.00000E+00
    0.34700E-05        -0.16139E-14         0.00000E+00
    0.34700E-05        -0.15701E-14         0.00000E+00
    0.34700E-05        -0.14976E-14         0.00000E+00
    0.34700E-05        -0.14238E-14         0.00000E+00
    0.34700E-05        -0.13586E-14         0.00000E+00
    0.34700E-05        -0.13058E-14         0.00000E+00
    0.34700E-05        -0.12672E-14         0.00000E+00
    0.34700E-05        -0.12440E-14         0.00000E+00
    0.34700E-05        -0.12358E-14         0.00000E+00
    0.34700E-05        -0.12394E-14         0.00000E+00
    0.34700E-05        -0.12339E-14         0.00000E+00
    0.34700E-05        -0.11036E-14         0.00000E+00
    0.34700E-05        -0.49148E-15         0.00000E+00
    0.34700E-05        -0.30990E-15         0.00000E+00
    0.34700E-05        -0.60112E-15         0.00000E+00
    0.34700E-05        -0.56620E-15         0.00000E+00
    0.34700E-05        -0.53160E-15         0.00000E+00
    0.34700E-05        -0.49737E-15         0.00000E+00
    0.34700E-05        -0.46768E-15         0.00000E+00
    0.34700E-05        -0.44315E-15         0.00000E+00
    0.34700E-05        -0.42424E-15         0.00000E+00
    0.34700E-05        -0.41126E-15         0.00000E+00
    0.34700E-05        -0.40486E-15         0.00000E+00
    0.34700E-05        -0.40590E-15         0.00000E+00
    0.34700E-05        -0.41707E-15         0.00000E+00
    0.34700E-05        -0.44164E-15         0.00000E+00
    0.34700E-05        -0.47912E-15         0.00000E+00
    0.34700E-05        -0.25037E-15         0.00000E+00
POINT_DATA        496
VECTORS vDarcyNodal double 
    0.34700E-05         0.94398E-14         0.00000E+00
    0.34700E-05         0.15202E-13         0.00000E+00
    0.34700E-05         0.21826E-13         0.00000E+00
    0.34700E-05         0.22127E-13         0.00000E+00
    0.34700E-05         0.20992E-13         0.00000E+00
    0.34700E-05         0.19994E-13         0.00000E+00
    0.34700E-05         0.19035E-13         0.00000E+00
    0.34700E-05         0.17842E-13         0.00000E+00
    0.34700E-05         0.16435E-13         0.00000E+00
    0.34700E-05         0.14848E-13         0.00000E+00
    0.34700E-05         0.13071E-13         0.00000E+00
    0.34700E-05         0.11099E-13         0.00000E+00
    0.34700E-05         0.89155E-14         0.00000E+00
    0.34700E-05         0.64756E-14         0.00000E+00
    0.34700E-05         0.35475E-14         0.00000E+00
    0.34700E-05         0.19097E-14         0.00000E+00
    0.34700E-05         0.19169E-14         0.00000E+00
    0.34700E-05         0.38051E-14         0.00000E+00
    0.34700E-05         0.69248E-14         0.00000E+00
    0.34700E-05         0.88065E-14         0.00000E+00
    0.34700E-05         0.99878E-14         0.00000E+00
    0.34700E-05         0.10752E-13         0.00000E+00
    0.34700E-05         0.10973E-13         0.00000E+00
    0.34700E-05         0.10749E-13         0.00000E+00
    0.34700E-05         0.10162E-13         0.00000E+00
    0.34700E-05         0.92697E-14         0.00000E+00
    0.34700E-05         0.81292E-14         0.00000E+00
    0.34700E-05         0.67716E-14         0.00000E+00
    0.34700E-05         0.52011E-14         0.00000E+00
    0.34700E-05         0.34187E-14         0.00000E+00
    0.34700E-05         0.16057E-14         0.00000E+00
    0.34700E-05         0.73698E-15         0.00000E+00
    0.34700E-05        -0.53916E-15         0.00000E+00
    0.34700E-05        -0.58959E-15         0.00000E+00
    0.34700E-05         0.33481E-15         0.00000E+00
    0.34700E-05         0.24558E-14         0.00000E+00
    0.34700E-05         0.41634E-14         0.00000E+00
    0.34700E-05         0.49905E-14         0.00000E+00
    0.34700E-05         0.53840E-14         0.00000E+00
    0.34700E-05         0.55042E-14         0.00000E+00
    0.34700E-05         0.53538E-14         0.00000E+00
    0.34700E-05         0.49514E-14         0.00000E+00
    0.34700E-05         0.43295E-14         0.00000E+00
    0.34700E-05         0.35285E-14         0.00000E+00
    0.34700E-05         0.26116E-14         0.00000E+00
    0.34700E-05         0.16935E-14         0.00000E+00
    0.34700E-05         0.84166E-15         0.00000E+00
    0.34700E-05         0.43004E-15         0.00000E+00
    0.34700E-05        -0.27866E-15         0.00000E+00
    0.34700E-05        -0.18622E-15         0.00000E+00
    0.34700E-05         0.29842E-15         0.00000E+00
    0.34700E-05         0.95705E-15         0.00000E+00
    0.34700E-05         0.14017E-14         0.00000E+00
    0.34700E-05         0.16917E-14         0.00000E+00
    0.34700E-05         0.18682E-14         0.00000E+00
    0.34700E-05         0.19566E-14         0.00000E+00
    0.34700E-05         0.19467E-14         0.00000E+00
    0.34700E-05         0.18215E-14         0.00000E+00
    0.34700E-05         0.15893E-14         0.00000E+00
    0.34700E-05         0.12817E-14         0.00000E+00
    0.34700E-05         0.95869E-15         0.00000E+00
    0.34700E-05         0.66178E-15         0.00000E+00
    0.34700E-05         0.35513E-15         0.00000E+00
    0.34700E-05         0.18936E-15         0.00000E+00
    0.34700E-05        -0.10053E-15         0.00000E+00
    0.34700E-05        -0.17128E-15         0.00000E+00
    0.34700E-05        -0.22610E-15         0.00000E+00
    0.34700E-05        -0.16385E-15         0.00000E+00
    0.34700E-05        -0.12210E-15         0.00000E+00
    0.34700E-05        -0.15420E-15         0.00000E+00
    0.34700E-05        -0.20714E-15         0.00000E+00
    0.34700E-05        -0.24844E-15         0.00000E+00
    0.34700E-05        -0.26382E-15         0.00000E+00
    0.34700E-05        -0.25220E-15         0.00000E+00
    0.34700E-05        -0.22124E-15         0.00000E+00
    0.34700E-05        -0.16733E-15         0.00000E+00
    0.34700E-05        -0.90055E-16         0.00000E+00
    0.34700E-05        -0.12760E-16         0.00000E+00
    0.34700E-05         0.22147E-16         0.00000E+00
    0.34700E-05         0.22926E-16         0.00000E+00
    0.34700E-05        -0.39074E-15         0.00000E+00
    0.34700E-05        -0.65685E-15         0.00000E+00
    0.34700E-05        -0.10093E-14         0.00000E+00
    0.34700E-05        -0.11284E-14         0.00000E+00
    0.34700E-05        -0.12122E-14         0.00000E+00
    0.34700E-05        -0.13359E-14         0.00000E+00
    0.34700E-05        -0.14730E-14         0.00000E+00
    0.34700E-05        -0.15687E-14         0.00000E+00
    0.34700E-05        -0.15833E-14         0.00000E+00
    0.34700E-05        -0.14995E-14         0.00000E+00
    0.34700E-05        -0.13180E-14         0.00000E+00
    0.34700E-05        -0.10567E-14         0.00000E+00
    0.34700E-05        -0.75368E-15         0.00000E+00
    0.34700E-05        -0.45826E-15         0.00000E+00
    0.34700E-05        -0.20786E-15         0.00000E+00
    0.34700E-05        -0.96915E-16         0.00000E+00
    0.34700E-05        -0.55475E-15         0.00000E+00
    0.34700E-05        -0.96867E-15         0.00000E+00
    0.34700E-05        -0.15893E-14         0.00000E+00
    0.34700E-05        -0.19057E-14         0.00000E+00
    0.34700E-05        -0.20834E-14         0.00000E+00
    0.34700E-05        -0.22079E-14         0.00000E+00
    0.34700E-05        -0.23095E-14         0.00000E+00
    0.34700E-05        -0.23660E-14         0.00000E+00
    0.34700E-05        -0.23360E-14         0.00000E+00
    0.34700E-05        -0.21937E-14         0.00000E+00
    0.34700E-05        -0.19354E-14         0.00000E+00
    0.34700E-05        -0.15793E-14         0.00000E+00
    0.34700E-05        -0.11657E-14         0.00000E+00
    0.34700E-05        -0.74639E-15         0.00000E+00
    0.34700E-05        -0.35807E-15         0.00000E+00
    0.34700E-05        -0.17423E-15         0.00000E+00
    0.34700E-05        -0.62762E-15         0.00000E+00
    0.34700E-05        -0.11428E-14         0.00000E+00
    0.34700E-05        -0.19739E-14         0.00000E+00
    0.34700E-05        -0.24624E-14         0.00000E+00
    0.34700E-05        -0.27212E-14         0.00000E+00
    0.34700E-05        -0.28474E-14         0.00000E+00
    0.34700E-05        -0.28954E-14         0.00000E+00
    0.34700E-05        -0.28750E-14         0.00000E+00
    0.34700E-05        -0.27720E-14         0.00000E+00
    0.34700E-05        -0.25701E-14         0.00000E+00
    0.34700E-05        -0.22656E-14         0.00000E+00
    0.34700E-05        -0.18729E-14         0.00000E+00
    0.34700E-05        -0.14190E-14         0.00000E+00
    0.34700E-05        -0.93525E-15         0.00000E+00
    0.34700E-05        -0.45632E-15         0.00000E+00
    0.34700E-05        -0.22269E-15         0.00000E+00
    0.34700E-05        -0.68617E-15         0.00000E+00
    0.34700E-05        -0.12616E-14         0.00000E+00
    0.34700E-05        -0.22133E-14         0.00000E+00
    0.34700E-05        -0.28110E-14         0.00000E+00
    0.34700E-05        -0.31427E-14         0.00000E+00
    0.34700E-05        -0.32885E-14         0.00000E+00
    0.34700E-05        -0.33054E-14         0.00000E+00
    0.34700E-05        -0.32227E-14         0.00000E+00
    0.34700E-05        -0.30505E-14         0.00000E+00
    0.34700E-05        -0.27910E-14         0.00000E+00
    0.34700E-05        -0.24488E-14         0.00000E+00
    0.34700E-05        -0.20336E-14         0.00000E+00
    0.34700E-05        -0.15615E-14         0.00000E+00
    0.34700E-05        -0.10516E-14         0.00000E+00
    0.34700E-05        -0.52542E-15         0.00000E+00
    0.34700E-05        -0.26131E-15         0.00000E+00
    0.34700E-05        -0.71073E-15         0.00000E+00
    0.34700E-05        -0.13163E-14         0.00000E+00
    0.34700E-05        -0.23346E-14         0.00000E+00
    0.34700E-05        -0.30042E-14         0.00000E+00
    0.34700E-05        -0.33966E-14         0.00000E+00
    0.34700E-05        -0.35740E-14         0.00000E+00
    0.34700E-05        -0.35862E-14         0.00000E+00
    0.34700E-05        -0.34709E-14         0.00000E+00
    0.34700E-05        -0.32530E-14         0.00000E+00
    0.34700E-05        -0.29493E-14         0.00000E+00
    0.34700E-05        -0.25729E-14         0.00000E+00
    0.34700E-05        -0.21350E-14         0.00000E+00
    0.34700E-05        -0.16462E-14         0.00000E+00
    0.34700E-05        -0.11200E-14         0.00000E+00
    0.34700E-05        -0.56836E-15         0.00000E+00
    0.34700E-05        -0.28719E-15         0.00000E+00
    0.34700E-05        -0.71120E-15         0.00000E+00
    0.34700E-05        -0.13255E-14         0.00000E+00
    0.34700E-05        -0.23751E-14         0.00000E+00
    0.34700E-05        -0.30948E-14         0.00000E+00
    0.34700E-05        -0.35378E-14         0.00000E+00
    0.34700E-05        -0.37514E-14         0.00000E+00
    0.34700E-05        -0.37783E-14         0.00000E+00
    0.34700E-05        -0.36567E-14         0.00000E+00
    0.34700E-05        -0.34189E-14         0.00000E+00
    0.34700E-05        -0.30894E-14         0.00000E+00
    0.34700E-05        -0.26862E-14         0.00000E+00
    0.34700E-05        -0.22241E-14         0.00000E+00
    0.34700E-05        -0.17157E-14         0.00000E+00
    0.34700E-05        -0.11697E-14         0.00000E+00
    0.34700E-05        -0.59377E-15         0.00000E+00
    0.34700E-05        -0.29947E-15         0.00000E+00
    0.34700E-05        -0.69934E-15         0.00000E+00
    0.34700E-05        -0.13122E-14         0.00000E+00
    0.34700E-05        -0.23746E-14         0.00000E+00
    0.34700E-05        -0.31290E-14         0.00000E+00
    0.34700E-05        -0.36127E-14         0.00000E+00
    0.34700E-05        -0.38628E-14         0.00000E+00
    0.34700E-05        -0.39160E-14         0.00000E+00
    0.34700E-05        -0.38070E-14         0.00000E+00
    0.34700E-05        -0.35680E-14         0.00000E+00
    0.34700E-05        -0.32275E-14         0.00000E+00
    0.34700E-05        -0.28080E-14         0.00000E+00
    0.34700E-05        -0.23266E-14         0.00000E+00
    0.34700E-05        -0.17955E-14         0.00000E+00
    0.34700E-05        -0.12226E-14         0.00000E+00
    0.34700E-05        -0.61809E-15         0.00000E+00
    0.34700E-05        -0.30989E-15         0.00000E+00
    0.34700E-05        -0.68665E-15         0.00000E+00
    0.34700E-05        -0.12953E-14         0.00000E+00
    0.34700E-05        -0.23621E-14         0.00000E+00
    0.34700E-05        -0.31407E-14         0.00000E+00
    0.34700E-05        -0.36576E-14         0.00000E+00
    0.34700E-05        -0.39421E-14         0.00000E+00
    0.34700E-05        -0.40248E-14         0.00000E+00
    0.34700E-05        -0.39368E-14         0.00000E+00
    0.34700E-05        -0.37086E-14         0.00000E+00
    0.34700E-05        -0.33679E-14         0.00000E+00
    0.34700E-05        -0.29386E-14         0.00000E+00
    0.34700E-05        -0.24390E-14         0.00000E+00
    0.34700E-05        -0.18837E-14         0.00000E+00
    0.34700E-05        -0.12856E-14         0.00000E+00
    0.34700E-05        -0.65417E-15         0.00000E+00
    0.34700E-05        -0.33091E-15         0.00000E+00
    0.34700E-05        -0.67746E-15         0.00000E+00
    0.34700E-05        -0.12829E-14         0.00000E+00
    0.34700E-05        -0.23535E-14         0.00000E+00
    0.34700E-05        -0.31522E-14         0.00000E+00
    0.34700E-05        -0.36983E-14         0.00000E+00
    0.34700E-05        -0.40147E-14         0.00000E+00
    0.34700E-05        -0.41269E-14         0.00000E+00
    0.34700E-05        -0.40620E-14         0.00000E+00
    0.34700E-05        -0.38478E-14         0.00000E+00
    0.34700E-05        -0.35104E-14         0.00000E+00
    0.34700E-05        -0.30734E-14         0.00000E+00
    0.34700E-05        -0.25574E-14         0.00000E+00
    0.34700E-05        -0.19799E-14         0.00000E+00
    0.34700E-05        -0.13565E-14         0.00000E+00
    0.34700E-05        -0.69400E-15         0.00000E+00
    0.34700E-05        -0.35285E-15         0.00000E+00
    0.34700E-05        -0.67351E-15         0.00000E+00
    0.34700E-05        -0.12794E-14         0.00000E+00
    0.34700E-05        -0.23585E-14         0.00000E+00
    0.34700E-05        -0.31777E-14         0.00000E+00
    0.34700E-05        -0.37513E-14         0.00000E+00
    0.34700E-05        -0.40971E-14         0.00000E+00
    0.34700E-05        -0.42366E-14         0.00000E+00
    0.34700E-05        -0.41935E-14         0.00000E+00
    0.34700E-05        -0.39926E-14         0.00000E+00
    0.34700E-05        -0.36588E-14         0.00000E+00
    0.34700E-05        -0.32156E-14         0.00000E+00
    0.34700E-05        -0.26844E-14         0.00000E+00
    0.34700E-05        -0.20838E-14         0.00000E+00
    0.34700E-05        -0.14282E-14         0.00000E+00
    0.34700E-05        -0.72829E-15         0.00000E+00
    0.34700E-05        -0.36847E-15         0.00000E+00
    0.34700E-05        -0.67583E-15         0.00000E+00
    0.34700E-05        -0.12871E-14         0.00000E+00
    0.34700E-05        -0.23819E-14         0.00000E+00
    0.34700E-05        -0.32247E-14         0.00000E+00
    0.34700E-05        -0.38252E-14         0.00000E+00
    0.34700E-05        -0.41978E-14         0.00000E+00
    0.34700E-05        -0.43608E-14         0.00000E+00
    0.34700E-05        -0.43359E-14         0.00000E+00
    0.34700E-05        -0.41460E-14         0.00000E+00
    0.34700E-05        -0.38145E-14         0.00000E+00
    0.34700E-05        -0.33647E-14         0.00000E+00
    0.34700E-05        -0.28180E-14         0.00000E+00
    0.34700E-05        -0.21924E-14         0.00000E+00
    0.34700E-05        -0.15021E-14         0.00000E+00
    0.34700E-05        -0.76348E-15         0.00000E+00
    0.34700E-05        -0.38466E-15         0.00000E+00
    0.34700E-05        -0.68664E-15         0.00000E+00
    0.34700E-05        -0.13093E-14         0.00000E+00
    0.34700E-05        -0.24276E-14         0.00000E+00
    0.34700E-05        -0.32957E-14         0.00000E+00
    0.34700E-05        -0.39217E-14         0.00000E+00
    0.34700E-05        -0.43181E-14         0.00000E+00
    0.34700E-05        -0.45013E-14         0.00000E+00
    0.34700E-05        -0.44908E-14         0.00000E+00
    0.34700E-05        -0.43085E-14         0.00000E+00
    0.34700E-05        -0.39771E-14         0.00000E+00
    0.34700E-05        -0.35183E-14         0.00000E+00
    0.34700E-05        -0.29527E-14         0.00000E+00
    0.34700E-05        -0.22998E-14         0.00000E+00
    0.34700E-05        -0.15781E-14         0.00000E+00
    0.34700E-05        -0.80467E-15         0.00000E+00
    0.34700E-05        -0.40698E-15         0.00000E+00
    0.34700E-05        -0.70335E-15         0.00000E+00
    0.34700E-05        -0.13421E-14         0.00000E+00
    0.34700E-05        -0.24914E-14         0.00000E+00
    0.34700E-05        -0.33874E-14         0.00000E+00
    0.34700E-05        -0.40381E-14         0.00000E+00
    0.34700E-05        -0.44550E-14         0.00000E+00
    0.34700E-05        -0.46540E-14         0.00000E+00
    0.34700E-05        -0.46540E-14         0.00000E+00
    0.34700E-05        -0.44751E-14         0.00000E+00
    0.34700E-05        -0.41385E-14         0.00000E+00
    0.34700E-05        -0.36660E-14         0.00000E+00
    0.34700E-05        -0.30793E-14         0.00000E+00
    0.34700E-05        -0.24007E-14         0.00000E+00
    0.34700E-05        -0.16519E-14         0.00000E+00
    0.34700E-05        -0.84624E-15         0.00000E+00
    0.34700E-05        -0.42999E-15         0.00000E+00
    0.34700E-05        -0.72483E-15         0.00000E+00
    0.34700E-05        -0.13831E-14         0.00000E+00
    0.34700E-05        -0.25679E-14         0.00000E+00
    0.34700E-05        -0.34925E-14         0.00000E+00
    0.34700E-05        -0.41655E-14         0.00000E+00
    0.34700E-05        -0.45992E-14         0.00000E+00
    0.34700E-05        -0.48093E-14         0.00000E+00
    0.34700E-05        -0.48139E-14         0.00000E+00
    0.34700E-05        -0.46329E-14         0.00000E+00
    0.34700E-05        -0.42875E-14         0.00000E+00
    0.34700E-05        -0.38004E-14         0.00000E+00
    0.34700E-05        -0.31959E-14         0.00000E+00
    0.34700E-05        -0.24967E-14         0.00000E+00
    0.34700E-05        -0.17214E-14         0.00000E+00
    0.34700E-05        -0.88271E-15         0.00000E+00
    0.34700E-05        -0.44867E-15         0.00000E+00
    0.34700E-05        -0.74879E-15         0.00000E+00
    0.34700E-05        -0.14282E-14         0.00000E+00
    0.34700E-05        -0.26495E-14         0.00000E+00
    0.34700E-05        -0.36004E-14         0.00000E+00
    0.34700E-05        -0.42913E-14         0.00000E+00
    0.34700E-05        -0.47361E-14         0.00000E+00
    0.34700E-05        -0.49511E-14         0.00000E+00
    0.34700E-05        -0.49554E-14         0.00000E+00
    0.34700E-05        -0.47694E-14         0.00000E+00
    0.34700E-05        -0.44155E-14         0.00000E+00
    0.34700E-05        -0.39180E-14         0.00000E+00
    0.34700E-05        -0.33002E-14         0.00000E+00
    0.34700E-05        -0.25827E-14         0.00000E+00
    0.34700E-05        -0.17815E-14         0.00000E+00
    0.34700E-05        -0.91174E-15         0.00000E+00
    0.34700E-05        -0.46174E-15         0.00000E+00
    0.34700E-05        -0.77333E-15         0.00000E+00
    0.34700E-05        -0.14730E-14         0.00000E+00
    0.34700E-05        -0.27276E-14         0.00000E+00
    0.34700E-05        -0.36985E-14         0.00000E+00
    0.34700E-05        -0.43995E-14         0.00000E+00
    0.34700E-05        -0.48473E-14         0.00000E+00
    0.34700E-05        -0.50610E-14         0.00000E+00
    0.34700E-05        -0.50613E-14         0.00000E+00
    0.34700E-05        -0.48703E-14         0.00000E+00
    0.34700E-05        -0.45115E-14         0.00000E+00
    0.34700E-05        -0.40085E-14         0.00000E+00
    0.34700E-05        -0.33823E-14         0.00000E+00
    0.34700E-05        -0.26510E-14         0.00000E+00
    0.34700E-05        -0.18299E-14         0.00000E+00
    0.34700E-05        -0.93667E-15         0.00000E+00
    0.34700E-05        -0.47469E-15         0.00000E+00
    0.34700E-05        -0.79604E-15         0.00000E+00
    0.34700E-05        -0.15131E-14         0.00000E+00
    0.34700E-05        -0.27932E-14         0.00000E+00
    0.34700E-05        -0.37733E-14         0.00000E+00
    0.34700E-05        -0.44722E-14         0.00000E+00
    0.34700E-05        -0.49120E-14         0.00000E+00
    0.34700E-05        -0.51165E-14         0.00000E+00
    0.34700E-05        -0.51097E-14         0.00000E+00
    0.34700E-05        -0.49158E-14         0.00000E+00
    0.34700E-05        -0.45579E-14         0.00000E+00
    0.34700E-05        -0.40572E-14         0.00000E+00
    0.34700E-05        -0.34315E-14         0.00000E+00
    0.34700E-05        -0.26961E-14         0.00000E+00
    0.34700E-05        -0.18680E-14         0.00000E+00
    0.34700E-05        -0.96142E-15         0.00000E+00
    0.34700E-05        -0.48987E-15         0.00000E+00
    0.34700E-05        -0.81512E-15         0.00000E+00
    0.34700E-05        -0.15446E-14         0.00000E+00
    0.34700E-05        -0.28376E-14         0.00000E+00
    0.34700E-05        -0.38106E-14         0.00000E+00
    0.34700E-05        -0.44900E-14         0.00000E+00
    0.34700E-05        -0.49060E-14         0.00000E+00
    0.34700E-05        -0.50904E-14         0.00000E+00
    0.34700E-05        -0.50729E-14         0.00000E+00
    0.34700E-05        -0.48800E-14         0.00000E+00
    0.34700E-05        -0.45330E-14         0.00000E+00
    0.34700E-05        -0.40480E-14         0.00000E+00
    0.34700E-05        -0.34378E-14         0.00000E+00
    0.34700E-05        -0.27152E-14         0.00000E+00
    0.34700E-05        -0.18927E-14         0.00000E+00
    0.34700E-05        -0.97886E-15         0.00000E+00
    0.34700E-05        -0.49990E-15         0.00000E+00
    0.34700E-05        -0.82896E-15         0.00000E+00
    0.34700E-05        -0.15640E-14         0.00000E+00
    0.34700E-05        -0.28529E-14         0.00000E+00
    0.34700E-05        -0.37962E-14         0.00000E+00
    0.34700E-05        -0.44314E-14         0.00000E+00
    0.34700E-05        -0.48020E-14         0.00000E+00
    0.34700E-05        -0.49517E-14         0.00000E+00
    0.34700E-05        -0.49193E-14         0.00000E+00
    0.34700E-05        -0.47339E-14         0.00000E+00
    0.34700E-05        -0.44128E-14         0.00000E+00
    0.34700E-05        -0.39642E-14         0.00000E+00
    0.34700E-05        -0.33923E-14         0.00000E+00
    0.34700E-05        -0.27023E-14         0.00000E+00
    0.34700E-05        -0.18993E-14         0.00000E+00
    0.34700E-05        -0.98860E-15         0.00000E+00
    0.34700E-05        -0.50702E-15         0.00000E+00
    0.34700E-05        -0.83760E-15         0.00000E+00
    0.34700E-05        -0.15693E-14         0.00000E+00
    0.34700E-05        -0.28312E-14         0.00000E+00
    0.34700E-05        -0.37140E-14         0.00000E+00
    0.34700E-05        -0.42728E-14         0.00000E+00
    0.34700E-05        -0.45706E-14         0.00000E+00
    0.34700E-05        -0.46691E-14         0.00000E+00
    0.34700E-05        -0.46178E-14         0.00000E+00
    0.34700E-05        -0.44483E-14         0.00000E+00
    0.34700E-05        -0.41724E-14         0.00000E+00
    0.34700E-05        -0.37870E-14         0.00000E+00
    0.34700E-05        -0.32824E-14         0.00000E+00
    0.34700E-05        -0.26496E-14         0.00000E+00
    0.34700E-05        -0.18850E-14         0.00000E+00
    0.34700E-05        -0.99036E-15         0.00000E+00
    0.34700E-05        -0.51105E-15         0.00000E+00
    0.34700E-05        -0.83984E-15         0.00000E+00
    0.34700E-05        -0.15572E-14         0.00000E+00
    0.34700E-05        -0.27618E-14         0.00000E+00
    0.34700E-05        -0.35436E-14         0.00000E+00
    0.34700E-05        -0.39867E-14         0.00000E+00
    0.34700E-05        -0.41836E-14         0.00000E+00
    0.34700E-05        -0.42170E-14         0.00000E+00
    0.34700E-05        -0.41455E-14         0.00000E+00
    0.34700E-05        -0.40001E-14         0.00000E+00
    0.34700E-05        -0.37873E-14         0.00000E+00
    0.34700E-05        -0.34930E-14         0.00000E+00
    0.34700E-05        -0.30890E-14         0.00000E+00
    0.34700E-05        -0.25460E-14         0.00000E+00
    0.34700E-05        -0.18458E-14         0.00000E+00
    0.34700E-05        -0.98351E-15         0.00000E+00
    0.34700E-05        -0.51188E-15         0.00000E+00
    0.34700E-05        -0.83489E-15         0.00000E+00
    0.34700E-05        -0.15220E-14         0.00000E+00
    0.34700E-05        -0.26263E-14         0.00000E+00
    0.34700E-05        -0.32538E-14         0.00000E+00
    0.34700E-05        -0.35398E-14         0.00000E+00
    0.34700E-05        -0.36175E-14         0.00000E+00
    0.34700E-05        -0.35850E-14         0.00000E+00
    0.34700E-05        -0.34981E-14         0.00000E+00
    0.34700E-05        -0.33818E-14         0.00000E+00
    0.34700E-05        -0.32391E-14         0.00000E+00
    0.34700E-05        -0.30530E-14         0.00000E+00
    0.34700E-05        -0.27828E-14         0.00000E+00
    0.34700E-05        -0.23717E-14         0.00000E+00
    0.34700E-05        -0.17731E-14         0.00000E+00
    0.34700E-05        -0.96597E-15         0.00000E+00
    0.34700E-05        -0.50933E-15         0.00000E+00
    0.34700E-05        -0.81770E-15         0.00000E+00
    0.34700E-05        -0.14481E-14         0.00000E+00
    0.34700E-05        -0.23858E-14         0.00000E+00
    0.34700E-05        -0.27931E-14         0.00000E+00
    0.34700E-05        -0.28957E-14         0.00000E+00
    0.34700E-05        -0.28652E-14         0.00000E+00
    0.34700E-05        -0.27878E-14         0.00000E+00
    0.34700E-05        -0.26984E-14         0.00000E+00
    0.34700E-05        -0.26115E-14         0.00000E+00
    0.34700E-05        -0.25290E-14         0.00000E+00
    0.34700E-05        -0.24415E-14         0.00000E+00
    0.34700E-05        -0.23192E-14         0.00000E+00
    0.34700E-05        -0.20879E-14         0.00000E+00
    0.34700E-05        -0.16469E-14         0.00000E+00
    0.34700E-05        -0.93266E-15         0.00000E+00
    0.34700E-05        -0.50340E-15         0.00000E+00
    0.34700E-05        -0.77155E-15         0.00000E+00
    0.34700E-05        -0.12920E-14         0.00000E+00
    0.34700E-05        -0.19539E-14         0.00000E+00
    0.34700E-05        -0.20862E-14         0.00000E+00
    0.34700E-05        -0.20388E-14         0.00000E+00
    0.34700E-05        -0.19563E-14         0.00000E+00
    0.34700E-05        -0.18715E-14         0.00000E+00
    0.34700E-05        -0.17969E-14         0.00000E+00
    0.34700E-05        -0.17375E-14         0.00000E+00
    0.34700E-05        -0.16950E-14         0.00000E+00
    0.34700E-05        -0.16690E-14         0.00000E+00
    0.34700E-05        -0.16523E-14         0.00000E+00
    0.34700E-05        -0.16146E-14         0.00000E+00
    0.34700E-05        -0.14167E-14         0.00000E+00
    0.34700E-05        -0.86558E-15         0.00000E+00
    0.34700E-05        -0.48224E-15         0.00000E+00
    0.34700E-05        -0.61980E-15         0.00000E+00
    0.34700E-05        -0.91102E-15         0.00000E+00
    0.34700E-05        -0.11673E-14         0.00000E+00
    0.34700E-05        -0.10978E-14         0.00000E+00
    0.34700E-05        -0.10290E-14         0.00000E+00
    0.34700E-05        -0.96505E-15         0.00000E+00
    0.34700E-05        -0.91084E-15         0.00000E+00
    0.34700E-05        -0.86738E-15         0.00000E+00
    0.34700E-05        -0.83548E-15         0.00000E+00
    0.34700E-05        -0.81613E-15         0.00000E+00
    0.34700E-05        -0.81077E-15         0.00000E+00
    0.34700E-05        -0.82296E-15         0.00000E+00
    0.34700E-05        -0.85871E-15         0.00000E+00
    0.34700E-05        -0.92077E-15         0.00000E+00
    0.34700E-05        -0.72950E-15         0.00000E+00
    0.34700E-05        -0.50075E-15         0.00000E+00
    0.34700E-05         0.00000E+00         0.00000E+00
    0.34700E-05         0.00000E+00         0.00000E+00
    0.34700E-05        -0.80148E-20         0.00000E+00
    0.34700E-05         0.11743E-28         0.00000E+00
    0.34700E-05         0.80148E-20         0.00000E+00
    0.34700E-05         0.00000E+00         0.00000E+00
    0.34700E-05         0.00000E+00         0.00000E+00
    0.34700E-05        -0.80148E-20         0.00000E+00
    0.34700E-05        -0.80148E-20         0.00000E+00
    0.34700E-05         0.80148E-20         0.00000E+00
    0.34700E-05         0.80148E-20         0.00000E+00
    0.34700E-05        -0.80148E-20         0.00000E+00
    0.34700E-05         0.55730E-29         0.00000E+00
    0.34700E-05         0.80148E-20         0.00000E+00
    0.34700E-05         0.00000E+00         0.00000E+00
    0.34700E-05         0.00000E+00         0.00000E+00
CELL_DATA        450
TENSORS stressef double 
   -0.33771E+07         0.42306E+05         0.00000E+00
    0.42306E+05        -0.32683E+08         0.00000E+00
    0.00000E+00         0.00000E+00        -0.90503E+07
 
   -0.31781E+07         0.57911E+05         0.00000E+00
    0.57911E+05        -0.32586E+08         0.00000E+00
    0.00000E+00         0.00000E+00        -0.92436E+07
 
   -0.30820E+07         0.56320E+05         0.00000E+00
    0.56320E+05        -0.32496E+08         0.00000E+00
    0.00000E+00         0.00000E+00        -0.92884E+07
 
   -0.30884E+07         0.32762E+05         0.00000E+00
    0.32762E+05        -0.32420E+08         0.00000E+00
    0.00000E+00         0.00000E+00        -0.91888E+07
 
   -0.31771E+07         0.59969E+04         0.00000E+00
    0.59969E+04        -0.32402E+08         0.00000E+00
    0.00000E+00         0.00000E+00        -0.90305E+07
 
   -0.33011E+07        -0.49232E+04         0.00000E+00
   -0.49232E+04        -0.32408E+08         0.00000E+00
    0.00000E+00         0.00000E+00        -0.88486E+07
 
   -0.34436E+07        -0.64871E+04         0.00000E+00
   -0.64871E+04        -0.32420E+08         0.00000E+00
    0.00000E+00         0.00000E+00        -0.86504E+07
 
   -0.36049E+07        -0.33318E+04         0.00000E+00
   -0.33318E+04        -0.32429E+08         0.00000E+00
    0.00000E+00         0.00000E+00        -0.84274E+07
 
   -0.37844E+07         0.47409E+04         0.00000E+00
    0.47409E+04        -0.32427E+08         0.00000E+00
    0.00000E+00         0.00000E+00        -0.81736E+07
 
   -0.39754E+07         0.15719E+05         0.00000E+00
    0.15719E+05        -0.32406E+08         0.00000E+00
    0.00000E+00         0.00000E+00        -0.78921E+07
 
   -0.41824E+07         0.30186E+05         0.00000E+00
    0.30186E+05        -0.32360E+08         0.00000E+00
    0.00000E+00         0.00000E+00        -0.75729E+07
 
   -0.44034E+07         0.49738E+05         0.00000E+00
    0.49738E+05        -0.32281E+08         0.00000E+00
    0.00000E+00         0.00000E+00        -0.72128E+07
 
   -0.46421E+07         0.76574E+05         0.00000E+00
    0.76574E+05        -0.32155E+08         0.00000E+00
    0.00000E+00         0.00000E+00        -0.67991E+07
 
   -0.49052E+07         0.11885E+06         0.00000E+00
    0.11885E+06        -0.31964E+08         0.00000E+00
    0.00000E+00         0.00000E+00        -0.63109E+07
 
   -0.52012E+07         0.20983E+06         0.00000E+00
    0.20983E+06        -0.31665E+08         0.00000E+00
    0.00000E+00         0.00000E+00        -0.57080E+07
 
   -0.37738E+07         0.10465E+06         0.00000E+00
    0.10465E+06        -0.33404E+08         0.00000E+00
    0.00000E+00         0.00000E+00        -0.92835E+07
 
   -0.36737E+07         0.16523E+06         0.00000E+00
    0.16523E+06        -0.33359E+08         0.00000E+00
    0.00000E+00         0.00000E+00        -0.93832E+07
 
   -0.35993E+07         0.14977E+06         0.00000E+00
    0.14977E+06        -0.33269E+08         0.00000E+00
    0.00000E+00         0.00000E+00        -0.93916E+07
 
   -0.36459E+07         0.91571E+05         0.00000E+00
    0.91571E+05        -0.33222E+08         0.00000E+00
    0.00000E+00         0.00000E+00        -0.92655E+07
 
   -0.37151E+07         0.42367E+05         0.00000E+00
    0.42367E+05        -0.33154E+08         0.00000E+00
    0.00000E+00         0.00000E+00        -0.90840E+07
 
   -0.38181E+07         0.15161E+05         0.00000E+00
    0.15161E+05        -0.33100E+08         0.00000E+00
    0.00000E+00         0.00000E+00        -0.88728E+07
 
   -0.39472E+07         0.80574E+04         0.00000E+00
    0.80574E+04        -0.33059E+08         0.00000E+00
    0.00000E+00         0.00000E+00        -0.86432E+07
 
   -0.40999E+07         0.14298E+05         0.00000E+00
    0.14298E+05        -0.33020E+08         0.00000E+00
    0.00000E+00         0.00000E+00        -0.83896E+07
 
   -0.42701E+07         0.34074E+05         0.00000E+00
    0.34074E+05        -0.32977E+08         0.00000E+00
    0.00000E+00         0.00000E+00        -0.81142E+07
 
   -0.44547E+07         0.65602E+05         0.00000E+00
    0.65602E+05        -0.32919E+08         0.00000E+00
    0.00000E+00         0.00000E+00        -0.78136E+07
 
   -0.46525E+07         0.10834E+06         0.00000E+00
    0.10834E+06        -0.32838E+08         0.00000E+00
    0.00000E+00         0.00000E+00        -0.74823E+07
 
   -0.48608E+07         0.16690E+06         0.00000E+00
    0.16690E+06        -0.32724E+08         0.00000E+00
    0.00000E+00         0.00000E+00        -0.71178E+07
 
   -0.50785E+07         0.24810E+06         0.00000E+00
    0.24810E+06        -0.32566E+08         0.00000E+00
    0.00000E+00         0.00000E+00        -0.67123E+07
 
   -0.52958E+07         0.37015E+06         0.00000E+00
    0.37015E+06        -0.32348E+08         0.00000E+00
    0.00000E+00         0.00000E+00        -0.62664E+07
 
   -0.54873E+07         0.56433E+06         0.00000E+00
    0.56433E+06        -0.32059E+08         0.00000E+00
    0.00000E+00         0.00000E+00        -0.58039E+07
 
   -0.41192E+07         0.85770E+05         0.00000E+00
    0.85770E+05        -0.33932E+08         0.00000E+00
    0.00000E+00         0.00000E+00        -0.93736E+07
 
   -0.41295E+07         0.18397E+06         0.00000E+00
    0.18397E+06        -0.33950E+08         0.00000E+00
    0.00000E+00         0.00000E+00        -0.93813E+07
 
   -0.41594E+07         0.18255E+06         0.00000E+00
    0.18255E+06        -0.33953E+08         0.00000E+00
    0.00000E+00         0.00000E+00        -0.93418E+07
 
   -0.41957E+07         0.14545E+06         0.00000E+00
    0.14545E+06        -0.33899E+08         0.00000E+00
    0.00000E+00         0.00000E+00        -0.92283E+07
 
   -0.42581E+07         0.10978E+06         0.00000E+00
    0.10978E+06        -0.33836E+08         0.00000E+00
    0.00000E+00         0.00000E+00        -0.90683E+07
 
   -0.43435E+07         0.81011E+05         0.00000E+00
    0.81011E+05        -0.33761E+08         0.00000E+00
    0.00000E+00         0.00000E+00        -0.88667E+07
 
   -0.44545E+07         0.68247E+05         0.00000E+00
    0.68247E+05        -0.33686E+08         0.00000E+00
    0.00000E+00         0.00000E+00        -0.86325E+07
 
   -0.45894E+07         0.75256E+05         0.00000E+00
    0.75256E+05        -0.33609E+08         0.00000E+00
    0.00000E+00         0.00000E+00        -0.83715E+07
 
   -0.47422E+07         0.10306E+06         0.00000E+00
    0.10306E+06        -0.33528E+08         0.00000E+00
    0.00000E+00         0.00000E+00        -0.80886E+07
 
   -0.49110E+07         0.15102E+06         0.00000E+00
    0.15102E+06        -0.33435E+08         0.00000E+00
    0.00000E+00         0.00000E+00        -0.77822E+07
 
   -0.50901E+07         0.22017E+06         0.00000E+00
    0.22017E+06        -0.33322E+08         0.00000E+00
    0.00000E+00         0.00000E+00        -0.74530E+07
 
   -0.52738E+07         0.31482E+06         0.00000E+00
    0.31482E+06        -0.33181E+08         0.00000E+00
    0.00000E+00         0.00000E+00        -0.71017E+07
 
   -0.54557E+07         0.44287E+06         0.00000E+00
    0.44287E+06        -0.33004E+08         0.00000E+00
    0.00000E+00         0.00000E+00        -0.67317E+07
 
   -0.56221E+07         0.61298E+06         0.00000E+00
    0.61298E+06        -0.32791E+08         0.00000E+00
    0.00000E+00         0.00000E+00        -0.63606E+07
 
   -0.57720E+07         0.81888E+06         0.00000E+00
    0.81888E+06        -0.32563E+08         0.00000E+00
    0.00000E+00         0.00000E+00        -0.60119E+07
 
   -0.45021E+07         0.58754E+05         0.00000E+00
    0.58754E+05        -0.34399E+08         0.00000E+00
    0.00000E+00         0.00000E+00        -0.93484E+07
 
   -0.45819E+07         0.13595E+06         0.00000E+00
    0.13595E+06        -0.34438E+08         0.00000E+00
    0.00000E+00         0.00000E+00        -0.92814E+07
 
   -0.46549E+07         0.17719E+06         0.00000E+00
    0.17719E+06        -0.34472E+08         0.00000E+00
    0.00000E+00         0.00000E+00        -0.92180E+07
 
   -0.47208E+07         0.18503E+06         0.00000E+00
    0.18503E+06        -0.34470E+08         0.00000E+00
    0.00000E+00         0.00000E+00        -0.91262E+07
 
   -0.47861E+07         0.17221E+06         0.00000E+00
    0.17221E+06        -0.34429E+08         0.00000E+00
    0.00000E+00         0.00000E+00        -0.89925E+07
 
   -0.48645E+07         0.15801E+06         0.00000E+00
    0.15801E+06        -0.34363E+08         0.00000E+00
    0.00000E+00         0.00000E+00        -0.88168E+07
 
   -0.49601E+07         0.15350E+06         0.00000E+00
    0.15350E+06        -0.34279E+08         0.00000E+00
    0.00000E+00         0.00000E+00        -0.86026E+07
 
   -0.50733E+07         0.16729E+06         0.00000E+00
    0.16729E+06        -0.34183E+08         0.00000E+00
    0.00000E+00         0.00000E+00        -0.83580E+07
 
   -0.52030E+07         0.20430E+06         0.00000E+00
    0.20430E+06        -0.34077E+08         0.00000E+00
    0.00000E+00         0.00000E+00        -0.80878E+07
 
   -0.53476E+07         0.26691E+06         0.00000E+00
    0.26691E+06        -0.33958E+08         0.00000E+00
    0.00000E+00         0.00000E+00        -0.77942E+07
 
   -0.54996E+07         0.35776E+06         0.00000E+00
    0.35776E+06        -0.33823E+08         0.00000E+00
    0.00000E+00         0.00000E+00        -0.74844E+07
 
   -0.56521E+07         0.47949E+06         0.00000E+00
    0.47949E+06        -0.33667E+08         0.00000E+00
    0.00000E+00         0.00000E+00        -0.71652E+07
 
   -0.57989E+07         0.63380E+06         0.00000E+00
    0.63380E+06        -0.33491E+08         0.00000E+00
    0.00000E+00         0.00000E+00        -0.68460E+07
 
   -0.59348E+07         0.81654E+06         0.00000E+00
    0.81654E+06        -0.33304E+08         0.00000E+00
    0.00000E+00         0.00000E+00        -0.65425E+07
 
   -0.60630E+07         0.10191E+07         0.00000E+00
    0.10191E+07        -0.33118E+08         0.00000E+00
    0.00000E+00         0.00000E+00        -0.62620E+07
 
   -0.49245E+07         0.35125E+05         0.00000E+00
    0.35125E+05        -0.34890E+08         0.00000E+00
    0.00000E+00         0.00000E+00        -0.93043E+07
 
   -0.50246E+07         0.10144E+06         0.00000E+00
    0.10144E+06        -0.34920E+08         0.00000E+00
    0.00000E+00         0.00000E+00        -0.92018E+07
 
   -0.51211E+07         0.15429E+06         0.00000E+00
    0.15429E+06        -0.34949E+08         0.00000E+00
    0.00000E+00         0.00000E+00        -0.91066E+07
 
   -0.52094E+07         0.19081E+06         0.00000E+00
    0.19081E+06        -0.34963E+08         0.00000E+00
    0.00000E+00         0.00000E+00        -0.90066E+07
 
   -0.52887E+07         0.21171E+06         0.00000E+00
    0.21171E+06        -0.34948E+08         0.00000E+00
    0.00000E+00         0.00000E+00        -0.88891E+07
 
   -0.53670E+07         0.22497E+06         0.00000E+00
    0.22497E+06        -0.34902E+08         0.00000E+00
    0.00000E+00         0.00000E+00        -0.87409E+07
 
   -0.54515E+07         0.24191E+06         0.00000E+00
    0.24191E+06        -0.34828E+08         0.00000E+00
    0.00000E+00         0.00000E+00        -0.85592E+07
 
   -0.55454E+07         0.27223E+06         0.00000E+00
    0.27223E+06        -0.34732E+08         0.00000E+00
    0.00000E+00         0.00000E+00        -0.83460E+07
 
   -0.56511E+07         0.32333E+06         0.00000E+00
    0.32333E+06        -0.34618E+08         0.00000E+00
    0.00000E+00         0.00000E+00        -0.81054E+07
 
   -0.57675E+07         0.40065E+06         0.00000E+00
    0.40065E+06        -0.34489E+08         0.00000E+00
    0.00000E+00         0.00000E+00        -0.78432E+07
 
   -0.58894E+07         0.50733E+06         0.00000E+00
    0.50733E+06        -0.34346E+08         0.00000E+00
    0.00000E+00         0.00000E+00        -0.75691E+07
 
   -0.60115E+07         0.64360E+06         0.00000E+00
    0.64360E+06        -0.34191E+08         0.00000E+00
    0.00000E+00         0.00000E+00        -0.72932E+07
 
   -0.61315E+07         0.80632E+06         0.00000E+00
    0.80632E+06        -0.34029E+08         0.00000E+00
    0.00000E+00         0.00000E+00        -0.70245E+07
 
   -0.62477E+07         0.98890E+06         0.00000E+00
    0.98890E+06        -0.33866E+08         0.00000E+00
    0.00000E+00         0.00000E+00        -0.67710E+07
 
   -0.63629E+07         0.11846E+07         0.00000E+00
    0.11846E+07        -0.33709E+08         0.00000E+00
    0.00000E+00         0.00000E+00        -0.65354E+07
 
   -0.53676E+07         0.24642E+05         0.00000E+00
    0.24642E+05        -0.35393E+08         0.00000E+00
    0.00000E+00         0.00000E+00        -0.92558E+07
 
   -0.54716E+07         0.79035E+05         0.00000E+00
    0.79035E+05        -0.35406E+08         0.00000E+00
    0.00000E+00         0.00000E+00        -0.91348E+07
 
   -0.55759E+07         0.13332E+06         0.00000E+00
    0.13332E+06        -0.35423E+08         0.00000E+00
    0.00000E+00         0.00000E+00        -0.90210E+07
 
   -0.56726E+07         0.18528E+06         0.00000E+00
    0.18528E+06        -0.35436E+08         0.00000E+00
    0.00000E+00         0.00000E+00        -0.89133E+07
 
   -0.57605E+07         0.23242E+06         0.00000E+00
    0.23242E+06        -0.35431E+08         0.00000E+00
    0.00000E+00         0.00000E+00        -0.88009E+07
 
   -0.58417E+07         0.27554E+06         0.00000E+00
    0.27554E+06        -0.35401E+08         0.00000E+00
    0.00000E+00         0.00000E+00        -0.86719E+07
 
   -0.59196E+07         0.31999E+06         0.00000E+00
    0.31999E+06        -0.35342E+08         0.00000E+00
    0.00000E+00         0.00000E+00        -0.85201E+07
 
   -0.59991E+07         0.37356E+06         0.00000E+00
    0.37356E+06        -0.35257E+08         0.00000E+00
    0.00000E+00         0.00000E+00        -0.83429E+07
 
   -0.60831E+07         0.44366E+06         0.00000E+00
    0.44366E+06        -0.35150E+08         0.00000E+00
    0.00000E+00         0.00000E+00        -0.81422E+07
 
   -0.61733E+07         0.53614E+06         0.00000E+00
    0.53614E+06        -0.35026E+08         0.00000E+00
    0.00000E+00         0.00000E+00        -0.79226E+07
 
   -0.62676E+07         0.65375E+06         0.00000E+00
    0.65375E+06        -0.34890E+08         0.00000E+00
    0.00000E+00         0.00000E+00        -0.76936E+07
 
   -0.63643E+07         0.79584E+06         0.00000E+00
    0.79584E+06        -0.34747E+08         0.00000E+00
    0.00000E+00         0.00000E+00        -0.74641E+07
 
   -0.64634E+07         0.95897E+06         0.00000E+00
    0.95897E+06        -0.34602E+08         0.00000E+00
    0.00000E+00         0.00000E+00        -0.72403E+07
 
   -0.65653E+07         0.11379E+07         0.00000E+00
    0.11379E+07        -0.34461E+08         0.00000E+00
    0.00000E+00         0.00000E+00        -0.70261E+07
 
   -0.66703E+07         0.13274E+07         0.00000E+00
    0.13274E+07        -0.34324E+08         0.00000E+00
    0.00000E+00         0.00000E+00        -0.68233E+07
 
   -0.58219E+07         0.19454E+05         0.00000E+00
    0.19454E+05        -0.35895E+08         0.00000E+00
    0.00000E+00         0.00000E+00        -0.92031E+07
 
   -0.59243E+07         0.67585E+05         0.00000E+00
    0.67585E+05        -0.35900E+08         0.00000E+00
    0.00000E+00         0.00000E+00        -0.90809E+07
 
   -0.60246E+07         0.12203E+06         0.00000E+00
    0.12203E+06        -0.35908E+08         0.00000E+00
    0.00000E+00         0.00000E+00        -0.89664E+07
 
   -0.61199E+07         0.18226E+06         0.00000E+00
    0.18226E+06        -0.35913E+08         0.00000E+00
    0.00000E+00         0.00000E+00        -0.88567E+07
 
   -0.62084E+07         0.24640E+06         0.00000E+00
    0.24640E+06        -0.35907E+08         0.00000E+00
    0.00000E+00         0.00000E+00        -0.87466E+07
 
   -0.62888E+07         0.31318E+06         0.00000E+00
    0.31318E+06        -0.35883E+08         0.00000E+00
    0.00000E+00         0.00000E+00        -0.86308E+07
 
   -0.63618E+07         0.38376E+06         0.00000E+00
    0.38376E+06        -0.35837E+08         0.00000E+00
    0.00000E+00         0.00000E+00        -0.85034E+07
 
   -0.64303E+07         0.46178E+06         0.00000E+00
    0.46178E+06        -0.35768E+08         0.00000E+00
    0.00000E+00         0.00000E+00        -0.83600E+07
 
   -0.64973E+07         0.55234E+06         0.00000E+00
    0.55234E+06        -0.35676E+08         0.00000E+00
    0.00000E+00         0.00000E+00        -0.82004E+07
 
   -0.65666E+07         0.65967E+06         0.00000E+00
    0.65967E+06        -0.35568E+08         0.00000E+00
    0.00000E+00         0.00000E+00        -0.80263E+07
 
   -0.66392E+07         0.78593E+06         0.00000E+00
    0.78593E+06        -0.35448E+08         0.00000E+00
    0.00000E+00         0.00000E+00        -0.78437E+07
 
   -0.67156E+07         0.93080E+06         0.00000E+00
    0.93080E+06        -0.35324E+08         0.00000E+00
    0.00000E+00         0.00000E+00        -0.76588E+07
 
   -0.67979E+07         0.10923E+07         0.00000E+00
    0.10923E+07        -0.35199E+08         0.00000E+00
    0.00000E+00         0.00000E+00        -0.74756E+07
 
   -0.68873E+07         0.12678E+07         0.00000E+00
    0.12678E+07        -0.35076E+08         0.00000E+00
    0.00000E+00         0.00000E+00        -0.72960E+07
 
   -0.69837E+07         0.14533E+07         0.00000E+00
    0.14533E+07        -0.34957E+08         0.00000E+00
    0.00000E+00         0.00000E+00        -0.71209E+07
 
   -0.62828E+07         0.16800E+05         0.00000E+00
    0.16800E+05        -0.36397E+08         0.00000E+00
    0.00000E+00         0.00000E+00        -0.91531E+07
 
   -0.63777E+07         0.63152E+05         0.00000E+00
    0.63152E+05        -0.36399E+08         0.00000E+00
    0.00000E+00         0.00000E+00        -0.90414E+07
 
   -0.64695E+07         0.11919E+06         0.00000E+00
    0.11919E+06        -0.36401E+08         0.00000E+00
    0.00000E+00         0.00000E+00        -0.89343E+07
 
   -0.65574E+07         0.18514E+06         0.00000E+00
    0.18514E+06        -0.36398E+08         0.00000E+00
    0.00000E+00         0.00000E+00        -0.88303E+07
 
   -0.66396E+07         0.26037E+06         0.00000E+00
    0.26037E+06        -0.36389E+08         0.00000E+00
    0.00000E+00         0.00000E+00        -0.87279E+07
 
   -0.67141E+07         0.34373E+06         0.00000E+00
    0.34373E+06        -0.36367E+08         0.00000E+00
    0.00000E+00         0.00000E+00        -0.86251E+07
 
   -0.67806E+07         0.43461E+06         0.00000E+00
    0.43461E+06        -0.36330E+08         0.00000E+00
    0.00000E+00         0.00000E+00        -0.85185E+07
 
   -0.68399E+07         0.53362E+06         0.00000E+00
    0.53362E+06        -0.36275E+08         0.00000E+00
    0.00000E+00         0.00000E+00        -0.84049E+07
 
   -0.68945E+07         0.64251E+06         0.00000E+00
    0.64251E+06        -0.36203E+08         0.00000E+00
    0.00000E+00         0.00000E+00        -0.82825E+07
 
   -0.69485E+07         0.76347E+06         0.00000E+00
    0.76347E+06        -0.36115E+08         0.00000E+00
    0.00000E+00         0.00000E+00        -0.81504E+07
 
   -0.70051E+07         0.89794E+06         0.00000E+00
    0.89794E+06        -0.36017E+08         0.00000E+00
    0.00000E+00         0.00000E+00        -0.80107E+07
 
   -0.70663E+07         0.10460E+07         0.00000E+00
    0.10460E+07        -0.35913E+08         0.00000E+00
    0.00000E+00         0.00000E+00        -0.78664E+07
 
   -0.71344E+07         0.12070E+07         0.00000E+00
    0.12070E+07        -0.35808E+08         0.00000E+00
    0.00000E+00         0.00000E+00        -0.77197E+07
 
   -0.72120E+07         0.13798E+07         0.00000E+00
    0.13798E+07        -0.35703E+08         0.00000E+00
    0.00000E+00         0.00000E+00        -0.75720E+07
 
   -0.73006E+07         0.15626E+07         0.00000E+00
    0.15626E+07        -0.35601E+08         0.00000E+00
    0.00000E+00         0.00000E+00        -0.74234E+07
 
   -0.67460E+07         0.16078E+05         0.00000E+00
    0.16078E+05        -0.36900E+08         0.00000E+00
    0.00000E+00         0.00000E+00        -0.91125E+07
 
   -0.68300E+07         0.62638E+05         0.00000E+00
    0.62638E+05        -0.36900E+08         0.00000E+00
    0.00000E+00         0.00000E+00        -0.90147E+07
 
   -0.69108E+07         0.12127E+06         0.00000E+00
    0.12127E+06        -0.36898E+08         0.00000E+00
    0.00000E+00         0.00000E+00        -0.89204E+07
 
   -0.69877E+07         0.19228E+06         0.00000E+00
    0.19228E+06        -0.36892E+08         0.00000E+00
    0.00000E+00         0.00000E+00        -0.88287E+07
 
   -0.70593E+07         0.27540E+06         0.00000E+00
    0.27540E+06        -0.36881E+08         0.00000E+00
    0.00000E+00         0.00000E+00        -0.87398E+07
 
   -0.71242E+07         0.36997E+06         0.00000E+00
    0.36997E+06        -0.36861E+08         0.00000E+00
    0.00000E+00         0.00000E+00        -0.86527E+07
 
   -0.71817E+07         0.47494E+06         0.00000E+00
    0.47494E+06        -0.36831E+08         0.00000E+00
    0.00000E+00         0.00000E+00        -0.85663E+07
 
   -0.72320E+07         0.58935E+06         0.00000E+00
    0.58935E+06        -0.36789E+08         0.00000E+00
    0.00000E+00         0.00000E+00        -0.84788E+07
 
   -0.72769E+07         0.71266E+06         0.00000E+00
    0.71266E+06        -0.36734E+08         0.00000E+00
    0.00000E+00         0.00000E+00        -0.83882E+07
 
   -0.73199E+07         0.84522E+06         0.00000E+00
    0.84522E+06        -0.36667E+08         0.00000E+00
    0.00000E+00         0.00000E+00        -0.82923E+07
 
   -0.73649E+07         0.98773E+06         0.00000E+00
    0.98773E+06        -0.36592E+08         0.00000E+00
    0.00000E+00         0.00000E+00        -0.81900E+07
 
   -0.74146E+07         0.11403E+07         0.00000E+00
    0.11403E+07        -0.36510E+08         0.00000E+00
    0.00000E+00         0.00000E+00        -0.80820E+07
 
   -0.74718E+07         0.13028E+07         0.00000E+00
    0.13028E+07        -0.36424E+08         0.00000E+00
    0.00000E+00         0.00000E+00        -0.79687E+07
 
   -0.75392E+07         0.14748E+07         0.00000E+00
    0.14748E+07        -0.36337E+08         0.00000E+00
    0.00000E+00         0.00000E+00        -0.78503E+07
 
   -0.76194E+07         0.16558E+07         0.00000E+00
    0.16558E+07        -0.36251E+08         0.00000E+00
    0.00000E+00         0.00000E+00        -0.77267E+07
 
   -0.72092E+07         0.16278E+05         0.00000E+00
    0.16278E+05        -0.37404E+08         0.00000E+00
    0.00000E+00         0.00000E+00        -0.90819E+07
 
   -0.72807E+07         0.64063E+05         0.00000E+00
    0.64063E+05        -0.37403E+08         0.00000E+00
    0.00000E+00         0.00000E+00        -0.90004E+07
 
   -0.73485E+07         0.12549E+06         0.00000E+00
    0.12549E+06        -0.37399E+08         0.00000E+00
    0.00000E+00         0.00000E+00        -0.89223E+07
 
   -0.74122E+07         0.20075E+06         0.00000E+00
    0.20075E+06        -0.37393E+08         0.00000E+00
    0.00000E+00         0.00000E+00        -0.88474E+07
 
   -0.74709E+07         0.28973E+06         0.00000E+00
    0.28973E+06        -0.37382E+08         0.00000E+00
    0.00000E+00         0.00000E+00        -0.87758E+07
 
   -0.75240E+07         0.39181E+06         0.00000E+00
    0.39181E+06        -0.37366E+08         0.00000E+00
    0.00000E+00         0.00000E+00        -0.87074E+07
 
   -0.75708E+07         0.50590E+06         0.00000E+00
    0.50590E+06        -0.37343E+08         0.00000E+00
    0.00000E+00         0.00000E+00        -0.86420E+07
 
   -0.76116E+07         0.63050E+06         0.00000E+00
    0.63050E+06        -0.37313E+08         0.00000E+00
    0.00000E+00         0.00000E+00        -0.85786E+07
 
   -0.76479E+07         0.76417E+06         0.00000E+00
    0.76417E+06        -0.37274E+08         0.00000E+00
    0.00000E+00         0.00000E+00        -0.85153E+07
 
   -0.76822E+07         0.90591E+06         0.00000E+00
    0.90591E+06        -0.37226E+08         0.00000E+00
    0.00000E+00         0.00000E+00        -0.84498E+07
 
   -0.77183E+07         0.10557E+07         0.00000E+00
    0.10557E+07        -0.37171E+08         0.00000E+00
    0.00000E+00         0.00000E+00        -0.83796E+07
 
   -0.77591E+07         0.12137E+07         0.00000E+00
    0.12137E+07        -0.37110E+08         0.00000E+00
    0.00000E+00         0.00000E+00        -0.83034E+07
 
   -0.78076E+07         0.13796E+07         0.00000E+00
    0.13796E+07        -0.37044E+08         0.00000E+00
    0.00000E+00         0.00000E+00        -0.82203E+07
 
   -0.78665E+07         0.15536E+07         0.00000E+00
    0.15536E+07        -0.36975E+08         0.00000E+00
    0.00000E+00         0.00000E+00        -0.81294E+07
 
   -0.79381E+07         0.17354E+07         0.00000E+00
    0.17354E+07        -0.36903E+08         0.00000E+00
    0.00000E+00         0.00000E+00        -0.80299E+07
 
   -0.76718E+07         0.16711E+05         0.00000E+00
    0.16711E+05        -0.37907E+08         0.00000E+00
    0.00000E+00         0.00000E+00        -0.90610E+07
 
   -0.77293E+07         0.65799E+05         0.00000E+00
    0.65799E+05        -0.37906E+08         0.00000E+00
    0.00000E+00         0.00000E+00        -0.89974E+07
 
   -0.77829E+07         0.12950E+06         0.00000E+00
    0.12950E+06        -0.37904E+08         0.00000E+00
    0.00000E+00         0.00000E+00        -0.89378E+07
 
   -0.78323E+07         0.20794E+06         0.00000E+00
    0.20794E+06        -0.37899E+08         0.00000E+00
    0.00000E+00         0.00000E+00        -0.88822E+07
 
   -0.78771E+07         0.30093E+06         0.00000E+00
    0.30093E+06        -0.37892E+08         0.00000E+00
    0.00000E+00         0.00000E+00        -0.88304E+07
 
   -0.79170E+07         0.40785E+06         0.00000E+00
    0.40785E+06        -0.37881E+08         0.00000E+00
    0.00000E+00         0.00000E+00        -0.87828E+07
 
   -0.79521E+07         0.52757E+06         0.00000E+00
    0.52757E+06        -0.37866E+08         0.00000E+00
    0.00000E+00         0.00000E+00        -0.87391E+07
 
   -0.79828E+07         0.65855E+06         0.00000E+00
    0.65855E+06        -0.37847E+08         0.00000E+00
    0.00000E+00         0.00000E+00        -0.86987E+07
 
   -0.80104E+07         0.79911E+06         0.00000E+00
    0.79911E+06        -0.37822E+08         0.00000E+00
    0.00000E+00         0.00000E+00        -0.86598E+07
 
   -0.80370E+07         0.94788E+06         0.00000E+00
    0.94788E+06        -0.37791E+08         0.00000E+00
    0.00000E+00         0.00000E+00        -0.86202E+07
 
   -0.80654E+07         0.11040E+07         0.00000E+00
    0.11040E+07        -0.37754E+08         0.00000E+00
    0.00000E+00         0.00000E+00        -0.85773E+07
 
   -0.80988E+07         0.12673E+07         0.00000E+00
    0.12673E+07        -0.37712E+08         0.00000E+00
    0.00000E+00         0.00000E+00        -0.85288E+07
 
   -0.81397E+07         0.14379E+07         0.00000E+00
    0.14379E+07        -0.37664E+08         0.00000E+00
    0.00000E+00         0.00000E+00        -0.84730E+07
 
   -0.81909E+07         0.16160E+07         0.00000E+00
    0.16160E+07        -0.37613E+08         0.00000E+00
    0.00000E+00         0.00000E+00        -0.84083E+07
 
   -0.82555E+07         0.18012E+07         0.00000E+00
    0.18012E+07        -0.37557E+08         0.00000E+00
    0.00000E+00         0.00000E+00        -0.83330E+07
 
   -0.81340E+07         0.16943E+05         0.00000E+00
    0.16943E+05        -0.38411E+08         0.00000E+00
    0.00000E+00         0.00000E+00        -0.90489E+07
 
   -0.81766E+07         0.66474E+05         0.00000E+00
    0.66474E+05        -0.38411E+08         0.00000E+00
    0.00000E+00         0.00000E+00        -0.90041E+07
 
   -0.82151E+07         0.13137E+06         0.00000E+00
    0.13137E+06        -0.38411E+08         0.00000E+00
    0.00000E+00         0.00000E+00        -0.89642E+07
 
   -0.82495E+07         0.21161E+06         0.00000E+00
    0.21161E+06        -0.38410E+08         0.00000E+00
    0.00000E+00         0.00000E+00        -0.89292E+07
 
   -0.82797E+07         0.30690E+06         0.00000E+00
    0.30690E+06        -0.38408E+08         0.00000E+00
    0.00000E+00         0.00000E+00        -0.88989E+07
 
   -0.83060E+07         0.41661E+06         0.00000E+00
    0.41661E+06        -0.38404E+08         0.00000E+00
    0.00000E+00         0.00000E+00        -0.88732E+07
 
   -0.83288E+07         0.53963E+06         0.00000E+00
    0.53963E+06        -0.38398E+08         0.00000E+00
    0.00000E+00         0.00000E+00        -0.88517E+07
 
   -0.83487E+07         0.67452E+06         0.00000E+00
    0.67452E+06        -0.38389E+08         0.00000E+00
    0.00000E+00         0.00000E+00        -0.88335E+07
 
   -0.83672E+07         0.81968E+06         0.00000E+00
    0.81968E+06        -0.38377E+08         0.00000E+00
    0.00000E+00         0.00000E+00        -0.88172E+07
 
   -0.83859E+07         0.97358E+06         0.00000E+00
    0.97358E+06        -0.38361E+08         0.00000E+00
    0.00000E+00         0.00000E+00        -0.88007E+07
 
   -0.84070E+07         0.11351E+07         0.00000E+00
    0.11351E+07        -0.38339E+08         0.00000E+00
    0.00000E+00         0.00000E+00        -0.87814E+07
 
   -0.84333E+07         0.13037E+07         0.00000E+00
    0.13037E+07        -0.38313E+08         0.00000E+00
    0.00000E+00         0.00000E+00        -0.87570E+07
 
   -0.84671E+07         0.14791E+07         0.00000E+00
    0.14791E+07        -0.38282E+08         0.00000E+00
    0.00000E+00         0.00000E+00        -0.87253E+07
 
   -0.85114E+07         0.16611E+07         0.00000E+00
    0.16611E+07        -0.38247E+08         0.00000E+00
    0.00000E+00         0.00000E+00        -0.86847E+07
 
   -0.85699E+07         0.18497E+07         0.00000E+00
    0.18497E+07        -0.38208E+08         0.00000E+00
    0.00000E+00         0.00000E+00        -0.86328E+07
 
   -0.85967E+07         0.16509E+05         0.00000E+00
    0.16509E+05        -0.38915E+08         0.00000E+00
    0.00000E+00         0.00000E+00        -0.90443E+07
 
   -0.86237E+07         0.65087E+05         0.00000E+00
    0.65087E+05        -0.38917E+08         0.00000E+00
    0.00000E+00         0.00000E+00        -0.90184E+07
 
   -0.86465E+07         0.12963E+06         0.00000E+00
    0.12963E+06        -0.38920E+08         0.00000E+00
    0.00000E+00         0.00000E+00        -0.89989E+07
 
   -0.86654E+07         0.21006E+06         0.00000E+00
    0.21006E+06        -0.38924E+08         0.00000E+00
    0.00000E+00         0.00000E+00        -0.89852E+07
 
   -0.86807E+07         0.30606E+06         0.00000E+00
    0.30606E+06        -0.38928E+08         0.00000E+00
    0.00000E+00         0.00000E+00        -0.89771E+07
 
   -0.86928E+07         0.41696E+06         0.00000E+00
    0.41696E+06        -0.38933E+08         0.00000E+00
    0.00000E+00         0.00000E+00        -0.89739E+07
 
   -0.87026E+07         0.54173E+06         0.00000E+00
    0.54173E+06        -0.38936E+08         0.00000E+00
    0.00000E+00         0.00000E+00        -0.89749E+07
 
   -0.87111E+07         0.67902E+06         0.00000E+00
    0.67902E+06        -0.38938E+08         0.00000E+00
    0.00000E+00         0.00000E+00        -0.89789E+07
 
   -0.87197E+07         0.82734E+06         0.00000E+00
    0.82734E+06        -0.38938E+08         0.00000E+00
    0.00000E+00         0.00000E+00        -0.89843E+07
 
   -0.87299E+07         0.98521E+06         0.00000E+00
    0.98521E+06        -0.38934E+08         0.00000E+00
    0.00000E+00         0.00000E+00        -0.89892E+07
 
   -0.87436E+07         0.11513E+07         0.00000E+00
    0.11513E+07        -0.38927E+08         0.00000E+00
    0.00000E+00         0.00000E+00        -0.89913E+07
 
   -0.87629E+07         0.13247E+07         0.00000E+00
    0.13247E+07        -0.38915E+08         0.00000E+00
    0.00000E+00         0.00000E+00        -0.89883E+07
 
   -0.87903E+07         0.15046E+07         0.00000E+00
    0.15046E+07        -0.38899E+08         0.00000E+00
    0.00000E+00         0.00000E+00        -0.89781E+07
 
   -0.88282E+07         0.16907E+07         0.00000E+00
    0.16907E+07        -0.38878E+08         0.00000E+00
    0.00000E+00         0.00000E+00        -0.89586E+07
 
   -0.88795E+07         0.18837E+07         0.00000E+00
    0.18837E+07        -0.38852E+08         0.00000E+00
    0.00000E+00         0.00000E+00        -0.89278E+07
 
   -0.90616E+07         0.15066E+05         0.00000E+00
    0.15066E+05        -0.39419E+08         0.00000E+00
    0.00000E+00         0.00000E+00        -0.90448E+07
 
   -0.90722E+07         0.60815E+05         0.00000E+00
    0.60815E+05        -0.39423E+08         0.00000E+00
    0.00000E+00         0.00000E+00        -0.90380E+07
 
   -0.90788E+07         0.12317E+06         0.00000E+00
    0.12317E+06        -0.39430E+08         0.00000E+00
    0.00000E+00         0.00000E+00        -0.90390E+07
 
   -0.90816E+07         0.20214E+06         0.00000E+00
    0.20214E+06        -0.39440E+08         0.00000E+00
    0.00000E+00         0.00000E+00        -0.90472E+07
 
   -0.90813E+07         0.29737E+06         0.00000E+00
    0.29737E+06        -0.39452E+08         0.00000E+00
    0.00000E+00         0.00000E+00        -0.90617E+07
 
   -0.90787E+07         0.40821E+06         0.00000E+00
    0.40821E+06        -0.39465E+08         0.00000E+00
    0.00000E+00         0.00000E+00        -0.90814E+07
 
   -0.90750E+07         0.53362E+06         0.00000E+00
    0.53362E+06        -0.39479E+08         0.00000E+00
    0.00000E+00         0.00000E+00        -0.91050E+07
 
   -0.90713E+07         0.67236E+06         0.00000E+00
    0.67236E+06        -0.39491E+08         0.00000E+00
    0.00000E+00         0.00000E+00        -0.91310E+07
 
   -0.90691E+07         0.82299E+06         0.00000E+00
    0.82299E+06        -0.39502E+08         0.00000E+00
    0.00000E+00         0.00000E+00        -0.91578E+07
 
   -0.90700E+07         0.98404E+06         0.00000E+00
    0.98404E+06        -0.39511E+08         0.00000E+00
    0.00000E+00         0.00000E+00        -0.91834E+07
 
   -0.90757E+07         0.11541E+07         0.00000E+00
    0.11541E+07        -0.39516E+08         0.00000E+00
    0.00000E+00         0.00000E+00        -0.92057E+07
 
   -0.90880E+07         0.13319E+07         0.00000E+00
    0.13319E+07        -0.39518E+08         0.00000E+00
    0.00000E+00         0.00000E+00        -0.92226E+07
 
   -0.91089E+07         0.15167E+07         0.00000E+00
    0.15167E+07        -0.39514E+08         0.00000E+00
    0.00000E+00         0.00000E+00        -0.92318E+07
 
   -0.91403E+07         0.17081E+07         0.00000E+00
    0.17081E+07        -0.39505E+08         0.00000E+00
    0.00000E+00         0.00000E+00        -0.92312E+07
 
   -0.91842E+07         0.19061E+07         0.00000E+00
    0.19061E+07        -0.39490E+08         0.00000E+00
    0.00000E+00         0.00000E+00        -0.92190E+07
 
   -0.95307E+07         0.12396E+05         0.00000E+00
    0.12396E+05        -0.39923E+08         0.00000E+00
    0.00000E+00         0.00000E+00        -0.90482E+07
 
   -0.95244E+07         0.53087E+05         0.00000E+00
    0.53087E+05        -0.39930E+08         0.00000E+00
    0.00000E+00         0.00000E+00        -0.90603E+07
 
   -0.95138E+07         0.11135E+06         0.00000E+00
    0.11135E+06        -0.39942E+08         0.00000E+00
    0.00000E+00         0.00000E+00        -0.90821E+07
 
   -0.94997E+07         0.18720E+06         0.00000E+00
    0.18720E+06        -0.39958E+08         0.00000E+00
    0.00000E+00         0.00000E+00        -0.91124E+07
 
   -0.94829E+07         0.28032E+06         0.00000E+00
    0.28032E+06        -0.39978E+08         0.00000E+00
    0.00000E+00         0.00000E+00        -0.91497E+07
 
   -0.94648E+07         0.39001E+06         0.00000E+00
    0.39001E+06        -0.40000E+08         0.00000E+00
    0.00000E+00         0.00000E+00        -0.91924E+07
 
   -0.94466E+07         0.51526E+06         0.00000E+00
    0.51526E+06        -0.40023E+08         0.00000E+00
    0.00000E+00         0.00000E+00        -0.92387E+07
 
   -0.94298E+07         0.65481E+06         0.00000E+00
    0.65481E+06        -0.40046E+08         0.00000E+00
    0.00000E+00         0.00000E+00        -0.92868E+07
 
   -0.94161E+07         0.80723E+06         0.00000E+00
    0.80723E+06        -0.40068E+08         0.00000E+00
    0.00000E+00         0.00000E+00        -0.93348E+07
 
   -0.94068E+07         0.97100E+06         0.00000E+00
    0.97100E+06        -0.40088E+08         0.00000E+00
    0.00000E+00         0.00000E+00        -0.93807E+07
 
   -0.94037E+07         0.11447E+07         0.00000E+00
    0.11447E+07        -0.40105E+08         0.00000E+00
    0.00000E+00         0.00000E+00        -0.94224E+07
 
   -0.94083E+07         0.13270E+07         0.00000E+00
    0.13270E+07        -0.40118E+08         0.00000E+00
    0.00000E+00         0.00000E+00        -0.94579E+07
 
   -0.94221E+07         0.15171E+07         0.00000E+00
    0.15171E+07        -0.40125E+08         0.00000E+00
    0.00000E+00         0.00000E+00        -0.94853E+07
 
   -0.94467E+07         0.17143E+07         0.00000E+00
    0.17143E+07        -0.40127E+08         0.00000E+00
    0.00000E+00         0.00000E+00        -0.95026E+07
 
   -0.94845E+07         0.19178E+07         0.00000E+00
    0.19178E+07        -0.40124E+08         0.00000E+00
    0.00000E+00         0.00000E+00        -0.95082E+07
 
   -0.10006E+08         0.83980E+04         0.00000E+00
    0.83980E+04        -0.40428E+08         0.00000E+00
    0.00000E+00         0.00000E+00        -0.90516E+07
 
   -0.99821E+07         0.41688E+05         0.00000E+00
    0.41688E+05        -0.40437E+08         0.00000E+00
    0.00000E+00         0.00000E+00        -0.90828E+07
 
   -0.99533E+07         0.93891E+05         0.00000E+00
    0.93891E+05        -0.40453E+08         0.00000E+00
    0.00000E+00         0.00000E+00        -0.91256E+07
 
   -0.99211E+07         0.16505E+06         0.00000E+00
    0.16505E+06        -0.40476E+08         0.00000E+00
    0.00000E+00         0.00000E+00        -0.91782E+07
 
   -0.98868E+07         0.25480E+06         0.00000E+00
    0.25480E+06        -0.40504E+08         0.00000E+00
    0.00000E+00         0.00000E+00        -0.92386E+07
 
   -0.98519E+07         0.36242E+06         0.00000E+00
    0.36242E+06        -0.40535E+08         0.00000E+00
    0.00000E+00         0.00000E+00        -0.93044E+07
 
   -0.98182E+07         0.48685E+06         0.00000E+00
    0.48685E+06        -0.40567E+08         0.00000E+00
    0.00000E+00         0.00000E+00        -0.93735E+07
 
   -0.97873E+07         0.62676E+06         0.00000E+00
    0.62676E+06        -0.40601E+08         0.00000E+00
    0.00000E+00         0.00000E+00        -0.94437E+07
 
   -0.97608E+07         0.78068E+06         0.00000E+00
    0.78068E+06        -0.40633E+08         0.00000E+00
    0.00000E+00         0.00000E+00        -0.95127E+07
 
   -0.97405E+07         0.94706E+06         0.00000E+00
    0.94706E+06        -0.40663E+08         0.00000E+00
    0.00000E+00         0.00000E+00        -0.95786E+07
 
   -0.97276E+07         0.11244E+07         0.00000E+00
    0.11244E+07        -0.40690E+08         0.00000E+00
    0.00000E+00         0.00000E+00        -0.96392E+07
 
   -0.97235E+07         0.13114E+07         0.00000E+00
    0.13114E+07        -0.40713E+08         0.00000E+00
    0.00000E+00         0.00000E+00        -0.96927E+07
 
   -0.97295E+07         0.15069E+07         0.00000E+00
    0.15069E+07        -0.40731E+08         0.00000E+00
    0.00000E+00         0.00000E+00        -0.97376E+07
 
   -0.97479E+07         0.17091E+07         0.00000E+00
    0.17091E+07        -0.40745E+08         0.00000E+00
    0.00000E+00         0.00000E+00        -0.97722E+07
 
   -0.97811E+07         0.19163E+07         0.00000E+00
    0.19163E+07        -0.40754E+08         0.00000E+00
    0.00000E+00         0.00000E+00        -0.97943E+07
 
   -0.10492E+08         0.30398E+04         0.00000E+00
    0.30398E+04        -0.40932E+08         0.00000E+00
    0.00000E+00         0.00000E+00        -0.90533E+07
 
   -0.10448E+08         0.26710E+05         0.00000E+00
    0.26710E+05        -0.40944E+08         0.00000E+00
    0.00000E+00         0.00000E+00        -0.91037E+07
 
   -0.10399E+08         0.70970E+05         0.00000E+00
    0.70970E+05        -0.40965E+08         0.00000E+00
    0.00000E+00         0.00000E+00        -0.91677E+07
 
   -0.10347E+08         0.13591E+06         0.00000E+00
    0.13591E+06        -0.40993E+08         0.00000E+00
    0.00000E+00         0.00000E+00        -0.92427E+07
 
   -0.10294E+08         0.22114E+06         0.00000E+00
    0.22114E+06        -0.41028E+08         0.00000E+00
    0.00000E+00         0.00000E+00        -0.93261E+07
 
   -0.10241E+08         0.32583E+06         0.00000E+00
    0.32583E+06        -0.41068E+08         0.00000E+00
    0.00000E+00         0.00000E+00        -0.94150E+07
 
   -0.10190E+08         0.44885E+06         0.00000E+00
    0.44885E+06        -0.41109E+08         0.00000E+00
    0.00000E+00         0.00000E+00        -0.95069E+07
 
   -0.10144E+08         0.58879E+06         0.00000E+00
    0.58879E+06        -0.41152E+08         0.00000E+00
    0.00000E+00         0.00000E+00        -0.95991E+07
 
   -0.10104E+08         0.74412E+06         0.00000E+00
    0.74412E+06        -0.41194E+08         0.00000E+00
    0.00000E+00         0.00000E+00        -0.96892E+07
 
   -0.10071E+08         0.91323E+06         0.00000E+00
    0.91323E+06        -0.41234E+08         0.00000E+00
    0.00000E+00         0.00000E+00        -0.97749E+07
 
   -0.10047E+08         0.10944E+07         0.00000E+00
    0.10944E+07        -0.41270E+08         0.00000E+00
    0.00000E+00         0.00000E+00        -0.98543E+07
 
   -0.10034E+08         0.12860E+07         0.00000E+00
    0.12860E+07        -0.41303E+08         0.00000E+00
    0.00000E+00         0.00000E+00        -0.99256E+07
 
   -0.10033E+08         0.14855E+07         0.00000E+00
    0.14855E+07        -0.41332E+08         0.00000E+00
    0.00000E+00         0.00000E+00        -0.99872E+07
 
   -0.10045E+08         0.16919E+07         0.00000E+00
    0.16919E+07        -0.41356E+08         0.00000E+00
    0.00000E+00         0.00000E+00        -0.10037E+08
 
   -0.10072E+08         0.19048E+07         0.00000E+00
    0.19048E+07        -0.41374E+08         0.00000E+00
    0.00000E+00         0.00000E+00        -0.10075E+08
 
   -0.10988E+08        -0.35655E+04         0.00000E+00
   -0.35655E+04        -0.41437E+08         0.00000E+00
    0.00000E+00         0.00000E+00        -0.90511E+07
 
   -0.10923E+08         0.84107E+04         0.00000E+00
    0.84107E+04        -0.41450E+08         0.00000E+00
    0.00000E+00         0.00000E+00        -0.91212E+07
 
   -0.10853E+08         0.43080E+05         0.00000E+00
    0.43080E+05        -0.41475E+08         0.00000E+00
    0.00000E+00         0.00000E+00        -0.92066E+07
 
   -0.10779E+08         0.10046E+06         0.00000E+00
    0.10046E+06        -0.41509E+08         0.00000E+00
    0.00000E+00         0.00000E+00        -0.93041E+07
 
   -0.10705E+08         0.18008E+06         0.00000E+00
    0.18008E+06        -0.41550E+08         0.00000E+00
    0.00000E+00         0.00000E+00        -0.94104E+07
 
   -0.10632E+08         0.28105E+06         0.00000E+00
    0.28105E+06        -0.41597E+08         0.00000E+00
    0.00000E+00         0.00000E+00        -0.95223E+07
 
   -0.10563E+08         0.40211E+06         0.00000E+00
    0.40211E+06        -0.41646E+08         0.00000E+00
    0.00000E+00         0.00000E+00        -0.96368E+07
 
   -0.10500E+08         0.54181E+06         0.00000E+00
    0.54181E+06        -0.41697E+08         0.00000E+00
    0.00000E+00         0.00000E+00        -0.97509E+07
 
   -0.10444E+08         0.69846E+06         0.00000E+00
    0.69846E+06        -0.41748E+08         0.00000E+00
    0.00000E+00         0.00000E+00        -0.98620E+07
 
   -0.10398E+08         0.87011E+06         0.00000E+00
    0.87011E+06        -0.41797E+08         0.00000E+00
    0.00000E+00         0.00000E+00        -0.99676E+07
 
   -0.10363E+08         0.10547E+07         0.00000E+00
    0.10547E+07        -0.41843E+08         0.00000E+00
    0.00000E+00         0.00000E+00        -0.10066E+08
 
   -0.10340E+08         0.12500E+07         0.00000E+00
    0.12500E+07        -0.41886E+08         0.00000E+00
    0.00000E+00         0.00000E+00        -0.10155E+08
 
   -0.10331E+08         0.14542E+07         0.00000E+00
    0.14542E+07        -0.41924E+08         0.00000E+00
    0.00000E+00         0.00000E+00        -0.10233E+08
 
   -0.10337E+08         0.16662E+07         0.00000E+00
    0.16662E+07        -0.41957E+08         0.00000E+00
    0.00000E+00         0.00000E+00        -0.10298E+08
 
   -0.10357E+08         0.18855E+07         0.00000E+00
    0.18855E+07        -0.41983E+08         0.00000E+00
    0.00000E+00         0.00000E+00        -0.10349E+08
 
   -0.11499E+08        -0.11227E+05         0.00000E+00
   -0.11227E+05        -0.41941E+08         0.00000E+00
    0.00000E+00         0.00000E+00        -0.90437E+07
 
   -0.11410E+08        -0.12691E+05         0.00000E+00
   -0.12691E+05        -0.41956E+08         0.00000E+00
    0.00000E+00         0.00000E+00        -0.91341E+07
 
   -0.11315E+08         0.11021E+05         0.00000E+00
    0.11021E+05        -0.41984E+08         0.00000E+00
    0.00000E+00         0.00000E+00        -0.92410E+07
 
   -0.11218E+08         0.59730E+05         0.00000E+00
    0.59730E+05        -0.42022E+08         0.00000E+00
    0.00000E+00         0.00000E+00        -0.93608E+07
 
   -0.11121E+08         0.13283E+06         0.00000E+00
    0.13283E+06        -0.42069E+08         0.00000E+00
    0.00000E+00         0.00000E+00        -0.94898E+07
 
   -0.11027E+08         0.22931E+06         0.00000E+00
    0.22931E+06        -0.42121E+08         0.00000E+00
    0.00000E+00         0.00000E+00        -0.96244E+07
 
   -0.10937E+08         0.34786E+06         0.00000E+00
    0.34786E+06        -0.42177E+08         0.00000E+00
    0.00000E+00         0.00000E+00        -0.97612E+07
 
   -0.10855E+08         0.48680E+06         0.00000E+00
    0.48680E+06        -0.42235E+08         0.00000E+00
    0.00000E+00         0.00000E+00        -0.98970E+07
 
   -0.10783E+08         0.64416E+06         0.00000E+00
    0.64416E+06        -0.42294E+08         0.00000E+00
    0.00000E+00         0.00000E+00        -0.10029E+08
 
   -0.10722E+08         0.81779E+06         0.00000E+00
    0.81779E+06        -0.42351E+08         0.00000E+00
    0.00000E+00         0.00000E+00        -0.10155E+08
 
   -0.10675E+08         0.10053E+07         0.00000E+00
    0.10053E+07        -0.42406E+08         0.00000E+00
    0.00000E+00         0.00000E+00        -0.10272E+08
 
   -0.10642E+08         0.12047E+07         0.00000E+00
    0.12047E+07        -0.42458E+08         0.00000E+00
    0.00000E+00         0.00000E+00        -0.10378E+08
 
   -0.10624E+08         0.14143E+07         0.00000E+00
    0.14143E+07        -0.42505E+08         0.00000E+00
    0.00000E+00         0.00000E+00        -0.10472E+08
 
   -0.10622E+08         0.16329E+07         0.00000E+00
    0.16329E+07        -0.42546E+08         0.00000E+00
    0.00000E+00         0.00000E+00        -0.10552E+08
 
   -0.10635E+08         0.18590E+07         0.00000E+00
    0.18590E+07        -0.42579E+08         0.00000E+00
    0.00000E+00         0.00000E+00        -0.10617E+08
 
   -0.12025E+08        -0.19694E+05         0.00000E+00
   -0.19694E+05        -0.42445E+08         0.00000E+00
    0.00000E+00         0.00000E+00        -0.90302E+07
 
   -0.11909E+08        -0.35879E+05         0.00000E+00
   -0.35879E+05        -0.42462E+08         0.00000E+00
    0.00000E+00         0.00000E+00        -0.91414E+07
 
   -0.11788E+08        -0.24105E+05         0.00000E+00
   -0.24105E+05        -0.42492E+08         0.00000E+00
    0.00000E+00         0.00000E+00        -0.92700E+07
 
   -0.11665E+08         0.15137E+05         0.00000E+00
    0.15137E+05        -0.42533E+08         0.00000E+00
    0.00000E+00         0.00000E+00        -0.94120E+07
 
   -0.11543E+08         0.80992E+05         0.00000E+00
    0.80992E+05        -0.42582E+08         0.00000E+00
    0.00000E+00         0.00000E+00        -0.95632E+07
 
   -0.11425E+08         0.17228E+06         0.00000E+00
    0.17228E+06        -0.42639E+08         0.00000E+00
    0.00000E+00         0.00000E+00        -0.97197E+07
 
   -0.11314E+08         0.28749E+06         0.00000E+00
    0.28749E+06        -0.42699E+08         0.00000E+00
    0.00000E+00         0.00000E+00        -0.98782E+07
 
   -0.11211E+08         0.42479E+06         0.00000E+00
    0.42479E+06        -0.42763E+08         0.00000E+00
    0.00000E+00         0.00000E+00        -0.10035E+08
 
   -0.11121E+08         0.58211E+06         0.00000E+00
    0.58211E+06        -0.42828E+08         0.00000E+00
    0.00000E+00         0.00000E+00        -0.10188E+08
 
   -0.11045E+08         0.75707E+06         0.00000E+00
    0.75707E+06        -0.42893E+08         0.00000E+00
    0.00000E+00         0.00000E+00        -0.10333E+08
 
   -0.10984E+08         0.94739E+06         0.00000E+00
    0.94739E+06        -0.42956E+08         0.00000E+00
    0.00000E+00         0.00000E+00        -0.10469E+08
 
   -0.10939E+08         0.11510E+07         0.00000E+00
    0.11510E+07        -0.43016E+08         0.00000E+00
    0.00000E+00         0.00000E+00        -0.10592E+08
 
   -0.10911E+08         0.13661E+07         0.00000E+00
    0.13661E+07        -0.43071E+08         0.00000E+00
    0.00000E+00         0.00000E+00        -0.10703E+08
 
   -0.10900E+08         0.15913E+07         0.00000E+00
    0.15913E+07        -0.43121E+08         0.00000E+00
    0.00000E+00         0.00000E+00        -0.10799E+08
 
   -0.10906E+08         0.18240E+07         0.00000E+00
    0.18240E+07        -0.43164E+08         0.00000E+00
    0.00000E+00         0.00000E+00        -0.10879E+08
 
   -0.12568E+08        -0.28683E+05         0.00000E+00
   -0.28683E+05        -0.42950E+08         0.00000E+00
    0.00000E+00         0.00000E+00        -0.90103E+07
 
   -0.12422E+08        -0.60331E+05         0.00000E+00
   -0.60331E+05        -0.42967E+08         0.00000E+00
    0.00000E+00         0.00000E+00        -0.91432E+07
 
   -0.12272E+08        -0.60974E+05         0.00000E+00
   -0.60974E+05        -0.42998E+08         0.00000E+00
    0.00000E+00         0.00000E+00        -0.92936E+07
 
   -0.12121E+08        -0.31585E+05         0.00000E+00
   -0.31585E+05        -0.43040E+08         0.00000E+00
    0.00000E+00         0.00000E+00        -0.94572E+07
 
   -0.11972E+08         0.26573E+05         0.00000E+00
    0.26573E+05        -0.43091E+08         0.00000E+00
    0.00000E+00         0.00000E+00        -0.96295E+07
 
   -0.11828E+08         0.11199E+06         0.00000E+00
    0.11199E+06        -0.43148E+08         0.00000E+00
    0.00000E+00         0.00000E+00        -0.98068E+07
 
   -0.11693E+08         0.22296E+06         0.00000E+00
    0.22296E+06        -0.43211E+08         0.00000E+00
    0.00000E+00         0.00000E+00        -0.99855E+07
 
   -0.11569E+08         0.35759E+06         0.00000E+00
    0.35759E+06        -0.43278E+08         0.00000E+00
    0.00000E+00         0.00000E+00        -0.10163E+08
 
   -0.11459E+08         0.51381E+06         0.00000E+00
    0.51381E+06        -0.43348E+08         0.00000E+00
    0.00000E+00         0.00000E+00        -0.10335E+08
 
   -0.11365E+08         0.68927E+06         0.00000E+00
    0.68927E+06        -0.43419E+08         0.00000E+00
    0.00000E+00         0.00000E+00        -0.10499E+08
 
   -0.11289E+08         0.88173E+06         0.00000E+00
    0.88173E+06        -0.43489E+08         0.00000E+00
    0.00000E+00         0.00000E+00        -0.10653E+08
 
   -0.11231E+08         0.10890E+07         0.00000E+00
    0.10890E+07        -0.43557E+08         0.00000E+00
    0.00000E+00         0.00000E+00        -0.10795E+08
 
   -0.11192E+08         0.13093E+07         0.00000E+00
    0.13093E+07        -0.43621E+08         0.00000E+00
    0.00000E+00         0.00000E+00        -0.10923E+08
 
   -0.11172E+08         0.15399E+07         0.00000E+00
    0.15399E+07        -0.43681E+08         0.00000E+00
    0.00000E+00         0.00000E+00        -0.11037E+08
 
   -0.11172E+08         0.17782E+07         0.00000E+00
    0.17782E+07        -0.43735E+08         0.00000E+00
    0.00000E+00         0.00000E+00        -0.11134E+08
 
   -0.13128E+08        -0.37921E+05         0.00000E+00
   -0.37921E+05        -0.43454E+08         0.00000E+00
    0.00000E+00         0.00000E+00        -0.89843E+07
 
   -0.12949E+08        -0.85195E+05         0.00000E+00
   -0.85195E+05        -0.43471E+08         0.00000E+00
    0.00000E+00         0.00000E+00        -0.91397E+07
 
   -0.12767E+08        -0.98134E+05         0.00000E+00
   -0.98134E+05        -0.43502E+08         0.00000E+00
    0.00000E+00         0.00000E+00        -0.93120E+07
 
   -0.12585E+08        -0.78401E+05         0.00000E+00
   -0.78401E+05        -0.43543E+08         0.00000E+00
    0.00000E+00         0.00000E+00        -0.94964E+07
 
   -0.12407E+08        -0.27933E+05         0.00000E+00
   -0.27933E+05        -0.43593E+08         0.00000E+00
    0.00000E+00         0.00000E+00        -0.96883E+07
 
   -0.12236E+08         0.51215E+05         0.00000E+00
    0.51215E+05        -0.43649E+08         0.00000E+00
    0.00000E+00         0.00000E+00        -0.98841E+07
 
   -0.12076E+08         0.15707E+06         0.00000E+00
    0.15707E+06        -0.43711E+08         0.00000E+00
    0.00000E+00         0.00000E+00        -0.10081E+08
 
   -0.11928E+08         0.28779E+06         0.00000E+00
    0.28779E+06        -0.43778E+08         0.00000E+00
    0.00000E+00         0.00000E+00        -0.10276E+08
 
   -0.11797E+08         0.44133E+06         0.00000E+00
    0.44133E+06        -0.43850E+08         0.00000E+00
    0.00000E+00         0.00000E+00        -0.10466E+08
 
   -0.11685E+08         0.61565E+06         0.00000E+00
    0.61565E+06        -0.43925E+08         0.00000E+00
    0.00000E+00         0.00000E+00        -0.10648E+08
 
   -0.11592E+08         0.80864E+06         0.00000E+00
    0.80864E+06        -0.44001E+08         0.00000E+00
    0.00000E+00         0.00000E+00        -0.10821E+08
 
   -0.11520E+08         0.10182E+07         0.00000E+00
    0.10182E+07        -0.44078E+08         0.00000E+00
    0.00000E+00         0.00000E+00        -0.10983E+08
 
   -0.11468E+08         0.12419E+07         0.00000E+00
    0.12419E+07        -0.44152E+08         0.00000E+00
    0.00000E+00         0.00000E+00        -0.11130E+08
 
   -0.11438E+08         0.14768E+07         0.00000E+00
    0.14768E+07        -0.44224E+08         0.00000E+00
    0.00000E+00         0.00000E+00        -0.11263E+08
 
   -0.11430E+08         0.17221E+07         0.00000E+00
    0.17221E+07        -0.44290E+08         0.00000E+00
    0.00000E+00         0.00000E+00        -0.11378E+08
 
   -0.13705E+08        -0.47170E+05         0.00000E+00
   -0.47170E+05        -0.43958E+08         0.00000E+00
    0.00000E+00         0.00000E+00        -0.89531E+07
 
   -0.13490E+08        -0.10966E+06         0.00000E+00
   -0.10966E+06        -0.43975E+08         0.00000E+00
    0.00000E+00         0.00000E+00        -0.91319E+07
 
   -0.13273E+08        -0.13403E+06         0.00000E+00
   -0.13403E+06        -0.44004E+08         0.00000E+00
    0.00000E+00         0.00000E+00        -0.93261E+07
 
   -0.13058E+08        -0.12298E+06         0.00000E+00
   -0.12298E+06        -0.44042E+08         0.00000E+00
    0.00000E+00         0.00000E+00        -0.95303E+07
 
   -0.12850E+08        -0.79466E+05         0.00000E+00
   -0.79466E+05        -0.44088E+08         0.00000E+00
    0.00000E+00         0.00000E+00        -0.97395E+07
 
   -0.12651E+08        -0.64416E+04         0.00000E+00
   -0.64416E+04        -0.44139E+08         0.00000E+00
    0.00000E+00         0.00000E+00        -0.99506E+07
 
   -0.12464E+08         0.93600E+05         0.00000E+00
    0.93600E+05        -0.44196E+08         0.00000E+00
    0.00000E+00         0.00000E+00        -0.10162E+08
 
   -0.12293E+08         0.21870E+06         0.00000E+00
    0.21870E+06        -0.44260E+08         0.00000E+00
    0.00000E+00         0.00000E+00        -0.10371E+08
 
   -0.12139E+08         0.36711E+06         0.00000E+00
    0.36711E+06        -0.44330E+08         0.00000E+00
    0.00000E+00         0.00000E+00        -0.10576E+08
 
   -0.12006E+08         0.53741E+06         0.00000E+00
    0.53741E+06        -0.44407E+08         0.00000E+00
    0.00000E+00         0.00000E+00        -0.10776E+08
 
   -0.11895E+08         0.72810E+06         0.00000E+00
    0.72810E+06        -0.44490E+08         0.00000E+00
    0.00000E+00         0.00000E+00        -0.10969E+08
 
   -0.11806E+08         0.93724E+06         0.00000E+00
    0.93724E+06        -0.44575E+08         0.00000E+00
    0.00000E+00         0.00000E+00        -0.11151E+08
 
   -0.11741E+08         0.11623E+07         0.00000E+00
    0.11623E+07        -0.44662E+08         0.00000E+00
    0.00000E+00         0.00000E+00        -0.11320E+08
 
   -0.11699E+08         0.14017E+07         0.00000E+00
    0.14017E+07        -0.44746E+08         0.00000E+00
    0.00000E+00         0.00000E+00        -0.11474E+08
 
   -0.11680E+08         0.16538E+07         0.00000E+00
    0.16538E+07        -0.44826E+08         0.00000E+00
    0.00000E+00         0.00000E+00        -0.11612E+08
 
   -0.14300E+08        -0.56280E+05         0.00000E+00
   -0.56280E+05        -0.44462E+08         0.00000E+00
    0.00000E+00         0.00000E+00        -0.89176E+07
 
   -0.14043E+08        -0.13294E+06         0.00000E+00
   -0.13294E+06        -0.44478E+08         0.00000E+00
    0.00000E+00         0.00000E+00        -0.91212E+07
 
   -0.13787E+08        -0.16698E+06         0.00000E+00
   -0.16698E+06        -0.44504E+08         0.00000E+00
    0.00000E+00         0.00000E+00        -0.93374E+07
 
   -0.13538E+08        -0.16258E+06         0.00000E+00
   -0.16258E+06        -0.44538E+08         0.00000E+00
    0.00000E+00         0.00000E+00        -0.95598E+07
 
   -0.13298E+08        -0.12434E+06         0.00000E+00
   -0.12434E+06        -0.44575E+08         0.00000E+00
    0.00000E+00         0.00000E+00        -0.97831E+07
 
   -0.13071E+08        -0.56671E+05         0.00000E+00
   -0.56671E+05        -0.44617E+08         0.00000E+00
    0.00000E+00         0.00000E+00        -0.10005E+08
 
   -0.12859E+08         0.36990E+05         0.00000E+00
    0.36990E+05        -0.44665E+08         0.00000E+00
    0.00000E+00         0.00000E+00        -0.10225E+08
 
   -0.12664E+08         0.15426E+06         0.00000E+00
    0.15426E+06        -0.44720E+08         0.00000E+00
    0.00000E+00         0.00000E+00        -0.10444E+08
 
   -0.12488E+08         0.29399E+06         0.00000E+00
    0.29399E+06        -0.44786E+08         0.00000E+00
    0.00000E+00         0.00000E+00        -0.10661E+08
 
   -0.12333E+08         0.45592E+06         0.00000E+00
    0.45592E+06        -0.44862E+08         0.00000E+00
    0.00000E+00         0.00000E+00        -0.10877E+08
 
   -0.12201E+08         0.63981E+06         0.00000E+00
    0.63981E+06        -0.44950E+08         0.00000E+00
    0.00000E+00         0.00000E+00        -0.11088E+08
 
   -0.12094E+08         0.84466E+06         0.00000E+00
    0.84466E+06        -0.45045E+08         0.00000E+00
    0.00000E+00         0.00000E+00        -0.11293E+08
 
   -0.12012E+08         0.10691E+07         0.00000E+00
    0.10691E+07        -0.45146E+08         0.00000E+00
    0.00000E+00         0.00000E+00        -0.11488E+08
 
   -0.11955E+08         0.13115E+07         0.00000E+00
    0.13115E+07        -0.45247E+08         0.00000E+00
    0.00000E+00         0.00000E+00        -0.11669E+08
 
   -0.11922E+08         0.15697E+07         0.00000E+00
    0.15697E+07        -0.45344E+08         0.00000E+00
    0.00000E+00         0.00000E+00        -0.11834E+08
 
   -0.14912E+08        -0.65171E+05         0.00000E+00
   -0.65171E+05        -0.44966E+08         0.00000E+00
    0.00000E+00         0.00000E+00        -0.88793E+07
 
   -0.14607E+08        -0.15423E+06         0.00000E+00
   -0.15423E+06        -0.44981E+08         0.00000E+00
    0.00000E+00         0.00000E+00        -0.91095E+07
 
   -0.14308E+08        -0.19492E+06         0.00000E+00
   -0.19492E+06        -0.45003E+08         0.00000E+00
    0.00000E+00         0.00000E+00        -0.93478E+07
 
   -0.14021E+08        -0.19385E+06         0.00000E+00
   -0.19385E+06        -0.45028E+08         0.00000E+00
    0.00000E+00         0.00000E+00        -0.95861E+07
 
   -0.13750E+08        -0.15823E+06         0.00000E+00
   -0.15823E+06        -0.45053E+08         0.00000E+00
    0.00000E+00         0.00000E+00        -0.98191E+07
 
   -0.13497E+08        -0.94700E+05         0.00000E+00
   -0.94700E+05        -0.45081E+08         0.00000E+00
    0.00000E+00         0.00000E+00        -0.10046E+08
 
   -0.13261E+08        -0.81489E+04         0.00000E+00
   -0.81489E+04        -0.45114E+08         0.00000E+00
    0.00000E+00         0.00000E+00        -0.10269E+08
 
   -0.13045E+08         0.98666E+05         0.00000E+00
    0.98666E+05        -0.45158E+08         0.00000E+00
    0.00000E+00         0.00000E+00        -0.10491E+08
 
   -0.12847E+08         0.22531E+06         0.00000E+00
    0.22531E+06        -0.45215E+08         0.00000E+00
    0.00000E+00         0.00000E+00        -0.10715E+08
 
   -0.12670E+08         0.37311E+06         0.00000E+00
    0.37311E+06        -0.45288E+08         0.00000E+00
    0.00000E+00         0.00000E+00        -0.10943E+08
 
   -0.12516E+08         0.54397E+06         0.00000E+00
    0.54397E+06        -0.45378E+08         0.00000E+00
    0.00000E+00         0.00000E+00        -0.11174E+08
 
   -0.12386E+08         0.73935E+06         0.00000E+00
    0.73935E+06        -0.45484E+08         0.00000E+00
    0.00000E+00         0.00000E+00        -0.11404E+08
 
   -0.12283E+08         0.95927E+06         0.00000E+00
    0.95927E+06        -0.45601E+08         0.00000E+00
    0.00000E+00         0.00000E+00        -0.11629E+08
 
   -0.12207E+08         0.12020E+07         0.00000E+00
    0.12020E+07        -0.45722E+08         0.00000E+00
    0.00000E+00         0.00000E+00        -0.11844E+08
 
   -0.12157E+08         0.14651E+07         0.00000E+00
    0.14651E+07        -0.45842E+08         0.00000E+00
    0.00000E+00         0.00000E+00        -0.12043E+08
 
   -0.15538E+08        -0.73840E+05         0.00000E+00
   -0.73840E+05        -0.45470E+08         0.00000E+00
    0.00000E+00         0.00000E+00        -0.88396E+07
 
   -0.15178E+08        -0.17237E+06         0.00000E+00
   -0.17237E+06        -0.45483E+08         0.00000E+00
    0.00000E+00         0.00000E+00        -0.90991E+07
 
   -0.14832E+08        -0.21487E+06         0.00000E+00
   -0.21487E+06        -0.45498E+08         0.00000E+00
    0.00000E+00         0.00000E+00        -0.93593E+07
 
   -0.14506E+08        -0.21229E+06         0.00000E+00
   -0.21229E+06        -0.45510E+08         0.00000E+00
    0.00000E+00         0.00000E+00        -0.96096E+07
 
   -0.14205E+08        -0.17614E+06         0.00000E+00
   -0.17614E+06        -0.45518E+08         0.00000E+00
    0.00000E+00         0.00000E+00        -0.98459E+07
 
   -0.13928E+08        -0.11600E+06         0.00000E+00
   -0.11600E+06        -0.45527E+08         0.00000E+00
    0.00000E+00         0.00000E+00        -0.10071E+08
 
   -0.13674E+08        -0.37922E+05         0.00000E+00
   -0.37922E+05        -0.45543E+08         0.00000E+00
    0.00000E+00         0.00000E+00        -0.10290E+08
 
   -0.13439E+08         0.55481E+05         0.00000E+00
    0.55481E+05        -0.45571E+08         0.00000E+00
    0.00000E+00         0.00000E+00        -0.10509E+08
 
   -0.13223E+08         0.16455E+06         0.00000E+00
    0.16455E+06        -0.45616E+08         0.00000E+00
    0.00000E+00         0.00000E+00        -0.10734E+08
 
   -0.13025E+08         0.29196E+06         0.00000E+00
    0.29196E+06        -0.45683E+08         0.00000E+00
    0.00000E+00         0.00000E+00        -0.10970E+08
 
   -0.12845E+08         0.44214E+06         0.00000E+00
    0.44214E+06        -0.45773E+08         0.00000E+00
    0.00000E+00         0.00000E+00        -0.11217E+08
 
   -0.12688E+08         0.62004E+06         0.00000E+00
    0.62004E+06        -0.45889E+08         0.00000E+00
    0.00000E+00         0.00000E+00        -0.11475E+08
 
   -0.12558E+08         0.82872E+06         0.00000E+00
    0.82872E+06        -0.46024E+08         0.00000E+00
    0.00000E+00         0.00000E+00        -0.11737E+08
 
   -0.12457E+08         0.10675E+07         0.00000E+00
    0.10675E+07        -0.46171E+08         0.00000E+00
    0.00000E+00         0.00000E+00        -0.11993E+08
 
   -0.12385E+08         0.13334E+07         0.00000E+00
    0.13334E+07        -0.46321E+08         0.00000E+00
    0.00000E+00         0.00000E+00        -0.12238E+08
 
   -0.16178E+08        -0.82285E+05         0.00000E+00
   -0.82285E+05        -0.45974E+08         0.00000E+00
    0.00000E+00         0.00000E+00        -0.88003E+07
 
   -0.15751E+08        -0.18505E+06         0.00000E+00
   -0.18505E+06        -0.45983E+08         0.00000E+00
    0.00000E+00         0.00000E+00        -0.90929E+07
 
   -0.15351E+08        -0.22158E+06         0.00000E+00
   -0.22158E+06        -0.45986E+08         0.00000E+00
    0.00000E+00         0.00000E+00        -0.93728E+07
 
   -0.14987E+08        -0.21155E+06         0.00000E+00
   -0.21155E+06        -0.45977E+08         0.00000E+00
    0.00000E+00         0.00000E+00        -0.96278E+07
 
   -0.14661E+08        -0.17296E+06         0.00000E+00
   -0.17296E+06        -0.45961E+08         0.00000E+00
    0.00000E+00         0.00000E+00        -0.98585E+07
 
   -0.14367E+08        -0.11745E+06         0.00000E+00
   -0.11745E+06        -0.45949E+08         0.00000E+00
    0.00000E+00         0.00000E+00        -0.10074E+08
 
   -0.14099E+08        -0.50420E+05         0.00000E+00
   -0.50420E+05        -0.45946E+08         0.00000E+00
    0.00000E+00         0.00000E+00        -0.10283E+08
 
   -0.13852E+08         0.26523E+05         0.00000E+00
    0.26523E+05        -0.45958E+08         0.00000E+00
    0.00000E+00         0.00000E+00        -0.10495E+08
 
   -0.13621E+08         0.11435E+06         0.00000E+00
    0.11435E+06        -0.45991E+08         0.00000E+00
    0.00000E+00         0.00000E+00        -0.10716E+08
 
   -0.13403E+08         0.21622E+06         0.00000E+00
    0.21622E+06        -0.46049E+08         0.00000E+00
    0.00000E+00         0.00000E+00        -0.10954E+08
 
   -0.13199E+08         0.33779E+06         0.00000E+00
    0.33779E+06        -0.46136E+08         0.00000E+00
    0.00000E+00         0.00000E+00        -0.11214E+08
 
   -0.13010E+08         0.48712E+06         0.00000E+00
    0.48712E+06        -0.46256E+08         0.00000E+00
    0.00000E+00         0.00000E+00        -0.11498E+08
 
   -0.12845E+08         0.67334E+06         0.00000E+00
    0.67334E+06        -0.46410E+08         0.00000E+00
    0.00000E+00         0.00000E+00        -0.11801E+08
 
   -0.12711E+08         0.90037E+06         0.00000E+00
    0.90037E+06        -0.46589E+08         0.00000E+00
    0.00000E+00         0.00000E+00        -0.12112E+08
 
   -0.12609E+08         0.11652E+07         0.00000E+00
    0.11652E+07        -0.46780E+08         0.00000E+00
    0.00000E+00         0.00000E+00        -0.12417E+08
 
   -0.16828E+08        -0.90133E+05         0.00000E+00
   -0.90133E+05        -0.46478E+08         0.00000E+00
    0.00000E+00         0.00000E+00        -0.87639E+07
 
   -0.16317E+08        -0.18634E+06         0.00000E+00
   -0.18634E+06        -0.46478E+08         0.00000E+00
    0.00000E+00         0.00000E+00        -0.90937E+07
 
   -0.15859E+08        -0.20509E+06         0.00000E+00
   -0.20509E+06        -0.46455E+08         0.00000E+00
    0.00000E+00         0.00000E+00        -0.93849E+07
 
   -0.15462E+08        -0.18379E+06         0.00000E+00
   -0.18379E+06        -0.46415E+08         0.00000E+00
    0.00000E+00         0.00000E+00        -0.96314E+07
 
   -0.15119E+08        -0.14558E+06         0.00000E+00
   -0.14558E+06        -0.46373E+08         0.00000E+00
    0.00000E+00         0.00000E+00        -0.98473E+07
 
   -0.14815E+08        -0.98933E+05         0.00000E+00
   -0.98933E+05        -0.46339E+08         0.00000E+00
    0.00000E+00         0.00000E+00        -0.10048E+08
 
   -0.14539E+08        -0.46720E+05         0.00000E+00
   -0.46720E+05        -0.46320E+08         0.00000E+00
    0.00000E+00         0.00000E+00        -0.10244E+08
 
   -0.14284E+08         0.10881E+05         0.00000E+00
    0.10881E+05        -0.46320E+08         0.00000E+00
    0.00000E+00         0.00000E+00        -0.10446E+08
 
   -0.14043E+08         0.75087E+05         0.00000E+00
    0.75087E+05        -0.46342E+08         0.00000E+00
    0.00000E+00         0.00000E+00        -0.10662E+08
 
   -0.13812E+08         0.14852E+06         0.00000E+00
    0.14852E+06        -0.46391E+08         0.00000E+00
    0.00000E+00         0.00000E+00        -0.10898E+08
 
   -0.13586E+08         0.23603E+06         0.00000E+00
    0.23603E+06        -0.46471E+08         0.00000E+00
    0.00000E+00         0.00000E+00        -0.11162E+08
 
   -0.13366E+08         0.34587E+06         0.00000E+00
    0.34587E+06        -0.46590E+08         0.00000E+00
    0.00000E+00         0.00000E+00        -0.11465E+08
 
   -0.13157E+08         0.49165E+06         0.00000E+00
    0.49165E+06        -0.46756E+08         0.00000E+00
    0.00000E+00         0.00000E+00        -0.11809E+08
 
   -0.12975E+08         0.69088E+06         0.00000E+00
    0.69088E+06        -0.46971E+08         0.00000E+00
    0.00000E+00         0.00000E+00        -0.12187E+08
 
   -0.12830E+08         0.94687E+06         0.00000E+00
    0.94687E+06        -0.47217E+08         0.00000E+00
    0.00000E+00         0.00000E+00        -0.12576E+08
 
   -0.17478E+08        -0.94457E+05         0.00000E+00
   -0.94457E+05        -0.46979E+08         0.00000E+00
    0.00000E+00         0.00000E+00        -0.87347E+07
 
   -0.16858E+08        -0.15885E+06         0.00000E+00
   -0.15885E+06        -0.46950E+08         0.00000E+00
    0.00000E+00         0.00000E+00        -0.90982E+07
 
   -0.16350E+08        -0.15024E+06         0.00000E+00
   -0.15024E+06        -0.46879E+08         0.00000E+00
    0.00000E+00         0.00000E+00        -0.93777E+07
 
   -0.15936E+08        -0.12538E+06         0.00000E+00
   -0.12538E+06        -0.46805E+08         0.00000E+00
    0.00000E+00         0.00000E+00        -0.96021E+07
 
   -0.15586E+08        -0.96019E+05         0.00000E+00
   -0.96019E+05        -0.46740E+08         0.00000E+00
    0.00000E+00         0.00000E+00        -0.97990E+07
 
   -0.15278E+08        -0.64466E+05         0.00000E+00
   -0.64466E+05        -0.46691E+08         0.00000E+00
    0.00000E+00         0.00000E+00        -0.99845E+07
 
   -0.14998E+08        -0.31105E+05         0.00000E+00
   -0.31105E+05        -0.46662E+08         0.00000E+00
    0.00000E+00         0.00000E+00        -0.10170E+08
 
   -0.14739E+08         0.46849E+04         0.00000E+00
    0.46849E+04        -0.46654E+08         0.00000E+00
    0.00000E+00         0.00000E+00        -0.10363E+08
 
   -0.14492E+08         0.43883E+05         0.00000E+00
    0.43883E+05        -0.46670E+08         0.00000E+00
    0.00000E+00         0.00000E+00        -0.10572E+08
 
   -0.14252E+08         0.88032E+05         0.00000E+00
    0.88032E+05        -0.46714E+08         0.00000E+00
    0.00000E+00         0.00000E+00        -0.10804E+08
 
   -0.14012E+08         0.14001E+06         0.00000E+00
    0.14001E+06        -0.46790E+08         0.00000E+00
    0.00000E+00         0.00000E+00        -0.11069E+08
 
   -0.13769E+08         0.20524E+06         0.00000E+00
    0.20524E+06        -0.46905E+08         0.00000E+00
    0.00000E+00         0.00000E+00        -0.11379E+08
 
   -0.13518E+08         0.29421E+06         0.00000E+00
    0.29421E+06        -0.47070E+08         0.00000E+00
    0.00000E+00         0.00000E+00        -0.11750E+08
 
   -0.13269E+08         0.43008E+06         0.00000E+00
    0.43008E+06        -0.47304E+08         0.00000E+00
    0.00000E+00         0.00000E+00        -0.12195E+08
 
   -0.13058E+08         0.65401E+06         0.00000E+00
    0.65401E+06        -0.47628E+08         0.00000E+00
    0.00000E+00         0.00000E+00        -0.12706E+08
 
   -0.18096E+08        -0.68415E+05         0.00000E+00
   -0.68415E+05        -0.47444E+08         0.00000E+00
    0.00000E+00         0.00000E+00        -0.87054E+07
 
   -0.17361E+08        -0.67462E+05         0.00000E+00
   -0.67462E+05        -0.47332E+08         0.00000E+00
    0.00000E+00         0.00000E+00        -0.90653E+07
 
   -0.16838E+08        -0.55517E+05         0.00000E+00
   -0.55517E+05        -0.47220E+08         0.00000E+00
    0.00000E+00         0.00000E+00        -0.93141E+07
 
   -0.16420E+08        -0.44316E+05         0.00000E+00
   -0.44316E+05        -0.47125E+08         0.00000E+00
    0.00000E+00         0.00000E+00        -0.95180E+07
 
   -0.16069E+08        -0.33192E+05         0.00000E+00
   -0.33192E+05        -0.47051E+08         0.00000E+00
    0.00000E+00         0.00000E+00        -0.97014E+07
 
   -0.15759E+08        -0.22010E+05         0.00000E+00
   -0.22010E+05        -0.46997E+08         0.00000E+00
    0.00000E+00         0.00000E+00        -0.98777E+07
 
   -0.15479E+08        -0.10526E+05         0.00000E+00
   -0.10526E+05        -0.46966E+08         0.00000E+00
    0.00000E+00         0.00000E+00        -0.10056E+08
 
   -0.15218E+08         0.16397E+04         0.00000E+00
    0.16397E+04        -0.46959E+08         0.00000E+00
    0.00000E+00         0.00000E+00        -0.10245E+08
 
   -0.14968E+08         0.14856E+05         0.00000E+00
    0.14856E+05        -0.46976E+08         0.00000E+00
    0.00000E+00         0.00000E+00        -0.10450E+08
 
   -0.14724E+08         0.29594E+05         0.00000E+00
    0.29594E+05        -0.47022E+08         0.00000E+00
    0.00000E+00         0.00000E+00        -0.10679E+08
 
   -0.14478E+08         0.46767E+05         0.00000E+00
    0.46767E+05        -0.47099E+08         0.00000E+00
    0.00000E+00         0.00000E+00        -0.10943E+08
 
   -0.14222E+08         0.68075E+05         0.00000E+00
    0.68075E+05        -0.47215E+08         0.00000E+00
    0.00000E+00         0.00000E+00        -0.11255E+08
 
   -0.13949E+08         0.97027E+05         0.00000E+00
    0.97027E+05        -0.47381E+08         0.00000E+00
    0.00000E+00         0.00000E+00        -0.11635E+08
 
   -0.13647E+08         0.14301E+06         0.00000E+00
    0.14301E+06        -0.47619E+08         0.00000E+00
    0.00000E+00         0.00000E+00        -0.12117E+08
 
   -0.13307E+08         0.24284E+06         0.00000E+00
    0.24284E+06        -0.47975E+08         0.00000E+00
    0.00000E+00         0.00000E+00        -0.12764E+08
 
TENSORS stresstot double 
   -0.30512E+08         0.42306E+05         0.00000E+00
    0.42306E+05        -0.59818E+08         0.00000E+00
    0.00000E+00         0.00000E+00        -0.36185E+08
 
   -0.30313E+08         0.57911E+05         0.00000E+00
    0.57911E+05        -0.59721E+08         0.00000E+00
    0.00000E+00         0.00000E+00        -0.36379E+08
 
   -0.30217E+08         0.56320E+05         0.00000E+00
    0.56320E+05        -0.59631E+08         0.00000E+00
    0.00000E+00         0.00000E+00        -0.36424E+08
 
   -0.30224E+08         0.32762E+05         0.00000E+00
    0.32762E+05        -0.59555E+08         0.00000E+00
    0.00000E+00         0.00000E+00        -0.36324E+08
 
   -0.30312E+08         0.59969E+04         0.00000E+00
    0.59969E+04        -0.59537E+08         0.00000E+00
    0.00000E+00         0.00000E+00        -0.36166E+08
 
   -0.30436E+08        -0.49232E+04         0.00000E+00
   -0.49232E+04        -0.59543E+08         0.00000E+00
    0.00000E+00         0.00000E+00        -0.35984E+08
 
   -0.30579E+08        -0.64871E+04         0.00000E+00
   -0.64871E+04        -0.59555E+08         0.00000E+00
    0.00000E+00         0.00000E+00        -0.35786E+08
 
   -0.30740E+08        -0.33318E+04         0.00000E+00
   -0.33318E+04        -0.59564E+08         0.00000E+00
    0.00000E+00         0.00000E+00        -0.35563E+08
 
   -0.30920E+08         0.47409E+04         0.00000E+00
    0.47409E+04        -0.59562E+08         0.00000E+00
    0.00000E+00         0.00000E+00        -0.35309E+08
 
   -0.31111E+08         0.15719E+05         0.00000E+00
    0.15719E+05        -0.59541E+08         0.00000E+00
    0.00000E+00         0.00000E+00        -0.35027E+08
 
   -0.31318E+08         0.30186E+05         0.00000E+00
    0.30186E+05        -0.59496E+08         0.00000E+00
    0.00000E+00         0.00000E+00        -0.34708E+08
 
   -0.31539E+08         0.49738E+05         0.00000E+00
    0.49738E+05        -0.59416E+08         0.00000E+00
    0.00000E+00         0.00000E+00        -0.34348E+08
 
   -0.31777E+08         0.76574E+05         0.00000E+00
    0.76574E+05        -0.59290E+08         0.00000E+00
    0.00000E+00         0.00000E+00        -0.33934E+08
 
   -0.32040E+08         0.11885E+06         0.00000E+00
    0.11885E+06        -0.59099E+08         0.00000E+00
    0.00000E+00         0.00000E+00        -0.33446E+08
 
   -0.32336E+08         0.20983E+06         0.00000E+00
    0.20983E+06        -0.58800E+08         0.00000E+00
    0.00000E+00         0.00000E+00        -0.32843E+08
 
   -0.30405E+08         0.10465E+06         0.00000E+00
    0.10465E+06        -0.60035E+08         0.00000E+00
    0.00000E+00         0.00000E+00        -0.35915E+08
 
   -0.30305E+08         0.16523E+06         0.00000E+00
    0.16523E+06        -0.59990E+08         0.00000E+00
    0.00000E+00         0.00000E+00        -0.36014E+08
 
   -0.30230E+08         0.14977E+06         0.00000E+00
    0.14977E+06        -0.59900E+08         0.00000E+00
    0.00000E+00         0.00000E+00        -0.36023E+08
 
   -0.30277E+08         0.91571E+05         0.00000E+00
    0.91571E+05        -0.59853E+08         0.00000E+00
    0.00000E+00         0.00000E+00        -0.35897E+08
 
   -0.30346E+08         0.42367E+05         0.00000E+00
    0.42367E+05        -0.59785E+08         0.00000E+00
    0.00000E+00         0.00000E+00        -0.35715E+08
 
   -0.30449E+08         0.15161E+05         0.00000E+00
    0.15161E+05        -0.59731E+08         0.00000E+00
    0.00000E+00         0.00000E+00        -0.35504E+08
 
   -0.30578E+08         0.80574E+04         0.00000E+00
    0.80574E+04        -0.59690E+08         0.00000E+00
    0.00000E+00         0.00000E+00        -0.35274E+08
 
   -0.30731E+08         0.14298E+05         0.00000E+00
    0.14298E+05        -0.59651E+08         0.00000E+00
    0.00000E+00         0.00000E+00        -0.35021E+08
 
   -0.30901E+08         0.34074E+05         0.00000E+00
    0.34074E+05        -0.59608E+08         0.00000E+00
    0.00000E+00         0.00000E+00        -0.34745E+08
 
   -0.31086E+08         0.65602E+05         0.00000E+00
    0.65602E+05        -0.59550E+08         0.00000E+00
    0.00000E+00         0.00000E+00        -0.34445E+08
 
   -0.31284E+08         0.10834E+06         0.00000E+00
    0.10834E+06        -0.59469E+08         0.00000E+00
    0.00000E+00         0.00000E+00        -0.34114E+08
 
   -0.31492E+08         0.16690E+06         0.00000E+00
    0.16690E+06        -0.59356E+08         0.00000E+00
    0.00000E+00         0.00000E+00        -0.33749E+08
 
   -0.31710E+08         0.24810E+06         0.00000E+00
    0.24810E+06        -0.59198E+08         0.00000E+00
    0.00000E+00         0.00000E+00        -0.33343E+08
 
   -0.31927E+08         0.37015E+06         0.00000E+00
    0.37015E+06        -0.58979E+08         0.00000E+00
    0.00000E+00         0.00000E+00        -0.32898E+08
 
   -0.32118E+08         0.56433E+06         0.00000E+00
    0.56433E+06        -0.58690E+08         0.00000E+00
    0.00000E+00         0.00000E+00        -0.32435E+08
 
   -0.30246E+08         0.85770E+05         0.00000E+00
    0.85770E+05        -0.60059E+08         0.00000E+00
    0.00000E+00         0.00000E+00        -0.35501E+08
 
   -0.30257E+08         0.18397E+06         0.00000E+00
    0.18397E+06        -0.60077E+08         0.00000E+00
    0.00000E+00         0.00000E+00        -0.35508E+08
 
   -0.30287E+08         0.18255E+06         0.00000E+00
    0.18255E+06        -0.60080E+08         0.00000E+00
    0.00000E+00         0.00000E+00        -0.35469E+08
 
   -0.30323E+08         0.14545E+06         0.00000E+00
    0.14545E+06        -0.60026E+08         0.00000E+00
    0.00000E+00         0.00000E+00        -0.35355E+08
 
   -0.30385E+08         0.10978E+06         0.00000E+00
    0.10978E+06        -0.59963E+08         0.00000E+00
    0.00000E+00         0.00000E+00        -0.35196E+08
 
   -0.30471E+08         0.81011E+05         0.00000E+00
    0.81011E+05        -0.59889E+08         0.00000E+00
    0.00000E+00         0.00000E+00        -0.34994E+08
 
   -0.30582E+08         0.68247E+05         0.00000E+00
    0.68247E+05        -0.59813E+08         0.00000E+00
    0.00000E+00         0.00000E+00        -0.34760E+08
 
   -0.30717E+08         0.75256E+05         0.00000E+00
    0.75256E+05        -0.59737E+08         0.00000E+00
    0.00000E+00         0.00000E+00        -0.34499E+08
 
   -0.30869E+08         0.10306E+06         0.00000E+00
    0.10306E+06        -0.59655E+08         0.00000E+00
    0.00000E+00         0.00000E+00        -0.34216E+08
 
   -0.31038E+08         0.15102E+06         0.00000E+00
    0.15102E+06        -0.59562E+08         0.00000E+00
    0.00000E+00         0.00000E+00        -0.33909E+08
 
   -0.31217E+08         0.22017E+06         0.00000E+00
    0.22017E+06        -0.59449E+08         0.00000E+00
    0.00000E+00         0.00000E+00        -0.33580E+08
 
   -0.31401E+08         0.31482E+06         0.00000E+00
    0.31482E+06        -0.59308E+08         0.00000E+00
    0.00000E+00         0.00000E+00        -0.33229E+08
 
   -0.31583E+08         0.44287E+06         0.00000E+00
    0.44287E+06        -0.59131E+08         0.00000E+00
    0.00000E+00         0.00000E+00        -0.32859E+08
 
   -0.31749E+08         0.61298E+06         0.00000E+00
    0.61298E+06        -0.58918E+08         0.00000E+00
    0.00000E+00         0.00000E+00        -0.32488E+08
 
   -0.31899E+08         0.81888E+06         0.00000E+00
    0.81888E+06        -0.58691E+08         0.00000E+00
    0.00000E+00         0.00000E+00        -0.32139E+08
 
   -0.30125E+08         0.58754E+05         0.00000E+00
    0.58754E+05        -0.60022E+08         0.00000E+00
    0.00000E+00         0.00000E+00        -0.34972E+08
 
   -0.30205E+08         0.13595E+06         0.00000E+00
    0.13595E+06        -0.60061E+08         0.00000E+00
    0.00000E+00         0.00000E+00        -0.34905E+08
 
   -0.30278E+08         0.17719E+06         0.00000E+00
    0.17719E+06        -0.60095E+08         0.00000E+00
    0.00000E+00         0.00000E+00        -0.34841E+08
 
   -0.30344E+08         0.18503E+06         0.00000E+00
    0.18503E+06        -0.60093E+08         0.00000E+00
    0.00000E+00         0.00000E+00        -0.34749E+08
 
   -0.30409E+08         0.17221E+06         0.00000E+00
    0.17221E+06        -0.60052E+08         0.00000E+00
    0.00000E+00         0.00000E+00        -0.34616E+08
 
   -0.30488E+08         0.15801E+06         0.00000E+00
    0.15801E+06        -0.59986E+08         0.00000E+00
    0.00000E+00         0.00000E+00        -0.34440E+08
 
   -0.30583E+08         0.15350E+06         0.00000E+00
    0.15350E+06        -0.59902E+08         0.00000E+00
    0.00000E+00         0.00000E+00        -0.34226E+08
 
   -0.30696E+08         0.16729E+06         0.00000E+00
    0.16729E+06        -0.59806E+08         0.00000E+00
    0.00000E+00         0.00000E+00        -0.33981E+08
 
   -0.30826E+08         0.20430E+06         0.00000E+00
    0.20430E+06        -0.59700E+08         0.00000E+00
    0.00000E+00         0.00000E+00        -0.33711E+08
 
   -0.30971E+08         0.26691E+06         0.00000E+00
    0.26691E+06        -0.59582E+08         0.00000E+00
    0.00000E+00         0.00000E+00        -0.33417E+08
 
   -0.31123E+08         0.35776E+06         0.00000E+00
    0.35776E+06        -0.59446E+08         0.00000E+00
    0.00000E+00         0.00000E+00        -0.33108E+08
 
   -0.31275E+08         0.47949E+06         0.00000E+00
    0.47949E+06        -0.59290E+08         0.00000E+00
    0.00000E+00         0.00000E+00        -0.32788E+08
 
   -0.31422E+08         0.63380E+06         0.00000E+00
    0.63380E+06        -0.59114E+08         0.00000E+00
    0.00000E+00         0.00000E+00        -0.32469E+08
 
   -0.31558E+08         0.81654E+06         0.00000E+00
    0.81654E+06        -0.58928E+08         0.00000E+00
    0.00000E+00         0.00000E+00        -0.32166E+08
 
   -0.31686E+08         0.10191E+07         0.00000E+00
    0.10191E+07        -0.58741E+08         0.00000E+00
    0.00000E+00         0.00000E+00        -0.31885E+08
 
   -0.30044E+08         0.35125E+05         0.00000E+00
    0.35125E+05        -0.60009E+08         0.00000E+00
    0.00000E+00         0.00000E+00        -0.34423E+08
 
   -0.30144E+08         0.10144E+06         0.00000E+00
    0.10144E+06        -0.60039E+08         0.00000E+00
    0.00000E+00         0.00000E+00        -0.34321E+08
 
   -0.30240E+08         0.15429E+06         0.00000E+00
    0.15429E+06        -0.60068E+08         0.00000E+00
    0.00000E+00         0.00000E+00        -0.34226E+08
 
   -0.30329E+08         0.19081E+06         0.00000E+00
    0.19081E+06        -0.60082E+08         0.00000E+00
    0.00000E+00         0.00000E+00        -0.34126E+08
 
   -0.30408E+08         0.21171E+06         0.00000E+00
    0.21171E+06        -0.60067E+08         0.00000E+00
    0.00000E+00         0.00000E+00        -0.34008E+08
 
   -0.30486E+08         0.22497E+06         0.00000E+00
    0.22497E+06        -0.60021E+08         0.00000E+00
    0.00000E+00         0.00000E+00        -0.33860E+08
 
   -0.30571E+08         0.24191E+06         0.00000E+00
    0.24191E+06        -0.59947E+08         0.00000E+00
    0.00000E+00         0.00000E+00        -0.33678E+08
 
   -0.30665E+08         0.27223E+06         0.00000E+00
    0.27223E+06        -0.59851E+08         0.00000E+00
    0.00000E+00         0.00000E+00        -0.33465E+08
 
   -0.30770E+08         0.32333E+06         0.00000E+00
    0.32333E+06        -0.59738E+08         0.00000E+00
    0.00000E+00         0.00000E+00        -0.33225E+08
 
   -0.30887E+08         0.40065E+06         0.00000E+00
    0.40065E+06        -0.59608E+08         0.00000E+00
    0.00000E+00         0.00000E+00        -0.32962E+08
 
   -0.31008E+08         0.50733E+06         0.00000E+00
    0.50733E+06        -0.59465E+08         0.00000E+00
    0.00000E+00         0.00000E+00        -0.32688E+08
 
   -0.31131E+08         0.64360E+06         0.00000E+00
    0.64360E+06        -0.59310E+08         0.00000E+00
    0.00000E+00         0.00000E+00        -0.32412E+08
 
   -0.31251E+08         0.80632E+06         0.00000E+00
    0.80632E+06        -0.59148E+08         0.00000E+00
    0.00000E+00         0.00000E+00        -0.32144E+08
 
   -0.31367E+08         0.98890E+06         0.00000E+00
    0.98890E+06        -0.58985E+08         0.00000E+00
    0.00000E+00         0.00000E+00        -0.31890E+08
 
   -0.31482E+08         0.11846E+07         0.00000E+00
    0.11846E+07        -0.58828E+08         0.00000E+00
    0.00000E+00         0.00000E+00        -0.31655E+08
 
   -0.29983E+08         0.24642E+05         0.00000E+00
    0.24642E+05        -0.60008E+08         0.00000E+00
    0.00000E+00         0.00000E+00        -0.33871E+08
 
   -0.30087E+08         0.79035E+05         0.00000E+00
    0.79035E+05        -0.60021E+08         0.00000E+00
    0.00000E+00         0.00000E+00        -0.33750E+08
 
   -0.30191E+08         0.13332E+06         0.00000E+00
    0.13332E+06        -0.60039E+08         0.00000E+00
    0.00000E+00         0.00000E+00        -0.33636E+08
 
   -0.30288E+08         0.18528E+06         0.00000E+00
    0.18528E+06        -0.60051E+08         0.00000E+00
    0.00000E+00         0.00000E+00        -0.33528E+08
 
   -0.30376E+08         0.23242E+06         0.00000E+00
    0.23242E+06        -0.60046E+08         0.00000E+00
    0.00000E+00         0.00000E+00        -0.33416E+08
 
   -0.30457E+08         0.27554E+06         0.00000E+00
    0.27554E+06        -0.60016E+08         0.00000E+00
    0.00000E+00         0.00000E+00        -0.33287E+08
 
   -0.30535E+08         0.31999E+06         0.00000E+00
    0.31999E+06        -0.59957E+08         0.00000E+00
    0.00000E+00         0.00000E+00        -0.33135E+08
 
   -0.30614E+08         0.37356E+06         0.00000E+00
    0.37356E+06        -0.59872E+08         0.00000E+00
    0.00000E+00         0.00000E+00        -0.32958E+08
 
   -0.30698E+08         0.44366E+06         0.00000E+00
    0.44366E+06        -0.59765E+08         0.00000E+00
    0.00000E+00         0.00000E+00        -0.32757E+08
 
   -0.30788E+08         0.53614E+06         0.00000E+00
    0.53614E+06        -0.59641E+08         0.00000E+00
    0.00000E+00         0.00000E+00        -0.32538E+08
 
   -0.30883E+08         0.65375E+06         0.00000E+00
    0.65375E+06        -0.59505E+08         0.00000E+00
    0.00000E+00         0.00000E+00        -0.32309E+08
 
   -0.30979E+08         0.79584E+06         0.00000E+00
    0.79584E+06        -0.59362E+08         0.00000E+00
    0.00000E+00         0.00000E+00        -0.32079E+08
 
   -0.31079E+08         0.95897E+06         0.00000E+00
    0.95897E+06        -0.59217E+08         0.00000E+00
    0.00000E+00         0.00000E+00        -0.31855E+08
 
   -0.31180E+08         0.11379E+07         0.00000E+00
    0.11379E+07        -0.59076E+08         0.00000E+00
    0.00000E+00         0.00000E+00        -0.31641E+08
 
   -0.31285E+08         0.13274E+07         0.00000E+00
    0.13274E+07        -0.58939E+08         0.00000E+00
    0.00000E+00         0.00000E+00        -0.31438E+08
 
   -0.29933E+08         0.19454E+05         0.00000E+00
    0.19454E+05        -0.60006E+08         0.00000E+00
    0.00000E+00         0.00000E+00        -0.33314E+08
 
   -0.30035E+08         0.67585E+05         0.00000E+00
    0.67585E+05        -0.60012E+08         0.00000E+00
    0.00000E+00         0.00000E+00        -0.33192E+08
 
   -0.30136E+08         0.12203E+06         0.00000E+00
    0.12203E+06        -0.60019E+08         0.00000E+00
    0.00000E+00         0.00000E+00        -0.33077E+08
 
   -0.30231E+08         0.18226E+06         0.00000E+00
    0.18226E+06        -0.60024E+08         0.00000E+00
    0.00000E+00         0.00000E+00        -0.32968E+08
 
   -0.30320E+08         0.24640E+06         0.00000E+00
    0.24640E+06        -0.60018E+08         0.00000E+00
    0.00000E+00         0.00000E+00        -0.32858E+08
 
   -0.30400E+08         0.31318E+06         0.00000E+00
    0.31318E+06        -0.59994E+08         0.00000E+00
    0.00000E+00         0.00000E+00        -0.32742E+08
 
   -0.30473E+08         0.38376E+06         0.00000E+00
    0.38376E+06        -0.59948E+08         0.00000E+00
    0.00000E+00         0.00000E+00        -0.32614E+08
 
   -0.30541E+08         0.46178E+06         0.00000E+00
    0.46178E+06        -0.59879E+08         0.00000E+00
    0.00000E+00         0.00000E+00        -0.32471E+08
 
   -0.30608E+08         0.55234E+06         0.00000E+00
    0.55234E+06        -0.59787E+08         0.00000E+00
    0.00000E+00         0.00000E+00        -0.32312E+08
 
   -0.30678E+08         0.65967E+06         0.00000E+00
    0.65967E+06        -0.59679E+08         0.00000E+00
    0.00000E+00         0.00000E+00        -0.32137E+08
 
   -0.30750E+08         0.78593E+06         0.00000E+00
    0.78593E+06        -0.59560E+08         0.00000E+00
    0.00000E+00         0.00000E+00        -0.31955E+08
 
   -0.30827E+08         0.93080E+06         0.00000E+00
    0.93080E+06        -0.59435E+08         0.00000E+00
    0.00000E+00         0.00000E+00        -0.31770E+08
 
   -0.30909E+08         0.10923E+07         0.00000E+00
    0.10923E+07        -0.59310E+08         0.00000E+00
    0.00000E+00         0.00000E+00        -0.31587E+08
 
   -0.30998E+08         0.12678E+07         0.00000E+00
    0.12678E+07        -0.59187E+08         0.00000E+00
    0.00000E+00         0.00000E+00        -0.31407E+08
 
   -0.31095E+08         0.14533E+07         0.00000E+00
    0.14533E+07        -0.59068E+08         0.00000E+00
    0.00000E+00         0.00000E+00        -0.31232E+08
 
   -0.29890E+08         0.16800E+05         0.00000E+00
    0.16800E+05        -0.60004E+08         0.00000E+00
    0.00000E+00         0.00000E+00        -0.32760E+08
 
   -0.29985E+08         0.63152E+05         0.00000E+00
    0.63152E+05        -0.60006E+08         0.00000E+00
    0.00000E+00         0.00000E+00        -0.32648E+08
 
   -0.30077E+08         0.11919E+06         0.00000E+00
    0.11919E+06        -0.60008E+08         0.00000E+00
    0.00000E+00         0.00000E+00        -0.32541E+08
 
   -0.30164E+08         0.18514E+06         0.00000E+00
    0.18514E+06        -0.60005E+08         0.00000E+00
    0.00000E+00         0.00000E+00        -0.32437E+08
 
   -0.30247E+08         0.26037E+06         0.00000E+00
    0.26037E+06        -0.59996E+08         0.00000E+00
    0.00000E+00         0.00000E+00        -0.32335E+08
 
   -0.30321E+08         0.34373E+06         0.00000E+00
    0.34373E+06        -0.59975E+08         0.00000E+00
    0.00000E+00         0.00000E+00        -0.32232E+08
 
   -0.30388E+08         0.43461E+06         0.00000E+00
    0.43461E+06        -0.59938E+08         0.00000E+00
    0.00000E+00         0.00000E+00        -0.32126E+08
 
   -0.30447E+08         0.53362E+06         0.00000E+00
    0.53362E+06        -0.59882E+08         0.00000E+00
    0.00000E+00         0.00000E+00        -0.32012E+08
 
   -0.30502E+08         0.64251E+06         0.00000E+00
    0.64251E+06        -0.59810E+08         0.00000E+00
    0.00000E+00         0.00000E+00        -0.31890E+08
 
   -0.30556E+08         0.76347E+06         0.00000E+00
    0.76347E+06        -0.59722E+08         0.00000E+00
    0.00000E+00         0.00000E+00        -0.31757E+08
 
   -0.30612E+08         0.89794E+06         0.00000E+00
    0.89794E+06        -0.59624E+08         0.00000E+00
    0.00000E+00         0.00000E+00        -0.31618E+08
 
   -0.30673E+08         0.10460E+07         0.00000E+00
    0.10460E+07        -0.59520E+08         0.00000E+00
    0.00000E+00         0.00000E+00        -0.31473E+08
 
   -0.30742E+08         0.12070E+07         0.00000E+00
    0.12070E+07        -0.59415E+08         0.00000E+00
    0.00000E+00         0.00000E+00        -0.31327E+08
 
   -0.30819E+08         0.13798E+07         0.00000E+00
    0.13798E+07        -0.59310E+08         0.00000E+00
    0.00000E+00         0.00000E+00        -0.31179E+08
 
   -0.30908E+08         0.15626E+07         0.00000E+00
    0.15626E+07        -0.59208E+08         0.00000E+00
    0.00000E+00         0.00000E+00        -0.31030E+08
 
   -0.29849E+08         0.16078E+05         0.00000E+00
    0.16078E+05        -0.60004E+08         0.00000E+00
    0.00000E+00         0.00000E+00        -0.32216E+08
 
   -0.29933E+08         0.62638E+05         0.00000E+00
    0.62638E+05        -0.60003E+08         0.00000E+00
    0.00000E+00         0.00000E+00        -0.32118E+08
 
   -0.30014E+08         0.12127E+06         0.00000E+00
    0.12127E+06        -0.60001E+08         0.00000E+00
    0.00000E+00         0.00000E+00        -0.32023E+08
 
   -0.30091E+08         0.19228E+06         0.00000E+00
    0.19228E+06        -0.59995E+08         0.00000E+00
    0.00000E+00         0.00000E+00        -0.31932E+08
 
   -0.30162E+08         0.27540E+06         0.00000E+00
    0.27540E+06        -0.59984E+08         0.00000E+00
    0.00000E+00         0.00000E+00        -0.31843E+08
 
   -0.30227E+08         0.36997E+06         0.00000E+00
    0.36997E+06        -0.59964E+08         0.00000E+00
    0.00000E+00         0.00000E+00        -0.31756E+08
 
   -0.30285E+08         0.47494E+06         0.00000E+00
    0.47494E+06        -0.59934E+08         0.00000E+00
    0.00000E+00         0.00000E+00        -0.31669E+08
 
   -0.30335E+08         0.58935E+06         0.00000E+00
    0.58935E+06        -0.59892E+08         0.00000E+00
    0.00000E+00         0.00000E+00        -0.31582E+08
 
   -0.30380E+08         0.71266E+06         0.00000E+00
    0.71266E+06        -0.59837E+08         0.00000E+00
    0.00000E+00         0.00000E+00        -0.31491E+08
 
   -0.30423E+08         0.84522E+06         0.00000E+00
    0.84522E+06        -0.59770E+08         0.00000E+00
    0.00000E+00         0.00000E+00        -0.31395E+08
 
   -0.30468E+08         0.98773E+06         0.00000E+00
    0.98773E+06        -0.59695E+08         0.00000E+00
    0.00000E+00         0.00000E+00        -0.31293E+08
 
   -0.30518E+08         0.11403E+07         0.00000E+00
    0.11403E+07        -0.59613E+08         0.00000E+00
    0.00000E+00         0.00000E+00        -0.31185E+08
 
   -0.30575E+08         0.13028E+07         0.00000E+00
    0.13028E+07        -0.59527E+08         0.00000E+00
    0.00000E+00         0.00000E+00        -0.31072E+08
 
   -0.30642E+08         0.14748E+07         0.00000E+00
    0.14748E+07        -0.59440E+08         0.00000E+00
    0.00000E+00         0.00000E+00        -0.30953E+08
 
   -0.30722E+08         0.16558E+07         0.00000E+00
    0.16558E+07        -0.59354E+08         0.00000E+00
    0.00000E+00         0.00000E+00        -0.30830E+08
 
   -0.29808E+08         0.16278E+05         0.00000E+00
    0.16278E+05        -0.60003E+08         0.00000E+00
    0.00000E+00         0.00000E+00        -0.31681E+08
 
   -0.29880E+08         0.64063E+05         0.00000E+00
    0.64063E+05        -0.60002E+08         0.00000E+00
    0.00000E+00         0.00000E+00        -0.31599E+08
 
   -0.29948E+08         0.12549E+06         0.00000E+00
    0.12549E+06        -0.59998E+08         0.00000E+00
    0.00000E+00         0.00000E+00        -0.31521E+08
 
   -0.30011E+08         0.20075E+06         0.00000E+00
    0.20075E+06        -0.59992E+08         0.00000E+00
    0.00000E+00         0.00000E+00        -0.31446E+08
 
   -0.30070E+08         0.28973E+06         0.00000E+00
    0.28973E+06        -0.59981E+08         0.00000E+00
    0.00000E+00         0.00000E+00        -0.31375E+08
 
   -0.30123E+08         0.39181E+06         0.00000E+00
    0.39181E+06        -0.59965E+08         0.00000E+00
    0.00000E+00         0.00000E+00        -0.31306E+08
 
   -0.30170E+08         0.50590E+06         0.00000E+00
    0.50590E+06        -0.59942E+08         0.00000E+00
    0.00000E+00         0.00000E+00        -0.31241E+08
 
   -0.30211E+08         0.63050E+06         0.00000E+00
    0.63050E+06        -0.59912E+08         0.00000E+00
    0.00000E+00         0.00000E+00        -0.31178E+08
 
   -0.30247E+08         0.76417E+06         0.00000E+00
    0.76417E+06        -0.59873E+08         0.00000E+00
    0.00000E+00         0.00000E+00        -0.31114E+08
 
   -0.30281E+08         0.90591E+06         0.00000E+00
    0.90591E+06        -0.59825E+08         0.00000E+00
    0.00000E+00         0.00000E+00        -0.31049E+08
 
   -0.30317E+08         0.10557E+07         0.00000E+00
    0.10557E+07        -0.59770E+08         0.00000E+00
    0.00000E+00         0.00000E+00        -0.30979E+08
 
   -0.30358E+08         0.12137E+07         0.00000E+00
    0.12137E+07        -0.59709E+08         0.00000E+00
    0.00000E+00         0.00000E+00        -0.30902E+08
 
   -0.30407E+08         0.13796E+07         0.00000E+00
    0.13796E+07        -0.59643E+08         0.00000E+00
    0.00000E+00         0.00000E+00        -0.30819E+08
 
   -0.30466E+08         0.15536E+07         0.00000E+00
    0.15536E+07        -0.59574E+08         0.00000E+00
    0.00000E+00         0.00000E+00        -0.30728E+08
 
   -0.30537E+08         0.17354E+07         0.00000E+00
    0.17354E+07        -0.59502E+08         0.00000E+00
    0.00000E+00         0.00000E+00        -0.30629E+08
 
   -0.29767E+08         0.16711E+05         0.00000E+00
    0.16711E+05        -0.60002E+08         0.00000E+00
    0.00000E+00         0.00000E+00        -0.31156E+08
 
   -0.29824E+08         0.65799E+05         0.00000E+00
    0.65799E+05        -0.60001E+08         0.00000E+00
    0.00000E+00         0.00000E+00        -0.31092E+08
 
   -0.29878E+08         0.12950E+06         0.00000E+00
    0.12950E+06        -0.59999E+08         0.00000E+00
    0.00000E+00         0.00000E+00        -0.31033E+08
 
   -0.29927E+08         0.20794E+06         0.00000E+00
    0.20794E+06        -0.59994E+08         0.00000E+00
    0.00000E+00         0.00000E+00        -0.30977E+08
 
   -0.29972E+08         0.30093E+06         0.00000E+00
    0.30093E+06        -0.59987E+08         0.00000E+00
    0.00000E+00         0.00000E+00        -0.30925E+08
 
   -0.30012E+08         0.40785E+06         0.00000E+00
    0.40785E+06        -0.59976E+08         0.00000E+00
    0.00000E+00         0.00000E+00        -0.30878E+08
 
   -0.30047E+08         0.52757E+06         0.00000E+00
    0.52757E+06        -0.59961E+08         0.00000E+00
    0.00000E+00         0.00000E+00        -0.30834E+08
 
   -0.30078E+08         0.65855E+06         0.00000E+00
    0.65855E+06        -0.59942E+08         0.00000E+00
    0.00000E+00         0.00000E+00        -0.30794E+08
 
   -0.30105E+08         0.79911E+06         0.00000E+00
    0.79911E+06        -0.59917E+08         0.00000E+00
    0.00000E+00         0.00000E+00        -0.30755E+08
 
   -0.30132E+08         0.94788E+06         0.00000E+00
    0.94788E+06        -0.59886E+08         0.00000E+00
    0.00000E+00         0.00000E+00        -0.30715E+08
 
   -0.30160E+08         0.11040E+07         0.00000E+00
    0.11040E+07        -0.59849E+08         0.00000E+00
    0.00000E+00         0.00000E+00        -0.30672E+08
 
   -0.30194E+08         0.12673E+07         0.00000E+00
    0.12673E+07        -0.59807E+08         0.00000E+00
    0.00000E+00         0.00000E+00        -0.30624E+08
 
   -0.30235E+08         0.14379E+07         0.00000E+00
    0.14379E+07        -0.59759E+08         0.00000E+00
    0.00000E+00         0.00000E+00        -0.30568E+08
 
   -0.30286E+08         0.16160E+07         0.00000E+00
    0.16160E+07        -0.59708E+08         0.00000E+00
    0.00000E+00         0.00000E+00        -0.30503E+08
 
   -0.30351E+08         0.18012E+07         0.00000E+00
    0.18012E+07        -0.59652E+08         0.00000E+00
    0.00000E+00         0.00000E+00        -0.30428E+08
 
   -0.29725E+08         0.16943E+05         0.00000E+00
    0.16943E+05        -0.60002E+08         0.00000E+00
    0.00000E+00         0.00000E+00        -0.30640E+08
 
   -0.29768E+08         0.66474E+05         0.00000E+00
    0.66474E+05        -0.60002E+08         0.00000E+00
    0.00000E+00         0.00000E+00        -0.30595E+08
 
   -0.29806E+08         0.13137E+06         0.00000E+00
    0.13137E+06        -0.60002E+08         0.00000E+00
    0.00000E+00         0.00000E+00        -0.30555E+08
 
   -0.29840E+08         0.21161E+06         0.00000E+00
    0.21161E+06        -0.60001E+08         0.00000E+00
    0.00000E+00         0.00000E+00        -0.30520E+08
 
   -0.29871E+08         0.30690E+06         0.00000E+00
    0.30690E+06        -0.59999E+08         0.00000E+00
    0.00000E+00         0.00000E+00        -0.30490E+08
 
   -0.29897E+08         0.41661E+06         0.00000E+00
    0.41661E+06        -0.59995E+08         0.00000E+00
    0.00000E+00         0.00000E+00        -0.30464E+08
 
   -0.29920E+08         0.53963E+06         0.00000E+00
    0.53963E+06        -0.59989E+08         0.00000E+00
    0.00000E+00         0.00000E+00        -0.30443E+08
 
   -0.29940E+08         0.67452E+06         0.00000E+00
    0.67452E+06        -0.59980E+08         0.00000E+00
    0.00000E+00         0.00000E+00        -0.30425E+08
 
   -0.29958E+08         0.81968E+06         0.00000E+00
    0.81968E+06        -0.59968E+08         0.00000E+00
    0.00000E+00         0.00000E+00        -0.30408E+08
 
   -0.29977E+08         0.97358E+06         0.00000E+00
    0.97358E+06        -0.59952E+08         0.00000E+00
    0.00000E+00         0.00000E+00        -0.30392E+08
 
   -0.29998E+08         0.11351E+07         0.00000E+00
    0.11351E+07        -0.59930E+08         0.00000E+00
    0.00000E+00         0.00000E+00        -0.30372E+08
 
   -0.30024E+08         0.13037E+07         0.00000E+00
    0.13037E+07        -0.59904E+08         0.00000E+00
    0.00000E+00         0.00000E+00        -0.30348E+08
 
   -0.30058E+08         0.14791E+07         0.00000E+00
    0.14791E+07        -0.59873E+08         0.00000E+00
    0.00000E+00         0.00000E+00        -0.30316E+08
 
   -0.30102E+08         0.16611E+07         0.00000E+00
    0.16611E+07        -0.59838E+08         0.00000E+00
    0.00000E+00         0.00000E+00        -0.30276E+08
 
   -0.30161E+08         0.18497E+07         0.00000E+00
    0.18497E+07        -0.59799E+08         0.00000E+00
    0.00000E+00         0.00000E+00        -0.30224E+08
 
   -0.29684E+08         0.16509E+05         0.00000E+00
    0.16509E+05        -0.60002E+08         0.00000E+00
    0.00000E+00         0.00000E+00        -0.30131E+08
 
   -0.29711E+08         0.65087E+05         0.00000E+00
    0.65087E+05        -0.60004E+08         0.00000E+00
    0.00000E+00         0.00000E+00        -0.30105E+08
 
   -0.29733E+08         0.12963E+06         0.00000E+00
    0.12963E+06        -0.60007E+08         0.00000E+00
    0.00000E+00         0.00000E+00        -0.30086E+08
 
   -0.29752E+08         0.21006E+06         0.00000E+00
    0.21006E+06        -0.60011E+08         0.00000E+00
    0.00000E+00         0.00000E+00        -0.30072E+08
 
   -0.29768E+08         0.30606E+06         0.00000E+00
    0.30606E+06        -0.60015E+08         0.00000E+00
    0.00000E+00         0.00000E+00        -0.30064E+08
 
   -0.29780E+08         0.41696E+06         0.00000E+00
    0.41696E+06        -0.60020E+08         0.00000E+00
    0.00000E+00         0.00000E+00        -0.30061E+08
 
   -0.29790E+08         0.54173E+06         0.00000E+00
    0.54173E+06        -0.60023E+08         0.00000E+00
    0.00000E+00         0.00000E+00        -0.30062E+08
 
   -0.29798E+08         0.67902E+06         0.00000E+00
    0.67902E+06        -0.60025E+08         0.00000E+00
    0.00000E+00         0.00000E+00        -0.30066E+08
 
   -0.29807E+08         0.82734E+06         0.00000E+00
    0.82734E+06        -0.60025E+08         0.00000E+00
    0.00000E+00         0.00000E+00        -0.30071E+08
 
   -0.29817E+08         0.98521E+06         0.00000E+00
    0.98521E+06        -0.60021E+08         0.00000E+00
    0.00000E+00         0.00000E+00        -0.30076E+08
 
   -0.29831E+08         0.11513E+07         0.00000E+00
    0.11513E+07        -0.60014E+08         0.00000E+00
    0.00000E+00         0.00000E+00        -0.30078E+08
 
   -0.29850E+08         0.13247E+07         0.00000E+00
    0.13247E+07        -0.60002E+08         0.00000E+00
    0.00000E+00         0.00000E+00        -0.30075E+08
 
   -0.29877E+08         0.15046E+07         0.00000E+00
    0.15046E+07        -0.59986E+08         0.00000E+00
    0.00000E+00         0.00000E+00        -0.30065E+08
 
   -0.29915E+08         0.16907E+07         0.00000E+00
    0.16907E+07        -0.59965E+08         0.00000E+00
    0.00000E+00         0.00000E+00        -0.30046E+08
 
   -0.29966E+08         0.18837E+07         0.00000E+00
    0.18837E+07        -0.59939E+08         0.00000E+00
    0.00000E+00         0.00000E+00        -0.30015E+08
 
   -0.29645E+08         0.15066E+05         0.00000E+00
    0.15066E+05        -0.60002E+08         0.00000E+00
    0.00000E+00         0.00000E+00        -0.29628E+08
 
   -0.29655E+08         0.60815E+05         0.00000E+00
    0.60815E+05        -0.60006E+08         0.00000E+00
    0.00000E+00         0.00000E+00        -0.29621E+08
 
   -0.29662E+08         0.12317E+06         0.00000E+00
    0.12317E+06        -0.60013E+08         0.00000E+00
    0.00000E+00         0.00000E+00        -0.29622E+08
 
   -0.29665E+08         0.20214E+06         0.00000E+00
    0.20214E+06        -0.60023E+08         0.00000E+00
    0.00000E+00         0.00000E+00        -0.29630E+08
 
   -0.29664E+08         0.29737E+06         0.00000E+00
    0.29737E+06        -0.60035E+08         0.00000E+00
    0.00000E+00         0.00000E+00        -0.29645E+08
 
   -0.29662E+08         0.40821E+06         0.00000E+00
    0.40821E+06        -0.60048E+08         0.00000E+00
    0.00000E+00         0.00000E+00        -0.29664E+08
 
   -0.29658E+08         0.53362E+06         0.00000E+00
    0.53362E+06        -0.60062E+08         0.00000E+00
    0.00000E+00         0.00000E+00        -0.29688E+08
 
   -0.29654E+08         0.67236E+06         0.00000E+00
    0.67236E+06        -0.60074E+08         0.00000E+00
    0.00000E+00         0.00000E+00        -0.29714E+08
 
   -0.29652E+08         0.82299E+06         0.00000E+00
    0.82299E+06        -0.60085E+08         0.00000E+00
    0.00000E+00         0.00000E+00        -0.29741E+08
 
   -0.29653E+08         0.98404E+06         0.00000E+00
    0.98404E+06        -0.60094E+08         0.00000E+00
    0.00000E+00         0.00000E+00        -0.29766E+08
 
   -0.29659E+08         0.11541E+07         0.00000E+00
    0.11541E+07        -0.60099E+08         0.00000E+00
    0.00000E+00         0.00000E+00        -0.29789E+08
 
   -0.29671E+08         0.13319E+07         0.00000E+00
    0.13319E+07        -0.60100E+08         0.00000E+00
    0.00000E+00         0.00000E+00        -0.29806E+08
 
   -0.29692E+08         0.15167E+07         0.00000E+00
    0.15167E+07        -0.60097E+08         0.00000E+00
    0.00000E+00         0.00000E+00        -0.29815E+08
 
   -0.29723E+08         0.17081E+07         0.00000E+00
    0.17081E+07        -0.60088E+08         0.00000E+00
    0.00000E+00         0.00000E+00        -0.29814E+08
 
   -0.29767E+08         0.19061E+07         0.00000E+00
    0.19061E+07        -0.60073E+08         0.00000E+00
    0.00000E+00         0.00000E+00        -0.29802E+08
 
   -0.29610E+08         0.12396E+05         0.00000E+00
    0.12396E+05        -0.60002E+08         0.00000E+00
    0.00000E+00         0.00000E+00        -0.29127E+08
 
   -0.29603E+08         0.53087E+05         0.00000E+00
    0.53087E+05        -0.60009E+08         0.00000E+00
    0.00000E+00         0.00000E+00        -0.29139E+08
 
   -0.29593E+08         0.11135E+06         0.00000E+00
    0.11135E+06        -0.60021E+08         0.00000E+00
    0.00000E+00         0.00000E+00        -0.29161E+08
 
   -0.29579E+08         0.18720E+06         0.00000E+00
    0.18720E+06        -0.60037E+08         0.00000E+00
    0.00000E+00         0.00000E+00        -0.29191E+08
 
   -0.29562E+08         0.28032E+06         0.00000E+00
    0.28032E+06        -0.60057E+08         0.00000E+00
    0.00000E+00         0.00000E+00        -0.29229E+08
 
   -0.29544E+08         0.39001E+06         0.00000E+00
    0.39001E+06        -0.60079E+08         0.00000E+00
    0.00000E+00         0.00000E+00        -0.29271E+08
 
   -0.29526E+08         0.51526E+06         0.00000E+00
    0.51526E+06        -0.60102E+08         0.00000E+00
    0.00000E+00         0.00000E+00        -0.29318E+08
 
   -0.29509E+08         0.65481E+06         0.00000E+00
    0.65481E+06        -0.60125E+08         0.00000E+00
    0.00000E+00         0.00000E+00        -0.29366E+08
 
   -0.29495E+08         0.80723E+06         0.00000E+00
    0.80723E+06        -0.60147E+08         0.00000E+00
    0.00000E+00         0.00000E+00        -0.29414E+08
 
   -0.29486E+08         0.97100E+06         0.00000E+00
    0.97100E+06        -0.60167E+08         0.00000E+00
    0.00000E+00         0.00000E+00        -0.29460E+08
 
   -0.29483E+08         0.11447E+07         0.00000E+00
    0.11447E+07        -0.60184E+08         0.00000E+00
    0.00000E+00         0.00000E+00        -0.29501E+08
 
   -0.29487E+08         0.13270E+07         0.00000E+00
    0.13270E+07        -0.60197E+08         0.00000E+00
    0.00000E+00         0.00000E+00        -0.29537E+08
 
   -0.29501E+08         0.15171E+07         0.00000E+00
    0.15171E+07        -0.60204E+08         0.00000E+00
    0.00000E+00         0.00000E+00        -0.29564E+08
 
   -0.29526E+08         0.17143E+07         0.00000E+00
    0.17143E+07        -0.60206E+08         0.00000E+00
    0.00000E+00         0.00000E+00        -0.29582E+08
 
   -0.29563E+08         0.19178E+07         0.00000E+00
    0.19178E+07        -0.60203E+08         0.00000E+00
    0.00000E+00         0.00000E+00        -0.29587E+08
 
   -0.29581E+08         0.83980E+04         0.00000E+00
    0.83980E+04        -0.60003E+08         0.00000E+00
    0.00000E+00         0.00000E+00        -0.28627E+08
 
   -0.29557E+08         0.41688E+05         0.00000E+00
    0.41688E+05        -0.60012E+08         0.00000E+00
    0.00000E+00         0.00000E+00        -0.28658E+08
 
   -0.29528E+08         0.93891E+05         0.00000E+00
    0.93891E+05        -0.60028E+08         0.00000E+00
    0.00000E+00         0.00000E+00        -0.28701E+08
 
   -0.29496E+08         0.16505E+06         0.00000E+00
    0.16505E+06        -0.60051E+08         0.00000E+00
    0.00000E+00         0.00000E+00        -0.28753E+08
 
   -0.29462E+08         0.25480E+06         0.00000E+00
    0.25480E+06        -0.60079E+08         0.00000E+00
    0.00000E+00         0.00000E+00        -0.28813E+08
 
   -0.29427E+08         0.36242E+06         0.00000E+00
    0.36242E+06        -0.60110E+08         0.00000E+00
    0.00000E+00         0.00000E+00        -0.28879E+08
 
   -0.29393E+08         0.48685E+06         0.00000E+00
    0.48685E+06        -0.60142E+08         0.00000E+00
    0.00000E+00         0.00000E+00        -0.28948E+08
 
   -0.29362E+08         0.62676E+06         0.00000E+00
    0.62676E+06        -0.60175E+08         0.00000E+00
    0.00000E+00         0.00000E+00        -0.29019E+08
 
   -0.29336E+08         0.78068E+06         0.00000E+00
    0.78068E+06        -0.60208E+08         0.00000E+00
    0.00000E+00         0.00000E+00        -0.29088E+08
 
   -0.29315E+08         0.94706E+06         0.00000E+00
    0.94706E+06        -0.60238E+08         0.00000E+00
    0.00000E+00         0.00000E+00        -0.29154E+08
 
   -0.29303E+08         0.11244E+07         0.00000E+00
    0.11244E+07        -0.60265E+08         0.00000E+00
    0.00000E+00         0.00000E+00        -0.29214E+08
 
   -0.29298E+08         0.13114E+07         0.00000E+00
    0.13114E+07        -0.60288E+08         0.00000E+00
    0.00000E+00         0.00000E+00        -0.29268E+08
 
   -0.29304E+08         0.15069E+07         0.00000E+00
    0.15069E+07        -0.60306E+08         0.00000E+00
    0.00000E+00         0.00000E+00        -0.29313E+08
 
   -0.29323E+08         0.17091E+07         0.00000E+00
    0.17091E+07        -0.60320E+08         0.00000E+00
    0.00000E+00         0.00000E+00        -0.29347E+08
 
   -0.29356E+08         0.19163E+07         0.00000E+00
    0.19163E+07        -0.60329E+08         0.00000E+00
    0.00000E+00         0.00000E+00        -0.29369E+08
 
   -0.29562E+08         0.30398E+04         0.00000E+00
    0.30398E+04        -0.60003E+08         0.00000E+00
    0.00000E+00         0.00000E+00        -0.28124E+08
 
   -0.29519E+08         0.26710E+05         0.00000E+00
    0.26710E+05        -0.60014E+08         0.00000E+00
    0.00000E+00         0.00000E+00        -0.28175E+08
 
   -0.29470E+08         0.70970E+05         0.00000E+00
    0.70970E+05        -0.60035E+08         0.00000E+00
    0.00000E+00         0.00000E+00        -0.28239E+08
 
   -0.29418E+08         0.13591E+06         0.00000E+00
    0.13591E+06        -0.60064E+08         0.00000E+00
    0.00000E+00         0.00000E+00        -0.28314E+08
 
   -0.29365E+08         0.22114E+06         0.00000E+00
    0.22114E+06        -0.60099E+08         0.00000E+00
    0.00000E+00         0.00000E+00        -0.28397E+08
 
   -0.29312E+08         0.32583E+06         0.00000E+00
    0.32583E+06        -0.60138E+08         0.00000E+00
    0.00000E+00         0.00000E+00        -0.28486E+08
 
   -0.29261E+08         0.44885E+06         0.00000E+00
    0.44885E+06        -0.60180E+08         0.00000E+00
    0.00000E+00         0.00000E+00        -0.28578E+08
 
   -0.29215E+08         0.58879E+06         0.00000E+00
    0.58879E+06        -0.60223E+08         0.00000E+00
    0.00000E+00         0.00000E+00        -0.28670E+08
 
   -0.29174E+08         0.74412E+06         0.00000E+00
    0.74412E+06        -0.60265E+08         0.00000E+00
    0.00000E+00         0.00000E+00        -0.28760E+08
 
   -0.29142E+08         0.91323E+06         0.00000E+00
    0.91323E+06        -0.60304E+08         0.00000E+00
    0.00000E+00         0.00000E+00        -0.28846E+08
 
   -0.29118E+08         0.10944E+07         0.00000E+00
    0.10944E+07        -0.60341E+08         0.00000E+00
    0.00000E+00         0.00000E+00        -0.28925E+08
 
   -0.29105E+08         0.12860E+07         0.00000E+00
    0.12860E+07        -0.60374E+08         0.00000E+00
    0.00000E+00         0.00000E+00        -0.28996E+08
 
   -0.29104E+08         0.14855E+07         0.00000E+00
    0.14855E+07        -0.60402E+08         0.00000E+00
    0.00000E+00         0.00000E+00        -0.29058E+08
 
   -0.29116E+08         0.16919E+07         0.00000E+00
    0.16919E+07        -0.60427E+08         0.00000E+00
    0.00000E+00         0.00000E+00        -0.29108E+08
 
   -0.29143E+08         0.19048E+07         0.00000E+00
    0.19048E+07        -0.60445E+08         0.00000E+00
    0.00000E+00         0.00000E+00        -0.29146E+08
 
   -0.29555E+08        -0.35655E+04         0.00000E+00
   -0.35655E+04        -0.60004E+08         0.00000E+00
    0.00000E+00         0.00000E+00        -0.27618E+08
 
   -0.29490E+08         0.84107E+04         0.00000E+00
    0.84107E+04        -0.60017E+08         0.00000E+00
    0.00000E+00         0.00000E+00        -0.27688E+08
 
   -0.29420E+08         0.43080E+05         0.00000E+00
    0.43080E+05        -0.60042E+08         0.00000E+00
    0.00000E+00         0.00000E+00        -0.27773E+08
 
   -0.29346E+08         0.10046E+06         0.00000E+00
    0.10046E+06        -0.60076E+08         0.00000E+00
    0.00000E+00         0.00000E+00        -0.27871E+08
 
   -0.29272E+08         0.18008E+06         0.00000E+00
    0.18008E+06        -0.60117E+08         0.00000E+00
    0.00000E+00         0.00000E+00        -0.27977E+08
 
   -0.29199E+08         0.28105E+06         0.00000E+00
    0.28105E+06        -0.60164E+08         0.00000E+00
    0.00000E+00         0.00000E+00        -0.28089E+08
 
   -0.29130E+08         0.40211E+06         0.00000E+00
    0.40211E+06        -0.60213E+08         0.00000E+00
    0.00000E+00         0.00000E+00        -0.28204E+08
 
   -0.29067E+08         0.54181E+06         0.00000E+00
    0.54181E+06        -0.60264E+08         0.00000E+00
    0.00000E+00         0.00000E+00        -0.28318E+08
 
   -0.29011E+08         0.69846E+06         0.00000E+00
    0.69846E+06        -0.60315E+08         0.00000E+00
    0.00000E+00         0.00000E+00        -0.28429E+08
 
   -0.28965E+08         0.87011E+06         0.00000E+00
    0.87011E+06        -0.60364E+08         0.00000E+00
    0.00000E+00         0.00000E+00        -0.28535E+08
 
   -0.28930E+08         0.10547E+07         0.00000E+00
    0.10547E+07        -0.60410E+08         0.00000E+00
    0.00000E+00         0.00000E+00        -0.28633E+08
 
   -0.28907E+08         0.12500E+07         0.00000E+00
    0.12500E+07        -0.60452E+08         0.00000E+00
    0.00000E+00         0.00000E+00        -0.28722E+08
 
   -0.28898E+08         0.14542E+07         0.00000E+00
    0.14542E+07        -0.60491E+08         0.00000E+00
    0.00000E+00         0.00000E+00        -0.28799E+08
 
   -0.28903E+08         0.16662E+07         0.00000E+00
    0.16662E+07        -0.60524E+08         0.00000E+00
    0.00000E+00         0.00000E+00        -0.28865E+08
 
   -0.28924E+08         0.18855E+07         0.00000E+00
    0.18855E+07        -0.60550E+08         0.00000E+00
    0.00000E+00         0.00000E+00        -0.28916E+08
 
   -0.29562E+08        -0.11227E+05         0.00000E+00
   -0.11227E+05        -0.60004E+08         0.00000E+00
    0.00000E+00         0.00000E+00        -0.27107E+08
 
   -0.29472E+08        -0.12691E+05         0.00000E+00
   -0.12691E+05        -0.60019E+08         0.00000E+00
    0.00000E+00         0.00000E+00        -0.27197E+08
 
   -0.29378E+08         0.11021E+05         0.00000E+00
    0.11021E+05        -0.60047E+08         0.00000E+00
    0.00000E+00         0.00000E+00        -0.27304E+08
 
   -0.29281E+08         0.59730E+05         0.00000E+00
    0.59730E+05        -0.60085E+08         0.00000E+00
    0.00000E+00         0.00000E+00        -0.27424E+08
 
   -0.29184E+08         0.13283E+06         0.00000E+00
    0.13283E+06        -0.60132E+08         0.00000E+00
    0.00000E+00         0.00000E+00        -0.27553E+08
 
   -0.29090E+08         0.22931E+06         0.00000E+00
    0.22931E+06        -0.60184E+08         0.00000E+00
    0.00000E+00         0.00000E+00        -0.27687E+08
 
   -0.29000E+08         0.34786E+06         0.00000E+00
    0.34786E+06        -0.60240E+08         0.00000E+00
    0.00000E+00         0.00000E+00        -0.27824E+08
 
   -0.28918E+08         0.48680E+06         0.00000E+00
    0.48680E+06        -0.60298E+08         0.00000E+00
    0.00000E+00         0.00000E+00        -0.27960E+08
 
   -0.28846E+08         0.64416E+06         0.00000E+00
    0.64416E+06        -0.60356E+08         0.00000E+00
    0.00000E+00         0.00000E+00        -0.28092E+08
 
   -0.28785E+08         0.81779E+06         0.00000E+00
    0.81779E+06        -0.60414E+08         0.00000E+00
    0.00000E+00         0.00000E+00        -0.28218E+08
 
   -0.28738E+08         0.10053E+07         0.00000E+00
    0.10053E+07        -0.60469E+08         0.00000E+00
    0.00000E+00         0.00000E+00        -0.28334E+08
 
   -0.28705E+08         0.12047E+07         0.00000E+00
    0.12047E+07        -0.60521E+08         0.00000E+00
    0.00000E+00         0.00000E+00        -0.28441E+08
 
   -0.28687E+08         0.14143E+07         0.00000E+00
    0.14143E+07        -0.60568E+08         0.00000E+00
    0.00000E+00         0.00000E+00        -0.28535E+08
 
   -0.28684E+08         0.16329E+07         0.00000E+00
    0.16329E+07        -0.60609E+08         0.00000E+00
    0.00000E+00         0.00000E+00        -0.28615E+08
 
   -0.28698E+08         0.18590E+07         0.00000E+00
    0.18590E+07        -0.60642E+08         0.00000E+00
    0.00000E+00         0.00000E+00        -0.28680E+08
 
   -0.29584E+08        -0.19694E+05         0.00000E+00
   -0.19694E+05        -0.60004E+08         0.00000E+00
    0.00000E+00         0.00000E+00        -0.26589E+08
 
   -0.29468E+08        -0.35879E+05         0.00000E+00
   -0.35879E+05        -0.60021E+08         0.00000E+00
    0.00000E+00         0.00000E+00        -0.26700E+08
 
   -0.29347E+08        -0.24105E+05         0.00000E+00
   -0.24105E+05        -0.60051E+08         0.00000E+00
    0.00000E+00         0.00000E+00        -0.26829E+08
 
   -0.29224E+08         0.15137E+05         0.00000E+00
    0.15137E+05        -0.60092E+08         0.00000E+00
    0.00000E+00         0.00000E+00        -0.26971E+08
 
   -0.29102E+08         0.80992E+05         0.00000E+00
    0.80992E+05        -0.60141E+08         0.00000E+00
    0.00000E+00         0.00000E+00        -0.27122E+08
 
   -0.28984E+08         0.17228E+06         0.00000E+00
    0.17228E+06        -0.60197E+08         0.00000E+00
    0.00000E+00         0.00000E+00        -0.27279E+08
 
   -0.28872E+08         0.28749E+06         0.00000E+00
    0.28749E+06        -0.60258E+08         0.00000E+00
    0.00000E+00         0.00000E+00        -0.27437E+08
 
   -0.28770E+08         0.42479E+06         0.00000E+00
    0.42479E+06        -0.60322E+08         0.00000E+00
    0.00000E+00         0.00000E+00        -0.27594E+08
 
   -0.28680E+08         0.58211E+06         0.00000E+00
    0.58211E+06        -0.60387E+08         0.00000E+00
    0.00000E+00         0.00000E+00        -0.27747E+08
 
   -0.28603E+08         0.75707E+06         0.00000E+00
    0.75707E+06        -0.60452E+08         0.00000E+00
    0.00000E+00         0.00000E+00        -0.27892E+08
 
   -0.28542E+08         0.94739E+06         0.00000E+00
    0.94739E+06        -0.60515E+08         0.00000E+00
    0.00000E+00         0.00000E+00        -0.28027E+08
 
   -0.28498E+08         0.11510E+07         0.00000E+00
    0.11510E+07        -0.60575E+08         0.00000E+00
    0.00000E+00         0.00000E+00        -0.28151E+08
 
   -0.28470E+08         0.13661E+07         0.00000E+00
    0.13661E+07        -0.60630E+08         0.00000E+00
    0.00000E+00         0.00000E+00        -0.28262E+08
 
   -0.28458E+08         0.15913E+07         0.00000E+00
    0.15913E+07        -0.60679E+08         0.00000E+00
    0.00000E+00         0.00000E+00        -0.28358E+08
 
   -0.28465E+08         0.18240E+07         0.00000E+00
    0.18240E+07        -0.60723E+08         0.00000E+00
    0.00000E+00         0.00000E+00        -0.28438E+08
 
   -0.29622E+08        -0.28683E+05         0.00000E+00
   -0.28683E+05        -0.60004E+08         0.00000E+00
    0.00000E+00         0.00000E+00        -0.26065E+08
 
   -0.29477E+08        -0.60331E+05         0.00000E+00
   -0.60331E+05        -0.60021E+08         0.00000E+00
    0.00000E+00         0.00000E+00        -0.26198E+08
 
   -0.29327E+08        -0.60974E+05         0.00000E+00
   -0.60974E+05        -0.60052E+08         0.00000E+00
    0.00000E+00         0.00000E+00        -0.26348E+08
 
   -0.29176E+08        -0.31585E+05         0.00000E+00
   -0.31585E+05        -0.60095E+08         0.00000E+00
    0.00000E+00         0.00000E+00        -0.26512E+08
 
   -0.29027E+08         0.26573E+05         0.00000E+00
    0.26573E+05        -0.60145E+08         0.00000E+00
    0.00000E+00         0.00000E+00        -0.26684E+08
 
   -0.28883E+08         0.11199E+06         0.00000E+00
    0.11199E+06        -0.60203E+08         0.00000E+00
    0.00000E+00         0.00000E+00        -0.26862E+08
 
   -0.28748E+08         0.22296E+06         0.00000E+00
    0.22296E+06        -0.60266E+08         0.00000E+00
    0.00000E+00         0.00000E+00        -0.27040E+08
 
   -0.28624E+08         0.35759E+06         0.00000E+00
    0.35759E+06        -0.60333E+08         0.00000E+00
    0.00000E+00         0.00000E+00        -0.27217E+08
 
   -0.28514E+08         0.51381E+06         0.00000E+00
    0.51381E+06        -0.60403E+08         0.00000E+00
    0.00000E+00         0.00000E+00        -0.27390E+08
 
   -0.28420E+08         0.68927E+06         0.00000E+00
    0.68927E+06        -0.60474E+08         0.00000E+00
    0.00000E+00         0.00000E+00        -0.27554E+08
 
   -0.28344E+08         0.88173E+06         0.00000E+00
    0.88173E+06        -0.60544E+08         0.00000E+00
    0.00000E+00         0.00000E+00        -0.27708E+08
 
   -0.28286E+08         0.10890E+07         0.00000E+00
    0.10890E+07        -0.60612E+08         0.00000E+00
    0.00000E+00         0.00000E+00        -0.27850E+08
 
   -0.28247E+08         0.13093E+07         0.00000E+00
    0.13093E+07        -0.60676E+08         0.00000E+00
    0.00000E+00         0.00000E+00        -0.27978E+08
 
   -0.28226E+08         0.15399E+07         0.00000E+00
    0.15399E+07        -0.60736E+08         0.00000E+00
    0.00000E+00         0.00000E+00        -0.28092E+08
 
   -0.28227E+08         0.17782E+07         0.00000E+00
    0.17782E+07        -0.60790E+08         0.00000E+00
    0.00000E+00         0.00000E+00        -0.28188E+08
 
   -0.29679E+08        -0.37921E+05         0.00000E+00
   -0.37921E+05        -0.60005E+08         0.00000E+00
    0.00000E+00         0.00000E+00        -0.25535E+08
 
   -0.29500E+08        -0.85195E+05         0.00000E+00
   -0.85195E+05        -0.60022E+08         0.00000E+00
    0.00000E+00         0.00000E+00        -0.25691E+08
 
   -0.29318E+08        -0.98134E+05         0.00000E+00
   -0.98134E+05        -0.60052E+08         0.00000E+00
    0.00000E+00         0.00000E+00        -0.25863E+08
 
   -0.29136E+08        -0.78401E+05         0.00000E+00
   -0.78401E+05        -0.60094E+08         0.00000E+00
    0.00000E+00         0.00000E+00        -0.26047E+08
 
   -0.28958E+08        -0.27933E+05         0.00000E+00
   -0.27933E+05        -0.60143E+08         0.00000E+00
    0.00000E+00         0.00000E+00        -0.26239E+08
 
   -0.28787E+08         0.51215E+05         0.00000E+00
    0.51215E+05        -0.60200E+08         0.00000E+00
    0.00000E+00         0.00000E+00        -0.26435E+08
 
   -0.28627E+08         0.15707E+06         0.00000E+00
    0.15707E+06        -0.60262E+08         0.00000E+00
    0.00000E+00         0.00000E+00        -0.26632E+08
 
   -0.28479E+08         0.28779E+06         0.00000E+00
    0.28779E+06        -0.60329E+08         0.00000E+00
    0.00000E+00         0.00000E+00        -0.26827E+08
 
   -0.28348E+08         0.44133E+06         0.00000E+00
    0.44133E+06        -0.60401E+08         0.00000E+00
    0.00000E+00         0.00000E+00        -0.27017E+08
 
   -0.28236E+08         0.61565E+06         0.00000E+00
    0.61565E+06        -0.60476E+08         0.00000E+00
    0.00000E+00         0.00000E+00        -0.27199E+08
 
   -0.28143E+08         0.80864E+06         0.00000E+00
    0.80864E+06        -0.60552E+08         0.00000E+00
    0.00000E+00         0.00000E+00        -0.27372E+08
 
   -0.28070E+08         0.10182E+07         0.00000E+00
    0.10182E+07        -0.60629E+08         0.00000E+00
    0.00000E+00         0.00000E+00        -0.27533E+08
 
   -0.28019E+08         0.12419E+07         0.00000E+00
    0.12419E+07        -0.60703E+08         0.00000E+00
    0.00000E+00         0.00000E+00        -0.27681E+08
 
   -0.27989E+08         0.14768E+07         0.00000E+00
    0.14768E+07        -0.60775E+08         0.00000E+00
    0.00000E+00         0.00000E+00        -0.27814E+08
 
   -0.27981E+08         0.17221E+07         0.00000E+00
    0.17221E+07        -0.60840E+08         0.00000E+00
    0.00000E+00         0.00000E+00        -0.27929E+08
 
   -0.29752E+08        -0.47170E+05         0.00000E+00
   -0.47170E+05        -0.60005E+08         0.00000E+00
    0.00000E+00         0.00000E+00        -0.25000E+08
 
   -0.29536E+08        -0.10966E+06         0.00000E+00
   -0.10966E+06        -0.60021E+08         0.00000E+00
    0.00000E+00         0.00000E+00        -0.25179E+08
 
   -0.29320E+08        -0.13403E+06         0.00000E+00
   -0.13403E+06        -0.60051E+08         0.00000E+00
    0.00000E+00         0.00000E+00        -0.25373E+08
 
   -0.29105E+08        -0.12298E+06         0.00000E+00
   -0.12298E+06        -0.60089E+08         0.00000E+00
    0.00000E+00         0.00000E+00        -0.25577E+08
 
   -0.28896E+08        -0.79466E+05         0.00000E+00
   -0.79466E+05        -0.60135E+08         0.00000E+00
    0.00000E+00         0.00000E+00        -0.25786E+08
 
   -0.28698E+08        -0.64416E+04         0.00000E+00
   -0.64416E+04        -0.60186E+08         0.00000E+00
    0.00000E+00         0.00000E+00        -0.25997E+08
 
   -0.28511E+08         0.93600E+05         0.00000E+00
    0.93600E+05        -0.60243E+08         0.00000E+00
    0.00000E+00         0.00000E+00        -0.26208E+08
 
   -0.28339E+08         0.21870E+06         0.00000E+00
    0.21870E+06        -0.60307E+08         0.00000E+00
    0.00000E+00         0.00000E+00        -0.26418E+08
 
   -0.28186E+08         0.36711E+06         0.00000E+00
    0.36711E+06        -0.60377E+08         0.00000E+00
    0.00000E+00         0.00000E+00        -0.26623E+08
 
   -0.28053E+08         0.53741E+06         0.00000E+00
    0.53741E+06        -0.60454E+08         0.00000E+00
    0.00000E+00         0.00000E+00        -0.26823E+08
 
   -0.27942E+08         0.72810E+06         0.00000E+00
    0.72810E+06        -0.60536E+08         0.00000E+00
    0.00000E+00         0.00000E+00        -0.27015E+08
 
   -0.27853E+08         0.93724E+06         0.00000E+00
    0.93724E+06        -0.60622E+08         0.00000E+00
    0.00000E+00         0.00000E+00        -0.27197E+08
 
   -0.27788E+08         0.11623E+07         0.00000E+00
    0.11623E+07        -0.60709E+08         0.00000E+00
    0.00000E+00         0.00000E+00        -0.27367E+08
 
   -0.27746E+08         0.14017E+07         0.00000E+00
    0.14017E+07        -0.60793E+08         0.00000E+00
    0.00000E+00         0.00000E+00        -0.27521E+08
 
   -0.27727E+08         0.16538E+07         0.00000E+00
    0.16538E+07        -0.60873E+08         0.00000E+00
    0.00000E+00         0.00000E+00        -0.27658E+08
 
   -0.29843E+08        -0.56280E+05         0.00000E+00
   -0.56280E+05        -0.60005E+08         0.00000E+00
    0.00000E+00         0.00000E+00        -0.24460E+08
 
   -0.29586E+08        -0.13294E+06         0.00000E+00
   -0.13294E+06        -0.60021E+08         0.00000E+00
    0.00000E+00         0.00000E+00        -0.24664E+08
 
   -0.29330E+08        -0.16698E+06         0.00000E+00
   -0.16698E+06        -0.60047E+08         0.00000E+00
    0.00000E+00         0.00000E+00        -0.24880E+08
 
   -0.29080E+08        -0.16258E+06         0.00000E+00
   -0.16258E+06        -0.60080E+08         0.00000E+00
    0.00000E+00         0.00000E+00        -0.25103E+08
 
   -0.28841E+08        -0.12434E+06         0.00000E+00
   -0.12434E+06        -0.60118E+08         0.00000E+00
    0.00000E+00         0.00000E+00        -0.25326E+08
 
   -0.28614E+08        -0.56671E+05         0.00000E+00
   -0.56671E+05        -0.60160E+08         0.00000E+00
    0.00000E+00         0.00000E+00        -0.25548E+08
 
   -0.28402E+08         0.36990E+05         0.00000E+00
    0.36990E+05        -0.60208E+08         0.00000E+00
    0.00000E+00         0.00000E+00        -0.25768E+08
 
   -0.28206E+08         0.15426E+06         0.00000E+00
    0.15426E+06        -0.60263E+08         0.00000E+00
    0.00000E+00         0.00000E+00        -0.25987E+08
 
   -0.28030E+08         0.29399E+06         0.00000E+00
    0.29399E+06        -0.60329E+08         0.00000E+00
    0.00000E+00         0.00000E+00        -0.26204E+08
 
   -0.27876E+08         0.45592E+06         0.00000E+00
    0.45592E+06        -0.60405E+08         0.00000E+00
    0.00000E+00         0.00000E+00        -0.26419E+08
 
   -0.27744E+08         0.63981E+06         0.00000E+00
    0.63981E+06        -0.60492E+08         0.00000E+00
    0.00000E+00         0.00000E+00        -0.26631E+08
 
   -0.27637E+08         0.84466E+06         0.00000E+00
    0.84466E+06        -0.60588E+08         0.00000E+00
    0.00000E+00         0.00000E+00        -0.26836E+08
 
   -0.27555E+08         0.10691E+07         0.00000E+00
    0.10691E+07        -0.60689E+08         0.00000E+00
    0.00000E+00         0.00000E+00        -0.27031E+08
 
   -0.27498E+08         0.13115E+07         0.00000E+00
    0.13115E+07        -0.60789E+08         0.00000E+00
    0.00000E+00         0.00000E+00        -0.27212E+08
 
   -0.27465E+08         0.15697E+07         0.00000E+00
    0.15697E+07        -0.60886E+08         0.00000E+00
    0.00000E+00         0.00000E+00        -0.27377E+08
 
   -0.29950E+08        -0.65171E+05         0.00000E+00
   -0.65171E+05        -0.60005E+08         0.00000E+00
    0.00000E+00         0.00000E+00        -0.23918E+08
 
   -0.29645E+08        -0.15423E+06         0.00000E+00
   -0.15423E+06        -0.60019E+08         0.00000E+00
    0.00000E+00         0.00000E+00        -0.24148E+08
 
   -0.29347E+08        -0.19492E+06         0.00000E+00
   -0.19492E+06        -0.60042E+08         0.00000E+00
    0.00000E+00         0.00000E+00        -0.24387E+08
 
   -0.29060E+08        -0.19385E+06         0.00000E+00
   -0.19385E+06        -0.60066E+08         0.00000E+00
    0.00000E+00         0.00000E+00        -0.24625E+08
 
   -0.28789E+08        -0.15823E+06         0.00000E+00
   -0.15823E+06        -0.60092E+08         0.00000E+00
    0.00000E+00         0.00000E+00        -0.24858E+08
 
   -0.28536E+08        -0.94700E+05         0.00000E+00
   -0.94700E+05        -0.60120E+08         0.00000E+00
    0.00000E+00         0.00000E+00        -0.25085E+08
 
   -0.28300E+08        -0.81489E+04         0.00000E+00
   -0.81489E+04        -0.60153E+08         0.00000E+00
    0.00000E+00         0.00000E+00        -0.25308E+08
 
   -0.28083E+08         0.98666E+05         0.00000E+00
    0.98666E+05        -0.60196E+08         0.00000E+00
    0.00000E+00         0.00000E+00        -0.25530E+08
 
   -0.27886E+08         0.22531E+06         0.00000E+00
    0.22531E+06        -0.60253E+08         0.00000E+00
    0.00000E+00         0.00000E+00        -0.25754E+08
 
   -0.27709E+08         0.37311E+06         0.00000E+00
    0.37311E+06        -0.60327E+08         0.00000E+00
    0.00000E+00         0.00000E+00        -0.25982E+08
 
   -0.27554E+08         0.54397E+06         0.00000E+00
    0.54397E+06        -0.60417E+08         0.00000E+00
    0.00000E+00         0.00000E+00        -0.26212E+08
 
   -0.27425E+08         0.73935E+06         0.00000E+00
    0.73935E+06        -0.60523E+08         0.00000E+00
    0.00000E+00         0.00000E+00        -0.26443E+08
 
   -0.27321E+08         0.95927E+06         0.00000E+00
    0.95927E+06        -0.60640E+08         0.00000E+00
    0.00000E+00         0.00000E+00        -0.26668E+08
 
   -0.27246E+08         0.12020E+07         0.00000E+00
    0.12020E+07        -0.60761E+08         0.00000E+00
    0.00000E+00         0.00000E+00        -0.26882E+08
 
   -0.27196E+08         0.14651E+07         0.00000E+00
    0.14651E+07        -0.60881E+08         0.00000E+00
    0.00000E+00         0.00000E+00        -0.27082E+08
 
   -0.30073E+08        -0.73840E+05         0.00000E+00
   -0.73840E+05        -0.60005E+08         0.00000E+00
    0.00000E+00         0.00000E+00        -0.23374E+08
 
   -0.29712E+08        -0.17237E+06         0.00000E+00
   -0.17237E+06        -0.60018E+08         0.00000E+00
    0.00000E+00         0.00000E+00        -0.23634E+08
 
   -0.29366E+08        -0.21487E+06         0.00000E+00
   -0.21487E+06        -0.60033E+08         0.00000E+00
    0.00000E+00         0.00000E+00        -0.23894E+08
 
   -0.29041E+08        -0.21229E+06         0.00000E+00
   -0.21229E+06        -0.60044E+08         0.00000E+00
    0.00000E+00         0.00000E+00        -0.24144E+08
 
   -0.28740E+08        -0.17614E+06         0.00000E+00
   -0.17614E+06        -0.60053E+08         0.00000E+00
    0.00000E+00         0.00000E+00        -0.24381E+08
 
   -0.28463E+08        -0.11600E+06         0.00000E+00
   -0.11600E+06        -0.60062E+08         0.00000E+00
    0.00000E+00         0.00000E+00        -0.24605E+08
 
   -0.28209E+08        -0.37922E+05         0.00000E+00
   -0.37922E+05        -0.60077E+08         0.00000E+00
    0.00000E+00         0.00000E+00        -0.24824E+08
 
   -0.27974E+08         0.55481E+05         0.00000E+00
    0.55481E+05        -0.60105E+08         0.00000E+00
    0.00000E+00         0.00000E+00        -0.25044E+08
 
   -0.27758E+08         0.16455E+06         0.00000E+00
    0.16455E+06        -0.60151E+08         0.00000E+00
    0.00000E+00         0.00000E+00        -0.25269E+08
 
   -0.27559E+08         0.29196E+06         0.00000E+00
    0.29196E+06        -0.60217E+08         0.00000E+00
    0.00000E+00         0.00000E+00        -0.25505E+08
 
   -0.27380E+08         0.44214E+06         0.00000E+00
    0.44214E+06        -0.60308E+08         0.00000E+00
    0.00000E+00         0.00000E+00        -0.25752E+08
 
   -0.27223E+08         0.62004E+06         0.00000E+00
    0.62004E+06        -0.60423E+08         0.00000E+00
    0.00000E+00         0.00000E+00        -0.26010E+08
 
   -0.27093E+08         0.82872E+06         0.00000E+00
    0.82872E+06        -0.60558E+08         0.00000E+00
    0.00000E+00         0.00000E+00        -0.26272E+08
 
   -0.26992E+08         0.10675E+07         0.00000E+00
    0.10675E+07        -0.60706E+08         0.00000E+00
    0.00000E+00         0.00000E+00        -0.26528E+08
 
   -0.26920E+08         0.13334E+07         0.00000E+00
    0.13334E+07        -0.60856E+08         0.00000E+00
    0.00000E+00         0.00000E+00        -0.26773E+08
 
   -0.30209E+08        -0.82285E+05         0.00000E+00
   -0.82285E+05        -0.60005E+08         0.00000E+00
    0.00000E+00         0.00000E+00        -0.22831E+08
 
   -0.29782E+08        -0.18505E+06         0.00000E+00
   -0.18505E+06        -0.60014E+08         0.00000E+00
    0.00000E+00         0.00000E+00        -0.23124E+08
 
   -0.29382E+08        -0.22158E+06         0.00000E+00
   -0.22158E+06        -0.60016E+08         0.00000E+00
    0.00000E+00         0.00000E+00        -0.23404E+08
 
   -0.29018E+08        -0.21155E+06         0.00000E+00
   -0.21155E+06        -0.60007E+08         0.00000E+00
    0.00000E+00         0.00000E+00        -0.23659E+08
 
   -0.28691E+08        -0.17296E+06         0.00000E+00
   -0.17296E+06        -0.59992E+08         0.00000E+00
    0.00000E+00         0.00000E+00        -0.23889E+08
 
   -0.28397E+08        -0.11745E+06         0.00000E+00
   -0.11745E+06        -0.59979E+08         0.00000E+00
    0.00000E+00         0.00000E+00        -0.24104E+08
 
   -0.28129E+08        -0.50420E+05         0.00000E+00
   -0.50420E+05        -0.59977E+08         0.00000E+00
    0.00000E+00         0.00000E+00        -0.24314E+08
 
   -0.27882E+08         0.26523E+05         0.00000E+00
    0.26523E+05        -0.59989E+08         0.00000E+00
    0.00000E+00         0.00000E+00        -0.24525E+08
 
   -0.27651E+08         0.11435E+06         0.00000E+00
    0.11435E+06        -0.60022E+08         0.00000E+00
    0.00000E+00         0.00000E+00        -0.24747E+08
 
   -0.27434E+08         0.21622E+06         0.00000E+00
    0.21622E+06        -0.60079E+08         0.00000E+00
    0.00000E+00         0.00000E+00        -0.24985E+08
 
   -0.27230E+08         0.33779E+06         0.00000E+00
    0.33779E+06        -0.60166E+08         0.00000E+00
    0.00000E+00         0.00000E+00        -0.25245E+08
 
   -0.27041E+08         0.48712E+06         0.00000E+00
    0.48712E+06        -0.60287E+08         0.00000E+00
    0.00000E+00         0.00000E+00        -0.25528E+08
 
   -0.26876E+08         0.67334E+06         0.00000E+00
    0.67334E+06        -0.60441E+08         0.00000E+00
    0.00000E+00         0.00000E+00        -0.25832E+08
 
   -0.26742E+08         0.90037E+06         0.00000E+00
    0.90037E+06        -0.60620E+08         0.00000E+00
    0.00000E+00         0.00000E+00        -0.26143E+08
 
   -0.26640E+08         0.11652E+07         0.00000E+00
    0.11652E+07        -0.60811E+08         0.00000E+00
    0.00000E+00         0.00000E+00        -0.26448E+08
 
   -0.30354E+08        -0.90133E+05         0.00000E+00
   -0.90133E+05        -0.60005E+08         0.00000E+00
    0.00000E+00         0.00000E+00        -0.22291E+08
 
   -0.29843E+08        -0.18634E+06         0.00000E+00
   -0.18634E+06        -0.60005E+08         0.00000E+00
    0.00000E+00         0.00000E+00        -0.22620E+08
 
   -0.29386E+08        -0.20509E+06         0.00000E+00
   -0.20509E+06        -0.59982E+08         0.00000E+00
    0.00000E+00         0.00000E+00        -0.22912E+08
 
   -0.28989E+08        -0.18379E+06         0.00000E+00
   -0.18379E+06        -0.59942E+08         0.00000E+00
    0.00000E+00         0.00000E+00        -0.23158E+08
 
   -0.28646E+08        -0.14558E+06         0.00000E+00
   -0.14558E+06        -0.59900E+08         0.00000E+00
    0.00000E+00         0.00000E+00        -0.23374E+08
 
   -0.28342E+08        -0.98933E+05         0.00000E+00
   -0.98933E+05        -0.59866E+08         0.00000E+00
    0.00000E+00         0.00000E+00        -0.23574E+08
 
   -0.28066E+08        -0.46720E+05         0.00000E+00
   -0.46720E+05        -0.59847E+08         0.00000E+00
    0.00000E+00         0.00000E+00        -0.23771E+08
 
   -0.27811E+08         0.10881E+05         0.00000E+00
    0.10881E+05        -0.59847E+08         0.00000E+00
    0.00000E+00         0.00000E+00        -0.23973E+08
 
   -0.27570E+08         0.75087E+05         0.00000E+00
    0.75087E+05        -0.59869E+08         0.00000E+00
    0.00000E+00         0.00000E+00        -0.24188E+08
 
   -0.27338E+08         0.14852E+06         0.00000E+00
    0.14852E+06        -0.59918E+08         0.00000E+00
    0.00000E+00         0.00000E+00        -0.24424E+08
 
   -0.27113E+08         0.23603E+06         0.00000E+00
    0.23603E+06        -0.59998E+08         0.00000E+00
    0.00000E+00         0.00000E+00        -0.24689E+08
 
   -0.26893E+08         0.34587E+06         0.00000E+00
    0.34587E+06        -0.60117E+08         0.00000E+00
    0.00000E+00         0.00000E+00        -0.24991E+08
 
   -0.26684E+08         0.49165E+06         0.00000E+00
    0.49165E+06        -0.60282E+08         0.00000E+00
    0.00000E+00         0.00000E+00        -0.25336E+08
 
   -0.26502E+08         0.69088E+06         0.00000E+00
    0.69088E+06        -0.60498E+08         0.00000E+00
    0.00000E+00         0.00000E+00        -0.25714E+08
 
   -0.26357E+08         0.94687E+06         0.00000E+00
    0.94687E+06        -0.60743E+08         0.00000E+00
    0.00000E+00         0.00000E+00        -0.26103E+08
 
   -0.30500E+08        -0.94457E+05         0.00000E+00
   -0.94457E+05        -0.60002E+08         0.00000E+00
    0.00000E+00         0.00000E+00        -0.21757E+08
 
   -0.29881E+08        -0.15885E+06         0.00000E+00
   -0.15885E+06        -0.59973E+08         0.00000E+00
    0.00000E+00         0.00000E+00        -0.22121E+08
 
   -0.29373E+08        -0.15024E+06         0.00000E+00
   -0.15024E+06        -0.59902E+08         0.00000E+00
    0.00000E+00         0.00000E+00        -0.22400E+08
 
   -0.28959E+08        -0.12538E+06         0.00000E+00
   -0.12538E+06        -0.59827E+08         0.00000E+00
    0.00000E+00         0.00000E+00        -0.22625E+08
 
   -0.28608E+08        -0.96019E+05         0.00000E+00
   -0.96019E+05        -0.59763E+08         0.00000E+00
    0.00000E+00         0.00000E+00        -0.22822E+08
 
   -0.28300E+08        -0.64466E+05         0.00000E+00
   -0.64466E+05        -0.59714E+08         0.00000E+00
    0.00000E+00         0.00000E+00        -0.23007E+08
 
   -0.28021E+08        -0.31105E+05         0.00000E+00
   -0.31105E+05        -0.59684E+08         0.00000E+00
    0.00000E+00         0.00000E+00        -0.23193E+08
 
   -0.27762E+08         0.46849E+04         0.00000E+00
    0.46849E+04        -0.59677E+08         0.00000E+00
    0.00000E+00         0.00000E+00        -0.23386E+08
 
   -0.27515E+08         0.43883E+05         0.00000E+00
    0.43883E+05        -0.59693E+08         0.00000E+00
    0.00000E+00         0.00000E+00        -0.23595E+08
 
   -0.27274E+08         0.88032E+05         0.00000E+00
    0.88032E+05        -0.59737E+08         0.00000E+00
    0.00000E+00         0.00000E+00        -0.23827E+08
 
   -0.27035E+08         0.14001E+06         0.00000E+00
    0.14001E+06        -0.59812E+08         0.00000E+00
    0.00000E+00         0.00000E+00        -0.24092E+08
 
   -0.26791E+08         0.20524E+06         0.00000E+00
    0.20524E+06        -0.59927E+08         0.00000E+00
    0.00000E+00         0.00000E+00        -0.24402E+08
 
   -0.26541E+08         0.29421E+06         0.00000E+00
    0.29421E+06        -0.60093E+08         0.00000E+00
    0.00000E+00         0.00000E+00        -0.24773E+08
 
   -0.26292E+08         0.43008E+06         0.00000E+00
    0.43008E+06        -0.60327E+08         0.00000E+00
    0.00000E+00         0.00000E+00        -0.25218E+08
 
   -0.26081E+08         0.65401E+06         0.00000E+00
    0.65401E+06        -0.60650E+08         0.00000E+00
    0.00000E+00         0.00000E+00        -0.25728E+08
 
   -0.30615E+08        -0.68415E+05         0.00000E+00
   -0.68415E+05        -0.59962E+08         0.00000E+00
    0.00000E+00         0.00000E+00        -0.21224E+08
 
   -0.29879E+08        -0.67462E+05         0.00000E+00
   -0.67462E+05        -0.59851E+08         0.00000E+00
    0.00000E+00         0.00000E+00        -0.21584E+08
 
   -0.29356E+08        -0.55517E+05         0.00000E+00
   -0.55517E+05        -0.59739E+08         0.00000E+00
    0.00000E+00         0.00000E+00        -0.21833E+08
 
   -0.28939E+08        -0.44316E+05         0.00000E+00
   -0.44316E+05        -0.59644E+08         0.00000E+00
    0.00000E+00         0.00000E+00        -0.22037E+08
 
   -0.28587E+08        -0.33192E+05         0.00000E+00
   -0.33192E+05        -0.59569E+08         0.00000E+00
    0.00000E+00         0.00000E+00        -0.22220E+08
 
   -0.28278E+08        -0.22010E+05         0.00000E+00
   -0.22010E+05        -0.59516E+08         0.00000E+00
    0.00000E+00         0.00000E+00        -0.22396E+08
 
   -0.27998E+08        -0.10526E+05         0.00000E+00
   -0.10526E+05        -0.59485E+08         0.00000E+00
    0.00000E+00         0.00000E+00        -0.22575E+08
 
   -0.27737E+08         0.16397E+04         0.00000E+00
    0.16397E+04        -0.59477E+08         0.00000E+00
    0.00000E+00         0.00000E+00        -0.22764E+08
 
   -0.27487E+08         0.14856E+05         0.00000E+00
    0.14856E+05        -0.59495E+08         0.00000E+00
    0.00000E+00         0.00000E+00        -0.22969E+08
 
   -0.27243E+08         0.29594E+05         0.00000E+00
    0.29594E+05        -0.59540E+08         0.00000E+00
    0.00000E+00         0.00000E+00        -0.23198E+08
 
   -0.26997E+08         0.46767E+05         0.00000E+00
    0.46767E+05        -0.59618E+08         0.00000E+00
    0.00000E+00         0.00000E+00        -0.23462E+08
 
   -0.26741E+08         0.68075E+05         0.00000E+00
    0.68075E+05        -0.59734E+08         0.00000E+00
    0.00000E+00         0.00000E+00        -0.23773E+08
 
   -0.26468E+08         0.97027E+05         0.00000E+00
    0.97027E+05        -0.59900E+08         0.00000E+00
    0.00000E+00         0.00000E+00        -0.24153E+08
 
   -0.26166E+08         0.14301E+06         0.00000E+00
    0.14301E+06        -0.60138E+08         0.00000E+00
    0.00000E+00         0.00000E+00        -0.24635E+08
 
   -0.25825E+08         0.24284E+06         0.00000E+00
    0.24284E+06        -0.60494E+08         0.00000E+00
    0.00000E+00         0.00000E+00        -0.25282E+08
 
SCALARS stresss double 
LOOKUP_TABLE default
  -42172051.5649315     
  -42137815.9248767     
  -42090524.4719793     
  -42034113.9311530     
  -42005152.6818440     
  -41987867.5540671     
  -41973283.8384859     
  -41955712.3490341     
  -41930207.0392489     
  -41893125.0523228     
  -41840428.6234013     
  -41767407.6203806     
  -41667286.5803891     
  -41528588.4432791     
  -41326474.1005055     
  -42118361.3056630     
  -42103158.5445804     
  -42051143.0138049     
  -42008884.8522910     
  -41948742.6792005     
  -41894703.7709072     
  -41847486.9257708     
  -41801103.6909431     
  -41751471.5379547     
  -41693488.1791667     
  -41621985.4590359     
  -41532154.6524835     
  -41416934.3611546     
  -41267936.0979863     
  -41081318.5390411     
  -41935264.9787141     
  -41947343.6182767     
  -41945265.9030387     
  -41901516.7973521     
  -41847951.5432721     
  -41784359.2822185     
  -41717973.3587751     
  -41650577.9762504     
  -41580022.3828148     
  -41503209.3432254     
  -41415585.7178595     
  -41312600.8431010     
  -41190859.7948887     
  -41051611.9503646     
  -40909639.9116085     
  -41706280.4799238     
  -41723648.4806800     
  -41737949.8601242     
  -41728736.6486127     
  -41692182.9431703     
  -41637789.3903153     
  -41570328.0601740     
  -41494608.2437183     
  -41412418.8201764     
  -41323213.2309916     
  -41225469.2612819     
  -41117923.7883387     
  -41001811.9999527     
  -40883717.1308551     
  -40770905.0445971     
  -41492180.0342022     
  -41501095.5631186     
  -41511441.8243924     
  -41512125.7696948     
  -41494494.9821439     
  -41455672.7234365     
  -41398738.7375361     
  -41327032.1863142     
  -41244098.0060559     
  -41152402.6225313     
  -41053883.3292916     
  -40950908.9199007     
  -40847327.6804039     
  -40747374.8555727     
  -40654745.4840850     
  -41287270.5073288     
  -41285870.3015716     
  -41288575.0735852     
  -41288982.2670419     
  -41279278.3435929     
  -41253152.1944440     
  -41208976.5271154     
  -41148158.8450063     
  -41073653.5045378     
  -40989074.7764253     
  -40898705.6417869     
  -40806757.2556015     
  -40717128.3026863     
  -40632476.1535656     
  -40554155.8511800     
  -41084516.1866382     
  -41079654.8702248     
  -41077511.1138033     
  -41074221.0628384     
  -41064973.1282564     
  -41045367.2500278     
  -41011923.5891597     
  -40963763.1158858     
  -40902456.7370676     
  -40831404.9694323     
  -40754848.5479243     
  -40677133.5651975     
  -40601792.7719650     
  -40530912.3445760     
  -40464830.9310266     
  -40884721.8898050     
  -40879849.8634409     
  -40875209.8224093     
  -40869049.2705628     
  -40859122.5937911     
  -40842644.7587414     
  -40816937.5971817     
  -40780456.1404665     
  -40733547.2360108     
  -40678336.2770701     
  -40617967.7250112     
  -40555711.9862790     
  -40494332.1376917     
  -40436047.8436945     
  -40381988.8984515     
  -40689385.2283600     
  -40684619.9258530     
  -40679444.6139115     
  -40672578.9287212     
  -40662941.1635221     
  -40649087.2648840     
  -40629494.7866148     
  -40603009.8641912     
  -40569412.3996528     
  -40529556.0761505     
  -40485264.4380466     
  -40438500.4247002     
  -40391274.7146778     
  -40345249.3162144     
  -40301957.4920315     
  -40497361.8014412     
  -40493580.5264042     
  -40489048.3441672     
  -40483186.9267442     
  -40475347.0042623     
  -40464865.6889294     
  -40451060.2364595     
  -40433316.0860875     
  -40411285.7942385     
  -40385073.3360735     
  -40355363.4586477     
  -40323212.4448673     
  -40289760.4073160     
  -40256025.9082669     
  -40222682.0137423     
  -40308429.2857350     
  -40305984.6856022     
  -40303152.6633421     
  -40299528.0281864     
  -40294770.1441089     
  -40288617.8806579     
  -40280810.8758588     
  -40271065.1664908     
  -40259013.2426608     
  -40244410.7796322     
  -40227312.4593374     
  -40208162.7442857     
  -40187384.9987328     
  -40165597.0256751     
  -40143434.1379877     
  -40122323.3293350     
  -40121519.1446262     
  -40121014.7288226     
  -40120495.7214812     
  -40119770.6265876     
  -40118684.9889618     
  -40117087.2383244     
  -40114763.1135303     
  -40111420.0152213     
  -40106694.5860854     
  -40100307.6204328     
  -40092154.6620724     
  -40082522.3905580     
  -40071963.1399598     
  -40061193.4346405     
  -39938986.5013908     
  -39939874.0958914     
  -39942028.2354398     
  -39945172.9070665     
  -39949054.1936284     
  -39953469.9289346     
  -39958215.3714022     
  -39963037.6923608     
  -39967594.4020004     
  -39971476.9956407     
  -39974281.4241705     
  -39975797.9725516     
  -39976050.8750315     
  -39975203.2073227     
  -39973450.4088988     
  -39758139.4226260     
  -39760690.2890538     
  -39765686.0791820     
  -39772725.1690057     
  -39781438.0640262     
  -39791479.6387753     
  -39802513.5807493     
  -39814181.1978406     
  -39826082.2638915     
  -39837787.0119122     
  -39848882.2815786     
  -39858998.9581954     
  -39867840.9567214     
  -39875140.8153946     
  -39880761.6030794     
  -39579719.3963470     
  -39583743.1522984     
  -39591493.2801896     
  -39602380.2735093     
  -39615847.9753770     
  -39631368.4517733     
  -39648447.1127857     
  -39666598.2470047     
  -39685341.6367508     
  -39704186.1792712     
  -39722640.3996823     
  -39740229.6483113     
  -39756485.4861446     
  -39771146.9677520     
  -39784592.6168870     
  -39403555.6251477     
  -39408787.5061301     
  -39419023.0780422     
  -39433446.5225230     
  -39451312.4888743     
  -39471916.7538731     
  -39494606.3814065     
  -39518752.7849823     
  -39543755.6138810     
  -39569039.3480118     
  -39593995.2716738     
  -39618076.6700327     
  -39641061.0346977     
  -39663173.0039968     
  -39684764.2255842     
  -39229928.8469155     
  -39235872.3109419     
  -39248014.5508465     
  -39265368.6696910     
  -39286990.5914173     
  -39312019.6833603     
  -39339646.4798939     
  -39369124.0627153     
  -39399703.8044785     
  -39430664.6804851     
  -39461452.5357315     
  -39491698.7206432     
  -39521346.7004375     
  -39550303.7752284     
  -39578031.5681360     
  -39058893.6542792     
  -39064977.8227289     
  -39078300.9682865     
  -39097705.1476953     
  -39122146.5613509     
  -39150647.0313785     
  -39182300.0414164     
  -39216203.5357748     
  -39251552.6931826     
  -39287678.5577706     
  -39324067.2045780     
  -39360351.2027959     
  -39396104.4455451     
  -39430504.1704475     
  -39463093.9168621     
  -38890701.3473490     
  -38896166.2096960     
  -38909730.4975610     
  -38930091.7474615     
  -38956147.1827308     
  -38986889.7834302     
  -39021363.2643121     
  -39058689.9120764     
  -39098099.6231859     
  -39138899.7199793     
  -39180461.0310602     
  -39222125.4587599     
  -39263043.7119893     
  -39302585.1988383     
  -39340042.7582216     
  -38725631.0027084     
  -38729599.4212006     
  -38742278.0484656     
  -38762277.8169005     
  -38788488.6463543     
  -38819958.8658365     
  -38855839.5886964     
  -38895385.9632485     
  -38937820.9881837     
  -38982407.4977185     
  -39028308.4125094     
  -39074609.3395704     
  -39120550.0282612     
  -39165239.5376075     
  -39208827.6358570     
  -38564001.0549948     
  -38565483.6660074     
  -38576029.6936052     
  -38594165.2700273     
  -38618821.3044847     
  -38649203.3032237     
  -38684706.0742267     
  -38724731.6077003     
  -38768704.1893902     
  -38815830.9202888     
  -38865220.5735579     
  -38915928.8447604     
  -38966935.4728410     
  -39017854.0559441     
  -39068424.9018733     
  -38406119.5195247     
  -38404059.4443678     
  -38411137.0701560     
  -38425757.8750068     
  -38446904.6254817     
  -38473987.9345343     
  -38506743.7628338     
  -38545019.5224055     
  -38588564.2815117     
  -38636864.9871752     
  -38689074.4174730     
  -38744138.1847391     
  -38801051.9326709     
  -38859142.3922482     
  -38916531.5735350     
  -38252303.5087050     
  -38245541.6587471     
  -38247738.2637657     
  -38257041.4763811     
  -38272440.0229360     
  -38293617.1466791     
  -38320802.0336727     
  -38354582.3992408     
  -38395426.5765842     
  -38443356.2213867     
  -38497762.8461045     
  -38557424.3153633     
  -38621151.6041117     
  -38686822.1350672     
  -38752505.2157262     
  -38102768.7659719     
  -38090080.6376830     
  -38085838.1662361     
  -38087780.4154711     
  -38094875.9264459     
  -38107206.2959738     
  -38125749.0751329     
  -38152074.1541647     
  -38187677.2537583     
  -38233411.0113709     
  -38289140.1334561     
  -38353627.3381694     
  -38424729.8264385     
  -38499596.3116488     
  -38575868.8973178     
  -37957759.3053217     
  -37937663.8367404     
  -37925089.4139145     
  -37917165.9699289     
  -37912999.8845235     
  -37913419.1891220     
  -37920424.6028424     
  -37936616.1879507     
  -37964441.5559865     
  -38005767.3426602     
  -38061347.0390697     
  -38130280.1658967     
  -38209751.0791030     
  -38296252.6854492     
  -38386192.7651040     
  -37817364.0691281     
  -37787926.6003353     
  -37764334.8685631     
  -37743138.0095025     
  -37724272.9260975     
  -37710005.8110816     
  -37703461.6651551     
  -37707801.6143965     
  -37725924.7960506     
  -37760464.7172691     
  -37813460.1840001     
  -37885463.8476164     
  -37974267.5554426     
  -38075290.8339931     
  -38183092.9762738     
  -37681582.7123949     
  -37639697.1783670     
  -37600590.4750096     
  -37561208.2296408     
  -37524164.5853367     
  -37493702.0897613     
  -37473237.9012209     
  -37465627.6108672     
  -37473456.5759944     
  -37499508.5399011     
  -37546921.8333756     
  -37618729.5243376     
  -37716097.0034889     
  -37834637.4318862     
  -37966165.2736159     
  -37549923.2691989     
  -37489466.6663885     
  -37426425.4261167     
  -37362955.8834304     
  -37306369.2916068     
  -37260619.0654449     
  -37228003.5583968     
  -37210209.1622034     
  -37208987.4008111     
  -37226682.4666737     
  -37266677.2995813     
  -37333754.8786454     
  -37433897.3364818     
  -37571143.3512080     
  -37734520.5725810     
  -37419929.8540873     
  -37324844.9690465     
  -37225087.5023132     
  -37137072.1851997     
  -37064186.1006107     
  -37007110.5512450     
  -36966076.0816949     
  -36941474.2738874     
  -36934244.7147260     
  -36946045.0677611     
  -36979756.9458309     
  -37040168.6471265     
  -37135499.6298965     
  -37278754.7266661     
  -37486380.7628637     
  -37266983.1967300     
  -37104695.0809501     
  -36975902.3954597     
  -36873232.2374202     
  -36792211.3522485     
  -36730241.0173667     
  -36685980.3531881     
  -36659154.1575406     
  -36650209.8920815     
  -36660375.0774056     
  -36691999.4152814     
  -36749351.3508527     
  -36840175.6042731     
  -36979707.4629763     
  -37200566.0180911     
SCALARS 2waySource double 
LOOKUP_TABLE default
  0.000000000000000E+000
  0.000000000000000E+000
  0.000000000000000E+000
  0.000000000000000E+000
  0.000000000000000E+000
  0.000000000000000E+000
  0.000000000000000E+000
  0.000000000000000E+000
  0.000000000000000E+000
  0.000000000000000E+000
  0.000000000000000E+000
  0.000000000000000E+000
  0.000000000000000E+000
  0.000000000000000E+000
  0.000000000000000E+000
  0.000000000000000E+000
  0.000000000000000E+000
  0.000000000000000E+000
  0.000000000000000E+000
  0.000000000000000E+000
  0.000000000000000E+000
  0.000000000000000E+000
  0.000000000000000E+000
  0.000000000000000E+000
  0.000000000000000E+000
  0.000000000000000E+000
  0.000000000000000E+000
  0.000000000000000E+000
  0.000000000000000E+000
  0.000000000000000E+000
  0.000000000000000E+000
  0.000000000000000E+000
  0.000000000000000E+000
  0.000000000000000E+000
  0.000000000000000E+000
  0.000000000000000E+000
  0.000000000000000E+000
  0.000000000000000E+000
  0.000000000000000E+000
  0.000000000000000E+000
  0.000000000000000E+000
  0.000000000000000E+000
  0.000000000000000E+000
  0.000000000000000E+000
  0.000000000000000E+000
  0.000000000000000E+000
  0.000000000000000E+000
  0.000000000000000E+000
  0.000000000000000E+000
  0.000000000000000E+000
  0.000000000000000E+000
  0.000000000000000E+000
  0.000000000000000E+000
  0.000000000000000E+000
  0.000000000000000E+000
  0.000000000000000E+000
  0.000000000000000E+000
  0.000000000000000E+000
  0.000000000000000E+000
  0.000000000000000E+000
  0.000000000000000E+000
  0.000000000000000E+000
  0.000000000000000E+000
  0.000000000000000E+000
  0.000000000000000E+000
  0.000000000000000E+000
  0.000000000000000E+000
  0.000000000000000E+000
  0.000000000000000E+000
  0.000000000000000E+000
  0.000000000000000E+000
  0.000000000000000E+000
  0.000000000000000E+000
  0.000000000000000E+000
  0.000000000000000E+000
  0.000000000000000E+000
  0.000000000000000E+000
  0.000000000000000E+000
  0.000000000000000E+000
  0.000000000000000E+000
  0.000000000000000E+000
  0.000000000000000E+000
  0.000000000000000E+000
  0.000000000000000E+000
  0.000000000000000E+000
  0.000000000000000E+000
  0.000000000000000E+000
  0.000000000000000E+000
  0.000000000000000E+000
  0.000000000000000E+000
  0.000000000000000E+000
  0.000000000000000E+000
  0.000000000000000E+000
  0.000000000000000E+000
  0.000000000000000E+000
  0.000000000000000E+000
  0.000000000000000E+000
  0.000000000000000E+000
  0.000000000000000E+000
  0.000000000000000E+000
  0.000000000000000E+000
  0.000000000000000E+000
  0.000000000000000E+000
  0.000000000000000E+000
  0.000000000000000E+000
  0.000000000000000E+000
  0.000000000000000E+000
  0.000000000000000E+000
  0.000000000000000E+000
  0.000000000000000E+000
  0.000000000000000E+000
  0.000000000000000E+000
  0.000000000000000E+000
  0.000000000000000E+000
  0.000000000000000E+000
  0.000000000000000E+000
  0.000000000000000E+000
  0.000000000000000E+000
  0.000000000000000E+000
  0.000000000000000E+000
  0.000000000000000E+000
  0.000000000000000E+000
  0.000000000000000E+000
  0.000000000000000E+000
  0.000000000000000E+000
  0.000000000000000E+000
  0.000000000000000E+000
  0.000000000000000E+000
  0.000000000000000E+000
  0.000000000000000E+000
  0.000000000000000E+000
  0.000000000000000E+000
  0.000000000000000E+000
  0.000000000000000E+000
  0.000000000000000E+000
  0.000000000000000E+000
  0.000000000000000E+000
  0.000000000000000E+000
  0.000000000000000E+000
  0.000000000000000E+000
  0.000000000000000E+000
  0.000000000000000E+000
  0.000000000000000E+000
  0.000000000000000E+000
  0.000000000000000E+000
  0.000000000000000E+000
  0.000000000000000E+000
  0.000000000000000E+000
  0.000000000000000E+000
  0.000000000000000E+000
  0.000000000000000E+000
  0.000000000000000E+000
  0.000000000000000E+000
  0.000000000000000E+000
  0.000000000000000E+000
  0.000000000000000E+000
  0.000000000000000E+000
  0.000000000000000E+000
  0.000000000000000E+000
  0.000000000000000E+000
  0.000000000000000E+000
  0.000000000000000E+000
  0.000000000000000E+000
  0.000000000000000E+000
  0.000000000000000E+000
  0.000000000000000E+000
  0.000000000000000E+000
  0.000000000000000E+000
  0.000000000000000E+000
  0.000000000000000E+000
  0.000000000000000E+000
  0.000000000000000E+000
  0.000000000000000E+000
  0.000000000000000E+000
  0.000000000000000E+000
  0.000000000000000E+000
  0.000000000000000E+000
  0.000000000000000E+000
  0.000000000000000E+000
  0.000000000000000E+000
  0.000000000000000E+000
  0.000000000000000E+000
  0.000000000000000E+000
  0.000000000000000E+000
  0.000000000000000E+000
  0.000000000000000E+000
  0.000000000000000E+000
  0.000000000000000E+000
  0.000000000000000E+000
  0.000000000000000E+000
  0.000000000000000E+000
  0.000000000000000E+000
  0.000000000000000E+000
  0.000000000000000E+000
  0.000000000000000E+000
  0.000000000000000E+000
  0.000000000000000E+000
  0.000000000000000E+000
  0.000000000000000E+000
  0.000000000000000E+000
  0.000000000000000E+000
  0.000000000000000E+000
  0.000000000000000E+000
  0.000000000000000E+000
  0.000000000000000E+000
  0.000000000000000E+000
  0.000000000000000E+000
  0.000000000000000E+000
  0.000000000000000E+000
  0.000000000000000E+000
  0.000000000000000E+000
  0.000000000000000E+000
  0.000000000000000E+000
  0.000000000000000E+000
  0.000000000000000E+000
  0.000000000000000E+000
  0.000000000000000E+000
  0.000000000000000E+000
  0.000000000000000E+000
  0.000000000000000E+000
  0.000000000000000E+000
  0.000000000000000E+000
  0.000000000000000E+000
  0.000000000000000E+000
  0.000000000000000E+000
  0.000000000000000E+000
  0.000000000000000E+000
  0.000000000000000E+000
  0.000000000000000E+000
  0.000000000000000E+000
  0.000000000000000E+000
  0.000000000000000E+000
  0.000000000000000E+000
  0.000000000000000E+000
  0.000000000000000E+000
  0.000000000000000E+000
  0.000000000000000E+000
  0.000000000000000E+000
  0.000000000000000E+000
  0.000000000000000E+000
  0.000000000000000E+000
  0.000000000000000E+000
  0.000000000000000E+000
  0.000000000000000E+000
  0.000000000000000E+000
  0.000000000000000E+000
  0.000000000000000E+000
  0.000000000000000E+000
  0.000000000000000E+000
  0.000000000000000E+000
  0.000000000000000E+000
  0.000000000000000E+000
  0.000000000000000E+000
  0.000000000000000E+000
  0.000000000000000E+000
  0.000000000000000E+000
  0.000000000000000E+000
  0.000000000000000E+000
  0.000000000000000E+000
  0.000000000000000E+000
  0.000000000000000E+000
  0.000000000000000E+000
  0.000000000000000E+000
  0.000000000000000E+000
  0.000000000000000E+000
  0.000000000000000E+000
  0.000000000000000E+000
  0.000000000000000E+000
  0.000000000000000E+000
  0.000000000000000E+000
  0.000000000000000E+000
  0.000000000000000E+000
  0.000000000000000E+000
  0.000000000000000E+000
  0.000000000000000E+000
  0.000000000000000E+000
  0.000000000000000E+000
  0.000000000000000E+000
  0.000000000000000E+000
  0.000000000000000E+000
  0.000000000000000E+000
  0.000000000000000E+000
  0.000000000000000E+000
  0.000000000000000E+000
  0.000000000000000E+000
  0.000000000000000E+000
  0.000000000000000E+000
  0.000000000000000E+000
  0.000000000000000E+000
  0.000000000000000E+000
  0.000000000000000E+000
  0.000000000000000E+000
  0.000000000000000E+000
  0.000000000000000E+000
  0.000000000000000E+000
  0.000000000000000E+000
  0.000000000000000E+000
  0.000000000000000E+000
  0.000000000000000E+000
  0.000000000000000E+000
  0.000000000000000E+000
  0.000000000000000E+000
  0.000000000000000E+000
  0.000000000000000E+000
  0.000000000000000E+000
  0.000000000000000E+000
  0.000000000000000E+000
  0.000000000000000E+000
  0.000000000000000E+000
  0.000000000000000E+000
  0.000000000000000E+000
  0.000000000000000E+000
  0.000000000000000E+000
  0.000000000000000E+000
  0.000000000000000E+000
  0.000000000000000E+000
  0.000000000000000E+000
  0.000000000000000E+000
  0.000000000000000E+000
  0.000000000000000E+000
  0.000000000000000E+000
  0.000000000000000E+000
  0.000000000000000E+000
  0.000000000000000E+000
  0.000000000000000E+000
  0.000000000000000E+000
  0.000000000000000E+000
  0.000000000000000E+000
  0.000000000000000E+000
  0.000000000000000E+000
  0.000000000000000E+000
  0.000000000000000E+000
  0.000000000000000E+000
  0.000000000000000E+000
  0.000000000000000E+000
  0.000000000000000E+000
  0.000000000000000E+000
  0.000000000000000E+000
  0.000000000000000E+000
  0.000000000000000E+000
  0.000000000000000E+000
  0.000000000000000E+000
  0.000000000000000E+000
  0.000000000000000E+000
  0.000000000000000E+000
  0.000000000000000E+000
  0.000000000000000E+000
  0.000000000000000E+000
  0.000000000000000E+000
  0.000000000000000E+000
  0.000000000000000E+000
  0.000000000000000E+000
  0.000000000000000E+000
  0.000000000000000E+000
  0.000000000000000E+000
  0.000000000000000E+000
  0.000000000000000E+000
  0.000000000000000E+000
  0.000000000000000E+000
  0.000000000000000E+000
  0.000000000000000E+000
  0.000000000000000E+000
  0.000000000000000E+000
  0.000000000000000E+000
  0.000000000000000E+000
  0.000000000000000E+000
  0.000000000000000E+000
  0.000000000000000E+000
  0.000000000000000E+000
  0.000000000000000E+000
  0.000000000000000E+000
  0.000000000000000E+000
  0.000000000000000E+000
  0.000000000000000E+000
  0.000000000000000E+000
  0.000000000000000E+000
  0.000000000000000E+000
  0.000000000000000E+000
  0.000000000000000E+000
  0.000000000000000E+000
  0.000000000000000E+000
  0.000000000000000E+000
  0.000000000000000E+000
  0.000000000000000E+000
  0.000000000000000E+000
  0.000000000000000E+000
  0.000000000000000E+000
  0.000000000000000E+000
  0.000000000000000E+000
  0.000000000000000E+000
  0.000000000000000E+000
  0.000000000000000E+000
  0.000000000000000E+000
  0.000000000000000E+000
  0.000000000000000E+000
  0.000000000000000E+000
  0.000000000000000E+000
  0.000000000000000E+000
  0.000000000000000E+000
  0.000000000000000E+000
  0.000000000000000E+000
  0.000000000000000E+000
  0.000000000000000E+000
  0.000000000000000E+000
  0.000000000000000E+000
  0.000000000000000E+000
  0.000000000000000E+000
  0.000000000000000E+000
  0.000000000000000E+000
  0.000000000000000E+000
  0.000000000000000E+000
  0.000000000000000E+000
  0.000000000000000E+000
  0.000000000000000E+000
  0.000000000000000E+000
  0.000000000000000E+000
  0.000000000000000E+000
  0.000000000000000E+000
  0.000000000000000E+000
  0.000000000000000E+000
  0.000000000000000E+000
  0.000000000000000E+000
  0.000000000000000E+000
  0.000000000000000E+000
  0.000000000000000E+000
  0.000000000000000E+000
  0.000000000000000E+000
  0.000000000000000E+000
  0.000000000000000E+000
  0.000000000000000E+000
  0.000000000000000E+000
  0.000000000000000E+000
  0.000000000000000E+000
  0.000000000000000E+000
  0.000000000000000E+000
  0.000000000000000E+000
  0.000000000000000E+000
  0.000000000000000E+000
  0.000000000000000E+000
  0.000000000000000E+000
  0.000000000000000E+000
  0.000000000000000E+000
  0.000000000000000E+000
  0.000000000000000E+000
  0.000000000000000E+000
  0.000000000000000E+000
  0.000000000000000E+000
  0.000000000000000E+000
  0.000000000000000E+000
  0.000000000000000E+000
SCALARS elementIsPlast double 
LOOKUP_TABLE default
   1.00000000000000     
   1.00000000000000     
   1.00000000000000     
   1.00000000000000     
   1.00000000000000     
   1.00000000000000     
   1.00000000000000     
   1.00000000000000     
   1.00000000000000     
   1.00000000000000     
   1.00000000000000     
   1.00000000000000     
   1.00000000000000     
   1.00000000000000     
   1.00000000000000     
   1.00000000000000     
   1.00000000000000     
   1.00000000000000     
   1.00000000000000     
   1.00000000000000     
   1.00000000000000     
   1.00000000000000     
   1.00000000000000     
   1.00000000000000     
   1.00000000000000     
   1.00000000000000     
   1.00000000000000     
   1.00000000000000     
   1.00000000000000     
   1.00000000000000     
   1.00000000000000     
   1.00000000000000     
   1.00000000000000     
   1.00000000000000     
   1.00000000000000     
   1.00000000000000     
   1.00000000000000     
   1.00000000000000     
   1.00000000000000     
   1.00000000000000     
   1.00000000000000     
   1.00000000000000     
   1.00000000000000     
   1.00000000000000     
   1.00000000000000     
   1.00000000000000     
   1.00000000000000     
   1.00000000000000     
   1.00000000000000     
   1.00000000000000     
   1.00000000000000     
   1.00000000000000     
   1.00000000000000     
   1.00000000000000     
   1.00000000000000     
   1.00000000000000     
   1.00000000000000     
   1.00000000000000     
   1.00000000000000     
   1.00000000000000     
   1.00000000000000     
   1.00000000000000     
   1.00000000000000     
   1.00000000000000     
   1.00000000000000     
   1.00000000000000     
   1.00000000000000     
   1.00000000000000     
   1.00000000000000     
   1.00000000000000     
   1.00000000000000     
   1.00000000000000     
   1.00000000000000     
   1.00000000000000     
   1.00000000000000     
   1.00000000000000     
   1.00000000000000     
   1.00000000000000     
   1.00000000000000     
   1.00000000000000     
   1.00000000000000     
   1.00000000000000     
   1.00000000000000     
   1.00000000000000     
   1.00000000000000     
   1.00000000000000     
   1.00000000000000     
   1.00000000000000     
   1.00000000000000     
   1.00000000000000     
   1.00000000000000     
   1.00000000000000     
   1.00000000000000     
   1.00000000000000     
   1.00000000000000     
   1.00000000000000     
   1.00000000000000     
   1.00000000000000     
   1.00000000000000     
   1.00000000000000     
   1.00000000000000     
   1.00000000000000     
   1.00000000000000     
   1.00000000000000     
   1.00000000000000     
   1.00000000000000     
   1.00000000000000     
   1.00000000000000     
   1.00000000000000     
   1.00000000000000     
   1.00000000000000     
   1.00000000000000     
   1.00000000000000     
   1.00000000000000     
   1.00000000000000     
   1.00000000000000     
   1.00000000000000     
   1.00000000000000     
   1.00000000000000     
   1.00000000000000     
   1.00000000000000     
   1.00000000000000     
   1.00000000000000     
   1.00000000000000     
   1.00000000000000     
   1.00000000000000     
   1.00000000000000     
   1.00000000000000     
   1.00000000000000     
   1.00000000000000     
   1.00000000000000     
   1.00000000000000     
   1.00000000000000     
   1.00000000000000     
   1.00000000000000     
   1.00000000000000     
   1.00000000000000     
   1.00000000000000     
   1.00000000000000     
   1.00000000000000     
   1.00000000000000     
   1.00000000000000     
   1.00000000000000     
   1.00000000000000     
   1.00000000000000     
   1.00000000000000     
   1.00000000000000     
   1.00000000000000     
   1.00000000000000     
   1.00000000000000     
   1.00000000000000     
   1.00000000000000     
   1.00000000000000     
   1.00000000000000     
   1.00000000000000     
   1.00000000000000     
   1.00000000000000     
   1.00000000000000     
   1.00000000000000     
   1.00000000000000     
   1.00000000000000     
   1.00000000000000     
   1.00000000000000     
   1.00000000000000     
   1.00000000000000     
   1.00000000000000     
   1.00000000000000     
   1.00000000000000     
   1.00000000000000     
   1.00000000000000     
   1.00000000000000     
   1.00000000000000     
   1.00000000000000     
   1.00000000000000     
   1.00000000000000     
   1.00000000000000     
   1.00000000000000     
   1.00000000000000     
   1.00000000000000     
   1.00000000000000     
   1.00000000000000     
   1.00000000000000     
   1.00000000000000     
   1.00000000000000     
   1.00000000000000     
   1.00000000000000     
   1.00000000000000     
   1.00000000000000     
   1.00000000000000     
   1.00000000000000     
   1.00000000000000     
   1.00000000000000     
   1.00000000000000     
   1.00000000000000     
   1.00000000000000     
   1.00000000000000     
   1.00000000000000     
   1.00000000000000     
   1.00000000000000     
   1.00000000000000     
   1.00000000000000     
   1.00000000000000     
   1.00000000000000     
   1.00000000000000     
   1.00000000000000     
   1.00000000000000     
   1.00000000000000     
   1.00000000000000     
   1.00000000000000     
   1.00000000000000     
   1.00000000000000     
   1.00000000000000     
   1.00000000000000     
   1.00000000000000     
   1.00000000000000     
   1.00000000000000     
   1.00000000000000     
   1.00000000000000     
   1.00000000000000     
   1.00000000000000     
   1.00000000000000     
   1.00000000000000     
   1.00000000000000     
   1.00000000000000     
   1.00000000000000     
   1.00000000000000     
   1.00000000000000     
   1.00000000000000     
   1.00000000000000     
   1.00000000000000     
   1.00000000000000     
   1.00000000000000     
   1.00000000000000     
   1.00000000000000     
   1.00000000000000     
   1.00000000000000     
   1.00000000000000     
   1.00000000000000     
   1.00000000000000     
   1.00000000000000     
   1.00000000000000     
   1.00000000000000     
   1.00000000000000     
   1.00000000000000     
   1.00000000000000     
   1.00000000000000     
   1.00000000000000     
   1.00000000000000     
   1.00000000000000     
   1.00000000000000     
   1.00000000000000     
   1.00000000000000     
   1.00000000000000     
   1.00000000000000     
   1.00000000000000     
   1.00000000000000     
   1.00000000000000     
   1.00000000000000     
   1.00000000000000     
   1.00000000000000     
   1.00000000000000     
   1.00000000000000     
   1.00000000000000     
   1.00000000000000     
   1.00000000000000     
   1.00000000000000     
   1.00000000000000     
   1.00000000000000     
   1.00000000000000     
   1.00000000000000     
   1.00000000000000     
   1.00000000000000     
   1.00000000000000     
   1.00000000000000     
   1.00000000000000     
   1.00000000000000     
   1.00000000000000     
   1.00000000000000     
   1.00000000000000     
   1.00000000000000     
   1.00000000000000     
   1.00000000000000     
   1.00000000000000     
   1.00000000000000     
   1.00000000000000     
   1.00000000000000     
   1.00000000000000     
   1.00000000000000     
   1.00000000000000     
   1.00000000000000     
   1.00000000000000     
   1.00000000000000     
   1.00000000000000     
   1.00000000000000     
   1.00000000000000     
   1.00000000000000     
   1.00000000000000     
   1.00000000000000     
   1.00000000000000     
   1.00000000000000     
   1.00000000000000     
   1.00000000000000     
   1.00000000000000     
   1.00000000000000     
   1.00000000000000     
   1.00000000000000     
   1.00000000000000     
   1.00000000000000     
   1.00000000000000     
   1.00000000000000     
   1.00000000000000     
   1.00000000000000     
   1.00000000000000     
   1.00000000000000     
   1.00000000000000     
   1.00000000000000     
   1.00000000000000     
   1.00000000000000     
   1.00000000000000     
   1.00000000000000     
   1.00000000000000     
   1.00000000000000     
   1.00000000000000     
   1.00000000000000     
   1.00000000000000     
   1.00000000000000     
   1.00000000000000     
   1.00000000000000     
   1.00000000000000     
   1.00000000000000     
   1.00000000000000     
   1.00000000000000     
   1.00000000000000     
   1.00000000000000     
   1.00000000000000     
   1.00000000000000     
   1.00000000000000     
   1.00000000000000     
   1.00000000000000     
   1.00000000000000     
   1.00000000000000     
   1.00000000000000     
   1.00000000000000     
   1.00000000000000     
   1.00000000000000     
   1.00000000000000     
   1.00000000000000     
   1.00000000000000     
   1.00000000000000     
   1.00000000000000     
   1.00000000000000     
   1.00000000000000     
   1.00000000000000     
   1.00000000000000     
   1.00000000000000     
   1.00000000000000     
   1.00000000000000     
   1.00000000000000     
   1.00000000000000     
   1.00000000000000     
   1.00000000000000     
   1.00000000000000     
   1.00000000000000     
   1.00000000000000     
   1.00000000000000     
   1.00000000000000     
   1.00000000000000     
   1.00000000000000     
   1.00000000000000     
   1.00000000000000     
   1.00000000000000     
   1.00000000000000     
   1.00000000000000     
   1.00000000000000     
   1.00000000000000     
   1.00000000000000     
   1.00000000000000     
   1.00000000000000     
   1.00000000000000     
   1.00000000000000     
   1.00000000000000     
   1.00000000000000     
   1.00000000000000     
   1.00000000000000     
   1.00000000000000     
   1.00000000000000     
   1.00000000000000     
   1.00000000000000     
   1.00000000000000     
   1.00000000000000     
   1.00000000000000     
   1.00000000000000     
   1.00000000000000     
   1.00000000000000     
   1.00000000000000     
   1.00000000000000     
   1.00000000000000     
   1.00000000000000     
   1.00000000000000     
   1.00000000000000     
   1.00000000000000     
   1.00000000000000     
   1.00000000000000     
   1.00000000000000     
   1.00000000000000     
   1.00000000000000     
   1.00000000000000     
   1.00000000000000     
   1.00000000000000     
   1.00000000000000     
   1.00000000000000     
   1.00000000000000     
   1.00000000000000     
   1.00000000000000     
   1.00000000000000     
   1.00000000000000     
   1.00000000000000     
   1.00000000000000     
   1.00000000000000     
   1.00000000000000     
   1.00000000000000     
   1.00000000000000     
   1.00000000000000     
   1.00000000000000     
   1.00000000000000     
   1.00000000000000     
   1.00000000000000     
   1.00000000000000     
   1.00000000000000     
   1.00000000000000     
   1.00000000000000     
   1.00000000000000     
   1.00000000000000     
   1.00000000000000     
   1.00000000000000     
   1.00000000000000     
   1.00000000000000     
   1.00000000000000     
   1.00000000000000     
   1.00000000000000     
   1.00000000000000     
   1.00000000000000     
   1.00000000000000     
   1.00000000000000     
   1.00000000000000     
   1.00000000000000     
   1.00000000000000     
   1.00000000000000     
   1.00000000000000     
   1.00000000000000     
SCALARS poroL double 
LOOKUP_TABLE default
  0.249999994452128     
  0.249999993918419     
  0.249999993394586     
  0.249999992976716     
  0.249999992647481     
  0.249999992360403     
  0.249999992108020     
  0.249999991885822     
  0.249999991689415     
  0.249999991513158     
  0.249999991356332     
  0.249999991217551     
  0.249999991096076     
  0.249999990993275     
  0.249999990914946     
  0.249999993122096     
  0.249999992765766     
  0.249999992424921     
  0.249999992219515     
  0.249999992031390     
  0.249999991835754     
  0.249999991645837     
  0.249999991470173     
  0.249999991309079     
  0.249999991164514     
  0.249999991036384     
  0.249999990924592     
  0.249999990832036     
  0.249999990764781     
  0.249999990735146     
  0.249999991948512     
  0.249999991791357     
  0.249999991698634     
  0.249999991604388     
  0.249999991485586     
  0.249999991355901     
  0.249999991221749     
  0.249999991089336     
  0.249999990963724     
  0.249999990849109     
  0.249999990748081     
  0.249999990663482     
  0.249999990598908     
  0.249999990558066     
  0.249999990537328     
  0.249999991423877     
  0.249999991297369     
  0.249999991188023     
  0.249999991095801     
  0.249999991009078     
  0.249999990919904     
  0.249999990827904     
  0.249999990733296     
  0.249999990640838     
  0.249999990555373     
  0.249999990480540     
  0.249999990420004     
  0.249999990376123     
  0.249999990347159     
  0.249999990329076     
  0.249999991016012     
  0.249999990881873     
  0.249999990769896     
  0.249999990679054     
  0.249999990602695     
  0.249999990533792     
  0.249999990466824     
  0.249999990400389     
  0.249999990336148     
  0.249999990276565     
  0.249999990224494     
  0.249999990182449     
  0.249999990151029     
  0.249999990128494     
  0.249999990111274     
  0.249999990621060     
  0.249999990506560     
  0.249999990407475     
  0.249999990322209     
  0.249999990250675     
  0.249999990191030     
  0.249999990138713     
  0.249999990091100     
  0.249999990047463     
  0.249999990008060     
  0.249999989973498     
  0.249999989944465     
  0.249999989920906     
  0.249999989901938     
  0.249999989885759     
  0.249999990250468     
  0.249999990156977     
  0.249999990072046     
  0.249999989997187     
  0.249999989934082     
  0.249999989881853     
  0.249999989838767     
  0.249999989802996     
  0.249999989772850     
  0.249999989747072     
  0.249999989724730     
  0.249999989704857     
  0.249999989686630     
  0.249999989669736     
  0.249999989654217     
  0.249999989901363     
  0.249999989823712     
  0.249999989753671     
  0.249999989691986     
  0.249999989639140     
  0.249999989595065     
  0.249999989559461     
  0.249999989531392     
  0.249999989509433     
  0.249999989491936     
  0.249999989477158     
  0.249999989463521     
  0.249999989449822     
  0.249999989435283     
  0.249999989419677     
  0.249999989566009     
  0.249999989503949     
  0.249999989448399     
  0.249999989399586     
  0.249999989357316     
  0.249999989321782     
  0.249999989293145     
  0.249999989270994     
  0.249999989254292     
  0.249999989241547     
  0.249999989231092     
  0.249999989221309     
  0.249999989210725     
  0.249999989198440     
  0.249999989183505     
  0.249999989243284     
  0.249999989195555     
  0.249999989153259     
  0.249999989116011     
  0.249999989083707     
  0.249999989056488     
  0.249999989034454     
  0.249999989017426     
  0.249999989004650     
  0.249999988994900     
  0.249999988986872     
  0.249999988979243     
  0.249999988970566     
  0.249999988959655     
  0.249999988946098     
  0.249999988931650     
  0.249999988896552     
  0.249999988865654     
  0.249999988838608     
  0.249999988815367     
  0.249999988795896     
  0.249999988780111     
  0.249999988767786     
  0.249999988758431     
  0.249999988751164     
  0.249999988744858     
  0.249999988738397     
  0.249999988730759     
  0.249999988720870     
  0.249999988708144     
  0.249999988628866     
  0.249999988604568     
  0.249999988583530     
  0.249999988565530     
  0.249999988550403     
  0.249999988537997     
  0.249999988528118     
  0.249999988520469     
  0.249999988514565     
  0.249999988509745     
  0.249999988505199     
  0.249999988500093     
  0.249999988493582     
  0.249999988484724     
  0.249999988472148     
  0.249999988332339     
  0.249999988317538     
  0.249999988305309     
  0.249999988295400     
  0.249999988287590     
  0.249999988281635     
  0.249999988277258     
  0.249999988274110     
  0.249999988271761     
  0.249999988269674     
  0.249999988267249     
  0.249999988263785     
  0.249999988258485     
  0.249999988250496     
  0.249999988238862     
  0.249999988040116     
  0.249999988033911     
  0.249999988029690     
  0.249999988027177     
  0.249999988026104     
  0.249999988026178     
  0.249999988027065     
  0.249999988028380     
  0.249999988029700     
  0.249999988030556     
  0.249999988030413     
  0.249999988028667     
  0.249999988024650     
  0.249999988017773     
  0.249999988007794     
  0.249999987750579     
  0.249999987752350     
  0.249999987755608     
  0.249999987760044     
  0.249999987765378     
  0.249999987771288     
  0.249999987777387     
  0.249999987783249     
  0.249999987788427     
  0.249999987792460     
  0.249999987794860     
  0.249999987795116     
  0.249999987792724     
  0.249999987787241     
  0.249999987778412     
  0.249999987462562     
  0.249999987471838     
  0.249999987482196     
  0.249999987493385     
  0.249999987505060     
  0.249999987516833     
  0.249999987528254     
  0.249999987538848     
  0.249999987548142     
  0.249999987555656     
  0.249999987560944     
  0.249999987563629     
  0.249999987563310     
  0.249999987559459     
  0.249999987551332     
  0.249999987174441     
  0.249999987191220     
  0.249999987208726     
  0.249999987226737     
  0.249999987244902     
  0.249999987262757     
  0.249999987279787     
  0.249999987295441     
  0.249999987309211     
  0.249999987320715     
  0.249999987329517     
  0.249999987335166     
  0.249999987337222     
  0.249999987335091     
  0.249999987328177     
  0.249999986885232     
  0.249999986909654     
  0.249999986934563     
  0.249999986959726     
  0.249999986984748     
  0.249999987009107     
  0.249999987032191     
  0.249999987053446     
  0.249999987072374     
  0.249999987088452     
  0.249999987101199     
  0.249999987110059     
  0.249999987114426     
  0.249999987114118     
  0.249999987109061     
  0.249999986594156     
  0.249999986626568     
  0.249999986659296     
  0.249999986692101     
  0.249999986724527     
  0.249999986755969     
  0.249999986785772     
  0.249999986813303     
  0.249999986837943     
  0.249999986859057     
  0.249999986875970     
  0.249999986888100     
  0.249999986895176     
  0.249999986897044     
  0.249999986894034     
  0.249999986300676     
  0.249999986341570     
  0.249999986382674     
  0.249999986423731     
  0.249999986464225     
  0.249999986503468     
  0.249999986540704     
  0.249999986575156     
  0.249999986606052     
  0.249999986632565     
  0.249999986653995     
  0.249999986669915     
  0.249999986680064     
  0.249999986684570     
  0.249999986683247     
  0.249999986004461     
  0.249999986054455     
  0.249999986104588     
  0.249999986154589     
  0.249999986203878     
  0.249999986251666     
  0.249999986297051     
  0.249999986339114     
  0.249999986376834     
  0.249999986409285     
  0.249999986435790     
  0.249999986455938     
  0.249999986469654     
  0.249999986476781     
  0.249999986477164     
  0.249999985705370     
  0.249999985765188     
  0.249999985825087     
  0.249999985884770     
  0.249999985943587     
  0.249999986000649     
  0.249999986054921     
  0.249999986105261     
  0.249999986150444     
  0.249999986189433     
  0.249999986221562     
  0.249999986246450     
  0.249999986263934     
  0.249999986273857     
  0.249999986276773     
  0.249999985403403     
  0.249999985473918     
  0.249999985544406     
  0.249999985614559     
  0.249999985683636     
  0.249999985750629     
  0.249999985814388     
  0.249999985873551     
  0.249999985926739     
  0.249999985972853     
  0.249999986011119     
  0.249999986041177     
  0.249999986062750     
  0.249999986076170     
  0.249999986082037     
  0.249999985098722     
  0.249999985180970     
  0.249999985263048     
  0.249999985344554     
  0.249999985424589     
  0.249999985502002     
  0.249999985575515     
  0.249999985643684     
  0.249999985705155     
  0.249999985758818     
  0.249999985803804     
  0.249999985839559     
  0.249999985865952     
  0.249999985883499     
  0.249999985892921     
  0.249999984791458     
  0.249999984886922     
  0.249999984981911     
  0.249999985075819     
  0.249999985167434     
  0.249999985255375     
  0.249999985338331     
  0.249999985415070     
  0.249999985484593     
  0.249999985545964     
  0.249999985598258     
  0.249999985640652     
  0.249999985672897     
  0.249999985695409     
  0.249999985709237     
  0.249999984481928     
  0.249999984592749     
  0.249999984702525     
  0.249999984810117     
  0.249999984913703     
  0.249999985011647     
  0.249999985102926     
  0.249999985186989     
  0.249999985263572     
  0.249999985332293     
  0.249999985392402     
  0.249999985442736     
  0.249999985482307     
  0.249999985511159     
  0.249999985530604     
  0.249999984170567     
  0.249999984300205     
  0.249999984427551     
  0.249999984550198     
  0.249999984665390     
  0.249999984771779     
  0.249999984869411     
  0.249999984958802     
  0.249999985040670     
  0.249999985115498     
  0.249999985183226     
  0.249999985242826     
  0.249999985291987     
  0.249999985329429     
  0.249999985356336     
  0.249999983858416     
  0.249999984012886     
  0.249999984161765     
  0.249999984299821     
  0.249999984424417     
  0.249999984536564     
  0.249999984637936     
  0.249999984730214     
  0.249999984815002     
  0.249999984893667     
  0.249999984967167     
  0.249999985035761     
  0.249999985097696     
  0.249999985147655     
  0.249999985185320     
  0.249999983548666     
  0.249999983739560     
  0.249999983912948     
  0.249999984062236     
  0.249999984192098     
  0.249999984306573     
  0.249999984408833     
  0.249999984501418     
  0.249999984586472     
  0.249999984665988     
  0.249999984741782     
  0.249999984815753     
  0.249999984889220     
  0.249999984960404     
  0.249999985014644     
  0.249999983258879     
  0.249999983500874     
  0.249999983686417     
  0.249999983839162     
  0.249999983969249     
  0.249999984082519     
  0.249999984182830     
  0.249999984273074     
  0.249999984355664     
  0.249999984432778     
  0.249999984506646     
  0.249999984579766     
  0.249999984655946     
  0.249999984741051     
  0.249999984843614     
