# vtk DataFile Version 3.0
vtk output
ASCII
DATASET UNSTRUCTURED_GRID
POINTS       496 double 
  0.00000000E+00  3.00000000E+02  0.00000000E+00
  0.00000000E+00  2.80000000E+02  0.00000000E+00
  0.00000000E+00  2.60000000E+02  0.00000000E+00
  0.00000000E+00  2.40000000E+02  0.00000000E+00
  0.00000000E+00  2.20000000E+02  0.00000000E+00
  0.00000000E+00  2.00000000E+02  0.00000000E+00
  0.00000000E+00  1.80000000E+02  0.00000000E+00
  0.00000000E+00  1.60000000E+02  0.00000000E+00
  0.00000000E+00  1.40000000E+02  0.00000000E+00
  0.00000000E+00  1.20000000E+02  0.00000000E+00
  0.00000000E+00  1.00000000E+02  0.00000000E+00
  0.00000000E+00  8.00000000E+01  0.00000000E+00
  0.00000000E+00  6.00000000E+01  0.00000000E+00
  0.00000000E+00  4.00000000E+01  0.00000000E+00
  0.00000000E+00  2.00000000E+01  0.00000000E+00
  0.00000000E+00  4.99600361E-14  0.00000000E+00
  2.00000000E+01  3.00000000E+02  0.00000000E+00
  2.00000000E+01  2.80000000E+02  0.00000000E+00
  2.00000000E+01  2.60000000E+02  0.00000000E+00
  2.00000000E+01  2.40000000E+02  0.00000000E+00
  2.00000000E+01  2.20000000E+02  0.00000000E+00
  2.00000000E+01  2.00000000E+02  0.00000000E+00
  2.00000000E+01  1.80000000E+02  0.00000000E+00
  2.00000000E+01  1.60000000E+02  0.00000000E+00
  2.00000000E+01  1.40000000E+02  0.00000000E+00
  2.00000000E+01  1.20000000E+02  0.00000000E+00
  2.00000000E+01  1.00000000E+02  0.00000000E+00
  2.00000000E+01  8.00000000E+01  0.00000000E+00
  2.00000000E+01  6.00000000E+01  0.00000000E+00
  2.00000000E+01  4.00000000E+01  0.00000000E+00
  2.00000000E+01  2.00000000E+01  0.00000000E+00
  2.00000000E+01  4.99600361E-14  0.00000000E+00
  4.00000000E+01  3.00000000E+02  0.00000000E+00
  4.00000000E+01  2.80000000E+02  0.00000000E+00
  4.00000000E+01  2.60000000E+02  0.00000000E+00
  4.00000000E+01  2.40000000E+02  0.00000000E+00
  4.00000000E+01  2.20000000E+02  0.00000000E+00
  4.00000000E+01  2.00000000E+02  0.00000000E+00
  4.00000000E+01  1.80000000E+02  0.00000000E+00
  4.00000000E+01  1.60000000E+02  0.00000000E+00
  4.00000000E+01  1.40000000E+02  0.00000000E+00
  4.00000000E+01  1.20000000E+02  0.00000000E+00
  4.00000000E+01  1.00000000E+02  0.00000000E+00
  4.00000000E+01  8.00000000E+01  0.00000000E+00
  4.00000000E+01  6.00000000E+01  0.00000000E+00
  4.00000000E+01  4.00000000E+01  0.00000000E+00
  4.00000000E+01  2.00000000E+01  0.00000000E+00
  4.00000000E+01  4.99600361E-14  0.00000000E+00
  6.00000000E+01  3.00000000E+02  0.00000000E+00
  6.00000000E+01  2.80000000E+02  0.00000000E+00
  6.00000000E+01  2.60000000E+02  0.00000000E+00
  6.00000000E+01  2.40000000E+02  0.00000000E+00
  6.00000000E+01  2.20000000E+02  0.00000000E+00
  6.00000000E+01  2.00000000E+02  0.00000000E+00
  6.00000000E+01  1.80000000E+02  0.00000000E+00
  6.00000000E+01  1.60000000E+02  0.00000000E+00
  6.00000000E+01  1.40000000E+02  0.00000000E+00
  6.00000000E+01  1.20000000E+02  0.00000000E+00
  6.00000000E+01  1.00000000E+02  0.00000000E+00
  6.00000000E+01  8.00000000E+01  0.00000000E+00
  6.00000000E+01  6.00000000E+01  0.00000000E+00
  6.00000000E+01  4.00000000E+01  0.00000000E+00
  6.00000000E+01  2.00000000E+01  0.00000000E+00
  6.00000000E+01  4.99600361E-14  0.00000000E+00
  8.00000000E+01  3.00000000E+02  0.00000000E+00
  8.00000000E+01  2.80000000E+02  0.00000000E+00
  8.00000000E+01  2.60000000E+02  0.00000000E+00
  8.00000000E+01  2.40000000E+02  0.00000000E+00
  8.00000000E+01  2.20000000E+02  0.00000000E+00
  8.00000000E+01  2.00000000E+02  0.00000000E+00
  8.00000000E+01  1.80000000E+02  0.00000000E+00
  8.00000000E+01  1.60000000E+02  0.00000000E+00
  8.00000000E+01  1.40000000E+02  0.00000000E+00
  8.00000000E+01  1.20000000E+02  0.00000000E+00
  8.00000000E+01  1.00000000E+02  0.00000000E+00
  8.00000000E+01  8.00000000E+01  0.00000000E+00
  8.00000000E+01  6.00000000E+01  0.00000000E+00
  8.00000000E+01  4.00000000E+01  0.00000000E+00
  8.00000000E+01  2.00000000E+01  0.00000000E+00
  8.00000000E+01  4.99600361E-14  0.00000000E+00
  1.00000000E+02  3.00000000E+02  0.00000000E+00
  1.00000000E+02  2.80000000E+02  0.00000000E+00
  1.00000000E+02  2.60000000E+02  0.00000000E+00
  1.00000000E+02  2.40000000E+02  0.00000000E+00
  1.00000000E+02  2.20000000E+02  0.00000000E+00
  1.00000000E+02  2.00000000E+02  0.00000000E+00
  1.00000000E+02  1.80000000E+02  0.00000000E+00
  1.00000000E+02  1.60000000E+02  0.00000000E+00
  1.00000000E+02  1.40000000E+02  0.00000000E+00
  1.00000000E+02  1.20000000E+02  0.00000000E+00
  1.00000000E+02  1.00000000E+02  0.00000000E+00
  1.00000000E+02  8.00000000E+01  0.00000000E+00
  1.00000000E+02  6.00000000E+01  0.00000000E+00
  1.00000000E+02  4.00000000E+01  0.00000000E+00
  1.00000000E+02  2.00000000E+01  0.00000000E+00
  1.00000000E+02  4.99600361E-14  0.00000000E+00
  1.20000000E+02  3.00000000E+02  0.00000000E+00
  1.20000000E+02  2.80000000E+02  0.00000000E+00
  1.20000000E+02  2.60000000E+02  0.00000000E+00
  1.20000000E+02  2.40000000E+02  0.00000000E+00
  1.20000000E+02  2.20000000E+02  0.00000000E+00
  1.20000000E+02  2.00000000E+02  0.00000000E+00
  1.20000000E+02  1.80000000E+02  0.00000000E+00
  1.20000000E+02  1.60000000E+02  0.00000000E+00
  1.20000000E+02  1.40000000E+02  0.00000000E+00
  1.20000000E+02  1.20000000E+02  0.00000000E+00
  1.20000000E+02  1.00000000E+02  0.00000000E+00
  1.20000000E+02  8.00000000E+01  0.00000000E+00
  1.20000000E+02  6.00000000E+01  0.00000000E+00
  1.20000000E+02  4.00000000E+01  0.00000000E+00
  1.20000000E+02  2.00000000E+01  0.00000000E+00
  1.20000000E+02  4.99600361E-14  0.00000000E+00
  1.40000000E+02  3.00000000E+02  0.00000000E+00
  1.40000000E+02  2.80000000E+02  0.00000000E+00
  1.40000000E+02  2.60000000E+02  0.00000000E+00
  1.40000000E+02  2.40000000E+02  0.00000000E+00
  1.40000000E+02  2.20000000E+02  0.00000000E+00
  1.40000000E+02  2.00000000E+02  0.00000000E+00
  1.40000000E+02  1.80000000E+02  0.00000000E+00
  1.40000000E+02  1.60000000E+02  0.00000000E+00
  1.40000000E+02  1.40000000E+02  0.00000000E+00
  1.40000000E+02  1.20000000E+02  0.00000000E+00
  1.40000000E+02  1.00000000E+02  0.00000000E+00
  1.40000000E+02  8.00000000E+01  0.00000000E+00
  1.40000000E+02  6.00000000E+01  0.00000000E+00
  1.40000000E+02  4.00000000E+01  0.00000000E+00
  1.40000000E+02  2.00000000E+01  0.00000000E+00
  1.40000000E+02  4.99600361E-14  0.00000000E+00
  1.60000000E+02  3.00000000E+02  0.00000000E+00
  1.60000000E+02  2.80000000E+02  0.00000000E+00
  1.60000000E+02  2.60000000E+02  0.00000000E+00
  1.60000000E+02  2.40000000E+02  0.00000000E+00
  1.60000000E+02  2.20000000E+02  0.00000000E+00
  1.60000000E+02  2.00000000E+02  0.00000000E+00
  1.60000000E+02  1.80000000E+02  0.00000000E+00
  1.60000000E+02  1.60000000E+02  0.00000000E+00
  1.60000000E+02  1.40000000E+02  0.00000000E+00
  1.60000000E+02  1.20000000E+02  0.00000000E+00
  1.60000000E+02  1.00000000E+02  0.00000000E+00
  1.60000000E+02  8.00000000E+01  0.00000000E+00
  1.60000000E+02  6.00000000E+01  0.00000000E+00
  1.60000000E+02  4.00000000E+01  0.00000000E+00
  1.60000000E+02  2.00000000E+01  0.00000000E+00
  1.60000000E+02  4.99600361E-14  0.00000000E+00
  1.80000000E+02  3.00000000E+02  0.00000000E+00
  1.80000000E+02  2.80000000E+02  0.00000000E+00
  1.80000000E+02  2.60000000E+02  0.00000000E+00
  1.80000000E+02  2.40000000E+02  0.00000000E+00
  1.80000000E+02  2.20000000E+02  0.00000000E+00
  1.80000000E+02  2.00000000E+02  0.00000000E+00
  1.80000000E+02  1.80000000E+02  0.00000000E+00
  1.80000000E+02  1.60000000E+02  0.00000000E+00
  1.80000000E+02  1.40000000E+02  0.00000000E+00
  1.80000000E+02  1.20000000E+02  0.00000000E+00
  1.80000000E+02  1.00000000E+02  0.00000000E+00
  1.80000000E+02  8.00000000E+01  0.00000000E+00
  1.80000000E+02  6.00000000E+01  0.00000000E+00
  1.80000000E+02  4.00000000E+01  0.00000000E+00
  1.80000000E+02  2.00000000E+01  0.00000000E+00
  1.80000000E+02  4.99600361E-14  0.00000000E+00
  2.00000000E+02  3.00000000E+02  0.00000000E+00
  2.00000000E+02  2.80000000E+02  0.00000000E+00
  2.00000000E+02  2.60000000E+02  0.00000000E+00
  2.00000000E+02  2.40000000E+02  0.00000000E+00
  2.00000000E+02  2.20000000E+02  0.00000000E+00
  2.00000000E+02  2.00000000E+02  0.00000000E+00
  2.00000000E+02  1.80000000E+02  0.00000000E+00
  2.00000000E+02  1.60000000E+02  0.00000000E+00
  2.00000000E+02  1.40000000E+02  0.00000000E+00
  2.00000000E+02  1.20000000E+02  0.00000000E+00
  2.00000000E+02  1.00000000E+02  0.00000000E+00
  2.00000000E+02  8.00000000E+01  0.00000000E+00
  2.00000000E+02  6.00000000E+01  0.00000000E+00
  2.00000000E+02  4.00000000E+01  0.00000000E+00
  2.00000000E+02  2.00000000E+01  0.00000000E+00
  2.00000000E+02  4.99600361E-14  0.00000000E+00
  2.20000000E+02  3.00000000E+02  0.00000000E+00
  2.20000000E+02  2.80000000E+02  0.00000000E+00
  2.20000000E+02  2.60000000E+02  0.00000000E+00
  2.20000000E+02  2.40000000E+02  0.00000000E+00
  2.20000000E+02  2.20000000E+02  0.00000000E+00
  2.20000000E+02  2.00000000E+02  0.00000000E+00
  2.20000000E+02  1.80000000E+02  0.00000000E+00
  2.20000000E+02  1.60000000E+02  0.00000000E+00
  2.20000000E+02  1.40000000E+02  0.00000000E+00
  2.20000000E+02  1.20000000E+02  0.00000000E+00
  2.20000000E+02  1.00000000E+02  0.00000000E+00
  2.20000000E+02  8.00000000E+01  0.00000000E+00
  2.20000000E+02  6.00000000E+01  0.00000000E+00
  2.20000000E+02  4.00000000E+01  0.00000000E+00
  2.20000000E+02  2.00000000E+01  0.00000000E+00
  2.20000000E+02  4.99600361E-14  0.00000000E+00
  2.40000000E+02  3.00000000E+02  0.00000000E+00
  2.40000000E+02  2.80000000E+02  0.00000000E+00
  2.40000000E+02  2.60000000E+02  0.00000000E+00
  2.40000000E+02  2.40000000E+02  0.00000000E+00
  2.40000000E+02  2.20000000E+02  0.00000000E+00
  2.40000000E+02  2.00000000E+02  0.00000000E+00
  2.40000000E+02  1.80000000E+02  0.00000000E+00
  2.40000000E+02  1.60000000E+02  0.00000000E+00
  2.40000000E+02  1.40000000E+02  0.00000000E+00
  2.40000000E+02  1.20000000E+02  0.00000000E+00
  2.40000000E+02  1.00000000E+02  0.00000000E+00
  2.40000000E+02  8.00000000E+01  0.00000000E+00
  2.40000000E+02  6.00000000E+01  0.00000000E+00
  2.40000000E+02  4.00000000E+01  0.00000000E+00
  2.40000000E+02  2.00000000E+01  0.00000000E+00
  2.40000000E+02  4.99600361E-14  0.00000000E+00
  2.60000000E+02  3.00000000E+02  0.00000000E+00
  2.60000000E+02  2.80000000E+02  0.00000000E+00
  2.60000000E+02  2.60000000E+02  0.00000000E+00
  2.60000000E+02  2.40000000E+02  0.00000000E+00
  2.60000000E+02  2.20000000E+02  0.00000000E+00
  2.60000000E+02  2.00000000E+02  0.00000000E+00
  2.60000000E+02  1.80000000E+02  0.00000000E+00
  2.60000000E+02  1.60000000E+02  0.00000000E+00
  2.60000000E+02  1.40000000E+02  0.00000000E+00
  2.60000000E+02  1.20000000E+02  0.00000000E+00
  2.60000000E+02  1.00000000E+02  0.00000000E+00
  2.60000000E+02  8.00000000E+01  0.00000000E+00
  2.60000000E+02  6.00000000E+01  0.00000000E+00
  2.60000000E+02  4.00000000E+01  0.00000000E+00
  2.60000000E+02  2.00000000E+01  0.00000000E+00
  2.60000000E+02  4.99600361E-14  0.00000000E+00
  2.80000000E+02  3.00000000E+02  0.00000000E+00
  2.80000000E+02  2.80000000E+02  0.00000000E+00
  2.80000000E+02  2.60000000E+02  0.00000000E+00
  2.80000000E+02  2.40000000E+02  0.00000000E+00
  2.80000000E+02  2.20000000E+02  0.00000000E+00
  2.80000000E+02  2.00000000E+02  0.00000000E+00
  2.80000000E+02  1.80000000E+02  0.00000000E+00
  2.80000000E+02  1.60000000E+02  0.00000000E+00
  2.80000000E+02  1.40000000E+02  0.00000000E+00
  2.80000000E+02  1.20000000E+02  0.00000000E+00
  2.80000000E+02  1.00000000E+02  0.00000000E+00
  2.80000000E+02  8.00000000E+01  0.00000000E+00
  2.80000000E+02  6.00000000E+01  0.00000000E+00
  2.80000000E+02  4.00000000E+01  0.00000000E+00
  2.80000000E+02  2.00000000E+01  0.00000000E+00
  2.80000000E+02  4.99600361E-14  0.00000000E+00
  3.00000000E+02  3.00000000E+02  0.00000000E+00
  3.00000000E+02  2.80000000E+02  0.00000000E+00
  3.00000000E+02  2.60000000E+02  0.00000000E+00
  3.00000000E+02  2.40000000E+02  0.00000000E+00
  3.00000000E+02  2.20000000E+02  0.00000000E+00
  3.00000000E+02  2.00000000E+02  0.00000000E+00
  3.00000000E+02  1.80000000E+02  0.00000000E+00
  3.00000000E+02  1.60000000E+02  0.00000000E+00
  3.00000000E+02  1.40000000E+02  0.00000000E+00
  3.00000000E+02  1.20000000E+02  0.00000000E+00
  3.00000000E+02  1.00000000E+02  0.00000000E+00
  3.00000000E+02  8.00000000E+01  0.00000000E+00
  3.00000000E+02  6.00000000E+01  0.00000000E+00
  3.00000000E+02  4.00000000E+01  0.00000000E+00
  3.00000000E+02  2.00000000E+01  0.00000000E+00
  3.00000000E+02  4.99600361E-14  0.00000000E+00
  3.20000000E+02  3.00000000E+02  0.00000000E+00
  3.20000000E+02  2.80000000E+02  0.00000000E+00
  3.20000000E+02  2.60000000E+02  0.00000000E+00
  3.20000000E+02  2.40000000E+02  0.00000000E+00
  3.20000000E+02  2.20000000E+02  0.00000000E+00
  3.20000000E+02  2.00000000E+02  0.00000000E+00
  3.20000000E+02  1.80000000E+02  0.00000000E+00
  3.20000000E+02  1.60000000E+02  0.00000000E+00
  3.20000000E+02  1.40000000E+02  0.00000000E+00
  3.20000000E+02  1.20000000E+02  0.00000000E+00
  3.20000000E+02  1.00000000E+02  0.00000000E+00
  3.20000000E+02  8.00000000E+01  0.00000000E+00
  3.20000000E+02  6.00000000E+01  0.00000000E+00
  3.20000000E+02  4.00000000E+01  0.00000000E+00
  3.20000000E+02  2.00000000E+01  0.00000000E+00
  3.20000000E+02  4.99600361E-14  0.00000000E+00
  3.40000000E+02  3.00000000E+02  0.00000000E+00
  3.40000000E+02  2.80000000E+02  0.00000000E+00
  3.40000000E+02  2.60000000E+02  0.00000000E+00
  3.40000000E+02  2.40000000E+02  0.00000000E+00
  3.40000000E+02  2.20000000E+02  0.00000000E+00
  3.40000000E+02  2.00000000E+02  0.00000000E+00
  3.40000000E+02  1.80000000E+02  0.00000000E+00
  3.40000000E+02  1.60000000E+02  0.00000000E+00
  3.40000000E+02  1.40000000E+02  0.00000000E+00
  3.40000000E+02  1.20000000E+02  0.00000000E+00
  3.40000000E+02  1.00000000E+02  0.00000000E+00
  3.40000000E+02  8.00000000E+01  0.00000000E+00
  3.40000000E+02  6.00000000E+01  0.00000000E+00
  3.40000000E+02  4.00000000E+01  0.00000000E+00
  3.40000000E+02  2.00000000E+01  0.00000000E+00
  3.40000000E+02  4.99600361E-14  0.00000000E+00
  3.60000000E+02  3.00000000E+02  0.00000000E+00
  3.60000000E+02  2.80000000E+02  0.00000000E+00
  3.60000000E+02  2.60000000E+02  0.00000000E+00
  3.60000000E+02  2.40000000E+02  0.00000000E+00
  3.60000000E+02  2.20000000E+02  0.00000000E+00
  3.60000000E+02  2.00000000E+02  0.00000000E+00
  3.60000000E+02  1.80000000E+02  0.00000000E+00
  3.60000000E+02  1.60000000E+02  0.00000000E+00
  3.60000000E+02  1.40000000E+02  0.00000000E+00
  3.60000000E+02  1.20000000E+02  0.00000000E+00
  3.60000000E+02  1.00000000E+02  0.00000000E+00
  3.60000000E+02  8.00000000E+01  0.00000000E+00
  3.60000000E+02  6.00000000E+01  0.00000000E+00
  3.60000000E+02  4.00000000E+01  0.00000000E+00
  3.60000000E+02  2.00000000E+01  0.00000000E+00
  3.60000000E+02  4.99600361E-14  0.00000000E+00
  3.80000000E+02  3.00000000E+02  0.00000000E+00
  3.80000000E+02  2.80000000E+02  0.00000000E+00
  3.80000000E+02  2.60000000E+02  0.00000000E+00
  3.80000000E+02  2.40000000E+02  0.00000000E+00
  3.80000000E+02  2.20000000E+02  0.00000000E+00
  3.80000000E+02  2.00000000E+02  0.00000000E+00
  3.80000000E+02  1.80000000E+02  0.00000000E+00
  3.80000000E+02  1.60000000E+02  0.00000000E+00
  3.80000000E+02  1.40000000E+02  0.00000000E+00
  3.80000000E+02  1.20000000E+02  0.00000000E+00
  3.80000000E+02  1.00000000E+02  0.00000000E+00
  3.80000000E+02  8.00000000E+01  0.00000000E+00
  3.80000000E+02  6.00000000E+01  0.00000000E+00
  3.80000000E+02  4.00000000E+01  0.00000000E+00
  3.80000000E+02  2.00000000E+01  0.00000000E+00
  3.80000000E+02  4.99600361E-14  0.00000000E+00
  4.00000000E+02  3.00000000E+02  0.00000000E+00
  4.00000000E+02  2.80000000E+02  0.00000000E+00
  4.00000000E+02  2.60000000E+02  0.00000000E+00
  4.00000000E+02  2.40000000E+02  0.00000000E+00
  4.00000000E+02  2.20000000E+02  0.00000000E+00
  4.00000000E+02  2.00000000E+02  0.00000000E+00
  4.00000000E+02  1.80000000E+02  0.00000000E+00
  4.00000000E+02  1.60000000E+02  0.00000000E+00
  4.00000000E+02  1.40000000E+02  0.00000000E+00
  4.00000000E+02  1.20000000E+02  0.00000000E+00
  4.00000000E+02  1.00000000E+02  0.00000000E+00
  4.00000000E+02  8.00000000E+01  0.00000000E+00
  4.00000000E+02  6.00000000E+01  0.00000000E+00
  4.00000000E+02  4.00000000E+01  0.00000000E+00
  4.00000000E+02  2.00000000E+01  0.00000000E+00
  4.00000000E+02  4.99600361E-14  0.00000000E+00
  4.20000000E+02  3.00000000E+02  0.00000000E+00
  4.20000000E+02  2.80000000E+02  0.00000000E+00
  4.20000000E+02  2.60000000E+02  0.00000000E+00
  4.20000000E+02  2.40000000E+02  0.00000000E+00
  4.20000000E+02  2.20000000E+02  0.00000000E+00
  4.20000000E+02  2.00000000E+02  0.00000000E+00
  4.20000000E+02  1.80000000E+02  0.00000000E+00
  4.20000000E+02  1.60000000E+02  0.00000000E+00
  4.20000000E+02  1.40000000E+02  0.00000000E+00
  4.20000000E+02  1.20000000E+02  0.00000000E+00
  4.20000000E+02  1.00000000E+02  0.00000000E+00
  4.20000000E+02  8.00000000E+01  0.00000000E+00
  4.20000000E+02  6.00000000E+01  0.00000000E+00
  4.20000000E+02  4.00000000E+01  0.00000000E+00
  4.20000000E+02  2.00000000E+01  0.00000000E+00
  4.20000000E+02  4.99600361E-14  0.00000000E+00
  4.40000000E+02  3.00000000E+02  0.00000000E+00
  4.40000000E+02  2.80000000E+02  0.00000000E+00
  4.40000000E+02  2.60000000E+02  0.00000000E+00
  4.40000000E+02  2.40000000E+02  0.00000000E+00
  4.40000000E+02  2.20000000E+02  0.00000000E+00
  4.40000000E+02  2.00000000E+02  0.00000000E+00
  4.40000000E+02  1.80000000E+02  0.00000000E+00
  4.40000000E+02  1.60000000E+02  0.00000000E+00
  4.40000000E+02  1.40000000E+02  0.00000000E+00
  4.40000000E+02  1.20000000E+02  0.00000000E+00
  4.40000000E+02  1.00000000E+02  0.00000000E+00
  4.40000000E+02  8.00000000E+01  0.00000000E+00
  4.40000000E+02  6.00000000E+01  0.00000000E+00
  4.40000000E+02  4.00000000E+01  0.00000000E+00
  4.40000000E+02  2.00000000E+01  0.00000000E+00
  4.40000000E+02  4.99600361E-14  0.00000000E+00
  4.60000000E+02  3.00000000E+02  0.00000000E+00
  4.60000000E+02  2.80000000E+02  0.00000000E+00
  4.60000000E+02  2.60000000E+02  0.00000000E+00
  4.60000000E+02  2.40000000E+02  0.00000000E+00
  4.60000000E+02  2.20000000E+02  0.00000000E+00
  4.60000000E+02  2.00000000E+02  0.00000000E+00
  4.60000000E+02  1.80000000E+02  0.00000000E+00
  4.60000000E+02  1.60000000E+02  0.00000000E+00
  4.60000000E+02  1.40000000E+02  0.00000000E+00
  4.60000000E+02  1.20000000E+02  0.00000000E+00
  4.60000000E+02  1.00000000E+02  0.00000000E+00
  4.60000000E+02  8.00000000E+01  0.00000000E+00
  4.60000000E+02  6.00000000E+01  0.00000000E+00
  4.60000000E+02  4.00000000E+01  0.00000000E+00
  4.60000000E+02  2.00000000E+01  0.00000000E+00
  4.60000000E+02  4.99600361E-14  0.00000000E+00
  4.80000000E+02  3.00000000E+02  0.00000000E+00
  4.80000000E+02  2.80000000E+02  0.00000000E+00
  4.80000000E+02  2.60000000E+02  0.00000000E+00
  4.80000000E+02  2.40000000E+02  0.00000000E+00
  4.80000000E+02  2.20000000E+02  0.00000000E+00
  4.80000000E+02  2.00000000E+02  0.00000000E+00
  4.80000000E+02  1.80000000E+02  0.00000000E+00
  4.80000000E+02  1.60000000E+02  0.00000000E+00
  4.80000000E+02  1.40000000E+02  0.00000000E+00
  4.80000000E+02  1.20000000E+02  0.00000000E+00
  4.80000000E+02  1.00000000E+02  0.00000000E+00
  4.80000000E+02  8.00000000E+01  0.00000000E+00
  4.80000000E+02  6.00000000E+01  0.00000000E+00
  4.80000000E+02  4.00000000E+01  0.00000000E+00
  4.80000000E+02  2.00000000E+01  0.00000000E+00
  4.80000000E+02  4.99600361E-14  0.00000000E+00
  5.00000000E+02  3.00000000E+02  0.00000000E+00
  5.00000000E+02  2.80000000E+02  0.00000000E+00
  5.00000000E+02  2.60000000E+02  0.00000000E+00
  5.00000000E+02  2.40000000E+02  0.00000000E+00
  5.00000000E+02  2.20000000E+02  0.00000000E+00
  5.00000000E+02  2.00000000E+02  0.00000000E+00
  5.00000000E+02  1.80000000E+02  0.00000000E+00
  5.00000000E+02  1.60000000E+02  0.00000000E+00
  5.00000000E+02  1.40000000E+02  0.00000000E+00
  5.00000000E+02  1.20000000E+02  0.00000000E+00
  5.00000000E+02  1.00000000E+02  0.00000000E+00
  5.00000000E+02  8.00000000E+01  0.00000000E+00
  5.00000000E+02  6.00000000E+01  0.00000000E+00
  5.00000000E+02  4.00000000E+01  0.00000000E+00
  5.00000000E+02  2.00000000E+01  0.00000000E+00
  5.00000000E+02  4.99600361E-14  0.00000000E+00
  5.20000000E+02  3.00000000E+02  0.00000000E+00
  5.20000000E+02  2.80000000E+02  0.00000000E+00
  5.20000000E+02  2.60000000E+02  0.00000000E+00
  5.20000000E+02  2.40000000E+02  0.00000000E+00
  5.20000000E+02  2.20000000E+02  0.00000000E+00
  5.20000000E+02  2.00000000E+02  0.00000000E+00
  5.20000000E+02  1.80000000E+02  0.00000000E+00
  5.20000000E+02  1.60000000E+02  0.00000000E+00
  5.20000000E+02  1.40000000E+02  0.00000000E+00
  5.20000000E+02  1.20000000E+02  0.00000000E+00
  5.20000000E+02  1.00000000E+02  0.00000000E+00
  5.20000000E+02  8.00000000E+01  0.00000000E+00
  5.20000000E+02  6.00000000E+01  0.00000000E+00
  5.20000000E+02  4.00000000E+01  0.00000000E+00
  5.20000000E+02  2.00000000E+01  0.00000000E+00
  5.20000000E+02  4.99600361E-14  0.00000000E+00
  5.40000000E+02  3.00000000E+02  0.00000000E+00
  5.40000000E+02  2.80000000E+02  0.00000000E+00
  5.40000000E+02  2.60000000E+02  0.00000000E+00
  5.40000000E+02  2.40000000E+02  0.00000000E+00
  5.40000000E+02  2.20000000E+02  0.00000000E+00
  5.40000000E+02  2.00000000E+02  0.00000000E+00
  5.40000000E+02  1.80000000E+02  0.00000000E+00
  5.40000000E+02  1.60000000E+02  0.00000000E+00
  5.40000000E+02  1.40000000E+02  0.00000000E+00
  5.40000000E+02  1.20000000E+02  0.00000000E+00
  5.40000000E+02  1.00000000E+02  0.00000000E+00
  5.40000000E+02  8.00000000E+01  0.00000000E+00
  5.40000000E+02  6.00000000E+01  0.00000000E+00
  5.40000000E+02  4.00000000E+01  0.00000000E+00
  5.40000000E+02  2.00000000E+01  0.00000000E+00
  5.40000000E+02  4.99600361E-14  0.00000000E+00
  5.60000000E+02  3.00000000E+02  0.00000000E+00
  5.60000000E+02  2.80000000E+02  0.00000000E+00
  5.60000000E+02  2.60000000E+02  0.00000000E+00
  5.60000000E+02  2.40000000E+02  0.00000000E+00
  5.60000000E+02  2.20000000E+02  0.00000000E+00
  5.60000000E+02  2.00000000E+02  0.00000000E+00
  5.60000000E+02  1.80000000E+02  0.00000000E+00
  5.60000000E+02  1.60000000E+02  0.00000000E+00
  5.60000000E+02  1.40000000E+02  0.00000000E+00
  5.60000000E+02  1.20000000E+02  0.00000000E+00
  5.60000000E+02  1.00000000E+02  0.00000000E+00
  5.60000000E+02  8.00000000E+01  0.00000000E+00
  5.60000000E+02  6.00000000E+01  0.00000000E+00
  5.60000000E+02  4.00000000E+01  0.00000000E+00
  5.60000000E+02  2.00000000E+01  0.00000000E+00
  5.60000000E+02  4.99600361E-14  0.00000000E+00
  5.80000000E+02  3.00000000E+02  0.00000000E+00
  5.80000000E+02  2.80000000E+02  0.00000000E+00
  5.80000000E+02  2.60000000E+02  0.00000000E+00
  5.80000000E+02  2.40000000E+02  0.00000000E+00
  5.80000000E+02  2.20000000E+02  0.00000000E+00
  5.80000000E+02  2.00000000E+02  0.00000000E+00
  5.80000000E+02  1.80000000E+02  0.00000000E+00
  5.80000000E+02  1.60000000E+02  0.00000000E+00
  5.80000000E+02  1.40000000E+02  0.00000000E+00
  5.80000000E+02  1.20000000E+02  0.00000000E+00
  5.80000000E+02  1.00000000E+02  0.00000000E+00
  5.80000000E+02  8.00000000E+01  0.00000000E+00
  5.80000000E+02  6.00000000E+01  0.00000000E+00
  5.80000000E+02  4.00000000E+01  0.00000000E+00
  5.80000000E+02  2.00000000E+01  0.00000000E+00
  5.80000000E+02  4.99600361E-14  0.00000000E+00
  6.00000000E+02  3.00000000E+02  0.00000000E+00
  6.00000000E+02  2.80000000E+02  0.00000000E+00
  6.00000000E+02  2.60000000E+02  0.00000000E+00
  6.00000000E+02  2.40000000E+02  0.00000000E+00
  6.00000000E+02  2.20000000E+02  0.00000000E+00
  6.00000000E+02  2.00000000E+02  0.00000000E+00
  6.00000000E+02  1.80000000E+02  0.00000000E+00
  6.00000000E+02  1.60000000E+02  0.00000000E+00
  6.00000000E+02  1.40000000E+02  0.00000000E+00
  6.00000000E+02  1.20000000E+02  0.00000000E+00
  6.00000000E+02  1.00000000E+02  0.00000000E+00
  6.00000000E+02  8.00000000E+01  0.00000000E+00
  6.00000000E+02  6.00000000E+01  0.00000000E+00
  6.00000000E+02  4.00000000E+01  0.00000000E+00
  6.00000000E+02  2.00000000E+01  0.00000000E+00
  6.00000000E+02  4.99600361E-14  0.00000000E+00
CELLS       450      2250
         4           0           1          17          16
         4           1           2          18          17
         4           2           3          19          18
         4           3           4          20          19
         4           4           5          21          20
         4           5           6          22          21
         4           6           7          23          22
         4           7           8          24          23
         4           8           9          25          24
         4           9          10          26          25
         4          10          11          27          26
         4          11          12          28          27
         4          12          13          29          28
         4          13          14          30          29
         4          14          15          31          30
         4          16          17          33          32
         4          17          18          34          33
         4          18          19          35          34
         4          19          20          36          35
         4          20          21          37          36
         4          21          22          38          37
         4          22          23          39          38
         4          23          24          40          39
         4          24          25          41          40
         4          25          26          42          41
         4          26          27          43          42
         4          27          28          44          43
         4          28          29          45          44
         4          29          30          46          45
         4          30          31          47          46
         4          32          33          49          48
         4          33          34          50          49
         4          34          35          51          50
         4          35          36          52          51
         4          36          37          53          52
         4          37          38          54          53
         4          38          39          55          54
         4          39          40          56          55
         4          40          41          57          56
         4          41          42          58          57
         4          42          43          59          58
         4          43          44          60          59
         4          44          45          61          60
         4          45          46          62          61
         4          46          47          63          62
         4          48          49          65          64
         4          49          50          66          65
         4          50          51          67          66
         4          51          52          68          67
         4          52          53          69          68
         4          53          54          70          69
         4          54          55          71          70
         4          55          56          72          71
         4          56          57          73          72
         4          57          58          74          73
         4          58          59          75          74
         4          59          60          76          75
         4          60          61          77          76
         4          61          62          78          77
         4          62          63          79          78
         4          64          65          81          80
         4          65          66          82          81
         4          66          67          83          82
         4          67          68          84          83
         4          68          69          85          84
         4          69          70          86          85
         4          70          71          87          86
         4          71          72          88          87
         4          72          73          89          88
         4          73          74          90          89
         4          74          75          91          90
         4          75          76          92          91
         4          76          77          93          92
         4          77          78          94          93
         4          78          79          95          94
         4          80          81          97          96
         4          81          82          98          97
         4          82          83          99          98
         4          83          84         100          99
         4          84          85         101         100
         4          85          86         102         101
         4          86          87         103         102
         4          87          88         104         103
         4          88          89         105         104
         4          89          90         106         105
         4          90          91         107         106
         4          91          92         108         107
         4          92          93         109         108
         4          93          94         110         109
         4          94          95         111         110
         4          96          97         113         112
         4          97          98         114         113
         4          98          99         115         114
         4          99         100         116         115
         4         100         101         117         116
         4         101         102         118         117
         4         102         103         119         118
         4         103         104         120         119
         4         104         105         121         120
         4         105         106         122         121
         4         106         107         123         122
         4         107         108         124         123
         4         108         109         125         124
         4         109         110         126         125
         4         110         111         127         126
         4         112         113         129         128
         4         113         114         130         129
         4         114         115         131         130
         4         115         116         132         131
         4         116         117         133         132
         4         117         118         134         133
         4         118         119         135         134
         4         119         120         136         135
         4         120         121         137         136
         4         121         122         138         137
         4         122         123         139         138
         4         123         124         140         139
         4         124         125         141         140
         4         125         126         142         141
         4         126         127         143         142
         4         128         129         145         144
         4         129         130         146         145
         4         130         131         147         146
         4         131         132         148         147
         4         132         133         149         148
         4         133         134         150         149
         4         134         135         151         150
         4         135         136         152         151
         4         136         137         153         152
         4         137         138         154         153
         4         138         139         155         154
         4         139         140         156         155
         4         140         141         157         156
         4         141         142         158         157
         4         142         143         159         158
         4         144         145         161         160
         4         145         146         162         161
         4         146         147         163         162
         4         147         148         164         163
         4         148         149         165         164
         4         149         150         166         165
         4         150         151         167         166
         4         151         152         168         167
         4         152         153         169         168
         4         153         154         170         169
         4         154         155         171         170
         4         155         156         172         171
         4         156         157         173         172
         4         157         158         174         173
         4         158         159         175         174
         4         160         161         177         176
         4         161         162         178         177
         4         162         163         179         178
         4         163         164         180         179
         4         164         165         181         180
         4         165         166         182         181
         4         166         167         183         182
         4         167         168         184         183
         4         168         169         185         184
         4         169         170         186         185
         4         170         171         187         186
         4         171         172         188         187
         4         172         173         189         188
         4         173         174         190         189
         4         174         175         191         190
         4         176         177         193         192
         4         177         178         194         193
         4         178         179         195         194
         4         179         180         196         195
         4         180         181         197         196
         4         181         182         198         197
         4         182         183         199         198
         4         183         184         200         199
         4         184         185         201         200
         4         185         186         202         201
         4         186         187         203         202
         4         187         188         204         203
         4         188         189         205         204
         4         189         190         206         205
         4         190         191         207         206
         4         192         193         209         208
         4         193         194         210         209
         4         194         195         211         210
         4         195         196         212         211
         4         196         197         213         212
         4         197         198         214         213
         4         198         199         215         214
         4         199         200         216         215
         4         200         201         217         216
         4         201         202         218         217
         4         202         203         219         218
         4         203         204         220         219
         4         204         205         221         220
         4         205         206         222         221
         4         206         207         223         222
         4         208         209         225         224
         4         209         210         226         225
         4         210         211         227         226
         4         211         212         228         227
         4         212         213         229         228
         4         213         214         230         229
         4         214         215         231         230
         4         215         216         232         231
         4         216         217         233         232
         4         217         218         234         233
         4         218         219         235         234
         4         219         220         236         235
         4         220         221         237         236
         4         221         222         238         237
         4         222         223         239         238
         4         224         225         241         240
         4         225         226         242         241
         4         226         227         243         242
         4         227         228         244         243
         4         228         229         245         244
         4         229         230         246         245
         4         230         231         247         246
         4         231         232         248         247
         4         232         233         249         248
         4         233         234         250         249
         4         234         235         251         250
         4         235         236         252         251
         4         236         237         253         252
         4         237         238         254         253
         4         238         239         255         254
         4         240         241         257         256
         4         241         242         258         257
         4         242         243         259         258
         4         243         244         260         259
         4         244         245         261         260
         4         245         246         262         261
         4         246         247         263         262
         4         247         248         264         263
         4         248         249         265         264
         4         249         250         266         265
         4         250         251         267         266
         4         251         252         268         267
         4         252         253         269         268
         4         253         254         270         269
         4         254         255         271         270
         4         256         257         273         272
         4         257         258         274         273
         4         258         259         275         274
         4         259         260         276         275
         4         260         261         277         276
         4         261         262         278         277
         4         262         263         279         278
         4         263         264         280         279
         4         264         265         281         280
         4         265         266         282         281
         4         266         267         283         282
         4         267         268         284         283
         4         268         269         285         284
         4         269         270         286         285
         4         270         271         287         286
         4         272         273         289         288
         4         273         274         290         289
         4         274         275         291         290
         4         275         276         292         291
         4         276         277         293         292
         4         277         278         294         293
         4         278         279         295         294
         4         279         280         296         295
         4         280         281         297         296
         4         281         282         298         297
         4         282         283         299         298
         4         283         284         300         299
         4         284         285         301         300
         4         285         286         302         301
         4         286         287         303         302
         4         288         289         305         304
         4         289         290         306         305
         4         290         291         307         306
         4         291         292         308         307
         4         292         293         309         308
         4         293         294         310         309
         4         294         295         311         310
         4         295         296         312         311
         4         296         297         313         312
         4         297         298         314         313
         4         298         299         315         314
         4         299         300         316         315
         4         300         301         317         316
         4         301         302         318         317
         4         302         303         319         318
         4         304         305         321         320
         4         305         306         322         321
         4         306         307         323         322
         4         307         308         324         323
         4         308         309         325         324
         4         309         310         326         325
         4         310         311         327         326
         4         311         312         328         327
         4         312         313         329         328
         4         313         314         330         329
         4         314         315         331         330
         4         315         316         332         331
         4         316         317         333         332
         4         317         318         334         333
         4         318         319         335         334
         4         320         321         337         336
         4         321         322         338         337
         4         322         323         339         338
         4         323         324         340         339
         4         324         325         341         340
         4         325         326         342         341
         4         326         327         343         342
         4         327         328         344         343
         4         328         329         345         344
         4         329         330         346         345
         4         330         331         347         346
         4         331         332         348         347
         4         332         333         349         348
         4         333         334         350         349
         4         334         335         351         350
         4         336         337         353         352
         4         337         338         354         353
         4         338         339         355         354
         4         339         340         356         355
         4         340         341         357         356
         4         341         342         358         357
         4         342         343         359         358
         4         343         344         360         359
         4         344         345         361         360
         4         345         346         362         361
         4         346         347         363         362
         4         347         348         364         363
         4         348         349         365         364
         4         349         350         366         365
         4         350         351         367         366
         4         352         353         369         368
         4         353         354         370         369
         4         354         355         371         370
         4         355         356         372         371
         4         356         357         373         372
         4         357         358         374         373
         4         358         359         375         374
         4         359         360         376         375
         4         360         361         377         376
         4         361         362         378         377
         4         362         363         379         378
         4         363         364         380         379
         4         364         365         381         380
         4         365         366         382         381
         4         366         367         383         382
         4         368         369         385         384
         4         369         370         386         385
         4         370         371         387         386
         4         371         372         388         387
         4         372         373         389         388
         4         373         374         390         389
         4         374         375         391         390
         4         375         376         392         391
         4         376         377         393         392
         4         377         378         394         393
         4         378         379         395         394
         4         379         380         396         395
         4         380         381         397         396
         4         381         382         398         397
         4         382         383         399         398
         4         384         385         401         400
         4         385         386         402         401
         4         386         387         403         402
         4         387         388         404         403
         4         388         389         405         404
         4         389         390         406         405
         4         390         391         407         406
         4         391         392         408         407
         4         392         393         409         408
         4         393         394         410         409
         4         394         395         411         410
         4         395         396         412         411
         4         396         397         413         412
         4         397         398         414         413
         4         398         399         415         414
         4         400         401         417         416
         4         401         402         418         417
         4         402         403         419         418
         4         403         404         420         419
         4         404         405         421         420
         4         405         406         422         421
         4         406         407         423         422
         4         407         408         424         423
         4         408         409         425         424
         4         409         410         426         425
         4         410         411         427         426
         4         411         412         428         427
         4         412         413         429         428
         4         413         414         430         429
         4         414         415         431         430
         4         416         417         433         432
         4         417         418         434         433
         4         418         419         435         434
         4         419         420         436         435
         4         420         421         437         436
         4         421         422         438         437
         4         422         423         439         438
         4         423         424         440         439
         4         424         425         441         440
         4         425         426         442         441
         4         426         427         443         442
         4         427         428         444         443
         4         428         429         445         444
         4         429         430         446         445
         4         430         431         447         446
         4         432         433         449         448
         4         433         434         450         449
         4         434         435         451         450
         4         435         436         452         451
         4         436         437         453         452
         4         437         438         454         453
         4         438         439         455         454
         4         439         440         456         455
         4         440         441         457         456
         4         441         442         458         457
         4         442         443         459         458
         4         443         444         460         459
         4         444         445         461         460
         4         445         446         462         461
         4         446         447         463         462
         4         448         449         465         464
         4         449         450         466         465
         4         450         451         467         466
         4         451         452         468         467
         4         452         453         469         468
         4         453         454         470         469
         4         454         455         471         470
         4         455         456         472         471
         4         456         457         473         472
         4         457         458         474         473
         4         458         459         475         474
         4         459         460         476         475
         4         460         461         477         476
         4         461         462         478         477
         4         462         463         479         478
         4         464         465         481         480
         4         465         466         482         481
         4         466         467         483         482
         4         467         468         484         483
         4         468         469         485         484
         4         469         470         486         485
         4         470         471         487         486
         4         471         472         488         487
         4         472         473         489         488
         4         473         474         490         489
         4         474         475         491         490
         4         475         476         492         491
         4         476         477         493         492
         4         477         478         494         493
         4         478         479         495         494
CELL_TYPES        450
9
9
9
9
9
9
9
9
9
9
9
9
9
9
9
9
9
9
9
9
9
9
9
9
9
9
9
9
9
9
9
9
9
9
9
9
9
9
9
9
9
9
9
9
9
9
9
9
9
9
9
9
9
9
9
9
9
9
9
9
9
9
9
9
9
9
9
9
9
9
9
9
9
9
9
9
9
9
9
9
9
9
9
9
9
9
9
9
9
9
9
9
9
9
9
9
9
9
9
9
9
9
9
9
9
9
9
9
9
9
9
9
9
9
9
9
9
9
9
9
9
9
9
9
9
9
9
9
9
9
9
9
9
9
9
9
9
9
9
9
9
9
9
9
9
9
9
9
9
9
9
9
9
9
9
9
9
9
9
9
9
9
9
9
9
9
9
9
9
9
9
9
9
9
9
9
9
9
9
9
9
9
9
9
9
9
9
9
9
9
9
9
9
9
9
9
9
9
9
9
9
9
9
9
9
9
9
9
9
9
9
9
9
9
9
9
9
9
9
9
9
9
9
9
9
9
9
9
9
9
9
9
9
9
9
9
9
9
9
9
9
9
9
9
9
9
9
9
9
9
9
9
9
9
9
9
9
9
9
9
9
9
9
9
9
9
9
9
9
9
9
9
9
9
9
9
9
9
9
9
9
9
9
9
9
9
9
9
9
9
9
9
9
9
9
9
9
9
9
9
9
9
9
9
9
9
9
9
9
9
9
9
9
9
9
9
9
9
9
9
9
9
9
9
9
9
9
9
9
9
9
9
9
9
9
9
9
9
9
9
9
9
9
9
9
9
9
9
9
9
9
9
9
9
9
9
9
9
9
9
9
9
9
9
9
9
9
9
9
9
9
9
9
9
9
9
9
9
9
9
9
9
9
9
9
9
9
9
9
9
9
9
9
9
9
9
9
9
9
9
9
9
9
9
9
9
9
9
9
9
9
9
9
9
9
9
9
9
9
9
9
9
9
9
9
9
9
9
9
9
9
9
9
9
9
9
9
9
9
9
9
9
9
9
9
9
9
9
9
9
POINT_DATA       496
SCALARS p double 
LOOKUP_TABLE default
   59999692.7278394     
   59999692.7552588     
   59999692.8339258     
   59999692.9557352     
   59999693.1112597     
   59999693.2906787     
   59999693.4844865     
   59999693.6839480     
   59999693.8813164     
   59999694.0698469     
   59999694.2436569     
   59999694.3974809     
   59999694.5263650     
   59999694.6253305     
   59999694.6890224     
   59999694.7113467     
   59999660.1722322     
   59999660.2032318     
   59999660.2919780     
   59999660.4289621     
   59999660.6032799     
   59999660.8037093     
   59999661.0195111     
   59999661.2409292     
   59999661.4594105     
   59999661.6675911     
   59999661.8591103     
   59999662.0283126     
   59999662.1698885     
   59999662.2784895     
   59999662.3483342     
   59999662.3728062     
   59999555.9725453     
   59999556.0152183     
   59999556.1367468     
   59999556.3229103     
   59999556.5579136     
   59999556.8259433     
   59999557.1122654     
   59999557.4038571     
   59999557.6896202     
   59999557.9602661     
   59999558.2079697     
   59999558.4258896     
   59999558.6076322     
   59999558.7467089     
   59999558.8360074     
   59999558.8672689     
   59999359.3133576     
   59999359.3788137     
   59999359.5640267     
   59999359.8450936     
   59999360.1964006     
   59999360.5931034     
   59999361.0127738     
   59999361.4362408     
   59999361.8477463     
   59999362.2345844     
   59999362.5864068     
   59999362.8943635     
   59999363.1502091     
   59999363.3454546     
   59999363.4705914     
   59999363.5143587     
   59999031.2431490     
   59999031.3482906     
   59999031.6437356     
   59999032.0875718     
   59999032.6364551     
   59999033.2496672     
   59999033.8916351     
   59999034.5330296     
   59999035.1507025     
   59999035.7267904     
   59999036.2473249     
   59999036.7006519     
   59999037.0758866     
   59999037.3615404     
   59999037.5443500     
   59999037.6082434     
   59998507.5466829     
   59998507.7182720     
   59998508.1968819     
   59998508.9081744     
   59998509.7779053     
   59998510.7385424     
   59998511.7330678     
   59998512.7162793     
   59998513.6541203     
   59998514.5216679     
   59998515.3004028     
   59998515.9752996     
   59998516.5321375     
   59998516.9552578     
   59998517.2258098     
   59998517.3203432     
   59997687.1846368     
   59997687.4654569     
   59997688.2425556     
   59997689.3840911     
   59997690.7628562     
   59997692.2669128     
   59997693.8051428     
   59997695.3084301     
   59997696.7275321     
   59997698.0288197     
   59997699.1890146     
   59997700.1898752     
   59997701.0135216     
   59997701.6387835     
   59997702.0386276     
   59997702.1783894     
   59996414.4669965     
   59996414.9252207     
   59996416.1823884     
   59996418.0057600     
   59996420.1783786     
   59996422.5158167     
   59996424.8738431     
   59996427.1485536     
   59996429.2710169     
   59996431.1986123     
   59996432.9050677     
   59996434.3708467     
   59996435.5750614     
   59996436.4895580     
   59996437.0752593     
   59996437.2802692     
   59994452.2197071     
   59994452.9629617     
   59994454.9830474     
   59994457.8718753     
   59994461.2619849     
   59994464.8522284     
   59994468.4174291     
   59994471.8052028     
   59994474.9238581     
   59994477.7253236     
   59994480.1866149     
   59994482.2926364     
   59994484.0222786     
   59994485.3388897     
   59994486.1852757     
   59994486.4824002     
   59991441.9699906     
   59991443.1660087     
   59991446.3830590     
   59991450.9112567     
   59991456.1335073     
   59991461.5635492     
   59991466.8560208     
   59991471.7949915     
   59991476.2683100     
   59991480.2348339     
   59991483.6905403     
   59991486.6381335     
   59991489.0633185     
   59991490.9195073     
   59991492.1212920     
   59991492.5454237     
   59986845.5017045     
   59986847.4077191     
   59986852.4752562     
   59986859.4802890     
   59986867.3966748     
   59986875.4497454     
   59986883.1216320     
   59986890.1210958     
   59986896.3315241     
   59986901.7494969     
   59986906.4239252     
   59986910.4030914     
   59986913.6944996     
   59986916.2403559     
   59986917.9094569     
   59986918.5038492     
   59979859.8888301     
   59979862.8915799     
   59979870.7701941     
   59979881.4343560     
   59979893.1969465     
   59979904.8436554     
   59979915.6203857     
   59979925.1634807     
   59979933.3978540     
   59979940.4244088     
   59979946.4128450     
   59979951.5108842     
   59979955.7770202     
   59979959.1411099     
   59979961.3946460     
   59979962.2092554     
   59969295.1650378     
   59969299.8316317     
   59969311.8896746     
   59969327.8068406     
   59969344.8453836     
   59969361.1392438     
   59969375.6332399     
   59969387.9329663     
   59969398.1109166     
   59969406.5048441     
   59969413.5330711     
   59969419.5419532     
   59969424.6946524     
   59969428.9073834     
   59969431.8373660     
   59969432.9231321     
   59953400.0027332     
   59953407.1379887     
   59953425.2423409     
   59953448.4158076     
   59953472.2838330     
   59953494.0498006     
   59953512.3205737     
   59953526.7987498     
   59953537.9231654     
   59953546.5164678     
   59953553.4749923     
   59953559.5186639     
   59953565.0099465     
   59953569.8495937     
   59953573.4585658     
   59953574.8539368     
   59929616.0722937     
   59929626.7673736     
   59929653.3058056     
   59929685.9616089     
   59929717.8742308     
   59929744.9887945     
   59929765.6324171     
   59929779.9055924     
   59929789.0322246     
   59929794.7603327     
   59929798.8574590     
   59929802.7132760     
   59929807.0508721     
   59929811.7538651     
   59929815.8291536     
   59929817.5321930     
   59894236.1458128     
   59894251.7801293     
   59894289.4866785     
   59894333.4746219     
   59894373.2335019     
   59894403.1501637     
   59894421.5639924     
   59894429.5986786     
   59894430.0175421     
   59894426.2370444     
   59894421.5382939     
   59894418.4614244     
   59894418.3574528     
   59894421.0970402     
   59894424.9761199     
   59894426.8898526     
   59841934.6907956     
   59841956.8035695     
   59842008.1262420     
   59842063.4840489     
   59842107.2601637     
   59842132.2157283     
   59842137.4942643     
   59842126.4396430     
   59842104.6382539     
   59842078.3600485     
   59842053.3923709     
   59842034.1696983     
   59842023.1028921     
   59842020.0814568     
   59842022.2252660     
   59842024.0527482     
   59765133.1359358     
   59765162.9969261     
   59765228.5079390     
   59765290.4333744     
   59765326.5317627     
   59765328.5659857     
   59765298.2538210     
   59765243.3030481     
   59765174.1776856     
   59765101.7655401     
   59765035.7887949     
   59764983.6617714     
   59764949.5370811     
   59764933.4465321     
   59764930.6740081     
   59764931.7173859     
   59653156.0332352     
   59653193.5828947     
   59653268.5162231     
   59653321.4647721     
   59653322.7020198     
   59653265.2583303     
   59653156.9788305     
   59653013.5360873     
   59652853.3232937     
   59652694.2343684     
   59652551.7808457     
   59652437.8196036     
   59652359.2973669     
   59652316.7654628     
   59652302.8898475     
   59652301.6640818     
   59491130.2874050     
   59491171.8362098     
   59491239.1481244     
   59491245.9898348     
   59491156.6987203     
   59490971.2568030     
   59490710.2183883     
   59490402.8479429     
   59490079.5475234     
   59489767.9801477     
   59489491.4562636     
   59489268.0162666     
   59489108.9847688     
   59489016.4299521     
   59488979.8426084     
   59488973.3317957     
   59258579.1696434     
   59258612.7744689     
   59258630.0478576     
   59258513.1765878     
   59258228.2824602     
   59257794.5089634     
   59257256.4285837     
   59256664.8903961     
   59256066.8556583     
   59255501.9802813     
   59255002.7192665     
   59254594.9131543     
   59254296.5684628     
   59254113.6347352     
   59254033.0626649     
   59254015.2977872     
   58927667.7563705     
   58927664.4443014     
   58927540.4312820     
   58927150.6377098     
   58926484.2524171     
   58925603.2367200     
   58924593.9960906     
   58923538.6970763     
   58922504.0155247     
   58921541.1472750     
   58920690.5999592     
   58919986.5274372     
   58919456.7794731     
   58919116.2796037     
   58918953.4657290     
   58918912.8533066     
   58461067.8277408     
   58460965.7546820     
   58460520.5433408     
   58459589.1414431     
   58458231.9994991     
   58456595.6576240     
   58454833.1299040     
   58453066.2496439     
   58451378.9443247     
   58449826.8853884     
   58448451.9942996     
   58447294.2113719     
   58446395.0470463     
   58445788.3454776     
   58445475.8090649     
   58445390.2671575     
   57809427.0813517     
   57809104.3861419     
   57808005.9895334     
   57806078.3668899     
   57803550.0834669     
   57800718.2358296     
   57797829.6069553     
   57795044.4221445     
   57792448.2898783     
   57790082.0449526     
   57787972.5107166     
   57786156.5278150     
   57784692.3645368     
   57783650.0597359     
   57783071.6835584     
   57782900.1837079     
   56908444.2670916     
   56907675.3845525     
   56905347.9307690     
   56901707.9849213     
   56897327.4020616     
   56892741.0016701     
   56888301.3508266     
   56884179.8304528     
   56880425.3081320     
   56877027.2488202     
   56873967.0965189     
   56871258.4307105     
   56868974.0722761     
   56867245.3969211     
   56866208.3222704     
   56865877.1400899     
   55675555.0888192     
   55673946.9349754     
   55669460.0561830     
   55663088.1898560     
   55656023.5463196     
   55649110.8767834     
   55642762.7080890     
   55637085.2943173     
   55632024.6773846     
   55627467.7208311     
   55623307.5060128     
   55619497.6524233     
   55616106.3086956     
   55613350.8045346     
   55611551.7052757     
   55610934.2444106     
   54006199.0159808     
   54003113.7212668     
   53995114.3328006     
   53984807.8537279     
   53974341.0203966     
   53964805.8654305     
   53956499.0380235     
   53949329.4618084     
   53943064.5033470     
   53937441.7244009     
   53932225.6259924     
   53927256.9615184     
   53922541.6194881     
   53918372.3426220     
   53915376.2000076     
   53914269.5682801     
   51769511.5655742     
   51764039.6790780     
   51750952.4856311     
   51735937.3421475     
   51722175.3025378     
   51710532.8897972     
   51700873.8419599     
   51692795.4807739     
   51685854.4272489     
   51679636.7121374     
   51673774.1262887     
   51667962.4954583     
   51662026.5619320     
   51656204.2312984     
   51651502.2326455     
   51649612.5807329     
   48803078.5598994     
   48794276.4972998     
   48775545.9882640     
   48757322.9975054     
   48742453.1629051     
   48730651.6007424     
   48721244.9048034     
   48713567.4849261     
   48707053.6899564     
   48701224.0555429     
   48695652.0609252     
   48689934.5519558     
   48683703.4272322     
   48676707.4928589     
   48670039.2824571     
   48667080.9819723     
   44905531.5657591     
   44894741.9867236     
   44875767.8676315     
   44861259.6181823     
   44850314.6480162     
   44842015.0491083     
   44835567.7685459     
   44830383.8702894     
   44826017.8134587     
   44822111.6914371     
   44818346.3302343     
   44814397.3078149     
   44809885.9201788     
   44804385.8178768     
   44797141.6227472     
   44792958.7397079     
   39833333.3333333     
   39833333.3333333     
   39833333.3333333     
   39833333.3333333     
   39833333.3333333     
   39833333.3333333     
   39833333.3333333     
   39833333.3333333     
   39833333.3333333     
   39833333.3333333     
   39833333.3333333     
   39833333.3333333     
   39833333.3333333     
   39833333.3333333     
   39833333.3333333     
   39833333.3333333     
VECTORS u double 
    0.00000E+00         0.28476E-01         0.00000E+00
    0.00000E+00         0.28454E-01         0.00000E+00
    0.00000E+00         0.28342E-01         0.00000E+00
    0.00000E+00         0.28067E-01         0.00000E+00
    0.00000E+00         0.27568E-01         0.00000E+00
    0.00000E+00         0.26797E-01         0.00000E+00
    0.00000E+00         0.25720E-01         0.00000E+00
    0.00000E+00         0.24311E-01         0.00000E+00
    0.00000E+00         0.22552E-01         0.00000E+00
    0.00000E+00         0.20432E-01         0.00000E+00
    0.00000E+00         0.17946E-01         0.00000E+00
    0.00000E+00         0.15090E-01         0.00000E+00
    0.00000E+00         0.11866E-01         0.00000E+00
    0.00000E+00         0.82739E-02         0.00000E+00
    0.00000E+00         0.43180E-02         0.00000E+00
    0.00000E+00         0.00000E+00         0.00000E+00
    0.11528E-01         0.28358E-01         0.00000E+00
    0.11196E-01         0.28336E-01         0.00000E+00
    0.10700E-01         0.28225E-01         0.00000E+00
    0.10071E-01         0.27950E-01         0.00000E+00
    0.93373E-02         0.27452E-01         0.00000E+00
    0.85271E-02         0.26684E-01         0.00000E+00
    0.76638E-02         0.25611E-01         0.00000E+00
    0.67681E-02         0.24208E-01         0.00000E+00
    0.58576E-02         0.22457E-01         0.00000E+00
    0.49474E-02         0.20346E-01         0.00000E+00
    0.40494E-02         0.17871E-01         0.00000E+00
    0.31735E-02         0.15028E-01         0.00000E+00
    0.23269E-02         0.11817E-01         0.00000E+00
    0.15145E-02         0.82407E-02         0.00000E+00
    0.73891E-03         0.43010E-02         0.00000E+00
    0.00000E+00         0.00000E+00         0.00000E+00
    0.23155E-01         0.27995E-01         0.00000E+00
    0.22475E-01         0.27973E-01         0.00000E+00
    0.21467E-01         0.27863E-01         0.00000E+00
    0.20194E-01         0.27591E-01         0.00000E+00
    0.18715E-01         0.27098E-01         0.00000E+00
    0.17084E-01         0.26339E-01         0.00000E+00
    0.15348E-01         0.25278E-01         0.00000E+00
    0.13550E-01         0.23893E-01         0.00000E+00
    0.11723E-01         0.22164E-01         0.00000E+00
    0.98983E-02         0.20083E-01         0.00000E+00
    0.80993E-02         0.17641E-01         0.00000E+00
    0.63453E-02         0.14837E-01         0.00000E+00
    0.46509E-02         0.11669E-01         0.00000E+00
    0.30259E-02         0.81394E-02         0.00000E+00
    0.14756E-02         0.42491E-02         0.00000E+00
    0.00000E+00         0.00000E+00         0.00000E+00
    0.34979E-01         0.27361E-01         0.00000E+00
    0.33918E-01         0.27341E-01         0.00000E+00
    0.32366E-01         0.27233E-01         0.00000E+00
    0.30420E-01         0.26966E-01         0.00000E+00
    0.28171E-01         0.26482E-01         0.00000E+00
    0.25698E-01         0.25737E-01         0.00000E+00
    0.23073E-01         0.24699E-01         0.00000E+00
    0.20358E-01         0.23345E-01         0.00000E+00
    0.17604E-01         0.21657E-01         0.00000E+00
    0.14857E-01         0.19626E-01         0.00000E+00
    0.12150E-01         0.17244E-01         0.00000E+00
    0.95141E-02         0.14507E-01         0.00000E+00
    0.69695E-02         0.11414E-01         0.00000E+00
    0.45315E-02         0.79645E-02         0.00000E+00
    0.22081E-02         0.41597E-02         0.00000E+00
    0.00000E+00         0.00000E+00         0.00000E+00
    0.47099E-01         0.26413E-01         0.00000E+00
    0.45605E-01         0.26395E-01         0.00000E+00
    0.43461E-01         0.26291E-01         0.00000E+00
    0.40801E-01         0.26031E-01         0.00000E+00
    0.37743E-01         0.25561E-01         0.00000E+00
    0.34397E-01         0.24840E-01         0.00000E+00
    0.30857E-01         0.23836E-01         0.00000E+00
    0.27205E-01         0.22530E-01         0.00000E+00
    0.23509E-01         0.20904E-01         0.00000E+00
    0.19826E-01         0.18948E-01         0.00000E+00
    0.16204E-01         0.16655E-01         0.00000E+00
    0.12680E-01         0.14019E-01         0.00000E+00
    0.92812E-02         0.11037E-01         0.00000E+00
    0.60292E-02         0.77072E-02         0.00000E+00
    0.29348E-02         0.40283E-02         0.00000E+00
    0.00000E+00         0.00000E+00         0.00000E+00
    0.59611E-01         0.25090E-01         0.00000E+00
    0.57614E-01         0.25075E-01         0.00000E+00
    0.54815E-01         0.24976E-01         0.00000E+00
    0.51382E-01         0.24728E-01         0.00000E+00
    0.47467E-01         0.24278E-01         0.00000E+00
    0.43207E-01         0.23590E-01         0.00000E+00
    0.38719E-01         0.22637E-01         0.00000E+00
    0.34103E-01         0.21399E-01         0.00000E+00
    0.29444E-01         0.19860E-01         0.00000E+00
    0.24812E-01         0.18011E-01         0.00000E+00
    0.20263E-01         0.15842E-01         0.00000E+00
    0.15842E-01         0.13347E-01         0.00000E+00
    0.11586E-01         0.10520E-01         0.00000E+00
    0.75179E-02         0.73546E-02         0.00000E+00
    0.36546E-02         0.38489E-02         0.00000E+00
    0.00000E+00         0.00000E+00         0.00000E+00
    0.72612E-01         0.23308E-01         0.00000E+00
    0.70022E-01         0.23298E-01         0.00000E+00
    0.66485E-01         0.23208E-01         0.00000E+00
    0.62208E-01         0.22976E-01         0.00000E+00
    0.57375E-01         0.22556E-01         0.00000E+00
    0.52150E-01         0.21916E-01         0.00000E+00
    0.46674E-01         0.21032E-01         0.00000E+00
    0.41064E-01         0.19887E-01         0.00000E+00
    0.35419E-01         0.18469E-01         0.00000E+00
    0.29820E-01         0.16764E-01         0.00000E+00
    0.24331E-01         0.14764E-01         0.00000E+00
    0.19005E-01         0.12458E-01         0.00000E+00
    0.13884E-01         0.98361E-02         0.00000E+00
    0.89983E-02         0.68903E-02         0.00000E+00
    0.43676E-02         0.36134E-02         0.00000E+00
    0.00000E+00         0.00000E+00         0.00000E+00
    0.86194E-01         0.20964E-01         0.00000E+00
    0.82900E-01         0.20961E-01         0.00000E+00
    0.78525E-01         0.20884E-01         0.00000E+00
    0.73316E-01         0.20676E-01         0.00000E+00
    0.67493E-01         0.20298E-01         0.00000E+00
    0.61246E-01         0.19723E-01         0.00000E+00
    0.54736E-01         0.18934E-01         0.00000E+00
    0.48098E-01         0.17916E-01         0.00000E+00
    0.41442E-01         0.16657E-01         0.00000E+00
    0.34857E-01         0.15145E-01         0.00000E+00
    0.28415E-01         0.13367E-01         0.00000E+00
    0.22174E-01         0.11308E-01         0.00000E+00
    0.16182E-01         0.89555E-02         0.00000E+00
    0.10473E-01         0.62940E-02         0.00000E+00
    0.50749E-02         0.33119E-02         0.00000E+00
    0.00000E+00         0.00000E+00         0.00000E+00
    0.10044E+00         0.17930E-01         0.00000E+00
    0.96312E-01         0.17939E-01         0.00000E+00
    0.90980E-01         0.17880E-01         0.00000E+00
    0.84738E-01         0.17705E-01         0.00000E+00
    0.77842E-01         0.17385E-01         0.00000E+00
    0.70507E-01         0.16899E-01         0.00000E+00
    0.62915E-01         0.16237E-01         0.00000E+00
    0.55213E-01         0.15386E-01         0.00000E+00
    0.47521E-01         0.14338E-01         0.00000E+00
    0.39932E-01         0.13077E-01         0.00000E+00
    0.32524E-01         0.11587E-01         0.00000E+00
    0.25358E-01         0.98485E-02         0.00000E+00
    0.18486E-01         0.78405E-02         0.00000E+00
    0.11949E-01         0.55415E-02         0.00000E+00
    0.57797E-02         0.29328E-02         0.00000E+00
    0.00000E+00         0.00000E+00         0.00000E+00
    0.11545E+00         0.14051E-01         0.00000E+00
    0.11032E+00         0.14077E-01         0.00000E+00
    0.10389E+00         0.14045E-01         0.00000E+00
    0.96497E-01         0.13918E-01         0.00000E+00
    0.88435E-01         0.13676E-01         0.00000E+00
    0.79943E-01         0.13310E-01         0.00000E+00
    0.71218E-01         0.12815E-01         0.00000E+00
    0.62417E-01         0.12184E-01         0.00000E+00
    0.53665E-01         0.11408E-01         0.00000E+00
    0.45057E-01         0.10470E-01         0.00000E+00
    0.36672E-01         0.93498E-02         0.00000E+00
    0.28571E-01         0.80188E-02         0.00000E+00
    0.20810E-01         0.64473E-02         0.00000E+00
    0.13435E-01         0.46045E-02         0.00000E+00
    0.64874E-02         0.24626E-02         0.00000E+00
    0.00000E+00         0.00000E+00         0.00000E+00
    0.13127E+00         0.91436E-02         0.00000E+00
    0.12496E+00         0.91957E-02         0.00000E+00
    0.11727E+00         0.92027E-02         0.00000E+00
    0.10860E+00         0.91414E-02         0.00000E+00
    0.99275E-01         0.90058E-02         0.00000E+00
    0.89553E-01         0.87981E-02         0.00000E+00
    0.79646E-01         0.85215E-02         0.00000E+00
    0.69716E-01         0.81748E-02         0.00000E+00
    0.59886E-01         0.77483E-02         0.00000E+00
    0.50249E-01         0.72229E-02         0.00000E+00
    0.40878E-01         0.65696E-02         0.00000E+00
    0.31835E-01         0.57515E-02         0.00000E+00
    0.23174E-01         0.47263E-02         0.00000E+00
    0.14947E-01         0.34510E-02         0.00000E+00
    0.72066E-02         0.18860E-02         0.00000E+00
    0.00000E+00         0.00000E+00         0.00000E+00
    0.14798E+00         0.29901E-02         0.00000E+00
    0.14026E+00         0.30814E-02         0.00000E+00
    0.13114E+00         0.31444E-02         0.00000E+00
    0.12105E+00         0.31740E-02         0.00000E+00
    0.11035E+00         0.31809E-02         0.00000E+00
    0.99329E-01         0.31813E-02         0.00000E+00
    0.88196E-01         0.31884E-02         0.00000E+00
    0.77113E-01         0.32056E-02         0.00000E+00
    0.66195E-01         0.32233E-02         0.00000E+00
    0.55526E-01         0.32174E-02         0.00000E+00
    0.45169E-01         0.31496E-02         0.00000E+00
    0.35177E-01         0.29701E-02         0.00000E+00
    0.25604E-01         0.26218E-02         0.00000E+00
    0.16507E-01         0.20455E-02         0.00000E+00
    0.79502E-02         0.11863E-02         0.00000E+00
    0.00000E+00         0.00000E+00         0.00000E+00
    0.16562E+00        -0.46633E-02         0.00000E+00
    0.15624E+00        -0.45135E-02         0.00000E+00
    0.14548E+00        -0.43700E-02         0.00000E+00
    0.13381E+00        -0.42155E-02         0.00000E+00
    0.12164E+00        -0.40185E-02         0.00000E+00
    0.10925E+00        -0.37462E-02         0.00000E+00
    0.96855E-01        -0.33746E-02         0.00000E+00
    0.84609E-01        -0.28950E-02         0.00000E+00
    0.72607E-01        -0.23184E-02         0.00000E+00
    0.60914E-01        -0.16758E-02         0.00000E+00
    0.49576E-01        -0.10175E-02         0.00000E+00
    0.38635E-01        -0.40939E-03         0.00000E+00
    0.28138E-01         0.72573E-04         0.00000E+00
    0.18146E-01         0.34896E-03         0.00000E+00
    0.87356E-02         0.34512E-03         0.00000E+00
    0.00000E+00         0.00000E+00         0.00000E+00
    0.18419E+00        -0.14112E-01         0.00000E+00
    0.17287E+00        -0.13875E-01         0.00000E+00
    0.16024E+00        -0.13616E-01         0.00000E+00
    0.14685E+00        -0.13290E-01         0.00000E+00
    0.13309E+00        -0.12840E-01         0.00000E+00
    0.11928E+00        -0.12215E-01         0.00000E+00
    0.10560E+00        -0.11378E-01         0.00000E+00
    0.92200E-01        -0.10316E-01         0.00000E+00
    0.79135E-01        -0.90422E-02         0.00000E+00
    0.66443E-01        -0.75976E-02         0.00000E+00
    0.54144E-01        -0.60475E-02         0.00000E+00
    0.42259E-01        -0.44775E-02         0.00000E+00
    0.30824E-01        -0.29869E-02         0.00000E+00
    0.19903E-01        -0.16802E-02         0.00000E+00
    0.95868E-02        -0.65688E-03         0.00000E+00
    0.00000E+00         0.00000E+00         0.00000E+00
    0.20369E+00        -0.25695E-01         0.00000E+00
    0.19010E+00        -0.25330E-01         0.00000E+00
    0.17537E+00        -0.24907E-01         0.00000E+00
    0.16007E+00        -0.24346E-01         0.00000E+00
    0.14463E+00        -0.23561E-01         0.00000E+00
    0.12935E+00        -0.22479E-01         0.00000E+00
    0.11441E+00        -0.21051E-01         0.00000E+00
    0.99879E-01        -0.19260E-01         0.00000E+00
    0.85796E-01        -0.17124E-01         0.00000E+00
    0.72150E-01        -0.14697E-01         0.00000E+00
    0.58924E-01        -0.12062E-01         0.00000E+00
    0.46109E-01        -0.93291E-02         0.00000E+00
    0.33723E-01        -0.66251E-02         0.00000E+00
    0.21829E-01        -0.40853E-02         0.00000E+00
    0.10535E-01        -0.18398E-02         0.00000E+00
    0.00000E+00         0.00000E+00         0.00000E+00
    0.22404E+00        -0.39806E-01         0.00000E+00
    0.20782E+00        -0.39251E-01         0.00000E+00
    0.19071E+00        -0.38593E-01         0.00000E+00
    0.17335E+00        -0.37710E-01         0.00000E+00
    0.15616E+00        -0.36481E-01         0.00000E+00
    0.13941E+00        -0.34810E-01         0.00000E+00
    0.12322E+00        -0.32636E-01         0.00000E+00
    0.10763E+00        -0.29939E-01         0.00000E+00
    0.92603E-01        -0.26747E-01         0.00000E+00
    0.78075E-01        -0.23127E-01         0.00000E+00
    0.63976E-01        -0.19185E-01         0.00000E+00
    0.50256E-01        -0.15060E-01         0.00000E+00
    0.36909E-01        -0.10912E-01         0.00000E+00
    0.23988E-01        -0.69101E-02         0.00000E+00
    0.11618E-01        -0.32237E-02         0.00000E+00
    0.00000E+00         0.00000E+00         0.00000E+00
    0.24512E+00        -0.56889E-01         0.00000E+00
    0.22586E+00        -0.56057E-01         0.00000E+00
    0.20611E+00        -0.55064E-01         0.00000E+00
    0.18653E+00        -0.53739E-01         0.00000E+00
    0.16753E+00        -0.51923E-01         0.00000E+00
    0.14932E+00        -0.49494E-01         0.00000E+00
    0.13197E+00        -0.46381E-01         0.00000E+00
    0.11542E+00        -0.42567E-01         0.00000E+00
    0.99565E-01        -0.38089E-01         0.00000E+00
    0.84259E-01        -0.33035E-01         0.00000E+00
    0.69366E-01        -0.27537E-01         0.00000E+00
    0.54783E-01        -0.21765E-01         0.00000E+00
    0.40467E-01        -0.15914E-01         0.00000E+00
    0.26455E-01        -0.10197E-01         0.00000E+00
    0.12884E-01        -0.48285E-02         0.00000E+00
    0.00000E+00         0.00000E+00         0.00000E+00
    0.26671E+00        -0.77448E-01         0.00000E+00
    0.24396E+00        -0.76211E-01         0.00000E+00
    0.22129E+00        -0.74744E-01         0.00000E+00
    0.19937E+00        -0.72813E-01         0.00000E+00
    0.17854E+00        -0.70220E-01         0.00000E+00
    0.15895E+00        -0.66818E-01         0.00000E+00
    0.14056E+00        -0.62529E-01         0.00000E+00
    0.12321E+00        -0.57344E-01         0.00000E+00
    0.10668E+00        -0.51317E-01         0.00000E+00
    0.90736E-01        -0.44557E-01         0.00000E+00
    0.75159E-01        -0.37225E-01         0.00000E+00
    0.59776E-01        -0.29525E-01         0.00000E+00
    0.44491E-01        -0.21693E-01         0.00000E+00
    0.29315E-01        -0.13987E-01         0.00000E+00
    0.14388E-01        -0.66727E-02         0.00000E+00
    0.00000E+00         0.00000E+00         0.00000E+00
    0.28848E+00        -0.10205E+00         0.00000E+00
    0.26177E+00        -0.10023E+00         0.00000E+00
    0.23592E+00        -0.98084E-01         0.00000E+00
    0.21155E+00        -0.95324E-01         0.00000E+00
    0.18895E+00        -0.91702E-01         0.00000E+00
    0.16811E+00        -0.87052E-01         0.00000E+00
    0.14887E+00        -0.81298E-01         0.00000E+00
    0.13092E+00        -0.74443E-01         0.00000E+00
    0.11392E+00        -0.66564E-01         0.00000E+00
    0.97527E-01        -0.57797E-01         0.00000E+00
    0.81411E-01        -0.48334E-01         0.00000E+00
    0.65315E-01        -0.38409E-01         0.00000E+00
    0.49076E-01        -0.28299E-01         0.00000E+00
    0.32658E-01        -0.18312E-01         0.00000E+00
    0.16190E-01        -0.87726E-02         0.00000E+00
    0.00000E+00         0.00000E+00         0.00000E+00
    0.30996E+00        -0.13131E+00         0.00000E+00
    0.27878E+00        -0.12865E+00         0.00000E+00
    0.24950E+00        -0.12555E+00         0.00000E+00
    0.22267E+00        -0.12166E+00         0.00000E+00
    0.19841E+00        -0.11668E+00         0.00000E+00
    0.17655E+00        -0.11043E+00         0.00000E+00
    0.15671E+00        -0.10286E+00         0.00000E+00
    0.13843E+00        -0.93982E-01         0.00000E+00
    0.12123E+00        -0.83913E-01         0.00000E+00
    0.10462E+00        -0.72816E-01         0.00000E+00
    0.88146E-01        -0.60908E-01         0.00000E+00
    0.71460E-01        -0.48454E-01         0.00000E+00
    0.54302E-01        -0.35765E-01         0.00000E+00
    0.36570E-01        -0.23198E-01         0.00000E+00
    0.18355E-01        -0.11142E-01         0.00000E+00
    0.00000E+00         0.00000E+00         0.00000E+00
    0.33046E+00        -0.16591E+00         0.00000E+00
    0.29431E+00        -0.16204E+00         0.00000E+00
    0.26144E+00        -0.15761E+00         0.00000E+00
    0.23222E+00        -0.15217E+00         0.00000E+00
    0.20652E+00        -0.14539E+00         0.00000E+00
    0.18393E+00        -0.13711E+00         0.00000E+00
    0.16384E+00        -0.12729E+00         0.00000E+00
    0.14558E+00        -0.11599E+00         0.00000E+00
    0.12848E+00        -0.10337E+00         0.00000E+00
    0.11193E+00        -0.89602E-01         0.00000E+00
    0.95332E-01        -0.74938E-01         0.00000E+00
    0.78219E-01        -0.59659E-01         0.00000E+00
    0.60216E-01        -0.44100E-01         0.00000E+00
    0.41116E-01        -0.28658E-01         0.00000E+00
    0.20937E-01        -0.13792E-01         0.00000E+00
    0.00000E+00         0.00000E+00         0.00000E+00
    0.34903E+00        -0.20654E+00         0.00000E+00
    0.30746E+00        -0.20096E+00         0.00000E+00
    0.27094E+00        -0.19467E+00         0.00000E+00
    0.23953E+00        -0.18712E+00         0.00000E+00
    0.21275E+00        -0.17799E+00         0.00000E+00
    0.18985E+00        -0.16712E+00         0.00000E+00
    0.16993E+00        -0.15454E+00         0.00000E+00
    0.15208E+00        -0.14038E+00         0.00000E+00
    0.13546E+00        -0.12480E+00         0.00000E+00
    0.11928E+00        -0.10804E+00         0.00000E+00
    0.10284E+00        -0.90336E-01         0.00000E+00
    0.85510E-01        -0.71967E-01         0.00000E+00
    0.66789E-01        -0.53279E-01         0.00000E+00
    0.46316E-01        -0.34692E-01         0.00000E+00
    0.23974E-01        -0.16729E-01         0.00000E+00
    0.00000E+00         0.00000E+00         0.00000E+00
    0.36440E+00        -0.25390E+00         0.00000E+00
    0.31704E+00        -0.24592E+00         0.00000E+00
    0.27698E+00        -0.23704E+00         0.00000E+00
    0.24378E+00        -0.22666E+00         0.00000E+00
    0.21646E+00        -0.21443E+00         0.00000E+00
    0.19378E+00        -0.20031E+00         0.00000E+00
    0.17453E+00        -0.18439E+00         0.00000E+00
    0.15753E+00        -0.16686E+00         0.00000E+00
    0.14178E+00        -0.14796E+00         0.00000E+00
    0.12633E+00        -0.12790E+00         0.00000E+00
    0.11036E+00        -0.10691E+00         0.00000E+00
    0.93105E-01        -0.85252E-01         0.00000E+00
    0.73872E-01        -0.63235E-01         0.00000E+00
    0.52103E-01        -0.41280E-01         0.00000E+00
    0.27463E-01        -0.19958E-01         0.00000E+00
    0.00000E+00         0.00000E+00         0.00000E+00
    0.37482E+00        -0.30858E+00         0.00000E+00
    0.32153E+00        -0.29726E+00         0.00000E+00
    0.27833E+00        -0.28484E+00         0.00000E+00
    0.24401E+00        -0.27064E+00         0.00000E+00
    0.21684E+00        -0.25442E+00         0.00000E+00
    0.19505E+00        -0.23625E+00         0.00000E+00
    0.17702E+00        -0.21633E+00         0.00000E+00
    0.16135E+00        -0.19495E+00         0.00000E+00
    0.14685E+00        -0.17235E+00         0.00000E+00
    0.13251E+00        -0.14876E+00         0.00000E+00
    0.11738E+00        -0.12434E+00         0.00000E+00
    0.10054E+00        -0.99294E-01         0.00000E+00
    0.81118E-01        -0.73848E-01         0.00000E+00
    0.58270E-01        -0.48382E-01         0.00000E+00
    0.31329E-01        -0.23480E-01         0.00000E+00
    0.00000E+00         0.00000E+00         0.00000E+00
    0.37798E+00        -0.37100E+00         0.00000E+00
    0.31897E+00        -0.35507E+00         0.00000E+00
    0.27346E+00        -0.33782E+00         0.00000E+00
    0.23902E+00        -0.31858E+00         0.00000E+00
    0.21294E+00        -0.29727E+00         0.00000E+00
    0.19279E+00        -0.27413E+00         0.00000E+00
    0.17655E+00        -0.24954E+00         0.00000E+00
    0.16264E+00        -0.22384E+00         0.00000E+00
    0.14979E+00        -0.19728E+00         0.00000E+00
    0.13691E+00        -0.17003E+00         0.00000E+00
    0.12299E+00        -0.14217E+00         0.00000E+00
    0.10702E+00        -0.11377E+00         0.00000E+00
    0.87875E-01        -0.84933E-01         0.00000E+00
    0.64381E-01        -0.55928E-01         0.00000E+00
    0.35378E-01        -0.27297E-01         0.00000E+00
    0.00000E+00         0.00000E+00         0.00000E+00
    0.37081E+00        -0.44114E+00         0.00000E+00
    0.30696E+00        -0.41893E+00         0.00000E+00
    0.26058E+00        -0.39519E+00         0.00000E+00
    0.22745E+00        -0.36938E+00         0.00000E+00
    0.20359E+00        -0.34170E+00         0.00000E+00
    0.18586E+00        -0.31267E+00         0.00000E+00
    0.17194E+00        -0.28280E+00         0.00000E+00
    0.16016E+00        -0.25244E+00         0.00000E+00
    0.14925E+00        -0.22178E+00         0.00000E+00
    0.13815E+00        -0.19090E+00         0.00000E+00
    0.12585E+00        -0.15974E+00         0.00000E+00
    0.11125E+00        -0.12821E+00         0.00000E+00
    0.93051E-01        -0.96217E-01         0.00000E+00
    0.69652E-01        -0.63814E-01         0.00000E+00
    0.39224E-01        -0.31408E-01         0.00000E+00
    0.00000E+00         0.00000E+00         0.00000E+00
    0.34934E+00        -0.51825E+00         0.00000E+00
    0.28258E+00        -0.48756E+00         0.00000E+00
    0.23767E+00        -0.45522E+00         0.00000E+00
    0.20773E+00        -0.42104E+00         0.00000E+00
    0.18732E+00        -0.38571E+00         0.00000E+00
    0.17272E+00        -0.35000E+00         0.00000E+00
    0.16151E+00        -0.31444E+00         0.00000E+00
    0.15211E+00        -0.27931E+00         0.00000E+00
    0.14335E+00        -0.24465E+00         0.00000E+00
    0.13428E+00        -0.21036E+00         0.00000E+00
    0.12397E+00        -0.17625E+00         0.00000E+00
    0.11132E+00        -0.14201E+00         0.00000E+00
    0.94925E-01        -0.10731E+00         0.00000E+00
    0.72772E-01        -0.71875E-01         0.00000E+00
    0.42175E-01        -0.35805E-01         0.00000E+00
    0.00000E+00         0.00000E+00         0.00000E+00
    0.30840E+00        -0.60018E+00         0.00000E+00
    0.24251E+00        -0.55817E+00         0.00000E+00
    0.20258E+00        -0.51469E+00         0.00000E+00
    0.17807E+00        -0.47033E+00         0.00000E+00
    0.16222E+00        -0.42637E+00         0.00000E+00
    0.15123E+00        -0.38364E+00         0.00000E+00
    0.14293E+00        -0.34245E+00         0.00000E+00
    0.13599E+00        -0.30280E+00         0.00000E+00
    0.12947E+00        -0.26450E+00         0.00000E+00
    0.12259E+00        -0.22727E+00         0.00000E+00
    0.11458E+00        -0.19072E+00         0.00000E+00
    0.10448E+00        -0.15437E+00         0.00000E+00
    0.90906E-01        -0.11764E+00         0.00000E+00
    0.71632E-01        -0.79827E-01         0.00000E+00
    0.43038E-01        -0.40460E-01         0.00000E+00
    0.00000E+00         0.00000E+00         0.00000E+00
    0.24141E+00        -0.68220E+00         0.00000E+00
    0.18336E+00        -0.62536E+00         0.00000E+00
    0.15322E+00        -0.56805E+00         0.00000E+00
    0.13619E+00        -0.51243E+00         0.00000E+00
    0.12557E+00        -0.45991E+00         0.00000E+00
    0.11835E+00        -0.41072E+00         0.00000E+00
    0.11295E+00        -0.36462E+00         0.00000E+00
    0.10842E+00        -0.32119E+00         0.00000E+00
    0.10412E+00        -0.27996E+00         0.00000E+00
    0.99516E-01        -0.24045E+00         0.00000E+00
    0.94048E-01        -0.20210E+00         0.00000E+00
    0.87002E-01        -0.16432E+00         0.00000E+00
    0.77269E-01        -0.12635E+00         0.00000E+00
    0.62892E-01        -0.87147E-01         0.00000E+00
    0.39736E-01        -0.45253E-01         0.00000E+00
    0.00000E+00         0.00000E+00         0.00000E+00
    0.14030E+00        -0.75429E+00         0.00000E+00
    0.10288E+00        -0.67853E+00         0.00000E+00
    0.87229E-01        -0.60662E+00         0.00000E+00
    0.78638E-01        -0.54134E+00         0.00000E+00
    0.73383E-01        -0.48225E+00         0.00000E+00
    0.69840E-01        -0.42840E+00         0.00000E+00
    0.67193E-01        -0.37890E+00         0.00000E+00
    0.64966E-01        -0.33294E+00         0.00000E+00
    0.62833E-01        -0.28980E+00         0.00000E+00
    0.60524E-01        -0.24884E+00         0.00000E+00
    0.57750E-01        -0.20941E+00         0.00000E+00
    0.54128E-01        -0.17084E+00         0.00000E+00
    0.49042E-01        -0.13231E+00         0.00000E+00
    0.41320E-01        -0.92654E-01         0.00000E+00
    0.28367E-01        -0.49842E-01         0.00000E+00
    0.00000E+00         0.00000E+00         0.00000E+00
    0.00000E+00        -0.79092E+00         0.00000E+00
    0.00000E+00        -0.69983E+00         0.00000E+00
    0.00000E+00        -0.62089E+00         0.00000E+00
    0.00000E+00        -0.55171E+00         0.00000E+00
    0.00000E+00        -0.49011E+00         0.00000E+00
    0.00000E+00        -0.43455E+00         0.00000E+00
    0.00000E+00        -0.38383E+00         0.00000E+00
    0.00000E+00        -0.33697E+00         0.00000E+00
    0.00000E+00        -0.29318E+00         0.00000E+00
    0.00000E+00        -0.25172E+00         0.00000E+00
    0.00000E+00        -0.21193E+00         0.00000E+00
    0.00000E+00        -0.17312E+00         0.00000E+00
    0.00000E+00        -0.13444E+00         0.00000E+00
    0.00000E+00        -0.94743E-01         0.00000E+00
    0.00000E+00        -0.52019E-01         0.00000E+00
    0.00000E+00         0.00000E+00         0.00000E+00
CELL_DATA        450
VECTORS vDarcy double 
    0.18674E-10         0.16756E-13         0.00000E+00
    0.18668E-10         0.48013E-13         0.00000E+00
    0.18659E-10         0.74210E-13         0.00000E+00
    0.18646E-10         0.94569E-13         0.00000E+00
    0.18632E-10         0.10889E-12         0.00000E+00
    0.18616E-10         0.11740E-12         0.00000E+00
    0.18600E-10         0.12061E-12         0.00000E+00
    0.18584E-10         0.11914E-12         0.00000E+00
    0.18569E-10         0.11364E-12         0.00000E+00
    0.18555E-10         0.10463E-12         0.00000E+00
    0.18542E-10         0.92499E-13         0.00000E+00
    0.18531E-10         0.77434E-13         0.00000E+00
    0.18522E-10         0.59418E-13         0.00000E+00
    0.18515E-10         0.38221E-13         0.00000E+00
    0.18510E-10         0.13392E-13         0.00000E+00
    0.59772E-10         0.21131E-13         0.00000E+00
    0.59752E-10         0.60306E-13         0.00000E+00
    0.59721E-10         0.92666E-13         0.00000E+00
    0.59680E-10         0.11736E-12         0.00000E+00
    0.59633E-10         0.13429E-12         0.00000E+00
    0.59583E-10         0.14392E-12         0.00000E+00
    0.59531E-10         0.14701E-12         0.00000E+00
    0.59481E-10         0.14447E-12         0.00000E+00
    0.59432E-10         0.13716E-12         0.00000E+00
    0.59388E-10         0.12579E-12         0.00000E+00
    0.59347E-10         0.11085E-12         0.00000E+00
    0.59312E-10         0.92567E-13         0.00000E+00
    0.59282E-10         0.70899E-13         0.00000E+00
    0.59259E-10         0.45549E-13         0.00000E+00
    0.59243E-10         0.15950E-13         0.00000E+00
    0.11282E-09         0.31017E-13         0.00000E+00
    0.11278E-09         0.87977E-13         0.00000E+00
    0.11272E-09         0.13399E-12         0.00000E+00
    0.11264E-09         0.16811E-12         0.00000E+00
    0.11255E-09         0.19056E-12         0.00000E+00
    0.11245E-09         0.20235E-12         0.00000E+00
    0.11235E-09         0.20491E-12         0.00000E+00
    0.11226E-09         0.19977E-12         0.00000E+00
    0.11216E-09         0.18834E-12         0.00000E+00
    0.11208E-09         0.17170E-12         0.00000E+00
    0.11200E-09         0.15058E-12         0.00000E+00
    0.11194E-09         0.12528E-12         0.00000E+00
    0.11188E-09         0.95700E-13         0.00000E+00
    0.11184E-09         0.61373E-13         0.00000E+00
    0.11181E-09         0.21471E-13         0.00000E+00
    0.18822E-09         0.48940E-13         0.00000E+00
    0.18815E-09         0.13787E-12         0.00000E+00
    0.18804E-09         0.20789E-12         0.00000E+00
    0.18790E-09         0.25812E-12         0.00000E+00
    0.18775E-09         0.28952E-12         0.00000E+00
    0.18758E-09         0.30429E-12         0.00000E+00
    0.18742E-09         0.30515E-12         0.00000E+00
    0.18726E-09         0.29486E-12         0.00000E+00
    0.18711E-09         0.27583E-12         0.00000E+00
    0.18697E-09         0.24983E-12         0.00000E+00
    0.18684E-09         0.21798E-12         0.00000E+00
    0.18674E-09         0.18067E-12         0.00000E+00
    0.18665E-09         0.13765E-12         0.00000E+00
    0.18657E-09         0.88133E-13         0.00000E+00
    0.18653E-09         0.30808E-13         0.00000E+00
    0.30049E-09         0.79397E-13         0.00000E+00
    0.30037E-09         0.22205E-12         0.00000E+00
    0.30018E-09         0.33130E-12         0.00000E+00
    0.29995E-09         0.40679E-12         0.00000E+00
    0.29970E-09         0.45121E-12         0.00000E+00
    0.29943E-09         0.46907E-12         0.00000E+00
    0.29917E-09         0.46556E-12         0.00000E+00
    0.29891E-09         0.44566E-12         0.00000E+00
    0.29867E-09         0.41352E-12         0.00000E+00
    0.29845E-09         0.37209E-12         0.00000E+00
    0.29826E-09         0.32304E-12         0.00000E+00
    0.29809E-09         0.26683E-12         0.00000E+00
    0.29795E-09         0.20287E-12         0.00000E+00
    0.29784E-09         0.12974E-12         0.00000E+00
    0.29776E-09         0.45333E-13         0.00000E+00
    0.47078E-09         0.12982E-12         0.00000E+00
    0.47057E-09         0.36026E-12         0.00000E+00
    0.47026E-09         0.53146E-12         0.00000E+00
    0.46989E-09         0.64481E-12         0.00000E+00
    0.46948E-09         0.70664E-12         0.00000E+00
    0.46905E-09         0.72598E-12         0.00000E+00
    0.46863E-09         0.71255E-12         0.00000E+00
    0.46823E-09         0.67526E-12         0.00000E+00
    0.46786E-09         0.62123E-12         0.00000E+00
    0.46753E-09         0.55525E-12         0.00000E+00
    0.46723E-09         0.47979E-12         0.00000E+00
    0.46697E-09         0.39517E-12         0.00000E+00
    0.46676E-09         0.30005E-12         0.00000E+00
    0.46659E-09         0.19184E-12         0.00000E+00
    0.46648E-09         0.67037E-13         0.00000E+00
    0.73050E-09         0.21211E-12         0.00000E+00
    0.73015E-09         0.58371E-12         0.00000E+00
    0.72964E-09         0.85054E-12         0.00000E+00
    0.72902E-09         0.10185E-11         0.00000E+00
    0.72836E-09         0.11014E-11         0.00000E+00
    0.72769E-09         0.11168E-11         0.00000E+00
    0.72704E-09         0.10826E-11         0.00000E+00
    0.72643E-09         0.10146E-11         0.00000E+00
    0.72587E-09         0.92482E-12         0.00000E+00
    0.72537E-09         0.82088E-12         0.00000E+00
    0.72492E-09         0.70618E-12         0.00000E+00
    0.72453E-09         0.58044E-12         0.00000E+00
    0.72421E-09         0.44065E-12         0.00000E+00
    0.72396E-09         0.28200E-12         0.00000E+00
    0.72379E-09         0.98639E-13         0.00000E+00
    0.11265E-08         0.34490E-12         0.00000E+00
    0.11259E-08         0.94053E-12         0.00000E+00
    0.11250E-08         0.13520E-11         0.00000E+00
    0.11241E-08         0.15955E-11         0.00000E+00
    0.11230E-08         0.16997E-11         0.00000E+00
    0.11220E-08         0.16979E-11         0.00000E+00
    0.11210E-08         0.16227E-11         0.00000E+00
    0.11201E-08         0.15015E-11         0.00000E+00
    0.11192E-08         0.13544E-11         0.00000E+00
    0.11185E-08         0.11934E-11         0.00000E+00
    0.11178E-08         0.10225E-11         0.00000E+00
    0.11172E-08         0.83969E-12         0.00000E+00
    0.11168E-08         0.63844E-12         0.00000E+00
    0.11164E-08         0.40973E-12         0.00000E+00
    0.11161E-08         0.14364E-12         0.00000E+00
    0.17286E-08         0.55683E-12         0.00000E+00
    0.17275E-08         0.15033E-11         0.00000E+00
    0.17261E-08         0.21283E-11         0.00000E+00
    0.17245E-08         0.24704E-11         0.00000E+00
    0.17229E-08         0.25865E-11         0.00000E+00
    0.17213E-08         0.25390E-11         0.00000E+00
    0.17198E-08         0.23861E-11         0.00000E+00
    0.17184E-08         0.21749E-11         0.00000E+00
    0.17172E-08         0.19382E-11         0.00000E+00
    0.17161E-08         0.16941E-11         0.00000E+00
    0.17152E-08         0.14465E-11         0.00000E+00
    0.17143E-08         0.11890E-11         0.00000E+00
    0.17137E-08         0.90779E-12         0.00000E+00
    0.17131E-08         0.58591E-12         0.00000E+00
    0.17127E-08         0.20630E-12         0.00000E+00
    0.26401E-08         0.89092E-12         0.00000E+00
    0.26383E-08         0.23785E-11         0.00000E+00
    0.26360E-08         0.33098E-11         0.00000E+00
    0.26335E-08         0.37690E-11         0.00000E+00
    0.26309E-08         0.38664E-11         0.00000E+00
    0.26285E-08         0.37162E-11         0.00000E+00
    0.26263E-08         0.34209E-11         0.00000E+00
    0.26243E-08         0.30603E-11         0.00000E+00
    0.26226E-08         0.26873E-11         0.00000E+00
    0.26211E-08         0.23274E-11         0.00000E+00
    0.26197E-08         0.19824E-11         0.00000E+00
    0.26185E-08         0.16357E-11         0.00000E+00
    0.26176E-08         0.12593E-11         0.00000E+00
    0.26168E-08         0.82113E-12         0.00000E+00
    0.26162E-08         0.29127E-12         0.00000E+00
    0.40134E-08         0.14102E-11         0.00000E+00
    0.40104E-08         0.37175E-11         0.00000E+00
    0.40067E-08         0.50714E-11         0.00000E+00
    0.40027E-08         0.56457E-11         0.00000E+00
    0.39988E-08         0.56491E-11         0.00000E+00
    0.39952E-08         0.52881E-11         0.00000E+00
    0.39920E-08         0.47399E-11         0.00000E+00
    0.39892E-08         0.41373E-11         0.00000E+00
    0.39868E-08         0.35632E-11         0.00000E+00
    0.39847E-08         0.30521E-11         0.00000E+00
    0.39829E-08         0.25975E-11         0.00000E+00
    0.39813E-08         0.21621E-11         0.00000E+00
    0.39799E-08         0.16903E-11         0.00000E+00
    0.39788E-08         0.11217E-11         0.00000E+00
    0.39779E-08         0.40286E-12         0.00000E+00
    0.60714E-08         0.22039E-11         0.00000E+00
    0.60664E-08         0.57260E-11         0.00000E+00
    0.60604E-08         0.76303E-11         0.00000E+00
    0.60542E-08         0.82631E-11         0.00000E+00
    0.60484E-08         0.80123E-11         0.00000E+00
    0.60431E-08         0.72433E-11         0.00000E+00
    0.60387E-08         0.62580E-11         0.00000E+00
    0.60349E-08         0.52730E-11         0.00000E+00
    0.60317E-08         0.44146E-11         0.00000E+00
    0.60289E-08         0.37251E-11         0.00000E+00
    0.60265E-08         0.31776E-11         0.00000E+00
    0.60244E-08         0.26940E-11         0.00000E+00
    0.60225E-08         0.21666E-11         0.00000E+00
    0.60208E-08         0.14819E-11         0.00000E+00
    0.60196E-08         0.54322E-12         0.00000E+00
    0.91372E-08         0.33924E-11         0.00000E+00
    0.91289E-08         0.86644E-11         0.00000E+00
    0.91194E-08         0.11222E-10         0.00000E+00
    0.91100E-08         0.11737E-10         0.00000E+00
    0.91014E-08         0.10914E-10         0.00000E+00
    0.90940E-08         0.93904E-11         0.00000E+00
    0.90879E-08         0.76709E-11         0.00000E+00
    0.90830E-08         0.60997E-11         0.00000E+00
    0.90791E-08         0.48622E-11         0.00000E+00
    0.90758E-08         0.40019E-11         0.00000E+00
    0.90728E-08         0.34474E-11         0.00000E+00
    0.90701E-08         0.30436E-11         0.00000E+00
    0.90675E-08         0.25878E-11         0.00000E+00
    0.90652E-08         0.18689E-11         0.00000E+00
    0.90633E-08         0.70901E-12         0.00000E+00
    0.13676E-07         0.51266E-11         0.00000E+00
    0.13662E-07         0.12826E-10         0.00000E+00
    0.13647E-07         0.16028E-10         0.00000E+00
    0.13633E-07         0.16004E-10         0.00000E+00
    0.13620E-07         0.14015E-10         0.00000E+00
    0.13610E-07         0.11151E-10         0.00000E+00
    0.13603E-07         0.82348E-11         0.00000E+00
    0.13597E-07         0.57974E-11         0.00000E+00
    0.13593E-07         0.40982E-11         0.00000E+00
    0.13589E-07         0.31624E-11         0.00000E+00
    0.13586E-07         0.28307E-11         0.00000E+00
    0.13583E-07         0.28097E-11         0.00000E+00
    0.13579E-07         0.27271E-11         0.00000E+00
    0.13576E-07         0.21955E-11         0.00000E+00
    0.13573E-07         0.88509E-12         0.00000E+00
    0.20348E-07         0.75719E-11         0.00000E+00
    0.20326E-07         0.18460E-10         0.00000E+00
    0.20303E-07         0.22004E-10         0.00000E+00
    0.20282E-07         0.20561E-10         0.00000E+00
    0.20265E-07         0.16350E-10         0.00000E+00
    0.20252E-07         0.11190E-10         0.00000E+00
    0.20243E-07         0.63877E-11         0.00000E+00
    0.20237E-07         0.27319E-11         0.00000E+00
    0.20233E-07         0.55716E-12         0.00000E+00
    0.20230E-07        -0.17204E-12         0.00000E+00
    0.20227E-07         0.22267E-12         0.00000E+00
    0.20224E-07         0.12098E-11         0.00000E+00
    0.20220E-07         0.21262E-11         0.00000E+00
    0.20216E-07         0.22718E-11         0.00000E+00
    0.20211E-07         0.10327E-11         0.00000E+00
    0.30085E-07         0.10857E-10         0.00000E+00
    0.30049E-07         0.25582E-10         0.00000E+00
    0.30014E-07         0.28520E-10         0.00000E+00
    0.29984E-07         0.23960E-10         0.00000E+00
    0.29962E-07         0.15727E-10         0.00000E+00
    0.29947E-07         0.67860E-11         0.00000E+00
    0.29938E-07        -0.86446E-12         0.00000E+00
    0.29935E-07        -0.61176E-11         0.00000E+00
    0.29933E-07        -0.85959E-11         0.00000E+00
    0.29933E-07        -0.84802E-11         0.00000E+00
    0.29932E-07        -0.63720E-11         0.00000E+00
    0.29930E-07        -0.31909E-11         0.00000E+00
    0.29925E-07        -0.80484E-13         0.00000E+00
    0.29919E-07         0.17194E-11         0.00000E+00
    0.29912E-07         0.10678E-11         0.00000E+00
    0.44182E-07         0.14951E-10         0.00000E+00
    0.44125E-07         0.33568E-10         0.00000E+00
    0.44072E-07         0.33662E-10         0.00000E+00
    0.44031E-07         0.22904E-10         0.00000E+00
    0.44004E-07         0.77329E-11         0.00000E+00
    0.43989E-07        -0.71674E-11         0.00000E+00
    0.43985E-07        -0.18886E-10         0.00000E+00
    0.43988E-07        -0.26003E-10         0.00000E+00
    0.43994E-07        -0.28210E-10         0.00000E+00
    0.44000E-07        -0.25985E-10         0.00000E+00
    0.44005E-07        -0.20379E-10         0.00000E+00
    0.44005E-07        -0.12903E-10         0.00000E+00
    0.44001E-07        -0.54550E-11         0.00000E+00
    0.43992E-07        -0.17939E-12         0.00000E+00
    0.43981E-07         0.81892E-12         0.00000E+00
    0.64415E-07         0.19390E-10         0.00000E+00
    0.64323E-07         0.40342E-10         0.00000E+00
    0.64247E-07         0.32959E-10         0.00000E+00
    0.64195E-07         0.10701E-10         0.00000E+00
    0.64166E-07        -0.15868E-10         0.00000E+00
    0.64158E-07        -0.39659E-10         0.00000E+00
    0.64166E-07        -0.56736E-10         0.00000E+00
    0.64183E-07        -0.65551E-10         0.00000E+00
    0.64204E-07        -0.66139E-10         0.00000E+00
    0.64224E-07        -0.59523E-10         0.00000E+00
    0.64239E-07        -0.47413E-10         0.00000E+00
    0.64247E-07        -0.32146E-10         0.00000E+00
    0.64245E-07        -0.16723E-10         0.00000E+00
    0.64234E-07        -0.47476E-11         0.00000E+00
    0.64216E-07        -0.51995E-13         0.00000E+00
    0.93180E-07         0.22745E-10         0.00000E+00
    0.93039E-07         0.40840E-10         0.00000E+00
    0.92934E-07         0.17144E-10         0.00000E+00
    0.92871E-07        -0.25221E-10         0.00000E+00
    0.92850E-07        -0.69506E-10         0.00000E+00
    0.92861E-07        -0.10561E-09         0.00000E+00
    0.92895E-07        -0.12883E-09         0.00000E+00
    0.92942E-07        -0.13811E-09         0.00000E+00
    0.92992E-07        -0.13438E-09         0.00000E+00
    0.93038E-07        -0.11958E-09         0.00000E+00
    0.93074E-07        -0.96261E-10         0.00000E+00
    0.93095E-07        -0.67750E-10         0.00000E+00
    0.93099E-07        -0.38513E-10         0.00000E+00
    0.93085E-07        -0.14381E-10         0.00000E+00
    0.93056E-07        -0.22040E-11         0.00000E+00
    0.13366E-06         0.21597E-10         0.00000E+00
    0.13345E-06         0.24266E-10         0.00000E+00
    0.13331E-06        -0.31521E-10         0.00000E+00
    0.13325E-06        -0.10707E-09         0.00000E+00
    0.13326E-06        -0.17703E-09         0.00000E+00
    0.13331E-06        -0.22830E-09         0.00000E+00
    0.13340E-06        -0.25666E-09         0.00000E+00
    0.13350E-06        -0.26295E-09         0.00000E+00
    0.13360E-06        -0.25004E-09         0.00000E+00
    0.13369E-06        -0.22125E-09         0.00000E+00
    0.13376E-06        -0.17997E-09         0.00000E+00
    0.13381E-06        -0.13036E-09         0.00000E+00
    0.13382E-06        -0.78488E-10         0.00000E+00
    0.13381E-06        -0.33366E-10         0.00000E+00
    0.13376E-06        -0.69103E-11         0.00000E+00
    0.19000E-06         0.86963E-11         0.00000E+00
    0.18970E-06        -0.30585E-10         0.00000E+00
    0.18953E-06        -0.14496E-09         0.00000E+00
    0.18950E-06        -0.27185E-09         0.00000E+00
    0.18957E-06        -0.37540E-09         0.00000E+00
    0.18971E-06        -0.44151E-09         0.00000E+00
    0.18989E-06        -0.46968E-09         0.00000E+00
    0.19007E-06        -0.46549E-09         0.00000E+00
    0.19026E-06        -0.43543E-09         0.00000E+00
    0.19042E-06        -0.38462E-09         0.00000E+00
    0.19056E-06        -0.31674E-09         0.00000E+00
    0.19065E-06        -0.23583E-09         0.00000E+00
    0.19069E-06        -0.14901E-09         0.00000E+00
    0.19068E-06        -0.69258E-10         0.00000E+00
    0.19061E-06        -0.16603E-10         0.00000E+00
    0.26748E-06        -0.30203E-10         0.00000E+00
    0.26706E-06        -0.16281E-09         0.00000E+00
    0.26689E-06        -0.37730E-09         0.00000E+00
    0.26695E-06        -0.57722E-09         0.00000E+00
    0.26715E-06        -0.71754E-09         0.00000E+00
    0.26744E-06        -0.78964E-09         0.00000E+00
    0.26777E-06        -0.80373E-09         0.00000E+00
    0.26810E-06        -0.77502E-09         0.00000E+00
    0.26841E-06        -0.71595E-09         0.00000E+00
    0.26869E-06        -0.63345E-09         0.00000E+00
    0.26892E-06        -0.52987E-09         0.00000E+00
    0.26909E-06        -0.40656E-09         0.00000E+00
    0.26919E-06        -0.26942E-09         0.00000E+00
    0.26918E-06        -0.13514E-09         0.00000E+00
    0.26908E-06        -0.35845E-10         0.00000E+00
    0.37264E-06        -0.12143E-09         0.00000E+00
    0.37209E-06        -0.44034E-09         0.00000E+00
    0.37201E-06        -0.81437E-09         0.00000E+00
    0.37227E-06        -0.11057E-08         0.00000E+00
    0.37272E-06        -0.12707E-08         0.00000E+00
    0.37326E-06        -0.13224E-08         0.00000E+00
    0.37382E-06        -0.12940E-08         0.00000E+00
    0.37435E-06        -0.12176E-08         0.00000E+00
    0.37485E-06        -0.11138E-08         0.00000E+00
    0.37529E-06        -0.99048E-09         0.00000E+00
    0.37567E-06        -0.84529E-09         0.00000E+00
    0.37597E-06        -0.67169E-09         0.00000E+00
    0.37615E-06        -0.46855E-09         0.00000E+00
    0.37619E-06        -0.25303E-09         0.00000E+00
    0.37604E-06        -0.72956E-10         0.00000E+00
    0.51336E-06        -0.31090E-09         0.00000E+00
    0.51275E-06        -0.97368E-09         0.00000E+00
    0.51292E-06        -0.15804E-08         0.00000E+00
    0.51358E-06        -0.19597E-08         0.00000E+00
    0.51446E-06        -0.21036E-08         0.00000E+00
    0.51539E-06        -0.20781E-08         0.00000E+00
    0.51627E-06        -0.19588E-08         0.00000E+00
    0.51709E-06        -0.18014E-08         0.00000E+00
    0.51782E-06        -0.16355E-08         0.00000E+00
    0.51849E-06        -0.14671E-08         0.00000E+00
    0.51908E-06        -0.12842E-08         0.00000E+00
    0.51957E-06        -0.10639E-08         0.00000E+00
    0.51992E-06        -0.78635E-09         0.00000E+00
    0.52005E-06        -0.45826E-09         0.00000E+00
    0.51987E-06        -0.14250E-09         0.00000E+00
    0.69881E-06        -0.67343E-09         0.00000E+00
    0.69836E-06        -0.19270E-08         0.00000E+00
    0.69914E-06        -0.28287E-08         0.00000E+00
    0.70052E-06        -0.32330E-08         0.00000E+00
    0.70206E-06        -0.32488E-08         0.00000E+00
    0.70352E-06        -0.30490E-08         0.00000E+00
    0.70484E-06        -0.27708E-08         0.00000E+00
    0.70600E-06        -0.24939E-08         0.00000E+00
    0.70703E-06        -0.22516E-08         0.00000E+00
    0.70797E-06        -0.20445E-08         0.00000E+00
    0.70884E-06        -0.18464E-08         0.00000E+00
    0.70962E-06        -0.16081E-08         0.00000E+00
    0.71025E-06        -0.12705E-08         0.00000E+00
    0.71058E-06        -0.80338E-09         0.00000E+00
    0.71042E-06        -0.26854E-09         0.00000E+00
    0.93926E-06        -0.13198E-08         0.00000E+00
    0.93954E-06        -0.35069E-08         0.00000E+00
    0.94155E-06        -0.46840E-08         0.00000E+00
    0.94411E-06        -0.49262E-08         0.00000E+00
    0.94657E-06        -0.46254E-08         0.00000E+00
    0.94870E-06        -0.41249E-08         0.00000E+00
    0.95050E-06        -0.36192E-08         0.00000E+00
    0.95205E-06        -0.31932E-08         0.00000E+00
    0.95342E-06        -0.28723E-08         0.00000E+00
    0.95467E-06        -0.26474E-08         0.00000E+00
    0.95587E-06        -0.24801E-08         0.00000E+00
    0.95703E-06        -0.22914E-08         0.00000E+00
    0.95809E-06        -0.19579E-08         0.00000E+00
    0.95882E-06        -0.13558E-08         0.00000E+00
    0.95885E-06        -0.48725E-09         0.00000E+00
    0.12457E-05        -0.23817E-08         0.00000E+00
    0.12480E-05        -0.58698E-08         0.00000E+00
    0.12523E-05        -0.70574E-08         0.00000E+00
    0.12565E-05        -0.67637E-08         0.00000E+00
    0.12600E-05        -0.59213E-08         0.00000E+00
    0.12628E-05        -0.50307E-08         0.00000E+00
    0.12651E-05        -0.42753E-08         0.00000E+00
    0.12671E-05        -0.37071E-08         0.00000E+00
    0.12688E-05        -0.33273E-08         0.00000E+00
    0.12703E-05        -0.31162E-08         0.00000E+00
    0.12719E-05        -0.30349E-08         0.00000E+00
    0.12735E-05        -0.30010E-08         0.00000E+00
    0.12751E-05        -0.28170E-08         0.00000E+00
    0.12766E-05        -0.21713E-08         0.00000E+00
    0.12772E-05        -0.84506E-09         0.00000E+00
    0.16295E-05        -0.39183E-08         0.00000E+00
    0.16363E-05        -0.87575E-08         0.00000E+00
    0.16442E-05        -0.91786E-08         0.00000E+00
    0.16503E-05        -0.79302E-08         0.00000E+00
    0.16547E-05        -0.65095E-08         0.00000E+00
    0.16581E-05        -0.53048E-08         0.00000E+00
    0.16609E-05        -0.43914E-08         0.00000E+00
    0.16631E-05        -0.37557E-08         0.00000E+00
    0.16651E-05        -0.33673E-08         0.00000E+00
    0.16669E-05        -0.31999E-08         0.00000E+00
    0.16687E-05        -0.32301E-08         0.00000E+00
    0.16707E-05        -0.34127E-08         0.00000E+00
    0.16731E-05        -0.35996E-08         0.00000E+00
    0.16757E-05        -0.31964E-08         0.00000E+00
    0.16777E-05        -0.13638E-08         0.00000E+00
    0.21023E-05        -0.52825E-08         0.00000E+00
    0.21184E-05        -0.10241E-07         0.00000E+00
    0.21301E-05        -0.89435E-08         0.00000E+00
    0.21374E-05        -0.70845E-08         0.00000E+00
    0.21424E-05        -0.55347E-08         0.00000E+00
    0.21461E-05        -0.43766E-08         0.00000E+00
    0.21491E-05        -0.35578E-08         0.00000E+00
    0.21516E-05        -0.30150E-08         0.00000E+00
    0.21537E-05        -0.27021E-08         0.00000E+00
    0.21558E-05        -0.25951E-08         0.00000E+00
    0.21577E-05        -0.26904E-08         0.00000E+00
    0.21599E-05        -0.29942E-08         0.00000E+00
    0.21626E-05        -0.34888E-08         0.00000E+00
    0.21669E-05        -0.38923E-08         0.00000E+00
    0.21719E-05        -0.20020E-08         0.00000E+00
    0.26784E-05        -0.28518E-08         0.00000E+00
    0.27077E-05        -0.50849E-08         0.00000E+00
    0.27202E-05        -0.39190E-08         0.00000E+00
    0.27278E-05        -0.29722E-08         0.00000E+00
    0.27329E-05        -0.22624E-08         0.00000E+00
    0.27368E-05        -0.17626E-08         0.00000E+00
    0.27399E-05        -0.14204E-08         0.00000E+00
    0.27425E-05        -0.11986E-08         0.00000E+00
    0.27447E-05        -0.10741E-08         0.00000E+00
    0.27468E-05        -0.10370E-08         0.00000E+00
    0.27489E-05        -0.10892E-08         0.00000E+00
    0.27511E-05        -0.12464E-08         0.00000E+00
    0.27539E-05        -0.15227E-08         0.00000E+00
    0.27581E-05        -0.20111E-08         0.00000E+00
    0.27685E-05        -0.11670E-08         0.00000E+00
POINT_DATA        496
VECTORS vDarcyNodal double 
    0.18675E-10         0.15729E-13         0.00000E+00
    0.18672E-10         0.30425E-13         0.00000E+00
    0.18664E-10         0.57490E-13         0.00000E+00
    0.18653E-10         0.79520E-13         0.00000E+00
    0.18639E-10         0.96023E-13         0.00000E+00
    0.18624E-10         0.10698E-12         0.00000E+00
    0.18608E-10         0.11271E-12         0.00000E+00
    0.18592E-10         0.11371E-12         0.00000E+00
    0.18577E-10         0.11055E-12         0.00000E+00
    0.18562E-10         0.10378E-12         0.00000E+00
    0.18548E-10         0.93827E-13         0.00000E+00
    0.18536E-10         0.80948E-13         0.00000E+00
    0.18526E-10         0.65230E-13         0.00000E+00
    0.18518E-10         0.46560E-13         0.00000E+00
    0.18512E-10         0.24618E-13         0.00000E+00
    0.18509E-10         0.12777E-13         0.00000E+00
    0.39225E-10         0.17783E-13         0.00000E+00
    0.39219E-10         0.34343E-13         0.00000E+00
    0.39202E-10         0.64733E-13         0.00000E+00
    0.39178E-10         0.89260E-13         0.00000E+00
    0.39148E-10         0.10744E-12         0.00000E+00
    0.39116E-10         0.11931E-12         0.00000E+00
    0.39083E-10         0.12530E-12         0.00000E+00
    0.39049E-10         0.12605E-12         0.00000E+00
    0.39016E-10         0.12223E-12         0.00000E+00
    0.38985E-10         0.11449E-12         0.00000E+00
    0.38957E-10         0.10330E-12         0.00000E+00
    0.38932E-10         0.88985E-13         0.00000E+00
    0.38911E-10         0.71621E-13         0.00000E+00
    0.38893E-10         0.51079E-13         0.00000E+00
    0.38881E-10         0.26994E-13         0.00000E+00
    0.38875E-10         0.14007E-13         0.00000E+00
    0.86299E-10         0.24481E-13         0.00000E+00
    0.86284E-10         0.47095E-13         0.00000E+00
    0.86245E-10         0.88240E-13         0.00000E+00
    0.86191E-10         0.12077E-12         0.00000E+00
    0.86125E-10         0.14422E-12         0.00000E+00
    0.86053E-10         0.15890E-12         0.00000E+00
    0.85979E-10         0.16562E-12         0.00000E+00
    0.85904E-10         0.16543E-12         0.00000E+00
    0.85832E-10         0.15940E-12         0.00000E+00
    0.85765E-10         0.14847E-12         0.00000E+00
    0.85703E-10         0.13334E-12         0.00000E+00
    0.85649E-10         0.11443E-12         0.00000E+00
    0.85602E-10         0.91844E-13         0.00000E+00
    0.85564E-10         0.65369E-13         0.00000E+00
    0.85536E-10         0.34504E-13         0.00000E+00
    0.85525E-10         0.17892E-13         0.00000E+00
    0.15053E-09         0.37554E-13         0.00000E+00
    0.15050E-09         0.71900E-13         0.00000E+00
    0.15043E-09         0.13373E-12         0.00000E+00
    0.15033E-09         0.18133E-12         0.00000E+00
    0.15021E-09         0.21446E-12         0.00000E+00
    0.15008E-09         0.23401E-12         0.00000E+00
    0.14995E-09         0.24164E-12         0.00000E+00
    0.14982E-09         0.23925E-12         0.00000E+00
    0.14970E-09         0.22871E-12         0.00000E+00
    0.14958E-09         0.21157E-12         0.00000E+00
    0.14947E-09         0.18894E-12         0.00000E+00
    0.14938E-09         0.16143E-12         0.00000E+00
    0.14930E-09         0.12913E-12         0.00000E+00
    0.14923E-09         0.91702E-13         0.00000E+00
    0.14918E-09         0.48339E-13         0.00000E+00
    0.14916E-09         0.25049E-13         0.00000E+00
    0.24437E-09         0.60329E-13         0.00000E+00
    0.24432E-09         0.11491E-12         0.00000E+00
    0.24420E-09         0.21204E-12         0.00000E+00
    0.24403E-09         0.28468E-12         0.00000E+00
    0.24383E-09         0.33319E-12         0.00000E+00
    0.24362E-09         0.35980E-12         0.00000E+00
    0.24340E-09         0.36781E-12         0.00000E+00
    0.24319E-09         0.36077E-12         0.00000E+00
    0.24298E-09         0.34198E-12         0.00000E+00
    0.24280E-09         0.31409E-12         0.00000E+00
    0.24263E-09         0.27888E-12         0.00000E+00
    0.24248E-09         0.23722E-12         0.00000E+00
    0.24235E-09         0.18919E-12         0.00000E+00
    0.24224E-09         0.13408E-12         0.00000E+00
    0.24217E-09         0.70601E-13         0.00000E+00
    0.24214E-09         0.36566E-13         0.00000E+00
    0.38566E-09         0.98469E-13         0.00000E+00
    0.38557E-09         0.18654E-12         0.00000E+00
    0.38536E-09         0.34132E-12         0.00000E+00
    0.38508E-09         0.45342E-12         0.00000E+00
    0.38476E-09         0.52482E-12         0.00000E+00
    0.38441E-09         0.56048E-12         0.00000E+00
    0.38407E-09         0.56682E-12         0.00000E+00
    0.38373E-09         0.55045E-12         0.00000E+00
    0.38342E-09         0.51719E-12         0.00000E+00
    0.38312E-09         0.47151E-12         0.00000E+00
    0.38286E-09         0.41625E-12         0.00000E+00
    0.38263E-09         0.35264E-12         0.00000E+00
    0.38243E-09         0.28051E-12         0.00000E+00
    0.38227E-09         0.19853E-12         0.00000E+00
    0.38216E-09         0.10447E-12         0.00000E+00
    0.38211E-09         0.54098E-13         0.00000E+00
    0.60068E-09         0.16118E-12         0.00000E+00
    0.60054E-09         0.30355E-12         0.00000E+00
    0.60018E-09         0.55042E-12         0.00000E+00
    0.59972E-09         0.72286E-12         0.00000E+00
    0.59919E-09         0.82664E-12         0.00000E+00
    0.59864E-09         0.87215E-12         0.00000E+00
    0.59810E-09         0.87171E-12         0.00000E+00
    0.59758E-09         0.83736E-12         0.00000E+00
    0.59709E-09         0.77929E-12         0.00000E+00
    0.59665E-09         0.70496E-12         0.00000E+00
    0.59625E-09         0.61878E-12         0.00000E+00
    0.59590E-09         0.52231E-12         0.00000E+00
    0.59561E-09         0.41471E-12         0.00000E+00
    0.59537E-09         0.29336E-12         0.00000E+00
    0.59519E-09         0.15440E-12         0.00000E+00
    0.59512E-09         0.79975E-13         0.00000E+00
    0.92857E-09         0.26305E-12         0.00000E+00
    0.92832E-09         0.49229E-12         0.00000E+00
    0.92772E-09         0.88386E-12         0.00000E+00
    0.92696E-09         0.11462E-11         0.00000E+00
    0.92612E-09         0.12933E-11         0.00000E+00
    0.92525E-09         0.13461E-11         0.00000E+00
    0.92441E-09         0.13278E-11         0.00000E+00
    0.92361E-09         0.12599E-11         0.00000E+00
    0.92288E-09         0.11601E-11         0.00000E+00
    0.92222E-09         0.10407E-11         0.00000E+00
    0.92163E-09         0.90826E-12         0.00000E+00
    0.92112E-09         0.76429E-12         0.00000E+00
    0.92068E-09         0.60637E-12         0.00000E+00
    0.92032E-09         0.42928E-12         0.00000E+00
    0.92005E-09         0.22623E-12         0.00000E+00
    0.91994E-09         0.11730E-12         0.00000E+00
    0.14276E-08         0.42678E-12         0.00000E+00
    0.14272E-08         0.79318E-12         0.00000E+00
    0.14262E-08         0.14087E-11         0.00000E+00
    0.14250E-08         0.18013E-11         0.00000E+00
    0.14236E-08         0.20019E-11         0.00000E+00
    0.14223E-08         0.20514E-11         0.00000E+00
    0.14210E-08         0.19928E-11         0.00000E+00
    0.14198E-08         0.18642E-11         0.00000E+00
    0.14187E-08         0.16957E-11         0.00000E+00
    0.14177E-08         0.15070E-11         0.00000E+00
    0.14169E-08         0.13076E-11         0.00000E+00
    0.14161E-08         0.10979E-11         0.00000E+00
    0.14155E-08         0.87173E-12         0.00000E+00
    0.14150E-08         0.61887E-12         0.00000E+00
    0.14146E-08         0.32713E-12         0.00000E+00
    0.14144E-08         0.16998E-12         0.00000E+00
    0.21845E-08         0.68692E-12         0.00000E+00
    0.21837E-08         0.12670E-11         0.00000E+00
    0.21821E-08         0.22229E-11         0.00000E+00
    0.21801E-08         0.27975E-11         0.00000E+00
    0.21780E-08         0.30551E-11         0.00000E+00
    0.21759E-08         0.30741E-11         0.00000E+00
    0.21739E-08         0.29323E-11         0.00000E+00
    0.21722E-08         0.26967E-11         0.00000E+00
    0.21706E-08         0.24173E-11         0.00000E+00
    0.21692E-08         0.21252E-11         0.00000E+00
    0.21680E-08         0.18330E-11         0.00000E+00
    0.21669E-08         0.15376E-11         0.00000E+00
    0.21660E-08         0.12250E-11         0.00000E+00
    0.21652E-08         0.87480E-12         0.00000E+00
    0.21647E-08         0.46506E-12         0.00000E+00
    0.21644E-08         0.24260E-12         0.00000E+00
    0.33270E-08         0.10950E-11         0.00000E+00
    0.33257E-08         0.20025E-11         0.00000E+00
    0.33230E-08         0.34654E-11         0.00000E+00
    0.33198E-08         0.42815E-11         0.00000E+00
    0.33165E-08         0.45803E-11         0.00000E+00
    0.33133E-08         0.45084E-11         0.00000E+00
    0.33105E-08         0.42047E-11         0.00000E+00
    0.33079E-08         0.37845E-11         0.00000E+00
    0.33057E-08         0.33303E-11         0.00000E+00
    0.33038E-08         0.28895E-11         0.00000E+00
    0.33021E-08         0.24768E-11         0.00000E+00
    0.33006E-08         0.20804E-11         0.00000E+00
    0.32993E-08         0.16699E-11         0.00000E+00
    0.32982E-08         0.12056E-11         0.00000E+00
    0.32974E-08         0.64731E-12         0.00000E+00
    0.32970E-08         0.33993E-12         0.00000E+00
    0.50428E-08         0.17255E-11         0.00000E+00
    0.50407E-08         0.31253E-11         0.00000E+00
    0.50361E-08         0.53236E-11         0.00000E+00
    0.50310E-08         0.64356E-11         0.00000E+00
    0.50260E-08         0.67145E-11         0.00000E+00
    0.50213E-08         0.64288E-11         0.00000E+00
    0.50172E-08         0.58232E-11         0.00000E+00
    0.50136E-08         0.50926E-11         0.00000E+00
    0.50106E-08         0.43701E-11         0.00000E+00
    0.50080E-08         0.37256E-11         0.00000E+00
    0.50058E-08         0.31726E-11         0.00000E+00
    0.50038E-08         0.26790E-11         0.00000E+00
    0.50020E-08         0.21824E-11         0.00000E+00
    0.50005E-08         0.16064E-11         0.00000E+00
    0.49992E-08         0.87723E-12         0.00000E+00
    0.49987E-08         0.46576E-12         0.00000E+00
    0.76049E-08         0.26824E-11         0.00000E+00
    0.76014E-08         0.48047E-11         0.00000E+00
    0.75939E-08         0.80328E-11         0.00000E+00
    0.75860E-08         0.94578E-11         0.00000E+00
    0.75783E-08         0.95608E-11         0.00000E+00
    0.75715E-08         0.88265E-11         0.00000E+00
    0.75657E-08         0.76778E-11         0.00000E+00
    0.75610E-08         0.64382E-11         0.00000E+00
    0.75571E-08         0.53174E-11         0.00000E+00
    0.75538E-08         0.44139E-11         0.00000E+00
    0.75510E-08         0.37300E-11         0.00000E+00
    0.75485E-08         0.31925E-11         0.00000E+00
    0.75461E-08         0.26780E-11         0.00000E+00
    0.75440E-08         0.20420E-11         0.00000E+00
    0.75422E-08         0.11479E-11         0.00000E+00
    0.75414E-08         0.62063E-12         0.00000E+00
    0.11407E-07         0.41025E-11         0.00000E+00
    0.11402E-07         0.72523E-11         0.00000E+00
    0.11389E-07         0.11854E-10         0.00000E+00
    0.11377E-07         0.13501E-10         0.00000E+00
    0.11366E-07         0.13089E-10         0.00000E+00
    0.11356E-07         0.11477E-10         0.00000E+00
    0.11348E-07         0.93832E-11         0.00000E+00
    0.11342E-07         0.73321E-11         0.00000E+00
    0.11338E-07         0.56443E-11         0.00000E+00
    0.11334E-07         0.44500E-11         0.00000E+00
    0.11331E-07         0.37191E-11         0.00000E+00
    0.11328E-07         0.32984E-11         0.00000E+00
    0.11325E-07         0.29533E-11         0.00000E+00
    0.11322E-07         0.24146E-11         0.00000E+00
    0.11319E-07         0.14300E-11         0.00000E+00
    0.11318E-07         0.79735E-12         0.00000E+00
    0.17013E-07         0.61508E-11         0.00000E+00
    0.17004E-07         0.10700E-10         0.00000E+00
    0.16984E-07         0.17000E-10         0.00000E+00
    0.16966E-07         0.18531E-10         0.00000E+00
    0.16949E-07         0.16929E-10         0.00000E+00
    0.16936E-07         0.13689E-10         0.00000E+00
    0.16927E-07         0.10003E-10         0.00000E+00
    0.16920E-07         0.66999E-11         0.00000E+00
    0.16915E-07         0.42513E-11         0.00000E+00
    0.16911E-07         0.28107E-11         0.00000E+00
    0.16908E-07         0.22742E-11         0.00000E+00
    0.16905E-07         0.23421E-11         0.00000E+00
    0.16902E-07         0.25835E-11         0.00000E+00
    0.16898E-07         0.25079E-11         0.00000E+00
    0.16894E-07         0.16505E-11         0.00000E+00
    0.16892E-07         0.97278E-12         0.00000E+00
    0.25218E-07         0.89932E-11         0.00000E+00
    0.25203E-07         0.15331E-10         0.00000E+00
    0.25173E-07         0.23463E-10         0.00000E+00
    0.25145E-07         0.24033E-10         0.00000E+00
    0.25122E-07         0.19981E-10         0.00000E+00
    0.25105E-07         0.13850E-10         0.00000E+00
    0.25094E-07         0.75752E-11         0.00000E+00
    0.25088E-07         0.24202E-11         0.00000E+00
    0.25084E-07        -0.96144E-12         0.00000E+00
    0.25083E-07        -0.24247E-11         0.00000E+00
    0.25081E-07        -0.22228E-11         0.00000E+00
    0.25079E-07        -0.90907E-12         0.00000E+00
    0.25075E-07         0.75277E-12         0.00000E+00
    0.25071E-07         0.18901E-11         0.00000E+00
    0.25065E-07         0.16540E-11         0.00000E+00
    0.25062E-07         0.10926E-11         0.00000E+00
    0.37136E-07         0.12721E-10         0.00000E+00
    0.37111E-07         0.21107E-10         0.00000E+00
    0.37064E-07         0.30637E-10         0.00000E+00
    0.37024E-07         0.28445E-10         0.00000E+00
    0.36994E-07         0.19706E-10         0.00000E+00
    0.36974E-07         0.86630E-11         0.00000E+00
    0.36964E-07        -0.16522E-11         0.00000E+00
    0.36961E-07        -0.93999E-11         0.00000E+00
    0.36962E-07        -0.13749E-10         0.00000E+00
    0.36966E-07        -0.14649E-10         0.00000E+00
    0.36968E-07        -0.12627E-10         0.00000E+00
    0.36969E-07        -0.86520E-11         0.00000E+00
    0.36966E-07        -0.40231E-11         0.00000E+00
    0.36960E-07        -0.25073E-12         0.00000E+00
    0.36952E-07         0.11333E-11         0.00000E+00
    0.36947E-07         0.10429E-11         0.00000E+00
    0.54301E-07         0.17179E-10         0.00000E+00
    0.54262E-07         0.27410E-10         0.00000E+00
    0.54190E-07         0.36591E-10         0.00000E+00
    0.54133E-07         0.28119E-10         0.00000E+00
    0.54096E-07         0.10931E-10         0.00000E+00
    0.54077E-07        -0.80937E-11         0.00000E+00
    0.54073E-07        -0.24395E-10         0.00000E+00
    0.54080E-07        -0.35482E-10         0.00000E+00
    0.54092E-07        -0.40457E-10         0.00000E+00
    0.54107E-07        -0.39540E-10         0.00000E+00
    0.54119E-07        -0.33731E-10         0.00000E+00
    0.54126E-07        -0.24625E-10         0.00000E+00
    0.54126E-07        -0.14332E-10         0.00000E+00
    0.54120E-07        -0.53823E-11         0.00000E+00
    0.54107E-07        -0.49334E-12         0.00000E+00
    0.54099E-07         0.59507E-12         0.00000E+00
    0.78799E-07         0.21598E-10         0.00000E+00
    0.78739E-07         0.32318E-10         0.00000E+00
    0.78632E-07         0.36706E-10         0.00000E+00
    0.78557E-07         0.15541E-10         0.00000E+00
    0.78516E-07        -0.16090E-10         0.00000E+00
    0.78506E-07        -0.47418E-10         0.00000E+00
    0.78518E-07        -0.71982E-10         0.00000E+00
    0.78546E-07        -0.86785E-10         0.00000E+00
    0.78581E-07        -0.91214E-10         0.00000E+00
    0.78616E-07        -0.86106E-10         0.00000E+00
    0.78647E-07        -0.73192E-10         0.00000E+00
    0.78667E-07        -0.54924E-10         0.00000E+00
    0.78675E-07        -0.34531E-10         0.00000E+00
    0.78668E-07        -0.16085E-10         0.00000E+00
    0.78649E-07        -0.43050E-11         0.00000E+00
    0.78637E-07        -0.69863E-12         0.00000E+00
    0.11342E-06         0.23888E-10         0.00000E+00
    0.11333E-06         0.31262E-10         0.00000E+00
    0.11318E-06         0.21279E-10         0.00000E+00
    0.11308E-06        -0.23602E-10         0.00000E+00
    0.11305E-06        -0.78605E-10         0.00000E+00
    0.11307E-06        -0.12765E-09         0.00000E+00
    0.11311E-06        -0.16241E-09         0.00000E+00
    0.11318E-06        -0.18011E-09         0.00000E+00
    0.11326E-06        -0.18123E-09         0.00000E+00
    0.11333E-06        -0.16781E-09         0.00000E+00
    0.11339E-06        -0.14262E-09         0.00000E+00
    0.11344E-06        -0.10907E-09         0.00000E+00
    0.11346E-06        -0.71719E-10         0.00000E+00
    0.11346E-06        -0.36802E-10         0.00000E+00
    0.11343E-06        -0.12277E-10         0.00000E+00
    0.11341E-06        -0.37081E-11         0.00000E+00
    0.16183E-06         0.19304E-10         0.00000E+00
    0.16169E-06         0.14605E-10         0.00000E+00
    0.16148E-06        -0.28507E-10         0.00000E+00
    0.16138E-06        -0.11493E-09         0.00000E+00
    0.16139E-06        -0.20540E-09         0.00000E+00
    0.16146E-06        -0.27756E-09         0.00000E+00
    0.16158E-06        -0.32243E-09         0.00000E+00
    0.16172E-06        -0.33939E-09         0.00000E+00
    0.16186E-06        -0.33167E-09         0.00000E+00
    0.16200E-06        -0.30340E-09         0.00000E+00
    0.16211E-06        -0.25854E-09         0.00000E+00
    0.16220E-06        -0.20122E-09         0.00000E+00
    0.16225E-06        -0.13710E-09         0.00000E+00
    0.16226E-06        -0.75035E-10         0.00000E+00
    0.16222E-06        -0.27992E-10         0.00000E+00
    0.16219E-06        -0.10109E-10         0.00000E+00
    0.22872E-06        -0.19001E-11         0.00000E+00
    0.22854E-06        -0.36452E-10         0.00000E+00
    0.22827E-06        -0.14692E-09         0.00000E+00
    0.22820E-06        -0.30168E-09         0.00000E+00
    0.22828E-06        -0.44160E-09         0.00000E+00
    0.22847E-06        -0.53909E-09         0.00000E+00
    0.22871E-06        -0.58851E-09         0.00000E+00
    0.22896E-06        -0.59555E-09         0.00000E+00
    0.22922E-06        -0.56907E-09         0.00000E+00
    0.22945E-06        -0.51650E-09         0.00000E+00
    0.22965E-06        -0.44270E-09         0.00000E+00
    0.22981E-06        -0.35127E-09         0.00000E+00
    0.22992E-06        -0.24769E-09         0.00000E+00
    0.22995E-06        -0.14320E-09         0.00000E+00
    0.22990E-06        -0.57855E-10         0.00000E+00
    0.22985E-06        -0.23090E-10         0.00000E+00
    0.32002E-06        -0.58434E-10         0.00000E+00
    0.31977E-06        -0.15639E-09         0.00000E+00
    0.31947E-06        -0.39281E-09         0.00000E+00
    0.31951E-06        -0.65231E-09         0.00000E+00
    0.31977E-06        -0.85256E-09         0.00000E+00
    0.32015E-06        -0.96751E-09         0.00000E+00
    0.32058E-06        -0.10043E-08         0.00000E+00
    0.32102E-06        -0.98275E-09         0.00000E+00
    0.32144E-06        -0.92154E-09         0.00000E+00
    0.32182E-06        -0.83260E-09         0.00000E+00
    0.32215E-06        -0.72038E-09         0.00000E+00
    0.32242E-06        -0.58499E-09         0.00000E+00
    0.32262E-06        -0.42817E-09         0.00000E+00
    0.32270E-06        -0.26129E-09         0.00000E+00
    0.32264E-06        -0.11310E-09         0.00000E+00
    0.32258E-06        -0.48585E-10         0.00000E+00
    0.44290E-06        -0.18416E-09         0.00000E+00
    0.44262E-06        -0.40484E-09         0.00000E+00
    0.44239E-06        -0.86087E-09         0.00000E+00
    0.44267E-06        -0.12664E-08         0.00000E+00
    0.44326E-06        -0.15225E-08         0.00000E+00
    0.44398E-06        -0.16244E-08         0.00000E+00
    0.44471E-06        -0.16110E-08         0.00000E+00
    0.44540E-06        -0.15280E-08         0.00000E+00
    0.44604E-06        -0.14092E-08         0.00000E+00
    0.44662E-06        -0.12711E-08         0.00000E+00
    0.44714E-06        -0.11150E-08         0.00000E+00
    0.44758E-06        -0.93165E-09         0.00000E+00
    0.44792E-06        -0.71182E-09         0.00000E+00
    0.44811E-06        -0.46014E-09         0.00000E+00
    0.44807E-06        -0.21282E-09         0.00000E+00
    0.44799E-06        -0.97294E-10         0.00000E+00
    0.60590E-06        -0.43682E-09         0.00000E+00
    0.60567E-06        -0.87824E-09         0.00000E+00
    0.60572E-06        -0.16906E-08         0.00000E+00
    0.60654E-06        -0.22708E-08         0.00000E+00
    0.60769E-06        -0.25382E-08         0.00000E+00
    0.60890E-06        -0.25551E-08         0.00000E+00
    0.61004E-06        -0.24240E-08         0.00000E+00
    0.61108E-06        -0.22308E-08         0.00000E+00
    0.61200E-06        -0.20266E-08         0.00000E+00
    0.61284E-06        -0.18304E-08         0.00000E+00
    0.61360E-06        -0.16355E-08         0.00000E+00
    0.61428E-06        -0.14158E-08         0.00000E+00
    0.61486E-06        -0.11380E-08         0.00000E+00
    0.61523E-06        -0.78415E-09         0.00000E+00
    0.61529E-06        -0.38780E-09         0.00000E+00
    0.61521E-06        -0.18764E-09         0.00000E+00
    0.81871E-06        -0.90781E-09         0.00000E+00
    0.81876E-06        -0.17184E-08         0.00000E+00
    0.81958E-06        -0.30594E-08         0.00000E+00
    0.82137E-06        -0.37852E-08         0.00000E+00
    0.82340E-06        -0.39388E-08         0.00000E+00
    0.82529E-06        -0.37390E-08         0.00000E+00
    0.82695E-06        -0.33929E-08         0.00000E+00
    0.82838E-06        -0.30316E-08         0.00000E+00
    0.82964E-06        -0.27171E-08         0.00000E+00
    0.83078E-06        -0.24641E-08         0.00000E+00
    0.83183E-06        -0.22541E-08         0.00000E+00
    0.83283E-06        -0.20375E-08         0.00000E+00
    0.83374E-06        -0.17396E-08         0.00000E+00
    0.83447E-06        -0.12891E-08         0.00000E+00
    0.83475E-06        -0.68380E-09         0.00000E+00
    0.83475E-06        -0.34929E-09         0.00000E+00
    0.10920E-05        -0.17263E-08         0.00000E+00
    0.10928E-05        -0.30999E-08         0.00000E+00
    0.10953E-05        -0.51202E-08         0.00000E+00
    0.10987E-05        -0.58150E-08         0.00000E+00
    0.11019E-05        -0.56052E-08         0.00000E+00
    0.11046E-05        -0.50058E-08         0.00000E+00
    0.11069E-05        -0.43471E-08         0.00000E+00
    0.11087E-05        -0.37775E-08         0.00000E+00
    0.11103E-05        -0.33458E-08         0.00000E+00
    0.11118E-05        -0.30533E-08         0.00000E+00
    0.11132E-05        -0.28713E-08         0.00000E+00
    0.11145E-05        -0.27320E-08         0.00000E+00
    0.11159E-05        -0.25079E-08         0.00000E+00
    0.11172E-05        -0.20233E-08         0.00000E+00
    0.11180E-05        -0.11585E-08         0.00000E+00
    0.11182E-05        -0.62486E-09         0.00000E+00
    0.14368E-05        -0.30251E-08         0.00000E+00
    0.14396E-05        -0.51351E-08         0.00000E+00
    0.14454E-05        -0.77882E-08         0.00000E+00
    0.14510E-05        -0.79923E-08         0.00000E+00
    0.14555E-05        -0.70707E-08         0.00000E+00
    0.14590E-05        -0.59400E-08         0.00000E+00
    0.14618E-05        -0.49544E-08         0.00000E+00
    0.14641E-05        -0.42013E-08         0.00000E+00
    0.14660E-05        -0.36855E-08         0.00000E+00
    0.14678E-05        -0.33874E-08         0.00000E+00
    0.14694E-05        -0.32770E-08         0.00000E+00
    0.14711E-05        -0.33009E-08         0.00000E+00
    0.14730E-05        -0.33070E-08         0.00000E+00
    0.14751E-05        -0.29623E-08         0.00000E+00
    0.14770E-05        -0.18563E-08         0.00000E+00
    0.14777E-05        -0.10645E-08         0.00000E+00
    0.18652E-05        -0.47895E-08         0.00000E+00
    0.18716E-05        -0.75162E-08         0.00000E+00
    0.18827E-05        -0.10127E-07         0.00000E+00
    0.18907E-05        -0.91054E-08         0.00000E+00
    0.18962E-05        -0.73628E-08         0.00000E+00
    0.19003E-05        -0.58702E-08         0.00000E+00
    0.19035E-05        -0.47388E-08         0.00000E+00
    0.19061E-05        -0.39435E-08         0.00000E+00
    0.19084E-05        -0.34353E-08         0.00000E+00
    0.19104E-05        -0.31776E-08         0.00000E+00
    0.19123E-05        -0.31505E-08         0.00000E+00
    0.19142E-05        -0.33388E-08         0.00000E+00
    0.19165E-05        -0.37012E-08         0.00000E+00
    0.19194E-05        -0.38290E-08         0.00000E+00
    0.19231E-05        -0.27008E-08         0.00000E+00
    0.19251E-05        -0.16616E-08         0.00000E+00
    0.23915E-05        -0.57610E-08         0.00000E+00
    0.24024E-05        -0.79997E-08         0.00000E+00
    0.24191E-05        -0.90609E-08         0.00000E+00
    0.24287E-05        -0.69296E-08         0.00000E+00
    0.24349E-05        -0.52618E-08         0.00000E+00
    0.24394E-05        -0.40450E-08         0.00000E+00
    0.24429E-05        -0.31984E-08         0.00000E+00
    0.24457E-05        -0.26315E-08         0.00000E+00
    0.24481E-05        -0.22834E-08         0.00000E+00
    0.24502E-05        -0.21209E-08         0.00000E+00
    0.24523E-05        -0.21359E-08         0.00000E+00
    0.24545E-05        -0.23461E-08         0.00000E+00
    0.24570E-05        -0.27810E-08         0.00000E+00
    0.24604E-05        -0.35480E-08         0.00000E+00
    0.24661E-05        -0.31887E-08         0.00000E+00
    0.24698E-05        -0.23396E-08         0.00000E+00
    0.26813E-05         0.00000E+00         0.00000E+00
    0.26942E-05         0.00000E+00         0.00000E+00
    0.27134E-05        -0.75471E-20         0.00000E+00
    0.27235E-05         0.46805E-22         0.00000E+00
    0.27300E-05         0.75872E-20         0.00000E+00
    0.27346E-05         0.00000E+00         0.00000E+00
    0.27382E-05         0.00000E+00         0.00000E+00
    0.27411E-05        -0.76702E-20         0.00000E+00
    0.27435E-05        -0.89486E-20         0.00000E+00
    0.27458E-05         0.89772E-20         0.00000E+00
    0.27479E-05         0.76947E-20         0.00000E+00
    0.27501E-05        -0.77193E-20         0.00000E+00
    0.27527E-05        -0.25601E-20         0.00000E+00
    0.27562E-05         0.77421E-20         0.00000E+00
    0.27629E-05         0.25855E-20         0.00000E+00
    0.27673E-05         0.00000E+00         0.00000E+00
CELL_DATA        450
TENSORS stressef double 
    0.22724E+07         0.47559E+04         0.00000E+00
    0.47559E+04         0.44282E+04         0.00000E+00
    0.00000E+00         0.00000E+00         0.00000E+00
 
    0.21897E+07         0.13033E+05         0.00000E+00
    0.13033E+05         0.22209E+05         0.00000E+00
    0.00000E+00         0.00000E+00         0.00000E+00
 
    0.20771E+07         0.19753E+05         0.00000E+00
    0.19753E+05         0.54974E+05         0.00000E+00
    0.00000E+00         0.00000E+00         0.00000E+00
 
    0.19408E+07         0.25057E+05         0.00000E+00
    0.25057E+05         0.99745E+05         0.00000E+00
    0.00000E+00         0.00000E+00         0.00000E+00
 
    0.17864E+07         0.29115E+05         0.00000E+00
    0.29115E+05         0.15386E+06         0.00000E+00
    0.00000E+00         0.00000E+00         0.00000E+00
 
    0.16191E+07         0.32109E+05         0.00000E+00
    0.32109E+05         0.21502E+06         0.00000E+00
    0.00000E+00         0.00000E+00         0.00000E+00
 
    0.14432E+07         0.34220E+05         0.00000E+00
    0.34220E+05         0.28126E+06         0.00000E+00
    0.00000E+00         0.00000E+00         0.00000E+00
 
    0.12626E+07         0.35615E+05         0.00000E+00
    0.35615E+05         0.35101E+06         0.00000E+00
    0.00000E+00         0.00000E+00         0.00000E+00
 
    0.10805E+07         0.36446E+05         0.00000E+00
    0.36446E+05         0.42298E+06         0.00000E+00
    0.00000E+00         0.00000E+00         0.00000E+00
 
    0.89968E+06         0.36845E+05         0.00000E+00
    0.36845E+05         0.49619E+06         0.00000E+00
    0.00000E+00         0.00000E+00         0.00000E+00
 
    0.72229E+06         0.36927E+05         0.00000E+00
    0.36927E+05         0.56988E+06         0.00000E+00
    0.00000E+00         0.00000E+00         0.00000E+00
 
    0.55004E+06         0.36793E+05         0.00000E+00
    0.36793E+05         0.64353E+06         0.00000E+00
    0.00000E+00         0.00000E+00         0.00000E+00
 
    0.38414E+06         0.36541E+05         0.00000E+00
    0.36541E+05         0.71680E+06         0.00000E+00
    0.00000E+00         0.00000E+00         0.00000E+00
 
    0.22534E+06         0.36271E+05         0.00000E+00
    0.36271E+05         0.78957E+06         0.00000E+00
    0.00000E+00         0.00000E+00         0.00000E+00
 
    0.73891E+05         0.36095E+05         0.00000E+00
    0.36095E+05         0.86189E+06         0.00000E+00
    0.00000E+00         0.00000E+00         0.00000E+00
 
    0.22905E+07         0.14256E+05         0.00000E+00
    0.14256E+05         0.43474E+04         0.00000E+00
    0.00000E+00         0.00000E+00         0.00000E+00
 
    0.22045E+07         0.39044E+05         0.00000E+00
    0.39044E+05         0.22059E+05         0.00000E+00
    0.00000E+00         0.00000E+00         0.00000E+00
 
    0.20890E+07         0.59138E+05         0.00000E+00
    0.59138E+05         0.54643E+05         0.00000E+00
    0.00000E+00         0.00000E+00         0.00000E+00
 
    0.19500E+07         0.74979E+05         0.00000E+00
    0.74979E+05         0.99098E+05         0.00000E+00
    0.00000E+00         0.00000E+00         0.00000E+00
 
    0.17934E+07         0.87087E+05         0.00000E+00
    0.87087E+05         0.15276E+06         0.00000E+00
    0.00000E+00         0.00000E+00         0.00000E+00
 
    0.16241E+07         0.96016E+05         0.00000E+00
    0.96016E+05         0.21334E+06         0.00000E+00
    0.00000E+00         0.00000E+00         0.00000E+00
 
    0.14466E+07         0.10231E+06         0.00000E+00
    0.10231E+06         0.27892E+06         0.00000E+00
    0.00000E+00         0.00000E+00         0.00000E+00
 
    0.12647E+07         0.10648E+06         0.00000E+00
    0.10648E+06         0.34795E+06         0.00000E+00
    0.00000E+00         0.00000E+00         0.00000E+00
 
    0.10816E+07         0.10898E+06         0.00000E+00
    0.10898E+06         0.41919E+06         0.00000E+00
    0.00000E+00         0.00000E+00         0.00000E+00
 
    0.90008E+06         0.11020E+06         0.00000E+00
    0.11020E+06         0.49169E+06         0.00000E+00
    0.00000E+00         0.00000E+00         0.00000E+00
 
    0.72217E+06         0.11048E+06         0.00000E+00
    0.11048E+06         0.56474E+06         0.00000E+00
    0.00000E+00         0.00000E+00         0.00000E+00
 
    0.54958E+06         0.11012E+06         0.00000E+00
    0.11012E+06         0.63783E+06         0.00000E+00
    0.00000E+00         0.00000E+00         0.00000E+00
 
    0.38354E+06         0.10941E+06         0.00000E+00
    0.10941E+06         0.71063E+06         0.00000E+00
    0.00000E+00         0.00000E+00         0.00000E+00
 
    0.22481E+06         0.10863E+06         0.00000E+00
    0.10863E+06         0.78301E+06         0.00000E+00
    0.00000E+00         0.00000E+00         0.00000E+00
 
    0.73672E+05         0.10813E+06         0.00000E+00
    0.10813E+06         0.85500E+06         0.00000E+00
    0.00000E+00         0.00000E+00         0.00000E+00
 
    0.23267E+07         0.23719E+05         0.00000E+00
    0.23719E+05         0.41688E+04         0.00000E+00
    0.00000E+00         0.00000E+00         0.00000E+00
 
    0.22341E+07         0.64874E+05         0.00000E+00
    0.64874E+05         0.21728E+05         0.00000E+00
    0.00000E+00         0.00000E+00         0.00000E+00
 
    0.21126E+07         0.98147E+05         0.00000E+00
    0.98147E+05         0.53928E+05         0.00000E+00
    0.00000E+00         0.00000E+00         0.00000E+00
 
    0.19683E+07         0.12431E+06         0.00000E+00
    0.12431E+06         0.97719E+05         0.00000E+00
    0.00000E+00         0.00000E+00         0.00000E+00
 
    0.18070E+07         0.14426E+06         0.00000E+00
    0.14426E+06         0.15043E+06         0.00000E+00
    0.00000E+00         0.00000E+00         0.00000E+00
 
    0.16339E+07         0.15896E+06         0.00000E+00
    0.15896E+06         0.20982E+06         0.00000E+00
    0.00000E+00         0.00000E+00         0.00000E+00
 
    0.14533E+07         0.16933E+06         0.00000E+00
    0.16933E+06         0.27402E+06         0.00000E+00
    0.00000E+00         0.00000E+00         0.00000E+00
 
    0.12689E+07         0.17623E+06         0.00000E+00
    0.17623E+06         0.34156E+06         0.00000E+00
    0.00000E+00         0.00000E+00         0.00000E+00
 
    0.10839E+07         0.18041E+06         0.00000E+00
    0.18041E+06         0.41131E+06         0.00000E+00
    0.00000E+00         0.00000E+00         0.00000E+00
 
    0.90093E+06         0.18252E+06         0.00000E+00
    0.18252E+06         0.48237E+06         0.00000E+00
    0.00000E+00         0.00000E+00         0.00000E+00
 
    0.72199E+06         0.18312E+06         0.00000E+00
    0.18312E+06         0.55412E+06         0.00000E+00
    0.00000E+00         0.00000E+00         0.00000E+00
 
    0.54875E+06         0.18267E+06         0.00000E+00
    0.18267E+06         0.62607E+06         0.00000E+00
    0.00000E+00         0.00000E+00         0.00000E+00
 
    0.38242E+06         0.18163E+06         0.00000E+00
    0.18163E+06         0.69792E+06         0.00000E+00
    0.00000E+00         0.00000E+00         0.00000E+00
 
    0.22381E+06         0.18047E+06         0.00000E+00
    0.18047E+06         0.76952E+06         0.00000E+00
    0.00000E+00         0.00000E+00         0.00000E+00
 
    0.73251E+05         0.17972E+06         0.00000E+00
    0.17972E+06         0.84087E+06         0.00000E+00
    0.00000E+00         0.00000E+00         0.00000E+00
 
    0.23807E+07         0.33108E+05         0.00000E+00
    0.33108E+05         0.38562E+04         0.00000E+00
    0.00000E+00         0.00000E+00         0.00000E+00
 
    0.22782E+07         0.90376E+05         0.00000E+00
    0.90376E+05         0.21157E+05         0.00000E+00
    0.00000E+00         0.00000E+00         0.00000E+00
 
    0.21476E+07         0.13648E+06         0.00000E+00
    0.13648E+06         0.52722E+05         0.00000E+00
    0.00000E+00         0.00000E+00         0.00000E+00
 
    0.19953E+07         0.17259E+06         0.00000E+00
    0.17259E+06         0.95431E+05         0.00000E+00
    0.00000E+00         0.00000E+00         0.00000E+00
 
    0.18272E+07         0.20004E+06         0.00000E+00
    0.20004E+06         0.14662E+06         0.00000E+00
    0.00000E+00         0.00000E+00         0.00000E+00
 
    0.16484E+07         0.22023E+06         0.00000E+00
    0.22023E+06         0.20410E+06         0.00000E+00
    0.00000E+00         0.00000E+00         0.00000E+00
 
    0.14632E+07         0.23450E+06         0.00000E+00
    0.23450E+06         0.26611E+06         0.00000E+00
    0.00000E+00         0.00000E+00         0.00000E+00
 
    0.12752E+07         0.24405E+06         0.00000E+00
    0.24405E+06         0.33132E+06         0.00000E+00
    0.00000E+00         0.00000E+00         0.00000E+00
 
    0.10874E+07         0.24995E+06         0.00000E+00
    0.24995E+06         0.39872E+06         0.00000E+00
    0.00000E+00         0.00000E+00         0.00000E+00
 
    0.90233E+06         0.25309E+06         0.00000E+00
    0.25309E+06         0.46755E+06         0.00000E+00
    0.00000E+00         0.00000E+00         0.00000E+00
 
    0.72190E+06         0.25420E+06         0.00000E+00
    0.25420E+06         0.53727E+06         0.00000E+00
    0.00000E+00         0.00000E+00         0.00000E+00
 
    0.54770E+06         0.25391E+06         0.00000E+00
    0.25391E+06         0.60749E+06         0.00000E+00
    0.00000E+00         0.00000E+00         0.00000E+00
 
    0.38093E+06         0.25280E+06         0.00000E+00
    0.25280E+06         0.67792E+06         0.00000E+00
    0.00000E+00         0.00000E+00         0.00000E+00
 
    0.22243E+06         0.25145E+06         0.00000E+00
    0.25145E+06         0.74837E+06         0.00000E+00
    0.00000E+00         0.00000E+00         0.00000E+00
 
    0.72667E+05         0.25058E+06         0.00000E+00
    0.25058E+06         0.81880E+06         0.00000E+00
    0.00000E+00         0.00000E+00         0.00000E+00
 
    0.24522E+07         0.42374E+05         0.00000E+00
    0.42374E+05         0.33481E+04         0.00000E+00
    0.00000E+00         0.00000E+00         0.00000E+00
 
    0.23363E+07         0.11535E+06         0.00000E+00
    0.11535E+06         0.20247E+05         0.00000E+00
    0.00000E+00         0.00000E+00         0.00000E+00
 
    0.21935E+07         0.17376E+06         0.00000E+00
    0.17376E+06         0.50851E+05         0.00000E+00
    0.00000E+00         0.00000E+00         0.00000E+00
 
    0.20305E+07         0.21927E+06         0.00000E+00
    0.21927E+06         0.91959E+05         0.00000E+00
    0.00000E+00         0.00000E+00         0.00000E+00
 
    0.18534E+07         0.25371E+06         0.00000E+00
    0.25371E+06         0.14092E+06         0.00000E+00
    0.00000E+00         0.00000E+00         0.00000E+00
 
    0.16672E+07         0.27899E+06         0.00000E+00
    0.27899E+06         0.19564E+06         0.00000E+00
    0.00000E+00         0.00000E+00         0.00000E+00
 
    0.14760E+07         0.29689E+06         0.00000E+00
    0.29689E+06         0.25453E+06         0.00000E+00
    0.00000E+00         0.00000E+00         0.00000E+00
 
    0.12834E+07         0.30902E+06         0.00000E+00
    0.30902E+06         0.31642E+06         0.00000E+00
    0.00000E+00         0.00000E+00         0.00000E+00
 
    0.10922E+07         0.31671E+06         0.00000E+00
    0.31671E+06         0.38049E+06         0.00000E+00
    0.00000E+00         0.00000E+00         0.00000E+00
 
    0.90446E+06         0.32110E+06         0.00000E+00
    0.32110E+06         0.44619E+06         0.00000E+00
    0.00000E+00         0.00000E+00         0.00000E+00
 
    0.72216E+06         0.32305E+06         0.00000E+00
    0.32305E+06         0.51311E+06         0.00000E+00
    0.00000E+00         0.00000E+00         0.00000E+00
 
    0.54671E+06         0.32329E+06         0.00000E+00
    0.32329E+06         0.58096E+06         0.00000E+00
    0.00000E+00         0.00000E+00         0.00000E+00
 
    0.37930E+06         0.32248E+06         0.00000E+00
    0.32248E+06         0.64948E+06         0.00000E+00
    0.00000E+00         0.00000E+00         0.00000E+00
 
    0.22085E+06         0.32128E+06         0.00000E+00
    0.32128E+06         0.71845E+06         0.00000E+00
    0.00000E+00         0.00000E+00         0.00000E+00
 
    0.71984E+05         0.32050E+06         0.00000E+00
    0.32050E+06         0.78772E+06         0.00000E+00
    0.00000E+00         0.00000E+00         0.00000E+00
 
    0.25409E+07         0.51441E+05         0.00000E+00
    0.51441E+05         0.25480E+04         0.00000E+00
    0.00000E+00         0.00000E+00         0.00000E+00
 
    0.24078E+07         0.13954E+06         0.00000E+00
    0.13954E+06         0.18848E+05         0.00000E+00
    0.00000E+00         0.00000E+00         0.00000E+00
 
    0.22496E+07         0.20952E+06         0.00000E+00
    0.20952E+06         0.48068E+05         0.00000E+00
    0.00000E+00         0.00000E+00         0.00000E+00
 
    0.20733E+07         0.26365E+06         0.00000E+00
    0.26365E+06         0.86915E+05         0.00000E+00
    0.00000E+00         0.00000E+00         0.00000E+00
 
    0.18851E+07         0.30440E+06         0.00000E+00
    0.30440E+06         0.13278E+06         0.00000E+00
    0.00000E+00         0.00000E+00         0.00000E+00
 
    0.16898E+07         0.33424E+06         0.00000E+00
    0.33424E+06         0.18371E+06         0.00000E+00
    0.00000E+00         0.00000E+00         0.00000E+00
 
    0.14916E+07         0.35546E+06         0.00000E+00
    0.35546E+06         0.23832E+06         0.00000E+00
    0.00000E+00         0.00000E+00         0.00000E+00
 
    0.12936E+07         0.37005E+06         0.00000E+00
    0.37005E+06         0.29572E+06         0.00000E+00
    0.00000E+00         0.00000E+00         0.00000E+00
 
    0.10983E+07         0.37968E+06         0.00000E+00
    0.37968E+06         0.35535E+06         0.00000E+00
    0.00000E+00         0.00000E+00         0.00000E+00
 
    0.90758E+06         0.38564E+06         0.00000E+00
    0.38564E+06         0.41689E+06         0.00000E+00
    0.00000E+00         0.00000E+00         0.00000E+00
 
    0.72310E+06         0.38891E+06         0.00000E+00
    0.38891E+06         0.48014E+06         0.00000E+00
    0.00000E+00         0.00000E+00         0.00000E+00
 
    0.54616E+06         0.39025E+06         0.00000E+00
    0.39025E+06         0.54494E+06         0.00000E+00
    0.00000E+00         0.00000E+00         0.00000E+00
 
    0.37790E+06         0.39029E+06         0.00000E+00
    0.39029E+06         0.61107E+06         0.00000E+00
    0.00000E+00         0.00000E+00         0.00000E+00
 
    0.21933E+06         0.38970E+06         0.00000E+00
    0.38970E+06         0.67827E+06         0.00000E+00
    0.00000E+00         0.00000E+00         0.00000E+00
 
    0.71295E+05         0.38934E+06         0.00000E+00
    0.38934E+06         0.74623E+06         0.00000E+00
    0.00000E+00         0.00000E+00         0.00000E+00
 
    0.26459E+07         0.60207E+05         0.00000E+00
    0.60207E+05         0.13097E+04         0.00000E+00
    0.00000E+00         0.00000E+00         0.00000E+00
 
    0.24917E+07         0.16259E+06         0.00000E+00
    0.16259E+06         0.16748E+05         0.00000E+00
    0.00000E+00         0.00000E+00         0.00000E+00
 
    0.23148E+07         0.24313E+06         0.00000E+00
    0.24313E+06         0.44028E+05         0.00000E+00
    0.00000E+00         0.00000E+00         0.00000E+00
 
    0.21226E+07         0.30487E+06         0.00000E+00
    0.30487E+06         0.79774E+05         0.00000E+00
    0.00000E+00         0.00000E+00         0.00000E+00
 
    0.19213E+07         0.35103E+06         0.00000E+00
    0.35103E+06         0.12145E+06         0.00000E+00
    0.00000E+00         0.00000E+00         0.00000E+00
 
    0.17157E+07         0.38475E+06         0.00000E+00
    0.38475E+06         0.16731E+06         0.00000E+00
    0.00000E+00         0.00000E+00         0.00000E+00
 
    0.15096E+07         0.40890E+06         0.00000E+00
    0.40890E+06         0.21628E+06         0.00000E+00
    0.00000E+00         0.00000E+00         0.00000E+00
 
    0.13056E+07         0.42589E+06         0.00000E+00
    0.42589E+06         0.26778E+06         0.00000E+00
    0.00000E+00         0.00000E+00         0.00000E+00
 
    0.11059E+07         0.43768E+06         0.00000E+00
    0.43768E+06         0.32163E+06         0.00000E+00
    0.00000E+00         0.00000E+00         0.00000E+00
 
    0.91207E+06         0.44570E+06         0.00000E+00
    0.44570E+06         0.37783E+06         0.00000E+00
    0.00000E+00         0.00000E+00         0.00000E+00
 
    0.72526E+06         0.45097E+06         0.00000E+00
    0.45097E+06         0.43644E+06         0.00000E+00
    0.00000E+00         0.00000E+00         0.00000E+00
 
    0.54662E+06         0.45419E+06         0.00000E+00
    0.45419E+06         0.49746E+06         0.00000E+00
    0.00000E+00         0.00000E+00         0.00000E+00
 
    0.37723E+06         0.45586E+06         0.00000E+00
    0.45586E+06         0.56072E+06         0.00000E+00
    0.00000E+00         0.00000E+00         0.00000E+00
 
    0.21823E+06         0.45656E+06         0.00000E+00
    0.45656E+06         0.62591E+06         0.00000E+00
    0.00000E+00         0.00000E+00         0.00000E+00
 
    0.70732E+05         0.45705E+06         0.00000E+00
    0.45705E+06         0.69253E+06         0.00000E+00
    0.00000E+00         0.00000E+00         0.00000E+00
 
    0.27663E+07         0.68528E+05         0.00000E+00
    0.68528E+05        -0.58638E+03         0.00000E+00
    0.00000E+00         0.00000E+00         0.00000E+00
 
    0.25867E+07         0.18403E+06         0.00000E+00
    0.18403E+06         0.13641E+05         0.00000E+00
    0.00000E+00         0.00000E+00         0.00000E+00
 
    0.23877E+07         0.27379E+06         0.00000E+00
    0.27379E+06         0.38267E+05         0.00000E+00
    0.00000E+00         0.00000E+00         0.00000E+00
 
    0.21771E+07         0.34182E+06         0.00000E+00
    0.34182E+06         0.69845E+05         0.00000E+00
    0.00000E+00         0.00000E+00         0.00000E+00
 
    0.19610E+07         0.39226E+06         0.00000E+00
    0.39226E+06         0.10598E+06         0.00000E+00
    0.00000E+00         0.00000E+00         0.00000E+00
 
    0.17441E+07         0.42904E+06         0.00000E+00
    0.42904E+06         0.14521E+06         0.00000E+00
    0.00000E+00         0.00000E+00         0.00000E+00
 
    0.15294E+07         0.45566E+06         0.00000E+00
    0.45566E+06         0.18684E+06         0.00000E+00
    0.00000E+00         0.00000E+00         0.00000E+00
 
    0.13194E+07         0.47502E+06         0.00000E+00
    0.47502E+06         0.23079E+06         0.00000E+00
    0.00000E+00         0.00000E+00         0.00000E+00
 
    0.11154E+07         0.48932E+06         0.00000E+00
    0.48932E+06         0.27730E+06         0.00000E+00
    0.00000E+00         0.00000E+00         0.00000E+00
 
    0.91843E+06         0.50011E+06         0.00000E+00
    0.50011E+06         0.32679E+06         0.00000E+00
    0.00000E+00         0.00000E+00         0.00000E+00
 
    0.72931E+06         0.50833E+06         0.00000E+00
    0.50833E+06         0.37965E+06         0.00000E+00
    0.00000E+00         0.00000E+00         0.00000E+00
 
    0.54882E+06         0.51449E+06         0.00000E+00
    0.51449E+06         0.43610E+06         0.00000E+00
    0.00000E+00         0.00000E+00         0.00000E+00
 
    0.37798E+06         0.51888E+06         0.00000E+00
    0.51888E+06         0.49605E+06         0.00000E+00
    0.00000E+00         0.00000E+00         0.00000E+00
 
    0.21803E+06         0.52179E+06         0.00000E+00
    0.52179E+06         0.55908E+06         0.00000E+00
    0.00000E+00         0.00000E+00         0.00000E+00
 
    0.70476E+05         0.52377E+06         0.00000E+00
    0.52377E+06         0.62447E+06         0.00000E+00
    0.00000E+00         0.00000E+00         0.00000E+00
 
    0.29006E+07         0.76213E+05         0.00000E+00
    0.76213E+05        -0.34667E+04         0.00000E+00
    0.00000E+00         0.00000E+00         0.00000E+00
 
    0.26911E+07         0.20326E+06         0.00000E+00
    0.20326E+06         0.90980E+04         0.00000E+00
    0.00000E+00         0.00000E+00         0.00000E+00
 
    0.24666E+07         0.30049E+06         0.00000E+00
    0.30049E+06         0.30154E+05         0.00000E+00
    0.00000E+00         0.00000E+00         0.00000E+00
 
    0.22352E+07         0.37313E+06         0.00000E+00
    0.37313E+06         0.56226E+05         0.00000E+00
    0.00000E+00         0.00000E+00         0.00000E+00
 
    0.20029E+07         0.42644E+06         0.00000E+00
    0.42644E+06         0.85131E+05         0.00000E+00
    0.00000E+00         0.00000E+00         0.00000E+00
 
    0.17739E+07         0.46529E+06         0.00000E+00
    0.46529E+06         0.11581E+06         0.00000E+00
    0.00000E+00         0.00000E+00         0.00000E+00
 
    0.15507E+07         0.49390E+06         0.00000E+00
    0.49390E+06         0.14812E+06         0.00000E+00
    0.00000E+00         0.00000E+00         0.00000E+00
 
    0.13349E+07         0.51566E+06         0.00000E+00
    0.51566E+06         0.18251E+06         0.00000E+00
    0.00000E+00         0.00000E+00         0.00000E+00
 
    0.11270E+07         0.53301E+06         0.00000E+00
    0.53301E+06         0.21984E+06         0.00000E+00
    0.00000E+00         0.00000E+00         0.00000E+00
 
    0.92738E+06         0.54753E+06         0.00000E+00
    0.54753E+06         0.26104E+06         0.00000E+00
    0.00000E+00         0.00000E+00         0.00000E+00
 
    0.73616E+06         0.55997E+06         0.00000E+00
    0.55997E+06         0.30692E+06         0.00000E+00
    0.00000E+00         0.00000E+00         0.00000E+00
 
    0.55377E+06         0.57054E+06         0.00000E+00
    0.57054E+06         0.35796E+06         0.00000E+00
    0.00000E+00         0.00000E+00         0.00000E+00
 
    0.38104E+06         0.57910E+06         0.00000E+00
    0.57910E+06         0.41418E+06         0.00000E+00
    0.00000E+00         0.00000E+00         0.00000E+00
 
    0.21939E+06         0.58547E+06         0.00000E+00
    0.58547E+06         0.47506E+06         0.00000E+00
    0.00000E+00         0.00000E+00         0.00000E+00
 
    0.70769E+05         0.58984E+06         0.00000E+00
    0.58984E+06         0.53954E+06         0.00000E+00
    0.00000E+00         0.00000E+00         0.00000E+00
 
    0.30466E+07         0.83014E+05         0.00000E+00
    0.83014E+05        -0.78153E+04         0.00000E+00
    0.00000E+00         0.00000E+00         0.00000E+00
 
    0.28023E+07         0.21950E+06         0.00000E+00
    0.21950E+06         0.25072E+04         0.00000E+00
    0.00000E+00         0.00000E+00         0.00000E+00
 
    0.25489E+07         0.32195E+06         0.00000E+00
    0.32195E+06         0.18841E+05         0.00000E+00
    0.00000E+00         0.00000E+00         0.00000E+00
 
    0.22945E+07         0.39710E+06         0.00000E+00
    0.39710E+06         0.37744E+05         0.00000E+00
    0.00000E+00         0.00000E+00         0.00000E+00
 
    0.20450E+07         0.45155E+06         0.00000E+00
    0.45155E+06         0.57365E+05         0.00000E+00
    0.00000E+00         0.00000E+00         0.00000E+00
 
    0.18039E+07         0.49130E+06         0.00000E+00
    0.49130E+06         0.77195E+05         0.00000E+00
    0.00000E+00         0.00000E+00         0.00000E+00
 
    0.15727E+07         0.52139E+06         0.00000E+00
    0.52139E+06         0.97759E+05         0.00000E+00
    0.00000E+00         0.00000E+00         0.00000E+00
 
    0.13520E+07         0.54570E+06         0.00000E+00
    0.54570E+06         0.12027E+06         0.00000E+00
    0.00000E+00         0.00000E+00         0.00000E+00
 
    0.11412E+07         0.56688E+06         0.00000E+00
    0.56688E+06         0.14628E+06         0.00000E+00
    0.00000E+00         0.00000E+00         0.00000E+00
 
    0.93978E+06         0.58643E+06         0.00000E+00
    0.58643E+06         0.17739E+06         0.00000E+00
    0.00000E+00         0.00000E+00         0.00000E+00
 
    0.74699E+06         0.60482E+06         0.00000E+00
    0.60482E+06         0.21491E+06         0.00000E+00
    0.00000E+00         0.00000E+00         0.00000E+00
 
    0.56271E+06         0.62172E+06         0.00000E+00
    0.62172E+06         0.25967E+06         0.00000E+00
    0.00000E+00         0.00000E+00         0.00000E+00
 
    0.38758E+06         0.63636E+06         0.00000E+00
    0.63636E+06         0.31181E+06         0.00000E+00
    0.00000E+00         0.00000E+00         0.00000E+00
 
    0.22314E+06         0.64790E+06         0.00000E+00
    0.64790E+06         0.37069E+06         0.00000E+00
    0.00000E+00         0.00000E+00         0.00000E+00
 
    0.71927E+05         0.65587E+06         0.00000E+00
    0.65587E+06         0.43486E+06         0.00000E+00
    0.00000E+00         0.00000E+00         0.00000E+00
 
    0.32015E+07         0.88608E+05         0.00000E+00
    0.88608E+05        -0.14347E+05         0.00000E+00
    0.00000E+00         0.00000E+00         0.00000E+00
 
    0.29173E+07         0.23178E+06         0.00000E+00
    0.23178E+06        -0.69990E+04         0.00000E+00
    0.00000E+00         0.00000E+00         0.00000E+00
 
    0.26315E+07         0.33657E+06         0.00000E+00
    0.33657E+06         0.31769E+04         0.00000E+00
    0.00000E+00         0.00000E+00         0.00000E+00
 
    0.23524E+07         0.41162E+06         0.00000E+00
    0.41162E+06         0.12872E+05         0.00000E+00
    0.00000E+00         0.00000E+00         0.00000E+00
 
    0.20853E+07         0.46516E+06         0.00000E+00
    0.46516E+06         0.20722E+05         0.00000E+00
    0.00000E+00         0.00000E+00         0.00000E+00
 
    0.18325E+07         0.50448E+06         0.00000E+00
    0.50448E+06         0.26952E+05         0.00000E+00
    0.00000E+00         0.00000E+00         0.00000E+00
 
    0.15947E+07         0.53553E+06         0.00000E+00
    0.53553E+06         0.32957E+05         0.00000E+00
    0.00000E+00         0.00000E+00         0.00000E+00
 
    0.13706E+07         0.56269E+06         0.00000E+00
    0.56269E+06         0.40868E+05         0.00000E+00
    0.00000E+00         0.00000E+00         0.00000E+00
 
    0.11587E+07         0.58880E+06         0.00000E+00
    0.58880E+06         0.53130E+05         0.00000E+00
    0.00000E+00         0.00000E+00         0.00000E+00
 
    0.95675E+06         0.61513E+06         0.00000E+00
    0.61513E+06         0.72112E+05         0.00000E+00
    0.00000E+00         0.00000E+00         0.00000E+00
 
    0.76323E+06         0.64168E+06         0.00000E+00
    0.64168E+06         0.99768E+05         0.00000E+00
    0.00000E+00         0.00000E+00         0.00000E+00
 
    0.57724E+06         0.66741E+06         0.00000E+00
    0.66741E+06         0.13734E+06         0.00000E+00
    0.00000E+00         0.00000E+00         0.00000E+00
 
    0.39906E+06         0.69066E+06         0.00000E+00
    0.69066E+06         0.18515E+06         0.00000E+00
    0.00000E+00         0.00000E+00         0.00000E+00
 
    0.23037E+06         0.70962E+06         0.00000E+00
    0.70962E+06         0.24242E+06         0.00000E+00
    0.00000E+00         0.00000E+00         0.00000E+00
 
    0.74352E+05         0.72285E+06         0.00000E+00
    0.72285E+06         0.30723E+06         0.00000E+00
    0.00000E+00         0.00000E+00         0.00000E+00
 
    0.33614E+07         0.92583E+05         0.00000E+00
    0.92583E+05        -0.24113E+05         0.00000E+00
    0.00000E+00         0.00000E+00         0.00000E+00
 
    0.30318E+07         0.23885E+06         0.00000E+00
    0.23885E+06        -0.20656E+05         0.00000E+00
    0.00000E+00         0.00000E+00         0.00000E+00
 
    0.27103E+07         0.34239E+06         0.00000E+00
    0.34239E+06        -0.18407E+05         0.00000E+00
    0.00000E+00         0.00000E+00         0.00000E+00
 
    0.24052E+07         0.41417E+06         0.00000E+00
    0.41417E+06        -0.20390E+05         0.00000E+00
    0.00000E+00         0.00000E+00         0.00000E+00
 
    0.21207E+07         0.46436E+06         0.00000E+00
    0.46436E+06        -0.27272E+05         0.00000E+00
    0.00000E+00         0.00000E+00         0.00000E+00
 
    0.18579E+07         0.50176E+06         0.00000E+00
    0.50176E+06        -0.37865E+05         0.00000E+00
    0.00000E+00         0.00000E+00         0.00000E+00
 
    0.16155E+07         0.53329E+06         0.00000E+00
    0.53329E+06        -0.49674E+05         0.00000E+00
    0.00000E+00         0.00000E+00         0.00000E+00
 
    0.13907E+07         0.56387E+06         0.00000E+00
    0.56387E+06        -0.59444E+05         0.00000E+00
    0.00000E+00         0.00000E+00         0.00000E+00
 
    0.11799E+07         0.59636E+06         0.00000E+00
    0.59636E+06        -0.63668E+05         0.00000E+00
    0.00000E+00         0.00000E+00         0.00000E+00
 
    0.97958E+06         0.63174E+06         0.00000E+00
    0.63174E+06        -0.59042E+05         0.00000E+00
    0.00000E+00         0.00000E+00         0.00000E+00
 
    0.78663E+06         0.66931E+06         0.00000E+00
    0.66931E+06        -0.42862E+05         0.00000E+00
    0.00000E+00         0.00000E+00         0.00000E+00
 
    0.59927E+06         0.70707E+06         0.00000E+00
    0.70707E+06        -0.13366E+05         0.00000E+00
    0.00000E+00         0.00000E+00         0.00000E+00
 
    0.41727E+06         0.74217E+06         0.00000E+00
    0.74217E+06         0.29988E+05         0.00000E+00
    0.00000E+00         0.00000E+00         0.00000E+00
 
    0.24240E+06         0.77148E+06         0.00000E+00
    0.77148E+06         0.86305E+05         0.00000E+00
    0.00000E+00         0.00000E+00         0.00000E+00
 
    0.78546E+05         0.79223E+06         0.00000E+00
    0.79223E+06         0.15314E+06         0.00000E+00
    0.00000E+00         0.00000E+00         0.00000E+00
 
    0.35208E+07         0.94421E+05         0.00000E+00
    0.94421E+05        -0.38652E+05         0.00000E+00
    0.00000E+00         0.00000E+00         0.00000E+00
 
    0.31401E+07         0.23920E+06         0.00000E+00
    0.23920E+06        -0.40221E+05         0.00000E+00
    0.00000E+00         0.00000E+00         0.00000E+00
 
    0.27801E+07         0.33702E+06         0.00000E+00
    0.33702E+06        -0.48056E+05         0.00000E+00
    0.00000E+00         0.00000E+00         0.00000E+00
 
    0.24484E+07         0.40171E+06         0.00000E+00
    0.40171E+06        -0.64671E+05         0.00000E+00
    0.00000E+00         0.00000E+00         0.00000E+00
 
    0.21478E+07         0.44575E+06         0.00000E+00
    0.44575E+06        -0.89758E+05         0.00000E+00
    0.00000E+00         0.00000E+00         0.00000E+00
 
    0.18775E+07         0.47961E+06         0.00000E+00
    0.47961E+06        -0.12088E+06         0.00000E+00
    0.00000E+00         0.00000E+00         0.00000E+00
 
    0.16340E+07         0.51128E+06         0.00000E+00
    0.51128E+06        -0.15417E+06         0.00000E+00
    0.00000E+00         0.00000E+00         0.00000E+00
 
    0.14120E+07         0.54612E+06         0.00000E+00
    0.54612E+06        -0.18503E+06         0.00000E+00
    0.00000E+00         0.00000E+00         0.00000E+00
 
    0.12058E+07         0.58696E+06         0.00000E+00
    0.58696E+06        -0.20872E+06         0.00000E+00
    0.00000E+00         0.00000E+00         0.00000E+00
 
    0.10097E+07         0.63425E+06         0.00000E+00
    0.63425E+06        -0.22084E+06         0.00000E+00
    0.00000E+00         0.00000E+00         0.00000E+00
 
    0.81916E+06         0.68641E+06         0.00000E+00
    0.68641E+06        -0.21781E+06         0.00000E+00
    0.00000E+00         0.00000E+00         0.00000E+00
 
    0.63099E+06         0.74021E+06         0.00000E+00
    0.74021E+06        -0.19725E+06         0.00000E+00
    0.00000E+00         0.00000E+00         0.00000E+00
 
    0.44430E+06         0.79128E+06         0.00000E+00
    0.79128E+06        -0.15831E+06         0.00000E+00
    0.00000E+00         0.00000E+00         0.00000E+00
 
    0.26080E+06         0.83475E+06         0.00000E+00
    0.83475E+06        -0.10195E+06         0.00000E+00
    0.00000E+00         0.00000E+00         0.00000E+00
 
    0.85117E+05         0.86602E+06         0.00000E+00
    0.86602E+06        -0.31176E+05         0.00000E+00
    0.00000E+00         0.00000E+00         0.00000E+00
 
    0.36726E+07         0.93473E+05         0.00000E+00
    0.93473E+05        -0.60204E+05         0.00000E+00
    0.00000E+00         0.00000E+00         0.00000E+00
 
    0.32349E+07         0.23094E+06         0.00000E+00
    0.23094E+06        -0.68198E+05         0.00000E+00
    0.00000E+00         0.00000E+00         0.00000E+00
 
    0.28340E+07         0.31759E+06         0.00000E+00
    0.31759E+06        -0.88718E+05         0.00000E+00
    0.00000E+00         0.00000E+00         0.00000E+00
 
    0.24761E+07         0.37069E+06         0.00000E+00
    0.37069E+06        -0.12345E+06         0.00000E+00
    0.00000E+00         0.00000E+00         0.00000E+00
 
    0.21621E+07         0.40542E+06         0.00000E+00
    0.40542E+06        -0.17073E+06         0.00000E+00
    0.00000E+00         0.00000E+00         0.00000E+00
 
    0.18883E+07         0.43409E+06         0.00000E+00
    0.43409E+06        -0.22652E+06         0.00000E+00
    0.00000E+00         0.00000E+00         0.00000E+00
 
    0.16483E+07         0.46573E+06         0.00000E+00
    0.46573E+06        -0.28531E+06         0.00000E+00
    0.00000E+00         0.00000E+00         0.00000E+00
 
    0.14340E+07         0.50610E+06         0.00000E+00
    0.50610E+06        -0.34092E+06         0.00000E+00
    0.00000E+00         0.00000E+00         0.00000E+00
 
    0.12368E+07         0.55779E+06         0.00000E+00
    0.55779E+06        -0.38719E+06         0.00000E+00
    0.00000E+00         0.00000E+00         0.00000E+00
 
    0.10487E+07         0.62057E+06         0.00000E+00
    0.62057E+06        -0.41851E+06         0.00000E+00
    0.00000E+00         0.00000E+00         0.00000E+00
 
    0.86291E+06         0.69172E+06         0.00000E+00
    0.69172E+06        -0.43031E+06         0.00000E+00
    0.00000E+00         0.00000E+00         0.00000E+00
 
    0.67484E+06         0.76649E+06         0.00000E+00
    0.76649E+06        -0.41945E+06         0.00000E+00
    0.00000E+00         0.00000E+00         0.00000E+00
 
    0.48254E+06         0.83864E+06         0.00000E+00
    0.83864E+06        -0.38466E+06         0.00000E+00
    0.00000E+00         0.00000E+00         0.00000E+00
 
    0.28741E+06         0.90112E+06         0.00000E+00
    0.90112E+06        -0.32688E+06         0.00000E+00
    0.00000E+00         0.00000E+00         0.00000E+00
 
    0.94779E+05         0.94692E+06         0.00000E+00
    0.94692E+06        -0.24966E+06         0.00000E+00
    0.00000E+00         0.00000E+00         0.00000E+00
 
    0.38071E+07         0.88924E+05         0.00000E+00
    0.88924E+05        -0.92008E+05         0.00000E+00
    0.00000E+00         0.00000E+00         0.00000E+00
 
    0.33068E+07         0.21180E+06         0.00000E+00
    0.21180E+06        -0.10814E+06         0.00000E+00
    0.00000E+00         0.00000E+00         0.00000E+00
 
    0.28634E+07         0.28068E+06         0.00000E+00
    0.28068E+06        -0.14445E+06         0.00000E+00
    0.00000E+00         0.00000E+00         0.00000E+00
 
    0.24812E+07         0.31700E+06         0.00000E+00
    0.31700E+06        -0.20133E+06         0.00000E+00
    0.00000E+00         0.00000E+00         0.00000E+00
 
    0.21579E+07         0.33898E+06         0.00000E+00
    0.33898E+06        -0.27529E+06         0.00000E+00
    0.00000E+00         0.00000E+00         0.00000E+00
 
    0.18863E+07         0.36088E+06         0.00000E+00
    0.36088E+06        -0.36026E+06         0.00000E+00
    0.00000E+00         0.00000E+00         0.00000E+00
 
    0.16561E+07         0.39269E+06         0.00000E+00
    0.39269E+06        -0.44875E+06         0.00000E+00
    0.00000E+00         0.00000E+00         0.00000E+00
 
    0.14557E+07         0.44037E+06         0.00000E+00
    0.44037E+06        -0.53281E+06         0.00000E+00
    0.00000E+00         0.00000E+00         0.00000E+00
 
    0.12732E+07         0.50607E+06         0.00000E+00
    0.50607E+06        -0.60474E+06         0.00000E+00
    0.00000E+00         0.00000E+00         0.00000E+00
 
    0.10976E+07         0.58864E+06         0.00000E+00
    0.58864E+06        -0.65762E+06         0.00000E+00
    0.00000E+00         0.00000E+00         0.00000E+00
 
    0.91991E+06         0.68403E+06         0.00000E+00
    0.68403E+06        -0.68581E+06         0.00000E+00
    0.00000E+00         0.00000E+00         0.00000E+00
 
    0.73329E+06         0.78570E+06         0.00000E+00
    0.78570E+06        -0.68527E+06         0.00000E+00
    0.00000E+00         0.00000E+00         0.00000E+00
 
    0.53447E+06         0.88520E+06         0.00000E+00
    0.88520E+06        -0.65414E+06         0.00000E+00
    0.00000E+00         0.00000E+00         0.00000E+00
 
    0.32424E+06         0.97279E+06         0.00000E+00
    0.97279E+06        -0.59319E+06         0.00000E+00
    0.00000E+00         0.00000E+00         0.00000E+00
 
    0.10833E+06         0.10384E+07         0.00000E+00
    0.10384E+07        -0.50635E+06         0.00000E+00
    0.00000E+00         0.00000E+00         0.00000E+00
 
    0.39117E+07         0.79762E+05         0.00000E+00
    0.79762E+05        -0.13872E+06         0.00000E+00
    0.00000E+00         0.00000E+00         0.00000E+00
 
    0.33434E+07         0.17900E+06         0.00000E+00
    0.17900E+06        -0.16507E+06         0.00000E+00
    0.00000E+00         0.00000E+00         0.00000E+00
 
    0.28573E+07         0.22230E+06         0.00000E+00
    0.22230E+06        -0.22084E+06         0.00000E+00
    0.00000E+00         0.00000E+00         0.00000E+00
 
    0.24546E+07         0.23601E+06         0.00000E+00
    0.23601E+06        -0.30445E+06         0.00000E+00
    0.00000E+00         0.00000E+00         0.00000E+00
 
    0.21284E+07         0.24170E+06         0.00000E+00
    0.24170E+06        -0.40995E+06         0.00000E+00
    0.00000E+00         0.00000E+00         0.00000E+00
 
    0.18665E+07         0.25552E+06         0.00000E+00
    0.25552E+06        -0.52875E+06         0.00000E+00
    0.00000E+00         0.00000E+00         0.00000E+00
 
    0.16542E+07         0.28822E+06         0.00000E+00
    0.28822E+06        -0.65107E+06         0.00000E+00
    0.00000E+00         0.00000E+00         0.00000E+00
 
    0.14754E+07         0.34561E+06         0.00000E+00
    0.34561E+06        -0.76705E+06         0.00000E+00
    0.00000E+00         0.00000E+00         0.00000E+00
 
    0.13145E+07         0.42918E+06         0.00000E+00
    0.42918E+06        -0.86740E+06         0.00000E+00
    0.00000E+00         0.00000E+00         0.00000E+00
 
    0.11573E+07         0.53661E+06         0.00000E+00
    0.53661E+06        -0.94391E+06         0.00000E+00
    0.00000E+00         0.00000E+00         0.00000E+00
 
    0.99168E+06         0.66232E+06         0.00000E+00
    0.66232E+06        -0.98977E+06         0.00000E+00
    0.00000E+00         0.00000E+00         0.00000E+00
 
    0.80849E+06         0.79782E+06         0.00000E+00
    0.79782E+06        -0.99996E+06         0.00000E+00
    0.00000E+00         0.00000E+00         0.00000E+00
 
    0.60248E+06         0.93217E+06         0.00000E+00
    0.93217E+06        -0.97179E+06         0.00000E+00
    0.00000E+00         0.00000E+00         0.00000E+00
 
    0.37329E+06         0.10525E+07         0.00000E+00
    0.10525E+07        -0.90553E+06         0.00000E+00
    0.00000E+00         0.00000E+00         0.00000E+00
 
    0.12660E+06         0.11448E+07         0.00000E+00
    0.11448E+07        -0.80523E+06         0.00000E+00
    0.00000E+00         0.00000E+00         0.00000E+00
 
    0.39693E+07         0.64721E+05         0.00000E+00
    0.64721E+05        -0.20695E+06         0.00000E+00
    0.00000E+00         0.00000E+00         0.00000E+00
 
    0.33288E+07         0.12921E+06         0.00000E+00
    0.12921E+06        -0.24604E+06         0.00000E+00
    0.00000E+00         0.00000E+00         0.00000E+00
 
    0.28021E+07         0.13786E+06         0.00000E+00
    0.13786E+06        -0.32554E+06         0.00000E+00
    0.00000E+00         0.00000E+00         0.00000E+00
 
    0.23851E+07         0.12266E+06         0.00000E+00
    0.12266E+06        -0.44095E+06         0.00000E+00
    0.00000E+00         0.00000E+00         0.00000E+00
 
    0.20647E+07         0.10868E+06         0.00000E+00
    0.10868E+06        -0.58304E+06         0.00000E+00
    0.00000E+00         0.00000E+00         0.00000E+00
 
    0.18226E+07         0.11369E+06         0.00000E+00
    0.11369E+06        -0.74013E+06         0.00000E+00
    0.00000E+00         0.00000E+00         0.00000E+00
 
    0.16381E+07         0.14874E+06         0.00000E+00
    0.14874E+06        -0.89993E+06         0.00000E+00
    0.00000E+00         0.00000E+00         0.00000E+00
 
    0.14903E+07         0.21906E+06         0.00000E+00
    0.21906E+06        -0.10506E+07         0.00000E+00
    0.00000E+00         0.00000E+00         0.00000E+00
 
    0.13592E+07         0.32503E+06         0.00000E+00
    0.32503E+06        -0.11814E+07         0.00000E+00
    0.00000E+00         0.00000E+00         0.00000E+00
 
    0.12271E+07         0.46303E+06         0.00000E+00
    0.46303E+06        -0.12829E+07         0.00000E+00
    0.00000E+00         0.00000E+00         0.00000E+00
 
    0.10786E+07         0.62586E+06         0.00000E+00
    0.62586E+06        -0.13473E+07         0.00000E+00
    0.00000E+00         0.00000E+00         0.00000E+00
 
    0.90170E+06         0.80305E+06         0.00000E+00
    0.80305E+06        -0.13683E+07         0.00000E+00
    0.00000E+00         0.00000E+00         0.00000E+00
 
    0.68840E+06         0.98098E+06         0.00000E+00
    0.98098E+06        -0.13422E+07         0.00000E+00
    0.00000E+00         0.00000E+00         0.00000E+00
 
    0.43637E+06         0.11433E+07         0.00000E+00
    0.11433E+07        -0.12683E+07         0.00000E+00
    0.00000E+00         0.00000E+00         0.00000E+00
 
    0.15038E+06         0.12714E+07         0.00000E+00
    0.12714E+07        -0.11501E+07         0.00000E+00
    0.00000E+00         0.00000E+00         0.00000E+00
 
    0.39579E+07         0.42228E+05         0.00000E+00
    0.42228E+05        -0.30605E+06         0.00000E+00
    0.00000E+00         0.00000E+00         0.00000E+00
 
    0.32428E+07         0.58480E+05         0.00000E+00
    0.58480E+05        -0.36092E+06         0.00000E+00
    0.00000E+00         0.00000E+00         0.00000E+00
 
    0.26805E+07         0.22163E+05         0.00000E+00
    0.22163E+05        -0.46901E+06         0.00000E+00
    0.00000E+00         0.00000E+00         0.00000E+00
 
    0.22589E+07        -0.28377E+05         0.00000E+00
   -0.28377E+05        -0.62161E+06         0.00000E+00
    0.00000E+00         0.00000E+00         0.00000E+00
 
    0.19563E+07        -0.64765E+05         0.00000E+00
   -0.64765E+05        -0.80513E+06         0.00000E+00
    0.00000E+00         0.00000E+00         0.00000E+00
 
    0.17463E+07        -0.68243E+05         0.00000E+00
   -0.68243E+05        -0.10043E+07         0.00000E+00
    0.00000E+00         0.00000E+00         0.00000E+00
 
    0.16015E+07        -0.28312E+05         0.00000E+00
   -0.28312E+05        -0.12040E+07         0.00000E+00
    0.00000E+00         0.00000E+00         0.00000E+00
 
    0.14952E+07         0.58975E+05         0.00000E+00
    0.58975E+05        -0.13907E+07         0.00000E+00
    0.00000E+00         0.00000E+00         0.00000E+00
 
    0.14034E+07         0.19252E+06         0.00000E+00
    0.19252E+06        -0.15526E+07         0.00000E+00
    0.00000E+00         0.00000E+00         0.00000E+00
 
    0.13043E+07         0.36721E+06         0.00000E+00
    0.36721E+06        -0.16795E+07         0.00000E+00
    0.00000E+00         0.00000E+00         0.00000E+00
 
    0.11791E+07         0.57437E+06         0.00000E+00
    0.57437E+06        -0.17625E+07         0.00000E+00
    0.00000E+00         0.00000E+00         0.00000E+00
 
    0.10124E+07         0.80173E+06         0.00000E+00
    0.80173E+06        -0.17942E+07         0.00000E+00
    0.00000E+00         0.00000E+00         0.00000E+00
 
    0.79278E+06         0.10331E+07         0.00000E+00
    0.10331E+07        -0.17693E+07         0.00000E+00
    0.00000E+00         0.00000E+00         0.00000E+00
 
    0.51457E+06         0.12485E+07         0.00000E+00
    0.12485E+07        -0.16853E+07         0.00000E+00
    0.00000E+00         0.00000E+00         0.00000E+00
 
    0.18027E+06         0.14239E+07         0.00000E+00
    0.14239E+07        -0.15445E+07         0.00000E+00
    0.00000E+00         0.00000E+00         0.00000E+00
 
    0.38484E+07         0.10324E+05         0.00000E+00
    0.10324E+05        -0.44906E+06         0.00000E+00
    0.00000E+00         0.00000E+00         0.00000E+00
 
    0.30597E+07        -0.37856E+05         0.00000E+00
   -0.37856E+05        -0.52330E+06         0.00000E+00
    0.00000E+00         0.00000E+00         0.00000E+00
 
    0.24713E+07        -0.13041E+06         0.00000E+00
   -0.13041E+06        -0.66541E+06         0.00000E+00
    0.00000E+00         0.00000E+00         0.00000E+00
 
    0.20591E+07        -0.22227E+06         0.00000E+00
   -0.22227E+06        -0.86056E+06         0.00000E+00
    0.00000E+00         0.00000E+00         0.00000E+00
 
    0.17899E+07        -0.28246E+06         0.00000E+00
   -0.28246E+06        -0.10896E+07         0.00000E+00
    0.00000E+00         0.00000E+00         0.00000E+00
 
    0.16272E+07        -0.29251E+06         0.00000E+00
   -0.29251E+06        -0.13329E+07         0.00000E+00
    0.00000E+00         0.00000E+00         0.00000E+00
 
    0.15354E+07        -0.24375E+06         0.00000E+00
   -0.24375E+06        -0.15729E+07         0.00000E+00
    0.00000E+00         0.00000E+00         0.00000E+00
 
    0.14825E+07        -0.13450E+06         0.00000E+00
   -0.13450E+06        -0.17948E+07         0.00000E+00
    0.00000E+00         0.00000E+00         0.00000E+00
 
    0.14398E+07         0.32153E+05         0.00000E+00
    0.32153E+05        -0.19864E+07         0.00000E+00
    0.00000E+00         0.00000E+00         0.00000E+00
 
    0.13824E+07         0.24962E+06         0.00000E+00
    0.24962E+06        -0.21372E+07         0.00000E+00
    0.00000E+00         0.00000E+00         0.00000E+00
 
    0.12880E+07         0.50815E+06         0.00000E+00
    0.50815E+06        -0.22379E+07         0.00000E+00
    0.00000E+00         0.00000E+00         0.00000E+00
 
    0.11371E+07         0.79429E+06         0.00000E+00
    0.79429E+06        -0.22799E+07         0.00000E+00
    0.00000E+00         0.00000E+00         0.00000E+00
 
    0.91384E+06         0.10899E+07         0.00000E+00
    0.10899E+07        -0.22554E+07         0.00000E+00
    0.00000E+00         0.00000E+00         0.00000E+00
 
    0.60762E+06         0.13713E+07         0.00000E+00
    0.13713E+07        -0.21595E+07         0.00000E+00
    0.00000E+00         0.00000E+00         0.00000E+00
 
    0.21643E+06         0.16088E+07         0.00000E+00
    0.16088E+07        -0.19915E+07         0.00000E+00
    0.00000E+00         0.00000E+00         0.00000E+00
 
    0.36030E+07        -0.33421E+05         0.00000E+00
   -0.33421E+05        -0.65398E+06         0.00000E+00
    0.00000E+00         0.00000E+00         0.00000E+00
 
    0.27470E+07        -0.16517E+06         0.00000E+00
   -0.16517E+06        -0.75182E+06         0.00000E+00
    0.00000E+00         0.00000E+00         0.00000E+00
 
    0.21483E+07        -0.32569E+06         0.00000E+00
   -0.32569E+06        -0.93371E+06         0.00000E+00
    0.00000E+00         0.00000E+00         0.00000E+00
 
    0.17655E+07        -0.46342E+06         0.00000E+00
   -0.46342E+06        -0.11762E+07         0.00000E+00
    0.00000E+00         0.00000E+00         0.00000E+00
 
    0.15495E+07        -0.54643E+06         0.00000E+00
   -0.54643E+06        -0.14528E+07         0.00000E+00
    0.00000E+00         0.00000E+00         0.00000E+00
 
    0.14514E+07        -0.55873E+06         0.00000E+00
   -0.55873E+06        -0.17396E+07         0.00000E+00
    0.00000E+00         0.00000E+00         0.00000E+00
 
    0.14272E+07        -0.49541E+06         0.00000E+00
   -0.49541E+06        -0.20168E+07         0.00000E+00
    0.00000E+00         0.00000E+00         0.00000E+00
 
    0.14394E+07        -0.35836E+06         0.00000E+00
   -0.35836E+06        -0.22694E+07         0.00000E+00
    0.00000E+00         0.00000E+00         0.00000E+00
 
    0.14561E+07        -0.15316E+06         0.00000E+00
   -0.15316E+06        -0.24861E+07         0.00000E+00
    0.00000E+00         0.00000E+00         0.00000E+00
 
    0.14495E+07         0.11237E+06         0.00000E+00
    0.11237E+06        -0.26572E+07         0.00000E+00
    0.00000E+00         0.00000E+00         0.00000E+00
 
    0.13944E+07         0.42825E+06         0.00000E+00
    0.42825E+06        -0.27734E+07         0.00000E+00
    0.00000E+00         0.00000E+00         0.00000E+00
 
    0.12672E+07         0.78104E+06         0.00000E+00
    0.78104E+06        -0.28248E+07         0.00000E+00
    0.00000E+00         0.00000E+00         0.00000E+00
 
    0.10459E+07         0.11519E+07         0.00000E+00
    0.11519E+07        -0.28009E+07         0.00000E+00
    0.00000E+00         0.00000E+00         0.00000E+00
 
    0.71285E+06         0.15142E+07         0.00000E+00
    0.15142E+07        -0.26922E+07         0.00000E+00
    0.00000E+00         0.00000E+00         0.00000E+00
 
    0.25823E+06         0.18321E+07         0.00000E+00
    0.18321E+07        -0.24934E+07         0.00000E+00
    0.00000E+00         0.00000E+00         0.00000E+00
 
    0.31728E+07        -0.91996E+05         0.00000E+00
   -0.91996E+05        -0.94535E+06         0.00000E+00
    0.00000E+00         0.00000E+00         0.00000E+00
 
    0.22645E+07        -0.32945E+06         0.00000E+00
   -0.32945E+06        -0.10716E+07         0.00000E+00
    0.00000E+00         0.00000E+00         0.00000E+00
 
    0.16803E+07        -0.56911E+06         0.00000E+00
   -0.56911E+06        -0.12989E+07         0.00000E+00
    0.00000E+00         0.00000E+00         0.00000E+00
 
    0.13538E+07        -0.75434E+06         0.00000E+00
   -0.75434E+06        -0.15918E+07         0.00000E+00
    0.00000E+00         0.00000E+00         0.00000E+00
 
    0.12153E+07        -0.85546E+06         0.00000E+00
   -0.85546E+06        -0.19150E+07         0.00000E+00
    0.00000E+00         0.00000E+00         0.00000E+00
 
    0.12012E+07        -0.86236E+06         0.00000E+00
   -0.86236E+06        -0.22398E+07         0.00000E+00
    0.00000E+00         0.00000E+00         0.00000E+00
 
    0.12591E+07        -0.77668E+06         0.00000E+00
   -0.77668E+06        -0.25459E+07         0.00000E+00
    0.00000E+00         0.00000E+00         0.00000E+00
 
    0.13472E+07        -0.60545E+06         0.00000E+00
   -0.60545E+06        -0.28198E+07         0.00000E+00
    0.00000E+00         0.00000E+00         0.00000E+00
 
    0.14322E+07        -0.35716E+06         0.00000E+00
   -0.35716E+06        -0.30526E+07         0.00000E+00
    0.00000E+00         0.00000E+00         0.00000E+00
 
    0.14854E+07        -0.40210E+05         0.00000E+00
   -0.40210E+05        -0.32370E+07         0.00000E+00
    0.00000E+00         0.00000E+00         0.00000E+00
 
    0.14795E+07         0.33660E+06         0.00000E+00
    0.33660E+06        -0.33648E+07         0.00000E+00
    0.00000E+00         0.00000E+00         0.00000E+00
 
    0.13865E+07         0.76185E+06         0.00000E+00
    0.76185E+06        -0.34248E+07         0.00000E+00
    0.00000E+00         0.00000E+00         0.00000E+00
 
    0.11773E+07         0.12180E+07         0.00000E+00
    0.12180E+07        -0.34027E+07         0.00000E+00
    0.00000E+00         0.00000E+00         0.00000E+00
 
    0.82371E+06         0.16775E+07         0.00000E+00
    0.16775E+07        -0.32830E+07         0.00000E+00
    0.00000E+00         0.00000E+00         0.00000E+00
 
    0.30373E+06         0.20987E+07         0.00000E+00
    0.20987E+07        -0.30521E+07         0.00000E+00
    0.00000E+00         0.00000E+00         0.00000E+00
 
    0.24951E+07        -0.16904E+06         0.00000E+00
   -0.16904E+06        -0.13562E+07         0.00000E+00
    0.00000E+00         0.00000E+00         0.00000E+00
 
    0.15629E+07        -0.53707E+06         0.00000E+00
   -0.53707E+06        -0.15161E+07         0.00000E+00
    0.00000E+00         0.00000E+00         0.00000E+00
 
    0.10305E+07        -0.86469E+06         0.00000E+00
   -0.86469E+06        -0.17935E+07         0.00000E+00
    0.00000E+00         0.00000E+00         0.00000E+00
 
    0.79625E+06        -0.10939E+07         0.00000E+00
   -0.10939E+07        -0.21363E+07         0.00000E+00
    0.00000E+00         0.00000E+00         0.00000E+00
 
    0.76359E+06        -0.12029E+07         0.00000E+00
   -0.12029E+07        -0.24991E+07         0.00000E+00
    0.00000E+00         0.00000E+00         0.00000E+00
 
    0.85321E+06        -0.11925E+07         0.00000E+00
   -0.11925E+07        -0.28496E+07         0.00000E+00
    0.00000E+00         0.00000E+00         0.00000E+00
 
    0.10055E+07        -0.10747E+07         0.00000E+00
   -0.10747E+07        -0.31689E+07         0.00000E+00
    0.00000E+00         0.00000E+00         0.00000E+00
 
    0.11775E+07        -0.86306E+06         0.00000E+00
   -0.86306E+06        -0.34477E+07         0.00000E+00
    0.00000E+00         0.00000E+00         0.00000E+00
 
    0.13374E+07        -0.56923E+06         0.00000E+00
   -0.56923E+06        -0.36823E+07         0.00000E+00
    0.00000E+00         0.00000E+00         0.00000E+00
 
    0.14581E+07        -0.20101E+06         0.00000E+00
   -0.20101E+06        -0.38694E+07         0.00000E+00
    0.00000E+00         0.00000E+00         0.00000E+00
 
    0.15121E+07         0.23613E+06         0.00000E+00
    0.23613E+06        -0.40028E+07         0.00000E+00
    0.00000E+00         0.00000E+00         0.00000E+00
 
    0.14678E+07         0.73568E+06         0.00000E+00
    0.73568E+06        -0.40706E+07         0.00000E+00
    0.00000E+00         0.00000E+00         0.00000E+00
 
    0.12871E+07         0.12849E+07         0.00000E+00
    0.12849E+07        -0.40540E+07         0.00000E+00
    0.00000E+00         0.00000E+00         0.00000E+00
 
    0.92768E+06         0.18582E+07         0.00000E+00
    0.18582E+07        -0.39286E+07         0.00000E+00
    0.00000E+00         0.00000E+00         0.00000E+00
 
    0.34891E+06         0.24105E+07         0.00000E+00
    0.24105E+07        -0.36687E+07         0.00000E+00
    0.00000E+00         0.00000E+00         0.00000E+00
 
    0.14905E+07        -0.26888E+06         0.00000E+00
   -0.26888E+06        -0.19304E+07         0.00000E+00
    0.00000E+00         0.00000E+00         0.00000E+00
 
    0.58319E+06        -0.79401E+06         0.00000E+00
   -0.79401E+06        -0.21291E+07         0.00000E+00
    0.00000E+00         0.00000E+00         0.00000E+00
 
    0.15705E+06        -0.12131E+07         0.00000E+00
   -0.12131E+07        -0.24585E+07         0.00000E+00
    0.00000E+00         0.00000E+00         0.00000E+00
 
    0.60678E+05        -0.14745E+07         0.00000E+00
   -0.14745E+07        -0.28443E+07         0.00000E+00
    0.00000E+00         0.00000E+00         0.00000E+00
 
    0.16525E+06        -0.15734E+07         0.00000E+00
   -0.15734E+07        -0.32303E+07         0.00000E+00
    0.00000E+00         0.00000E+00         0.00000E+00
 
    0.37607E+06        -0.15294E+07         0.00000E+00
   -0.15294E+07        -0.35835E+07         0.00000E+00
    0.00000E+00         0.00000E+00         0.00000E+00
 
    0.63045E+06        -0.13682E+07         0.00000E+00
   -0.13682E+07        -0.38905E+07         0.00000E+00
    0.00000E+00         0.00000E+00         0.00000E+00
 
    0.88910E+06        -0.11116E+07         0.00000E+00
   -0.11116E+07        -0.41500E+07         0.00000E+00
    0.00000E+00         0.00000E+00         0.00000E+00
 
    0.11260E+07        -0.77356E+06         0.00000E+00
   -0.77356E+06        -0.43656E+07         0.00000E+00
    0.00000E+00         0.00000E+00         0.00000E+00
 
    0.13197E+07        -0.35961E+06         0.00000E+00
   -0.35961E+06        -0.45401E+07         0.00000E+00
    0.00000E+00         0.00000E+00         0.00000E+00
 
    0.14451E+07         0.13080E+06         0.00000E+00
    0.13080E+06        -0.46710E+07         0.00000E+00
    0.00000E+00         0.00000E+00         0.00000E+00
 
    0.14681E+07         0.70001E+06         0.00000E+00
    0.70001E+06        -0.47463E+07         0.00000E+00
    0.00000E+00         0.00000E+00         0.00000E+00
 
    0.13412E+07         0.13451E+07         0.00000E+00
    0.13451E+07        -0.47421E+07         0.00000E+00
    0.00000E+00         0.00000E+00         0.00000E+00
 
    0.10033E+07         0.20479E+07         0.00000E+00
    0.20479E+07        -0.46224E+07         0.00000E+00
    0.00000E+00         0.00000E+00         0.00000E+00
 
    0.38661E+06         0.27635E+07         0.00000E+00
    0.27635E+07        -0.43438E+07         0.00000E+00
    0.00000E+00         0.00000E+00         0.00000E+00
 
    0.59838E+05        -0.39650E+06         0.00000E+00
   -0.39650E+06        -0.27251E+07         0.00000E+00
    0.00000E+00         0.00000E+00         0.00000E+00
 
   -0.74271E+06        -0.11044E+07         0.00000E+00
   -0.11044E+07        -0.29667E+07         0.00000E+00
    0.00000E+00         0.00000E+00         0.00000E+00
 
   -0.98589E+06        -0.16080E+07         0.00000E+00
   -0.16080E+07        -0.33436E+07         0.00000E+00
    0.00000E+00         0.00000E+00         0.00000E+00
 
   -0.88874E+06        -0.18772E+07         0.00000E+00
   -0.18772E+07        -0.37535E+07         0.00000E+00
    0.00000E+00         0.00000E+00         0.00000E+00
 
   -0.61620E+06        -0.19392E+07         0.00000E+00
   -0.19392E+07        -0.41315E+07         0.00000E+00
    0.00000E+00         0.00000E+00         0.00000E+00
 
   -0.27309E+06        -0.18412E+07         0.00000E+00
   -0.18412E+07        -0.44504E+07         0.00000E+00
    0.00000E+00         0.00000E+00         0.00000E+00
 
    0.82867E+05        -0.16262E+07         0.00000E+00
   -0.16262E+07        -0.47082E+07         0.00000E+00
    0.00000E+00         0.00000E+00         0.00000E+00
 
    0.42320E+06        -0.13240E+07         0.00000E+00
   -0.13240E+07        -0.49153E+07         0.00000E+00
    0.00000E+00         0.00000E+00         0.00000E+00
 
    0.73341E+06        -0.94889E+06         0.00000E+00
   -0.94889E+06        -0.50850E+07         0.00000E+00
    0.00000E+00         0.00000E+00         0.00000E+00
 
    0.10016E+07        -0.50212E+06         0.00000E+00
   -0.50212E+06        -0.52275E+07         0.00000E+00
    0.00000E+00         0.00000E+00         0.00000E+00
 
    0.12094E+07         0.25787E+05         0.00000E+00
    0.25787E+05        -0.53452E+07         0.00000E+00
    0.00000E+00         0.00000E+00         0.00000E+00
 
    0.13233E+07         0.65042E+06         0.00000E+00
    0.65042E+06        -0.54279E+07         0.00000E+00
    0.00000E+00         0.00000E+00         0.00000E+00
 
    0.12868E+07         0.13855E+07         0.00000E+00
    0.13855E+07        -0.54472E+07         0.00000E+00
    0.00000E+00         0.00000E+00         0.00000E+00
 
    0.10159E+07         0.22290E+07         0.00000E+00
    0.22290E+07        -0.53532E+07         0.00000E+00
    0.00000E+00         0.00000E+00         0.00000E+00
 
    0.40488E+06         0.31445E+07         0.00000E+00
    0.31445E+07        -0.50777E+07         0.00000E+00
    0.00000E+00         0.00000E+00         0.00000E+00
 
   -0.19178E+07        -0.55725E+06         0.00000E+00
   -0.55725E+06        -0.38141E+07         0.00000E+00
    0.00000E+00         0.00000E+00         0.00000E+00
 
   -0.24892E+07        -0.14671E+07         0.00000E+00
   -0.14671E+07        -0.40986E+07         0.00000E+00
    0.00000E+00         0.00000E+00         0.00000E+00
 
   -0.24449E+07        -0.20294E+07         0.00000E+00
   -0.20294E+07        -0.45054E+07         0.00000E+00
    0.00000E+00         0.00000E+00         0.00000E+00
 
   -0.20923E+07        -0.22646E+07         0.00000E+00
   -0.22646E+07        -0.48994E+07         0.00000E+00
    0.00000E+00         0.00000E+00         0.00000E+00
 
   -0.16288E+07        -0.22542E+07         0.00000E+00
   -0.22542E+07        -0.52164E+07         0.00000E+00
    0.00000E+00         0.00000E+00         0.00000E+00
 
   -0.11547E+07        -0.20819E+07         0.00000E+00
   -0.20819E+07        -0.54464E+07         0.00000E+00
    0.00000E+00         0.00000E+00         0.00000E+00
 
   -0.70949E+06        -0.18081E+07         0.00000E+00
   -0.18081E+07        -0.56064E+07         0.00000E+00
    0.00000E+00         0.00000E+00         0.00000E+00
 
   -0.30173E+06        -0.14666E+07         0.00000E+00
   -0.14666E+07        -0.57212E+07         0.00000E+00
    0.00000E+00         0.00000E+00         0.00000E+00
 
    0.70857E+05        -0.10695E+07         0.00000E+00
   -0.10695E+07        -0.58138E+07         0.00000E+00
    0.00000E+00         0.00000E+00         0.00000E+00
 
    0.41032E+06        -0.61131E+06         0.00000E+00
   -0.61131E+06        -0.59017E+07         0.00000E+00
    0.00000E+00         0.00000E+00         0.00000E+00
 
    0.70948E+06        -0.72073E+05         0.00000E+00
   -0.72073E+05        -0.59933E+07         0.00000E+00
    0.00000E+00         0.00000E+00         0.00000E+00
 
    0.94125E+06         0.58086E+06         0.00000E+00
    0.58086E+06        -0.60828E+07         0.00000E+00
    0.00000E+00         0.00000E+00         0.00000E+00
 
    0.10447E+07         0.13861E+07         0.00000E+00
    0.13861E+07        -0.61408E+07         0.00000E+00
    0.00000E+00         0.00000E+00         0.00000E+00
 
    0.91163E+06         0.23717E+07         0.00000E+00
    0.23717E+07        -0.61037E+07         0.00000E+00
    0.00000E+00         0.00000E+00         0.00000E+00
 
    0.38456E+06         0.35246E+07         0.00000E+00
    0.35246E+07        -0.58704E+07         0.00000E+00
    0.00000E+00         0.00000E+00         0.00000E+00
 
   -0.45854E+07        -0.75603E+06         0.00000E+00
   -0.75603E+06        -0.52905E+07         0.00000E+00
    0.00000E+00         0.00000E+00         0.00000E+00
 
   -0.47292E+07        -0.18681E+07         0.00000E+00
   -0.18681E+07        -0.56080E+07         0.00000E+00
    0.00000E+00         0.00000E+00         0.00000E+00
 
   -0.42628E+07        -0.24310E+07         0.00000E+00
   -0.24310E+07        -0.59990E+07         0.00000E+00
    0.00000E+00         0.00000E+00         0.00000E+00
 
   -0.35983E+07        -0.25700E+07         0.00000E+00
   -0.25700E+07        -0.63010E+07         0.00000E+00
    0.00000E+00         0.00000E+00         0.00000E+00
 
   -0.29408E+07        -0.24496E+07         0.00000E+00
   -0.24496E+07        -0.64739E+07         0.00000E+00
    0.00000E+00         0.00000E+00         0.00000E+00
 
   -0.23566E+07        -0.21923E+07         0.00000E+00
   -0.21923E+07        -0.65430E+07         0.00000E+00
    0.00000E+00         0.00000E+00         0.00000E+00
 
   -0.18477E+07        -0.18668E+07         0.00000E+00
   -0.18668E+07        -0.65499E+07         0.00000E+00
    0.00000E+00         0.00000E+00         0.00000E+00
 
   -0.13955E+07        -0.15035E+07         0.00000E+00
   -0.15035E+07        -0.65314E+07         0.00000E+00
    0.00000E+00         0.00000E+00         0.00000E+00
 
   -0.97773E+06        -0.11080E+07         0.00000E+00
   -0.11080E+07        -0.65166E+07         0.00000E+00
    0.00000E+00         0.00000E+00         0.00000E+00
 
   -0.57614E+06        -0.66779E+06         0.00000E+00
   -0.66779E+06        -0.65269E+07         0.00000E+00
    0.00000E+00         0.00000E+00         0.00000E+00
 
   -0.18174E+06        -0.15331E+06         0.00000E+00
   -0.15331E+06        -0.65769E+07         0.00000E+00
    0.00000E+00         0.00000E+00         0.00000E+00
 
    0.19437E+06         0.48551E+06         0.00000E+00
    0.48551E+06        -0.66698E+07         0.00000E+00
    0.00000E+00         0.00000E+00         0.00000E+00
 
    0.49939E+06         0.13200E+07         0.00000E+00
    0.13200E+07        -0.67836E+07         0.00000E+00
    0.00000E+00         0.00000E+00         0.00000E+00
 
    0.60709E+06         0.24283E+07         0.00000E+00
    0.24283E+07        -0.68476E+07         0.00000E+00
    0.00000E+00         0.00000E+00         0.00000E+00
 
    0.29508E+06         0.38500E+07         0.00000E+00
    0.38500E+07        -0.67213E+07         0.00000E+00
    0.00000E+00         0.00000E+00         0.00000E+00
 
   -0.81014E+07        -0.99483E+06         0.00000E+00
   -0.99483E+06        -0.72700E+07         0.00000E+00
    0.00000E+00         0.00000E+00         0.00000E+00
 
   -0.75163E+07        -0.22624E+07         0.00000E+00
   -0.22624E+07        -0.75824E+07         0.00000E+00
    0.00000E+00         0.00000E+00         0.00000E+00
 
   -0.64750E+07        -0.27161E+07         0.00000E+00
   -0.27161E+07        -0.78535E+07         0.00000E+00
    0.00000E+00         0.00000E+00         0.00000E+00
 
   -0.54760E+07        -0.26842E+07         0.00000E+00
   -0.26842E+07        -0.79291E+07         0.00000E+00
    0.00000E+00         0.00000E+00         0.00000E+00
 
   -0.46588E+07        -0.24352E+07         0.00000E+00
   -0.24352E+07        -0.78441E+07         0.00000E+00
    0.00000E+00         0.00000E+00         0.00000E+00
 
   -0.40066E+07        -0.21076E+07         0.00000E+00
   -0.21076E+07        -0.76745E+07         0.00000E+00
    0.00000E+00         0.00000E+00         0.00000E+00
 
   -0.34696E+07        -0.17579E+07         0.00000E+00
   -0.17579E+07        -0.74787E+07         0.00000E+00
    0.00000E+00         0.00000E+00         0.00000E+00
 
   -0.30001E+07        -0.14035E+07         0.00000E+00
   -0.14035E+07        -0.72955E+07         0.00000E+00
    0.00000E+00         0.00000E+00         0.00000E+00
 
   -0.25575E+07        -0.10411E+07         0.00000E+00
   -0.10411E+07        -0.71514E+07         0.00000E+00
    0.00000E+00         0.00000E+00         0.00000E+00
 
   -0.21079E+07        -0.65283E+06         0.00000E+00
   -0.65283E+06        -0.70665E+07         0.00000E+00
    0.00000E+00         0.00000E+00         0.00000E+00
 
   -0.16233E+07        -0.20439E+06         0.00000E+00
   -0.20439E+06        -0.70588E+07         0.00000E+00
    0.00000E+00         0.00000E+00         0.00000E+00
 
   -0.10864E+07         0.36419E+06         0.00000E+00
    0.36419E+06        -0.71439E+07         0.00000E+00
    0.00000E+00         0.00000E+00         0.00000E+00
 
   -0.51585E+06         0.11573E+07         0.00000E+00
    0.11573E+07        -0.73241E+07         0.00000E+00
    0.00000E+00         0.00000E+00         0.00000E+00
 
   -0.27697E+05         0.23292E+07         0.00000E+00
    0.23292E+07        -0.75437E+07         0.00000E+00
    0.00000E+00         0.00000E+00         0.00000E+00
 
    0.86286E+05         0.40279E+07         0.00000E+00
    0.40279E+07        -0.76266E+07         0.00000E+00
    0.00000E+00         0.00000E+00         0.00000E+00
 
   -0.12614E+08        -0.12634E+07         0.00000E+00
   -0.12634E+07        -0.98840E+07         0.00000E+00
    0.00000E+00         0.00000E+00         0.00000E+00
 
   -0.10850E+08        -0.25244E+07         0.00000E+00
   -0.25244E+07        -0.10080E+08         0.00000E+00
    0.00000E+00         0.00000E+00         0.00000E+00
 
   -0.91236E+07        -0.26962E+07         0.00000E+00
   -0.26962E+07        -0.99983E+07         0.00000E+00
    0.00000E+00         0.00000E+00         0.00000E+00
 
   -0.78529E+07        -0.24581E+07         0.00000E+00
   -0.24581E+07        -0.96475E+07         0.00000E+00
    0.00000E+00         0.00000E+00         0.00000E+00
 
   -0.69522E+07        -0.21205E+07         0.00000E+00
   -0.21205E+07        -0.91919E+07         0.00000E+00
    0.00000E+00         0.00000E+00         0.00000E+00
 
   -0.62854E+07        -0.17775E+07         0.00000E+00
   -0.17775E+07        -0.87294E+07         0.00000E+00
    0.00000E+00         0.00000E+00         0.00000E+00
 
   -0.57548E+07        -0.14543E+07         0.00000E+00
   -0.14543E+07        -0.83080E+07         0.00000E+00
    0.00000E+00         0.00000E+00         0.00000E+00
 
   -0.52912E+07        -0.11512E+07         0.00000E+00
   -0.11512E+07        -0.79518E+07         0.00000E+00
    0.00000E+00         0.00000E+00         0.00000E+00
 
   -0.48417E+07        -0.85745E+06         0.00000E+00
   -0.85745E+06        -0.76748E+07         0.00000E+00
    0.00000E+00         0.00000E+00         0.00000E+00
 
   -0.43604E+07        -0.55395E+06         0.00000E+00
   -0.55395E+06        -0.74897E+07         0.00000E+00
    0.00000E+00         0.00000E+00         0.00000E+00
 
   -0.38007E+07        -0.20934E+06         0.00000E+00
   -0.20934E+06        -0.74132E+07         0.00000E+00
    0.00000E+00         0.00000E+00         0.00000E+00
 
   -0.31113E+07         0.23217E+06         0.00000E+00
    0.23217E+06        -0.74710E+07         0.00000E+00
    0.00000E+00         0.00000E+00         0.00000E+00
 
   -0.22377E+07         0.88110E+06         0.00000E+00
    0.88110E+06        -0.77009E+07         0.00000E+00
    0.00000E+00         0.00000E+00         0.00000E+00
 
   -0.12041E+07         0.19819E+07         0.00000E+00
    0.19819E+07        -0.81260E+07         0.00000E+00
    0.00000E+00         0.00000E+00         0.00000E+00
 
   -0.33011E+06         0.38991E+07         0.00000E+00
    0.38991E+07        -0.85714E+07         0.00000E+00
    0.00000E+00         0.00000E+00         0.00000E+00
 
   -0.18159E+08        -0.14891E+07         0.00000E+00
   -0.14891E+07        -0.13260E+08         0.00000E+00
    0.00000E+00         0.00000E+00         0.00000E+00
 
   -0.14648E+08        -0.22974E+07         0.00000E+00
   -0.22974E+07        -0.12922E+08         0.00000E+00
    0.00000E+00         0.00000E+00         0.00000E+00
 
   -0.12355E+08        -0.20932E+07         0.00000E+00
   -0.20932E+07        -0.12090E+08         0.00000E+00
    0.00000E+00         0.00000E+00         0.00000E+00
 
   -0.10975E+08        -0.17688E+07         0.00000E+00
   -0.17688E+07        -0.11161E+08         0.00000E+00
    0.00000E+00         0.00000E+00         0.00000E+00
 
   -0.10070E+08        -0.14627E+07         0.00000E+00
   -0.14627E+07        -0.10304E+08         0.00000E+00
    0.00000E+00         0.00000E+00         0.00000E+00
 
   -0.94274E+07        -0.11955E+07         0.00000E+00
   -0.11955E+07        -0.95607E+07         0.00000E+00
    0.00000E+00         0.00000E+00         0.00000E+00
 
   -0.89217E+07        -0.96358E+06         0.00000E+00
   -0.96358E+06        -0.89391E+07         0.00000E+00
    0.00000E+00         0.00000E+00         0.00000E+00
 
   -0.84748E+07        -0.75751E+06         0.00000E+00
   -0.75751E+06        -0.84358E+07         0.00000E+00
    0.00000E+00         0.00000E+00         0.00000E+00
 
   -0.80282E+07        -0.56548E+06         0.00000E+00
   -0.56548E+06        -0.80479E+07         0.00000E+00
    0.00000E+00         0.00000E+00         0.00000E+00
 
   -0.75290E+07        -0.37278E+06         0.00000E+00
   -0.37278E+06        -0.77772E+07         0.00000E+00
    0.00000E+00         0.00000E+00         0.00000E+00
 
   -0.69172E+07        -0.15795E+06         0.00000E+00
   -0.15795E+06        -0.76352E+07         0.00000E+00
    0.00000E+00         0.00000E+00         0.00000E+00
 
   -0.61102E+07         0.11689E+06         0.00000E+00
    0.11689E+06        -0.76508E+07         0.00000E+00
    0.00000E+00         0.00000E+00         0.00000E+00
 
   -0.49799E+07         0.53156E+06         0.00000E+00
    0.53156E+06        -0.78853E+07         0.00000E+00
    0.00000E+00         0.00000E+00         0.00000E+00
 
   -0.32941E+07         0.13005E+07         0.00000E+00
    0.13005E+07        -0.84706E+07         0.00000E+00
    0.00000E+00         0.00000E+00         0.00000E+00
 
   -0.11369E+07         0.31758E+07         0.00000E+00
    0.31758E+07        -0.95095E+07         0.00000E+00
    0.00000E+00         0.00000E+00         0.00000E+00
 
   -0.24317E+08        -0.10254E+07         0.00000E+00
   -0.10254E+07        -0.16686E+08         0.00000E+00
    0.00000E+00         0.00000E+00         0.00000E+00
 
   -0.19010E+08        -0.99660E+06         0.00000E+00
   -0.99660E+06        -0.15084E+08         0.00000E+00
    0.00000E+00         0.00000E+00         0.00000E+00
 
   -0.16587E+08        -0.80266E+06         0.00000E+00
   -0.80266E+06        -0.13446E+08         0.00000E+00
    0.00000E+00         0.00000E+00         0.00000E+00
 
   -0.15202E+08        -0.64851E+06         0.00000E+00
   -0.64851E+06        -0.12069E+08         0.00000E+00
    0.00000E+00         0.00000E+00         0.00000E+00
 
   -0.14322E+08        -0.52337E+06         0.00000E+00
   -0.52337E+06        -0.10941E+08         0.00000E+00
    0.00000E+00         0.00000E+00         0.00000E+00
 
   -0.13703E+08        -0.42179E+06         0.00000E+00
   -0.42179E+06        -0.10022E+08         0.00000E+00
    0.00000E+00         0.00000E+00         0.00000E+00
 
   -0.13216E+08        -0.33720E+06         0.00000E+00
   -0.33720E+06        -0.92816E+07         0.00000E+00
    0.00000E+00         0.00000E+00         0.00000E+00
 
   -0.12780E+08        -0.26405E+06         0.00000E+00
   -0.26405E+06        -0.86934E+07         0.00000E+00
    0.00000E+00         0.00000E+00         0.00000E+00
 
   -0.12336E+08        -0.19725E+06         0.00000E+00
   -0.19725E+06        -0.82420E+07         0.00000E+00
    0.00000E+00         0.00000E+00         0.00000E+00
 
   -0.11827E+08        -0.13129E+06         0.00000E+00
   -0.13129E+06        -0.79214E+07         0.00000E+00
    0.00000E+00         0.00000E+00         0.00000E+00
 
   -0.11188E+08        -0.58598E+05         0.00000E+00
   -0.58598E+05        -0.77386E+07         0.00000E+00
    0.00000E+00         0.00000E+00         0.00000E+00
 
   -0.10317E+08         0.33768E+05         0.00000E+00
    0.33768E+05        -0.77205E+07         0.00000E+00
    0.00000E+00         0.00000E+00         0.00000E+00
 
   -0.90362E+07         0.17491E+06         0.00000E+00
    0.17491E+06        -0.79354E+07         0.00000E+00
    0.00000E+00         0.00000E+00         0.00000E+00
 
   -0.69687E+07         0.43436E+06         0.00000E+00
    0.43436E+06        -0.85536E+07         0.00000E+00
    0.00000E+00         0.00000E+00         0.00000E+00
 
   -0.28367E+07         0.13095E+07         0.00000E+00
    0.13095E+07        -0.10186E+08         0.00000E+00
    0.00000E+00         0.00000E+00         0.00000E+00
 
TENSORS stresstot double 
   -0.57727E+08         0.47559E+04         0.00000E+00
    0.47559E+04        -0.59995E+08         0.00000E+00
    0.00000E+00         0.00000E+00        -0.60000E+08
 
   -0.57810E+08         0.13033E+05         0.00000E+00
    0.13033E+05        -0.59977E+08         0.00000E+00
    0.00000E+00         0.00000E+00        -0.60000E+08
 
   -0.57923E+08         0.19753E+05         0.00000E+00
    0.19753E+05        -0.59945E+08         0.00000E+00
    0.00000E+00         0.00000E+00        -0.60000E+08
 
   -0.58059E+08         0.25057E+05         0.00000E+00
    0.25057E+05        -0.59900E+08         0.00000E+00
    0.00000E+00         0.00000E+00        -0.60000E+08
 
   -0.58213E+08         0.29115E+05         0.00000E+00
    0.29115E+05        -0.59846E+08         0.00000E+00
    0.00000E+00         0.00000E+00        -0.60000E+08
 
   -0.58381E+08         0.32109E+05         0.00000E+00
    0.32109E+05        -0.59785E+08         0.00000E+00
    0.00000E+00         0.00000E+00        -0.60000E+08
 
   -0.58556E+08         0.34220E+05         0.00000E+00
    0.34220E+05        -0.59718E+08         0.00000E+00
    0.00000E+00         0.00000E+00        -0.60000E+08
 
   -0.58737E+08         0.35615E+05         0.00000E+00
    0.35615E+05        -0.59649E+08         0.00000E+00
    0.00000E+00         0.00000E+00        -0.60000E+08
 
   -0.58919E+08         0.36446E+05         0.00000E+00
    0.36446E+05        -0.59577E+08         0.00000E+00
    0.00000E+00         0.00000E+00        -0.60000E+08
 
   -0.59100E+08         0.36845E+05         0.00000E+00
    0.36845E+05        -0.59503E+08         0.00000E+00
    0.00000E+00         0.00000E+00        -0.60000E+08
 
   -0.59277E+08         0.36927E+05         0.00000E+00
    0.36927E+05        -0.59430E+08         0.00000E+00
    0.00000E+00         0.00000E+00        -0.60000E+08
 
   -0.59450E+08         0.36793E+05         0.00000E+00
    0.36793E+05        -0.59356E+08         0.00000E+00
    0.00000E+00         0.00000E+00        -0.60000E+08
 
   -0.59616E+08         0.36541E+05         0.00000E+00
    0.36541E+05        -0.59283E+08         0.00000E+00
    0.00000E+00         0.00000E+00        -0.60000E+08
 
   -0.59774E+08         0.36271E+05         0.00000E+00
    0.36271E+05        -0.59210E+08         0.00000E+00
    0.00000E+00         0.00000E+00        -0.60000E+08
 
   -0.59926E+08         0.36095E+05         0.00000E+00
    0.36095E+05        -0.59138E+08         0.00000E+00
    0.00000E+00         0.00000E+00        -0.60000E+08
 
   -0.57709E+08         0.14256E+05         0.00000E+00
    0.14256E+05        -0.59995E+08         0.00000E+00
    0.00000E+00         0.00000E+00        -0.60000E+08
 
   -0.57795E+08         0.39044E+05         0.00000E+00
    0.39044E+05        -0.59978E+08         0.00000E+00
    0.00000E+00         0.00000E+00        -0.60000E+08
 
   -0.57911E+08         0.59138E+05         0.00000E+00
    0.59138E+05        -0.59945E+08         0.00000E+00
    0.00000E+00         0.00000E+00        -0.60000E+08
 
   -0.58050E+08         0.74979E+05         0.00000E+00
    0.74979E+05        -0.59901E+08         0.00000E+00
    0.00000E+00         0.00000E+00        -0.60000E+08
 
   -0.58206E+08         0.87087E+05         0.00000E+00
    0.87087E+05        -0.59847E+08         0.00000E+00
    0.00000E+00         0.00000E+00        -0.60000E+08
 
   -0.58376E+08         0.96016E+05         0.00000E+00
    0.96016E+05        -0.59786E+08         0.00000E+00
    0.00000E+00         0.00000E+00        -0.60000E+08
 
   -0.58553E+08         0.10231E+06         0.00000E+00
    0.10231E+06        -0.59721E+08         0.00000E+00
    0.00000E+00         0.00000E+00        -0.60000E+08
 
   -0.58735E+08         0.10648E+06         0.00000E+00
    0.10648E+06        -0.59652E+08         0.00000E+00
    0.00000E+00         0.00000E+00        -0.60000E+08
 
   -0.58918E+08         0.10898E+06         0.00000E+00
    0.10898E+06        -0.59580E+08         0.00000E+00
    0.00000E+00         0.00000E+00        -0.60000E+08
 
   -0.59100E+08         0.11020E+06         0.00000E+00
    0.11020E+06        -0.59508E+08         0.00000E+00
    0.00000E+00         0.00000E+00        -0.60000E+08
 
   -0.59277E+08         0.11048E+06         0.00000E+00
    0.11048E+06        -0.59435E+08         0.00000E+00
    0.00000E+00         0.00000E+00        -0.60000E+08
 
   -0.59450E+08         0.11012E+06         0.00000E+00
    0.11012E+06        -0.59362E+08         0.00000E+00
    0.00000E+00         0.00000E+00        -0.60000E+08
 
   -0.59616E+08         0.10941E+06         0.00000E+00
    0.10941E+06        -0.59289E+08         0.00000E+00
    0.00000E+00         0.00000E+00        -0.60000E+08
 
   -0.59775E+08         0.10863E+06         0.00000E+00
    0.10863E+06        -0.59217E+08         0.00000E+00
    0.00000E+00         0.00000E+00        -0.60000E+08
 
   -0.59926E+08         0.10813E+06         0.00000E+00
    0.10813E+06        -0.59145E+08         0.00000E+00
    0.00000E+00         0.00000E+00        -0.60000E+08
 
   -0.57673E+08         0.23719E+05         0.00000E+00
    0.23719E+05        -0.59995E+08         0.00000E+00
    0.00000E+00         0.00000E+00        -0.59999E+08
 
   -0.57765E+08         0.64874E+05         0.00000E+00
    0.64874E+05        -0.59978E+08         0.00000E+00
    0.00000E+00         0.00000E+00        -0.59999E+08
 
   -0.57887E+08         0.98147E+05         0.00000E+00
    0.98147E+05        -0.59946E+08         0.00000E+00
    0.00000E+00         0.00000E+00        -0.59999E+08
 
   -0.58031E+08         0.12431E+06         0.00000E+00
    0.12431E+06        -0.59902E+08         0.00000E+00
    0.00000E+00         0.00000E+00        -0.59999E+08
 
   -0.58192E+08         0.14426E+06         0.00000E+00
    0.14426E+06        -0.59849E+08         0.00000E+00
    0.00000E+00         0.00000E+00        -0.59999E+08
 
   -0.58366E+08         0.15896E+06         0.00000E+00
    0.15896E+06        -0.59790E+08         0.00000E+00
    0.00000E+00         0.00000E+00        -0.59999E+08
 
   -0.58546E+08         0.16933E+06         0.00000E+00
    0.16933E+06        -0.59725E+08         0.00000E+00
    0.00000E+00         0.00000E+00        -0.59999E+08
 
   -0.58731E+08         0.17623E+06         0.00000E+00
    0.17623E+06        -0.59658E+08         0.00000E+00
    0.00000E+00         0.00000E+00        -0.59999E+08
 
   -0.58916E+08         0.18041E+06         0.00000E+00
    0.18041E+06        -0.59588E+08         0.00000E+00
    0.00000E+00         0.00000E+00        -0.59999E+08
 
   -0.59099E+08         0.18252E+06         0.00000E+00
    0.18252E+06        -0.59517E+08         0.00000E+00
    0.00000E+00         0.00000E+00        -0.59999E+08
 
   -0.59277E+08         0.18312E+06         0.00000E+00
    0.18312E+06        -0.59445E+08         0.00000E+00
    0.00000E+00         0.00000E+00        -0.59999E+08
 
   -0.59451E+08         0.18267E+06         0.00000E+00
    0.18267E+06        -0.59373E+08         0.00000E+00
    0.00000E+00         0.00000E+00        -0.59999E+08
 
   -0.59617E+08         0.18163E+06         0.00000E+00
    0.18163E+06        -0.59302E+08         0.00000E+00
    0.00000E+00         0.00000E+00        -0.59999E+08
 
   -0.59776E+08         0.18047E+06         0.00000E+00
    0.18047E+06        -0.59230E+08         0.00000E+00
    0.00000E+00         0.00000E+00        -0.59999E+08
 
   -0.59926E+08         0.17972E+06         0.00000E+00
    0.17972E+06        -0.59159E+08         0.00000E+00
    0.00000E+00         0.00000E+00        -0.59999E+08
 
   -0.57619E+08         0.33108E+05         0.00000E+00
    0.33108E+05        -0.59995E+08         0.00000E+00
    0.00000E+00         0.00000E+00        -0.59999E+08
 
   -0.57721E+08         0.90376E+05         0.00000E+00
    0.90376E+05        -0.59978E+08         0.00000E+00
    0.00000E+00         0.00000E+00        -0.59999E+08
 
   -0.57852E+08         0.13648E+06         0.00000E+00
    0.13648E+06        -0.59946E+08         0.00000E+00
    0.00000E+00         0.00000E+00        -0.59999E+08
 
   -0.58004E+08         0.17259E+06         0.00000E+00
    0.17259E+06        -0.59904E+08         0.00000E+00
    0.00000E+00         0.00000E+00        -0.59999E+08
 
   -0.58172E+08         0.20004E+06         0.00000E+00
    0.20004E+06        -0.59853E+08         0.00000E+00
    0.00000E+00         0.00000E+00        -0.59999E+08
 
   -0.58351E+08         0.22023E+06         0.00000E+00
    0.22023E+06        -0.59795E+08         0.00000E+00
    0.00000E+00         0.00000E+00        -0.59999E+08
 
   -0.58536E+08         0.23450E+06         0.00000E+00
    0.23450E+06        -0.59733E+08         0.00000E+00
    0.00000E+00         0.00000E+00        -0.59999E+08
 
   -0.58724E+08         0.24405E+06         0.00000E+00
    0.24405E+06        -0.59668E+08         0.00000E+00
    0.00000E+00         0.00000E+00        -0.59999E+08
 
   -0.58912E+08         0.24995E+06         0.00000E+00
    0.24995E+06        -0.59600E+08         0.00000E+00
    0.00000E+00         0.00000E+00        -0.59999E+08
 
   -0.59097E+08         0.25309E+06         0.00000E+00
    0.25309E+06        -0.59532E+08         0.00000E+00
    0.00000E+00         0.00000E+00        -0.59999E+08
 
   -0.59277E+08         0.25420E+06         0.00000E+00
    0.25420E+06        -0.59462E+08         0.00000E+00
    0.00000E+00         0.00000E+00        -0.59999E+08
 
   -0.59451E+08         0.25391E+06         0.00000E+00
    0.25391E+06        -0.59392E+08         0.00000E+00
    0.00000E+00         0.00000E+00        -0.59999E+08
 
   -0.59618E+08         0.25280E+06         0.00000E+00
    0.25280E+06        -0.59321E+08         0.00000E+00
    0.00000E+00         0.00000E+00        -0.59999E+08
 
   -0.59777E+08         0.25145E+06         0.00000E+00
    0.25145E+06        -0.59251E+08         0.00000E+00
    0.00000E+00         0.00000E+00        -0.59999E+08
 
   -0.59927E+08         0.25058E+06         0.00000E+00
    0.25058E+06        -0.59180E+08         0.00000E+00
    0.00000E+00         0.00000E+00        -0.59999E+08
 
   -0.57547E+08         0.42374E+05         0.00000E+00
    0.42374E+05        -0.59995E+08         0.00000E+00
    0.00000E+00         0.00000E+00        -0.59999E+08
 
   -0.57662E+08         0.11535E+06         0.00000E+00
    0.11535E+06        -0.59979E+08         0.00000E+00
    0.00000E+00         0.00000E+00        -0.59999E+08
 
   -0.57805E+08         0.17376E+06         0.00000E+00
    0.17376E+06        -0.59948E+08         0.00000E+00
    0.00000E+00         0.00000E+00        -0.59999E+08
 
   -0.57968E+08         0.21927E+06         0.00000E+00
    0.21927E+06        -0.59907E+08         0.00000E+00
    0.00000E+00         0.00000E+00        -0.59999E+08
 
   -0.58145E+08         0.25371E+06         0.00000E+00
    0.25371E+06        -0.59858E+08         0.00000E+00
    0.00000E+00         0.00000E+00        -0.59999E+08
 
   -0.58332E+08         0.27899E+06         0.00000E+00
    0.27899E+06        -0.59803E+08         0.00000E+00
    0.00000E+00         0.00000E+00        -0.59999E+08
 
   -0.58523E+08         0.29689E+06         0.00000E+00
    0.29689E+06        -0.59744E+08         0.00000E+00
    0.00000E+00         0.00000E+00        -0.59999E+08
 
   -0.58715E+08         0.30902E+06         0.00000E+00
    0.30902E+06        -0.59682E+08         0.00000E+00
    0.00000E+00         0.00000E+00        -0.59999E+08
 
   -0.58907E+08         0.31671E+06         0.00000E+00
    0.31671E+06        -0.59618E+08         0.00000E+00
    0.00000E+00         0.00000E+00        -0.59999E+08
 
   -0.59094E+08         0.32110E+06         0.00000E+00
    0.32110E+06        -0.59553E+08         0.00000E+00
    0.00000E+00         0.00000E+00        -0.59999E+08
 
   -0.59277E+08         0.32305E+06         0.00000E+00
    0.32305E+06        -0.59486E+08         0.00000E+00
    0.00000E+00         0.00000E+00        -0.59999E+08
 
   -0.59452E+08         0.32329E+06         0.00000E+00
    0.32329E+06        -0.59418E+08         0.00000E+00
    0.00000E+00         0.00000E+00        -0.59999E+08
 
   -0.59619E+08         0.32248E+06         0.00000E+00
    0.32248E+06        -0.59349E+08         0.00000E+00
    0.00000E+00         0.00000E+00        -0.59999E+08
 
   -0.59778E+08         0.32128E+06         0.00000E+00
    0.32128E+06        -0.59280E+08         0.00000E+00
    0.00000E+00         0.00000E+00        -0.59999E+08
 
   -0.59927E+08         0.32050E+06         0.00000E+00
    0.32050E+06        -0.59211E+08         0.00000E+00
    0.00000E+00         0.00000E+00        -0.59999E+08
 
   -0.57457E+08         0.51441E+05         0.00000E+00
    0.51441E+05        -0.59996E+08         0.00000E+00
    0.00000E+00         0.00000E+00        -0.59998E+08
 
   -0.57590E+08         0.13954E+06         0.00000E+00
    0.13954E+06        -0.59979E+08         0.00000E+00
    0.00000E+00         0.00000E+00        -0.59998E+08
 
   -0.57749E+08         0.20952E+06         0.00000E+00
    0.20952E+06        -0.59950E+08         0.00000E+00
    0.00000E+00         0.00000E+00        -0.59998E+08
 
   -0.57925E+08         0.26365E+06         0.00000E+00
    0.26365E+06        -0.59911E+08         0.00000E+00
    0.00000E+00         0.00000E+00        -0.59998E+08
 
   -0.58113E+08         0.30440E+06         0.00000E+00
    0.30440E+06        -0.59865E+08         0.00000E+00
    0.00000E+00         0.00000E+00        -0.59998E+08
 
   -0.58308E+08         0.33424E+06         0.00000E+00
    0.33424E+06        -0.59814E+08         0.00000E+00
    0.00000E+00         0.00000E+00        -0.59998E+08
 
   -0.58506E+08         0.35546E+06         0.00000E+00
    0.35546E+06        -0.59760E+08         0.00000E+00
    0.00000E+00         0.00000E+00        -0.59998E+08
 
   -0.58705E+08         0.37005E+06         0.00000E+00
    0.37005E+06        -0.59702E+08         0.00000E+00
    0.00000E+00         0.00000E+00        -0.59998E+08
 
   -0.58900E+08         0.37968E+06         0.00000E+00
    0.37968E+06        -0.59643E+08         0.00000E+00
    0.00000E+00         0.00000E+00        -0.59998E+08
 
   -0.59091E+08         0.38564E+06         0.00000E+00
    0.38564E+06        -0.59581E+08         0.00000E+00
    0.00000E+00         0.00000E+00        -0.59998E+08
 
   -0.59275E+08         0.38891E+06         0.00000E+00
    0.38891E+06        -0.59518E+08         0.00000E+00
    0.00000E+00         0.00000E+00        -0.59998E+08
 
   -0.59452E+08         0.39025E+06         0.00000E+00
    0.39025E+06        -0.59453E+08         0.00000E+00
    0.00000E+00         0.00000E+00        -0.59998E+08
 
   -0.59620E+08         0.39029E+06         0.00000E+00
    0.39029E+06        -0.59387E+08         0.00000E+00
    0.00000E+00         0.00000E+00        -0.59998E+08
 
   -0.59779E+08         0.38970E+06         0.00000E+00
    0.38970E+06        -0.59320E+08         0.00000E+00
    0.00000E+00         0.00000E+00        -0.59998E+08
 
   -0.59927E+08         0.38934E+06         0.00000E+00
    0.38934E+06        -0.59252E+08         0.00000E+00
    0.00000E+00         0.00000E+00        -0.59998E+08
 
   -0.57351E+08         0.60207E+05         0.00000E+00
    0.60207E+05        -0.59996E+08         0.00000E+00
    0.00000E+00         0.00000E+00        -0.59997E+08
 
   -0.57505E+08         0.16259E+06         0.00000E+00
    0.16259E+06        -0.59980E+08         0.00000E+00
    0.00000E+00         0.00000E+00        -0.59997E+08
 
   -0.57682E+08         0.24313E+06         0.00000E+00
    0.24313E+06        -0.59953E+08         0.00000E+00
    0.00000E+00         0.00000E+00        -0.59997E+08
 
   -0.57874E+08         0.30487E+06         0.00000E+00
    0.30487E+06        -0.59917E+08         0.00000E+00
    0.00000E+00         0.00000E+00        -0.59997E+08
 
   -0.58076E+08         0.35103E+06         0.00000E+00
    0.35103E+06        -0.59876E+08         0.00000E+00
    0.00000E+00         0.00000E+00        -0.59997E+08
 
   -0.58281E+08         0.38475E+06         0.00000E+00
    0.38475E+06        -0.59830E+08         0.00000E+00
    0.00000E+00         0.00000E+00        -0.59997E+08
 
   -0.58488E+08         0.40890E+06         0.00000E+00
    0.40890E+06        -0.59781E+08         0.00000E+00
    0.00000E+00         0.00000E+00        -0.59997E+08
 
   -0.58691E+08         0.42589E+06         0.00000E+00
    0.42589E+06        -0.59729E+08         0.00000E+00
    0.00000E+00         0.00000E+00        -0.59997E+08
 
   -0.58891E+08         0.43768E+06         0.00000E+00
    0.43768E+06        -0.59675E+08         0.00000E+00
    0.00000E+00         0.00000E+00        -0.59997E+08
 
   -0.59085E+08         0.44570E+06         0.00000E+00
    0.44570E+06        -0.59619E+08         0.00000E+00
    0.00000E+00         0.00000E+00        -0.59997E+08
 
   -0.59272E+08         0.45097E+06         0.00000E+00
    0.45097E+06        -0.59561E+08         0.00000E+00
    0.00000E+00         0.00000E+00        -0.59997E+08
 
   -0.59450E+08         0.45419E+06         0.00000E+00
    0.45419E+06        -0.59500E+08         0.00000E+00
    0.00000E+00         0.00000E+00        -0.59997E+08
 
   -0.59620E+08         0.45586E+06         0.00000E+00
    0.45586E+06        -0.59436E+08         0.00000E+00
    0.00000E+00         0.00000E+00        -0.59997E+08
 
   -0.59779E+08         0.45656E+06         0.00000E+00
    0.45656E+06        -0.59371E+08         0.00000E+00
    0.00000E+00         0.00000E+00        -0.59997E+08
 
   -0.59926E+08         0.45705E+06         0.00000E+00
    0.45705E+06        -0.59305E+08         0.00000E+00
    0.00000E+00         0.00000E+00        -0.59997E+08
 
   -0.57229E+08         0.68528E+05         0.00000E+00
    0.68528E+05        -0.59996E+08         0.00000E+00
    0.00000E+00         0.00000E+00        -0.59995E+08
 
   -0.57409E+08         0.18403E+06         0.00000E+00
    0.18403E+06        -0.59982E+08         0.00000E+00
    0.00000E+00         0.00000E+00        -0.59995E+08
 
   -0.57608E+08         0.27379E+06         0.00000E+00
    0.27379E+06        -0.59957E+08         0.00000E+00
    0.00000E+00         0.00000E+00        -0.59995E+08
 
   -0.57818E+08         0.34182E+06         0.00000E+00
    0.34182E+06        -0.59926E+08         0.00000E+00
    0.00000E+00         0.00000E+00        -0.59995E+08
 
   -0.58034E+08         0.39226E+06         0.00000E+00
    0.39226E+06        -0.59889E+08         0.00000E+00
    0.00000E+00         0.00000E+00        -0.59995E+08
 
   -0.58251E+08         0.42904E+06         0.00000E+00
    0.42904E+06        -0.59850E+08         0.00000E+00
    0.00000E+00         0.00000E+00        -0.59995E+08
 
   -0.58466E+08         0.45566E+06         0.00000E+00
    0.45566E+06        -0.59809E+08         0.00000E+00
    0.00000E+00         0.00000E+00        -0.59995E+08
 
   -0.58676E+08         0.47502E+06         0.00000E+00
    0.47502E+06        -0.59765E+08         0.00000E+00
    0.00000E+00         0.00000E+00        -0.59995E+08
 
   -0.58880E+08         0.48932E+06         0.00000E+00
    0.48932E+06        -0.59718E+08         0.00000E+00
    0.00000E+00         0.00000E+00        -0.59995E+08
 
   -0.59077E+08         0.50011E+06         0.00000E+00
    0.50011E+06        -0.59669E+08         0.00000E+00
    0.00000E+00         0.00000E+00        -0.59995E+08
 
   -0.59266E+08         0.50833E+06         0.00000E+00
    0.50833E+06        -0.59616E+08         0.00000E+00
    0.00000E+00         0.00000E+00        -0.59995E+08
 
   -0.59447E+08         0.51449E+06         0.00000E+00
    0.51449E+06        -0.59559E+08         0.00000E+00
    0.00000E+00         0.00000E+00        -0.59995E+08
 
   -0.59617E+08         0.51888E+06         0.00000E+00
    0.51888E+06        -0.59499E+08         0.00000E+00
    0.00000E+00         0.00000E+00        -0.59995E+08
 
   -0.59777E+08         0.52179E+06         0.00000E+00
    0.52179E+06        -0.59436E+08         0.00000E+00
    0.00000E+00         0.00000E+00        -0.59995E+08
 
   -0.59925E+08         0.52377E+06         0.00000E+00
    0.52377E+06        -0.59371E+08         0.00000E+00
    0.00000E+00         0.00000E+00        -0.59995E+08
 
   -0.57092E+08         0.76213E+05         0.00000E+00
    0.76213E+05        -0.59996E+08         0.00000E+00
    0.00000E+00         0.00000E+00        -0.59993E+08
 
   -0.57302E+08         0.20326E+06         0.00000E+00
    0.20326E+06        -0.59984E+08         0.00000E+00
    0.00000E+00         0.00000E+00        -0.59993E+08
 
   -0.57526E+08         0.30049E+06         0.00000E+00
    0.30049E+06        -0.59963E+08         0.00000E+00
    0.00000E+00         0.00000E+00        -0.59993E+08
 
   -0.57758E+08         0.37313E+06         0.00000E+00
    0.37313E+06        -0.59937E+08         0.00000E+00
    0.00000E+00         0.00000E+00        -0.59993E+08
 
   -0.57990E+08         0.42644E+06         0.00000E+00
    0.42644E+06        -0.59908E+08         0.00000E+00
    0.00000E+00         0.00000E+00        -0.59993E+08
 
   -0.58219E+08         0.46529E+06         0.00000E+00
    0.46529E+06        -0.59877E+08         0.00000E+00
    0.00000E+00         0.00000E+00        -0.59993E+08
 
   -0.58442E+08         0.49390E+06         0.00000E+00
    0.49390E+06        -0.59845E+08         0.00000E+00
    0.00000E+00         0.00000E+00        -0.59993E+08
 
   -0.58658E+08         0.51566E+06         0.00000E+00
    0.51566E+06        -0.59810E+08         0.00000E+00
    0.00000E+00         0.00000E+00        -0.59993E+08
 
   -0.58866E+08         0.53301E+06         0.00000E+00
    0.53301E+06        -0.59773E+08         0.00000E+00
    0.00000E+00         0.00000E+00        -0.59993E+08
 
   -0.59066E+08         0.54753E+06         0.00000E+00
    0.54753E+06        -0.59732E+08         0.00000E+00
    0.00000E+00         0.00000E+00        -0.59993E+08
 
   -0.59257E+08         0.55997E+06         0.00000E+00
    0.55997E+06        -0.59686E+08         0.00000E+00
    0.00000E+00         0.00000E+00        -0.59993E+08
 
   -0.59439E+08         0.57054E+06         0.00000E+00
    0.57054E+06        -0.59635E+08         0.00000E+00
    0.00000E+00         0.00000E+00        -0.59993E+08
 
   -0.59612E+08         0.57910E+06         0.00000E+00
    0.57910E+06        -0.59579E+08         0.00000E+00
    0.00000E+00         0.00000E+00        -0.59993E+08
 
   -0.59774E+08         0.58547E+06         0.00000E+00
    0.58547E+06        -0.59518E+08         0.00000E+00
    0.00000E+00         0.00000E+00        -0.59993E+08
 
   -0.59922E+08         0.58984E+06         0.00000E+00
    0.58984E+06        -0.59453E+08         0.00000E+00
    0.00000E+00         0.00000E+00        -0.59993E+08
 
   -0.56943E+08         0.83014E+05         0.00000E+00
    0.83014E+05        -0.59997E+08         0.00000E+00
    0.00000E+00         0.00000E+00        -0.59989E+08
 
   -0.57187E+08         0.21950E+06         0.00000E+00
    0.21950E+06        -0.59987E+08         0.00000E+00
    0.00000E+00         0.00000E+00        -0.59989E+08
 
   -0.57440E+08         0.32195E+06         0.00000E+00
    0.32195E+06        -0.59970E+08         0.00000E+00
    0.00000E+00         0.00000E+00        -0.59989E+08
 
   -0.57695E+08         0.39710E+06         0.00000E+00
    0.39710E+06        -0.59951E+08         0.00000E+00
    0.00000E+00         0.00000E+00        -0.59989E+08
 
   -0.57944E+08         0.45155E+06         0.00000E+00
    0.45155E+06        -0.59932E+08         0.00000E+00
    0.00000E+00         0.00000E+00        -0.59989E+08
 
   -0.58185E+08         0.49130E+06         0.00000E+00
    0.49130E+06        -0.59912E+08         0.00000E+00
    0.00000E+00         0.00000E+00        -0.59989E+08
 
   -0.58416E+08         0.52139E+06         0.00000E+00
    0.52139E+06        -0.59891E+08         0.00000E+00
    0.00000E+00         0.00000E+00        -0.59989E+08
 
   -0.58637E+08         0.54570E+06         0.00000E+00
    0.54570E+06        -0.59869E+08         0.00000E+00
    0.00000E+00         0.00000E+00        -0.59989E+08
 
   -0.58848E+08         0.56688E+06         0.00000E+00
    0.56688E+06        -0.59843E+08         0.00000E+00
    0.00000E+00         0.00000E+00        -0.59989E+08
 
   -0.59049E+08         0.58643E+06         0.00000E+00
    0.58643E+06        -0.59812E+08         0.00000E+00
    0.00000E+00         0.00000E+00        -0.59989E+08
 
   -0.59242E+08         0.60482E+06         0.00000E+00
    0.60482E+06        -0.59774E+08         0.00000E+00
    0.00000E+00         0.00000E+00        -0.59989E+08
 
   -0.59426E+08         0.62172E+06         0.00000E+00
    0.62172E+06        -0.59730E+08         0.00000E+00
    0.00000E+00         0.00000E+00        -0.59989E+08
 
   -0.59602E+08         0.63636E+06         0.00000E+00
    0.63636E+06        -0.59677E+08         0.00000E+00
    0.00000E+00         0.00000E+00        -0.59989E+08
 
   -0.59766E+08         0.64790E+06         0.00000E+00
    0.64790E+06        -0.59619E+08         0.00000E+00
    0.00000E+00         0.00000E+00        -0.59989E+08
 
   -0.59917E+08         0.65587E+06         0.00000E+00
    0.65587E+06        -0.59554E+08         0.00000E+00
    0.00000E+00         0.00000E+00        -0.59989E+08
 
   -0.56782E+08         0.88608E+05         0.00000E+00
    0.88608E+05        -0.59998E+08         0.00000E+00
    0.00000E+00         0.00000E+00        -0.59983E+08
 
   -0.57066E+08         0.23178E+06         0.00000E+00
    0.23178E+06        -0.59990E+08         0.00000E+00
    0.00000E+00         0.00000E+00        -0.59983E+08
 
   -0.57352E+08         0.33657E+06         0.00000E+00
    0.33657E+06        -0.59980E+08         0.00000E+00
    0.00000E+00         0.00000E+00        -0.59983E+08
 
   -0.57631E+08         0.41162E+06         0.00000E+00
    0.41162E+06        -0.59971E+08         0.00000E+00
    0.00000E+00         0.00000E+00        -0.59983E+08
 
   -0.57898E+08         0.46516E+06         0.00000E+00
    0.46516E+06        -0.59963E+08         0.00000E+00
    0.00000E+00         0.00000E+00        -0.59983E+08
 
   -0.58151E+08         0.50448E+06         0.00000E+00
    0.50448E+06        -0.59956E+08         0.00000E+00
    0.00000E+00         0.00000E+00        -0.59983E+08
 
   -0.58389E+08         0.53553E+06         0.00000E+00
    0.53553E+06        -0.59950E+08         0.00000E+00
    0.00000E+00         0.00000E+00        -0.59983E+08
 
   -0.58613E+08         0.56269E+06         0.00000E+00
    0.56269E+06        -0.59943E+08         0.00000E+00
    0.00000E+00         0.00000E+00        -0.59983E+08
 
   -0.58825E+08         0.58880E+06         0.00000E+00
    0.58880E+06        -0.59930E+08         0.00000E+00
    0.00000E+00         0.00000E+00        -0.59983E+08
 
   -0.59027E+08         0.61513E+06         0.00000E+00
    0.61513E+06        -0.59911E+08         0.00000E+00
    0.00000E+00         0.00000E+00        -0.59983E+08
 
   -0.59220E+08         0.64168E+06         0.00000E+00
    0.64168E+06        -0.59884E+08         0.00000E+00
    0.00000E+00         0.00000E+00        -0.59983E+08
 
   -0.59406E+08         0.66741E+06         0.00000E+00
    0.66741E+06        -0.59846E+08         0.00000E+00
    0.00000E+00         0.00000E+00        -0.59983E+08
 
   -0.59584E+08         0.69066E+06         0.00000E+00
    0.69066E+06        -0.59798E+08         0.00000E+00
    0.00000E+00         0.00000E+00        -0.59983E+08
 
   -0.59753E+08         0.70962E+06         0.00000E+00
    0.70962E+06        -0.59741E+08         0.00000E+00
    0.00000E+00         0.00000E+00        -0.59983E+08
 
   -0.59909E+08         0.72285E+06         0.00000E+00
    0.72285E+06        -0.59676E+08         0.00000E+00
    0.00000E+00         0.00000E+00        -0.59983E+08
 
   -0.56613E+08         0.92583E+05         0.00000E+00
    0.92583E+05        -0.59999E+08         0.00000E+00
    0.00000E+00         0.00000E+00        -0.59975E+08
 
   -0.56943E+08         0.23885E+06         0.00000E+00
    0.23885E+06        -0.59995E+08         0.00000E+00
    0.00000E+00         0.00000E+00        -0.59975E+08
 
   -0.57264E+08         0.34239E+06         0.00000E+00
    0.34239E+06        -0.59993E+08         0.00000E+00
    0.00000E+00         0.00000E+00        -0.59975E+08
 
   -0.57569E+08         0.41417E+06         0.00000E+00
    0.41417E+06        -0.59995E+08         0.00000E+00
    0.00000E+00         0.00000E+00        -0.59975E+08
 
   -0.57854E+08         0.46436E+06         0.00000E+00
    0.46436E+06        -0.60002E+08         0.00000E+00
    0.00000E+00         0.00000E+00        -0.59975E+08
 
   -0.58117E+08         0.50176E+06         0.00000E+00
    0.50176E+06        -0.60013E+08         0.00000E+00
    0.00000E+00         0.00000E+00        -0.59975E+08
 
   -0.58359E+08         0.53329E+06         0.00000E+00
    0.53329E+06        -0.60024E+08         0.00000E+00
    0.00000E+00         0.00000E+00        -0.59975E+08
 
   -0.58584E+08         0.56387E+06         0.00000E+00
    0.56387E+06        -0.60034E+08         0.00000E+00
    0.00000E+00         0.00000E+00        -0.59975E+08
 
   -0.58795E+08         0.59636E+06         0.00000E+00
    0.59636E+06        -0.60038E+08         0.00000E+00
    0.00000E+00         0.00000E+00        -0.59975E+08
 
   -0.58995E+08         0.63174E+06         0.00000E+00
    0.63174E+06        -0.60034E+08         0.00000E+00
    0.00000E+00         0.00000E+00        -0.59975E+08
 
   -0.59188E+08         0.66931E+06         0.00000E+00
    0.66931E+06        -0.60018E+08         0.00000E+00
    0.00000E+00         0.00000E+00        -0.59975E+08
 
   -0.59375E+08         0.70707E+06         0.00000E+00
    0.70707E+06        -0.59988E+08         0.00000E+00
    0.00000E+00         0.00000E+00        -0.59975E+08
 
   -0.59557E+08         0.74217E+06         0.00000E+00
    0.74217E+06        -0.59945E+08         0.00000E+00
    0.00000E+00         0.00000E+00        -0.59975E+08
 
   -0.59732E+08         0.77148E+06         0.00000E+00
    0.77148E+06        -0.59888E+08         0.00000E+00
    0.00000E+00         0.00000E+00        -0.59975E+08
 
   -0.59896E+08         0.79223E+06         0.00000E+00
    0.79223E+06        -0.59822E+08         0.00000E+00
    0.00000E+00         0.00000E+00        -0.59975E+08
 
   -0.56441E+08         0.94421E+05         0.00000E+00
    0.94421E+05        -0.60000E+08         0.00000E+00
    0.00000E+00         0.00000E+00        -0.59961E+08
 
   -0.56821E+08         0.23920E+06         0.00000E+00
    0.23920E+06        -0.60002E+08         0.00000E+00
    0.00000E+00         0.00000E+00        -0.59961E+08
 
   -0.57181E+08         0.33702E+06         0.00000E+00
    0.33702E+06        -0.60009E+08         0.00000E+00
    0.00000E+00         0.00000E+00        -0.59961E+08
 
   -0.57513E+08         0.40171E+06         0.00000E+00
    0.40171E+06        -0.60026E+08         0.00000E+00
    0.00000E+00         0.00000E+00        -0.59961E+08
 
   -0.57814E+08         0.44575E+06         0.00000E+00
    0.44575E+06        -0.60051E+08         0.00000E+00
    0.00000E+00         0.00000E+00        -0.59961E+08
 
   -0.58084E+08         0.47961E+06         0.00000E+00
    0.47961E+06        -0.60082E+08         0.00000E+00
    0.00000E+00         0.00000E+00        -0.59961E+08
 
   -0.58327E+08         0.51128E+06         0.00000E+00
    0.51128E+06        -0.60116E+08         0.00000E+00
    0.00000E+00         0.00000E+00        -0.59961E+08
 
   -0.58549E+08         0.54612E+06         0.00000E+00
    0.54612E+06        -0.60146E+08         0.00000E+00
    0.00000E+00         0.00000E+00        -0.59961E+08
 
   -0.58756E+08         0.58696E+06         0.00000E+00
    0.58696E+06        -0.60170E+08         0.00000E+00
    0.00000E+00         0.00000E+00        -0.59961E+08
 
   -0.58952E+08         0.63425E+06         0.00000E+00
    0.63425E+06        -0.60182E+08         0.00000E+00
    0.00000E+00         0.00000E+00        -0.59961E+08
 
   -0.59142E+08         0.68641E+06         0.00000E+00
    0.68641E+06        -0.60179E+08         0.00000E+00
    0.00000E+00         0.00000E+00        -0.59961E+08
 
   -0.59331E+08         0.74021E+06         0.00000E+00
    0.74021E+06        -0.60159E+08         0.00000E+00
    0.00000E+00         0.00000E+00        -0.59961E+08
 
   -0.59517E+08         0.79128E+06         0.00000E+00
    0.79128E+06        -0.60120E+08         0.00000E+00
    0.00000E+00         0.00000E+00        -0.59961E+08
 
   -0.59701E+08         0.83475E+06         0.00000E+00
    0.83475E+06        -0.60063E+08         0.00000E+00
    0.00000E+00         0.00000E+00        -0.59962E+08
 
   -0.59876E+08         0.86602E+06         0.00000E+00
    0.86602E+06        -0.59993E+08         0.00000E+00
    0.00000E+00         0.00000E+00        -0.59962E+08
 
   -0.56269E+08         0.93473E+05         0.00000E+00
    0.93473E+05        -0.60002E+08         0.00000E+00
    0.00000E+00         0.00000E+00        -0.59942E+08
 
   -0.56707E+08         0.23094E+06         0.00000E+00
    0.23094E+06        -0.60010E+08         0.00000E+00
    0.00000E+00         0.00000E+00        -0.59942E+08
 
   -0.57108E+08         0.31759E+06         0.00000E+00
    0.31759E+06        -0.60030E+08         0.00000E+00
    0.00000E+00         0.00000E+00        -0.59942E+08
 
   -0.57465E+08         0.37069E+06         0.00000E+00
    0.37069E+06        -0.60065E+08         0.00000E+00
    0.00000E+00         0.00000E+00        -0.59942E+08
 
   -0.57780E+08         0.40542E+06         0.00000E+00
    0.40542E+06        -0.60112E+08         0.00000E+00
    0.00000E+00         0.00000E+00        -0.59942E+08
 
   -0.58053E+08         0.43409E+06         0.00000E+00
    0.43409E+06        -0.60168E+08         0.00000E+00
    0.00000E+00         0.00000E+00        -0.59942E+08
 
   -0.58293E+08         0.46573E+06         0.00000E+00
    0.46573E+06        -0.60227E+08         0.00000E+00
    0.00000E+00         0.00000E+00        -0.59942E+08
 
   -0.58508E+08         0.50610E+06         0.00000E+00
    0.50610E+06        -0.60283E+08         0.00000E+00
    0.00000E+00         0.00000E+00        -0.59942E+08
 
   -0.58705E+08         0.55779E+06         0.00000E+00
    0.55779E+06        -0.60329E+08         0.00000E+00
    0.00000E+00         0.00000E+00        -0.59942E+08
 
   -0.58893E+08         0.62057E+06         0.00000E+00
    0.62057E+06        -0.60360E+08         0.00000E+00
    0.00000E+00         0.00000E+00        -0.59942E+08
 
   -0.59079E+08         0.69172E+06         0.00000E+00
    0.69172E+06        -0.60372E+08         0.00000E+00
    0.00000E+00         0.00000E+00        -0.59942E+08
 
   -0.59267E+08         0.76649E+06         0.00000E+00
    0.76649E+06        -0.60361E+08         0.00000E+00
    0.00000E+00         0.00000E+00        -0.59942E+08
 
   -0.59459E+08         0.83864E+06         0.00000E+00
    0.83864E+06        -0.60326E+08         0.00000E+00
    0.00000E+00         0.00000E+00        -0.59942E+08
 
   -0.59654E+08         0.90112E+06         0.00000E+00
    0.90112E+06        -0.60269E+08         0.00000E+00
    0.00000E+00         0.00000E+00        -0.59942E+08
 
   -0.59847E+08         0.94692E+06         0.00000E+00
    0.94692E+06        -0.60191E+08         0.00000E+00
    0.00000E+00         0.00000E+00        -0.59942E+08
 
   -0.56105E+08         0.88924E+05         0.00000E+00
    0.88924E+05        -0.60004E+08         0.00000E+00
    0.00000E+00         0.00000E+00        -0.59912E+08
 
   -0.56605E+08         0.21180E+06         0.00000E+00
    0.21180E+06        -0.60020E+08         0.00000E+00
    0.00000E+00         0.00000E+00        -0.59912E+08
 
   -0.57049E+08         0.28068E+06         0.00000E+00
    0.28068E+06        -0.60056E+08         0.00000E+00
    0.00000E+00         0.00000E+00        -0.59912E+08
 
   -0.57431E+08         0.31700E+06         0.00000E+00
    0.31700E+06        -0.60113E+08         0.00000E+00
    0.00000E+00         0.00000E+00        -0.59912E+08
 
   -0.57754E+08         0.33898E+06         0.00000E+00
    0.33898E+06        -0.60187E+08         0.00000E+00
    0.00000E+00         0.00000E+00        -0.59912E+08
 
   -0.58026E+08         0.36088E+06         0.00000E+00
    0.36088E+06        -0.60272E+08         0.00000E+00
    0.00000E+00         0.00000E+00        -0.59912E+08
 
   -0.58256E+08         0.39269E+06         0.00000E+00
    0.39269E+06        -0.60361E+08         0.00000E+00
    0.00000E+00         0.00000E+00        -0.59912E+08
 
   -0.58456E+08         0.44037E+06         0.00000E+00
    0.44037E+06        -0.60445E+08         0.00000E+00
    0.00000E+00         0.00000E+00        -0.59912E+08
 
   -0.58639E+08         0.50607E+06         0.00000E+00
    0.50607E+06        -0.60517E+08         0.00000E+00
    0.00000E+00         0.00000E+00        -0.59912E+08
 
   -0.58814E+08         0.58864E+06         0.00000E+00
    0.58864E+06        -0.60570E+08         0.00000E+00
    0.00000E+00         0.00000E+00        -0.59912E+08
 
   -0.58992E+08         0.68403E+06         0.00000E+00
    0.68403E+06        -0.60598E+08         0.00000E+00
    0.00000E+00         0.00000E+00        -0.59912E+08
 
   -0.59179E+08         0.78570E+06         0.00000E+00
    0.78570E+06        -0.60597E+08         0.00000E+00
    0.00000E+00         0.00000E+00        -0.59912E+08
 
   -0.59378E+08         0.88520E+06         0.00000E+00
    0.88520E+06        -0.60566E+08         0.00000E+00
    0.00000E+00         0.00000E+00        -0.59912E+08
 
   -0.59588E+08         0.97279E+06         0.00000E+00
    0.97279E+06        -0.60505E+08         0.00000E+00
    0.00000E+00         0.00000E+00        -0.59912E+08
 
   -0.59804E+08         0.10384E+07         0.00000E+00
    0.10384E+07        -0.60418E+08         0.00000E+00
    0.00000E+00         0.00000E+00        -0.59912E+08
 
   -0.55956E+08         0.79762E+05         0.00000E+00
    0.79762E+05        -0.60007E+08         0.00000E+00
    0.00000E+00         0.00000E+00        -0.59868E+08
 
   -0.56525E+08         0.17900E+06         0.00000E+00
    0.17900E+06        -0.60033E+08         0.00000E+00
    0.00000E+00         0.00000E+00        -0.59868E+08
 
   -0.57011E+08         0.22230E+06         0.00000E+00
    0.22230E+06        -0.60089E+08         0.00000E+00
    0.00000E+00         0.00000E+00        -0.59868E+08
 
   -0.57414E+08         0.23601E+06         0.00000E+00
    0.23601E+06        -0.60173E+08         0.00000E+00
    0.00000E+00         0.00000E+00        -0.59868E+08
 
   -0.57740E+08         0.24170E+06         0.00000E+00
    0.24170E+06        -0.60278E+08         0.00000E+00
    0.00000E+00         0.00000E+00        -0.59868E+08
 
   -0.58002E+08         0.25552E+06         0.00000E+00
    0.25552E+06        -0.60397E+08         0.00000E+00
    0.00000E+00         0.00000E+00        -0.59868E+08
 
   -0.58214E+08         0.28822E+06         0.00000E+00
    0.28822E+06        -0.60519E+08         0.00000E+00
    0.00000E+00         0.00000E+00        -0.59868E+08
 
   -0.58393E+08         0.34561E+06         0.00000E+00
    0.34561E+06        -0.60635E+08         0.00000E+00
    0.00000E+00         0.00000E+00        -0.59868E+08
 
   -0.58554E+08         0.42918E+06         0.00000E+00
    0.42918E+06        -0.60736E+08         0.00000E+00
    0.00000E+00         0.00000E+00        -0.59868E+08
 
   -0.58711E+08         0.53661E+06         0.00000E+00
    0.53661E+06        -0.60812E+08         0.00000E+00
    0.00000E+00         0.00000E+00        -0.59868E+08
 
   -0.58877E+08         0.66232E+06         0.00000E+00
    0.66232E+06        -0.60858E+08         0.00000E+00
    0.00000E+00         0.00000E+00        -0.59868E+08
 
   -0.59060E+08         0.79782E+06         0.00000E+00
    0.79782E+06        -0.60868E+08         0.00000E+00
    0.00000E+00         0.00000E+00        -0.59868E+08
 
   -0.59266E+08         0.93217E+06         0.00000E+00
    0.93217E+06        -0.60840E+08         0.00000E+00
    0.00000E+00         0.00000E+00        -0.59868E+08
 
   -0.59495E+08         0.10525E+07         0.00000E+00
    0.10525E+07        -0.60774E+08         0.00000E+00
    0.00000E+00         0.00000E+00        -0.59868E+08
 
   -0.59742E+08         0.11448E+07         0.00000E+00
    0.11448E+07        -0.60673E+08         0.00000E+00
    0.00000E+00         0.00000E+00        -0.59868E+08
 
   -0.55834E+08         0.64721E+05         0.00000E+00
    0.64721E+05        -0.60010E+08         0.00000E+00
    0.00000E+00         0.00000E+00        -0.59804E+08
 
   -0.56475E+08         0.12921E+06         0.00000E+00
    0.12921E+06        -0.60050E+08         0.00000E+00
    0.00000E+00         0.00000E+00        -0.59804E+08
 
   -0.57002E+08         0.13786E+06         0.00000E+00
    0.13786E+06        -0.60129E+08         0.00000E+00
    0.00000E+00         0.00000E+00        -0.59804E+08
 
   -0.57419E+08         0.12266E+06         0.00000E+00
    0.12266E+06        -0.60245E+08         0.00000E+00
    0.00000E+00         0.00000E+00        -0.59804E+08
 
   -0.57739E+08         0.10868E+06         0.00000E+00
    0.10868E+06        -0.60387E+08         0.00000E+00
    0.00000E+00         0.00000E+00        -0.59804E+08
 
   -0.57981E+08         0.11369E+06         0.00000E+00
    0.11369E+06        -0.60544E+08         0.00000E+00
    0.00000E+00         0.00000E+00        -0.59804E+08
 
   -0.58166E+08         0.14874E+06         0.00000E+00
    0.14874E+06        -0.60704E+08         0.00000E+00
    0.00000E+00         0.00000E+00        -0.59804E+08
 
   -0.58313E+08         0.21906E+06         0.00000E+00
    0.21906E+06        -0.60854E+08         0.00000E+00
    0.00000E+00         0.00000E+00        -0.59804E+08
 
   -0.58444E+08         0.32503E+06         0.00000E+00
    0.32503E+06        -0.60985E+08         0.00000E+00
    0.00000E+00         0.00000E+00        -0.59804E+08
 
   -0.58576E+08         0.46303E+06         0.00000E+00
    0.46303E+06        -0.61086E+08         0.00000E+00
    0.00000E+00         0.00000E+00        -0.59804E+08
 
   -0.58725E+08         0.62586E+06         0.00000E+00
    0.62586E+06        -0.61151E+08         0.00000E+00
    0.00000E+00         0.00000E+00        -0.59804E+08
 
   -0.58902E+08         0.80305E+06         0.00000E+00
    0.80305E+06        -0.61172E+08         0.00000E+00
    0.00000E+00         0.00000E+00        -0.59803E+08
 
   -0.59115E+08         0.98098E+06         0.00000E+00
    0.98098E+06        -0.61146E+08         0.00000E+00
    0.00000E+00         0.00000E+00        -0.59803E+08
 
   -0.59367E+08         0.11433E+07         0.00000E+00
    0.11433E+07        -0.61072E+08         0.00000E+00
    0.00000E+00         0.00000E+00        -0.59803E+08
 
   -0.59653E+08         0.12714E+07         0.00000E+00
    0.12714E+07        -0.60954E+08         0.00000E+00
    0.00000E+00         0.00000E+00        -0.59803E+08
 
   -0.55751E+08         0.42228E+05         0.00000E+00
    0.42228E+05        -0.60015E+08         0.00000E+00
    0.00000E+00         0.00000E+00        -0.59709E+08
 
   -0.56466E+08         0.58480E+05         0.00000E+00
    0.58480E+05        -0.60070E+08         0.00000E+00
    0.00000E+00         0.00000E+00        -0.59709E+08
 
   -0.57029E+08         0.22163E+05         0.00000E+00
    0.22163E+05        -0.60178E+08         0.00000E+00
    0.00000E+00         0.00000E+00        -0.59709E+08
 
   -0.57450E+08        -0.28377E+05         0.00000E+00
   -0.28377E+05        -0.60331E+08         0.00000E+00
    0.00000E+00         0.00000E+00        -0.59709E+08
 
   -0.57753E+08        -0.64765E+05         0.00000E+00
   -0.64765E+05        -0.60514E+08         0.00000E+00
    0.00000E+00         0.00000E+00        -0.59709E+08
 
   -0.57963E+08        -0.68243E+05         0.00000E+00
   -0.68243E+05        -0.60714E+08         0.00000E+00
    0.00000E+00         0.00000E+00        -0.59709E+08
 
   -0.58108E+08        -0.28312E+05         0.00000E+00
   -0.28312E+05        -0.60913E+08         0.00000E+00
    0.00000E+00         0.00000E+00        -0.59709E+08
 
   -0.58214E+08         0.58975E+05         0.00000E+00
    0.58975E+05        -0.61100E+08         0.00000E+00
    0.00000E+00         0.00000E+00        -0.59709E+08
 
   -0.58306E+08         0.19252E+06         0.00000E+00
    0.19252E+06        -0.61262E+08         0.00000E+00
    0.00000E+00         0.00000E+00        -0.59709E+08
 
   -0.58405E+08         0.36721E+06         0.00000E+00
    0.36721E+06        -0.61388E+08         0.00000E+00
    0.00000E+00         0.00000E+00        -0.59709E+08
 
   -0.58530E+08         0.57437E+06         0.00000E+00
    0.57437E+06        -0.61471E+08         0.00000E+00
    0.00000E+00         0.00000E+00        -0.59709E+08
 
   -0.58696E+08         0.80173E+06         0.00000E+00
    0.80173E+06        -0.61503E+08         0.00000E+00
    0.00000E+00         0.00000E+00        -0.59709E+08
 
   -0.58916E+08         0.10331E+07         0.00000E+00
    0.10331E+07        -0.61478E+08         0.00000E+00
    0.00000E+00         0.00000E+00        -0.59709E+08
 
   -0.59194E+08         0.12485E+07         0.00000E+00
    0.12485E+07        -0.61394E+08         0.00000E+00
    0.00000E+00         0.00000E+00        -0.59709E+08
 
   -0.59528E+08         0.14239E+07         0.00000E+00
    0.14239E+07        -0.61253E+08         0.00000E+00
    0.00000E+00         0.00000E+00        -0.59709E+08
 
   -0.55724E+08         0.10324E+05         0.00000E+00
    0.10324E+05        -0.60021E+08         0.00000E+00
    0.00000E+00         0.00000E+00        -0.59572E+08
 
   -0.56513E+08        -0.37856E+05         0.00000E+00
   -0.37856E+05        -0.60096E+08         0.00000E+00
    0.00000E+00         0.00000E+00        -0.59572E+08
 
   -0.57101E+08        -0.13041E+06         0.00000E+00
   -0.13041E+06        -0.60238E+08         0.00000E+00
    0.00000E+00         0.00000E+00        -0.59572E+08
 
   -0.57513E+08        -0.22227E+06         0.00000E+00
   -0.22227E+06        -0.60433E+08         0.00000E+00
    0.00000E+00         0.00000E+00        -0.59572E+08
 
   -0.57782E+08        -0.28246E+06         0.00000E+00
   -0.28246E+06        -0.60662E+08         0.00000E+00
    0.00000E+00         0.00000E+00        -0.59572E+08
 
   -0.57945E+08        -0.29251E+06         0.00000E+00
   -0.29251E+06        -0.60905E+08         0.00000E+00
    0.00000E+00         0.00000E+00        -0.59572E+08
 
   -0.58036E+08        -0.24375E+06         0.00000E+00
   -0.24375E+06        -0.61145E+08         0.00000E+00
    0.00000E+00         0.00000E+00        -0.59572E+08
 
   -0.58089E+08        -0.13450E+06         0.00000E+00
   -0.13450E+06        -0.61366E+08         0.00000E+00
    0.00000E+00         0.00000E+00        -0.59572E+08
 
   -0.58132E+08         0.32153E+05         0.00000E+00
    0.32153E+05        -0.61558E+08         0.00000E+00
    0.00000E+00         0.00000E+00        -0.59571E+08
 
   -0.58189E+08         0.24962E+06         0.00000E+00
    0.24962E+06        -0.61708E+08         0.00000E+00
    0.00000E+00         0.00000E+00        -0.59571E+08
 
   -0.58283E+08         0.50815E+06         0.00000E+00
    0.50815E+06        -0.61809E+08         0.00000E+00
    0.00000E+00         0.00000E+00        -0.59571E+08
 
   -0.58434E+08         0.79429E+06         0.00000E+00
    0.79429E+06        -0.61851E+08         0.00000E+00
    0.00000E+00         0.00000E+00        -0.59571E+08
 
   -0.58657E+08         0.10899E+07         0.00000E+00
    0.10899E+07        -0.61826E+08         0.00000E+00
    0.00000E+00         0.00000E+00        -0.59571E+08
 
   -0.58963E+08         0.13713E+07         0.00000E+00
    0.13713E+07        -0.61730E+08         0.00000E+00
    0.00000E+00         0.00000E+00        -0.59571E+08
 
   -0.59354E+08         0.16088E+07         0.00000E+00
    0.16088E+07        -0.61562E+08         0.00000E+00
    0.00000E+00         0.00000E+00        -0.59571E+08
 
   -0.55772E+08        -0.33421E+05         0.00000E+00
   -0.33421E+05        -0.60029E+08         0.00000E+00
    0.00000E+00         0.00000E+00        -0.59375E+08
 
   -0.56628E+08        -0.16517E+06         0.00000E+00
   -0.16517E+06        -0.60127E+08         0.00000E+00
    0.00000E+00         0.00000E+00        -0.59375E+08
 
   -0.57227E+08        -0.32569E+06         0.00000E+00
   -0.32569E+06        -0.60309E+08         0.00000E+00
    0.00000E+00         0.00000E+00        -0.59375E+08
 
   -0.57609E+08        -0.46342E+06         0.00000E+00
   -0.46342E+06        -0.60551E+08         0.00000E+00
    0.00000E+00         0.00000E+00        -0.59375E+08
 
   -0.57825E+08        -0.54643E+06         0.00000E+00
   -0.54643E+06        -0.60827E+08         0.00000E+00
    0.00000E+00         0.00000E+00        -0.59375E+08
 
   -0.57923E+08        -0.55873E+06         0.00000E+00
   -0.55873E+06        -0.61114E+08         0.00000E+00
    0.00000E+00         0.00000E+00        -0.59374E+08
 
   -0.57947E+08        -0.49541E+06         0.00000E+00
   -0.49541E+06        -0.61391E+08         0.00000E+00
    0.00000E+00         0.00000E+00        -0.59374E+08
 
   -0.57934E+08        -0.35836E+06         0.00000E+00
   -0.35836E+06        -0.61643E+08         0.00000E+00
    0.00000E+00         0.00000E+00        -0.59373E+08
 
   -0.57917E+08        -0.15316E+06         0.00000E+00
   -0.15316E+06        -0.61859E+08         0.00000E+00
    0.00000E+00         0.00000E+00        -0.59373E+08
 
   -0.57923E+08         0.11237E+06         0.00000E+00
    0.11237E+06        -0.62030E+08         0.00000E+00
    0.00000E+00         0.00000E+00        -0.59372E+08
 
   -0.57978E+08         0.42825E+06         0.00000E+00
    0.42825E+06        -0.62145E+08         0.00000E+00
    0.00000E+00         0.00000E+00        -0.59372E+08
 
   -0.58105E+08         0.78104E+06         0.00000E+00
    0.78104E+06        -0.62197E+08         0.00000E+00
    0.00000E+00         0.00000E+00        -0.59372E+08
 
   -0.58326E+08         0.11519E+07         0.00000E+00
    0.11519E+07        -0.62173E+08         0.00000E+00
    0.00000E+00         0.00000E+00        -0.59372E+08
 
   -0.58659E+08         0.15142E+07         0.00000E+00
    0.15142E+07        -0.62064E+08         0.00000E+00
    0.00000E+00         0.00000E+00        -0.59372E+08
 
   -0.59113E+08         0.18321E+07         0.00000E+00
    0.18321E+07        -0.61865E+08         0.00000E+00
    0.00000E+00         0.00000E+00        -0.59372E+08
 
   -0.55920E+08        -0.91996E+05         0.00000E+00
   -0.91996E+05        -0.60038E+08         0.00000E+00
    0.00000E+00         0.00000E+00        -0.59093E+08
 
   -0.56829E+08        -0.32945E+06         0.00000E+00
   -0.32945E+06        -0.60165E+08         0.00000E+00
    0.00000E+00         0.00000E+00        -0.59093E+08
 
   -0.57413E+08        -0.56911E+06         0.00000E+00
   -0.56911E+06        -0.60392E+08         0.00000E+00
    0.00000E+00         0.00000E+00        -0.59093E+08
 
   -0.57739E+08        -0.75434E+06         0.00000E+00
   -0.75434E+06        -0.60684E+08         0.00000E+00
    0.00000E+00         0.00000E+00        -0.59093E+08
 
   -0.57877E+08        -0.85546E+06         0.00000E+00
   -0.85546E+06        -0.61007E+08         0.00000E+00
    0.00000E+00         0.00000E+00        -0.59092E+08
 
   -0.57890E+08        -0.86236E+06         0.00000E+00
   -0.86236E+06        -0.61331E+08         0.00000E+00
    0.00000E+00         0.00000E+00        -0.59091E+08
 
   -0.57831E+08        -0.77668E+06         0.00000E+00
   -0.77668E+06        -0.61636E+08         0.00000E+00
    0.00000E+00         0.00000E+00        -0.59091E+08
 
   -0.57742E+08        -0.60545E+06         0.00000E+00
   -0.60545E+06        -0.61909E+08         0.00000E+00
    0.00000E+00         0.00000E+00        -0.59090E+08
 
   -0.57657E+08        -0.35716E+06         0.00000E+00
   -0.35716E+06        -0.62141E+08         0.00000E+00
    0.00000E+00         0.00000E+00        -0.59089E+08
 
   -0.57603E+08        -0.40210E+05         0.00000E+00
   -0.40210E+05        -0.62325E+08         0.00000E+00
    0.00000E+00         0.00000E+00        -0.59088E+08
 
   -0.57608E+08         0.33660E+06         0.00000E+00
    0.33660E+06        -0.62452E+08         0.00000E+00
    0.00000E+00         0.00000E+00        -0.59088E+08
 
   -0.57701E+08         0.76185E+06         0.00000E+00
    0.76185E+06        -0.62512E+08         0.00000E+00
    0.00000E+00         0.00000E+00        -0.59087E+08
 
   -0.57909E+08         0.12180E+07         0.00000E+00
    0.12180E+07        -0.62489E+08         0.00000E+00
    0.00000E+00         0.00000E+00        -0.59087E+08
 
   -0.58263E+08         0.16775E+07         0.00000E+00
    0.16775E+07        -0.62370E+08         0.00000E+00
    0.00000E+00         0.00000E+00        -0.59087E+08
 
   -0.58783E+08         0.20987E+07         0.00000E+00
    0.20987E+07        -0.62139E+08         0.00000E+00
    0.00000E+00         0.00000E+00        -0.59086E+08
 
   -0.56199E+08        -0.16904E+06         0.00000E+00
   -0.16904E+06        -0.60051E+08         0.00000E+00
    0.00000E+00         0.00000E+00        -0.58694E+08
 
   -0.57131E+08        -0.53707E+06         0.00000E+00
   -0.53707E+06        -0.60210E+08         0.00000E+00
    0.00000E+00         0.00000E+00        -0.58694E+08
 
   -0.57663E+08        -0.86469E+06         0.00000E+00
   -0.86469E+06        -0.60487E+08         0.00000E+00
    0.00000E+00         0.00000E+00        -0.58694E+08
 
   -0.57897E+08        -0.10939E+07         0.00000E+00
   -0.10939E+07        -0.60829E+08         0.00000E+00
    0.00000E+00         0.00000E+00        -0.58693E+08
 
   -0.57928E+08        -0.12029E+07         0.00000E+00
   -0.12029E+07        -0.61191E+08         0.00000E+00
    0.00000E+00         0.00000E+00        -0.58692E+08
 
   -0.57837E+08        -0.11925E+07         0.00000E+00
   -0.11925E+07        -0.61540E+08         0.00000E+00
    0.00000E+00         0.00000E+00        -0.58690E+08
 
   -0.57684E+08        -0.10747E+07         0.00000E+00
   -0.10747E+07        -0.61858E+08         0.00000E+00
    0.00000E+00         0.00000E+00        -0.58689E+08
 
   -0.57510E+08        -0.86306E+06         0.00000E+00
   -0.86306E+06        -0.62135E+08         0.00000E+00
    0.00000E+00         0.00000E+00        -0.58688E+08
 
   -0.57349E+08        -0.56923E+06         0.00000E+00
   -0.56923E+06        -0.62369E+08         0.00000E+00
    0.00000E+00         0.00000E+00        -0.58686E+08
 
   -0.57227E+08        -0.20101E+06         0.00000E+00
   -0.20101E+06        -0.62555E+08         0.00000E+00
    0.00000E+00         0.00000E+00        -0.58685E+08
 
   -0.57172E+08         0.23613E+06         0.00000E+00
    0.23613E+06        -0.62687E+08         0.00000E+00
    0.00000E+00         0.00000E+00        -0.58684E+08
 
   -0.57215E+08         0.73568E+06         0.00000E+00
    0.73568E+06        -0.62754E+08         0.00000E+00
    0.00000E+00         0.00000E+00        -0.58683E+08
 
   -0.57396E+08         0.12849E+07         0.00000E+00
    0.12849E+07        -0.62737E+08         0.00000E+00
    0.00000E+00         0.00000E+00        -0.58683E+08
 
   -0.57755E+08         0.18582E+07         0.00000E+00
    0.18582E+07        -0.62611E+08         0.00000E+00
    0.00000E+00         0.00000E+00        -0.58682E+08
 
   -0.58333E+08         0.24105E+07         0.00000E+00
    0.24105E+07        -0.62351E+08         0.00000E+00
    0.00000E+00         0.00000E+00        -0.58682E+08
 
   -0.56645E+08        -0.26888E+06         0.00000E+00
   -0.26888E+06        -0.60066E+08         0.00000E+00
    0.00000E+00         0.00000E+00        -0.58135E+08
 
   -0.57551E+08        -0.79401E+06         0.00000E+00
   -0.79401E+06        -0.60264E+08         0.00000E+00
    0.00000E+00         0.00000E+00        -0.58135E+08
 
   -0.57976E+08        -0.12131E+07         0.00000E+00
   -0.12131E+07        -0.60592E+08         0.00000E+00
    0.00000E+00         0.00000E+00        -0.58134E+08
 
   -0.58071E+08        -0.14745E+07         0.00000E+00
   -0.14745E+07        -0.60976E+08         0.00000E+00
    0.00000E+00         0.00000E+00        -0.58132E+08
 
   -0.57965E+08        -0.15734E+07         0.00000E+00
   -0.15734E+07        -0.61360E+08         0.00000E+00
    0.00000E+00         0.00000E+00        -0.58130E+08
 
   -0.57751E+08        -0.15294E+07         0.00000E+00
   -0.15294E+07        -0.61711E+08         0.00000E+00
    0.00000E+00         0.00000E+00        -0.58127E+08
 
   -0.57495E+08        -0.13682E+07         0.00000E+00
   -0.13682E+07        -0.62016E+08         0.00000E+00
    0.00000E+00         0.00000E+00        -0.58125E+08
 
   -0.57234E+08        -0.11116E+07         0.00000E+00
   -0.11116E+07        -0.62273E+08         0.00000E+00
    0.00000E+00         0.00000E+00        -0.58123E+08
 
   -0.56995E+08        -0.77356E+06         0.00000E+00
   -0.77356E+06        -0.62487E+08         0.00000E+00
    0.00000E+00         0.00000E+00        -0.58121E+08
 
   -0.56799E+08        -0.35961E+06         0.00000E+00
   -0.35961E+06        -0.62659E+08         0.00000E+00
    0.00000E+00         0.00000E+00        -0.58119E+08
 
   -0.56672E+08         0.13080E+06         0.00000E+00
    0.13080E+06        -0.62788E+08         0.00000E+00
    0.00000E+00         0.00000E+00        -0.58117E+08
 
   -0.56648E+08         0.70001E+06         0.00000E+00
    0.70001E+06        -0.62862E+08         0.00000E+00
    0.00000E+00         0.00000E+00        -0.58116E+08
 
   -0.56774E+08         0.13451E+07         0.00000E+00
    0.13451E+07        -0.62857E+08         0.00000E+00
    0.00000E+00         0.00000E+00        -0.58115E+08
 
   -0.57111E+08         0.20479E+07         0.00000E+00
    0.20479E+07        -0.62737E+08         0.00000E+00
    0.00000E+00         0.00000E+00        -0.58114E+08
 
   -0.57728E+08         0.27635E+07         0.00000E+00
    0.27635E+07        -0.62458E+08         0.00000E+00
    0.00000E+00         0.00000E+00        -0.58114E+08
 
   -0.57299E+08        -0.39650E+06         0.00000E+00
   -0.39650E+06        -0.60084E+08         0.00000E+00
    0.00000E+00         0.00000E+00        -0.57359E+08
 
   -0.58100E+08        -0.11044E+07         0.00000E+00
   -0.11044E+07        -0.60324E+08         0.00000E+00
    0.00000E+00         0.00000E+00        -0.57358E+08
 
   -0.58341E+08        -0.16080E+07         0.00000E+00
   -0.16080E+07        -0.60699E+08         0.00000E+00
    0.00000E+00         0.00000E+00        -0.57355E+08
 
   -0.58241E+08        -0.18772E+07         0.00000E+00
   -0.18772E+07        -0.61106E+08         0.00000E+00
    0.00000E+00         0.00000E+00        -0.57352E+08
 
   -0.57965E+08        -0.19392E+07         0.00000E+00
   -0.19392E+07        -0.61480E+08         0.00000E+00
    0.00000E+00         0.00000E+00        -0.57349E+08
 
   -0.57618E+08        -0.18412E+07         0.00000E+00
   -0.18412E+07        -0.61795E+08         0.00000E+00
    0.00000E+00         0.00000E+00        -0.57345E+08
 
   -0.57258E+08        -0.16262E+07         0.00000E+00
   -0.16262E+07        -0.62050E+08         0.00000E+00
    0.00000E+00         0.00000E+00        -0.57341E+08
 
   -0.56915E+08        -0.13240E+07         0.00000E+00
   -0.13240E+07        -0.62253E+08         0.00000E+00
    0.00000E+00         0.00000E+00        -0.57338E+08
 
   -0.56602E+08        -0.94889E+06         0.00000E+00
   -0.94889E+06        -0.62420E+08         0.00000E+00
    0.00000E+00         0.00000E+00        -0.57335E+08
 
   -0.56331E+08        -0.50212E+06         0.00000E+00
   -0.50212E+06        -0.62560E+08         0.00000E+00
    0.00000E+00         0.00000E+00        -0.57332E+08
 
   -0.56120E+08         0.25787E+05         0.00000E+00
    0.25787E+05        -0.62675E+08         0.00000E+00
    0.00000E+00         0.00000E+00        -0.57330E+08
 
   -0.56004E+08         0.65042E+06         0.00000E+00
    0.65042E+06        -0.62756E+08         0.00000E+00
    0.00000E+00         0.00000E+00        -0.57328E+08
 
   -0.56039E+08         0.13855E+07         0.00000E+00
    0.13855E+07        -0.62773E+08         0.00000E+00
    0.00000E+00         0.00000E+00        -0.57326E+08
 
   -0.56309E+08         0.22290E+07         0.00000E+00
    0.22290E+07        -0.62678E+08         0.00000E+00
    0.00000E+00         0.00000E+00        -0.57325E+08
 
   -0.56920E+08         0.31445E+07         0.00000E+00
    0.31445E+07        -0.62402E+08         0.00000E+00
    0.00000E+00         0.00000E+00        -0.57325E+08
 
   -0.58209E+08        -0.55725E+06         0.00000E+00
   -0.55725E+06        -0.60106E+08         0.00000E+00
    0.00000E+00         0.00000E+00        -0.56291E+08
 
   -0.58778E+08        -0.14671E+07         0.00000E+00
   -0.14671E+07        -0.60388E+08         0.00000E+00
    0.00000E+00         0.00000E+00        -0.56289E+08
 
   -0.58730E+08        -0.20294E+07         0.00000E+00
   -0.20294E+07        -0.60790E+08         0.00000E+00
    0.00000E+00         0.00000E+00        -0.56285E+08
 
   -0.58372E+08        -0.22646E+07         0.00000E+00
   -0.22646E+07        -0.61179E+08         0.00000E+00
    0.00000E+00         0.00000E+00        -0.56280E+08
 
   -0.57903E+08        -0.22542E+07         0.00000E+00
   -0.22542E+07        -0.61490E+08         0.00000E+00
    0.00000E+00         0.00000E+00        -0.56274E+08
 
   -0.57423E+08        -0.20819E+07         0.00000E+00
   -0.20819E+07        -0.61715E+08         0.00000E+00
    0.00000E+00         0.00000E+00        -0.56268E+08
 
   -0.56973E+08        -0.18081E+07         0.00000E+00
   -0.18081E+07        -0.61869E+08         0.00000E+00
    0.00000E+00         0.00000E+00        -0.56263E+08
 
   -0.56560E+08        -0.14666E+07         0.00000E+00
   -0.14666E+07        -0.61980E+08         0.00000E+00
    0.00000E+00         0.00000E+00        -0.56258E+08
 
   -0.56183E+08        -0.10695E+07         0.00000E+00
   -0.10695E+07        -0.62068E+08         0.00000E+00
    0.00000E+00         0.00000E+00        -0.56254E+08
 
   -0.55840E+08        -0.61131E+06         0.00000E+00
   -0.61131E+06        -0.62152E+08         0.00000E+00
    0.00000E+00         0.00000E+00        -0.56250E+08
 
   -0.55538E+08        -0.72073E+05         0.00000E+00
   -0.72073E+05        -0.62240E+08         0.00000E+00
    0.00000E+00         0.00000E+00        -0.56247E+08
 
   -0.55303E+08         0.58086E+06         0.00000E+00
    0.58086E+06        -0.62327E+08         0.00000E+00
    0.00000E+00         0.00000E+00        -0.56244E+08
 
   -0.55197E+08         0.13861E+07         0.00000E+00
    0.13861E+07        -0.62382E+08         0.00000E+00
    0.00000E+00         0.00000E+00        -0.56241E+08
 
   -0.55328E+08         0.23717E+07         0.00000E+00
    0.23717E+07        -0.62343E+08         0.00000E+00
    0.00000E+00         0.00000E+00        -0.56240E+08
 
   -0.55854E+08         0.35246E+07         0.00000E+00
    0.35246E+07        -0.62109E+08         0.00000E+00
    0.00000E+00         0.00000E+00        -0.56239E+08
 
   -0.59425E+08        -0.75603E+06         0.00000E+00
   -0.75603E+06        -0.60130E+08         0.00000E+00
    0.00000E+00         0.00000E+00        -0.54840E+08
 
   -0.59565E+08        -0.18681E+07         0.00000E+00
   -0.18681E+07        -0.60443E+08         0.00000E+00
    0.00000E+00         0.00000E+00        -0.54835E+08
 
   -0.59091E+08        -0.24310E+07         0.00000E+00
   -0.24310E+07        -0.60827E+08         0.00000E+00
    0.00000E+00         0.00000E+00        -0.54828E+08
 
   -0.58418E+08        -0.25700E+07         0.00000E+00
   -0.25700E+07        -0.61121E+08         0.00000E+00
    0.00000E+00         0.00000E+00        -0.54820E+08
 
   -0.57752E+08        -0.24496E+07         0.00000E+00
   -0.24496E+07        -0.61285E+08         0.00000E+00
    0.00000E+00         0.00000E+00        -0.54811E+08
 
   -0.57160E+08        -0.21923E+07         0.00000E+00
   -0.21923E+07        -0.61346E+08         0.00000E+00
    0.00000E+00         0.00000E+00        -0.54803E+08
 
   -0.56644E+08        -0.18668E+07         0.00000E+00
   -0.18668E+07        -0.61346E+08         0.00000E+00
    0.00000E+00         0.00000E+00        -0.54796E+08
 
   -0.56186E+08        -0.15035E+07         0.00000E+00
   -0.15035E+07        -0.61322E+08         0.00000E+00
    0.00000E+00         0.00000E+00        -0.54790E+08
 
   -0.55763E+08        -0.11080E+07         0.00000E+00
   -0.11080E+07        -0.61302E+08         0.00000E+00
    0.00000E+00         0.00000E+00        -0.54785E+08
 
   -0.55356E+08        -0.66779E+06         0.00000E+00
   -0.66779E+06        -0.61307E+08         0.00000E+00
    0.00000E+00         0.00000E+00        -0.54780E+08
 
   -0.54957E+08        -0.15331E+06         0.00000E+00
   -0.15331E+06        -0.61352E+08         0.00000E+00
    0.00000E+00         0.00000E+00        -0.54776E+08
 
   -0.54577E+08         0.48551E+06         0.00000E+00
    0.48551E+06        -0.61441E+08         0.00000E+00
    0.00000E+00         0.00000E+00        -0.54771E+08
 
   -0.54268E+08         0.13200E+07         0.00000E+00
    0.13200E+07        -0.61551E+08         0.00000E+00
    0.00000E+00         0.00000E+00        -0.54768E+08
 
   -0.54158E+08         0.24283E+07         0.00000E+00
    0.24283E+07        -0.61612E+08         0.00000E+00
    0.00000E+00         0.00000E+00        -0.54765E+08
 
   -0.54468E+08         0.38500E+07         0.00000E+00
    0.38500E+07        -0.61484E+08         0.00000E+00
    0.00000E+00         0.00000E+00        -0.54763E+08
 
   -0.60987E+08        -0.99483E+06         0.00000E+00
   -0.99483E+06        -0.60156E+08         0.00000E+00
    0.00000E+00         0.00000E+00        -0.52886E+08
 
   -0.60395E+08        -0.22624E+07         0.00000E+00
   -0.22624E+07        -0.60461E+08         0.00000E+00
    0.00000E+00         0.00000E+00        -0.52878E+08
 
   -0.59342E+08        -0.27161E+07         0.00000E+00
   -0.27161E+07        -0.60720E+08         0.00000E+00
    0.00000E+00         0.00000E+00        -0.52867E+08
 
   -0.58330E+08        -0.26842E+07         0.00000E+00
   -0.26842E+07        -0.60783E+08         0.00000E+00
    0.00000E+00         0.00000E+00        -0.52854E+08
 
   -0.57502E+08        -0.24352E+07         0.00000E+00
   -0.24352E+07        -0.60687E+08         0.00000E+00
    0.00000E+00         0.00000E+00        -0.52843E+08
 
   -0.56840E+08        -0.21076E+07         0.00000E+00
   -0.21076E+07        -0.60508E+08         0.00000E+00
    0.00000E+00         0.00000E+00        -0.52833E+08
 
   -0.56294E+08        -0.17579E+07         0.00000E+00
   -0.17579E+07        -0.60304E+08         0.00000E+00
    0.00000E+00         0.00000E+00        -0.52825E+08
 
   -0.55818E+08        -0.14035E+07         0.00000E+00
   -0.14035E+07        -0.60113E+08         0.00000E+00
    0.00000E+00         0.00000E+00        -0.52818E+08
 
   -0.55369E+08        -0.10411E+07         0.00000E+00
   -0.10411E+07        -0.59963E+08         0.00000E+00
    0.00000E+00         0.00000E+00        -0.52811E+08
 
   -0.54914E+08        -0.65283E+06         0.00000E+00
   -0.65283E+06        -0.59872E+08         0.00000E+00
    0.00000E+00         0.00000E+00        -0.52806E+08
 
   -0.54424E+08        -0.20439E+06         0.00000E+00
   -0.20439E+06        -0.59859E+08         0.00000E+00
    0.00000E+00         0.00000E+00        -0.52800E+08
 
   -0.53881E+08         0.36419E+06         0.00000E+00
    0.36419E+06        -0.59939E+08         0.00000E+00
    0.00000E+00         0.00000E+00        -0.52795E+08
 
   -0.53306E+08         0.11573E+07         0.00000E+00
    0.11573E+07        -0.60114E+08         0.00000E+00
    0.00000E+00         0.00000E+00        -0.52790E+08
 
   -0.52813E+08         0.23292E+07         0.00000E+00
    0.23292E+07        -0.60329E+08         0.00000E+00
    0.00000E+00         0.00000E+00        -0.52785E+08
 
   -0.52696E+08         0.40279E+07         0.00000E+00
    0.40279E+07        -0.60409E+08         0.00000E+00
    0.00000E+00         0.00000E+00        -0.52783E+08
 
   -0.62896E+08        -0.12634E+07         0.00000E+00
   -0.12634E+07        -0.60167E+08         0.00000E+00
    0.00000E+00         0.00000E+00        -0.50283E+08
 
   -0.61122E+08        -0.25244E+07         0.00000E+00
   -0.25244E+07        -0.60351E+08         0.00000E+00
    0.00000E+00         0.00000E+00        -0.50271E+08
 
   -0.59379E+08        -0.26962E+07         0.00000E+00
   -0.26962E+07        -0.60253E+08         0.00000E+00
    0.00000E+00         0.00000E+00        -0.50255E+08
 
   -0.58092E+08        -0.24581E+07         0.00000E+00
   -0.24581E+07        -0.59887E+08         0.00000E+00
    0.00000E+00         0.00000E+00        -0.50239E+08
 
   -0.57179E+08        -0.21205E+07         0.00000E+00
   -0.21205E+07        -0.59418E+08         0.00000E+00
    0.00000E+00         0.00000E+00        -0.50226E+08
 
   -0.56501E+08        -0.17775E+07         0.00000E+00
   -0.17775E+07        -0.58945E+08         0.00000E+00
    0.00000E+00         0.00000E+00        -0.50216E+08
 
   -0.55962E+08        -0.14543E+07         0.00000E+00
   -0.14543E+07        -0.58515E+08         0.00000E+00
    0.00000E+00         0.00000E+00        -0.50207E+08
 
   -0.55491E+08        -0.11512E+07         0.00000E+00
   -0.11512E+07        -0.58152E+08         0.00000E+00
    0.00000E+00         0.00000E+00        -0.50200E+08
 
   -0.55035E+08        -0.85745E+06         0.00000E+00
   -0.85745E+06        -0.57868E+08         0.00000E+00
    0.00000E+00         0.00000E+00        -0.50193E+08
 
   -0.54548E+08        -0.55395E+06         0.00000E+00
   -0.55395E+06        -0.57677E+08         0.00000E+00
    0.00000E+00         0.00000E+00        -0.50188E+08
 
   -0.53983E+08        -0.20934E+06         0.00000E+00
   -0.20934E+06        -0.57595E+08         0.00000E+00
    0.00000E+00         0.00000E+00        -0.50182E+08
 
   -0.53287E+08         0.23217E+06         0.00000E+00
    0.23217E+06        -0.57647E+08         0.00000E+00
    0.00000E+00         0.00000E+00        -0.50176E+08
 
   -0.52407E+08         0.88110E+06         0.00000E+00
    0.88110E+06        -0.57871E+08         0.00000E+00
    0.00000E+00         0.00000E+00        -0.50170E+08
 
   -0.51368E+08         0.19819E+07         0.00000E+00
    0.19819E+07        -0.58290E+08         0.00000E+00
    0.00000E+00         0.00000E+00        -0.50164E+08
 
   -0.50490E+08         0.38991E+07         0.00000E+00
    0.38991E+07        -0.58731E+08         0.00000E+00
    0.00000E+00         0.00000E+00        -0.50160E+08
 
   -0.65009E+08        -0.14891E+07         0.00000E+00
   -0.14891E+07        -0.60109E+08         0.00000E+00
    0.00000E+00         0.00000E+00        -0.46849E+08
 
   -0.61483E+08        -0.22974E+07         0.00000E+00
   -0.22974E+07        -0.59757E+08         0.00000E+00
    0.00000E+00         0.00000E+00        -0.46835E+08
 
   -0.59172E+08        -0.20932E+07         0.00000E+00
   -0.20932E+07        -0.58907E+08         0.00000E+00
    0.00000E+00         0.00000E+00        -0.46817E+08
 
   -0.57777E+08        -0.17688E+07         0.00000E+00
   -0.17688E+07        -0.57964E+08         0.00000E+00
    0.00000E+00         0.00000E+00        -0.46803E+08
 
   -0.56862E+08        -0.14627E+07         0.00000E+00
   -0.14627E+07        -0.57095E+08         0.00000E+00
    0.00000E+00         0.00000E+00        -0.46791E+08
 
   -0.56210E+08        -0.11955E+07         0.00000E+00
   -0.11955E+07        -0.56343E+08         0.00000E+00
    0.00000E+00         0.00000E+00        -0.46782E+08
 
   -0.55697E+08        -0.96358E+06         0.00000E+00
   -0.96358E+06        -0.55714E+08         0.00000E+00
    0.00000E+00         0.00000E+00        -0.46775E+08
 
   -0.55244E+08        -0.75751E+06         0.00000E+00
   -0.75751E+06        -0.55205E+08         0.00000E+00
    0.00000E+00         0.00000E+00        -0.46769E+08
 
   -0.54792E+08        -0.56548E+06         0.00000E+00
   -0.56548E+06        -0.54812E+08         0.00000E+00
    0.00000E+00         0.00000E+00        -0.46764E+08
 
   -0.54288E+08        -0.37278E+06         0.00000E+00
   -0.37278E+06        -0.54537E+08         0.00000E+00
    0.00000E+00         0.00000E+00        -0.46759E+08
 
   -0.53672E+08        -0.15795E+06         0.00000E+00
   -0.15795E+06        -0.54390E+08         0.00000E+00
    0.00000E+00         0.00000E+00        -0.46755E+08
 
   -0.52860E+08         0.11689E+06         0.00000E+00
    0.11689E+06        -0.54400E+08         0.00000E+00
    0.00000E+00         0.00000E+00        -0.46749E+08
 
   -0.51724E+08         0.53156E+06         0.00000E+00
    0.53156E+06        -0.54629E+08         0.00000E+00
    0.00000E+00         0.00000E+00        -0.46744E+08
 
   -0.50031E+08         0.13005E+07         0.00000E+00
    0.13005E+07        -0.55208E+08         0.00000E+00
    0.00000E+00         0.00000E+00        -0.46737E+08
 
   -0.47869E+08         0.31758E+07         0.00000E+00
    0.31758E+07        -0.56241E+08         0.00000E+00
    0.00000E+00         0.00000E+00        -0.46732E+08
 
   -0.66684E+08        -0.10254E+07         0.00000E+00
   -0.10254E+07        -0.59053E+08         0.00000E+00
    0.00000E+00         0.00000E+00        -0.42367E+08
 
   -0.61370E+08        -0.99660E+06         0.00000E+00
   -0.99660E+06        -0.57444E+08         0.00000E+00
    0.00000E+00         0.00000E+00        -0.42359E+08
 
   -0.58938E+08        -0.80266E+06         0.00000E+00
   -0.80266E+06        -0.55797E+08         0.00000E+00
    0.00000E+00         0.00000E+00        -0.42351E+08
 
   -0.57547E+08        -0.64851E+06         0.00000E+00
   -0.64851E+06        -0.54414E+08         0.00000E+00
    0.00000E+00         0.00000E+00        -0.42345E+08
 
   -0.56662E+08        -0.52337E+06         0.00000E+00
   -0.52337E+06        -0.53280E+08         0.00000E+00
    0.00000E+00         0.00000E+00        -0.42340E+08
 
   -0.56039E+08        -0.42179E+06         0.00000E+00
   -0.42179E+06        -0.52358E+08         0.00000E+00
    0.00000E+00         0.00000E+00        -0.42336E+08
 
   -0.55549E+08        -0.33720E+06         0.00000E+00
   -0.33720E+06        -0.51615E+08         0.00000E+00
    0.00000E+00         0.00000E+00        -0.42333E+08
 
   -0.55111E+08        -0.26405E+06         0.00000E+00
   -0.26405E+06        -0.51024E+08         0.00000E+00
    0.00000E+00         0.00000E+00        -0.42331E+08
 
   -0.54664E+08        -0.19725E+06         0.00000E+00
   -0.19725E+06        -0.50571E+08         0.00000E+00
    0.00000E+00         0.00000E+00        -0.42329E+08
 
   -0.54154E+08        -0.13129E+06         0.00000E+00
   -0.13129E+06        -0.50248E+08         0.00000E+00
    0.00000E+00         0.00000E+00        -0.42327E+08
 
   -0.53513E+08        -0.58598E+05         0.00000E+00
   -0.58598E+05        -0.50063E+08         0.00000E+00
    0.00000E+00         0.00000E+00        -0.42325E+08
 
   -0.52640E+08         0.33768E+05         0.00000E+00
    0.33768E+05        -0.50043E+08         0.00000E+00
    0.00000E+00         0.00000E+00        -0.42323E+08
 
   -0.51356E+08         0.17491E+06         0.00000E+00
    0.17491E+06        -0.50256E+08         0.00000E+00
    0.00000E+00         0.00000E+00        -0.42320E+08
 
   -0.49286E+08         0.43436E+06         0.00000E+00
    0.43436E+06        -0.50871E+08         0.00000E+00
    0.00000E+00         0.00000E+00        -0.42317E+08
 
   -0.45151E+08         0.13095E+07         0.00000E+00
    0.13095E+07        -0.52500E+08         0.00000E+00
    0.00000E+00         0.00000E+00        -0.42314E+08
 
SCALARS stresss double 
LOOKUP_TABLE default
  -59240722.9510084     
  -59262384.1948223     
  -59288992.1060677     
  -59319496.1744463     
  -59352906.6616833     
  -59388306.5962452     
  -59424860.0208258     
  -59461817.1450628     
  -59498517.1498942     
  -59534389.4314048     
  -59568954.0600017     
  -59601822.1667916     
  -59632696.8562797     
  -59661375.0874911     
  -59687750.7700754     
  -59234645.2646278     
  -59257409.3397259     
  -59285073.8194020     
  -59316572.0669293     
  -59350902.5450645     
  -59387140.2850176     
  -59424444.4628654     
  -59462062.7857570     
  -59499333.4880643     
  -59535685.7796586     
  -59570639.5747276     
  -59603805.2622176     
  -59634884.1617286     
  -59663670.1460307     
  -59690052.7087183     
  -59222508.0859419     
  -59247498.5688078     
  -59277292.1826183     
  -59310790.3875359     
  -59346968.5901008     
  -59384886.5169949     
  -59423694.3978642     
  -59462635.7635323     
  -59501047.7705376     
  -59538360.0051404     
  -59574092.7018173     
  -59607855.2367509     
  -59639345.6305163     
  -59668351.6206418     
  -59694753.6485445     
  -59204351.0822708     
  -59232732.9071738     
  -59265759.8534034     
  -59302286.4337797     
  -59341254.8702764     
  -59381703.7107311     
  -59422771.7883083     
  -59463698.4969619     
  -59503821.4683332     
  -59542572.7752049     
  -59579474.7596898     
  -59614136.4977834     
  -59646251.7719947     
  -59675599.2350741     
  -59702045.2133775     
  -59180241.9261973     
  -59213241.7151980     
  -59250652.7010924     
  -59291268.5913669     
  -59333990.1073007     
  -59377831.0299734     
  -59421918.9343946     
  -59465491.8291517     
  -59507892.0353980     
  -59548558.6692442     
  -59587020.0481174     
  -59622887.2364480     
  -59655849.7879953     
  -59685674.5356579     
  -59712208.0250375     
  -59150286.0120552     
  -59189211.9331928     
  -59232217.8197828     
  -59278024.4767378     
  -59325485.4621905     
  -59373589.5197824     
  -59421456.8335638     
  -59468330.6652745     
  -59513566.0436864     
  -59556617.1824812     
  -59597025.2299780     
  -59634407.8208176     
  -59668451.7191982     
  -59698909.6193972     
  -59725601.8978616     
  -59114639.2141048     
  -59160900.1066907     
  -59210783.7205144     
  -59262928.3866034     
  -59316138.5717542     
  -59369382.3189772     
  -59421781.4160952     
  -59472596.3219854     
  -59521207.9600254     
  -59567098.4462142     
  -59609832.6951824     
  -59649042.6726972     
  -59684415.8566020     
  -59715689.2321271     
  -59742649.8705684     
  -59073523.4184926     
  -59128646.8001090     
  -59186772.1059956     
  -59246449.2068507     
  -59306436.7142829     
  -59365692.5686264     
  -59423356.0300750     
  -59478723.7383377     
  -59531222.5124479     
  -59580381.4280941     
  -59625805.5005424     
  -59667153.0661737     
  -59704118.7205989     
  -59736423.4363054     
  -59763813.2245714     
  -59027244.3645133     
  -59092892.7228268     
  -59160710.2363501     
  -59229157.4215601     
  -59296957.3685554     
  -59363076.9251700     
  -59426697.7653893     
  -59487180.8580887     
  -59544027.7087004     
  -59596841.4496597     
  -59645290.5091056     
  -59689077.2652479     
  -59727913.8312481     
  -59761506.9070373     
  -59789553.4387752     
  -58976211.0389970     
  -59054195.4551857     
  -59133242.2906839     
  -59211729.0966726     
  -59288363.5246841     
  -59362151.5740505     
  -59432354.1191940     
  -59498436.3576956     
  -59560014.4008698     
  -59616802.6592491     
  -59668565.1145235     
  -59715073.1245878     
  -59756072.1253504     
  -59791259.4560831     
  -59820275.4748895     
  -58920955.4542883     
  -59013245.0109912     
  -59105137.2266515     
  -59194943.5823749     
  -59281389.7947501     
  -59363566.2061546     
  -59440865.0022547     
  -59512910.3619676     
  -59579486.7496614     
  -59640469.5504333     
  -59695761.3624746     
  -59745236.6468729     
  -59788697.1506930     
  -59825840.5285741     
  -59856244.7792178     
  -58862151.0763113     
  -58970875.5267402     
  -59077289.3175457     
  -59179670.0374179     
  -59276813.4999785     
  -59367959.4133532     
  -59452703.0292368     
  -59530900.7428835     
  -59602575.9338704     
  -59667829.6425446     
  -59726759.3091307     
  -59779387.9657026     
  -59825606.0260735     
  -59865128.0944209     
  -59897467.8332583     
  -58800627.4245693     
  -58928069.0207464     
  -59050705.6437110     
  -59166835.5364549     
  -59275402.2809927     
  -59375886.1947564     
  -59468182.2662141     
  -59552474.9093852     
  -59629116.8819947     
  -59698516.9774069     
  -59761039.0444267     
  -59816913.7738382     
  -59866164.5653581     
  -59908549.5195986     
  -59943522.9123718     
  -58737377.4114167     
  -58885945.2822679     
  -59026472.1240522     
  -59157364.2338981     
  -59277826.1432287     
  -59387704.5236608     
  -59487321.9522298     
  -59577313.5471183     
  -59658474.6060248     
  -59731623.1117218     
  -59797477.9642580     
  -59856552.3685134     
  -59909061.9515545     
  -59954848.6622344     
  -59993323.8964433     
  -58673552.7972104     
  -58845729.3583940     
  -59005685.9260923     
  -59152072.5186427     
  -59284516.9184488     
  -59403402.9671407     
  -59509647.0054231     
  -59604488.4772296     
  -59689302.8903070     
  -59765438.8598787     
  -59834076.7083103     
  -59896104.3710802     
  -59952007.0486177     
  -60001769.7130725     
  -60044795.5986290     
  -58610441.6871660     
  -58808684.5797929     
  -58989336.9436867     
  -59151498.9240753     
  -59295451.5602196     
  -59422344.9393404     
  -59533901.2573525     
  -59632151.6898471     
  -59719213.7616192     
  -59797106.3870441     
  -59867593.9704869     
  -59932049.1124145     
  -59991325.1758946     
  -60045634.4917673     
  -60094434.3972169     
  -58549420.2550624     
  -58775994.2982353     
  -58978114.0207081     
  -59155639.2833021     
  -59309827.1264070     
  -59442897.1149256     
  -59557642.3458957     
  -59657106.8774668     
  -59744331.7057072     
  -59822157.8514017     
  -59893067.7006489     
  -59959044.2651671     
  -60021431.5583978     
  -60080786.6130689     
  -60136723.5172907     
  -58491868.7821419     
  -58748569.0376545     
  -58972102.0721014     
  -59163546.6215148     
  -59325584.3381853     
  -59461899.7551019     
  -59576679.2921478     
  -59674228.9810638     
  -59758702.7457323     
  -59833914.5399608     
  -59903199.0397859     
  -59969285.5936012     
  -60034156.7609717     
  -60098874.1764095     
  -60163369.0820014     
  -58439039.4632119     
  -58726746.7979372     
  -58970323.1705235     
  -59172740.6699211     
  -59338722.8166819     
  -59473925.3563826     
  -59584305.6659836     
  -59675692.4281506     
  -59753526.5687211     
  -59822720.8039272     
  -59887577.2490244     
  -59951706.3392605     
  -60017901.8932673     
  -60087944.0405638     
  -60162322.5824462     
  -58391859.7602932     
  -58709841.2774042     
  -58970056.1645547     
  -59178352.2449227     
  -59342334.0132109     
  -59470259.6982592     
  -59570274.2936569     
  -59649966.7390700     
  -59716181.9420771     
  -59774992.2641102     
  -59831731.2232868     
  -59891004.2172619     
  -59956609.7447337     
  -60031327.7575636     
  -60116559.9617258     
  -58350649.1370088     
  -58695472.5977334     
  -58965841.8203437     
  -59171900.5352305     
  -59325256.9642917     
  -59437527.4472804     
  -59519456.2666279     
  -59580541.9710172     
  -59629024.6236412     
  -59672070.5957887     
  -59716008.9733591     
  -59766501.6288914     
  -59828555.8492595     
  -59906315.3160091     
  -60002600.1327219     
  -58314715.7456480     
  -58678580.7025845     
  -58948036.2043177     
  -59139561.9429499     
  -59270237.0211216     
  -59355876.2090803     
  -59410132.2484643     
  -59444360.4779005     
  -59467956.3423362     
  -59488900.7587731     
  -59514314.0831574     
  -59550875.7559516     
  -59604995.6930504     
  -59682642.7778897     
  -59788770.2766317     
  -58281776.1594026     
  -58649956.5518671     
  -58900698.0008012     
  -59059728.9576932     
  -59151440.0594129     
  -59196635.7704823     
  -59211886.2759972     
  -59209961.6033107     
  -59200796.1618196     
  -59192582.2688982     
  -59192770.0741117     
  -59208844.3798423     
  -59248757.6959520     
  -59320870.4037667     
  -59433266.2319486     
  -58247086.5774916     
  -58593993.1819445     
  -58798449.2888958     
  -58899563.8246803     
  -58931152.1635569     
  -58919401.6741475     
  -58883126.3612200     
  -58835398.9368495     
  -58785530.4126829     
  -58740890.2795889     
  -58708437.7229560     
  -58695965.3113925     
  -58712955.7467114     
  -58770810.0929945     
  -58882118.8540331     
  -58202051.0381016     
  -58485050.7062356     
  -58601663.4612593     
  -58610105.3972158     
  -58555514.6889155     
  -58468595.2895518     
  -58368367.5326577     
  -58266067.7990346     
  -58168563.7414193     
  -58080895.6272187     
  -58008266.0698114     
  -57957800.5302905     
  -57940130.1230097     
  -57970294.0988008     
  -58067271.2704696     
  -58131681.6769051     
  -58281124.3571879     
  -58248699.9290472     
  -58119343.4328750     
  -57949312.7917463     
  -57769821.6451106     
  -57595604.1732071     
  -57432671.8540971     
  -57283106.8720575     
  -57147802.4654047     
  -57028457.2249568     
  -56929818.4946796     
  -56862327.4020241     
  -56844833.5103446     
  -56905109.5917427     
  -58009483.4540266     
  -57911200.3107574     
  -57642865.1493887     
  -57322688.7744751     
  -57010591.4781268     
  -56726885.6007211     
  -56474312.4244542     
  -56249622.4261892     
  -56047805.7936772     
  -55863930.5016997     
  -55694339.7036211     
  -55538367.9164881     
  -55403117.6464386     
  -55309147.8405561     
  -55296123.3282970     
  -57781905.9683022     
  -57247911.0277943     
  -56628910.0552905     
  -56072929.2732098     
  -55607830.7536299     
  -55220754.2670650     
  -54894730.7957548     
  -54614136.6585420     
  -54365610.2315007     
  -54137597.5109399     
  -53919800.3903810     
  -53703330.7428942     
  -53482504.3026043     
  -53273665.3488393     
  -53126713.3775843     
  -57322438.8507937     
  -56025119.1710390     
  -54965700.3365790     
  -54181373.6489731     
  -53582731.3897068     
  -53111732.0621438     
  -52728784.3943551     
  -52406115.7861983     
  -52122792.5678383     
  -51861395.7532443     
  -51605395.6192980     
  -51336471.9871424     
  -51032090.4215636     
  -50658626.6985524     
  -50280608.0442184     
  -56034490.8455000     
  -53724183.0179945     
  -52361825.6467310     
  -51435082.7240406     
  -50760692.9870599     
  -50244615.5878811     
  -49832314.9706891     
  -49488528.3874331     
  -49187918.3854829     
  -48909709.7349529     
  -48633621.6954060     
  -48335226.2803215     
  -47977422.9448441     
  -47491157.8565014     
  -46655141.0618024     
SCALARS 2waySource double 
LOOKUP_TABLE default
  0.000000000000000E+000
  0.000000000000000E+000
  0.000000000000000E+000
  0.000000000000000E+000
  0.000000000000000E+000
  0.000000000000000E+000
  0.000000000000000E+000
  0.000000000000000E+000
  0.000000000000000E+000
  0.000000000000000E+000
  0.000000000000000E+000
  0.000000000000000E+000
  0.000000000000000E+000
  0.000000000000000E+000
  0.000000000000000E+000
  0.000000000000000E+000
  0.000000000000000E+000
  0.000000000000000E+000
  0.000000000000000E+000
  0.000000000000000E+000
  0.000000000000000E+000
  0.000000000000000E+000
  0.000000000000000E+000
  0.000000000000000E+000
  0.000000000000000E+000
  0.000000000000000E+000
  0.000000000000000E+000
  0.000000000000000E+000
  0.000000000000000E+000
  0.000000000000000E+000
  0.000000000000000E+000
  0.000000000000000E+000
  0.000000000000000E+000
  0.000000000000000E+000
  0.000000000000000E+000
  0.000000000000000E+000
  0.000000000000000E+000
  0.000000000000000E+000
  0.000000000000000E+000
  0.000000000000000E+000
  0.000000000000000E+000
  0.000000000000000E+000
  0.000000000000000E+000
  0.000000000000000E+000
  0.000000000000000E+000
  0.000000000000000E+000
  0.000000000000000E+000
  0.000000000000000E+000
  0.000000000000000E+000
  0.000000000000000E+000
  0.000000000000000E+000
  0.000000000000000E+000
  0.000000000000000E+000
  0.000000000000000E+000
  0.000000000000000E+000
  0.000000000000000E+000
  0.000000000000000E+000
  0.000000000000000E+000
  0.000000000000000E+000
  0.000000000000000E+000
  0.000000000000000E+000
  0.000000000000000E+000
  0.000000000000000E+000
  0.000000000000000E+000
  0.000000000000000E+000
  0.000000000000000E+000
  0.000000000000000E+000
  0.000000000000000E+000
  0.000000000000000E+000
  0.000000000000000E+000
  0.000000000000000E+000
  0.000000000000000E+000
  0.000000000000000E+000
  0.000000000000000E+000
  0.000000000000000E+000
  0.000000000000000E+000
  0.000000000000000E+000
  0.000000000000000E+000
  0.000000000000000E+000
  0.000000000000000E+000
  0.000000000000000E+000
  0.000000000000000E+000
  0.000000000000000E+000
  0.000000000000000E+000
  0.000000000000000E+000
  0.000000000000000E+000
  0.000000000000000E+000
  0.000000000000000E+000
  0.000000000000000E+000
  0.000000000000000E+000
  0.000000000000000E+000
  0.000000000000000E+000
  0.000000000000000E+000
  0.000000000000000E+000
  0.000000000000000E+000
  0.000000000000000E+000
  0.000000000000000E+000
  0.000000000000000E+000
  0.000000000000000E+000
  0.000000000000000E+000
  0.000000000000000E+000
  0.000000000000000E+000
  0.000000000000000E+000
  0.000000000000000E+000
  0.000000000000000E+000
  0.000000000000000E+000
  0.000000000000000E+000
  0.000000000000000E+000
  0.000000000000000E+000
  0.000000000000000E+000
  0.000000000000000E+000
  0.000000000000000E+000
  0.000000000000000E+000
  0.000000000000000E+000
  0.000000000000000E+000
  0.000000000000000E+000
  0.000000000000000E+000
  0.000000000000000E+000
  0.000000000000000E+000
  0.000000000000000E+000
  0.000000000000000E+000
  0.000000000000000E+000
  0.000000000000000E+000
  0.000000000000000E+000
  0.000000000000000E+000
  0.000000000000000E+000
  0.000000000000000E+000
  0.000000000000000E+000
  0.000000000000000E+000
  0.000000000000000E+000
  0.000000000000000E+000
  0.000000000000000E+000
  0.000000000000000E+000
  0.000000000000000E+000
  0.000000000000000E+000
  0.000000000000000E+000
  0.000000000000000E+000
  0.000000000000000E+000
  0.000000000000000E+000
  0.000000000000000E+000
  0.000000000000000E+000
  0.000000000000000E+000
  0.000000000000000E+000
  0.000000000000000E+000
  0.000000000000000E+000
  0.000000000000000E+000
  0.000000000000000E+000
  0.000000000000000E+000
  0.000000000000000E+000
  0.000000000000000E+000
  0.000000000000000E+000
  0.000000000000000E+000
  0.000000000000000E+000
  0.000000000000000E+000
  0.000000000000000E+000
  0.000000000000000E+000
  0.000000000000000E+000
  0.000000000000000E+000
  0.000000000000000E+000
  0.000000000000000E+000
  0.000000000000000E+000
  0.000000000000000E+000
  0.000000000000000E+000
  0.000000000000000E+000
  0.000000000000000E+000
  0.000000000000000E+000
  0.000000000000000E+000
  0.000000000000000E+000
  0.000000000000000E+000
  0.000000000000000E+000
  0.000000000000000E+000
  0.000000000000000E+000
  0.000000000000000E+000
  0.000000000000000E+000
  0.000000000000000E+000
  0.000000000000000E+000
  0.000000000000000E+000
  0.000000000000000E+000
  0.000000000000000E+000
  0.000000000000000E+000
  0.000000000000000E+000
  0.000000000000000E+000
  0.000000000000000E+000
  0.000000000000000E+000
  0.000000000000000E+000
  0.000000000000000E+000
  0.000000000000000E+000
  0.000000000000000E+000
  0.000000000000000E+000
  0.000000000000000E+000
  0.000000000000000E+000
  0.000000000000000E+000
  0.000000000000000E+000
  0.000000000000000E+000
  0.000000000000000E+000
  0.000000000000000E+000
  0.000000000000000E+000
  0.000000000000000E+000
  0.000000000000000E+000
  0.000000000000000E+000
  0.000000000000000E+000
  0.000000000000000E+000
  0.000000000000000E+000
  0.000000000000000E+000
  0.000000000000000E+000
  0.000000000000000E+000
  0.000000000000000E+000
  0.000000000000000E+000
  0.000000000000000E+000
  0.000000000000000E+000
  0.000000000000000E+000
  0.000000000000000E+000
  0.000000000000000E+000
  0.000000000000000E+000
  0.000000000000000E+000
  0.000000000000000E+000
  0.000000000000000E+000
  0.000000000000000E+000
  0.000000000000000E+000
  0.000000000000000E+000
  0.000000000000000E+000
  0.000000000000000E+000
  0.000000000000000E+000
  0.000000000000000E+000
  0.000000000000000E+000
  0.000000000000000E+000
  0.000000000000000E+000
  0.000000000000000E+000
  0.000000000000000E+000
  0.000000000000000E+000
  0.000000000000000E+000
  0.000000000000000E+000
  0.000000000000000E+000
  0.000000000000000E+000
  0.000000000000000E+000
  0.000000000000000E+000
  0.000000000000000E+000
  0.000000000000000E+000
  0.000000000000000E+000
  0.000000000000000E+000
  0.000000000000000E+000
  0.000000000000000E+000
  0.000000000000000E+000
  0.000000000000000E+000
  0.000000000000000E+000
  0.000000000000000E+000
  0.000000000000000E+000
  0.000000000000000E+000
  0.000000000000000E+000
  0.000000000000000E+000
  0.000000000000000E+000
  0.000000000000000E+000
  0.000000000000000E+000
  0.000000000000000E+000
  0.000000000000000E+000
  0.000000000000000E+000
  0.000000000000000E+000
  0.000000000000000E+000
  0.000000000000000E+000
  0.000000000000000E+000
  0.000000000000000E+000
  0.000000000000000E+000
  0.000000000000000E+000
  0.000000000000000E+000
  0.000000000000000E+000
  0.000000000000000E+000
  0.000000000000000E+000
  0.000000000000000E+000
  0.000000000000000E+000
  0.000000000000000E+000
  0.000000000000000E+000
  0.000000000000000E+000
  0.000000000000000E+000
  0.000000000000000E+000
  0.000000000000000E+000
  0.000000000000000E+000
  0.000000000000000E+000
  0.000000000000000E+000
  0.000000000000000E+000
  0.000000000000000E+000
  0.000000000000000E+000
  0.000000000000000E+000
  0.000000000000000E+000
  0.000000000000000E+000
  0.000000000000000E+000
  0.000000000000000E+000
  0.000000000000000E+000
  0.000000000000000E+000
  0.000000000000000E+000
  0.000000000000000E+000
  0.000000000000000E+000
  0.000000000000000E+000
  0.000000000000000E+000
  0.000000000000000E+000
  0.000000000000000E+000
  0.000000000000000E+000
  0.000000000000000E+000
  0.000000000000000E+000
  0.000000000000000E+000
  0.000000000000000E+000
  0.000000000000000E+000
  0.000000000000000E+000
  0.000000000000000E+000
  0.000000000000000E+000
  0.000000000000000E+000
  0.000000000000000E+000
  0.000000000000000E+000
  0.000000000000000E+000
  0.000000000000000E+000
  0.000000000000000E+000
  0.000000000000000E+000
  0.000000000000000E+000
  0.000000000000000E+000
  0.000000000000000E+000
  0.000000000000000E+000
  0.000000000000000E+000
  0.000000000000000E+000
  0.000000000000000E+000
  0.000000000000000E+000
  0.000000000000000E+000
  0.000000000000000E+000
  0.000000000000000E+000
  0.000000000000000E+000
  0.000000000000000E+000
  0.000000000000000E+000
  0.000000000000000E+000
  0.000000000000000E+000
  0.000000000000000E+000
  0.000000000000000E+000
  0.000000000000000E+000
  0.000000000000000E+000
  0.000000000000000E+000
  0.000000000000000E+000
  0.000000000000000E+000
  0.000000000000000E+000
  0.000000000000000E+000
  0.000000000000000E+000
  0.000000000000000E+000
  0.000000000000000E+000
  0.000000000000000E+000
  0.000000000000000E+000
  0.000000000000000E+000
  0.000000000000000E+000
  0.000000000000000E+000
  0.000000000000000E+000
  0.000000000000000E+000
  0.000000000000000E+000
  0.000000000000000E+000
  0.000000000000000E+000
  0.000000000000000E+000
  0.000000000000000E+000
  0.000000000000000E+000
  0.000000000000000E+000
  0.000000000000000E+000
  0.000000000000000E+000
  0.000000000000000E+000
  0.000000000000000E+000
  0.000000000000000E+000
  0.000000000000000E+000
  0.000000000000000E+000
  0.000000000000000E+000
  0.000000000000000E+000
  0.000000000000000E+000
  0.000000000000000E+000
  0.000000000000000E+000
  0.000000000000000E+000
  0.000000000000000E+000
  0.000000000000000E+000
  0.000000000000000E+000
  0.000000000000000E+000
  0.000000000000000E+000
  0.000000000000000E+000
  0.000000000000000E+000
  0.000000000000000E+000
  0.000000000000000E+000
  0.000000000000000E+000
  0.000000000000000E+000
  0.000000000000000E+000
  0.000000000000000E+000
  0.000000000000000E+000
  0.000000000000000E+000
  0.000000000000000E+000
  0.000000000000000E+000
  0.000000000000000E+000
  0.000000000000000E+000
  0.000000000000000E+000
  0.000000000000000E+000
  0.000000000000000E+000
  0.000000000000000E+000
  0.000000000000000E+000
  0.000000000000000E+000
  0.000000000000000E+000
  0.000000000000000E+000
  0.000000000000000E+000
  0.000000000000000E+000
  0.000000000000000E+000
  0.000000000000000E+000
  0.000000000000000E+000
  0.000000000000000E+000
  0.000000000000000E+000
  0.000000000000000E+000
  0.000000000000000E+000
  0.000000000000000E+000
  0.000000000000000E+000
  0.000000000000000E+000
  0.000000000000000E+000
  0.000000000000000E+000
  0.000000000000000E+000
  0.000000000000000E+000
  0.000000000000000E+000
  0.000000000000000E+000
  0.000000000000000E+000
  0.000000000000000E+000
  0.000000000000000E+000
  0.000000000000000E+000
  0.000000000000000E+000
  0.000000000000000E+000
  0.000000000000000E+000
  0.000000000000000E+000
  0.000000000000000E+000
  0.000000000000000E+000
  0.000000000000000E+000
  0.000000000000000E+000
  0.000000000000000E+000
  0.000000000000000E+000
  0.000000000000000E+000
  0.000000000000000E+000
  0.000000000000000E+000
  0.000000000000000E+000
  0.000000000000000E+000
  0.000000000000000E+000
  0.000000000000000E+000
  0.000000000000000E+000
  0.000000000000000E+000
  0.000000000000000E+000
  0.000000000000000E+000
  0.000000000000000E+000
  0.000000000000000E+000
  0.000000000000000E+000
  0.000000000000000E+000
  0.000000000000000E+000
  0.000000000000000E+000
  0.000000000000000E+000
  0.000000000000000E+000
  0.000000000000000E+000
  0.000000000000000E+000
  0.000000000000000E+000
  0.000000000000000E+000
  0.000000000000000E+000
  0.000000000000000E+000
SCALARS elementIsPlast double 
LOOKUP_TABLE default
  0.000000000000000E+000
  0.000000000000000E+000
  0.000000000000000E+000
  0.000000000000000E+000
  0.000000000000000E+000
  0.000000000000000E+000
  0.000000000000000E+000
  0.000000000000000E+000
  0.000000000000000E+000
  0.000000000000000E+000
  0.000000000000000E+000
  0.000000000000000E+000
  0.000000000000000E+000
  0.000000000000000E+000
  0.000000000000000E+000
  0.000000000000000E+000
  0.000000000000000E+000
  0.000000000000000E+000
  0.000000000000000E+000
  0.000000000000000E+000
  0.000000000000000E+000
  0.000000000000000E+000
  0.000000000000000E+000
  0.000000000000000E+000
  0.000000000000000E+000
  0.000000000000000E+000
  0.000000000000000E+000
  0.000000000000000E+000
  0.000000000000000E+000
  0.000000000000000E+000
  0.000000000000000E+000
  0.000000000000000E+000
  0.000000000000000E+000
  0.000000000000000E+000
  0.000000000000000E+000
  0.000000000000000E+000
  0.000000000000000E+000
  0.000000000000000E+000
  0.000000000000000E+000
  0.000000000000000E+000
  0.000000000000000E+000
  0.000000000000000E+000
  0.000000000000000E+000
  0.000000000000000E+000
  0.000000000000000E+000
  0.000000000000000E+000
  0.000000000000000E+000
  0.000000000000000E+000
  0.000000000000000E+000
  0.000000000000000E+000
  0.000000000000000E+000
  0.000000000000000E+000
  0.000000000000000E+000
  0.000000000000000E+000
  0.000000000000000E+000
  0.000000000000000E+000
  0.000000000000000E+000
  0.000000000000000E+000
  0.000000000000000E+000
  0.000000000000000E+000
  0.000000000000000E+000
  0.000000000000000E+000
  0.000000000000000E+000
  0.000000000000000E+000
  0.000000000000000E+000
  0.000000000000000E+000
  0.000000000000000E+000
  0.000000000000000E+000
  0.000000000000000E+000
  0.000000000000000E+000
  0.000000000000000E+000
  0.000000000000000E+000
  0.000000000000000E+000
  0.000000000000000E+000
  0.000000000000000E+000
  0.000000000000000E+000
  0.000000000000000E+000
  0.000000000000000E+000
  0.000000000000000E+000
  0.000000000000000E+000
  0.000000000000000E+000
  0.000000000000000E+000
  0.000000000000000E+000
  0.000000000000000E+000
  0.000000000000000E+000
  0.000000000000000E+000
  0.000000000000000E+000
  0.000000000000000E+000
  0.000000000000000E+000
  0.000000000000000E+000
  0.000000000000000E+000
  0.000000000000000E+000
  0.000000000000000E+000
  0.000000000000000E+000
  0.000000000000000E+000
  0.000000000000000E+000
  0.000000000000000E+000
  0.000000000000000E+000
  0.000000000000000E+000
  0.000000000000000E+000
  0.000000000000000E+000
  0.000000000000000E+000
  0.000000000000000E+000
  0.000000000000000E+000
  0.000000000000000E+000
  0.000000000000000E+000
  0.000000000000000E+000
  0.000000000000000E+000
  0.000000000000000E+000
  0.000000000000000E+000
  0.000000000000000E+000
  0.000000000000000E+000
  0.000000000000000E+000
  0.000000000000000E+000
  0.000000000000000E+000
  0.000000000000000E+000
  0.000000000000000E+000
  0.000000000000000E+000
  0.000000000000000E+000
  0.000000000000000E+000
  0.000000000000000E+000
  0.000000000000000E+000
  0.000000000000000E+000
  0.000000000000000E+000
  0.000000000000000E+000
  0.000000000000000E+000
  0.000000000000000E+000
  0.000000000000000E+000
  0.000000000000000E+000
  0.000000000000000E+000
  0.000000000000000E+000
  0.000000000000000E+000
  0.000000000000000E+000
  0.000000000000000E+000
  0.000000000000000E+000
  0.000000000000000E+000
  0.000000000000000E+000
  0.000000000000000E+000
  0.000000000000000E+000
  0.000000000000000E+000
  0.000000000000000E+000
  0.000000000000000E+000
  0.000000000000000E+000
  0.000000000000000E+000
  0.000000000000000E+000
  0.000000000000000E+000
  0.000000000000000E+000
  0.000000000000000E+000
  0.000000000000000E+000
  0.000000000000000E+000
  0.000000000000000E+000
  0.000000000000000E+000
  0.000000000000000E+000
  0.000000000000000E+000
  0.000000000000000E+000
  0.000000000000000E+000
  0.000000000000000E+000
  0.000000000000000E+000
  0.000000000000000E+000
  0.000000000000000E+000
  0.000000000000000E+000
  0.000000000000000E+000
  0.000000000000000E+000
  0.000000000000000E+000
  0.000000000000000E+000
  0.000000000000000E+000
  0.000000000000000E+000
  0.000000000000000E+000
  0.000000000000000E+000
  0.000000000000000E+000
  0.000000000000000E+000
  0.000000000000000E+000
  0.000000000000000E+000
  0.000000000000000E+000
  0.000000000000000E+000
  0.000000000000000E+000
  0.000000000000000E+000
  0.000000000000000E+000
  0.000000000000000E+000
  0.000000000000000E+000
  0.000000000000000E+000
  0.000000000000000E+000
  0.000000000000000E+000
  0.000000000000000E+000
  0.000000000000000E+000
  0.000000000000000E+000
  0.000000000000000E+000
  0.000000000000000E+000
  0.000000000000000E+000
  0.000000000000000E+000
  0.000000000000000E+000
  0.000000000000000E+000
  0.000000000000000E+000
  0.000000000000000E+000
  0.000000000000000E+000
  0.000000000000000E+000
  0.000000000000000E+000
  0.000000000000000E+000
  0.000000000000000E+000
  0.000000000000000E+000
  0.000000000000000E+000
  0.000000000000000E+000
  0.000000000000000E+000
  0.000000000000000E+000
  0.000000000000000E+000
  0.000000000000000E+000
  0.000000000000000E+000
  0.000000000000000E+000
  0.000000000000000E+000
  0.000000000000000E+000
  0.000000000000000E+000
  0.000000000000000E+000
  0.000000000000000E+000
  0.000000000000000E+000
  0.000000000000000E+000
  0.000000000000000E+000
  0.000000000000000E+000
  0.000000000000000E+000
  0.000000000000000E+000
  0.000000000000000E+000
  0.000000000000000E+000
  0.000000000000000E+000
  0.000000000000000E+000
  0.000000000000000E+000
  0.000000000000000E+000
  0.000000000000000E+000
  0.000000000000000E+000
  0.000000000000000E+000
  0.000000000000000E+000
  0.000000000000000E+000
  0.000000000000000E+000
  0.000000000000000E+000
  0.000000000000000E+000
  0.000000000000000E+000
  0.000000000000000E+000
  0.000000000000000E+000
  0.000000000000000E+000
  0.000000000000000E+000
  0.000000000000000E+000
  0.000000000000000E+000
  0.000000000000000E+000
  0.000000000000000E+000
  0.000000000000000E+000
  0.000000000000000E+000
  0.000000000000000E+000
  0.000000000000000E+000
  0.000000000000000E+000
  0.000000000000000E+000
  0.000000000000000E+000
  0.000000000000000E+000
  0.000000000000000E+000
  0.000000000000000E+000
  0.000000000000000E+000
  0.000000000000000E+000
  0.000000000000000E+000
  0.000000000000000E+000
  0.000000000000000E+000
  0.000000000000000E+000
  0.000000000000000E+000
  0.000000000000000E+000
  0.000000000000000E+000
  0.000000000000000E+000
  0.000000000000000E+000
  0.000000000000000E+000
  0.000000000000000E+000
  0.000000000000000E+000
  0.000000000000000E+000
  0.000000000000000E+000
  0.000000000000000E+000
  0.000000000000000E+000
  0.000000000000000E+000
  0.000000000000000E+000
  0.000000000000000E+000
  0.000000000000000E+000
  0.000000000000000E+000
  0.000000000000000E+000
  0.000000000000000E+000
  0.000000000000000E+000
  0.000000000000000E+000
  0.000000000000000E+000
  0.000000000000000E+000
  0.000000000000000E+000
  0.000000000000000E+000
  0.000000000000000E+000
  0.000000000000000E+000
  0.000000000000000E+000
  0.000000000000000E+000
  0.000000000000000E+000
  0.000000000000000E+000
  0.000000000000000E+000
  0.000000000000000E+000
  0.000000000000000E+000
  0.000000000000000E+000
  0.000000000000000E+000
  0.000000000000000E+000
  0.000000000000000E+000
  0.000000000000000E+000
  0.000000000000000E+000
  0.000000000000000E+000
  0.000000000000000E+000
  0.000000000000000E+000
  0.000000000000000E+000
  0.000000000000000E+000
  0.000000000000000E+000
  0.000000000000000E+000
  0.000000000000000E+000
  0.000000000000000E+000
  0.000000000000000E+000
  0.000000000000000E+000
  0.000000000000000E+000
  0.000000000000000E+000
  0.000000000000000E+000
  0.000000000000000E+000
  0.000000000000000E+000
  0.000000000000000E+000
  0.000000000000000E+000
  0.000000000000000E+000
  0.000000000000000E+000
  0.000000000000000E+000
  0.000000000000000E+000
  0.000000000000000E+000
  0.000000000000000E+000
  0.000000000000000E+000
  0.000000000000000E+000
  0.000000000000000E+000
  0.000000000000000E+000
  0.000000000000000E+000
  0.000000000000000E+000
  0.000000000000000E+000
  0.000000000000000E+000
  0.000000000000000E+000
  0.000000000000000E+000
  0.000000000000000E+000
  0.000000000000000E+000
  0.000000000000000E+000
  0.000000000000000E+000
  0.000000000000000E+000
  0.000000000000000E+000
  0.000000000000000E+000
  0.000000000000000E+000
  0.000000000000000E+000
  0.000000000000000E+000
  0.000000000000000E+000
  0.000000000000000E+000
  0.000000000000000E+000
  0.000000000000000E+000
  0.000000000000000E+000
  0.000000000000000E+000
  0.000000000000000E+000
  0.000000000000000E+000
  0.000000000000000E+000
  0.000000000000000E+000
  0.000000000000000E+000
  0.000000000000000E+000
  0.000000000000000E+000
  0.000000000000000E+000
  0.000000000000000E+000
  0.000000000000000E+000
  0.000000000000000E+000
  0.000000000000000E+000
  0.000000000000000E+000
  0.000000000000000E+000
  0.000000000000000E+000
  0.000000000000000E+000
  0.000000000000000E+000
  0.000000000000000E+000
  0.000000000000000E+000
  0.000000000000000E+000
  0.000000000000000E+000
  0.000000000000000E+000
  0.000000000000000E+000
  0.000000000000000E+000
  0.000000000000000E+000
  0.000000000000000E+000
  0.000000000000000E+000
  0.000000000000000E+000
  0.000000000000000E+000
  0.000000000000000E+000
  0.000000000000000E+000
  0.000000000000000E+000
  0.000000000000000E+000
  0.000000000000000E+000
  0.000000000000000E+000
  0.000000000000000E+000
  0.000000000000000E+000
  0.000000000000000E+000
  0.000000000000000E+000
  0.000000000000000E+000
  0.000000000000000E+000
  0.000000000000000E+000
  0.000000000000000E+000
  0.000000000000000E+000
  0.000000000000000E+000
  0.000000000000000E+000
  0.000000000000000E+000
  0.000000000000000E+000
  0.000000000000000E+000
  0.000000000000000E+000
  0.000000000000000E+000
  0.000000000000000E+000
  0.000000000000000E+000
  0.000000000000000E+000
  0.000000000000000E+000
  0.000000000000000E+000
  0.000000000000000E+000
  0.000000000000000E+000
  0.000000000000000E+000
  0.000000000000000E+000
  0.000000000000000E+000
  0.000000000000000E+000
  0.000000000000000E+000
  0.000000000000000E+000
  0.000000000000000E+000
  0.000000000000000E+000
  0.000000000000000E+000
  0.000000000000000E+000
  0.000000000000000E+000
  0.000000000000000E+000
  0.000000000000000E+000
  0.000000000000000E+000
  0.000000000000000E+000
  0.000000000000000E+000
  0.000000000000000E+000
  0.000000000000000E+000
  0.000000000000000E+000
  0.000000000000000E+000
  0.000000000000000E+000
  0.000000000000000E+000
  0.000000000000000E+000
  0.000000000000000E+000
  0.000000000000000E+000
  0.000000000000000E+000
  0.000000000000000E+000
  0.000000000000000E+000
  0.000000000000000E+000
  0.000000000000000E+000
  0.000000000000000E+000
  0.000000000000000E+000
  0.000000000000000E+000
  0.000000000000000E+000
  0.000000000000000E+000
  0.000000000000000E+000
  0.000000000000000E+000
  0.000000000000000E+000
  0.000000000000000E+000
  0.000000000000000E+000
  0.000000000000000E+000
  0.000000000000000E+000
  0.000000000000000E+000
  0.000000000000000E+000
SCALARS poroL double 
LOOKUP_TABLE default
  0.250569215135224     
  0.250552969244707     
  0.250533013391187     
  0.250510135450272     
  0.250485077717911     
  0.250458527915013     
  0.250431113002295     
  0.250403395316004     
  0.250375870464735     
  0.250348966396485     
  0.250323043054104     
  0.250298392085290     
  0.250275236157804     
  0.250253727548352     
  0.250233945820226     
  0.250573722119634     
  0.250556649116551     
  0.250535900856810     
  0.250512277308503     
  0.250486529614485     
  0.250459351491505     
  0.250431373548456     
  0.250403159997023     
  0.250375207154618     
  0.250347943108057     
  0.250321727916695     
  0.250296853784285     
  0.250273544716713     
  0.250251955304766     
  0.250232168423039     
  0.250582712188031     
  0.250563969403670     
  0.250541624338432     
  0.250516500882283     
  0.250489367464930     
  0.250460929276770     
  0.250431823632565     
  0.250402617873125     
  0.250373809121888     
  0.250345825181625     
  0.250319025870130     
  0.250293704149580     
  0.250270086498989     
  0.250248332109287     
  0.250228530642634     
  0.250596133178974     
  0.250574846932407     
  0.250550076948778     
  0.250522682318200     
  0.250493456348973     
  0.250463120107048     
  0.250432319447584     
  0.250401624808726     
  0.250371532953717     
  0.250342469817679     
  0.250314793635623     
  0.250288797593121     
  0.250264711345958     
  0.250242700896557     
  0.250222866490756     
  0.250613895653426     
  0.250589146008698     
  0.250561088130999     
  0.250530626695870     
  0.250498586120006     
  0.250465706029941     
  0.250432640713081     
  0.250399961638286     
  0.250368162045942     
  0.250337662584852     
  0.250308817005852     
  0.250281917000909     
  0.250257195394908     
  0.250234827052061     
  0.250214927049737     
  0.250635858600030     
  0.250606664479449     
  0.250574410647357     
  0.250540056423639     
  0.250504461568273     
  0.250468384462100     
  0.250432484917875     
  0.250397330452237     
  0.250363404767011     
  0.250331117183121     
  0.250300811825253     
  0.250272775455168     
  0.250247242986795     
  0.250224399883917     
  0.250204380844698     
  0.250661808847355     
  0.250627113697911     
  0.250589701924888     
  0.250550594647126     
  0.250510688394428     
  0.250470757034839     
  0.250431459150923     
  0.250393349343923     
  0.250356891884852     
  0.250322475163123     
  0.250290425476389     
  0.250261018835972     
  0.250234489616972     
  0.250211035058822     
  0.250190814829426     
  0.250691432668922     
  0.250650090972472     
  0.250606498491079     
  0.250561742591987     
  0.250516754115864     
  0.250472314447152     
  0.250429069023387     
  0.250387545286615     
  0.250348173075441     
  0.250311305556858     
  0.250277238953687     
  0.250246229499274     
  0.250218506226886     
  0.250194278376955     
  0.250173736398422     
  0.250724277411365     
  0.250675042488207     
  0.250624181725720     
  0.250572849342322     
  0.250522002688197     
  0.250472416372853     
  0.250424703964766     
  0.250379344630001     
  0.250336712184536     
  0.250297104257251     
  0.250260769519657     
  0.250227931179133     
  0.250198805128563     
  0.250173611300653     
  0.250152576921117     
  0.250759700104269     
  0.250701213927119     
  0.250641932516336     
  0.250583072037820     
  0.250525601208389     
  0.250470265130265     
  0.250417617890681     
  0.250368060453464     
  0.250321880683879     
  0.250279292774087     
  0.250240473755799     
  0.250205595118880     
  0.250174847765552     
  0.250148458631177     
  0.250126697346337     
  0.250796798851128     
  0.250727585031397     
  0.250658671610029     
  0.250591323846019     
  0.250526496570254     
  0.250464871414525     
  0.250406903878295     
  0.250352875668641     
  0.250302948419620     
  0.250257215651677     
  0.250215750493909     
  0.250178647149626     
  0.250146054296915     
  0.250118198607114     
  0.250095396418813     
  0.250834321275969     
  0.250752783114272     
  0.250672981493290     
  0.250596206337598     
  0.250523359379747     
  0.250455009921834     
  0.250391461043711     
  0.250332820306316     
  0.250279070256727     
  0.250230135307186     
  0.250185942580418     
  0.250146474936569     
  0.250111814577976     
  0.250082175419279     
  0.250057921943381     
  0.250870542332334     
  0.250774969003497     
  0.250683004521216     
  0.250595922101133     
  0.250514511848929     
  0.250439162193219     
  0.250369951303876     
  0.250306740836548     
  0.250249266536390     
  0.250197222272453     
  0.250150335604558     
  0.250108433813099     
  0.250071499412527     
  0.250039713620221     
  0.250013485266909     
  0.250903101312760     
  0.250791687123332     
  0.250686310830504     
  0.250588162674979     
  0.250497835866952     
  0.250415443543177     
  0.250340743159078     
  0.250273258650861     
  0.250212394339017     
  0.250157537717943     
  0.250108150507630     
  0.250063848403507     
  0.250024469848386     
  0.249990133045420     
  0.249961278641514     
  0.250928784920644     
  0.250799669482452     
  0.250679728473315     
  0.250569966338011     
  0.250470657169918     
  0.250381510650026     
  0.250301839127310     
  0.250230713995960     
  0.250167105341109     
  0.250110003616303     
  0.250058525263227     
  0.250012005456007     
  0.249970080637142     
  0.249932761525729     
  0.249900494281151     
  0.250943239875933     
  0.250794581477021     
  0.250659127524408     
  0.250537540329257     
  0.250429601803502     
  0.250334446500023     
  0.250250783137594     
  0.250177090737762     
  0.250111784538702     
  0.250053353871171     
  0.250000478439970     
  0.249952130807839     
  0.249907671612862     
  0.249866940702403     
  0.249830342604085     
  0.250940594988808     
  0.250770696107825     
  0.250619150212895     
  0.250486043233026     
  0.250370422387752     
  0.250270620263143     
  0.250184544270099     
  0.250109916446643     
  0.250044462272256     
  0.249986057106465     
  0.249932844289383     
  0.249883340014520     
  0.249836537487695     
  0.249792017495310     
  0.249750065237546     
  0.250912969491330     
  0.250720483272506     
  0.250552881368857     
  0.250409326496101     
  0.250287794819755     
  0.250185521881855     
  0.250099374044349     
  0.250026131577974     
  0.249962689847117     
  0.249906198514320     
  0.249854164917226     
  0.249804547739016     
  0.249755862250479     
  0.249707310075665     
  0.249658935740747     
  0.250849842603793     
  0.250634103604694     
  0.250451459206911     
  0.250299640782937     
  0.250175092121715     
  0.250073575428779     
  0.249990636421996     
  0.249921921164171     
  0.249863366651959     
  0.249811304169234     
  0.249762520014415     
  0.249714315392681     
  0.249664598857090     
  0.249612032456053     
  0.249556237637228     
  0.250737260317479     
  0.250498804130696     
  0.250303638194535     
  0.250147325343984     
  0.250024152755144     
  0.249927942553694     
  0.249852613227003     
  0.249792502597233     
  0.249742504111619     
  0.249698086577410     
  0.249655268539713     
  0.249610609677551     
  0.249561268119810     
  0.249505155988695     
  0.249441205316491     
  0.250556861424390     
  0.250298229495058     
  0.250095337564762     
  0.249940520164047     
  0.249825077954386     
  0.249740338446482     
  0.249678292927307     
  0.249631863732735     
  0.249594909157033     
  0.249562085136930     
  0.249528669787446     
  0.249490436551180     
  0.249443642474732     
  0.249385179096006     
  0.249312908902863     
  0.250284719275094     
  0.250011694068113     
  0.249809247988095     
  0.249664976548613     
  0.249566118824083     
  0.249500897722003     
  0.249459156827286     
  0.249432446124056     
  0.249413767304344     
  0.249397170173468     
  0.249377343812582     
  0.249349305539035     
  0.249308270064887     
  0.249249768022809     
  0.249170059616637     
  0.249890023827307     
  0.249613519462418     
  0.249424637882125     
  0.249304100080099     
  0.249233750451019     
  0.249198143790322     
  0.249184980307124     
  0.249184767154890     
  0.249190103409487     
  0.249194875817456     
  0.249193524052704     
  0.249180467618388     
  0.249149780318685     
  0.249095219553019     
  0.249010707440443     
  0.249333682151720     
  0.249072655180603     
  0.248917626834349     
  0.248839451600991     
  0.248813074012900     
  0.248819121906005     
  0.248843659331031     
  0.248876969144352     
  0.248912098982697     
  0.248943528959247     
  0.248966050688863     
  0.248973853778082     
  0.248959888544992     
  0.248915675329470     
  0.248831796608780     
  0.248567015785569     
  0.248353042652788     
  0.248262428184380     
  0.248252073537680     
  0.248288714513345     
  0.248349725271093     
  0.248421036072448     
  0.248494270733903     
  0.248564254373029     
  0.248627160074370     
  0.248679056201204     
  0.248714618939302     
  0.248725966766948     
  0.248701971218837     
  0.248628528686906     
  0.247531016510017     
  0.247415713303089     
  0.247434563259321     
  0.247525166289775     
  0.247646318151615     
  0.247775104732728     
  0.247900611214264     
  0.248018278097588     
  0.248126419588325     
  0.248224231134178     
  0.248310336033647     
  0.248381149105639     
  0.248428949025108     
  0.248439871939574     
  0.248393442503313     
  0.246157174406086     
  0.246225328557953     
  0.246417878390641     
  0.246648719953920     
  0.246874279218560     
  0.247079719231061     
  0.247262921523390     
  0.247426103906579     
  0.247572770161080     
  0.247706379284129     
  0.247829473824020     
  0.247942434244833     
  0.248040001406797     
  0.248107161933315     
  0.248114925112840     
  0.244375615455370     
  0.244767469476080     
  0.245219522236072     
  0.245624907196048     
  0.245963966864024     
  0.246246303656696     
  0.246484292224271     
  0.246689260834138     
  0.246870873992291     
  0.247037480670838     
  0.247196522813707     
  0.247354432012188     
  0.247515367094295     
  0.247667460970732     
  0.247774634043901     
  0.242145226226220     
  0.243107472935456     
  0.243888830335988     
  0.244466097968259     
  0.244906470419115     
  0.245252978326492     
  0.245534804959590     
  0.245772354946345     
  0.245980981933570     
  0.246173453335968     
  0.246361890207576     
  0.246559756235990     
  0.246783685182230     
  0.247058831391574     
  0.247338397834377     
  0.239749183156965     
  0.241476333334196     
  0.242491823418542     
  0.243182108131882     
  0.243684292077916     
  0.244068585087399     
  0.244375629704265     
  0.244631679025128     
  0.244855585493056     
  0.245062803577849     
  0.245268423160580     
  0.245490633395008     
  0.245757108742252     
  0.246119418002741     
  0.246744288021609     
