# vtk DataFile Version 3.0
vtk output
ASCII
DATASET UNSTRUCTURED_GRID
POINTS       496 double 
  0.00000000E+00  3.00000000E+02  0.00000000E+00
  0.00000000E+00  2.80000000E+02  0.00000000E+00
  0.00000000E+00  2.60000000E+02  0.00000000E+00
  0.00000000E+00  2.40000000E+02  0.00000000E+00
  0.00000000E+00  2.20000000E+02  0.00000000E+00
  0.00000000E+00  2.00000000E+02  0.00000000E+00
  0.00000000E+00  1.80000000E+02  0.00000000E+00
  0.00000000E+00  1.60000000E+02  0.00000000E+00
  0.00000000E+00  1.40000000E+02  0.00000000E+00
  0.00000000E+00  1.20000000E+02  0.00000000E+00
  0.00000000E+00  1.00000000E+02  0.00000000E+00
  0.00000000E+00  8.00000000E+01  0.00000000E+00
  0.00000000E+00  6.00000000E+01  0.00000000E+00
  0.00000000E+00  4.00000000E+01  0.00000000E+00
  0.00000000E+00  2.00000000E+01  0.00000000E+00
  0.00000000E+00  4.99600361E-14  0.00000000E+00
  2.00000000E+01  3.00000000E+02  0.00000000E+00
  2.00000000E+01  2.80000000E+02  0.00000000E+00
  2.00000000E+01  2.60000000E+02  0.00000000E+00
  2.00000000E+01  2.40000000E+02  0.00000000E+00
  2.00000000E+01  2.20000000E+02  0.00000000E+00
  2.00000000E+01  2.00000000E+02  0.00000000E+00
  2.00000000E+01  1.80000000E+02  0.00000000E+00
  2.00000000E+01  1.60000000E+02  0.00000000E+00
  2.00000000E+01  1.40000000E+02  0.00000000E+00
  2.00000000E+01  1.20000000E+02  0.00000000E+00
  2.00000000E+01  1.00000000E+02  0.00000000E+00
  2.00000000E+01  8.00000000E+01  0.00000000E+00
  2.00000000E+01  6.00000000E+01  0.00000000E+00
  2.00000000E+01  4.00000000E+01  0.00000000E+00
  2.00000000E+01  2.00000000E+01  0.00000000E+00
  2.00000000E+01  4.99600361E-14  0.00000000E+00
  4.00000000E+01  3.00000000E+02  0.00000000E+00
  4.00000000E+01  2.80000000E+02  0.00000000E+00
  4.00000000E+01  2.60000000E+02  0.00000000E+00
  4.00000000E+01  2.40000000E+02  0.00000000E+00
  4.00000000E+01  2.20000000E+02  0.00000000E+00
  4.00000000E+01  2.00000000E+02  0.00000000E+00
  4.00000000E+01  1.80000000E+02  0.00000000E+00
  4.00000000E+01  1.60000000E+02  0.00000000E+00
  4.00000000E+01  1.40000000E+02  0.00000000E+00
  4.00000000E+01  1.20000000E+02  0.00000000E+00
  4.00000000E+01  1.00000000E+02  0.00000000E+00
  4.00000000E+01  8.00000000E+01  0.00000000E+00
  4.00000000E+01  6.00000000E+01  0.00000000E+00
  4.00000000E+01  4.00000000E+01  0.00000000E+00
  4.00000000E+01  2.00000000E+01  0.00000000E+00
  4.00000000E+01  4.99600361E-14  0.00000000E+00
  6.00000000E+01  3.00000000E+02  0.00000000E+00
  6.00000000E+01  2.80000000E+02  0.00000000E+00
  6.00000000E+01  2.60000000E+02  0.00000000E+00
  6.00000000E+01  2.40000000E+02  0.00000000E+00
  6.00000000E+01  2.20000000E+02  0.00000000E+00
  6.00000000E+01  2.00000000E+02  0.00000000E+00
  6.00000000E+01  1.80000000E+02  0.00000000E+00
  6.00000000E+01  1.60000000E+02  0.00000000E+00
  6.00000000E+01  1.40000000E+02  0.00000000E+00
  6.00000000E+01  1.20000000E+02  0.00000000E+00
  6.00000000E+01  1.00000000E+02  0.00000000E+00
  6.00000000E+01  8.00000000E+01  0.00000000E+00
  6.00000000E+01  6.00000000E+01  0.00000000E+00
  6.00000000E+01  4.00000000E+01  0.00000000E+00
  6.00000000E+01  2.00000000E+01  0.00000000E+00
  6.00000000E+01  4.99600361E-14  0.00000000E+00
  8.00000000E+01  3.00000000E+02  0.00000000E+00
  8.00000000E+01  2.80000000E+02  0.00000000E+00
  8.00000000E+01  2.60000000E+02  0.00000000E+00
  8.00000000E+01  2.40000000E+02  0.00000000E+00
  8.00000000E+01  2.20000000E+02  0.00000000E+00
  8.00000000E+01  2.00000000E+02  0.00000000E+00
  8.00000000E+01  1.80000000E+02  0.00000000E+00
  8.00000000E+01  1.60000000E+02  0.00000000E+00
  8.00000000E+01  1.40000000E+02  0.00000000E+00
  8.00000000E+01  1.20000000E+02  0.00000000E+00
  8.00000000E+01  1.00000000E+02  0.00000000E+00
  8.00000000E+01  8.00000000E+01  0.00000000E+00
  8.00000000E+01  6.00000000E+01  0.00000000E+00
  8.00000000E+01  4.00000000E+01  0.00000000E+00
  8.00000000E+01  2.00000000E+01  0.00000000E+00
  8.00000000E+01  4.99600361E-14  0.00000000E+00
  1.00000000E+02  3.00000000E+02  0.00000000E+00
  1.00000000E+02  2.80000000E+02  0.00000000E+00
  1.00000000E+02  2.60000000E+02  0.00000000E+00
  1.00000000E+02  2.40000000E+02  0.00000000E+00
  1.00000000E+02  2.20000000E+02  0.00000000E+00
  1.00000000E+02  2.00000000E+02  0.00000000E+00
  1.00000000E+02  1.80000000E+02  0.00000000E+00
  1.00000000E+02  1.60000000E+02  0.00000000E+00
  1.00000000E+02  1.40000000E+02  0.00000000E+00
  1.00000000E+02  1.20000000E+02  0.00000000E+00
  1.00000000E+02  1.00000000E+02  0.00000000E+00
  1.00000000E+02  8.00000000E+01  0.00000000E+00
  1.00000000E+02  6.00000000E+01  0.00000000E+00
  1.00000000E+02  4.00000000E+01  0.00000000E+00
  1.00000000E+02  2.00000000E+01  0.00000000E+00
  1.00000000E+02  4.99600361E-14  0.00000000E+00
  1.20000000E+02  3.00000000E+02  0.00000000E+00
  1.20000000E+02  2.80000000E+02  0.00000000E+00
  1.20000000E+02  2.60000000E+02  0.00000000E+00
  1.20000000E+02  2.40000000E+02  0.00000000E+00
  1.20000000E+02  2.20000000E+02  0.00000000E+00
  1.20000000E+02  2.00000000E+02  0.00000000E+00
  1.20000000E+02  1.80000000E+02  0.00000000E+00
  1.20000000E+02  1.60000000E+02  0.00000000E+00
  1.20000000E+02  1.40000000E+02  0.00000000E+00
  1.20000000E+02  1.20000000E+02  0.00000000E+00
  1.20000000E+02  1.00000000E+02  0.00000000E+00
  1.20000000E+02  8.00000000E+01  0.00000000E+00
  1.20000000E+02  6.00000000E+01  0.00000000E+00
  1.20000000E+02  4.00000000E+01  0.00000000E+00
  1.20000000E+02  2.00000000E+01  0.00000000E+00
  1.20000000E+02  4.99600361E-14  0.00000000E+00
  1.40000000E+02  3.00000000E+02  0.00000000E+00
  1.40000000E+02  2.80000000E+02  0.00000000E+00
  1.40000000E+02  2.60000000E+02  0.00000000E+00
  1.40000000E+02  2.40000000E+02  0.00000000E+00
  1.40000000E+02  2.20000000E+02  0.00000000E+00
  1.40000000E+02  2.00000000E+02  0.00000000E+00
  1.40000000E+02  1.80000000E+02  0.00000000E+00
  1.40000000E+02  1.60000000E+02  0.00000000E+00
  1.40000000E+02  1.40000000E+02  0.00000000E+00
  1.40000000E+02  1.20000000E+02  0.00000000E+00
  1.40000000E+02  1.00000000E+02  0.00000000E+00
  1.40000000E+02  8.00000000E+01  0.00000000E+00
  1.40000000E+02  6.00000000E+01  0.00000000E+00
  1.40000000E+02  4.00000000E+01  0.00000000E+00
  1.40000000E+02  2.00000000E+01  0.00000000E+00
  1.40000000E+02  4.99600361E-14  0.00000000E+00
  1.60000000E+02  3.00000000E+02  0.00000000E+00
  1.60000000E+02  2.80000000E+02  0.00000000E+00
  1.60000000E+02  2.60000000E+02  0.00000000E+00
  1.60000000E+02  2.40000000E+02  0.00000000E+00
  1.60000000E+02  2.20000000E+02  0.00000000E+00
  1.60000000E+02  2.00000000E+02  0.00000000E+00
  1.60000000E+02  1.80000000E+02  0.00000000E+00
  1.60000000E+02  1.60000000E+02  0.00000000E+00
  1.60000000E+02  1.40000000E+02  0.00000000E+00
  1.60000000E+02  1.20000000E+02  0.00000000E+00
  1.60000000E+02  1.00000000E+02  0.00000000E+00
  1.60000000E+02  8.00000000E+01  0.00000000E+00
  1.60000000E+02  6.00000000E+01  0.00000000E+00
  1.60000000E+02  4.00000000E+01  0.00000000E+00
  1.60000000E+02  2.00000000E+01  0.00000000E+00
  1.60000000E+02  4.99600361E-14  0.00000000E+00
  1.80000000E+02  3.00000000E+02  0.00000000E+00
  1.80000000E+02  2.80000000E+02  0.00000000E+00
  1.80000000E+02  2.60000000E+02  0.00000000E+00
  1.80000000E+02  2.40000000E+02  0.00000000E+00
  1.80000000E+02  2.20000000E+02  0.00000000E+00
  1.80000000E+02  2.00000000E+02  0.00000000E+00
  1.80000000E+02  1.80000000E+02  0.00000000E+00
  1.80000000E+02  1.60000000E+02  0.00000000E+00
  1.80000000E+02  1.40000000E+02  0.00000000E+00
  1.80000000E+02  1.20000000E+02  0.00000000E+00
  1.80000000E+02  1.00000000E+02  0.00000000E+00
  1.80000000E+02  8.00000000E+01  0.00000000E+00
  1.80000000E+02  6.00000000E+01  0.00000000E+00
  1.80000000E+02  4.00000000E+01  0.00000000E+00
  1.80000000E+02  2.00000000E+01  0.00000000E+00
  1.80000000E+02  4.99600361E-14  0.00000000E+00
  2.00000000E+02  3.00000000E+02  0.00000000E+00
  2.00000000E+02  2.80000000E+02  0.00000000E+00
  2.00000000E+02  2.60000000E+02  0.00000000E+00
  2.00000000E+02  2.40000000E+02  0.00000000E+00
  2.00000000E+02  2.20000000E+02  0.00000000E+00
  2.00000000E+02  2.00000000E+02  0.00000000E+00
  2.00000000E+02  1.80000000E+02  0.00000000E+00
  2.00000000E+02  1.60000000E+02  0.00000000E+00
  2.00000000E+02  1.40000000E+02  0.00000000E+00
  2.00000000E+02  1.20000000E+02  0.00000000E+00
  2.00000000E+02  1.00000000E+02  0.00000000E+00
  2.00000000E+02  8.00000000E+01  0.00000000E+00
  2.00000000E+02  6.00000000E+01  0.00000000E+00
  2.00000000E+02  4.00000000E+01  0.00000000E+00
  2.00000000E+02  2.00000000E+01  0.00000000E+00
  2.00000000E+02  4.99600361E-14  0.00000000E+00
  2.20000000E+02  3.00000000E+02  0.00000000E+00
  2.20000000E+02  2.80000000E+02  0.00000000E+00
  2.20000000E+02  2.60000000E+02  0.00000000E+00
  2.20000000E+02  2.40000000E+02  0.00000000E+00
  2.20000000E+02  2.20000000E+02  0.00000000E+00
  2.20000000E+02  2.00000000E+02  0.00000000E+00
  2.20000000E+02  1.80000000E+02  0.00000000E+00
  2.20000000E+02  1.60000000E+02  0.00000000E+00
  2.20000000E+02  1.40000000E+02  0.00000000E+00
  2.20000000E+02  1.20000000E+02  0.00000000E+00
  2.20000000E+02  1.00000000E+02  0.00000000E+00
  2.20000000E+02  8.00000000E+01  0.00000000E+00
  2.20000000E+02  6.00000000E+01  0.00000000E+00
  2.20000000E+02  4.00000000E+01  0.00000000E+00
  2.20000000E+02  2.00000000E+01  0.00000000E+00
  2.20000000E+02  4.99600361E-14  0.00000000E+00
  2.40000000E+02  3.00000000E+02  0.00000000E+00
  2.40000000E+02  2.80000000E+02  0.00000000E+00
  2.40000000E+02  2.60000000E+02  0.00000000E+00
  2.40000000E+02  2.40000000E+02  0.00000000E+00
  2.40000000E+02  2.20000000E+02  0.00000000E+00
  2.40000000E+02  2.00000000E+02  0.00000000E+00
  2.40000000E+02  1.80000000E+02  0.00000000E+00
  2.40000000E+02  1.60000000E+02  0.00000000E+00
  2.40000000E+02  1.40000000E+02  0.00000000E+00
  2.40000000E+02  1.20000000E+02  0.00000000E+00
  2.40000000E+02  1.00000000E+02  0.00000000E+00
  2.40000000E+02  8.00000000E+01  0.00000000E+00
  2.40000000E+02  6.00000000E+01  0.00000000E+00
  2.40000000E+02  4.00000000E+01  0.00000000E+00
  2.40000000E+02  2.00000000E+01  0.00000000E+00
  2.40000000E+02  4.99600361E-14  0.00000000E+00
  2.60000000E+02  3.00000000E+02  0.00000000E+00
  2.60000000E+02  2.80000000E+02  0.00000000E+00
  2.60000000E+02  2.60000000E+02  0.00000000E+00
  2.60000000E+02  2.40000000E+02  0.00000000E+00
  2.60000000E+02  2.20000000E+02  0.00000000E+00
  2.60000000E+02  2.00000000E+02  0.00000000E+00
  2.60000000E+02  1.80000000E+02  0.00000000E+00
  2.60000000E+02  1.60000000E+02  0.00000000E+00
  2.60000000E+02  1.40000000E+02  0.00000000E+00
  2.60000000E+02  1.20000000E+02  0.00000000E+00
  2.60000000E+02  1.00000000E+02  0.00000000E+00
  2.60000000E+02  8.00000000E+01  0.00000000E+00
  2.60000000E+02  6.00000000E+01  0.00000000E+00
  2.60000000E+02  4.00000000E+01  0.00000000E+00
  2.60000000E+02  2.00000000E+01  0.00000000E+00
  2.60000000E+02  4.99600361E-14  0.00000000E+00
  2.80000000E+02  3.00000000E+02  0.00000000E+00
  2.80000000E+02  2.80000000E+02  0.00000000E+00
  2.80000000E+02  2.60000000E+02  0.00000000E+00
  2.80000000E+02  2.40000000E+02  0.00000000E+00
  2.80000000E+02  2.20000000E+02  0.00000000E+00
  2.80000000E+02  2.00000000E+02  0.00000000E+00
  2.80000000E+02  1.80000000E+02  0.00000000E+00
  2.80000000E+02  1.60000000E+02  0.00000000E+00
  2.80000000E+02  1.40000000E+02  0.00000000E+00
  2.80000000E+02  1.20000000E+02  0.00000000E+00
  2.80000000E+02  1.00000000E+02  0.00000000E+00
  2.80000000E+02  8.00000000E+01  0.00000000E+00
  2.80000000E+02  6.00000000E+01  0.00000000E+00
  2.80000000E+02  4.00000000E+01  0.00000000E+00
  2.80000000E+02  2.00000000E+01  0.00000000E+00
  2.80000000E+02  4.99600361E-14  0.00000000E+00
  3.00000000E+02  3.00000000E+02  0.00000000E+00
  3.00000000E+02  2.80000000E+02  0.00000000E+00
  3.00000000E+02  2.60000000E+02  0.00000000E+00
  3.00000000E+02  2.40000000E+02  0.00000000E+00
  3.00000000E+02  2.20000000E+02  0.00000000E+00
  3.00000000E+02  2.00000000E+02  0.00000000E+00
  3.00000000E+02  1.80000000E+02  0.00000000E+00
  3.00000000E+02  1.60000000E+02  0.00000000E+00
  3.00000000E+02  1.40000000E+02  0.00000000E+00
  3.00000000E+02  1.20000000E+02  0.00000000E+00
  3.00000000E+02  1.00000000E+02  0.00000000E+00
  3.00000000E+02  8.00000000E+01  0.00000000E+00
  3.00000000E+02  6.00000000E+01  0.00000000E+00
  3.00000000E+02  4.00000000E+01  0.00000000E+00
  3.00000000E+02  2.00000000E+01  0.00000000E+00
  3.00000000E+02  4.99600361E-14  0.00000000E+00
  3.20000000E+02  3.00000000E+02  0.00000000E+00
  3.20000000E+02  2.80000000E+02  0.00000000E+00
  3.20000000E+02  2.60000000E+02  0.00000000E+00
  3.20000000E+02  2.40000000E+02  0.00000000E+00
  3.20000000E+02  2.20000000E+02  0.00000000E+00
  3.20000000E+02  2.00000000E+02  0.00000000E+00
  3.20000000E+02  1.80000000E+02  0.00000000E+00
  3.20000000E+02  1.60000000E+02  0.00000000E+00
  3.20000000E+02  1.40000000E+02  0.00000000E+00
  3.20000000E+02  1.20000000E+02  0.00000000E+00
  3.20000000E+02  1.00000000E+02  0.00000000E+00
  3.20000000E+02  8.00000000E+01  0.00000000E+00
  3.20000000E+02  6.00000000E+01  0.00000000E+00
  3.20000000E+02  4.00000000E+01  0.00000000E+00
  3.20000000E+02  2.00000000E+01  0.00000000E+00
  3.20000000E+02  4.99600361E-14  0.00000000E+00
  3.40000000E+02  3.00000000E+02  0.00000000E+00
  3.40000000E+02  2.80000000E+02  0.00000000E+00
  3.40000000E+02  2.60000000E+02  0.00000000E+00
  3.40000000E+02  2.40000000E+02  0.00000000E+00
  3.40000000E+02  2.20000000E+02  0.00000000E+00
  3.40000000E+02  2.00000000E+02  0.00000000E+00
  3.40000000E+02  1.80000000E+02  0.00000000E+00
  3.40000000E+02  1.60000000E+02  0.00000000E+00
  3.40000000E+02  1.40000000E+02  0.00000000E+00
  3.40000000E+02  1.20000000E+02  0.00000000E+00
  3.40000000E+02  1.00000000E+02  0.00000000E+00
  3.40000000E+02  8.00000000E+01  0.00000000E+00
  3.40000000E+02  6.00000000E+01  0.00000000E+00
  3.40000000E+02  4.00000000E+01  0.00000000E+00
  3.40000000E+02  2.00000000E+01  0.00000000E+00
  3.40000000E+02  4.99600361E-14  0.00000000E+00
  3.60000000E+02  3.00000000E+02  0.00000000E+00
  3.60000000E+02  2.80000000E+02  0.00000000E+00
  3.60000000E+02  2.60000000E+02  0.00000000E+00
  3.60000000E+02  2.40000000E+02  0.00000000E+00
  3.60000000E+02  2.20000000E+02  0.00000000E+00
  3.60000000E+02  2.00000000E+02  0.00000000E+00
  3.60000000E+02  1.80000000E+02  0.00000000E+00
  3.60000000E+02  1.60000000E+02  0.00000000E+00
  3.60000000E+02  1.40000000E+02  0.00000000E+00
  3.60000000E+02  1.20000000E+02  0.00000000E+00
  3.60000000E+02  1.00000000E+02  0.00000000E+00
  3.60000000E+02  8.00000000E+01  0.00000000E+00
  3.60000000E+02  6.00000000E+01  0.00000000E+00
  3.60000000E+02  4.00000000E+01  0.00000000E+00
  3.60000000E+02  2.00000000E+01  0.00000000E+00
  3.60000000E+02  4.99600361E-14  0.00000000E+00
  3.80000000E+02  3.00000000E+02  0.00000000E+00
  3.80000000E+02  2.80000000E+02  0.00000000E+00
  3.80000000E+02  2.60000000E+02  0.00000000E+00
  3.80000000E+02  2.40000000E+02  0.00000000E+00
  3.80000000E+02  2.20000000E+02  0.00000000E+00
  3.80000000E+02  2.00000000E+02  0.00000000E+00
  3.80000000E+02  1.80000000E+02  0.00000000E+00
  3.80000000E+02  1.60000000E+02  0.00000000E+00
  3.80000000E+02  1.40000000E+02  0.00000000E+00
  3.80000000E+02  1.20000000E+02  0.00000000E+00
  3.80000000E+02  1.00000000E+02  0.00000000E+00
  3.80000000E+02  8.00000000E+01  0.00000000E+00
  3.80000000E+02  6.00000000E+01  0.00000000E+00
  3.80000000E+02  4.00000000E+01  0.00000000E+00
  3.80000000E+02  2.00000000E+01  0.00000000E+00
  3.80000000E+02  4.99600361E-14  0.00000000E+00
  4.00000000E+02  3.00000000E+02  0.00000000E+00
  4.00000000E+02  2.80000000E+02  0.00000000E+00
  4.00000000E+02  2.60000000E+02  0.00000000E+00
  4.00000000E+02  2.40000000E+02  0.00000000E+00
  4.00000000E+02  2.20000000E+02  0.00000000E+00
  4.00000000E+02  2.00000000E+02  0.00000000E+00
  4.00000000E+02  1.80000000E+02  0.00000000E+00
  4.00000000E+02  1.60000000E+02  0.00000000E+00
  4.00000000E+02  1.40000000E+02  0.00000000E+00
  4.00000000E+02  1.20000000E+02  0.00000000E+00
  4.00000000E+02  1.00000000E+02  0.00000000E+00
  4.00000000E+02  8.00000000E+01  0.00000000E+00
  4.00000000E+02  6.00000000E+01  0.00000000E+00
  4.00000000E+02  4.00000000E+01  0.00000000E+00
  4.00000000E+02  2.00000000E+01  0.00000000E+00
  4.00000000E+02  4.99600361E-14  0.00000000E+00
  4.20000000E+02  3.00000000E+02  0.00000000E+00
  4.20000000E+02  2.80000000E+02  0.00000000E+00
  4.20000000E+02  2.60000000E+02  0.00000000E+00
  4.20000000E+02  2.40000000E+02  0.00000000E+00
  4.20000000E+02  2.20000000E+02  0.00000000E+00
  4.20000000E+02  2.00000000E+02  0.00000000E+00
  4.20000000E+02  1.80000000E+02  0.00000000E+00
  4.20000000E+02  1.60000000E+02  0.00000000E+00
  4.20000000E+02  1.40000000E+02  0.00000000E+00
  4.20000000E+02  1.20000000E+02  0.00000000E+00
  4.20000000E+02  1.00000000E+02  0.00000000E+00
  4.20000000E+02  8.00000000E+01  0.00000000E+00
  4.20000000E+02  6.00000000E+01  0.00000000E+00
  4.20000000E+02  4.00000000E+01  0.00000000E+00
  4.20000000E+02  2.00000000E+01  0.00000000E+00
  4.20000000E+02  4.99600361E-14  0.00000000E+00
  4.40000000E+02  3.00000000E+02  0.00000000E+00
  4.40000000E+02  2.80000000E+02  0.00000000E+00
  4.40000000E+02  2.60000000E+02  0.00000000E+00
  4.40000000E+02  2.40000000E+02  0.00000000E+00
  4.40000000E+02  2.20000000E+02  0.00000000E+00
  4.40000000E+02  2.00000000E+02  0.00000000E+00
  4.40000000E+02  1.80000000E+02  0.00000000E+00
  4.40000000E+02  1.60000000E+02  0.00000000E+00
  4.40000000E+02  1.40000000E+02  0.00000000E+00
  4.40000000E+02  1.20000000E+02  0.00000000E+00
  4.40000000E+02  1.00000000E+02  0.00000000E+00
  4.40000000E+02  8.00000000E+01  0.00000000E+00
  4.40000000E+02  6.00000000E+01  0.00000000E+00
  4.40000000E+02  4.00000000E+01  0.00000000E+00
  4.40000000E+02  2.00000000E+01  0.00000000E+00
  4.40000000E+02  4.99600361E-14  0.00000000E+00
  4.60000000E+02  3.00000000E+02  0.00000000E+00
  4.60000000E+02  2.80000000E+02  0.00000000E+00
  4.60000000E+02  2.60000000E+02  0.00000000E+00
  4.60000000E+02  2.40000000E+02  0.00000000E+00
  4.60000000E+02  2.20000000E+02  0.00000000E+00
  4.60000000E+02  2.00000000E+02  0.00000000E+00
  4.60000000E+02  1.80000000E+02  0.00000000E+00
  4.60000000E+02  1.60000000E+02  0.00000000E+00
  4.60000000E+02  1.40000000E+02  0.00000000E+00
  4.60000000E+02  1.20000000E+02  0.00000000E+00
  4.60000000E+02  1.00000000E+02  0.00000000E+00
  4.60000000E+02  8.00000000E+01  0.00000000E+00
  4.60000000E+02  6.00000000E+01  0.00000000E+00
  4.60000000E+02  4.00000000E+01  0.00000000E+00
  4.60000000E+02  2.00000000E+01  0.00000000E+00
  4.60000000E+02  4.99600361E-14  0.00000000E+00
  4.80000000E+02  3.00000000E+02  0.00000000E+00
  4.80000000E+02  2.80000000E+02  0.00000000E+00
  4.80000000E+02  2.60000000E+02  0.00000000E+00
  4.80000000E+02  2.40000000E+02  0.00000000E+00
  4.80000000E+02  2.20000000E+02  0.00000000E+00
  4.80000000E+02  2.00000000E+02  0.00000000E+00
  4.80000000E+02  1.80000000E+02  0.00000000E+00
  4.80000000E+02  1.60000000E+02  0.00000000E+00
  4.80000000E+02  1.40000000E+02  0.00000000E+00
  4.80000000E+02  1.20000000E+02  0.00000000E+00
  4.80000000E+02  1.00000000E+02  0.00000000E+00
  4.80000000E+02  8.00000000E+01  0.00000000E+00
  4.80000000E+02  6.00000000E+01  0.00000000E+00
  4.80000000E+02  4.00000000E+01  0.00000000E+00
  4.80000000E+02  2.00000000E+01  0.00000000E+00
  4.80000000E+02  4.99600361E-14  0.00000000E+00
  5.00000000E+02  3.00000000E+02  0.00000000E+00
  5.00000000E+02  2.80000000E+02  0.00000000E+00
  5.00000000E+02  2.60000000E+02  0.00000000E+00
  5.00000000E+02  2.40000000E+02  0.00000000E+00
  5.00000000E+02  2.20000000E+02  0.00000000E+00
  5.00000000E+02  2.00000000E+02  0.00000000E+00
  5.00000000E+02  1.80000000E+02  0.00000000E+00
  5.00000000E+02  1.60000000E+02  0.00000000E+00
  5.00000000E+02  1.40000000E+02  0.00000000E+00
  5.00000000E+02  1.20000000E+02  0.00000000E+00
  5.00000000E+02  1.00000000E+02  0.00000000E+00
  5.00000000E+02  8.00000000E+01  0.00000000E+00
  5.00000000E+02  6.00000000E+01  0.00000000E+00
  5.00000000E+02  4.00000000E+01  0.00000000E+00
  5.00000000E+02  2.00000000E+01  0.00000000E+00
  5.00000000E+02  4.99600361E-14  0.00000000E+00
  5.20000000E+02  3.00000000E+02  0.00000000E+00
  5.20000000E+02  2.80000000E+02  0.00000000E+00
  5.20000000E+02  2.60000000E+02  0.00000000E+00
  5.20000000E+02  2.40000000E+02  0.00000000E+00
  5.20000000E+02  2.20000000E+02  0.00000000E+00
  5.20000000E+02  2.00000000E+02  0.00000000E+00
  5.20000000E+02  1.80000000E+02  0.00000000E+00
  5.20000000E+02  1.60000000E+02  0.00000000E+00
  5.20000000E+02  1.40000000E+02  0.00000000E+00
  5.20000000E+02  1.20000000E+02  0.00000000E+00
  5.20000000E+02  1.00000000E+02  0.00000000E+00
  5.20000000E+02  8.00000000E+01  0.00000000E+00
  5.20000000E+02  6.00000000E+01  0.00000000E+00
  5.20000000E+02  4.00000000E+01  0.00000000E+00
  5.20000000E+02  2.00000000E+01  0.00000000E+00
  5.20000000E+02  4.99600361E-14  0.00000000E+00
  5.40000000E+02  3.00000000E+02  0.00000000E+00
  5.40000000E+02  2.80000000E+02  0.00000000E+00
  5.40000000E+02  2.60000000E+02  0.00000000E+00
  5.40000000E+02  2.40000000E+02  0.00000000E+00
  5.40000000E+02  2.20000000E+02  0.00000000E+00
  5.40000000E+02  2.00000000E+02  0.00000000E+00
  5.40000000E+02  1.80000000E+02  0.00000000E+00
  5.40000000E+02  1.60000000E+02  0.00000000E+00
  5.40000000E+02  1.40000000E+02  0.00000000E+00
  5.40000000E+02  1.20000000E+02  0.00000000E+00
  5.40000000E+02  1.00000000E+02  0.00000000E+00
  5.40000000E+02  8.00000000E+01  0.00000000E+00
  5.40000000E+02  6.00000000E+01  0.00000000E+00
  5.40000000E+02  4.00000000E+01  0.00000000E+00
  5.40000000E+02  2.00000000E+01  0.00000000E+00
  5.40000000E+02  4.99600361E-14  0.00000000E+00
  5.60000000E+02  3.00000000E+02  0.00000000E+00
  5.60000000E+02  2.80000000E+02  0.00000000E+00
  5.60000000E+02  2.60000000E+02  0.00000000E+00
  5.60000000E+02  2.40000000E+02  0.00000000E+00
  5.60000000E+02  2.20000000E+02  0.00000000E+00
  5.60000000E+02  2.00000000E+02  0.00000000E+00
  5.60000000E+02  1.80000000E+02  0.00000000E+00
  5.60000000E+02  1.60000000E+02  0.00000000E+00
  5.60000000E+02  1.40000000E+02  0.00000000E+00
  5.60000000E+02  1.20000000E+02  0.00000000E+00
  5.60000000E+02  1.00000000E+02  0.00000000E+00
  5.60000000E+02  8.00000000E+01  0.00000000E+00
  5.60000000E+02  6.00000000E+01  0.00000000E+00
  5.60000000E+02  4.00000000E+01  0.00000000E+00
  5.60000000E+02  2.00000000E+01  0.00000000E+00
  5.60000000E+02  4.99600361E-14  0.00000000E+00
  5.80000000E+02  3.00000000E+02  0.00000000E+00
  5.80000000E+02  2.80000000E+02  0.00000000E+00
  5.80000000E+02  2.60000000E+02  0.00000000E+00
  5.80000000E+02  2.40000000E+02  0.00000000E+00
  5.80000000E+02  2.20000000E+02  0.00000000E+00
  5.80000000E+02  2.00000000E+02  0.00000000E+00
  5.80000000E+02  1.80000000E+02  0.00000000E+00
  5.80000000E+02  1.60000000E+02  0.00000000E+00
  5.80000000E+02  1.40000000E+02  0.00000000E+00
  5.80000000E+02  1.20000000E+02  0.00000000E+00
  5.80000000E+02  1.00000000E+02  0.00000000E+00
  5.80000000E+02  8.00000000E+01  0.00000000E+00
  5.80000000E+02  6.00000000E+01  0.00000000E+00
  5.80000000E+02  4.00000000E+01  0.00000000E+00
  5.80000000E+02  2.00000000E+01  0.00000000E+00
  5.80000000E+02  4.99600361E-14  0.00000000E+00
  6.00000000E+02  3.00000000E+02  0.00000000E+00
  6.00000000E+02  2.80000000E+02  0.00000000E+00
  6.00000000E+02  2.60000000E+02  0.00000000E+00
  6.00000000E+02  2.40000000E+02  0.00000000E+00
  6.00000000E+02  2.20000000E+02  0.00000000E+00
  6.00000000E+02  2.00000000E+02  0.00000000E+00
  6.00000000E+02  1.80000000E+02  0.00000000E+00
  6.00000000E+02  1.60000000E+02  0.00000000E+00
  6.00000000E+02  1.40000000E+02  0.00000000E+00
  6.00000000E+02  1.20000000E+02  0.00000000E+00
  6.00000000E+02  1.00000000E+02  0.00000000E+00
  6.00000000E+02  8.00000000E+01  0.00000000E+00
  6.00000000E+02  6.00000000E+01  0.00000000E+00
  6.00000000E+02  4.00000000E+01  0.00000000E+00
  6.00000000E+02  2.00000000E+01  0.00000000E+00
  6.00000000E+02  4.99600361E-14  0.00000000E+00
CELLS       450      2250
         4           0           1          17          16
         4           1           2          18          17
         4           2           3          19          18
         4           3           4          20          19
         4           4           5          21          20
         4           5           6          22          21
         4           6           7          23          22
         4           7           8          24          23
         4           8           9          25          24
         4           9          10          26          25
         4          10          11          27          26
         4          11          12          28          27
         4          12          13          29          28
         4          13          14          30          29
         4          14          15          31          30
         4          16          17          33          32
         4          17          18          34          33
         4          18          19          35          34
         4          19          20          36          35
         4          20          21          37          36
         4          21          22          38          37
         4          22          23          39          38
         4          23          24          40          39
         4          24          25          41          40
         4          25          26          42          41
         4          26          27          43          42
         4          27          28          44          43
         4          28          29          45          44
         4          29          30          46          45
         4          30          31          47          46
         4          32          33          49          48
         4          33          34          50          49
         4          34          35          51          50
         4          35          36          52          51
         4          36          37          53          52
         4          37          38          54          53
         4          38          39          55          54
         4          39          40          56          55
         4          40          41          57          56
         4          41          42          58          57
         4          42          43          59          58
         4          43          44          60          59
         4          44          45          61          60
         4          45          46          62          61
         4          46          47          63          62
         4          48          49          65          64
         4          49          50          66          65
         4          50          51          67          66
         4          51          52          68          67
         4          52          53          69          68
         4          53          54          70          69
         4          54          55          71          70
         4          55          56          72          71
         4          56          57          73          72
         4          57          58          74          73
         4          58          59          75          74
         4          59          60          76          75
         4          60          61          77          76
         4          61          62          78          77
         4          62          63          79          78
         4          64          65          81          80
         4          65          66          82          81
         4          66          67          83          82
         4          67          68          84          83
         4          68          69          85          84
         4          69          70          86          85
         4          70          71          87          86
         4          71          72          88          87
         4          72          73          89          88
         4          73          74          90          89
         4          74          75          91          90
         4          75          76          92          91
         4          76          77          93          92
         4          77          78          94          93
         4          78          79          95          94
         4          80          81          97          96
         4          81          82          98          97
         4          82          83          99          98
         4          83          84         100          99
         4          84          85         101         100
         4          85          86         102         101
         4          86          87         103         102
         4          87          88         104         103
         4          88          89         105         104
         4          89          90         106         105
         4          90          91         107         106
         4          91          92         108         107
         4          92          93         109         108
         4          93          94         110         109
         4          94          95         111         110
         4          96          97         113         112
         4          97          98         114         113
         4          98          99         115         114
         4          99         100         116         115
         4         100         101         117         116
         4         101         102         118         117
         4         102         103         119         118
         4         103         104         120         119
         4         104         105         121         120
         4         105         106         122         121
         4         106         107         123         122
         4         107         108         124         123
         4         108         109         125         124
         4         109         110         126         125
         4         110         111         127         126
         4         112         113         129         128
         4         113         114         130         129
         4         114         115         131         130
         4         115         116         132         131
         4         116         117         133         132
         4         117         118         134         133
         4         118         119         135         134
         4         119         120         136         135
         4         120         121         137         136
         4         121         122         138         137
         4         122         123         139         138
         4         123         124         140         139
         4         124         125         141         140
         4         125         126         142         141
         4         126         127         143         142
         4         128         129         145         144
         4         129         130         146         145
         4         130         131         147         146
         4         131         132         148         147
         4         132         133         149         148
         4         133         134         150         149
         4         134         135         151         150
         4         135         136         152         151
         4         136         137         153         152
         4         137         138         154         153
         4         138         139         155         154
         4         139         140         156         155
         4         140         141         157         156
         4         141         142         158         157
         4         142         143         159         158
         4         144         145         161         160
         4         145         146         162         161
         4         146         147         163         162
         4         147         148         164         163
         4         148         149         165         164
         4         149         150         166         165
         4         150         151         167         166
         4         151         152         168         167
         4         152         153         169         168
         4         153         154         170         169
         4         154         155         171         170
         4         155         156         172         171
         4         156         157         173         172
         4         157         158         174         173
         4         158         159         175         174
         4         160         161         177         176
         4         161         162         178         177
         4         162         163         179         178
         4         163         164         180         179
         4         164         165         181         180
         4         165         166         182         181
         4         166         167         183         182
         4         167         168         184         183
         4         168         169         185         184
         4         169         170         186         185
         4         170         171         187         186
         4         171         172         188         187
         4         172         173         189         188
         4         173         174         190         189
         4         174         175         191         190
         4         176         177         193         192
         4         177         178         194         193
         4         178         179         195         194
         4         179         180         196         195
         4         180         181         197         196
         4         181         182         198         197
         4         182         183         199         198
         4         183         184         200         199
         4         184         185         201         200
         4         185         186         202         201
         4         186         187         203         202
         4         187         188         204         203
         4         188         189         205         204
         4         189         190         206         205
         4         190         191         207         206
         4         192         193         209         208
         4         193         194         210         209
         4         194         195         211         210
         4         195         196         212         211
         4         196         197         213         212
         4         197         198         214         213
         4         198         199         215         214
         4         199         200         216         215
         4         200         201         217         216
         4         201         202         218         217
         4         202         203         219         218
         4         203         204         220         219
         4         204         205         221         220
         4         205         206         222         221
         4         206         207         223         222
         4         208         209         225         224
         4         209         210         226         225
         4         210         211         227         226
         4         211         212         228         227
         4         212         213         229         228
         4         213         214         230         229
         4         214         215         231         230
         4         215         216         232         231
         4         216         217         233         232
         4         217         218         234         233
         4         218         219         235         234
         4         219         220         236         235
         4         220         221         237         236
         4         221         222         238         237
         4         222         223         239         238
         4         224         225         241         240
         4         225         226         242         241
         4         226         227         243         242
         4         227         228         244         243
         4         228         229         245         244
         4         229         230         246         245
         4         230         231         247         246
         4         231         232         248         247
         4         232         233         249         248
         4         233         234         250         249
         4         234         235         251         250
         4         235         236         252         251
         4         236         237         253         252
         4         237         238         254         253
         4         238         239         255         254
         4         240         241         257         256
         4         241         242         258         257
         4         242         243         259         258
         4         243         244         260         259
         4         244         245         261         260
         4         245         246         262         261
         4         246         247         263         262
         4         247         248         264         263
         4         248         249         265         264
         4         249         250         266         265
         4         250         251         267         266
         4         251         252         268         267
         4         252         253         269         268
         4         253         254         270         269
         4         254         255         271         270
         4         256         257         273         272
         4         257         258         274         273
         4         258         259         275         274
         4         259         260         276         275
         4         260         261         277         276
         4         261         262         278         277
         4         262         263         279         278
         4         263         264         280         279
         4         264         265         281         280
         4         265         266         282         281
         4         266         267         283         282
         4         267         268         284         283
         4         268         269         285         284
         4         269         270         286         285
         4         270         271         287         286
         4         272         273         289         288
         4         273         274         290         289
         4         274         275         291         290
         4         275         276         292         291
         4         276         277         293         292
         4         277         278         294         293
         4         278         279         295         294
         4         279         280         296         295
         4         280         281         297         296
         4         281         282         298         297
         4         282         283         299         298
         4         283         284         300         299
         4         284         285         301         300
         4         285         286         302         301
         4         286         287         303         302
         4         288         289         305         304
         4         289         290         306         305
         4         290         291         307         306
         4         291         292         308         307
         4         292         293         309         308
         4         293         294         310         309
         4         294         295         311         310
         4         295         296         312         311
         4         296         297         313         312
         4         297         298         314         313
         4         298         299         315         314
         4         299         300         316         315
         4         300         301         317         316
         4         301         302         318         317
         4         302         303         319         318
         4         304         305         321         320
         4         305         306         322         321
         4         306         307         323         322
         4         307         308         324         323
         4         308         309         325         324
         4         309         310         326         325
         4         310         311         327         326
         4         311         312         328         327
         4         312         313         329         328
         4         313         314         330         329
         4         314         315         331         330
         4         315         316         332         331
         4         316         317         333         332
         4         317         318         334         333
         4         318         319         335         334
         4         320         321         337         336
         4         321         322         338         337
         4         322         323         339         338
         4         323         324         340         339
         4         324         325         341         340
         4         325         326         342         341
         4         326         327         343         342
         4         327         328         344         343
         4         328         329         345         344
         4         329         330         346         345
         4         330         331         347         346
         4         331         332         348         347
         4         332         333         349         348
         4         333         334         350         349
         4         334         335         351         350
         4         336         337         353         352
         4         337         338         354         353
         4         338         339         355         354
         4         339         340         356         355
         4         340         341         357         356
         4         341         342         358         357
         4         342         343         359         358
         4         343         344         360         359
         4         344         345         361         360
         4         345         346         362         361
         4         346         347         363         362
         4         347         348         364         363
         4         348         349         365         364
         4         349         350         366         365
         4         350         351         367         366
         4         352         353         369         368
         4         353         354         370         369
         4         354         355         371         370
         4         355         356         372         371
         4         356         357         373         372
         4         357         358         374         373
         4         358         359         375         374
         4         359         360         376         375
         4         360         361         377         376
         4         361         362         378         377
         4         362         363         379         378
         4         363         364         380         379
         4         364         365         381         380
         4         365         366         382         381
         4         366         367         383         382
         4         368         369         385         384
         4         369         370         386         385
         4         370         371         387         386
         4         371         372         388         387
         4         372         373         389         388
         4         373         374         390         389
         4         374         375         391         390
         4         375         376         392         391
         4         376         377         393         392
         4         377         378         394         393
         4         378         379         395         394
         4         379         380         396         395
         4         380         381         397         396
         4         381         382         398         397
         4         382         383         399         398
         4         384         385         401         400
         4         385         386         402         401
         4         386         387         403         402
         4         387         388         404         403
         4         388         389         405         404
         4         389         390         406         405
         4         390         391         407         406
         4         391         392         408         407
         4         392         393         409         408
         4         393         394         410         409
         4         394         395         411         410
         4         395         396         412         411
         4         396         397         413         412
         4         397         398         414         413
         4         398         399         415         414
         4         400         401         417         416
         4         401         402         418         417
         4         402         403         419         418
         4         403         404         420         419
         4         404         405         421         420
         4         405         406         422         421
         4         406         407         423         422
         4         407         408         424         423
         4         408         409         425         424
         4         409         410         426         425
         4         410         411         427         426
         4         411         412         428         427
         4         412         413         429         428
         4         413         414         430         429
         4         414         415         431         430
         4         416         417         433         432
         4         417         418         434         433
         4         418         419         435         434
         4         419         420         436         435
         4         420         421         437         436
         4         421         422         438         437
         4         422         423         439         438
         4         423         424         440         439
         4         424         425         441         440
         4         425         426         442         441
         4         426         427         443         442
         4         427         428         444         443
         4         428         429         445         444
         4         429         430         446         445
         4         430         431         447         446
         4         432         433         449         448
         4         433         434         450         449
         4         434         435         451         450
         4         435         436         452         451
         4         436         437         453         452
         4         437         438         454         453
         4         438         439         455         454
         4         439         440         456         455
         4         440         441         457         456
         4         441         442         458         457
         4         442         443         459         458
         4         443         444         460         459
         4         444         445         461         460
         4         445         446         462         461
         4         446         447         463         462
         4         448         449         465         464
         4         449         450         466         465
         4         450         451         467         466
         4         451         452         468         467
         4         452         453         469         468
         4         453         454         470         469
         4         454         455         471         470
         4         455         456         472         471
         4         456         457         473         472
         4         457         458         474         473
         4         458         459         475         474
         4         459         460         476         475
         4         460         461         477         476
         4         461         462         478         477
         4         462         463         479         478
         4         464         465         481         480
         4         465         466         482         481
         4         466         467         483         482
         4         467         468         484         483
         4         468         469         485         484
         4         469         470         486         485
         4         470         471         487         486
         4         471         472         488         487
         4         472         473         489         488
         4         473         474         490         489
         4         474         475         491         490
         4         475         476         492         491
         4         476         477         493         492
         4         477         478         494         493
         4         478         479         495         494
CELL_TYPES        450
9
9
9
9
9
9
9
9
9
9
9
9
9
9
9
9
9
9
9
9
9
9
9
9
9
9
9
9
9
9
9
9
9
9
9
9
9
9
9
9
9
9
9
9
9
9
9
9
9
9
9
9
9
9
9
9
9
9
9
9
9
9
9
9
9
9
9
9
9
9
9
9
9
9
9
9
9
9
9
9
9
9
9
9
9
9
9
9
9
9
9
9
9
9
9
9
9
9
9
9
9
9
9
9
9
9
9
9
9
9
9
9
9
9
9
9
9
9
9
9
9
9
9
9
9
9
9
9
9
9
9
9
9
9
9
9
9
9
9
9
9
9
9
9
9
9
9
9
9
9
9
9
9
9
9
9
9
9
9
9
9
9
9
9
9
9
9
9
9
9
9
9
9
9
9
9
9
9
9
9
9
9
9
9
9
9
9
9
9
9
9
9
9
9
9
9
9
9
9
9
9
9
9
9
9
9
9
9
9
9
9
9
9
9
9
9
9
9
9
9
9
9
9
9
9
9
9
9
9
9
9
9
9
9
9
9
9
9
9
9
9
9
9
9
9
9
9
9
9
9
9
9
9
9
9
9
9
9
9
9
9
9
9
9
9
9
9
9
9
9
9
9
9
9
9
9
9
9
9
9
9
9
9
9
9
9
9
9
9
9
9
9
9
9
9
9
9
9
9
9
9
9
9
9
9
9
9
9
9
9
9
9
9
9
9
9
9
9
9
9
9
9
9
9
9
9
9
9
9
9
9
9
9
9
9
9
9
9
9
9
9
9
9
9
9
9
9
9
9
9
9
9
9
9
9
9
9
9
9
9
9
9
9
9
9
9
9
9
9
9
9
9
9
9
9
9
9
9
9
9
9
9
9
9
9
9
9
9
9
9
9
9
9
9
9
9
9
9
9
9
9
9
9
9
9
9
9
9
9
9
9
9
9
9
9
9
9
9
9
9
9
9
9
9
9
9
9
9
9
9
9
9
9
9
9
9
9
9
9
9
9
9
9
9
9
9
9
9
9
9
POINT_DATA       496
SCALARS p double 
LOOKUP_TABLE default
   52348179.2117187     
   52377969.0223966     
   52489800.4512394     
   52680385.0642334     
   52922500.5459759     
   53185523.1569545     
   53447374.0978298     
   53696091.8011319     
   53927642.3906058     
   54139340.4111210     
   54328631.8072654     
   54492873.9886127     
   54629168.8743373     
   54734127.0757820     
   54803728.3053972     
   54829580.4871330     
   50649468.2764308     
   50685821.2695789     
   50786134.1696619     
   50935627.6930393     
   51119092.3388021     
   51328890.4405737     
   51555921.2415397     
   51782503.1697424     
   51998212.8402069     
   52197593.1289613     
   52376745.5160461     
   52532278.1436228     
   52660793.9853710     
   52758539.1440999     
   52820737.5392363     
   52842677.8903016     
   49171361.5691613     
   49208588.4355635     
   49289935.7974926     
   49397392.2580371     
   49523845.6629391     
   49674658.1039112     
   49851408.8262928     
   50039938.8561724     
   50227182.0562605     
   50404470.6128492     
   50565977.7424615     
   50707187.8779308     
   50824083.0810609     
   50912641.5305572     
   50968794.5222329     
   50988682.0603179     
   47808976.6332625     
   47832754.5820371     
   47885992.4945273     
   47958780.5583196     
   48050859.2056929     
   48164165.0653482     
   48298592.7696161     
   48447567.1360504     
   48601164.2621963     
   48750700.1176716     
   48889485.5991852     
   49012282.1554853     
   49114654.7899239     
   49192569.2144862     
   49242207.3941798     
   49259885.7237646     
   46522159.6217860     
   46535460.4007274     
   46569915.1642296     
   46620206.2513280     
   46686134.7477937     
   46769256.0130796     
   46869316.6499230     
   46982586.4626666     
   47102658.0738024     
   47222568.5379145     
   47336117.4797561     
   47438080.9054388     
   47524006.4917613     
   47589951.9038481     
   47632277.8925343     
   47647458.2112344     
   45312042.0715430     
   45319511.2010794     
   45340038.5856003     
   45372036.8848469     
   45415932.7883778     
   45472981.2931977     
   45543302.0379424     
   45624814.6250596     
   45713459.0683854     
   45804195.9495214     
   45891957.0499476     
   45972116.1278773     
   46040575.2149584     
   46093678.8924903     
   46128067.8301345     
   46140496.6974061     
   44174137.3146515     
   44177193.6063079     
   44186344.9888467     
   44202204.2911588     
   44226140.3270738     
   44259635.1503789     
   44303290.3280062     
   44356182.4679299     
   44415882.8905770     
   44478963.2220948     
   44541609.4046045     
   44600065.9170445     
   44650845.8219469     
   44690769.6599744     
   44716903.7269854     
   44726433.4227393     
   43097014.0577635     
   43096235.0381203     
   43095234.0348498     
   43096262.2313236     
   43101655.3041577     
   43113427.3248915     
   43132754.3494069     
   43159621.8352313     
   43192811.0706657     
   43230180.9072601     
   43269069.9638587     
   43306654.3438860     
   43340181.3350771     
   43367076.5600923     
   43384953.3659275     
   43391551.0579282     
   42065921.7414899     
   42061604.9527096     
   42051224.7220610     
   42038460.3938571     
   42026596.9458136     
   42018302.1273566     
   42015371.6721744     
   42018563.0000752     
   42027607.9180942     
   42041399.6203996     
   42058274.3412231     
   42076293.7365841     
   42093465.4174779     
   42107880.0913182     
   42117770.6110934     
   42121507.6381371     
   41064620.4008767     
   41057046.4794994     
   41038034.2051843     
   41012568.6629408     
   40984845.6566038     
   40958213.6771115     
   40935087.0775466     
   40916902.7514226     
   40904172.1189355     
   40896634.1056271     
   40893472.9489847     
   40893548.7392122     
   40895597.8547990     
   40898380.7949342     
   40900773.1687515     
   40901806.6075655     
   40076709.6437593     
   40066222.4336737     
   40039463.7968832     
   40002577.7848645     
   39960601.0839794     
   39917536.7579696     
   39876384.7832445     
   39839184.1433852     
   39807102.2462164     
   39780580.6501824     
   39759521.4359317     
   39743485.8701774     
   39731878.0045422     
   39724095.3173661     
   39719639.8408177     
   39718192.5580922     
   39086548.6569642     
   39073560.7521848     
   39040101.3206299     
   38993281.5261921     
   38938872.5360104     
   38881469.6076143     
   38824603.1172578     
   38770840.3148753     
   38721905.5890996     
   38678829.3875632     
   38642120.2830798     
   38611945.2866872     
   38588301.7656141     
   38571168.3564239     
   38560628.9434685     
   38556970.7895045     
   38079855.0812263     
   38064825.3329081     
   38025827.9741968     
   37970718.0501930     
   37905864.9367769     
   37836367.2656881     
   37766214.1046768     
   37698426.0022417     
   37635197.7944566     
   37578053.1118824     
   37528010.1582332     
   37485751.5613972     
   37451788.7324737     
   37426612.5205091     
   37410825.5991371     
   37405256.8116097     
   37044050.1899491     
   37027455.2248506     
   36984137.7907460     
   36922463.7542148     
   36849246.8284896     
   36769982.5445951     
   36689035.0311932     
   36609800.4955195     
   36534863.8429501     
   36466157.1012032     
   36405121.5541461     
   36352870.8389375     
   36310350.1204860     
   36278486.4621272     
   36258327.0041578     
   36251164.2129720     
   35968412.9183251     
   35950722.0130987     
   35904297.7051857     
   35837792.2493991     
   35758304.9022620     
   35671612.4863141     
   35582363.2078609     
   35494249.0200669     
   35410167.8260899     
   35332382.2301658     
   35262677.4975220     
   35202518.6062207     
   35153204.8480103     
   35116019.8155657     
   35092374.2337066     
   35083939.2387136     
   34844098.1173802     
   34825754.6405966     
   34777384.6068228     
   34707723.0641351     
   34624001.3437475     
   34532160.3395658     
   34437038.5187186     
   34342542.9530032     
   34251810.0734586     
   34167360.5485097     
   34091250.7123186     
   34025221.9957576     
   33970849.7083746     
   33929692.0821792     
   33903438.1982432     
   33894049.6934121     
   33664065.2594270     
   33645474.9332063     
   33596235.5518177     
   33524988.3735058     
   33438955.5831887     
   33344129.1801040     
   33245445.2441032     
   33146946.6194170     
   33051936.8590695     
   32963127.3686346     
   32882779.1144878     
   32812840.9397126     
   32755088.7583098     
   32711271.5552860     
   32683266.5728339     
   32673235.1670270     
   32422953.6131561     
   32404478.5504692     
   32355342.2579314     
   32283944.2052739     
   32197372.2761810     
   32101564.8668420     
   32001467.2710991     
   31901181.8203956     
   31804111.5823888     
   31713097.0816084     
   31630545.4097981     
   31558552.6900825     
   31499025.9661355     
   31453819.1409235     
   31424897.8768009     
   31414525.2813338     
   31116929.9159665     
   31098886.9563182     
   31050713.9310836     
   30980447.7705169     
   30894934.4250181     
   30799964.5579003     
   30700410.5226214     
   30600362.0139205     
   30503258.0200742     
   30412012.2372253     
   30329128.6370264     
   30256804.3941925     
   30197022.9656279     
   30151659.2856289     
   30122648.0001666     
   30112232.5080956     
   29743525.6756439     
   29726187.5405028     
   29679725.1660850     
   29611716.7320200     
   29528676.1317277     
   29436163.8001997     
   29338904.2614699     
   29240906.9051431     
   29145586.2936518     
   29055877.4024589     
   28974339.5319024     
   28903241.5929546     
   28844619.9073883     
   28800313.1049995     
   28772071.1100776     
   28761926.5126557     
   28301473.8967625     
   28285071.8857330     
   28240959.1468467     
   28176180.5969163     
   28096844.7807858     
   28008211.3120018     
   27914789.6254824     
   27820445.3934198     
   27728510.1981322     
   27641889.0267184     
   27563157.6452468     
   27494635.6957857     
   27438423.4822546     
   27396362.2852563     
   27369887.3938917     
   27360387.0885482     
   26790549.4081334     
   26775276.6479587     
   26734051.1775926     
   26673329.7652337     
   26598758.3775112     
   26515236.9222133     
   26427000.1319938     
   26337710.7199796     
   26250559.6439715     
   26168367.8905950     
   26093682.9083296     
   26028855.1388418     
   25976046.3380550     
   25937205.0469434     
   25913730.9906782     
   25905534.9940361     
   25211413.0622137     
   25197427.6686861     
   25159533.9558343     
   25103564.5473597     
   25034660.9931421     
   24957315.6096659     
   24875436.0954188     
   24792427.5293309     
   24711284.6497184     
   24634688.4310395     
   24565102.5712492     
   24504865.1904048     
   24456244.4962641     
   24421177.3561614     
   24401492.2360060     
   24395617.6757872     
   23565457.8278054     
   23552885.7549849     
   23518684.0527885     
   23468044.9569403     
   23405578.2699531     
   23335329.9725754     
   23260834.3104861     
   23185189.0146410     
   23111142.1049793     
   23041183.0572222     
   22977636.7925847     
   22922762.2372889     
   22878883.3515161     
   22848417.6608147     
   22832372.0068153     
   22827968.8027258     
   21854654.1819025     
   21843592.0234200     
   21813368.8610296     
   21768542.4779796     
   21713175.9601067     
   21650835.0398588     
   21584636.6539924     
   21517325.8272767     
   21451360.9943607     
   21389000.0899425     
   21332390.7189702     
   21283678.2027334     
   21245142.9357297     
   21219917.7323464     
   21207112.3350183     
   21202898.7904484     
   20081393.1822341     
   20071911.9112311     
   20045895.0298627     
   20007297.6279199     
   19959627.5877373     
   19905932.4591498     
   19848865.1420102     
   19790775.6274437     
   19733797.7234529     
   19679928.0550683     
   19631111.8752993     
   19589360.5836089     
   19556981.1756297     
   19536879.7555586     
   19526902.7485370     
   19523317.6628414     
   18248328.9592091     
   18240480.2072175     
   18218864.1841971     
   18186893.4156853     
   18147502.4708640     
   18103163.8510578     
   18056012.5329616     
   18007966.5626376     
   17960807.2107860     
   17916241.8817593     
   17875977.6940207     
   17841832.8927601     
   17815908.2556049     
   17800672.5690423     
   17793409.2752596     
   17790718.8342586     
   16358225.6012477     
   16352058.1257428     
   16335054.6648488     
   16310168.1093541     
   16279692.5155464     
   16245429.7211000     
   16208951.3793854     
   16171723.4069109     
   16135151.3239274     
   16100619.5315044     
   16069541.5314406     
   16043433.3395812     
   16024003.6624204     
   16013306.5068879     
   16008706.0285911     
   16006947.0506213     
   14413847.7270777     
   14409435.1557624     
   14397386.1940682     
   14380227.4168525     
   14359386.2892941     
   14335918.0386979     
   14310849.9108146     
   14285192.2267879     
   14259947.6983387     
   14236128.6604841     
   14214788.3421041     
   14197055.7391404     
   14184178.2477815     
   14177699.7689069     
   14175585.5291733     
   14174825.9293152     
   12417890.4928241     
   12415570.8500579     
   12409215.5666457     
   12400582.3485589     
   12390010.1236578     
   12377995.7077261     
   12365067.1135804     
   12351767.1925908     
   12338644.6662022     
   12326262.1551093     
   12315216.3676835     
   12306170.3615982     
   12299895.4034019     
   12297308.1655252     
   12297283.3760789     
   12297578.2060200     
   10375000.0000000     
   10375000.0000000     
   10375000.0000000     
   10375000.0000000     
   10375000.0000000     
   10375000.0000000     
   10375000.0000000     
   10375000.0000000     
   10375000.0000000     
   10375000.0000000     
   10375000.0000000     
   10375000.0000000     
   10375000.0000000     
   10375000.0000000     
   10375000.0000000     
   10375000.0000000     
VECTORS u double 
    0.00000E+00        -0.78858E+00         0.00000E+00
    0.00000E+00        -0.69312E+00         0.00000E+00
    0.00000E+00        -0.61447E+00         0.00000E+00
    0.00000E+00        -0.55544E+00         0.00000E+00
    0.00000E+00        -0.51230E+00         0.00000E+00
    0.00000E+00        -0.47380E+00         0.00000E+00
    0.00000E+00        -0.43006E+00         0.00000E+00
    0.00000E+00        -0.38215E+00         0.00000E+00
    0.00000E+00        -0.33189E+00         0.00000E+00
    0.00000E+00        -0.28044E+00         0.00000E+00
    0.00000E+00        -0.22871E+00         0.00000E+00
    0.00000E+00        -0.17752E+00         0.00000E+00
    0.00000E+00        -0.12771E+00         0.00000E+00
    0.00000E+00        -0.80309E-01         0.00000E+00
    0.00000E+00        -0.36693E-01         0.00000E+00
    0.00000E+00         0.00000E+00         0.00000E+00
    0.25335E+00        -0.78571E+00         0.00000E+00
    0.23320E+00        -0.70561E+00         0.00000E+00
    0.19324E+00        -0.63842E+00         0.00000E+00
    0.14731E+00        -0.58209E+00         0.00000E+00
    0.10955E+00        -0.53267E+00         0.00000E+00
    0.89766E-01        -0.48650E+00         0.00000E+00
    0.80110E-01        -0.43871E+00         0.00000E+00
    0.72842E-01        -0.38871E+00         0.00000E+00
    0.66420E-01        -0.33713E+00         0.00000E+00
    0.60245E-01        -0.28472E+00         0.00000E+00
    0.53948E-01        -0.23224E+00         0.00000E+00
    0.47194E-01        -0.18042E+00         0.00000E+00
    0.39578E-01        -0.13007E+00         0.00000E+00
    0.30470E-01        -0.82157E-01         0.00000E+00
    0.18660E-01        -0.38070E-01         0.00000E+00
    0.00000E+00         0.00000E+00         0.00000E+00
    0.40329E+00        -0.80749E+00         0.00000E+00
    0.34984E+00        -0.74701E+00         0.00000E+00
    0.29154E+00        -0.68896E+00         0.00000E+00
    0.24047E+00        -0.63180E+00         0.00000E+00
    0.20022E+00        -0.57434E+00         0.00000E+00
    0.17179E+00        -0.51761E+00         0.00000E+00
    0.15247E+00        -0.46222E+00         0.00000E+00
    0.13758E+00        -0.40728E+00         0.00000E+00
    0.12449E+00        -0.35222E+00         0.00000E+00
    0.11201E+00        -0.29718E+00         0.00000E+00
    0.99370E-01        -0.24254E+00         0.00000E+00
    0.85910E-01        -0.18887E+00         0.00000E+00
    0.70859E-01        -0.13685E+00         0.00000E+00
    0.53112E-01        -0.87336E-01         0.00000E+00
    0.30672E-01        -0.41419E-01         0.00000E+00
    0.00000E+00         0.00000E+00         0.00000E+00
    0.50258E+00        -0.86817E+00         0.00000E+00
    0.43699E+00        -0.80761E+00         0.00000E+00
    0.37726E+00        -0.74609E+00         0.00000E+00
    0.32425E+00        -0.68332E+00         0.00000E+00
    0.28022E+00        -0.62023E+00         0.00000E+00
    0.24529E+00        -0.55755E+00         0.00000E+00
    0.21791E+00        -0.49587E+00         0.00000E+00
    0.19546E+00        -0.43534E+00         0.00000E+00
    0.17558E+00        -0.37569E+00         0.00000E+00
    0.15670E+00        -0.31681E+00         0.00000E+00
    0.13774E+00        -0.25888E+00         0.00000E+00
    0.11772E+00        -0.20225E+00         0.00000E+00
    0.95627E-01        -0.14744E+00         0.00000E+00
    0.70075E-01        -0.95085E-01         0.00000E+00
    0.39101E-01        -0.45824E-01         0.00000E+00
    0.00000E+00         0.00000E+00         0.00000E+00
    0.58984E+00        -0.94212E+00         0.00000E+00
    0.51831E+00        -0.87479E+00         0.00000E+00
    0.45503E+00        -0.80739E+00         0.00000E+00
    0.39914E+00        -0.73948E+00         0.00000E+00
    0.35100E+00        -0.67124E+00         0.00000E+00
    0.31048E+00        -0.60333E+00         0.00000E+00
    0.27643E+00        -0.53630E+00         0.00000E+00
    0.24709E+00        -0.47044E+00         0.00000E+00
    0.22062E+00        -0.40580E+00         0.00000E+00
    0.19546E+00        -0.34238E+00         0.00000E+00
    0.17031E+00        -0.28029E+00         0.00000E+00
    0.14404E+00        -0.21974E+00         0.00000E+00
    0.11544E+00        -0.16109E+00         0.00000E+00
    0.83103E-01        -0.10475E+00         0.00000E+00
    0.45305E-01        -0.51036E-01         0.00000E+00
    0.00000E+00         0.00000E+00         0.00000E+00
    0.66849E+00        -0.10205E+01         0.00000E+00
    0.59283E+00        -0.94715E+00         0.00000E+00
    0.52565E+00        -0.87378E+00         0.00000E+00
    0.46612E+00        -0.80038E+00         0.00000E+00
    0.41381E+00        -0.72702E+00         0.00000E+00
    0.36821E+00        -0.65404E+00         0.00000E+00
    0.32835E+00        -0.58188E+00         0.00000E+00
    0.29288E+00        -0.51082E+00         0.00000E+00
    0.26029E+00        -0.44106E+00         0.00000E+00
    0.22915E+00        -0.37267E+00         0.00000E+00
    0.19813E+00        -0.30578E+00         0.00000E+00
    0.16600E+00        -0.24054E+00         0.00000E+00
    0.13153E+00        -0.17718E+00         0.00000E+00
    0.93370E-01        -0.11592E+00         0.00000E+00
    0.50042E-01        -0.56886E-01         0.00000E+00
    0.00000E+00         0.00000E+00         0.00000E+00
    0.73934E+00        -0.11025E+01         0.00000E+00
    0.66025E+00        -0.10234E+01         0.00000E+00
    0.58940E+00        -0.94441E+00         0.00000E+00
    0.52605E+00        -0.86559E+00         0.00000E+00
    0.46959E+00        -0.78704E+00         0.00000E+00
    0.41929E+00        -0.70896E+00         0.00000E+00
    0.37424E+00        -0.63165E+00         0.00000E+00
    0.33329E+00        -0.55538E+00         0.00000E+00
    0.29514E+00        -0.48034E+00         0.00000E+00
    0.25847E+00        -0.40666E+00         0.00000E+00
    0.22201E+00        -0.33449E+00         0.00000E+00
    0.18454E+00        -0.26394E+00         0.00000E+00
    0.14484E+00        -0.19516E+00         0.00000E+00
    0.10167E+00        -0.12826E+00         0.00000E+00
    0.53787E-01        -0.63251E-01         0.00000E+00
    0.00000E+00         0.00000E+00         0.00000E+00
    0.80289E+00        -0.11874E+01         0.00000E+00
    0.72077E+00        -0.11029E+01         0.00000E+00
    0.64651E+00        -0.10186E+01         0.00000E+00
    0.57948E+00        -0.93447E+00         0.00000E+00
    0.51903E+00        -0.85071E+00         0.00000E+00
    0.46439E+00        -0.76746E+00         0.00000E+00
    0.41466E+00        -0.68492E+00         0.00000E+00
    0.36880E+00        -0.60331E+00         0.00000E+00
    0.32564E+00        -0.52281E+00         0.00000E+00
    0.28398E+00        -0.44358E+00         0.00000E+00
    0.24259E+00        -0.36573E+00         0.00000E+00
    0.20032E+00        -0.28938E+00         0.00000E+00
    0.15601E+00        -0.21463E+00         0.00000E+00
    0.10854E+00        -0.14152E+00         0.00000E+00
    0.56847E-01        -0.70030E-01         0.00000E+00
    0.00000E+00         0.00000E+00         0.00000E+00
    0.85959E+00        -0.12749E+01         0.00000E+00
    0.77472E+00        -0.11852E+01         0.00000E+00
    0.69730E+00        -0.10957E+01         0.00000E+00
    0.62681E+00        -0.10065E+01         0.00000E+00
    0.56263E+00        -0.91751E+00         0.00000E+00
    0.50402E+00        -0.82901E+00         0.00000E+00
    0.45009E+00        -0.74113E+00         0.00000E+00
    0.39986E+00        -0.65403E+00         0.00000E+00
    0.35225E+00        -0.56788E+00         0.00000E+00
    0.30613E+00        -0.48282E+00         0.00000E+00
    0.26037E+00        -0.39897E+00         0.00000E+00
    0.21386E+00        -0.31643E+00         0.00000E+00
    0.16552E+00        -0.23527E+00         0.00000E+00
    0.11435E+00        -0.15553E+00         0.00000E+00
    0.59425E-01        -0.77145E-01         0.00000E+00
    0.00000E+00         0.00000E+00         0.00000E+00
    0.90982E+00        -0.13648E+01         0.00000E+00
    0.82238E+00        -0.12701E+01         0.00000E+00
    0.74202E+00        -0.11756E+01         0.00000E+00
    0.66834E+00        -0.10812E+01         0.00000E+00
    0.60077E+00        -0.98700E+00         0.00000E+00
    0.53856E+00        -0.89318E+00         0.00000E+00
    0.48090E+00        -0.79983E+00         0.00000E+00
    0.42682E+00        -0.70708E+00         0.00000E+00
    0.37531E+00        -0.61508E+00         0.00000E+00
    0.32529E+00        -0.52395E+00         0.00000E+00
    0.27571E+00        -0.43382E+00         0.00000E+00
    0.22551E+00        -0.34477E+00         0.00000E+00
    0.17369E+00        -0.25686E+00         0.00000E+00
    0.11934E+00        -0.17013E+00         0.00000E+00
    0.61654E-01        -0.84536E-01         0.00000E+00
    0.00000E+00         0.00000E+00         0.00000E+00
    0.95389E+00        -0.14570E+01         0.00000E+00
    0.86398E+00        -0.13574E+01         0.00000E+00
    0.78090E+00        -0.12578E+01         0.00000E+00
    0.70431E+00        -0.11583E+01         0.00000E+00
    0.63367E+00        -0.10589E+01         0.00000E+00
    0.56830E+00        -0.95963E+00         0.00000E+00
    0.50737E+00        -0.86067E+00         0.00000E+00
    0.44997E+00        -0.76211E+00         0.00000E+00
    0.39509E+00        -0.66407E+00         0.00000E+00
    0.34174E+00        -0.56665E+00         0.00000E+00
    0.28889E+00        -0.46998E+00         0.00000E+00
    0.23553E+00        -0.37415E+00         0.00000E+00
    0.18075E+00        -0.27921E+00         0.00000E+00
    0.12368E+00        -0.18522E+00         0.00000E+00
    0.63615E-01        -0.92159E-01         0.00000E+00
    0.00000E+00         0.00000E+00         0.00000E+00
    0.99201E+00        -0.15515E+01         0.00000E+00
    0.89968E+00        -0.14469E+01         0.00000E+00
    0.81405E+00        -0.13423E+01         0.00000E+00
    0.73483E+00        -0.12376E+01         0.00000E+00
    0.66151E+00        -0.11329E+01         0.00000E+00
    0.59340E+00        -0.10281E+01         0.00000E+00
    0.52969E+00        -0.92341E+00         0.00000E+00
    0.46948E+00        -0.81886E+00         0.00000E+00
    0.41180E+00        -0.71458E+00         0.00000E+00
    0.35566E+00        -0.61068E+00         0.00000E+00
    0.30007E+00        -0.50725E+00         0.00000E+00
    0.24409E+00        -0.40440E+00         0.00000E+00
    0.18682E+00        -0.30220E+00         0.00000E+00
    0.12746E+00        -0.20072E+00         0.00000E+00
    0.65358E-01        -0.99978E-01         0.00000E+00
    0.00000E+00         0.00000E+00         0.00000E+00
    0.10242E+01        -0.16484E+01         0.00000E+00
    0.92950E+00        -0.15388E+01         0.00000E+00
    0.84151E+00        -0.14290E+01         0.00000E+00
    0.75996E+00        -0.13191E+01         0.00000E+00
    0.68434E+00        -0.12088E+01         0.00000E+00
    0.61394E+00        -0.10984E+01         0.00000E+00
    0.54795E+00        -0.98782E+00         0.00000E+00
    0.48547E+00        -0.87712E+00         0.00000E+00
    0.42553E+00        -0.76642E+00         0.00000E+00
    0.36715E+00        -0.65583E+00         0.00000E+00
    0.30938E+00        -0.54545E+00         0.00000E+00
    0.25128E+00        -0.43539E+00         0.00000E+00
    0.19199E+00        -0.32573E+00         0.00000E+00
    0.13074E+00        -0.21657E+00         0.00000E+00
    0.66907E-01        -0.10797E+00         0.00000E+00
    0.00000E+00         0.00000E+00         0.00000E+00
    0.10505E+01        -0.17478E+01         0.00000E+00
    0.95338E+00        -0.16330E+01         0.00000E+00
    0.86321E+00        -0.15179E+01         0.00000E+00
    0.77965E+00        -0.14025E+01         0.00000E+00
    0.70213E+00        -0.12867E+01         0.00000E+00
    0.62992E+00        -0.11704E+01         0.00000E+00
    0.56217E+00        -0.10537E+01         0.00000E+00
    0.49797E+00        -0.93672E+00         0.00000E+00
    0.43633E+00        -0.81942E+00         0.00000E+00
    0.37628E+00        -0.70197E+00         0.00000E+00
    0.31686E+00        -0.58446E+00         0.00000E+00
    0.25714E+00        -0.46701E+00         0.00000E+00
    0.19628E+00        -0.34973E+00         0.00000E+00
    0.13353E+00        -0.23273E+00         0.00000E+00
    0.68266E-01        -0.11611E+00         0.00000E+00
    0.00000E+00         0.00000E+00         0.00000E+00
    0.10706E+01        -0.18497E+01         0.00000E+00
    0.97113E+00        -0.17295E+01         0.00000E+00
    0.87901E+00        -0.16089E+01         0.00000E+00
    0.79378E+00        -0.14879E+01         0.00000E+00
    0.71479E+00        -0.13663E+01         0.00000E+00
    0.64127E+00        -0.12440E+01         0.00000E+00
    0.57231E+00        -0.11210E+01         0.00000E+00
    0.50694E+00        -0.99750E+00         0.00000E+00
    0.44418E+00        -0.87343E+00         0.00000E+00
    0.38302E+00        -0.74895E+00         0.00000E+00
    0.32249E+00        -0.62415E+00         0.00000E+00
    0.26167E+00        -0.49917E+00         0.00000E+00
    0.19970E+00        -0.37412E+00         0.00000E+00
    0.13583E+00        -0.24915E+00         0.00000E+00
    0.69427E-01        -0.12439E+00         0.00000E+00
    0.00000E+00         0.00000E+00         0.00000E+00
    0.10841E+01        -0.19542E+01         0.00000E+00
    0.98246E+00        -0.18283E+01         0.00000E+00
    0.88865E+00        -0.17020E+01         0.00000E+00
    0.80213E+00        -0.15751E+01         0.00000E+00
    0.72216E+00        -0.14475E+01         0.00000E+00
    0.64786E+00        -0.13189E+01         0.00000E+00
    0.57825E+00        -0.11895E+01         0.00000E+00
    0.51231E+00        -0.10593E+01         0.00000E+00
    0.44902E+00        -0.92830E+00         0.00000E+00
    0.38733E+00        -0.79663E+00         0.00000E+00
    0.32624E+00        -0.66441E+00         0.00000E+00
    0.26482E+00        -0.53176E+00         0.00000E+00
    0.20219E+00        -0.39884E+00         0.00000E+00
    0.13759E+00        -0.26579E+00         0.00000E+00
    0.70371E-01        -0.13277E+00         0.00000E+00
    0.00000E+00         0.00000E+00         0.00000E+00
    0.10907E+01        -0.20611E+01         0.00000E+00
    0.98697E+00        -0.19293E+01         0.00000E+00
    0.89180E+00        -0.17970E+01         0.00000E+00
    0.80445E+00        -0.16640E+01         0.00000E+00
    0.72401E+00        -0.15301E+01         0.00000E+00
    0.64949E+00        -0.13951E+01         0.00000E+00
    0.57984E+00        -0.12591E+01         0.00000E+00
    0.51395E+00        -0.11219E+01         0.00000E+00
    0.45073E+00        -0.98385E+00         0.00000E+00
    0.38909E+00        -0.84487E+00         0.00000E+00
    0.32801E+00        -0.70510E+00         0.00000E+00
    0.26651E+00        -0.56470E+00         0.00000E+00
    0.20370E+00        -0.42381E+00         0.00000E+00
    0.13878E+00        -0.28259E+00         0.00000E+00
    0.71070E-01        -0.14125E+00         0.00000E+00
    0.00000E+00         0.00000E+00         0.00000E+00
    0.10896E+01        -0.21704E+01         0.00000E+00
    0.98418E+00        -0.20324E+01         0.00000E+00
    0.88807E+00        -0.18938E+01         0.00000E+00
    0.80039E+00        -0.17544E+01         0.00000E+00
    0.72006E+00        -0.16140E+01         0.00000E+00
    0.64595E+00        -0.14723E+01         0.00000E+00
    0.57689E+00        -0.13294E+01         0.00000E+00
    0.51168E+00        -0.11852E+01         0.00000E+00
    0.44916E+00        -0.10399E+01         0.00000E+00
    0.38820E+00        -0.89347E+00         0.00000E+00
    0.32770E+00        -0.74608E+00         0.00000E+00
    0.26666E+00        -0.59785E+00         0.00000E+00
    0.20415E+00        -0.44894E+00         0.00000E+00
    0.13933E+00        -0.29952E+00         0.00000E+00
    0.71488E-01        -0.14979E+00         0.00000E+00
    0.00000E+00         0.00000E+00         0.00000E+00
    0.10803E+01        -0.22818E+01         0.00000E+00
    0.97352E+00        -0.21372E+01         0.00000E+00
    0.87700E+00        -0.19921E+01         0.00000E+00
    0.78958E+00        -0.18460E+01         0.00000E+00
    0.71000E+00        -0.16987E+01         0.00000E+00
    0.63697E+00        -0.15501E+01         0.00000E+00
    0.56917E+00        -0.14001E+01         0.00000E+00
    0.50531E+00        -0.12488E+01         0.00000E+00
    0.44414E+00        -0.10961E+01         0.00000E+00
    0.38447E+00        -0.94221E+00         0.00000E+00
    0.32515E+00        -0.78715E+00         0.00000E+00
    0.26513E+00        -0.63107E+00         0.00000E+00
    0.20342E+00        -0.47412E+00         0.00000E+00
    0.13916E+00        -0.31648E+00         0.00000E+00
    0.71579E-01        -0.15836E+00         0.00000E+00
    0.00000E+00         0.00000E+00         0.00000E+00
    0.10620E+01        -0.23948E+01         0.00000E+00
    0.95438E+00        -0.22434E+01         0.00000E+00
    0.85806E+00        -0.20913E+01         0.00000E+00
    0.77160E+00        -0.19383E+01         0.00000E+00
    0.69350E+00        -0.17839E+01         0.00000E+00
    0.62226E+00        -0.16282E+01         0.00000E+00
    0.55643E+00        -0.14710E+01         0.00000E+00
    0.49461E+00        -0.13123E+01         0.00000E+00
    0.43546E+00        -0.11522E+01         0.00000E+00
    0.37772E+00        -0.99079E+00         0.00000E+00
    0.32020E+00        -0.82808E+00         0.00000E+00
    0.26178E+00        -0.66418E+00         0.00000E+00
    0.20141E+00        -0.49924E+00         0.00000E+00
    0.13818E+00        -0.33342E+00         0.00000E+00
    0.71283E-01        -0.16693E+00         0.00000E+00
    0.00000E+00         0.00000E+00         0.00000E+00
    0.10338E+01        -0.25090E+01         0.00000E+00
    0.92607E+00        -0.23504E+01         0.00000E+00
    0.83072E+00        -0.21911E+01         0.00000E+00
    0.74601E+00        -0.20307E+01         0.00000E+00
    0.67018E+00        -0.18691E+01         0.00000E+00
    0.60150E+00        -0.17060E+01         0.00000E+00
    0.53839E+00        -0.15414E+01         0.00000E+00
    0.47932E+00        -0.13753E+01         0.00000E+00
    0.42287E+00        -0.12078E+01         0.00000E+00
    0.36773E+00        -0.10389E+01         0.00000E+00
    0.31264E+00        -0.86857E+00         0.00000E+00
    0.25642E+00        -0.69698E+00         0.00000E+00
    0.19796E+00        -0.52416E+00         0.00000E+00
    0.13627E+00        -0.35026E+00         0.00000E+00
    0.70519E-01        -0.17547E+00         0.00000E+00
    0.00000E+00         0.00000E+00         0.00000E+00
    0.99485E+00        -0.26236E+01         0.00000E+00
    0.88786E+00        -0.24574E+01         0.00000E+00
    0.79442E+00        -0.22905E+01         0.00000E+00
    0.71238E+00        -0.21226E+01         0.00000E+00
    0.63968E+00        -0.19534E+01         0.00000E+00
    0.57441E+00        -0.17827E+01         0.00000E+00
    0.51477E+00        -0.16106E+01         0.00000E+00
    0.45917E+00        -0.14371E+01         0.00000E+00
    0.40611E+00        -0.12623E+01         0.00000E+00
    0.35422E+00        -0.10860E+01         0.00000E+00
    0.30222E+00        -0.90829E+00         0.00000E+00
    0.24884E+00        -0.72922E+00         0.00000E+00
    0.19291E+00        -0.54877E+00         0.00000E+00
    0.13331E+00        -0.36699E+00         0.00000E+00
    0.69151E-01        -0.18400E+00         0.00000E+00
    0.00000E+00         0.00000E+00         0.00000E+00
    0.94417E+00        -0.27376E+01         0.00000E+00
    0.83904E+00        -0.25635E+01         0.00000E+00
    0.74859E+00        -0.23887E+01         0.00000E+00
    0.67026E+00        -0.22129E+01         0.00000E+00
    0.60168E+00        -0.20359E+01         0.00000E+00
    0.54066E+00        -0.18576E+01         0.00000E+00
    0.48529E+00        -0.16780E+01         0.00000E+00
    0.43387E+00        -0.14971E+01         0.00000E+00
    0.38486E+00        -0.13150E+01         0.00000E+00
    0.33688E+00        -0.11315E+01         0.00000E+00
    0.28860E+00        -0.94677E+00         0.00000E+00
    0.23874E+00        -0.76059E+00         0.00000E+00
    0.18600E+00        -0.57290E+00         0.00000E+00
    0.12915E+00        -0.38371E+00         0.00000E+00
    0.66951E-01        -0.19305E+00         0.00000E+00
    0.00000E+00         0.00000E+00         0.00000E+00
    0.88080E+00        -0.28499E+01         0.00000E+00
    0.77885E+00        -0.26675E+01         0.00000E+00
    0.69270E+00        -0.24845E+01         0.00000E+00
    0.61928E+00        -0.23006E+01         0.00000E+00
    0.55584E+00        -0.21156E+01         0.00000E+00
    0.49999E+00        -0.19295E+01         0.00000E+00
    0.44966E+00        -0.17424E+01         0.00000E+00
    0.40310E+00        -0.15542E+01         0.00000E+00
    0.35878E+00        -0.13651E+01         0.00000E+00
    0.31532E+00        -0.11749E+01         0.00000E+00
    0.27142E+00        -0.98345E+00         0.00000E+00
    0.22576E+00        -0.79066E+00         0.00000E+00
    0.17696E+00        -0.59633E+00         0.00000E+00
    0.12348E+00        -0.40031E+00         0.00000E+00
    0.64249E-01        -0.20257E+00         0.00000E+00
    0.00000E+00         0.00000E+00         0.00000E+00
    0.80373E+00        -0.29589E+01         0.00000E+00
    0.70661E+00        -0.27680E+01         0.00000E+00
    0.62627E+00        -0.25765E+01         0.00000E+00
    0.55909E+00        -0.23842E+01         0.00000E+00
    0.50192E+00        -0.21911E+01         0.00000E+00
    0.45213E+00        -0.19972E+01         0.00000E+00
    0.40759E+00        -0.18027E+01         0.00000E+00
    0.36653E+00        -0.16075E+01         0.00000E+00
    0.32747E+00        -0.14117E+01         0.00000E+00
    0.28910E+00        -0.12152E+01         0.00000E+00
    0.25017E+00        -0.10176E+01         0.00000E+00
    0.20940E+00        -0.81885E+00         0.00000E+00
    0.16538E+00        -0.61857E+00         0.00000E+00
    0.11622E+00        -0.41657E+00         0.00000E+00
    0.61184E-01        -0.21125E+00         0.00000E+00
    0.00000E+00         0.00000E+00         0.00000E+00
    0.71197E+00        -0.30628E+01         0.00000E+00
    0.62165E+00        -0.28630E+01         0.00000E+00
    0.54893E+00        -0.26628E+01         0.00000E+00
    0.48948E+00        -0.24620E+01         0.00000E+00
    0.43972E+00        -0.22607E+01         0.00000E+00
    0.39687E+00        -0.20592E+01         0.00000E+00
    0.35879E+00        -0.18575E+01         0.00000E+00
    0.32379E+00        -0.16558E+01         0.00000E+00
    0.29050E+00        -0.14538E+01         0.00000E+00
    0.25772E+00        -0.12515E+01         0.00000E+00
    0.22431E+00        -0.10484E+01         0.00000E+00
    0.18910E+00        -0.84437E+00         0.00000E+00
    0.15071E+00        -0.63887E+00         0.00000E+00
    0.10739E+00        -0.43148E+00         0.00000E+00
    0.57617E-01        -0.21903E+00         0.00000E+00
    0.00000E+00         0.00000E+00         0.00000E+00
    0.60450E+00        -0.31594E+01         0.00000E+00
    0.52346E+00        -0.29505E+01         0.00000E+00
    0.46047E+00        -0.27413E+01         0.00000E+00
    0.41034E+00        -0.25318E+01         0.00000E+00
    0.36913E+00        -0.23225E+01         0.00000E+00
    0.33400E+00        -0.21137E+01         0.00000E+00
    0.30295E+00        -0.19055E+01         0.00000E+00
    0.27446E+00        -0.16977E+01         0.00000E+00
    0.24735E+00        -0.14903E+01         0.00000E+00
    0.22058E+00        -0.12829E+01         0.00000E+00
    0.19319E+00        -0.10751E+01         0.00000E+00
    0.16416E+00        -0.86643E+00         0.00000E+00
    0.13230E+00        -0.65641E+00         0.00000E+00
    0.96139E-01        -0.44431E+00         0.00000E+00
    0.52961E-01        -0.22601E+00         0.00000E+00
    0.00000E+00         0.00000E+00         0.00000E+00
    0.48033E+00        -0.32459E+01         0.00000E+00
    0.41168E+00        -0.30275E+01         0.00000E+00
    0.36091E+00        -0.28091E+01         0.00000E+00
    0.32175E+00        -0.25912E+01         0.00000E+00
    0.29008E+00        -0.23744E+01         0.00000E+00
    0.26329E+00        -0.21590E+01         0.00000E+00
    0.23969E+00        -0.19449E+01         0.00000E+00
    0.21805E+00        -0.17320E+01         0.00000E+00
    0.19744E+00        -0.15200E+01         0.00000E+00
    0.17704E+00        -0.13084E+01         0.00000E+00
    0.15608E+00        -0.10966E+01         0.00000E+00
    0.13377E+00        -0.88427E+00         0.00000E+00
    0.10922E+00        -0.67055E+00         0.00000E+00
    0.81338E-01        -0.45463E+00         0.00000E+00
    0.46439E-01        -0.23207E+00         0.00000E+00
    0.00000E+00         0.00000E+00         0.00000E+00
    0.33846E+00        -0.33183E+01         0.00000E+00
    0.28640E+00        -0.30903E+01         0.00000E+00
    0.25062E+00        -0.28629E+01         0.00000E+00
    0.22386E+00        -0.26372E+01         0.00000E+00
    0.20244E+00        -0.24139E+01         0.00000E+00
    0.18441E+00        -0.21931E+01         0.00000E+00
    0.16854E+00        -0.19744E+01         0.00000E+00
    0.15399E+00        -0.17575E+01         0.00000E+00
    0.14010E+00        -0.15420E+01         0.00000E+00
    0.12633E+00        -0.13272E+01         0.00000E+00
    0.11214E+00        -0.11125E+01         0.00000E+00
    0.96993E-01        -0.89732E+00         0.00000E+00
    0.80298E-01        -0.68079E+00         0.00000E+00
    0.61594E-01        -0.46198E+00         0.00000E+00
    0.36957E-01        -0.23711E+00         0.00000E+00
    0.00000E+00         0.00000E+00         0.00000E+00
    0.17803E+00        -0.33711E+01         0.00000E+00
    0.14856E+00        -0.31334E+01         0.00000E+00
    0.13025E+00        -0.28981E+01         0.00000E+00
    0.11671E+00        -0.26666E+01         0.00000E+00
    0.10593E+00        -0.24388E+01         0.00000E+00
    0.96868E-01        -0.22143E+01         0.00000E+00
    0.88889E-01        -0.19927E+01         0.00000E+00
    0.81566E-01        -0.17732E+01         0.00000E+00
    0.74571E-01        -0.15555E+01         0.00000E+00
    0.67620E-01        -0.13387E+01         0.00000E+00
    0.60448E-01        -0.11222E+01         0.00000E+00
    0.52779E-01        -0.90523E+00         0.00000E+00
    0.44338E-01        -0.68688E+00         0.00000E+00
    0.34873E-01        -0.46611E+00         0.00000E+00
    0.22747E-01        -0.24071E+00         0.00000E+00
    0.00000E+00         0.00000E+00         0.00000E+00
    0.00000E+00        -0.33934E+01         0.00000E+00
    0.00000E+00        -0.31493E+01         0.00000E+00
    0.00000E+00        -0.29105E+01         0.00000E+00
    0.00000E+00        -0.26767E+01         0.00000E+00
    0.00000E+00        -0.24473E+01         0.00000E+00
    0.00000E+00        -0.22215E+01         0.00000E+00
    0.00000E+00        -0.19988E+01         0.00000E+00
    0.00000E+00        -0.17785E+01         0.00000E+00
    0.00000E+00        -0.15600E+01         0.00000E+00
    0.00000E+00        -0.13426E+01         0.00000E+00
    0.00000E+00        -0.11255E+01         0.00000E+00
    0.00000E+00        -0.90788E+00         0.00000E+00
    0.00000E+00        -0.68889E+00         0.00000E+00
    0.00000E+00        -0.46736E+00         0.00000E+00
    0.00000E+00        -0.24210E+00         0.00000E+00
    0.00000E+00         0.00000E+00         0.00000E+00
CELL_DATA        450
VECTORS vDarcy double 
    0.10409E-05         0.20304E-07         0.00000E+00
    0.10353E-05         0.64675E-07         0.00000E+00
    0.10381E-05         0.10237E-06         0.00000E+00
    0.10533E-05         0.12633E-06         0.00000E+00
    0.10741E-05         0.13876E-06         0.00000E+00
    0.10907E-05         0.14226E-06         0.00000E+00
    0.11013E-05         0.13756E-06         0.00000E+00
    0.11077E-05         0.12891E-06         0.00000E+00
    0.11120E-05         0.11808E-06         0.00000E+00
    0.11151E-05         0.10552E-06         0.00000E+00
    0.11174E-05         0.91324E-07         0.00000E+00
    0.11190E-05         0.75422E-07         0.00000E+00
    0.11202E-05         0.57572E-07         0.00000E+00
    0.11208E-05         0.37316E-07         0.00000E+00
    0.11193E-05         0.13476E-07         0.00000E+00
    0.86957E-06         0.21650E-07         0.00000E+00
    0.86755E-06         0.53003E-07         0.00000E+00
    0.88294E-06         0.74766E-07         0.00000E+00
    0.91154E-06         0.90156E-07         0.00000E+00
    0.94371E-06         0.10473E-06         0.00000E+00
    0.97122E-06         0.11676E-06         0.00000E+00
    0.99234E-06         0.11950E-06         0.00000E+00
    0.10077E-05         0.11557E-06         0.00000E+00
    0.10189E-05         0.10768E-06         0.00000E+00
    0.10273E-05         0.97104E-07         0.00000E+00
    0.10336E-05         0.84359E-07         0.00000E+00
    0.10383E-05         0.69585E-07         0.00000E+00
    0.10414E-05         0.52687E-07         0.00000E+00
    0.10428E-05         0.33376E-07         0.00000E+00
    0.10421E-05         0.11762E-07         0.00000E+00
    0.79442E-06         0.17699E-07         0.00000E+00
    0.80420E-06         0.38936E-07         0.00000E+00
    0.82165E-06         0.52100E-07         0.00000E+00
    0.84036E-06         0.63074E-07         0.00000E+00
    0.85926E-06         0.76068E-07         0.00000E+00
    0.87974E-06         0.89366E-07         0.00000E+00
    0.90028E-06         0.96608E-07         0.00000E+00
    0.91830E-06         0.97252E-07         0.00000E+00
    0.93309E-06         0.92981E-07         0.00000E+00
    0.94492E-06         0.85204E-07         0.00000E+00
    0.95420E-06         0.74721E-07         0.00000E+00
    0.96122E-06         0.61910E-07         0.00000E+00
    0.96606E-06         0.46894E-07         0.00000E+00
    0.96868E-06         0.29732E-07         0.00000E+00
    0.96905E-06         0.10535E-07         0.00000E+00
    0.74539E-06         0.10695E-07         0.00000E+00
    0.75198E-06         0.25233E-07         0.00000E+00
    0.76239E-06         0.35347E-07         0.00000E+00
    0.77498E-06         0.45297E-07         0.00000E+00
    0.78946E-06         0.56193E-07         0.00000E+00
    0.80596E-06         0.66918E-07         0.00000E+00
    0.82378E-06         0.74641E-07         0.00000E+00
    0.84123E-06         0.77685E-07         0.00000E+00
    0.85695E-06         0.76290E-07         0.00000E+00
    0.87038E-06         0.71273E-07         0.00000E+00
    0.88139E-06         0.63340E-07         0.00000E+00
    0.88999E-06         0.52952E-07         0.00000E+00
    0.89617E-06         0.40373E-07         0.00000E+00
    0.89989E-06         0.25761E-07         0.00000E+00
    0.90116E-06         0.91892E-08         0.00000E+00
    0.69519E-06         0.59517E-08         0.00000E+00
    0.69953E-06         0.15725E-07         0.00000E+00
    0.70740E-06         0.23491E-07         0.00000E+00
    0.71754E-06         0.31291E-07         0.00000E+00
    0.72978E-06         0.39857E-07         0.00000E+00
    0.74403E-06         0.48343E-07         0.00000E+00
    0.75975E-06         0.55141E-07         0.00000E+00
    0.77585E-06         0.58949E-07         0.00000E+00
    0.79119E-06         0.59361E-07         0.00000E+00
    0.80495E-06         0.56609E-07         0.00000E+00
    0.81668E-06         0.51110E-07         0.00000E+00
    0.82614E-06         0.43244E-07         0.00000E+00
    0.83319E-06         0.33289E-07         0.00000E+00
    0.83770E-06         0.21418E-07         0.00000E+00
    0.83960E-06         0.76982E-08         0.00000E+00
    0.64932E-06         0.29972E-08         0.00000E+00
    0.65274E-06         0.84375E-08         0.00000E+00
    0.65942E-06         0.13582E-07         0.00000E+00
    0.66845E-06         0.19216E-07         0.00000E+00
    0.67950E-06         0.25602E-07         0.00000E+00
    0.69234E-06         0.32164E-07         0.00000E+00
    0.70651E-06         0.37853E-07         0.00000E+00
    0.72127E-06         0.41694E-07         0.00000E+00
    0.73572E-06         0.43147E-07         0.00000E+00
    0.74910E-06         0.42111E-07         0.00000E+00
    0.76085E-06         0.38740E-07         0.00000E+00
    0.77059E-06         0.33270E-07         0.00000E+00
    0.77804E-06         0.25918E-07         0.00000E+00
    0.78300E-06         0.16840E-07         0.00000E+00
    0.78528E-06         0.61034E-08         0.00000E+00
    0.61089E-06         0.64463E-09         0.00000E+00
    0.61395E-06         0.23038E-08         0.00000E+00
    0.62003E-06         0.47658E-08         0.00000E+00
    0.62839E-06         0.82631E-08         0.00000E+00
    0.63863E-06         0.12731E-07         0.00000E+00
    0.65041E-06         0.17682E-07         0.00000E+00
    0.66335E-06         0.22352E-07         0.00000E+00
    0.67686E-06         0.25984E-07         0.00000E+00
    0.69025E-06         0.28050E-07         0.00000E+00
    0.70289E-06         0.28306E-07         0.00000E+00
    0.71421E-06         0.26732E-07         0.00000E+00
    0.72378E-06         0.23432E-07         0.00000E+00
    0.73125E-06         0.18548E-07         0.00000E+00
    0.73635E-06         0.12203E-07         0.00000E+00
    0.73881E-06         0.44679E-08         0.00000E+00
    0.58144E-06        -0.14343E-08         0.00000E+00
    0.58429E-06        -0.31992E-08         0.00000E+00
    0.58994E-06        -0.32941E-08         0.00000E+00
    0.59773E-06        -0.18133E-08         0.00000E+00
    0.60722E-06         0.97293E-09         0.00000E+00
    0.61806E-06         0.45803E-08         0.00000E+00
    0.62986E-06         0.83831E-08         0.00000E+00
    0.64216E-06         0.11760E-07         0.00000E+00
    0.65443E-06         0.14223E-07         0.00000E+00
    0.66612E-06         0.15480E-07         0.00000E+00
    0.67672E-06         0.15414E-07         0.00000E+00
    0.68581E-06         0.14037E-07         0.00000E+00
    0.69302E-06         0.11424E-07         0.00000E+00
    0.69802E-06         0.76719E-08         0.00000E+00
    0.70050E-06         0.28533E-08         0.00000E+00
    0.56153E-06        -0.33287E-08         0.00000E+00
    0.56415E-06        -0.82179E-08         0.00000E+00
    0.56933E-06        -0.10674E-07         0.00000E+00
    0.57648E-06        -0.11037E-07         0.00000E+00
    0.58515E-06        -0.97236E-08         0.00000E+00
    0.59500E-06        -0.72435E-08         0.00000E+00
    0.60566E-06        -0.41617E-08         0.00000E+00
    0.61674E-06        -0.10216E-08         0.00000E+00
    0.62782E-06         0.17310E-08         0.00000E+00
    0.63842E-06         0.37908E-08         0.00000E+00
    0.64813E-06         0.49959E-08         0.00000E+00
    0.65653E-06         0.53007E-08         0.00000E+00
    0.66326E-06         0.47382E-08         0.00000E+00
    0.66798E-06         0.33813E-08         0.00000E+00
    0.67036E-06         0.13124E-08         0.00000E+00
    0.55102E-06        -0.50295E-08         0.00000E+00
    0.55332E-06        -0.12730E-07         0.00000E+00
    0.55793E-06        -0.17320E-07         0.00000E+00
    0.56430E-06        -0.19335E-07         0.00000E+00
    0.57204E-06        -0.19308E-07         0.00000E+00
    0.58079E-06        -0.17783E-07         0.00000E+00
    0.59025E-06        -0.15302E-07         0.00000E+00
    0.60007E-06        -0.12365E-07         0.00000E+00
    0.60989E-06        -0.93861E-08         0.00000E+00
    0.61933E-06        -0.66668E-08         0.00000E+00
    0.62801E-06        -0.43883E-08         0.00000E+00
    0.63558E-06        -0.26257E-08         0.00000E+00
    0.64168E-06        -0.13722E-08         0.00000E+00
    0.64600E-06        -0.56582E-09         0.00000E+00
    0.64818E-06        -0.11344E-09         0.00000E+00
    0.54930E-06        -0.65032E-08         0.00000E+00
    0.55119E-06        -0.16662E-07         0.00000E+00
    0.55510E-06        -0.23133E-07         0.00000E+00
    0.56058E-06        -0.26603E-07         0.00000E+00
    0.56726E-06        -0.27695E-07         0.00000E+00
    0.57483E-06        -0.26986E-07         0.00000E+00
    0.58301E-06        -0.25014E-07         0.00000E+00
    0.59151E-06        -0.22253E-07         0.00000E+00
    0.60003E-06        -0.19095E-07         0.00000E+00
    0.60824E-06        -0.15833E-07         0.00000E+00
    0.61582E-06        -0.12654E-07         0.00000E+00
    0.62245E-06        -0.96445E-08         0.00000E+00
    0.62783E-06        -0.68117E-08         0.00000E+00
    0.63165E-06        -0.40968E-08         0.00000E+00
    0.63359E-06        -0.13942E-08         0.00000E+00
    0.55543E-06        -0.77213E-08         0.00000E+00
    0.55686E-06        -0.19945E-07         0.00000E+00
    0.56000E-06        -0.28024E-07         0.00000E+00
    0.56448E-06        -0.32751E-07         0.00000E+00
    0.57001E-06        -0.34808E-07         0.00000E+00
    0.57633E-06        -0.34802E-07         0.00000E+00
    0.58318E-06        -0.33267E-07         0.00000E+00
    0.59033E-06        -0.30667E-07         0.00000E+00
    0.59750E-06        -0.27375E-07         0.00000E+00
    0.60445E-06        -0.23675E-07         0.00000E+00
    0.61088E-06        -0.19751E-07         0.00000E+00
    0.61653E-06        -0.15696E-07         0.00000E+00
    0.62113E-06        -0.11521E-07         0.00000E+00
    0.62440E-06        -0.71646E-08         0.00000E+00
    0.62607E-06        -0.25099E-08         0.00000E+00
    0.56831E-06        -0.86692E-08         0.00000E+00
    0.56926E-06        -0.22538E-07         0.00000E+00
    0.57159E-06        -0.31940E-07         0.00000E+00
    0.57504E-06        -0.37720E-07         0.00000E+00
    0.57938E-06        -0.40598E-07         0.00000E+00
    0.58441E-06        -0.41195E-07         0.00000E+00
    0.58991E-06        -0.40046E-07         0.00000E+00
    0.59569E-06        -0.37600E-07         0.00000E+00
    0.60153E-06        -0.34220E-07         0.00000E+00
    0.60720E-06        -0.30180E-07         0.00000E+00
    0.61247E-06        -0.25661E-07         0.00000E+00
    0.61712E-06        -0.20753E-07         0.00000E+00
    0.62091E-06        -0.15469E-07         0.00000E+00
    0.62362E-06        -0.97437E-08         0.00000E+00
    0.62498E-06        -0.34497E-08         0.00000E+00
    0.58678E-06        -0.93471E-08         0.00000E+00
    0.58725E-06        -0.24437E-07         0.00000E+00
    0.58878E-06        -0.34867E-07         0.00000E+00
    0.59121E-06        -0.41496E-07         0.00000E+00
    0.59438E-06        -0.45056E-07         0.00000E+00
    0.59813E-06        -0.46167E-07         0.00000E+00
    0.60231E-06        -0.45358E-07         0.00000E+00
    0.60674E-06        -0.43068E-07         0.00000E+00
    0.61126E-06        -0.39649E-07         0.00000E+00
    0.61568E-06        -0.35363E-07         0.00000E+00
    0.61981E-06        -0.30388E-07         0.00000E+00
    0.62347E-06        -0.24813E-07         0.00000E+00
    0.62646E-06        -0.18648E-07         0.00000E+00
    0.62859E-06        -0.11826E-07         0.00000E+00
    0.62965E-06        -0.42094E-08         0.00000E+00
    0.60967E-06        -0.97671E-08         0.00000E+00
    0.60970E-06        -0.25666E-07         0.00000E+00
    0.61048E-06        -0.36831E-07         0.00000E+00
    0.61194E-06        -0.44106E-07         0.00000E+00
    0.61398E-06        -0.48210E-07         0.00000E+00
    0.61652E-06        -0.49750E-07         0.00000E+00
    0.61943E-06        -0.49244E-07         0.00000E+00
    0.62258E-06        -0.47114E-07         0.00000E+00
    0.62585E-06        -0.43701E-07         0.00000E+00
    0.62907E-06        -0.39259E-07         0.00000E+00
    0.63210E-06        -0.33960E-07         0.00000E+00
    0.63480E-06        -0.27894E-07         0.00000E+00
    0.63701E-06        -0.21069E-07         0.00000E+00
    0.63858E-06        -0.13415E-07         0.00000E+00
    0.63936E-06        -0.47904E-08         0.00000E+00
    0.63585E-06        -0.99497E-08         0.00000E+00
    0.63551E-06        -0.26269E-07         0.00000E+00
    0.63562E-06        -0.37888E-07         0.00000E+00
    0.63620E-06        -0.45611E-07         0.00000E+00
    0.63722E-06        -0.50124E-07         0.00000E+00
    0.63864E-06        -0.52013E-07         0.00000E+00
    0.64038E-06        -0.51772E-07         0.00000E+00
    0.64234E-06        -0.49807E-07         0.00000E+00
    0.64443E-06        -0.46443E-07         0.00000E+00
    0.64654E-06        -0.41927E-07         0.00000E+00
    0.64855E-06        -0.36426E-07         0.00000E+00
    0.65034E-06        -0.30031E-07         0.00000E+00
    0.65180E-06        -0.22754E-07         0.00000E+00
    0.65284E-06        -0.14526E-07         0.00000E+00
    0.65335E-06        -0.51979E-08         0.00000E+00
    0.66429E-06        -0.99199E-08         0.00000E+00
    0.66365E-06        -0.26305E-07         0.00000E+00
    0.66320E-06        -0.38116E-07         0.00000E+00
    0.66302E-06        -0.46097E-07         0.00000E+00
    0.66315E-06        -0.50890E-07         0.00000E+00
    0.66358E-06        -0.53048E-07         0.00000E+00
    0.66427E-06        -0.53036E-07         0.00000E+00
    0.66517E-06        -0.51238E-07         0.00000E+00
    0.66621E-06        -0.47961E-07         0.00000E+00
    0.66730E-06        -0.43442E-07         0.00000E+00
    0.66837E-06        -0.37846E-07         0.00000E+00
    0.66932E-06        -0.31269E-07         0.00000E+00
    0.67009E-06        -0.23734E-07         0.00000E+00
    0.67063E-06        -0.15175E-07         0.00000E+00
    0.67089E-06        -0.54383E-08         0.00000E+00
    0.69406E-06        -0.97050E-08         0.00000E+00
    0.69321E-06        -0.25843E-07         0.00000E+00
    0.69233E-06        -0.37605E-07         0.00000E+00
    0.69153E-06        -0.45666E-07         0.00000E+00
    0.69091E-06        -0.50617E-07         0.00000E+00
    0.69049E-06        -0.52968E-07         0.00000E+00
    0.69029E-06        -0.53149E-07         0.00000E+00
    0.69027E-06        -0.51518E-07         0.00000E+00
    0.69039E-06        -0.48361E-07         0.00000E+00
    0.69060E-06        -0.43900E-07         0.00000E+00
    0.69084E-06        -0.38299E-07         0.00000E+00
    0.69104E-06        -0.31664E-07         0.00000E+00
    0.69117E-06        -0.24038E-07         0.00000E+00
    0.69124E-06        -0.15376E-07         0.00000E+00
    0.69125E-06        -0.55172E-08         0.00000E+00
    0.72431E-06        -0.93321E-08         0.00000E+00
    0.72336E-06        -0.24950E-07         0.00000E+00
    0.72218E-06        -0.36449E-07         0.00000E+00
    0.72092E-06        -0.44430E-07         0.00000E+00
    0.71972E-06        -0.49425E-07         0.00000E+00
    0.71862E-06        -0.51897E-07         0.00000E+00
    0.71769E-06        -0.52237E-07         0.00000E+00
    0.71691E-06        -0.50771E-07         0.00000E+00
    0.71627E-06        -0.47760E-07         0.00000E+00
    0.71574E-06        -0.43411E-07         0.00000E+00
    0.71527E-06        -0.37877E-07         0.00000E+00
    0.71481E-06        -0.31278E-07         0.00000E+00
    0.71437E-06        -0.23692E-07         0.00000E+00
    0.71398E-06        -0.15129E-07         0.00000E+00
    0.71376E-06        -0.54334E-08         0.00000E+00
    0.75431E-06        -0.88273E-08         0.00000E+00
    0.75339E-06        -0.23695E-07         0.00000E+00
    0.75205E-06        -0.34743E-07         0.00000E+00
    0.75050E-06        -0.42500E-07         0.00000E+00
    0.74888E-06        -0.47436E-07         0.00000E+00
    0.74728E-06        -0.49961E-07         0.00000E+00
    0.74578E-06        -0.50428E-07         0.00000E+00
    0.74441E-06        -0.49125E-07         0.00000E+00
    0.74317E-06        -0.46288E-07         0.00000E+00
    0.74206E-06        -0.42096E-07         0.00000E+00
    0.74104E-06        -0.36692E-07         0.00000E+00
    0.74006E-06        -0.30192E-07         0.00000E+00
    0.73910E-06        -0.22716E-07         0.00000E+00
    0.73825E-06        -0.14395E-07         0.00000E+00
    0.73776E-06        -0.51693E-08         0.00000E+00
    0.78343E-06        -0.82150E-08         0.00000E+00
    0.78266E-06        -0.22140E-07         0.00000E+00
    0.78134E-06        -0.32580E-07         0.00000E+00
    0.77966E-06        -0.39986E-07         0.00000E+00
    0.77780E-06        -0.44768E-07         0.00000E+00
    0.77588E-06        -0.47285E-07         0.00000E+00
    0.77398E-06        -0.47847E-07         0.00000E+00
    0.77218E-06        -0.46708E-07         0.00000E+00
    0.77051E-06        -0.44070E-07         0.00000E+00
    0.76897E-06        -0.40086E-07         0.00000E+00
    0.76756E-06        -0.34870E-07         0.00000E+00
    0.76622E-06        -0.28528E-07         0.00000E+00
    0.76490E-06        -0.21182E-07         0.00000E+00
    0.76357E-06        -0.13082E-07         0.00000E+00
    0.76268E-06        -0.46364E-08         0.00000E+00
    0.81116E-06        -0.75176E-08         0.00000E+00
    0.81069E-06        -0.20347E-07         0.00000E+00
    0.80954E-06        -0.30044E-07         0.00000E+00
    0.80791E-06        -0.36988E-07         0.00000E+00
    0.80599E-06        -0.41530E-07         0.00000E+00
    0.80391E-06        -0.43981E-07         0.00000E+00
    0.80178E-06        -0.44608E-07         0.00000E+00
    0.79969E-06        -0.43631E-07         0.00000E+00
    0.79773E-06        -0.41221E-07         0.00000E+00
    0.79591E-06        -0.37497E-07         0.00000E+00
    0.79426E-06        -0.32541E-07         0.00000E+00
    0.79272E-06        -0.26416E-07         0.00000E+00
    0.79125E-06        -0.19263E-07         0.00000E+00
    0.78968E-06        -0.11255E-07         0.00000E+00
    0.78823E-06        -0.36698E-08         0.00000E+00
    0.83707E-06        -0.67559E-08         0.00000E+00
    0.83707E-06        -0.18369E-07         0.00000E+00
    0.83627E-06        -0.27211E-07         0.00000E+00
    0.83487E-06        -0.33596E-07         0.00000E+00
    0.83305E-06        -0.37819E-07         0.00000E+00
    0.83096E-06        -0.40148E-07         0.00000E+00
    0.82874E-06        -0.40810E-07         0.00000E+00
    0.82651E-06        -0.39991E-07         0.00000E+00
    0.82436E-06        -0.37830E-07         0.00000E+00
    0.82238E-06        -0.34419E-07         0.00000E+00
    0.82061E-06        -0.29803E-07         0.00000E+00
    0.81902E-06        -0.23978E-07         0.00000E+00
    0.81743E-06        -0.17005E-07         0.00000E+00
    0.81592E-06        -0.92790E-08         0.00000E+00
    0.81429E-06        -0.26680E-08         0.00000E+00
    0.86084E-06        -0.59488E-08         0.00000E+00
    0.86150E-06        -0.16254E-07         0.00000E+00
    0.86124E-06        -0.24148E-07         0.00000E+00
    0.86025E-06        -0.29885E-07         0.00000E+00
    0.85869E-06        -0.33715E-07         0.00000E+00
    0.85673E-06        -0.35867E-07         0.00000E+00
    0.85454E-06        -0.36531E-07         0.00000E+00
    0.85227E-06        -0.35860E-07         0.00000E+00
    0.85004E-06        -0.33961E-07         0.00000E+00
    0.84797E-06        -0.30899E-07         0.00000E+00
    0.84612E-06        -0.26687E-07         0.00000E+00
    0.84454E-06        -0.21267E-07         0.00000E+00
    0.84299E-06        -0.14391E-07         0.00000E+00
    0.84152E-06        -0.74618E-08         0.00000E+00
    0.83991E-06        -0.22266E-08         0.00000E+00
    0.88229E-06        -0.51130E-08         0.00000E+00
    0.88382E-06        -0.14045E-07         0.00000E+00
    0.88430E-06        -0.20906E-07         0.00000E+00
    0.88388E-06        -0.25911E-07         0.00000E+00
    0.88272E-06        -0.29278E-07         0.00000E+00
    0.88101E-06        -0.31200E-07         0.00000E+00
    0.87894E-06        -0.31834E-07         0.00000E+00
    0.87671E-06        -0.31296E-07         0.00000E+00
    0.87447E-06        -0.29662E-07         0.00000E+00
    0.87237E-06        -0.26968E-07         0.00000E+00
    0.87050E-06        -0.23191E-07         0.00000E+00
    0.86891E-06        -0.18217E-07         0.00000E+00
    0.86770E-06        -0.11666E-07         0.00000E+00
    0.86624E-06        -0.58678E-08         0.00000E+00
    0.86456E-06        -0.20068E-08         0.00000E+00
    0.90129E-06        -0.42624E-08         0.00000E+00
    0.90396E-06        -0.11769E-07         0.00000E+00
    0.90541E-06        -0.17517E-07         0.00000E+00
    0.90571E-06        -0.21707E-07         0.00000E+00
    0.90505E-06        -0.24544E-07         0.00000E+00
    0.90366E-06        -0.26193E-07         0.00000E+00
    0.90179E-06        -0.26768E-07         0.00000E+00
    0.89965E-06        -0.26348E-07         0.00000E+00
    0.89745E-06        -0.24978E-07         0.00000E+00
    0.89537E-06        -0.22667E-07         0.00000E+00
    0.89355E-06        -0.19362E-07         0.00000E+00
    0.89215E-06        -0.14910E-07         0.00000E+00
    0.89141E-06        -0.90587E-08         0.00000E+00
    0.89001E-06        -0.44223E-08         0.00000E+00
    0.88842E-06        -0.16085E-08         0.00000E+00
    0.91788E-06        -0.34048E-08         0.00000E+00
    0.92202E-06        -0.94395E-08         0.00000E+00
    0.92465E-06        -0.13980E-07         0.00000E+00
    0.92579E-06        -0.17274E-07         0.00000E+00
    0.92569E-06        -0.19530E-07         0.00000E+00
    0.92465E-06        -0.20873E-07         0.00000E+00
    0.92299E-06        -0.21369E-07         0.00000E+00
    0.92097E-06        -0.21058E-07         0.00000E+00
    0.91883E-06        -0.19959E-07         0.00000E+00
    0.91680E-06        -0.18058E-07         0.00000E+00
    0.91510E-06        -0.15296E-07         0.00000E+00
    0.91399E-06        -0.11546E-07         0.00000E+00
    0.91374E-06        -0.66203E-08         0.00000E+00
    0.91275E-06        -0.30315E-08         0.00000E+00
    0.91128E-06        -0.11362E-08         0.00000E+00
    0.93218E-06        -0.25373E-08         0.00000E+00
    0.93824E-06        -0.70248E-08         0.00000E+00
    0.94226E-06        -0.10243E-07         0.00000E+00
    0.94428E-06        -0.12585E-07         0.00000E+00
    0.94471E-06        -0.14241E-07         0.00000E+00
    0.94400E-06        -0.15259E-07         0.00000E+00
    0.94252E-06        -0.15661E-07         0.00000E+00
    0.94058E-06        -0.15457E-07         0.00000E+00
    0.93849E-06        -0.14643E-07         0.00000E+00
    0.93651E-06        -0.13199E-07         0.00000E+00
    0.93492E-06        -0.11074E-07         0.00000E+00
    0.93402E-06        -0.81861E-08         0.00000E+00
    0.93421E-06        -0.43657E-08         0.00000E+00
    0.93408E-06        -0.17096E-08         0.00000E+00
    0.93272E-06        -0.64092E-09         0.00000E+00
    0.94450E-06        -0.15937E-08         0.00000E+00
    0.95313E-06        -0.44052E-08         0.00000E+00
    0.95858E-06        -0.62311E-08         0.00000E+00
    0.96137E-06        -0.76474E-08         0.00000E+00
    0.96226E-06        -0.86939E-08         0.00000E+00
    0.96179E-06        -0.93616E-08         0.00000E+00
    0.96039E-06        -0.96449E-08         0.00000E+00
    0.95845E-06        -0.95397E-08         0.00000E+00
    0.95631E-06        -0.90363E-08         0.00000E+00
    0.95430E-06        -0.81130E-08         0.00000E+00
    0.95276E-06        -0.67310E-08         0.00000E+00
    0.95201E-06        -0.48298E-08         0.00000E+00
    0.95241E-06        -0.22935E-08         0.00000E+00
    0.95352E-06        -0.54264E-09         0.00000E+00
    0.95253E-06        -0.11788E-09         0.00000E+00
    0.95560E-06        -0.54284E-09         0.00000E+00
    0.96736E-06        -0.15087E-08         0.00000E+00
    0.97392E-06        -0.20710E-08         0.00000E+00
    0.97737E-06        -0.25573E-08         0.00000E+00
    0.97859E-06        -0.29261E-08         0.00000E+00
    0.97819E-06        -0.31671E-08         0.00000E+00
    0.97669E-06        -0.32746E-08         0.00000E+00
    0.97454E-06        -0.32455E-08         0.00000E+00
    0.97215E-06        -0.30748E-08         0.00000E+00
    0.96994E-06        -0.27531E-08         0.00000E+00
    0.96830E-06        -0.22626E-08         0.00000E+00
    0.96770E-06        -0.15747E-08         0.00000E+00
    0.96861E-06        -0.65139E-09         0.00000E+00
    0.97116E-06        -0.62619E-11         0.00000E+00
    0.97189E-06         0.74526E-10         0.00000E+00
POINT_DATA        496
VECTORS vDarcyNodal double 
    0.10429E-05         0.18289E-07         0.00000E+00
    0.10353E-05         0.43238E-07         0.00000E+00
    0.10322E-05         0.91466E-07         0.00000E+00
    0.10432E-05         0.12924E-06         0.00000E+00
    0.10646E-05         0.14906E-06         0.00000E+00
    0.10851E-05         0.15339E-06         0.00000E+00
    0.10978E-05         0.14818E-06         0.00000E+00
    0.11054E-05         0.13872E-06         0.00000E+00
    0.11103E-05         0.12755E-06         0.00000E+00
    0.11138E-05         0.11502E-06         0.00000E+00
    0.11164E-05         0.10112E-06         0.00000E+00
    0.11183E-05         0.85725E-07         0.00000E+00
    0.11197E-05         0.68629E-07         0.00000E+00
    0.11205E-05         0.49516E-07         0.00000E+00
    0.11206E-05         0.26995E-07         0.00000E+00
    0.11205E-05         0.14579E-07         0.00000E+00
    0.95637E-06         0.21856E-07         0.00000E+00
    0.95049E-06         0.40853E-07         0.00000E+00
    0.95207E-06         0.74175E-07         0.00000E+00
    0.96911E-06         0.98167E-07         0.00000E+00
    0.99597E-06         0.11516E-06         0.00000E+00
    0.10219E-05         0.12711E-06         0.00000E+00
    0.10407E-05         0.13126E-06         0.00000E+00
    0.10534E-05         0.12742E-06         0.00000E+00
    0.10623E-05         0.11915E-06         0.00000E+00
    0.10688E-05         0.10832E-06         0.00000E+00
    0.10737E-05         0.95504E-07         0.00000E+00
    0.10773E-05         0.80838E-07         0.00000E+00
    0.10799E-05         0.64224E-07         0.00000E+00
    0.10815E-05         0.45277E-07         0.00000E+00
    0.10818E-05         0.23753E-07         0.00000E+00
    0.10816E-05         0.12356E-07         0.00000E+00
    0.83017E-06         0.21754E-07         0.00000E+00
    0.83143E-06         0.34511E-07         0.00000E+00
    0.84194E-06         0.54798E-07         0.00000E+00
    0.86306E-06         0.67805E-07         0.00000E+00
    0.88836E-06         0.80259E-07         0.00000E+00
    0.91379E-06         0.94552E-07         0.00000E+00
    0.93700E-06         0.10505E-06         0.00000E+00
    0.95578E-06         0.10768E-06         0.00000E+00
    0.97039E-06         0.10412E-06         0.00000E+00
    0.98173E-06         0.96491E-07         0.00000E+00
    0.99055E-06         0.85986E-07         0.00000E+00
    0.99730E-06         0.73130E-07         0.00000E+00
    0.10022E-05         0.58070E-07         0.00000E+00
    0.10053E-05         0.40804E-07         0.00000E+00
    0.10063E-05         0.21394E-07         0.00000E+00
    0.10062E-05         0.11170E-07         0.00000E+00
    0.76644E-06         0.13757E-07         0.00000E+00
    0.77234E-06         0.22239E-07         0.00000E+00
    0.78432E-06         0.36332E-07         0.00000E+00
    0.79961E-06         0.47458E-07         0.00000E+00
    0.81551E-06         0.59010E-07         0.00000E+00
    0.83298E-06         0.71008E-07         0.00000E+00
    0.85256E-06         0.81006E-07         0.00000E+00
    0.87149E-06         0.86235E-07         0.00000E+00
    0.88810E-06         0.86154E-07         0.00000E+00
    0.90201E-06         0.81730E-07         0.00000E+00
    0.91334E-06         0.73970E-07         0.00000E+00
    0.92229E-06         0.63527E-07         0.00000E+00
    0.92895E-06         0.50754E-07         0.00000E+00
    0.93332E-06         0.35835E-07         0.00000E+00
    0.93534E-06         0.18879E-07         0.00000E+00
    0.93577E-06         0.99017E-08         0.00000E+00
    0.71795E-06         0.76480E-08         0.00000E+00
    0.72185E-06         0.13708E-07         0.00000E+00
    0.72975E-06         0.24284E-07         0.00000E+00
    0.74005E-06         0.33242E-07         0.00000E+00
    0.75237E-06         0.42550E-07         0.00000E+00
    0.76676E-06         0.52180E-07         0.00000E+00
    0.78315E-06         0.60625E-07         0.00000E+00
    0.80034E-06         0.66151E-07         0.00000E+00
    0.81675E-06         0.67869E-07         0.00000E+00
    0.83142E-06         0.65872E-07         0.00000E+00
    0.84395E-06         0.60676E-07         0.00000E+00
    0.85417E-06         0.52790E-07         0.00000E+00
    0.86201E-06         0.42589E-07         0.00000E+00
    0.86741E-06         0.30310E-07         0.00000E+00
    0.87029E-06         0.16076E-07         0.00000E+00
    0.87111E-06         0.84780E-08         0.00000E+00
    0.67079E-06         0.42672E-08         0.00000E+00
    0.67312E-06         0.79870E-08         0.00000E+00
    0.67912E-06         0.14961E-07         0.00000E+00
    0.68767E-06         0.21579E-07         0.00000E+00
    0.69828E-06         0.28647E-07         0.00000E+00
    0.71094E-06         0.36075E-07         0.00000E+00
    0.72539E-06         0.42914E-07         0.00000E+00
    0.74085E-06         0.47992E-07         0.00000E+00
    0.75626E-06         0.50487E-07         0.00000E+00
    0.77066E-06         0.50136E-07         0.00000E+00
    0.78342E-06         0.47074E-07         0.00000E+00
    0.79416E-06         0.41588E-07         0.00000E+00
    0.80263E-06         0.33960E-07         0.00000E+00
    0.80867E-06         0.24407E-07         0.00000E+00
    0.81213E-06         0.13045E-07         0.00000E+00
    0.81323E-06         0.69202E-08         0.00000E+00
    0.62893E-06         0.17355E-08         0.00000E+00
    0.63078E-06         0.34619E-08         0.00000E+00
    0.63587E-06         0.70824E-08         0.00000E+00
    0.64354E-06         0.11250E-07         0.00000E+00
    0.65327E-06         0.16208E-07         0.00000E+00
    0.66482E-06         0.21733E-07         0.00000E+00
    0.67790E-06         0.27147E-07         0.00000E+00
    0.69195E-06         0.31599E-07         0.00000E+00
    0.70618E-06         0.34395E-07         0.00000E+00
    0.71981E-06         0.35157E-07         0.00000E+00
    0.73221E-06         0.33806E-07         0.00000E+00
    0.74289E-06         0.30445E-07         0.00000E+00
    0.75153E-06         0.25244E-07         0.00000E+00
    0.75784E-06         0.18362E-07         0.00000E+00
    0.76160E-06         0.99035E-08         0.00000E+00
    0.76285E-06         0.52889E-08         0.00000E+00
    0.59512E-06        -0.43979E-09         0.00000E+00
    0.59679E-06        -0.50205E-09         0.00000E+00
    0.60141E-06         0.72237E-11         0.00000E+00
    0.60852E-06         0.18048E-08         0.00000E+00
    0.61758E-06         0.48178E-08         0.00000E+00
    0.62825E-06         0.87148E-08         0.00000E+00
    0.64021E-06         0.12924E-07         0.00000E+00
    0.65300E-06         0.16774E-07         0.00000E+00
    0.66603E-06         0.19675E-07         0.00000E+00
    0.67867E-06         0.21231E-07         0.00000E+00
    0.69036E-06         0.21259E-07         0.00000E+00
    0.70061E-06         0.19741E-07         0.00000E+00
    0.70903E-06         0.16752E-07         0.00000E+00
    0.71531E-06         0.12400E-07         0.00000E+00
    0.71914E-06         0.67727E-08         0.00000E+00
    0.72046E-06         0.36493E-08         0.00000E+00
    0.57053E-06        -0.24235E-08         0.00000E+00
    0.57207E-06        -0.41218E-08         0.00000E+00
    0.57634E-06        -0.64834E-08         0.00000E+00
    0.58291E-06        -0.68895E-08         0.00000E+00
    0.59128E-06        -0.56313E-08         0.00000E+00
    0.60108E-06        -0.31317E-08         0.00000E+00
    0.61197E-06         0.71315E-10         0.00000E+00
    0.62355E-06         0.34007E-08         0.00000E+00
    0.63536E-06         0.63386E-08         0.00000E+00
    0.64690E-06         0.85003E-08         0.00000E+00
    0.65766E-06         0.96596E-08         0.00000E+00
    0.66722E-06         0.97300E-08         0.00000E+00
    0.67517E-06         0.87238E-08         0.00000E+00
    0.68117E-06         0.67066E-08         0.00000E+00
    0.68490E-06         0.37576E-08         0.00000E+00
    0.68619E-06         0.20598E-08         0.00000E+00
    0.55541E-06        -0.42294E-08         0.00000E+00
    0.55679E-06        -0.74165E-08         0.00000E+00
    0.56064E-06        -0.12394E-07         0.00000E+00
    0.56660E-06        -0.14802E-07         0.00000E+00
    0.57417E-06        -0.15106E-07         0.00000E+00
    0.58301E-06        -0.13809E-07         0.00000E+00
    0.59278E-06        -0.11449E-07         0.00000E+00
    0.60313E-06        -0.85564E-08         0.00000E+00
    0.61369E-06        -0.56025E-08         0.00000E+00
    0.62403E-06        -0.29539E-08         0.00000E+00
    0.63374E-06        -0.85110E-09         0.00000E+00
    0.64243E-06         0.58487E-09         0.00000E+00
    0.64972E-06         0.13293E-08         0.00000E+00
    0.65527E-06         0.14226E-08         0.00000E+00
    0.65876E-06         0.94115E-09         0.00000E+00
    0.65998E-06         0.56758E-09         0.00000E+00
    0.54941E-06        -0.58256E-08         0.00000E+00
    0.55058E-06        -0.10336E-07         0.00000E+00
    0.55391E-06        -0.17643E-07         0.00000E+00
    0.55911E-06        -0.21835E-07         0.00000E+00
    0.56576E-06        -0.23516E-07         0.00000E+00
    0.57353E-06        -0.23258E-07         0.00000E+00
    0.58210E-06        -0.21611E-07         0.00000E+00
    0.59117E-06        -0.19086E-07         0.00000E+00
    0.60042E-06        -0.16125E-07         0.00000E+00
    0.60951E-06        -0.13077E-07         0.00000E+00
    0.61808E-06        -0.10184E-07         0.00000E+00
    0.62578E-06        -0.75822E-08         0.00000E+00
    0.63228E-06        -0.53140E-08         0.00000E+00
    0.63727E-06        -0.33515E-08         0.00000E+00
    0.64042E-06        -0.16156E-08         0.00000E+00
    0.64153E-06        -0.79192E-09         0.00000E+00
    0.55173E-06        -0.71773E-08         0.00000E+00
    0.55266E-06        -0.12823E-07         0.00000E+00
    0.55538E-06        -0.22140E-07         0.00000E+00
    0.55972E-06        -0.27885E-07         0.00000E+00
    0.56534E-06        -0.30764E-07         0.00000E+00
    0.57193E-06        -0.31403E-07         0.00000E+00
    0.57923E-06        -0.30368E-07         0.00000E+00
    0.58697E-06        -0.28159E-07         0.00000E+00
    0.59488E-06        -0.25202E-07         0.00000E+00
    0.60267E-06        -0.21832E-07         0.00000E+00
    0.61004E-06        -0.18285E-07         0.00000E+00
    0.61669E-06        -0.14701E-07         0.00000E+00
    0.62233E-06        -0.11130E-07         0.00000E+00
    0.62667E-06        -0.75486E-08         0.00000E+00
    0.62942E-06        -0.38709E-08         0.00000E+00
    0.63039E-06        -0.19940E-08         0.00000E+00
    0.56137E-06        -0.82621E-08         0.00000E+00
    0.56204E-06        -0.14837E-07         0.00000E+00
    0.56408E-06        -0.25818E-07         0.00000E+00
    0.56751E-06        -0.32875E-07         0.00000E+00
    0.57202E-06        -0.36778E-07         0.00000E+00
    0.57738E-06        -0.38188E-07         0.00000E+00
    0.58336E-06        -0.37682E-07         0.00000E+00
    0.58974E-06        -0.35755E-07         0.00000E+00
    0.59629E-06        -0.32821E-07         0.00000E+00
    0.60276E-06        -0.29200E-07         0.00000E+00
    0.60890E-06        -0.25125E-07         0.00000E+00
    0.61447E-06        -0.20733E-07         0.00000E+00
    0.61921E-06        -0.16076E-07         0.00000E+00
    0.62286E-06        -0.11129E-07         0.00000E+00
    0.62518E-06        -0.57997E-08         0.00000E+00
    0.62600E-06        -0.30237E-08         0.00000E+00
    0.57718E-06        -0.90733E-08         0.00000E+00
    0.57758E-06        -0.16365E-07         0.00000E+00
    0.57895E-06        -0.28650E-07         0.00000E+00
    0.58143E-06        -0.36771E-07         0.00000E+00
    0.58483E-06        -0.41525E-07         0.00000E+00
    0.58895E-06        -0.43589E-07         0.00000E+00
    0.59361E-06        -0.43542E-07         0.00000E+00
    0.59863E-06        -0.41873E-07         0.00000E+00
    0.60382E-06        -0.38983E-07         0.00000E+00
    0.60898E-06        -0.35185E-07         0.00000E+00
    0.61391E-06        -0.30702E-07         0.00000E+00
    0.61839E-06        -0.25669E-07         0.00000E+00
    0.62222E-06        -0.20137E-07         0.00000E+00
    0.62517E-06        -0.14077E-07         0.00000E+00
    0.62705E-06        -0.73903E-08         0.00000E+00
    0.62771E-06        -0.38738E-08         0.00000E+00
    0.59799E-06        -0.96180E-08         0.00000E+00
    0.59813E-06        -0.17415E-07         0.00000E+00
    0.59885E-06        -0.30645E-07         0.00000E+00
    0.60043E-06        -0.39580E-07         0.00000E+00
    0.60274E-06        -0.45013E-07         0.00000E+00
    0.60564E-06        -0.47619E-07         0.00000E+00
    0.60902E-06        -0.47968E-07         0.00000E+00
    0.61273E-06        -0.46538E-07         0.00000E+00
    0.61661E-06        -0.43719E-07         0.00000E+00
    0.62051E-06        -0.39814E-07         0.00000E+00
    0.62425E-06        -0.35037E-07         0.00000E+00
    0.62768E-06        -0.29522E-07         0.00000E+00
    0.63061E-06        -0.23317E-07         0.00000E+00
    0.63287E-06        -0.16392E-07         0.00000E+00
    0.63430E-06        -0.86419E-08         0.00000E+00
    0.63480E-06        -0.45434E-08         0.00000E+00
    0.62264E-06        -0.99136E-08         0.00000E+00
    0.62255E-06        -0.18014E-07         0.00000E+00
    0.62270E-06        -0.31844E-07         0.00000E+00
    0.62344E-06        -0.41347E-07         0.00000E+00
    0.62473E-06        -0.47291E-07         0.00000E+00
    0.62650E-06        -0.50329E-07         0.00000E+00
    0.62868E-06        -0.51014E-07         0.00000E+00
    0.63115E-06        -0.49807E-07         0.00000E+00
    0.63380E-06        -0.47084E-07         0.00000E+00
    0.63650E-06        -0.43136E-07         0.00000E+00
    0.63912E-06        -0.38173E-07         0.00000E+00
    0.64154E-06        -0.32325E-07         0.00000E+00
    0.64361E-06        -0.25640E-07         0.00000E+00
    0.64521E-06        -0.18088E-07         0.00000E+00
    0.64621E-06        -0.95615E-08         0.00000E+00
    0.64656E-06        -0.50362E-08         0.00000E+00
    0.65005E-06        -0.99835E-08         0.00000E+00
    0.64978E-06        -0.18201E-07         0.00000E+00
    0.64943E-06        -0.32307E-07         0.00000E+00
    0.64944E-06        -0.42144E-07         0.00000E+00
    0.64982E-06        -0.48435E-07         0.00000E+00
    0.65058E-06        -0.51799E-07         0.00000E+00
    0.65166E-06        -0.52761E-07         0.00000E+00
    0.65300E-06        -0.51762E-07         0.00000E+00
    0.65452E-06        -0.49157E-07         0.00000E+00
    0.65613E-06        -0.45225E-07         0.00000E+00
    0.65772E-06        -0.40172E-07         0.00000E+00
    0.65920E-06        -0.34126E-07         0.00000E+00
    0.66046E-06        -0.27140E-07         0.00000E+00
    0.66144E-06        -0.19188E-07         0.00000E+00
    0.66204E-06        -0.10161E-07         0.00000E+00
    0.66225E-06        -0.53587E-08         0.00000E+00
    0.67925E-06        -0.98545E-08         0.00000E+00
    0.67884E-06        -0.18021E-07         0.00000E+00
    0.67809E-06        -0.32110E-07         0.00000E+00
    0.67749E-06        -0.42062E-07         0.00000E+00
    0.67711E-06        -0.48545E-07         0.00000E+00
    0.67698E-06        -0.52132E-07         0.00000E+00
    0.67711E-06        -0.53316E-07         0.00000E+00
    0.67746E-06        -0.52505E-07         0.00000E+00
    0.67799E-06        -0.50036E-07         0.00000E+00
    0.67862E-06        -0.46173E-07         0.00000E+00
    0.67929E-06        -0.41112E-07         0.00000E+00
    0.67991E-06        -0.34986E-07         0.00000E+00
    0.68044E-06        -0.27860E-07         0.00000E+00
    0.68082E-06        -0.19718E-07         0.00000E+00
    0.68105E-06        -0.10452E-07         0.00000E+00
    0.68112E-06        -0.55176E-08         0.00000E+00
    0.70934E-06        -0.95541E-08         0.00000E+00
    0.70884E-06        -0.17524E-07         0.00000E+00
    0.70782E-06        -0.31334E-07         0.00000E+00
    0.70675E-06        -0.41204E-07         0.00000E+00
    0.70575E-06        -0.47734E-07         0.00000E+00
    0.70491E-06        -0.51449E-07         0.00000E+00
    0.70424E-06        -0.52798E-07         0.00000E+00
    0.70375E-06        -0.52158E-07         0.00000E+00
    0.70343E-06        -0.49839E-07         0.00000E+00
    0.70323E-06        -0.46085E-07         0.00000E+00
    0.70310E-06        -0.41086E-07         0.00000E+00
    0.70299E-06        -0.34976E-07         0.00000E+00
    0.70285E-06        -0.27842E-07         0.00000E+00
    0.70268E-06        -0.19696E-07         0.00000E+00
    0.70253E-06        -0.10441E-07         0.00000E+00
    0.70248E-06        -0.55168E-08         0.00000E+00
    0.73952E-06        -0.91092E-08         0.00000E+00
    0.73900E-06        -0.16757E-07         0.00000E+00
    0.73784E-06        -0.30063E-07         0.00000E+00
    0.73646E-06        -0.39672E-07         0.00000E+00
    0.73501E-06        -0.46119E-07         0.00000E+00
    0.73361E-06        -0.49872E-07         0.00000E+00
    0.73232E-06        -0.51335E-07         0.00000E+00
    0.73116E-06        -0.50849E-07         0.00000E+00
    0.73015E-06        -0.48692E-07         0.00000E+00
    0.72928E-06        -0.45085E-07         0.00000E+00
    0.72850E-06        -0.40203E-07         0.00000E+00
    0.72778E-06        -0.34180E-07         0.00000E+00
    0.72707E-06        -0.27129E-07         0.00000E+00
    0.72638E-06        -0.19126E-07         0.00000E+00
    0.72583E-06        -0.10122E-07         0.00000E+00
    0.72564E-06        -0.53503E-08         0.00000E+00
    0.76914E-06        -0.85451E-08         0.00000E+00
    0.76865E-06        -0.15765E-07         0.00000E+00
    0.76749E-06        -0.28375E-07         0.00000E+00
    0.76596E-06        -0.37571E-07         0.00000E+00
    0.76424E-06        -0.43818E-07         0.00000E+00
    0.76246E-06        -0.47527E-07         0.00000E+00
    0.76071E-06        -0.49056E-07         0.00000E+00
    0.75905E-06        -0.48707E-07         0.00000E+00
    0.75753E-06        -0.46724E-07         0.00000E+00
    0.75613E-06        -0.43301E-07         0.00000E+00
    0.75487E-06        -0.38588E-07         0.00000E+00
    0.75369E-06        -0.32707E-07         0.00000E+00
    0.75255E-06        -0.25782E-07         0.00000E+00
    0.75141E-06        -0.17987E-07         0.00000E+00
    0.75038E-06        -0.94442E-08         0.00000E+00
    0.74997E-06        -0.49890E-08         0.00000E+00
    0.79761E-06        -0.78852E-08         0.00000E+00
    0.79723E-06        -0.14591E-07         0.00000E+00
    0.79623E-06        -0.26347E-07         0.00000E+00
    0.79472E-06        -0.34998E-07         0.00000E+00
    0.79290E-06        -0.40940E-07         0.00000E+00
    0.79091E-06        -0.44531E-07         0.00000E+00
    0.78887E-06        -0.46081E-07         0.00000E+00
    0.78688E-06        -0.45853E-07         0.00000E+00
    0.78498E-06        -0.44059E-07         0.00000E+00
    0.78322E-06        -0.40860E-07         0.00000E+00
    0.78162E-06        -0.36373E-07         0.00000E+00
    0.78014E-06        -0.30696E-07         0.00000E+00
    0.77874E-06        -0.23932E-07         0.00000E+00
    0.77734E-06        -0.16281E-07         0.00000E+00
    0.77583E-06        -0.82773E-08         0.00000E+00
    0.77498E-06        -0.42850E-08         0.00000E+00
    0.82446E-06        -0.71511E-08         0.00000E+00
    0.82427E-06        -0.13276E-07         0.00000E+00
    0.82359E-06        -0.24048E-07         0.00000E+00
    0.82228E-06        -0.32040E-07         0.00000E+00
    0.82053E-06        -0.37586E-07         0.00000E+00
    0.81851E-06        -0.40988E-07         0.00000E+00
    0.81634E-06        -0.42517E-07         0.00000E+00
    0.81415E-06        -0.42395E-07         0.00000E+00
    0.81202E-06        -0.40801E-07         0.00000E+00
    0.81003E-06        -0.37866E-07         0.00000E+00
    0.80821E-06        -0.33673E-07         0.00000E+00
    0.80659E-06        -0.28268E-07         0.00000E+00
    0.80507E-06        -0.21753E-07         0.00000E+00
    0.80351E-06        -0.14242E-07         0.00000E+00
    0.80179E-06        -0.66513E-08         0.00000E+00
    0.80076E-06        -0.30572E-08         0.00000E+00
    0.84933E-06        -0.63626E-08         0.00000E+00
    0.84942E-06        -0.11853E-07         0.00000E+00
    0.84924E-06        -0.21539E-07         0.00000E+00
    0.84831E-06        -0.28776E-07         0.00000E+00
    0.84681E-06        -0.33840E-07         0.00000E+00
    0.84490E-06        -0.36990E-07         0.00000E+00
    0.84275E-06        -0.38453E-07         0.00000E+00
    0.84048E-06        -0.38417E-07         0.00000E+00
    0.83824E-06        -0.37030E-07         0.00000E+00
    0.83611E-06        -0.34392E-07         0.00000E+00
    0.83418E-06        -0.30557E-07         0.00000E+00
    0.83248E-06        -0.25521E-07         0.00000E+00
    0.83098E-06        -0.19238E-07         0.00000E+00
    0.82928E-06        -0.12048E-07         0.00000E+00
    0.82757E-06        -0.52989E-08         0.00000E+00
    0.82688E-06        -0.22809E-08         0.00000E+00
    0.87195E-06        -0.55376E-08         0.00000E+00
    0.87243E-06        -0.10355E-07         0.00000E+00
    0.87296E-06        -0.18873E-07         0.00000E+00
    0.87259E-06        -0.25269E-07         0.00000E+00
    0.87150E-06        -0.29774E-07         0.00000E+00
    0.86984E-06        -0.32607E-07         0.00000E+00
    0.86782E-06        -0.33960E-07         0.00000E+00
    0.86559E-06        -0.33987E-07         0.00000E+00
    0.86331E-06        -0.32803E-07         0.00000E+00
    0.86113E-06        -0.30479E-07         0.00000E+00
    0.85914E-06        -0.27038E-07         0.00000E+00
    0.85741E-06        -0.22440E-07         0.00000E+00
    0.85596E-06        -0.16427E-07         0.00000E+00
    0.85434E-06        -0.98105E-08         0.00000E+00
    0.85272E-06        -0.43915E-08         0.00000E+00
    0.85213E-06        -0.21731E-08         0.00000E+00
    0.89219E-06        -0.46917E-08         0.00000E+00
    0.89317E-06        -0.88086E-08         0.00000E+00
    0.89464E-06        -0.16090E-07         0.00000E+00
    0.89502E-06        -0.21564E-07         0.00000E+00
    0.89447E-06        -0.25433E-07         0.00000E+00
    0.89318E-06        -0.27889E-07         0.00000E+00
    0.89137E-06        -0.29092E-07         0.00000E+00
    0.88925E-06        -0.29158E-07         0.00000E+00
    0.88701E-06        -0.28169E-07         0.00000E+00
    0.88482E-06        -0.26163E-07         0.00000E+00
    0.88283E-06        -0.23131E-07         0.00000E+00
    0.88115E-06        -0.18976E-07         0.00000E+00
    0.87988E-06        -0.13463E-07         0.00000E+00
    0.87855E-06        -0.77279E-08         0.00000E+00
    0.87705E-06        -0.34852E-08         0.00000E+00
    0.87629E-06        -0.18415E-08         0.00000E+00
    0.90999E-06        -0.38370E-08         0.00000E+00
    0.91164E-06        -0.72308E-08         0.00000E+00
    0.91430E-06        -0.13211E-07         0.00000E+00
    0.91561E-06        -0.17679E-07         0.00000E+00
    0.91571E-06        -0.20839E-07         0.00000E+00
    0.91484E-06        -0.22868E-07         0.00000E+00
    0.91330E-06        -0.23888E-07         0.00000E+00
    0.91132E-06        -0.23975E-07         0.00000E+00
    0.90916E-06        -0.23173E-07         0.00000E+00
    0.90702E-06        -0.21496E-07         0.00000E+00
    0.90508E-06        -0.18908E-07         0.00000E+00
    0.90353E-06        -0.15304E-07         0.00000E+00
    0.90260E-06        -0.10512E-07         0.00000E+00
    0.90172E-06        -0.57571E-08         0.00000E+00
    0.90039E-06        -0.25479E-08         0.00000E+00
    0.89961E-06        -0.13767E-08         0.00000E+00
    0.92544E-06        -0.29773E-08         0.00000E+00
    0.92795E-06        -0.56223E-08         0.00000E+00
    0.93212E-06        -0.10225E-07         0.00000E+00
    0.93448E-06        -0.13596E-07         0.00000E+00
    0.93527E-06        -0.15987E-07         0.00000E+00
    0.93485E-06        -0.17557E-07         0.00000E+00
    0.93356E-06        -0.18374E-07         0.00000E+00
    0.93174E-06        -0.18471E-07         0.00000E+00
    0.92965E-06        -0.17861E-07         0.00000E+00
    0.92755E-06        -0.16536E-07         0.00000E+00
    0.92568E-06        -0.14457E-07         0.00000E+00
    0.92430E-06        -0.11546E-07         0.00000E+00
    0.92372E-06        -0.76596E-08         0.00000E+00
    0.92347E-06        -0.38983E-08         0.00000E+00
    0.92250E-06        -0.16218E-08         0.00000E+00
    0.92176E-06        -0.89681E-09         0.00000E+00
    0.93880E-06        -0.21028E-08         0.00000E+00
    0.94243E-06        -0.39501E-08         0.00000E+00
    0.94840E-06        -0.70616E-08         0.00000E+00
    0.95185E-06        -0.92554E-08         0.00000E+00
    0.95331E-06        -0.10862E-07         0.00000E+00
    0.95328E-06        -0.11965E-07         0.00000E+00
    0.95221E-06        -0.12567E-07         0.00000E+00
    0.95046E-06        -0.12665E-07         0.00000E+00
    0.94838E-06        -0.12256E-07         0.00000E+00
    0.94627E-06        -0.11321E-07         0.00000E+00
    0.94444E-06        -0.98280E-08         0.00000E+00
    0.94318E-06        -0.77234E-08         0.00000E+00
    0.94285E-06        -0.48980E-08         0.00000E+00
    0.94333E-06        -0.21801E-08         0.00000E+00
    0.94305E-06        -0.73030E-09         0.00000E+00
    0.94236E-06        -0.38596E-09         0.00000E+00
    0.95057E-06        -0.10920E-08         0.00000E+00
    0.95561E-06        -0.20610E-08         0.00000E+00
    0.96356E-06        -0.35933E-08         0.00000E+00
    0.96804E-06        -0.46439E-08         0.00000E+00
    0.97007E-06        -0.55005E-08         0.00000E+00
    0.97031E-06        -0.61112E-08         0.00000E+00
    0.96931E-06        -0.64599E-08         0.00000E+00
    0.96750E-06        -0.65378E-08         0.00000E+00
    0.96528E-06        -0.63370E-08         0.00000E+00
    0.96302E-06        -0.58429E-08         0.00000E+00
    0.96110E-06        -0.50283E-08         0.00000E+00
    0.95989E-06        -0.38467E-08         0.00000E+00
    0.95978E-06        -0.22315E-08         0.00000E+00
    0.96115E-06        -0.65924E-09         0.00000E+00
    0.96219E-06         0.68377E-10         0.00000E+00
    0.96211E-06         0.14930E-09         0.00000E+00
    0.95614E-06         0.00000E+00         0.00000E+00
    0.96196E-06         0.00000E+00         0.00000E+00
    0.97092E-06        -0.27927E-20         0.00000E+00
    0.97589E-06         0.23236E-22         0.00000E+00
    0.97817E-06         0.25344E-20         0.00000E+00
    0.97851E-06         0.00000E+00         0.00000E+00
    0.97749E-06         0.00000E+00         0.00000E+00
    0.97560E-06        -0.25913E-20         0.00000E+00
    0.97326E-06        -0.25913E-20         0.00000E+00
    0.97088E-06         0.26114E-20         0.00000E+00
    0.96887E-06         0.26114E-20         0.00000E+00
    0.96766E-06        -0.29215E-20         0.00000E+00
    0.96769E-06        -0.28455E-21         0.00000E+00
    0.96956E-06         0.26398E-20         0.00000E+00
    0.97149E-06         0.58814E-21         0.00000E+00
    0.97197E-06         0.00000E+00         0.00000E+00
CELL_DATA        450
TENSORS stressef double 
    0.20551E+08         0.38917E+06         0.00000E+00
    0.38917E+06        -0.72932E+07         0.00000E+00
    0.00000E+00         0.00000E+00        -0.11446E+07
 
    0.20814E+08         0.17756E+06         0.00000E+00
    0.17756E+06        -0.67480E+07         0.00000E+00
    0.00000E+00         0.00000E+00        -0.72336E+06
 
    0.20785E+08        -0.96573E+05         0.00000E+00
   -0.96573E+05        -0.67995E+07         0.00000E+00
    0.00000E+00         0.00000E+00        -0.40512E+06
 
    0.20566E+08        -0.34920E+06         0.00000E+00
   -0.34920E+06        -0.74301E+07         0.00000E+00
    0.00000E+00         0.00000E+00        -0.15402E+06
 
    0.19544E+08        -0.64974E+06         0.00000E+00
   -0.64974E+06        -0.83266E+07         0.00000E+00
    0.00000E+00         0.00000E+00        -0.14490E+05
 
    0.16988E+08        -0.58464E+06         0.00000E+00
   -0.58464E+06        -0.91531E+07         0.00000E+00
    0.00000E+00         0.00000E+00         0.00000E+00
 
    0.15295E+08        -0.39709E+06         0.00000E+00
   -0.39709E+06        -0.97907E+07         0.00000E+00
    0.00000E+00         0.00000E+00         0.00000E+00
 
    0.13926E+08        -0.26886E+06         0.00000E+00
   -0.26886E+06        -0.10185E+08         0.00000E+00
    0.00000E+00         0.00000E+00         0.00000E+00
 
    0.12667E+08        -0.16723E+06         0.00000E+00
   -0.16723E+06        -0.10385E+08         0.00000E+00
    0.00000E+00         0.00000E+00         0.00000E+00
 
    0.11419E+08        -0.75736E+05         0.00000E+00
   -0.75736E+05        -0.10421E+08         0.00000E+00
    0.00000E+00         0.00000E+00         0.00000E+00
 
    0.10114E+08         0.16163E+05         0.00000E+00
    0.16163E+05        -0.10301E+08         0.00000E+00
    0.00000E+00         0.00000E+00         0.00000E+00
 
    0.86772E+07         0.11817E+06         0.00000E+00
    0.11817E+06        -0.10015E+08         0.00000E+00
    0.00000E+00         0.00000E+00         0.00000E+00
 
    0.70048E+07         0.24539E+06         0.00000E+00
    0.24539E+06        -0.95315E+07         0.00000E+00
    0.00000E+00         0.00000E+00         0.00000E+00
 
    0.49130E+07         0.42927E+06         0.00000E+00
    0.42927E+06        -0.87704E+07         0.00000E+00
    0.00000E+00         0.00000E+00         0.00000E+00
 
    0.18660E+07         0.86417E+06         0.00000E+00
    0.86417E+06        -0.74763E+07         0.00000E+00
    0.00000E+00         0.00000E+00         0.00000E+00
 
    0.19293E+08         0.44828E+06         0.00000E+00
    0.44828E+06        -0.10958E+08         0.00000E+00
    0.00000E+00         0.00000E+00        -0.82560E+06
 
    0.19065E+08         0.30528E+06         0.00000E+00
    0.30528E+06        -0.11491E+08         0.00000E+00
    0.00000E+00         0.00000E+00        -0.28418E+06
 
    0.19007E+08        -0.15954E+06         0.00000E+00
   -0.15954E+06        -0.11291E+08         0.00000E+00
    0.00000E+00         0.00000E+00        -0.14590E+05
 
    0.18383E+08        -0.66793E+06         0.00000E+00
   -0.66793E+06        -0.10688E+08         0.00000E+00
    0.00000E+00         0.00000E+00         0.00000E+00
 
    0.17270E+08        -0.12282E+07         0.00000E+00
   -0.12282E+07        -0.10290E+08         0.00000E+00
    0.00000E+00         0.00000E+00         0.00000E+00
 
    0.15438E+08        -0.12816E+07         0.00000E+00
   -0.12816E+07        -0.10318E+08         0.00000E+00
    0.00000E+00         0.00000E+00         0.00000E+00
 
    0.13709E+08        -0.99602E+06         0.00000E+00
   -0.99602E+06        -0.10494E+08         0.00000E+00
    0.00000E+00         0.00000E+00         0.00000E+00
 
    0.12281E+08        -0.70752E+06         0.00000E+00
   -0.70752E+06        -0.10664E+08         0.00000E+00
    0.00000E+00         0.00000E+00         0.00000E+00
 
    0.10983E+08        -0.44470E+06         0.00000E+00
   -0.44470E+06        -0.10745E+08         0.00000E+00
    0.00000E+00         0.00000E+00         0.00000E+00
 
    0.97185E+07        -0.19099E+06         0.00000E+00
   -0.19099E+06        -0.10712E+08         0.00000E+00
    0.00000E+00         0.00000E+00         0.00000E+00
 
    0.84138E+07         0.73044E+05         0.00000E+00
    0.73044E+05        -0.10549E+08         0.00000E+00
    0.00000E+00         0.00000E+00         0.00000E+00
 
    0.69997E+07         0.37150E+06         0.00000E+00
    0.37150E+06        -0.10237E+08         0.00000E+00
    0.00000E+00         0.00000E+00         0.00000E+00
 
    0.53923E+07         0.74456E+06         0.00000E+00
    0.74456E+06        -0.97424E+07         0.00000E+00
    0.00000E+00         0.00000E+00         0.00000E+00
 
    0.34654E+07         0.12861E+07         0.00000E+00
    0.12861E+07        -0.90005E+07         0.00000E+00
    0.00000E+00         0.00000E+00         0.00000E+00
 
    0.12012E+07         0.22991E+07         0.00000E+00
    0.22991E+07        -0.79489E+07         0.00000E+00
    0.00000E+00         0.00000E+00         0.00000E+00
 
    0.18354E+08        -0.10829E+06         0.00000E+00
   -0.10829E+06        -0.11978E+08         0.00000E+00
    0.00000E+00         0.00000E+00        -0.39399E+05
 
    0.17286E+08         0.14795E+05         0.00000E+00
    0.14795E+05        -0.11956E+08         0.00000E+00
    0.00000E+00         0.00000E+00         0.00000E+00
 
    0.16950E+08        -0.22837E+06         0.00000E+00
   -0.22837E+06        -0.11994E+08         0.00000E+00
    0.00000E+00         0.00000E+00         0.00000E+00
 
    0.16378E+08        -0.65669E+06         0.00000E+00
   -0.65669E+06        -0.12054E+08         0.00000E+00
    0.00000E+00         0.00000E+00         0.00000E+00
 
    0.15349E+08        -0.11243E+07         0.00000E+00
   -0.11243E+07        -0.11942E+08         0.00000E+00
    0.00000E+00         0.00000E+00         0.00000E+00
 
    0.13894E+08        -0.13446E+07         0.00000E+00
   -0.13446E+07        -0.11706E+08         0.00000E+00
    0.00000E+00         0.00000E+00         0.00000E+00
 
    0.12332E+08        -0.12190E+07         0.00000E+00
   -0.12190E+07        -0.11547E+08         0.00000E+00
    0.00000E+00         0.00000E+00         0.00000E+00
 
    0.10896E+08        -0.92809E+06         0.00000E+00
   -0.92809E+06        -0.11470E+08         0.00000E+00
    0.00000E+00         0.00000E+00         0.00000E+00
 
    0.95780E+07        -0.58741E+06         0.00000E+00
   -0.58741E+06        -0.11392E+08         0.00000E+00
    0.00000E+00         0.00000E+00         0.00000E+00
 
    0.83059E+07        -0.21863E+06         0.00000E+00
   -0.21863E+06        -0.11257E+08         0.00000E+00
    0.00000E+00         0.00000E+00         0.00000E+00
 
    0.70180E+07         0.18788E+06         0.00000E+00
    0.18788E+06        -0.11030E+08         0.00000E+00
    0.00000E+00         0.00000E+00         0.00000E+00
 
    0.56582E+07         0.65934E+06         0.00000E+00
    0.65934E+06        -0.10683E+08         0.00000E+00
    0.00000E+00         0.00000E+00         0.00000E+00
 
    0.41731E+07         0.12482E+07         0.00000E+00
    0.12482E+07        -0.10187E+08         0.00000E+00
    0.00000E+00         0.00000E+00         0.00000E+00
 
    0.25393E+07         0.20630E+07         0.00000E+00
    0.20630E+07        -0.95178E+07         0.00000E+00
    0.00000E+00         0.00000E+00         0.00000E+00
 
    0.84295E+06         0.32684E+07         0.00000E+00
    0.32684E+07        -0.87243E+07         0.00000E+00
    0.00000E+00         0.00000E+00         0.00000E+00
 
    0.16858E+08        -0.20036E+06         0.00000E+00
   -0.20036E+06        -0.12789E+08         0.00000E+00
    0.00000E+00         0.00000E+00         0.00000E+00
 
    0.15909E+08        -0.27414E+06         0.00000E+00
   -0.27414E+06        -0.12892E+08         0.00000E+00
    0.00000E+00         0.00000E+00         0.00000E+00
 
    0.15266E+08        -0.42810E+06         0.00000E+00
   -0.42810E+06        -0.13069E+08         0.00000E+00
    0.00000E+00         0.00000E+00         0.00000E+00
 
    0.14567E+08        -0.74953E+06         0.00000E+00
   -0.74953E+06        -0.13132E+08         0.00000E+00
    0.00000E+00         0.00000E+00         0.00000E+00
 
    0.13598E+08        -0.10669E+07         0.00000E+00
   -0.10669E+07        -0.13059E+08         0.00000E+00
    0.00000E+00         0.00000E+00         0.00000E+00
 
    0.12371E+08        -0.12388E+07         0.00000E+00
   -0.12388E+07        -0.12871E+08         0.00000E+00
    0.00000E+00         0.00000E+00         0.00000E+00
 
    0.11015E+08        -0.11867E+07         0.00000E+00
   -0.11867E+07        -0.12640E+08         0.00000E+00
    0.00000E+00         0.00000E+00         0.00000E+00
 
    0.96679E+07        -0.94299E+06         0.00000E+00
   -0.94299E+06        -0.12429E+08         0.00000E+00
    0.00000E+00         0.00000E+00         0.00000E+00
 
    0.83802E+07        -0.58192E+06         0.00000E+00
   -0.58192E+06        -0.12229E+08         0.00000E+00
    0.00000E+00         0.00000E+00         0.00000E+00
 
    0.71330E+07        -0.14329E+06         0.00000E+00
   -0.14329E+06        -0.12004E+08         0.00000E+00
    0.00000E+00         0.00000E+00         0.00000E+00
 
    0.58887E+07         0.36937E+06         0.00000E+00
    0.36937E+06        -0.11718E+08         0.00000E+00
    0.00000E+00         0.00000E+00         0.00000E+00
 
    0.46121E+07         0.97744E+06         0.00000E+00
    0.97744E+06        -0.11345E+08         0.00000E+00
    0.00000E+00         0.00000E+00         0.00000E+00
 
    0.32837E+07         0.17279E+07         0.00000E+00
    0.17279E+07        -0.10869E+08         0.00000E+00
    0.00000E+00         0.00000E+00         0.00000E+00
 
    0.19232E+07         0.26946E+07         0.00000E+00
    0.26946E+07        -0.10298E+08         0.00000E+00
    0.00000E+00         0.00000E+00         0.00000E+00
 
    0.62038E+06         0.39597E+07         0.00000E+00
    0.39597E+07        -0.96860E+07         0.00000E+00
    0.00000E+00         0.00000E+00         0.00000E+00
 
    0.15318E+08        -0.17897E+06         0.00000E+00
   -0.17897E+06        -0.14071E+08         0.00000E+00
    0.00000E+00         0.00000E+00         0.00000E+00
 
    0.14515E+08        -0.41432E+06         0.00000E+00
   -0.41432E+06        -0.14076E+08         0.00000E+00
    0.00000E+00         0.00000E+00         0.00000E+00
 
    0.13760E+08        -0.59345E+06         0.00000E+00
   -0.59345E+06        -0.14132E+08         0.00000E+00
    0.00000E+00         0.00000E+00         0.00000E+00
 
    0.12980E+08        -0.81144E+06         0.00000E+00
   -0.81144E+06        -0.14160E+08         0.00000E+00
    0.00000E+00         0.00000E+00         0.00000E+00
 
    0.12055E+08        -0.10180E+07         0.00000E+00
   -0.10180E+07        -0.14088E+08         0.00000E+00
    0.00000E+00         0.00000E+00         0.00000E+00
 
    0.10966E+08        -0.11188E+07         0.00000E+00
   -0.11188E+07        -0.13920E+08         0.00000E+00
    0.00000E+00         0.00000E+00         0.00000E+00
 
    0.97719E+07        -0.10578E+07         0.00000E+00
   -0.10578E+07        -0.13692E+08         0.00000E+00
    0.00000E+00         0.00000E+00         0.00000E+00
 
    0.85464E+07        -0.82963E+06         0.00000E+00
   -0.82963E+06        -0.13440E+08         0.00000E+00
    0.00000E+00         0.00000E+00         0.00000E+00
 
    0.73363E+07        -0.46169E+06         0.00000E+00
   -0.46169E+06        -0.13180E+08         0.00000E+00
    0.00000E+00         0.00000E+00         0.00000E+00
 
    0.61510E+07         0.19297E+05         0.00000E+00
    0.19297E+05        -0.12900E+08         0.00000E+00
    0.00000E+00         0.00000E+00         0.00000E+00
 
    0.49787E+07         0.60548E+06         0.00000E+00
    0.60548E+06        -0.12579E+08         0.00000E+00
    0.00000E+00         0.00000E+00         0.00000E+00
 
    0.38065E+07         0.13097E+07         0.00000E+00
    0.13097E+07        -0.12200E+08         0.00000E+00
    0.00000E+00         0.00000E+00         0.00000E+00
 
    0.26362E+07         0.21625E+07         0.00000E+00
    0.21625E+07        -0.11760E+08         0.00000E+00
    0.00000E+00         0.00000E+00         0.00000E+00
 
    0.15004E+07         0.32055E+07         0.00000E+00
    0.32055E+07        -0.11275E+08         0.00000E+00
    0.00000E+00         0.00000E+00         0.00000E+00
 
    0.47373E+06         0.44749E+07         0.00000E+00
    0.44749E+07        -0.10792E+08         0.00000E+00
    0.00000E+00         0.00000E+00         0.00000E+00
 
    0.13827E+08        -0.17134E+06         0.00000E+00
   -0.17134E+06        -0.15247E+08         0.00000E+00
    0.00000E+00         0.00000E+00         0.00000E+00
 
    0.13116E+08        -0.44212E+06         0.00000E+00
   -0.44212E+06        -0.15234E+08         0.00000E+00
    0.00000E+00         0.00000E+00         0.00000E+00
 
    0.12368E+08        -0.64883E+06         0.00000E+00
   -0.64883E+06        -0.15222E+08         0.00000E+00
    0.00000E+00         0.00000E+00         0.00000E+00
 
    0.11571E+08        -0.82281E+06         0.00000E+00
   -0.82281E+06        -0.15192E+08         0.00000E+00
    0.00000E+00         0.00000E+00         0.00000E+00
 
    0.10685E+08        -0.95169E+06         0.00000E+00
   -0.95169E+06        -0.15105E+08         0.00000E+00
    0.00000E+00         0.00000E+00         0.00000E+00
 
    0.96974E+07        -0.98929E+06         0.00000E+00
   -0.98929E+06        -0.14948E+08         0.00000E+00
    0.00000E+00         0.00000E+00         0.00000E+00
 
    0.86304E+07        -0.89526E+06         0.00000E+00
   -0.89526E+06        -0.14733E+08         0.00000E+00
    0.00000E+00         0.00000E+00         0.00000E+00
 
    0.75253E+07        -0.65458E+06         0.00000E+00
   -0.65458E+06        -0.14481E+08         0.00000E+00
    0.00000E+00         0.00000E+00         0.00000E+00
 
    0.64161E+07        -0.27275E+06         0.00000E+00
   -0.27275E+06        -0.14206E+08         0.00000E+00
    0.00000E+00         0.00000E+00         0.00000E+00
 
    0.53200E+07         0.23862E+06         0.00000E+00
    0.23862E+06        -0.13907E+08         0.00000E+00
    0.00000E+00         0.00000E+00         0.00000E+00
 
    0.42415E+07         0.87413E+06         0.00000E+00
    0.87413E+06        -0.13579E+08         0.00000E+00
    0.00000E+00         0.00000E+00         0.00000E+00
 
    0.31837E+07         0.16396E+07         0.00000E+00
    0.16396E+07        -0.13214E+08         0.00000E+00
    0.00000E+00         0.00000E+00         0.00000E+00
 
    0.21601E+07         0.25505E+07         0.00000E+00
    0.25505E+07        -0.12816E+08         0.00000E+00
    0.00000E+00         0.00000E+00         0.00000E+00
 
    0.12042E+07         0.36252E+07         0.00000E+00
    0.36252E+07        -0.12403E+08         0.00000E+00
    0.00000E+00         0.00000E+00         0.00000E+00
 
    0.37445E+06         0.48732E+07         0.00000E+00
    0.48732E+07        -0.12014E+08         0.00000E+00
    0.00000E+00         0.00000E+00         0.00000E+00
 
    0.12407E+08        -0.15952E+06         0.00000E+00
   -0.15952E+06        -0.16354E+08         0.00000E+00
    0.00000E+00         0.00000E+00         0.00000E+00
 
    0.11764E+08        -0.42735E+06         0.00000E+00
   -0.42735E+06        -0.16331E+08         0.00000E+00
    0.00000E+00         0.00000E+00         0.00000E+00
 
    0.11054E+08        -0.63297E+06         0.00000E+00
   -0.63297E+06        -0.16292E+08         0.00000E+00
    0.00000E+00         0.00000E+00         0.00000E+00
 
    0.10287E+08        -0.78128E+06         0.00000E+00
   -0.78128E+06        -0.16232E+08         0.00000E+00
    0.00000E+00         0.00000E+00         0.00000E+00
 
    0.94534E+07        -0.86194E+06         0.00000E+00
   -0.86194E+06        -0.16133E+08         0.00000E+00
    0.00000E+00         0.00000E+00         0.00000E+00
 
    0.85514E+07        -0.85001E+06         0.00000E+00
   -0.85001E+06        -0.15985E+08         0.00000E+00
    0.00000E+00         0.00000E+00         0.00000E+00
 
    0.75931E+07        -0.71943E+06         0.00000E+00
   -0.71943E+06        -0.15788E+08         0.00000E+00
    0.00000E+00         0.00000E+00         0.00000E+00
 
    0.66019E+07        -0.45472E+06         0.00000E+00
   -0.45472E+06        -0.15554E+08         0.00000E+00
    0.00000E+00         0.00000E+00         0.00000E+00
 
    0.56014E+07        -0.52490E+05         0.00000E+00
   -0.52490E+05        -0.15291E+08         0.00000E+00
    0.00000E+00         0.00000E+00         0.00000E+00
 
    0.46091E+07         0.48432E+06         0.00000E+00
    0.48432E+06        -0.15002E+08         0.00000E+00
    0.00000E+00         0.00000E+00         0.00000E+00
 
    0.36366E+07         0.11531E+07         0.00000E+00
    0.11531E+07        -0.14690E+08         0.00000E+00
    0.00000E+00         0.00000E+00         0.00000E+00
 
    0.26956E+07         0.19551E+07         0.00000E+00
    0.19551E+07        -0.14353E+08         0.00000E+00
    0.00000E+00         0.00000E+00         0.00000E+00
 
    0.18043E+07         0.28951E+07         0.00000E+00
    0.28951E+07        -0.14001E+08         0.00000E+00
    0.00000E+00         0.00000E+00         0.00000E+00
 
    0.99296E+06         0.39762E+07         0.00000E+00
    0.39762E+07        -0.13650E+08         0.00000E+00
    0.00000E+00         0.00000E+00         0.00000E+00
 
    0.30600E+06         0.51927E+07         0.00000E+00
    0.51927E+07        -0.13328E+08         0.00000E+00
    0.00000E+00         0.00000E+00         0.00000E+00
 
    0.11064E+08        -0.14259E+06         0.00000E+00
   -0.14259E+06        -0.17409E+08         0.00000E+00
    0.00000E+00         0.00000E+00         0.00000E+00
 
    0.10473E+08        -0.39085E+06         0.00000E+00
   -0.39085E+06        -0.17383E+08         0.00000E+00
    0.00000E+00         0.00000E+00         0.00000E+00
 
    0.98110E+07        -0.58203E+06         0.00000E+00
   -0.58203E+06        -0.17338E+08         0.00000E+00
    0.00000E+00         0.00000E+00         0.00000E+00
 
    0.90932E+07        -0.70751E+06         0.00000E+00
   -0.70751E+06        -0.17271E+08         0.00000E+00
    0.00000E+00         0.00000E+00         0.00000E+00
 
    0.83235E+07        -0.75456E+06         0.00000E+00
   -0.75456E+06        -0.17175E+08         0.00000E+00
    0.00000E+00         0.00000E+00         0.00000E+00
 
    0.75055E+07        -0.70537E+06         0.00000E+00
   -0.70537E+06        -0.17042E+08         0.00000E+00
    0.00000E+00         0.00000E+00         0.00000E+00
 
    0.66480E+07        -0.54178E+06         0.00000E+00
   -0.54178E+06        -0.16871E+08         0.00000E+00
    0.00000E+00         0.00000E+00         0.00000E+00
 
    0.57660E+07        -0.25071E+06         0.00000E+00
   -0.25071E+06        -0.16665E+08         0.00000E+00
    0.00000E+00         0.00000E+00         0.00000E+00
 
    0.48759E+07         0.17390E+06         0.00000E+00
    0.17390E+06        -0.16430E+08         0.00000E+00
    0.00000E+00         0.00000E+00         0.00000E+00
 
    0.39932E+07         0.73285E+06         0.00000E+00
    0.73285E+06        -0.16170E+08         0.00000E+00
    0.00000E+00         0.00000E+00         0.00000E+00
 
    0.31313E+07         0.14247E+07         0.00000E+00
    0.14247E+07        -0.15888E+08         0.00000E+00
    0.00000E+00         0.00000E+00         0.00000E+00
 
    0.23047E+07         0.22478E+07         0.00000E+00
    0.22478E+07        -0.15591E+08         0.00000E+00
    0.00000E+00         0.00000E+00         0.00000E+00
 
    0.15320E+07         0.31998E+07         0.00000E+00
    0.31998E+07        -0.15286E+08         0.00000E+00
    0.00000E+00         0.00000E+00         0.00000E+00
 
    0.83870E+06         0.42745E+07         0.00000E+00
    0.42745E+07        -0.14987E+08         0.00000E+00
    0.00000E+00         0.00000E+00         0.00000E+00
 
    0.25782E+06         0.54578E+07         0.00000E+00
    0.54578E+07        -0.14718E+08         0.00000E+00
    0.00000E+00         0.00000E+00         0.00000E+00
 
    0.97889E+07        -0.12371E+06         0.00000E+00
   -0.12371E+06        -0.18428E+08         0.00000E+00
    0.00000E+00         0.00000E+00         0.00000E+00
 
    0.92384E+07        -0.34604E+06         0.00000E+00
   -0.34604E+06        -0.18406E+08         0.00000E+00
    0.00000E+00         0.00000E+00         0.00000E+00
 
    0.86260E+07        -0.51757E+06         0.00000E+00
   -0.51757E+06        -0.18368E+08         0.00000E+00
    0.00000E+00         0.00000E+00         0.00000E+00
 
    0.79668E+07        -0.62144E+06         0.00000E+00
   -0.62144E+06        -0.18311E+08         0.00000E+00
    0.00000E+00         0.00000E+00         0.00000E+00
 
    0.72683E+07        -0.64207E+06         0.00000E+00
   -0.64207E+06        -0.18232E+08         0.00000E+00
    0.00000E+00         0.00000E+00         0.00000E+00
 
    0.65360E+07        -0.56377E+06         0.00000E+00
   -0.56377E+06        -0.18123E+08         0.00000E+00
    0.00000E+00         0.00000E+00         0.00000E+00
 
    0.57773E+07        -0.37214E+06         0.00000E+00
   -0.37214E+06        -0.17984E+08         0.00000E+00
    0.00000E+00         0.00000E+00         0.00000E+00
 
    0.50021E+07        -0.56325E+05         0.00000E+00
   -0.56325E+05        -0.17815E+08         0.00000E+00
    0.00000E+00         0.00000E+00         0.00000E+00
 
    0.42224E+07         0.38979E+06         0.00000E+00
    0.38979E+06        -0.17619E+08         0.00000E+00
    0.00000E+00         0.00000E+00         0.00000E+00
 
    0.34506E+07         0.96791E+06         0.00000E+00
    0.96791E+06        -0.17398E+08         0.00000E+00
    0.00000E+00         0.00000E+00         0.00000E+00
 
    0.26994E+07         0.16766E+07         0.00000E+00
    0.16766E+07        -0.17159E+08         0.00000E+00
    0.00000E+00         0.00000E+00         0.00000E+00
 
    0.19826E+07         0.25118E+07         0.00000E+00
    0.25118E+07        -0.16906E+08         0.00000E+00
    0.00000E+00         0.00000E+00         0.00000E+00
 
    0.13168E+07         0.34670E+07         0.00000E+00
    0.34670E+07        -0.16648E+08         0.00000E+00
    0.00000E+00         0.00000E+00         0.00000E+00
 
    0.72228E+06         0.45308E+07         0.00000E+00
    0.45308E+07        -0.16397E+08         0.00000E+00
    0.00000E+00         0.00000E+00         0.00000E+00
 
    0.22284E+06         0.56844E+07         0.00000E+00
    0.56844E+07        -0.16168E+08         0.00000E+00
    0.00000E+00         0.00000E+00         0.00000E+00
 
    0.85683E+07        -0.10629E+06         0.00000E+00
   -0.10629E+06        -0.19426E+08         0.00000E+00
    0.00000E+00         0.00000E+00         0.00000E+00
 
    0.80482E+07        -0.30283E+06         0.00000E+00
   -0.30283E+06        -0.19414E+08         0.00000E+00
    0.00000E+00         0.00000E+00         0.00000E+00
 
    0.74840E+07        -0.45430E+06         0.00000E+00
   -0.45430E+06        -0.19392E+08         0.00000E+00
    0.00000E+00         0.00000E+00         0.00000E+00
 
    0.68874E+07        -0.53838E+06         0.00000E+00
   -0.53838E+06        -0.19357E+08         0.00000E+00
    0.00000E+00         0.00000E+00         0.00000E+00
 
    0.62649E+07        -0.53707E+06         0.00000E+00
   -0.53707E+06        -0.19305E+08         0.00000E+00
    0.00000E+00         0.00000E+00         0.00000E+00
 
    0.56213E+07        -0.43507E+06         0.00000E+00
   -0.43507E+06        -0.19230E+08         0.00000E+00
    0.00000E+00         0.00000E+00         0.00000E+00
 
    0.49618E+07        -0.21977E+06         0.00000E+00
   -0.21977E+06        -0.19131E+08         0.00000E+00
    0.00000E+00         0.00000E+00         0.00000E+00
 
    0.42930E+07         0.11807E+06         0.00000E+00
    0.11807E+06        -0.19005E+08         0.00000E+00
    0.00000E+00         0.00000E+00         0.00000E+00
 
    0.36233E+07         0.58373E+06         0.00000E+00
    0.58373E+06        -0.18854E+08         0.00000E+00
    0.00000E+00         0.00000E+00         0.00000E+00
 
    0.29621E+07         0.11786E+07         0.00000E+00
    0.11786E+07        -0.18681E+08         0.00000E+00
    0.00000E+00         0.00000E+00         0.00000E+00
 
    0.23196E+07         0.19004E+07         0.00000E+00
    0.19004E+07        -0.18489E+08         0.00000E+00
    0.00000E+00         0.00000E+00         0.00000E+00
 
    0.17076E+07         0.27436E+07         0.00000E+00
    0.27436E+07        -0.18284E+08         0.00000E+00
    0.00000E+00         0.00000E+00         0.00000E+00
 
    0.11394E+07         0.36989E+07         0.00000E+00
    0.36989E+07        -0.18073E+08         0.00000E+00
    0.00000E+00         0.00000E+00         0.00000E+00
 
    0.63018E+06         0.47520E+07         0.00000E+00
    0.47520E+07        -0.17865E+08         0.00000E+00
    0.00000E+00         0.00000E+00         0.00000E+00
 
    0.19616E+06         0.58823E+07         0.00000E+00
    0.58823E+07        -0.17670E+08         0.00000E+00
    0.00000E+00         0.00000E+00         0.00000E+00
 
    0.73815E+07        -0.92985E+05         0.00000E+00
   -0.92985E+05        -0.20419E+08         0.00000E+00
    0.00000E+00         0.00000E+00         0.00000E+00
 
    0.68847E+07        -0.26852E+06         0.00000E+00
   -0.26852E+06        -0.20421E+08         0.00000E+00
    0.00000E+00         0.00000E+00         0.00000E+00
 
    0.63677E+07        -0.40271E+06         0.00000E+00
   -0.40271E+06        -0.20422E+08         0.00000E+00
    0.00000E+00         0.00000E+00         0.00000E+00
 
    0.58363E+07        -0.46983E+06         0.00000E+00
   -0.46983E+06        -0.20416E+08         0.00000E+00
    0.00000E+00         0.00000E+00         0.00000E+00
 
    0.52936E+07        -0.45020E+06         0.00000E+00
   -0.45020E+06        -0.20399E+08         0.00000E+00
    0.00000E+00         0.00000E+00         0.00000E+00
 
    0.47418E+07        -0.32846E+06         0.00000E+00
   -0.32846E+06        -0.20365E+08         0.00000E+00
    0.00000E+00         0.00000E+00         0.00000E+00
 
    0.41833E+07        -0.92959E+05         0.00000E+00
   -0.92959E+05        -0.20310E+08         0.00000E+00
    0.00000E+00         0.00000E+00         0.00000E+00
 
    0.36216E+07         0.26432E+06         0.00000E+00
    0.26432E+06        -0.20233E+08         0.00000E+00
    0.00000E+00         0.00000E+00         0.00000E+00
 
    0.30619E+07         0.74764E+06         0.00000E+00
    0.74764E+06        -0.20132E+08         0.00000E+00
    0.00000E+00         0.00000E+00         0.00000E+00
 
    0.25103E+07         0.13575E+07         0.00000E+00
    0.13575E+07        -0.20010E+08         0.00000E+00
    0.00000E+00         0.00000E+00         0.00000E+00
 
    0.19745E+07         0.20909E+07         0.00000E+00
    0.20909E+07        -0.19869E+08         0.00000E+00
    0.00000E+00         0.00000E+00         0.00000E+00
 
    0.14631E+07         0.29408E+07         0.00000E+00
    0.29408E+07        -0.19713E+08         0.00000E+00
    0.00000E+00         0.00000E+00         0.00000E+00
 
    0.98568E+06         0.38965E+07         0.00000E+00
    0.38965E+07        -0.19548E+08         0.00000E+00
    0.00000E+00         0.00000E+00         0.00000E+00
 
    0.55271E+06         0.49426E+07         0.00000E+00
    0.49426E+07        -0.19379E+08         0.00000E+00
    0.00000E+00         0.00000E+00         0.00000E+00
 
    0.17432E+06         0.60577E+07         0.00000E+00
    0.60577E+07        -0.19214E+08         0.00000E+00
    0.00000E+00         0.00000E+00         0.00000E+00
 
    0.62049E+07        -0.85595E+05         0.00000E+00
   -0.85595E+05        -0.21423E+08         0.00000E+00
    0.00000E+00         0.00000E+00         0.00000E+00
 
    0.57284E+07        -0.24820E+06         0.00000E+00
   -0.24820E+06        -0.21440E+08         0.00000E+00
    0.00000E+00         0.00000E+00         0.00000E+00
 
    0.52590E+07        -0.37023E+06         0.00000E+00
   -0.37023E+06        -0.21467E+08         0.00000E+00
    0.00000E+00         0.00000E+00         0.00000E+00
 
    0.47956E+07        -0.42426E+06         0.00000E+00
   -0.42426E+06        -0.21496E+08         0.00000E+00
    0.00000E+00         0.00000E+00         0.00000E+00
 
    0.43365E+07        -0.38977E+06         0.00000E+00
   -0.38977E+06        -0.21519E+08         0.00000E+00
    0.00000E+00         0.00000E+00         0.00000E+00
 
    0.38799E+07        -0.25149E+06         0.00000E+00
   -0.25149E+06        -0.21530E+08         0.00000E+00
    0.00000E+00         0.00000E+00         0.00000E+00
 
    0.34249E+07         0.15044E+04         0.00000E+00
    0.15044E+04        -0.21524E+08         0.00000E+00
    0.00000E+00         0.00000E+00         0.00000E+00
 
    0.29720E+07         0.37619E+06         0.00000E+00
    0.37619E+06        -0.21498E+08         0.00000E+00
    0.00000E+00         0.00000E+00         0.00000E+00
 
    0.25228E+07         0.87581E+06         0.00000E+00
    0.87581E+06        -0.21450E+08         0.00000E+00
    0.00000E+00         0.00000E+00         0.00000E+00
 
    0.20806E+07         0.15000E+07         0.00000E+00
    0.15000E+07        -0.21381E+08         0.00000E+00
    0.00000E+00         0.00000E+00         0.00000E+00
 
    0.16498E+07         0.22446E+07         0.00000E+00
    0.22446E+07        -0.21292E+08         0.00000E+00
    0.00000E+00         0.00000E+00         0.00000E+00
 
    0.12359E+07         0.31021E+07         0.00000E+00
    0.31021E+07        -0.21185E+08         0.00000E+00
    0.00000E+00         0.00000E+00         0.00000E+00
 
    0.84482E+06         0.40608E+07         0.00000E+00
    0.40608E+07        -0.21065E+08         0.00000E+00
    0.00000E+00         0.00000E+00         0.00000E+00
 
    0.48274E+06         0.51049E+07         0.00000E+00
    0.51049E+07        -0.20934E+08         0.00000E+00
    0.00000E+00         0.00000E+00         0.00000E+00
 
    0.15484E+06         0.62137E+07         0.00000E+00
    0.62137E+07        -0.20795E+08         0.00000E+00
    0.00000E+00         0.00000E+00         0.00000E+00
 
    0.50134E+07        -0.85240E+05         0.00000E+00
   -0.85240E+05        -0.22449E+08         0.00000E+00
    0.00000E+00         0.00000E+00         0.00000E+00
 
    0.45585E+07        -0.24519E+06         0.00000E+00
   -0.24519E+06        -0.22482E+08         0.00000E+00
    0.00000E+00         0.00000E+00         0.00000E+00
 
    0.41396E+07        -0.36184E+06         0.00000E+00
   -0.36184E+06        -0.22538E+08         0.00000E+00
    0.00000E+00         0.00000E+00         0.00000E+00
 
    0.37483E+07        -0.40753E+06         0.00000E+00
   -0.40753E+06        -0.22604E+08         0.00000E+00
    0.00000E+00         0.00000E+00         0.00000E+00
 
    0.33772E+07        -0.36176E+06         0.00000E+00
   -0.36176E+06        -0.22670E+08         0.00000E+00
    0.00000E+00         0.00000E+00         0.00000E+00
 
    0.30199E+07        -0.20975E+06         0.00000E+00
   -0.20975E+06        -0.22728E+08         0.00000E+00
    0.00000E+00         0.00000E+00         0.00000E+00
 
    0.26719E+07         0.58584E+05         0.00000E+00
    0.58584E+05        -0.22773E+08         0.00000E+00
    0.00000E+00         0.00000E+00         0.00000E+00
 
    0.23298E+07         0.44921E+06         0.00000E+00
    0.44921E+06        -0.22799E+08         0.00000E+00
    0.00000E+00         0.00000E+00         0.00000E+00
 
    0.19925E+07         0.96436E+06         0.00000E+00
    0.96436E+06        -0.22805E+08         0.00000E+00
    0.00000E+00         0.00000E+00         0.00000E+00
 
    0.16599E+07         0.16027E+07         0.00000E+00
    0.16027E+07        -0.22789E+08         0.00000E+00
    0.00000E+00         0.00000E+00         0.00000E+00
 
    0.13336E+07         0.23596E+07         0.00000E+00
    0.23596E+07        -0.22751E+08         0.00000E+00
    0.00000E+00         0.00000E+00         0.00000E+00
 
    0.10156E+07         0.32266E+07         0.00000E+00
    0.32266E+07        -0.22694E+08         0.00000E+00
    0.00000E+00         0.00000E+00         0.00000E+00
 
    0.70861E+06         0.41921E+07         0.00000E+00
    0.41921E+07        -0.22617E+08         0.00000E+00
    0.00000E+00         0.00000E+00         0.00000E+00
 
    0.41500E+06         0.52402E+07         0.00000E+00
    0.52402E+07        -0.22521E+08         0.00000E+00
    0.00000E+00         0.00000E+00         0.00000E+00
 
    0.13589E+06         0.63515E+07         0.00000E+00
    0.63515E+07        -0.22408E+08         0.00000E+00
    0.00000E+00         0.00000E+00         0.00000E+00
 
    0.37821E+07        -0.92518E+05         0.00000E+00
   -0.92518E+05        -0.23510E+08         0.00000E+00
    0.00000E+00         0.00000E+00         0.00000E+00
 
    0.33544E+07        -0.26140E+06         0.00000E+00
   -0.26140E+06        -0.23559E+08         0.00000E+00
    0.00000E+00         0.00000E+00         0.00000E+00
 
    0.29919E+07        -0.38055E+06         0.00000E+00
   -0.38055E+06        -0.23643E+08         0.00000E+00
    0.00000E+00         0.00000E+00         0.00000E+00
 
    0.26787E+07        -0.42327E+06         0.00000E+00
   -0.42327E+06        -0.23746E+08         0.00000E+00
    0.00000E+00         0.00000E+00         0.00000E+00
 
    0.24011E+07        -0.36996E+06         0.00000E+00
   -0.36996E+06        -0.23856E+08         0.00000E+00
    0.00000E+00         0.00000E+00         0.00000E+00
 
    0.21482E+07        -0.20683E+06         0.00000E+00
   -0.20683E+06        -0.23962E+08         0.00000E+00
    0.00000E+00         0.00000E+00         0.00000E+00
 
    0.19110E+07         0.75079E+05         0.00000E+00
    0.75079E+05        -0.24057E+08         0.00000E+00
    0.00000E+00         0.00000E+00         0.00000E+00
 
    0.16830E+07         0.48063E+06         0.00000E+00
    0.48063E+06        -0.24136E+08         0.00000E+00
    0.00000E+00         0.00000E+00         0.00000E+00
 
    0.14595E+07         0.10110E+07         0.00000E+00
    0.10110E+07        -0.24194E+08         0.00000E+00
    0.00000E+00         0.00000E+00         0.00000E+00
 
    0.12378E+07         0.16642E+07         0.00000E+00
    0.16642E+07        -0.24230E+08         0.00000E+00
    0.00000E+00         0.00000E+00         0.00000E+00
 
    0.10161E+07         0.24346E+07         0.00000E+00
    0.24346E+07        -0.24243E+08         0.00000E+00
    0.00000E+00         0.00000E+00         0.00000E+00
 
    0.79392E+06         0.33139E+07         0.00000E+00
    0.33139E+07        -0.24233E+08         0.00000E+00
    0.00000E+00         0.00000E+00         0.00000E+00
 
    0.57066E+06         0.42903E+07         0.00000E+00
    0.42903E+07        -0.24198E+08         0.00000E+00
    0.00000E+00         0.00000E+00         0.00000E+00
 
    0.34546E+06         0.53488E+07         0.00000E+00
    0.53488E+07        -0.24137E+08         0.00000E+00
    0.00000E+00         0.00000E+00         0.00000E+00
 
    0.11610E+06         0.64709E+07         0.00000E+00
    0.64709E+07        -0.24050E+08         0.00000E+00
    0.00000E+00         0.00000E+00         0.00000E+00
 
    0.24870E+07        -0.10763E+06         0.00000E+00
   -0.10763E+06        -0.24614E+08         0.00000E+00
    0.00000E+00         0.00000E+00         0.00000E+00
 
    0.20965E+07        -0.29763E+06         0.00000E+00
   -0.29763E+06        -0.24680E+08         0.00000E+00
    0.00000E+00         0.00000E+00         0.00000E+00
 
    0.17994E+07        -0.42773E+06         0.00000E+00
   -0.42773E+06        -0.24791E+08         0.00000E+00
    0.00000E+00         0.00000E+00         0.00000E+00
 
    0.15722E+07        -0.47320E+06         0.00000E+00
   -0.47320E+06        -0.24930E+08         0.00000E+00
    0.00000E+00         0.00000E+00         0.00000E+00
 
    0.13953E+07        -0.41614E+06         0.00000E+00
   -0.41614E+06        -0.25082E+08         0.00000E+00
    0.00000E+00         0.00000E+00         0.00000E+00
 
    0.12526E+07        -0.24437E+06         0.00000E+00
   -0.24437E+06        -0.25234E+08         0.00000E+00
    0.00000E+00         0.00000E+00         0.00000E+00
 
    0.11312E+07         0.49619E+05         0.00000E+00
    0.49619E+05        -0.25378E+08         0.00000E+00
    0.00000E+00         0.00000E+00         0.00000E+00
 
    0.10209E+07         0.46937E+06         0.00000E+00
    0.46937E+06        -0.25506E+08         0.00000E+00
    0.00000E+00         0.00000E+00         0.00000E+00
 
    0.91405E+06         0.10150E+07         0.00000E+00
    0.10150E+07        -0.25616E+08         0.00000E+00
    0.00000E+00         0.00000E+00         0.00000E+00
 
    0.80503E+06         0.16837E+07         0.00000E+00
    0.16837E+07        -0.25702E+08         0.00000E+00
    0.00000E+00         0.00000E+00         0.00000E+00
 
    0.68954E+06         0.24695E+07         0.00000E+00
    0.24695E+07        -0.25763E+08         0.00000E+00
    0.00000E+00         0.00000E+00         0.00000E+00
 
    0.56419E+06         0.33639E+07         0.00000E+00
    0.33639E+07        -0.25797E+08         0.00000E+00
    0.00000E+00         0.00000E+00         0.00000E+00
 
    0.42588E+06         0.43554E+07         0.00000E+00
    0.43554E+07        -0.25803E+08         0.00000E+00
    0.00000E+00         0.00000E+00         0.00000E+00
 
    0.27094E+06         0.54299E+07         0.00000E+00
    0.54299E+07        -0.25777E+08         0.00000E+00
    0.00000E+00         0.00000E+00         0.00000E+00
 
    0.94404E+05         0.65705E+07         0.00000E+00
    0.65705E+07        -0.25716E+08         0.00000E+00
    0.00000E+00         0.00000E+00         0.00000E+00
 
    0.11056E+07        -0.13049E+06         0.00000E+00
   -0.13049E+06        -0.25771E+08         0.00000E+00
    0.00000E+00         0.00000E+00         0.00000E+00
 
    0.76647E+06        -0.35381E+06         0.00000E+00
   -0.35381E+06        -0.25851E+08         0.00000E+00
    0.00000E+00         0.00000E+00         0.00000E+00
 
    0.54689E+06        -0.50339E+06         0.00000E+00
   -0.50339E+06        -0.25988E+08         0.00000E+00
    0.00000E+00         0.00000E+00         0.00000E+00
 
    0.41613E+06        -0.55731E+06         0.00000E+00
   -0.55731E+06        -0.26161E+08         0.00000E+00
    0.00000E+00         0.00000E+00         0.00000E+00
 
    0.34853E+06        -0.50020E+06         0.00000E+00
   -0.50020E+06        -0.26351E+08         0.00000E+00
    0.00000E+00         0.00000E+00         0.00000E+00
 
    0.32308E+06        -0.32207E+06         0.00000E+00
   -0.32207E+06        -0.26546E+08         0.00000E+00
    0.00000E+00         0.00000E+00         0.00000E+00
 
    0.32289E+06        -0.17351E+05         0.00000E+00
   -0.17351E+05        -0.26735E+08         0.00000E+00
    0.00000E+00         0.00000E+00         0.00000E+00
 
    0.33462E+06         0.41597E+06         0.00000E+00
    0.41597E+06        -0.26910E+08         0.00000E+00
    0.00000E+00         0.00000E+00         0.00000E+00
 
    0.34781E+06         0.97691E+06         0.00000E+00
    0.97691E+06        -0.27066E+08         0.00000E+00
    0.00000E+00         0.00000E+00         0.00000E+00
 
    0.35420E+06         0.16618E+07         0.00000E+00
    0.16618E+07        -0.27198E+08         0.00000E+00
    0.00000E+00         0.00000E+00         0.00000E+00
 
    0.34712E+06         0.24645E+07         0.00000E+00
    0.24645E+07        -0.27305E+08         0.00000E+00
    0.00000E+00         0.00000E+00         0.00000E+00
 
    0.32086E+06         0.33765E+07         0.00000E+00
    0.33765E+07        -0.27382E+08         0.00000E+00
    0.00000E+00         0.00000E+00         0.00000E+00
 
    0.27005E+06         0.43868E+07         0.00000E+00
    0.43868E+07        -0.27427E+08         0.00000E+00
    0.00000E+00         0.00000E+00         0.00000E+00
 
    0.18883E+06         0.54825E+07         0.00000E+00
    0.54825E+07        -0.27436E+08         0.00000E+00
    0.00000E+00         0.00000E+00         0.00000E+00
 
    0.69911E+05         0.66482E+07         0.00000E+00
    0.66482E+07        -0.27402E+08         0.00000E+00
    0.00000E+00         0.00000E+00         0.00000E+00
 
   -0.38226E+06        -0.16078E+06         0.00000E+00
   -0.16078E+06        -0.26985E+08         0.00000E+00
    0.00000E+00         0.00000E+00         0.00000E+00
 
   -0.65194E+06        -0.42914E+06         0.00000E+00
   -0.42914E+06        -0.27078E+08         0.00000E+00
    0.00000E+00         0.00000E+00         0.00000E+00
 
   -0.77878E+06        -0.60632E+06         0.00000E+00
   -0.60632E+06        -0.27239E+08         0.00000E+00
    0.00000E+00         0.00000E+00         0.00000E+00
 
   -0.80055E+06        -0.67404E+06         0.00000E+00
   -0.67404E+06        -0.27441E+08         0.00000E+00
    0.00000E+00         0.00000E+00         0.00000E+00
 
   -0.74871E+06        -0.62021E+06         0.00000E+00
   -0.62021E+06        -0.27666E+08         0.00000E+00
    0.00000E+00         0.00000E+00         0.00000E+00
 
   -0.64893E+06        -0.43777E+06         0.00000E+00
   -0.43777E+06        -0.27898E+08         0.00000E+00
    0.00000E+00         0.00000E+00         0.00000E+00
 
   -0.52171E+06        -0.12355E+06         0.00000E+00
   -0.12355E+06        -0.28127E+08         0.00000E+00
    0.00000E+00         0.00000E+00         0.00000E+00
 
   -0.38322E+06         0.32261E+06         0.00000E+00
    0.32261E+06        -0.28342E+08         0.00000E+00
    0.00000E+00         0.00000E+00         0.00000E+00
 
   -0.24626E+06         0.89853E+06         0.00000E+00
    0.89853E+06        -0.28540E+08         0.00000E+00
    0.00000E+00         0.00000E+00         0.00000E+00
 
   -0.12120E+06         0.15999E+07         0.00000E+00
    0.15999E+07        -0.28715E+08         0.00000E+00
    0.00000E+00         0.00000E+00         0.00000E+00
 
   -0.16821E+05         0.24205E+07         0.00000E+00
    0.24205E+07        -0.28863E+08         0.00000E+00
    0.00000E+00         0.00000E+00         0.00000E+00
 
    0.59152E+05         0.33520E+07         0.00000E+00
    0.33520E+07        -0.28981E+08         0.00000E+00
    0.00000E+00         0.00000E+00         0.00000E+00
 
    0.99500E+05         0.43840E+07         0.00000E+00
    0.43840E+07        -0.29064E+08         0.00000E+00
    0.00000E+00         0.00000E+00         0.00000E+00
 
    0.96726E+05         0.55048E+07         0.00000E+00
    0.55048E+07        -0.29107E+08         0.00000E+00
    0.00000E+00         0.00000E+00         0.00000E+00
 
    0.41786E+05         0.67009E+07         0.00000E+00
    0.67009E+07        -0.29104E+08         0.00000E+00
    0.00000E+00         0.00000E+00         0.00000E+00
 
   -0.19946E+07        -0.19798E+06         0.00000E+00
   -0.19798E+06        -0.28262E+08         0.00000E+00
    0.00000E+00         0.00000E+00         0.00000E+00
 
   -0.21728E+07        -0.52216E+06         0.00000E+00
   -0.52216E+06        -0.28366E+08         0.00000E+00
    0.00000E+00         0.00000E+00         0.00000E+00
 
   -0.21887E+07        -0.73421E+06         0.00000E+00
   -0.73421E+06        -0.28546E+08         0.00000E+00
    0.00000E+00         0.00000E+00         0.00000E+00
 
   -0.20867E+07        -0.82029E+06         0.00000E+00
   -0.82029E+06        -0.28774E+08         0.00000E+00
    0.00000E+00         0.00000E+00         0.00000E+00
 
   -0.19039E+07        -0.77244E+06         0.00000E+00
   -0.77244E+06        -0.29027E+08         0.00000E+00
    0.00000E+00         0.00000E+00         0.00000E+00
 
   -0.16702E+07        -0.58731E+06         0.00000E+00
   -0.58731E+06        -0.29290E+08         0.00000E+00
    0.00000E+00         0.00000E+00         0.00000E+00
 
   -0.14092E+07        -0.26475E+06         0.00000E+00
   -0.26475E+06        -0.29550E+08         0.00000E+00
    0.00000E+00         0.00000E+00         0.00000E+00
 
   -0.11391E+07         0.19322E+06         0.00000E+00
    0.19322E+06        -0.29800E+08         0.00000E+00
    0.00000E+00         0.00000E+00         0.00000E+00
 
   -0.87444E+06         0.78314E+06         0.00000E+00
    0.78314E+06        -0.30033E+08         0.00000E+00
    0.00000E+00         0.00000E+00         0.00000E+00
 
   -0.62708E+06         0.15004E+07         0.00000E+00
    0.15004E+07        -0.30244E+08         0.00000E+00
    0.00000E+00         0.00000E+00         0.00000E+00
 
   -0.40750E+06         0.23388E+07         0.00000E+00
    0.23388E+07        -0.30430E+08         0.00000E+00
    0.00000E+00         0.00000E+00         0.00000E+00
 
   -0.22531E+06         0.32907E+07         0.00000E+00
    0.32907E+07        -0.30586E+08         0.00000E+00
    0.00000E+00         0.00000E+00         0.00000E+00
 
   -0.89300E+05         0.43461E+07         0.00000E+00
    0.43461E+07        -0.30706E+08         0.00000E+00
    0.00000E+00         0.00000E+00         0.00000E+00
 
   -0.78561E+04         0.54945E+07         0.00000E+00
    0.54945E+07        -0.30785E+08         0.00000E+00
    0.00000E+00         0.00000E+00         0.00000E+00
 
    0.90844E+04         0.67248E+07         0.00000E+00
    0.67248E+07        -0.30815E+08         0.00000E+00
    0.00000E+00         0.00000E+00         0.00000E+00
 
   -0.37466E+07        -0.24141E+06         0.00000E+00
   -0.24141E+06        -0.29605E+08         0.00000E+00
    0.00000E+00         0.00000E+00         0.00000E+00
 
   -0.38078E+07        -0.63085E+06         0.00000E+00
   -0.63085E+06        -0.29718E+08         0.00000E+00
    0.00000E+00         0.00000E+00         0.00000E+00
 
   -0.36913E+07        -0.88369E+06         0.00000E+00
   -0.88369E+06        -0.29913E+08         0.00000E+00
    0.00000E+00         0.00000E+00         0.00000E+00
 
   -0.34487E+07        -0.99142E+06         0.00000E+00
   -0.99142E+06        -0.30160E+08         0.00000E+00
    0.00000E+00         0.00000E+00         0.00000E+00
 
   -0.31223E+07        -0.95124E+06         0.00000E+00
   -0.95124E+06        -0.30434E+08         0.00000E+00
    0.00000E+00         0.00000E+00         0.00000E+00
 
   -0.27458E+07        -0.76442E+06         0.00000E+00
   -0.76442E+06        -0.30719E+08         0.00000E+00
    0.00000E+00         0.00000E+00         0.00000E+00
 
   -0.23447E+07        -0.43456E+06         0.00000E+00
   -0.43456E+06        -0.31002E+08         0.00000E+00
    0.00000E+00         0.00000E+00         0.00000E+00
 
   -0.19388E+07         0.33691E+05         0.00000E+00
    0.33691E+05        -0.31276E+08         0.00000E+00
    0.00000E+00         0.00000E+00         0.00000E+00
 
   -0.15428E+07         0.63555E+06         0.00000E+00
    0.63555E+06        -0.31535E+08         0.00000E+00
    0.00000E+00         0.00000E+00         0.00000E+00
 
   -0.11694E+07         0.13663E+07         0.00000E+00
    0.13663E+07        -0.31777E+08         0.00000E+00
    0.00000E+00         0.00000E+00         0.00000E+00
 
   -0.83025E+06         0.22207E+07         0.00000E+00
    0.22207E+07        -0.31997E+08         0.00000E+00
    0.00000E+00         0.00000E+00         0.00000E+00
 
   -0.53684E+06         0.31923E+07         0.00000E+00
    0.31923E+07        -0.32189E+08         0.00000E+00
    0.00000E+00         0.00000E+00         0.00000E+00
 
   -0.29995E+06         0.42718E+07         0.00000E+00
    0.42718E+07        -0.32346E+08         0.00000E+00
    0.00000E+00         0.00000E+00         0.00000E+00
 
   -0.12794E+06         0.54487E+07         0.00000E+00
    0.54487E+07        -0.32462E+08         0.00000E+00
    0.00000E+00         0.00000E+00         0.00000E+00
 
   -0.29520E+05         0.67147E+07         0.00000E+00
    0.67147E+07        -0.32529E+08         0.00000E+00
    0.00000E+00         0.00000E+00         0.00000E+00
 
   -0.56508E+07        -0.29027E+06         0.00000E+00
   -0.29027E+06        -0.31014E+08         0.00000E+00
    0.00000E+00         0.00000E+00         0.00000E+00
 
   -0.55653E+07        -0.75261E+06         0.00000E+00
   -0.75261E+06        -0.31135E+08         0.00000E+00
    0.00000E+00         0.00000E+00         0.00000E+00
 
   -0.52923E+07        -0.10503E+07         0.00000E+00
   -0.10503E+07        -0.31341E+08         0.00000E+00
    0.00000E+00         0.00000E+00         0.00000E+00
 
   -0.48905E+07        -0.11811E+07         0.00000E+00
   -0.11811E+07        -0.31599E+08         0.00000E+00
    0.00000E+00         0.00000E+00         0.00000E+00
 
   -0.44072E+07        -0.11488E+07         0.00000E+00
   -0.11488E+07        -0.31884E+08         0.00000E+00
    0.00000E+00         0.00000E+00         0.00000E+00
 
   -0.38790E+07        -0.96040E+06         0.00000E+00
   -0.96040E+06        -0.32180E+08         0.00000E+00
    0.00000E+00         0.00000E+00         0.00000E+00
 
   -0.33327E+07        -0.62413E+06         0.00000E+00
   -0.62413E+06        -0.32474E+08         0.00000E+00
    0.00000E+00         0.00000E+00         0.00000E+00
 
   -0.27876E+07        -0.14777E+06         0.00000E+00
   -0.14777E+06        -0.32760E+08         0.00000E+00
    0.00000E+00         0.00000E+00         0.00000E+00
 
   -0.22579E+07         0.46247E+06         0.00000E+00
    0.46247E+06        -0.33037E+08         0.00000E+00
    0.00000E+00         0.00000E+00         0.00000E+00
 
   -0.17553E+07         0.12021E+07         0.00000E+00
    0.12021E+07        -0.33301E+08         0.00000E+00
    0.00000E+00         0.00000E+00         0.00000E+00
 
   -0.12916E+07         0.20677E+07         0.00000E+00
    0.20677E+07        -0.33549E+08         0.00000E+00
    0.00000E+00         0.00000E+00         0.00000E+00
 
   -0.88030E+06         0.30555E+07         0.00000E+00
    0.30555E+07        -0.33776E+08         0.00000E+00
    0.00000E+00         0.00000E+00         0.00000E+00
 
   -0.53605E+06         0.41584E+07         0.00000E+00
    0.41584E+07        -0.33972E+08         0.00000E+00
    0.00000E+00         0.00000E+00         0.00000E+00
 
   -0.26768E+06         0.53633E+07         0.00000E+00
    0.53633E+07        -0.34129E+08         0.00000E+00
    0.00000E+00         0.00000E+00         0.00000E+00
 
   -0.76411E+05         0.66632E+07         0.00000E+00
    0.66632E+07        -0.34239E+08         0.00000E+00
    0.00000E+00         0.00000E+00         0.00000E+00
 
   -0.77167E+07        -0.34361E+06         0.00000E+00
   -0.34361E+06        -0.32492E+08         0.00000E+00
    0.00000E+00         0.00000E+00         0.00000E+00
 
   -0.74508E+07        -0.88425E+06         0.00000E+00
   -0.88425E+06        -0.32617E+08         0.00000E+00
    0.00000E+00         0.00000E+00         0.00000E+00
 
   -0.69941E+07        -0.12282E+07         0.00000E+00
   -0.12282E+07        -0.32828E+08         0.00000E+00
    0.00000E+00         0.00000E+00         0.00000E+00
 
   -0.64127E+07        -0.13812E+07         0.00000E+00
   -0.13812E+07        -0.33089E+08         0.00000E+00
    0.00000E+00         0.00000E+00         0.00000E+00
 
   -0.57590E+07        -0.13550E+07         0.00000E+00
   -0.13550E+07        -0.33374E+08         0.00000E+00
    0.00000E+00         0.00000E+00         0.00000E+00
 
   -0.50714E+07        -0.11638E+07         0.00000E+00
   -0.11638E+07        -0.33666E+08         0.00000E+00
    0.00000E+00         0.00000E+00         0.00000E+00
 
   -0.43764E+07        -0.82173E+06         0.00000E+00
   -0.82173E+06        -0.33956E+08         0.00000E+00
    0.00000E+00         0.00000E+00         0.00000E+00
 
   -0.36911E+07        -0.34015E+06         0.00000E+00
   -0.34015E+06        -0.34241E+08         0.00000E+00
    0.00000E+00         0.00000E+00         0.00000E+00
 
   -0.30271E+07         0.27310E+06         0.00000E+00
    0.27310E+06        -0.34521E+08         0.00000E+00
    0.00000E+00         0.00000E+00         0.00000E+00
 
   -0.23935E+07         0.10141E+07         0.00000E+00
    0.10141E+07        -0.34797E+08         0.00000E+00
    0.00000E+00         0.00000E+00         0.00000E+00
 
   -0.18009E+07         0.18823E+07         0.00000E+00
    0.18823E+07        -0.35067E+08         0.00000E+00
    0.00000E+00         0.00000E+00         0.00000E+00
 
   -0.12635E+07         0.28774E+07         0.00000E+00
    0.28774E+07        -0.35327E+08         0.00000E+00
    0.00000E+00         0.00000E+00         0.00000E+00
 
   -0.80137E+06         0.39978E+07         0.00000E+00
    0.39978E+07        -0.35568E+08         0.00000E+00
    0.00000E+00         0.00000E+00         0.00000E+00
 
   -0.43286E+06         0.52313E+07         0.00000E+00
    0.52313E+07        -0.35778E+08         0.00000E+00
    0.00000E+00         0.00000E+00         0.00000E+00
 
   -0.13686E+06         0.65565E+07         0.00000E+00
    0.65565E+07        -0.35947E+08         0.00000E+00
    0.00000E+00         0.00000E+00         0.00000E+00
 
   -0.99506E+07        -0.40037E+06         0.00000E+00
   -0.40037E+06        -0.34038E+08         0.00000E+00
    0.00000E+00         0.00000E+00         0.00000E+00
 
   -0.94658E+07        -0.10219E+07         0.00000E+00
   -0.10219E+07        -0.34164E+08         0.00000E+00
    0.00000E+00         0.00000E+00         0.00000E+00
 
   -0.87948E+07        -0.14102E+07         0.00000E+00
   -0.14102E+07        -0.34373E+08         0.00000E+00
    0.00000E+00         0.00000E+00         0.00000E+00
 
   -0.80124E+07        -0.15811E+07         0.00000E+00
   -0.15811E+07        -0.34626E+08         0.00000E+00
    0.00000E+00         0.00000E+00         0.00000E+00
 
   -0.71754E+07        -0.15566E+07         0.00000E+00
   -0.15566E+07        -0.34896E+08         0.00000E+00
    0.00000E+00         0.00000E+00         0.00000E+00
 
   -0.63227E+07        -0.13601E+07         0.00000E+00
   -0.13601E+07        -0.35168E+08         0.00000E+00
    0.00000E+00         0.00000E+00         0.00000E+00
 
   -0.54782E+07        -0.10125E+07         0.00000E+00
   -0.10125E+07        -0.35437E+08         0.00000E+00
    0.00000E+00         0.00000E+00         0.00000E+00
 
   -0.46549E+07        -0.52935E+06         0.00000E+00
   -0.52935E+06        -0.35704E+08         0.00000E+00
    0.00000E+00         0.00000E+00         0.00000E+00
 
   -0.38593E+07         0.79771E+05         0.00000E+00
    0.79771E+05        -0.35971E+08         0.00000E+00
    0.00000E+00         0.00000E+00         0.00000E+00
 
   -0.30955E+07         0.81172E+06         0.00000E+00
    0.81172E+06        -0.36244E+08         0.00000E+00
    0.00000E+00         0.00000E+00         0.00000E+00
 
   -0.23706E+07         0.16692E+07         0.00000E+00
    0.16692E+07        -0.36525E+08         0.00000E+00
    0.00000E+00         0.00000E+00         0.00000E+00
 
   -0.16998E+07         0.26584E+07         0.00000E+00
    0.26584E+07        -0.36813E+08         0.00000E+00
    0.00000E+00         0.00000E+00         0.00000E+00
 
   -0.11056E+07         0.37802E+07         0.00000E+00
    0.37802E+07        -0.37097E+08         0.00000E+00
    0.00000E+00         0.00000E+00         0.00000E+00
 
   -0.63529E+06         0.50299E+07         0.00000E+00
    0.50299E+07        -0.37364E+08         0.00000E+00
    0.00000E+00         0.00000E+00         0.00000E+00
 
   -0.26148E+06         0.63391E+07         0.00000E+00
    0.63391E+07        -0.37668E+08         0.00000E+00
    0.00000E+00         0.00000E+00        -0.41648E+05
 
   -0.12356E+08        -0.45940E+06         0.00000E+00
   -0.45940E+06        -0.35651E+08         0.00000E+00
    0.00000E+00         0.00000E+00         0.00000E+00
 
   -0.11608E+08        -0.11609E+07         0.00000E+00
   -0.11609E+07        -0.35774E+08         0.00000E+00
    0.00000E+00         0.00000E+00         0.00000E+00
 
   -0.10688E+08        -0.15872E+07         0.00000E+00
   -0.15872E+07        -0.35972E+08         0.00000E+00
    0.00000E+00         0.00000E+00         0.00000E+00
 
   -0.96824E+07        -0.17674E+07         0.00000E+00
   -0.17674E+07        -0.36204E+08         0.00000E+00
    0.00000E+00         0.00000E+00         0.00000E+00
 
   -0.86510E+07        -0.17373E+07         0.00000E+00
   -0.17373E+07        -0.36441E+08         0.00000E+00
    0.00000E+00         0.00000E+00         0.00000E+00
 
   -0.76308E+07        -0.15314E+07         0.00000E+00
   -0.15314E+07        -0.36674E+08         0.00000E+00
    0.00000E+00         0.00000E+00         0.00000E+00
 
   -0.66402E+07        -0.11784E+07         0.00000E+00
   -0.11784E+07        -0.36901E+08         0.00000E+00
    0.00000E+00         0.00000E+00         0.00000E+00
 
   -0.56850E+07        -0.69833E+06         0.00000E+00
   -0.69833E+06        -0.37129E+08         0.00000E+00
    0.00000E+00         0.00000E+00         0.00000E+00
 
   -0.47642E+07        -0.10209E+06         0.00000E+00
   -0.10209E+06        -0.37365E+08         0.00000E+00
    0.00000E+00         0.00000E+00         0.00000E+00
 
   -0.38750E+07         0.60802E+06         0.00000E+00
    0.60802E+06        -0.37619E+08         0.00000E+00
    0.00000E+00         0.00000E+00         0.00000E+00
 
   -0.30175E+07         0.14380E+07         0.00000E+00
    0.14380E+07        -0.37897E+08         0.00000E+00
    0.00000E+00         0.00000E+00         0.00000E+00
 
   -0.22027E+07         0.24020E+07         0.00000E+00
    0.24020E+07        -0.38202E+08         0.00000E+00
    0.00000E+00         0.00000E+00         0.00000E+00
 
   -0.14718E+07         0.35153E+07         0.00000E+00
    0.35153E+07        -0.38521E+08         0.00000E+00
    0.00000E+00         0.00000E+00         0.00000E+00
 
   -0.83792E+06         0.47653E+07         0.00000E+00
    0.47653E+07        -0.38840E+08         0.00000E+00
    0.00000E+00         0.00000E+00         0.00000E+00
 
   -0.68283E+06         0.59603E+07         0.00000E+00
    0.59603E+07        -0.39187E+08         0.00000E+00
    0.00000E+00         0.00000E+00        -0.41679E+06
 
   -0.14931E+08        -0.51945E+06         0.00000E+00
   -0.51945E+06        -0.37329E+08         0.00000E+00
    0.00000E+00         0.00000E+00         0.00000E+00
 
   -0.13867E+08        -0.12951E+07         0.00000E+00
   -0.12951E+07        -0.37445E+08         0.00000E+00
    0.00000E+00         0.00000E+00         0.00000E+00
 
   -0.12661E+08        -0.17468E+07         0.00000E+00
   -0.17468E+07        -0.37622E+08         0.00000E+00
    0.00000E+00         0.00000E+00         0.00000E+00
 
   -0.11411E+08        -0.19226E+07         0.00000E+00
   -0.19226E+07        -0.37814E+08         0.00000E+00
    0.00000E+00         0.00000E+00         0.00000E+00
 
   -0.10178E+08        -0.18763E+07         0.00000E+00
   -0.18763E+07        -0.37996E+08         0.00000E+00
    0.00000E+00         0.00000E+00         0.00000E+00
 
   -0.89926E+07        -0.16562E+07         0.00000E+00
   -0.16562E+07        -0.38165E+08         0.00000E+00
    0.00000E+00         0.00000E+00         0.00000E+00
 
   -0.78643E+07        -0.12990E+07         0.00000E+00
   -0.12990E+07        -0.38327E+08         0.00000E+00
    0.00000E+00         0.00000E+00         0.00000E+00
 
   -0.67879E+07        -0.82813E+06         0.00000E+00
   -0.82813E+06        -0.38494E+08         0.00000E+00
    0.00000E+00         0.00000E+00         0.00000E+00
 
   -0.57527E+07        -0.25518E+06         0.00000E+00
   -0.25518E+06        -0.38680E+08         0.00000E+00
    0.00000E+00         0.00000E+00         0.00000E+00
 
   -0.47464E+07         0.41898E+06         0.00000E+00
    0.41898E+06        -0.38897E+08         0.00000E+00
    0.00000E+00         0.00000E+00         0.00000E+00
 
   -0.37602E+07         0.12038E+07         0.00000E+00
    0.12038E+07        -0.39156E+08         0.00000E+00
    0.00000E+00         0.00000E+00         0.00000E+00
 
   -0.27942E+07         0.21197E+07         0.00000E+00
    0.21197E+07        -0.39461E+08         0.00000E+00
    0.00000E+00         0.00000E+00         0.00000E+00
 
   -0.18840E+07         0.32069E+07         0.00000E+00
    0.32069E+07        -0.39801E+08         0.00000E+00
    0.00000E+00         0.00000E+00         0.00000E+00
 
   -0.11738E+07         0.44350E+07         0.00000E+00
    0.44350E+07        -0.40174E+08         0.00000E+00
    0.00000E+00         0.00000E+00        -0.14788E+06
 
   -0.12113E+07         0.55810E+07         0.00000E+00
    0.55810E+07        -0.40555E+08         0.00000E+00
    0.00000E+00         0.00000E+00        -0.91622E+06
 
   -0.17672E+08        -0.57902E+06         0.00000E+00
   -0.57902E+06        -0.39069E+08         0.00000E+00
    0.00000E+00         0.00000E+00         0.00000E+00
 
   -0.16229E+08        -0.14162E+07         0.00000E+00
   -0.14162E+07        -0.39173E+08         0.00000E+00
    0.00000E+00         0.00000E+00         0.00000E+00
 
   -0.14695E+08        -0.18722E+07         0.00000E+00
   -0.18722E+07        -0.39312E+08         0.00000E+00
    0.00000E+00         0.00000E+00         0.00000E+00
 
   -0.13181E+08        -0.20232E+07         0.00000E+00
   -0.20232E+07        -0.39440E+08         0.00000E+00
    0.00000E+00         0.00000E+00         0.00000E+00
 
   -0.11746E+08        -0.19481E+07         0.00000E+00
   -0.19481E+07        -0.39539E+08         0.00000E+00
    0.00000E+00         0.00000E+00         0.00000E+00
 
   -0.10406E+08        -0.17101E+07         0.00000E+00
   -0.17101E+07        -0.39616E+08         0.00000E+00
    0.00000E+00         0.00000E+00         0.00000E+00
 
   -0.91542E+07        -0.13525E+07         0.00000E+00
   -0.13525E+07        -0.39689E+08         0.00000E+00
    0.00000E+00         0.00000E+00         0.00000E+00
 
   -0.79719E+07        -0.90001E+06         0.00000E+00
   -0.90001E+06        -0.39775E+08         0.00000E+00
    0.00000E+00         0.00000E+00         0.00000E+00
 
   -0.68363E+07        -0.36307E+06         0.00000E+00
   -0.36307E+06        -0.39893E+08         0.00000E+00
    0.00000E+00         0.00000E+00         0.00000E+00
 
   -0.57247E+07         0.25978E+06         0.00000E+00
    0.25978E+06        -0.40059E+08         0.00000E+00
    0.00000E+00         0.00000E+00         0.00000E+00
 
   -0.46165E+07         0.98141E+06         0.00000E+00
    0.98141E+06        -0.40284E+08         0.00000E+00
    0.00000E+00         0.00000E+00         0.00000E+00
 
   -0.34975E+07         0.18297E+07         0.00000E+00
    0.18297E+07        -0.40577E+08         0.00000E+00
    0.00000E+00         0.00000E+00         0.00000E+00
 
   -0.23496E+07         0.28633E+07         0.00000E+00
    0.28633E+07        -0.40939E+08         0.00000E+00
    0.00000E+00         0.00000E+00         0.00000E+00
 
   -0.16859E+07         0.40184E+07         0.00000E+00
    0.40184E+07        -0.41356E+08         0.00000E+00
    0.00000E+00         0.00000E+00        -0.47100E+06
 
   -0.16969E+07         0.51900E+07         0.00000E+00
    0.51900E+07        -0.41799E+08         0.00000E+00
    0.00000E+00         0.00000E+00        -0.13615E+07
 
   -0.20566E+08        -0.63617E+06         0.00000E+00
   -0.63617E+06        -0.40869E+08         0.00000E+00
    0.00000E+00         0.00000E+00         0.00000E+00
 
   -0.18666E+08        -0.15112E+07         0.00000E+00
   -0.15112E+07        -0.40950E+08         0.00000E+00
    0.00000E+00         0.00000E+00         0.00000E+00
 
   -0.16760E+08        -0.19374E+07         0.00000E+00
   -0.19374E+07        -0.41027E+08         0.00000E+00
    0.00000E+00         0.00000E+00         0.00000E+00
 
   -0.14972E+08        -0.20372E+07         0.00000E+00
   -0.20372E+07        -0.41055E+08         0.00000E+00
    0.00000E+00         0.00000E+00         0.00000E+00
 
   -0.13346E+08        -0.19214E+07         0.00000E+00
   -0.19214E+07        -0.41034E+08         0.00000E+00
    0.00000E+00         0.00000E+00         0.00000E+00
 
   -0.11871E+08        -0.16669E+07         0.00000E+00
   -0.16669E+07        -0.40989E+08         0.00000E+00
    0.00000E+00         0.00000E+00         0.00000E+00
 
   -0.10517E+08        -0.13185E+07         0.00000E+00
   -0.13185E+07        -0.40950E+08         0.00000E+00
    0.00000E+00         0.00000E+00         0.00000E+00
 
   -0.92480E+07        -0.89842E+06         0.00000E+00
   -0.89842E+06        -0.40939E+08         0.00000E+00
    0.00000E+00         0.00000E+00         0.00000E+00
 
   -0.80285E+07        -0.41354E+06         0.00000E+00
   -0.41354E+06        -0.40978E+08         0.00000E+00
    0.00000E+00         0.00000E+00         0.00000E+00
 
   -0.68253E+07         0.14050E+06         0.00000E+00
    0.14050E+06        -0.41084E+08         0.00000E+00
    0.00000E+00         0.00000E+00         0.00000E+00
 
   -0.56059E+07         0.77885E+06         0.00000E+00
    0.77885E+06        -0.41270E+08         0.00000E+00
    0.00000E+00         0.00000E+00         0.00000E+00
 
   -0.43344E+07         0.15326E+07         0.00000E+00
    0.15326E+07        -0.41552E+08         0.00000E+00
    0.00000E+00         0.00000E+00         0.00000E+00
 
   -0.29660E+07         0.24552E+07         0.00000E+00
    0.24552E+07        -0.41949E+08         0.00000E+00
    0.00000E+00         0.00000E+00         0.00000E+00
 
   -0.22650E+07         0.35391E+07         0.00000E+00
    0.35391E+07        -0.42432E+08         0.00000E+00
    0.00000E+00         0.00000E+00        -0.72218E+06
 
   -0.21626E+07         0.47501E+07         0.00000E+00
    0.47501E+07        -0.42939E+08         0.00000E+00
    0.00000E+00         0.00000E+00        -0.17337E+07
 
   -0.23594E+08        -0.68759E+06         0.00000E+00
   -0.68759E+06        -0.42726E+08         0.00000E+00
    0.00000E+00         0.00000E+00         0.00000E+00
 
   -0.21133E+08        -0.15562E+07         0.00000E+00
   -0.15562E+07        -0.42764E+08         0.00000E+00
    0.00000E+00         0.00000E+00         0.00000E+00
 
   -0.18815E+08        -0.19008E+07         0.00000E+00
   -0.19008E+07        -0.42734E+08         0.00000E+00
    0.00000E+00         0.00000E+00         0.00000E+00
 
   -0.16765E+08        -0.19206E+07         0.00000E+00
   -0.19206E+07        -0.42609E+08         0.00000E+00
    0.00000E+00         0.00000E+00         0.00000E+00
 
   -0.14977E+08        -0.17616E+07         0.00000E+00
   -0.17616E+07        -0.42426E+08         0.00000E+00
    0.00000E+00         0.00000E+00         0.00000E+00
 
   -0.13397E+08        -0.15031E+07         0.00000E+00
   -0.15031E+07        -0.42232E+08         0.00000E+00
    0.00000E+00         0.00000E+00         0.00000E+00
 
   -0.11966E+08        -0.11824E+07         0.00000E+00
   -0.11824E+07        -0.42064E+08         0.00000E+00
    0.00000E+00         0.00000E+00         0.00000E+00
 
   -0.10631E+08        -0.81450E+06         0.00000E+00
   -0.81450E+06        -0.41949E+08         0.00000E+00
    0.00000E+00         0.00000E+00         0.00000E+00
 
   -0.93451E+07        -0.40162E+06         0.00000E+00
   -0.40162E+06        -0.41906E+08         0.00000E+00
    0.00000E+00         0.00000E+00         0.00000E+00
 
   -0.80657E+07         0.63373E+05         0.00000E+00
    0.63373E+05        -0.41951E+08         0.00000E+00
    0.00000E+00         0.00000E+00         0.00000E+00
 
   -0.67501E+07         0.59603E+06         0.00000E+00
    0.59603E+06        -0.42100E+08         0.00000E+00
    0.00000E+00         0.00000E+00         0.00000E+00
 
   -0.53468E+07         0.12206E+07         0.00000E+00
    0.12206E+07        -0.42373E+08         0.00000E+00
    0.00000E+00         0.00000E+00         0.00000E+00
 
   -0.37879E+07         0.19793E+07         0.00000E+00
    0.19793E+07        -0.42802E+08         0.00000E+00
    0.00000E+00         0.00000E+00         0.00000E+00
 
   -0.28784E+07         0.29750E+07         0.00000E+00
    0.29750E+07        -0.43363E+08         0.00000E+00
    0.00000E+00         0.00000E+00        -0.81920E+06
 
   -0.26144E+07         0.42193E+07         0.00000E+00
    0.42193E+07        -0.43984E+08         0.00000E+00
    0.00000E+00         0.00000E+00        -0.20227E+07
 
   -0.26715E+08        -0.72534E+06         0.00000E+00
   -0.72534E+06        -0.44630E+08         0.00000E+00
    0.00000E+00         0.00000E+00         0.00000E+00
 
   -0.23556E+08        -0.15000E+07         0.00000E+00
   -0.15000E+07        -0.44581E+08         0.00000E+00
    0.00000E+00         0.00000E+00         0.00000E+00
 
   -0.20817E+08        -0.16916E+07         0.00000E+00
   -0.16916E+07        -0.44358E+08         0.00000E+00
    0.00000E+00         0.00000E+00         0.00000E+00
 
   -0.18553E+08        -0.16204E+07         0.00000E+00
   -0.16204E+07        -0.44010E+08         0.00000E+00
    0.00000E+00         0.00000E+00         0.00000E+00
 
   -0.16652E+08        -0.14395E+07         0.00000E+00
   -0.14395E+07        -0.43629E+08         0.00000E+00
    0.00000E+00         0.00000E+00         0.00000E+00
 
   -0.15003E+08        -0.12055E+07         0.00000E+00
   -0.12055E+07        -0.43273E+08         0.00000E+00
    0.00000E+00         0.00000E+00         0.00000E+00
 
   -0.13521E+08        -0.94012E+06         0.00000E+00
   -0.94012E+06        -0.42977E+08         0.00000E+00
    0.00000E+00         0.00000E+00         0.00000E+00
 
   -0.12140E+08        -0.64943E+06         0.00000E+00
   -0.64943E+06        -0.42762E+08         0.00000E+00
    0.00000E+00         0.00000E+00         0.00000E+00
 
   -0.10804E+08        -0.33121E+06         0.00000E+00
   -0.33121E+06        -0.42643E+08         0.00000E+00
    0.00000E+00         0.00000E+00         0.00000E+00
 
   -0.94645E+07         0.22865E+05         0.00000E+00
    0.22865E+05        -0.42636E+08         0.00000E+00
    0.00000E+00         0.00000E+00         0.00000E+00
 
   -0.80714E+07         0.42652E+06         0.00000E+00
    0.42652E+06        -0.42757E+08         0.00000E+00
    0.00000E+00         0.00000E+00         0.00000E+00
 
   -0.65702E+07         0.89771E+06         0.00000E+00
    0.89771E+06        -0.43025E+08         0.00000E+00
    0.00000E+00         0.00000E+00         0.00000E+00
 
   -0.48670E+07         0.14507E+07         0.00000E+00
    0.14507E+07        -0.43474E+08         0.00000E+00
    0.00000E+00         0.00000E+00         0.00000E+00
 
   -0.35557E+07         0.22855E+07         0.00000E+00
    0.22855E+07        -0.44117E+08         0.00000E+00
    0.00000E+00         0.00000E+00        -0.71842E+06
 
   -0.30610E+07         0.35142E+07         0.00000E+00
    0.35142E+07        -0.44932E+08         0.00000E+00
    0.00000E+00         0.00000E+00        -0.22061E+07
 
   -0.29829E+08        -0.71922E+06         0.00000E+00
   -0.71922E+06        -0.46560E+08         0.00000E+00
    0.00000E+00         0.00000E+00         0.00000E+00
 
   -0.25822E+08        -0.12129E+07         0.00000E+00
   -0.12129E+07        -0.46273E+08         0.00000E+00
    0.00000E+00         0.00000E+00         0.00000E+00
 
   -0.22752E+08        -0.12145E+07         0.00000E+00
   -0.12145E+07        -0.45721E+08         0.00000E+00
    0.00000E+00         0.00000E+00         0.00000E+00
 
   -0.20365E+08        -0.11012E+07         0.00000E+00
   -0.11012E+07        -0.45109E+08         0.00000E+00
    0.00000E+00         0.00000E+00         0.00000E+00
 
   -0.18405E+08        -0.94981E+06         0.00000E+00
   -0.94981E+06        -0.44533E+08         0.00000E+00
    0.00000E+00         0.00000E+00         0.00000E+00
 
   -0.16719E+08        -0.78218E+06         0.00000E+00
   -0.78218E+06        -0.44033E+08         0.00000E+00
    0.00000E+00         0.00000E+00         0.00000E+00
 
   -0.15207E+08        -0.60453E+06         0.00000E+00
   -0.60453E+06        -0.43629E+08         0.00000E+00
    0.00000E+00         0.00000E+00         0.00000E+00
 
   -0.13795E+08        -0.41675E+06         0.00000E+00
   -0.41675E+06        -0.43334E+08         0.00000E+00
    0.00000E+00         0.00000E+00         0.00000E+00
 
   -0.12424E+08        -0.21506E+06         0.00000E+00
   -0.21506E+06        -0.43158E+08         0.00000E+00
    0.00000E+00         0.00000E+00         0.00000E+00
 
   -0.11040E+08         0.74065E+04         0.00000E+00
    0.74065E+04        -0.43114E+08         0.00000E+00
    0.00000E+00         0.00000E+00         0.00000E+00
 
   -0.95905E+07         0.26055E+06         0.00000E+00
    0.26055E+06        -0.43217E+08         0.00000E+00
    0.00000E+00         0.00000E+00         0.00000E+00
 
   -0.80174E+07         0.55648E+06         0.00000E+00
    0.55648E+06        -0.43489E+08         0.00000E+00
    0.00000E+00         0.00000E+00         0.00000E+00
 
   -0.62682E+07         0.89728E+06         0.00000E+00
    0.89728E+06        -0.43958E+08         0.00000E+00
    0.00000E+00         0.00000E+00         0.00000E+00
 
   -0.44064E+07         0.14287E+07         0.00000E+00
    0.14287E+07        -0.44710E+08         0.00000E+00
    0.00000E+00         0.00000E+00        -0.36943E+06
 
   -0.35348E+07         0.25179E+07         0.00000E+00
    0.25179E+07        -0.45766E+08         0.00000E+00
    0.00000E+00         0.00000E+00        -0.22484E+07
 
   -0.32658E+08        -0.43543E+06         0.00000E+00
   -0.43543E+06        -0.48182E+08         0.00000E+00
    0.00000E+00         0.00000E+00         0.00000E+00
 
   -0.27881E+08        -0.49379E+06         0.00000E+00
   -0.49379E+06        -0.47408E+08         0.00000E+00
    0.00000E+00         0.00000E+00         0.00000E+00
 
   -0.24696E+08        -0.44774E+06         0.00000E+00
   -0.44774E+06        -0.46530E+08         0.00000E+00
    0.00000E+00         0.00000E+00         0.00000E+00
 
   -0.22265E+08        -0.39192E+06         0.00000E+00
   -0.39192E+06        -0.45724E+08         0.00000E+00
    0.00000E+00         0.00000E+00         0.00000E+00
 
   -0.20280E+08        -0.33183E+06         0.00000E+00
   -0.33183E+06        -0.45022E+08         0.00000E+00
    0.00000E+00         0.00000E+00         0.00000E+00
 
   -0.18576E+08        -0.27033E+06         0.00000E+00
   -0.27033E+06        -0.44436E+08         0.00000E+00
    0.00000E+00         0.00000E+00         0.00000E+00
 
   -0.17046E+08        -0.20752E+06         0.00000E+00
   -0.20752E+06        -0.43971E+08         0.00000E+00
    0.00000E+00         0.00000E+00         0.00000E+00
 
   -0.15614E+08        -0.14244E+06         0.00000E+00
   -0.14244E+06        -0.43631E+08         0.00000E+00
    0.00000E+00         0.00000E+00         0.00000E+00
 
   -0.14219E+08        -0.73307E+05         0.00000E+00
   -0.73307E+05        -0.43424E+08         0.00000E+00
    0.00000E+00         0.00000E+00         0.00000E+00
 
   -0.12807E+08         0.25665E+04         0.00000E+00
    0.25665E+04        -0.43359E+08         0.00000E+00
    0.00000E+00         0.00000E+00         0.00000E+00
 
   -0.11323E+08         0.88955E+05         0.00000E+00
    0.88955E+05        -0.43455E+08         0.00000E+00
    0.00000E+00         0.00000E+00         0.00000E+00
 
   -0.97117E+07         0.18947E+06         0.00000E+00
    0.18947E+06        -0.43735E+08         0.00000E+00
    0.00000E+00         0.00000E+00         0.00000E+00
 
   -0.79211E+07         0.31001E+06         0.00000E+00
    0.31001E+06        -0.44229E+08         0.00000E+00
    0.00000E+00         0.00000E+00         0.00000E+00
 
   -0.57714E+07         0.47418E+06         0.00000E+00
    0.47418E+06        -0.45056E+08         0.00000E+00
    0.00000E+00         0.00000E+00        -0.11837E+05
 
   -0.41619E+07         0.97085E+06         0.00000E+00
    0.97085E+06        -0.46448E+08         0.00000E+00
    0.00000E+00         0.00000E+00        -0.20632E+07
 
TENSORS stresstot double 
   -0.30964E+08         0.38917E+06         0.00000E+00
    0.38917E+06        -0.58809E+08         0.00000E+00
    0.00000E+00         0.00000E+00        -0.52660E+08
 
   -0.30771E+08         0.17756E+06         0.00000E+00
    0.17756E+06        -0.58333E+08         0.00000E+00
    0.00000E+00         0.00000E+00        -0.52308E+08
 
   -0.30938E+08        -0.96573E+05         0.00000E+00
   -0.96573E+05        -0.58523E+08         0.00000E+00
    0.00000E+00         0.00000E+00        -0.52128E+08
 
   -0.31349E+08        -0.34920E+06         0.00000E+00
   -0.34920E+06        -0.59344E+08         0.00000E+00
    0.00000E+00         0.00000E+00        -0.52068E+08
 
   -0.32595E+08        -0.64974E+06         0.00000E+00
   -0.64974E+06        -0.60466E+08         0.00000E+00
    0.00000E+00         0.00000E+00        -0.52153E+08
 
   -0.35392E+08        -0.58464E+06         0.00000E+00
   -0.58464E+06        -0.61533E+08         0.00000E+00
    0.00000E+00         0.00000E+00        -0.52379E+08
 
   -0.37325E+08        -0.39709E+06         0.00000E+00
   -0.39709E+06        -0.62411E+08         0.00000E+00
    0.00000E+00         0.00000E+00        -0.52620E+08
 
   -0.38925E+08        -0.26886E+06         0.00000E+00
   -0.26886E+06        -0.63036E+08         0.00000E+00
    0.00000E+00         0.00000E+00        -0.52851E+08
 
   -0.40399E+08        -0.16723E+06         0.00000E+00
   -0.16723E+06        -0.63451E+08         0.00000E+00
    0.00000E+00         0.00000E+00        -0.53066E+08
 
   -0.41841E+08        -0.75736E+05         0.00000E+00
   -0.75736E+05        -0.63682E+08         0.00000E+00
    0.00000E+00         0.00000E+00        -0.53261E+08
 
   -0.43318E+08         0.16163E+05         0.00000E+00
    0.16163E+05        -0.63734E+08         0.00000E+00
    0.00000E+00         0.00000E+00        -0.53433E+08
 
   -0.44902E+08         0.11817E+06         0.00000E+00
    0.11817E+06        -0.63594E+08         0.00000E+00
    0.00000E+00         0.00000E+00        -0.53579E+08
 
   -0.46691E+08         0.24539E+06         0.00000E+00
    0.24539E+06        -0.63227E+08         0.00000E+00
    0.00000E+00         0.00000E+00        -0.53696E+08
 
   -0.48866E+08         0.42927E+06         0.00000E+00
    0.42927E+06        -0.62550E+08         0.00000E+00
    0.00000E+00         0.00000E+00        -0.53779E+08
 
   -0.51958E+08         0.86417E+06         0.00000E+00
    0.86417E+06        -0.61300E+08         0.00000E+00
    0.00000E+00         0.00000E+00        -0.53824E+08
 
   -0.30636E+08         0.44828E+06         0.00000E+00
    0.44828E+06        -0.60887E+08         0.00000E+00
    0.00000E+00         0.00000E+00        -0.50754E+08
 
   -0.30927E+08         0.30528E+06         0.00000E+00
    0.30528E+06        -0.61484E+08         0.00000E+00
    0.00000E+00         0.00000E+00        -0.50277E+08
 
   -0.31095E+08        -0.15954E+06         0.00000E+00
   -0.15954E+06        -0.61393E+08         0.00000E+00
    0.00000E+00         0.00000E+00        -0.50117E+08
 
   -0.31861E+08        -0.66793E+06         0.00000E+00
   -0.66793E+06        -0.60932E+08         0.00000E+00
    0.00000E+00         0.00000E+00        -0.50244E+08
 
   -0.33142E+08        -0.12282E+07         0.00000E+00
   -0.12282E+07        -0.60702E+08         0.00000E+00
    0.00000E+00         0.00000E+00        -0.50412E+08
 
   -0.35165E+08        -0.12816E+07         0.00000E+00
   -0.12816E+07        -0.60921E+08         0.00000E+00
    0.00000E+00         0.00000E+00        -0.50603E+08
 
   -0.37098E+08        -0.99602E+06         0.00000E+00
   -0.99602E+06        -0.61301E+08         0.00000E+00
    0.00000E+00         0.00000E+00        -0.50807E+08
 
   -0.38731E+08        -0.70752E+06         0.00000E+00
   -0.70752E+06        -0.61676E+08         0.00000E+00
    0.00000E+00         0.00000E+00        -0.51012E+08
 
   -0.40224E+08        -0.44470E+06         0.00000E+00
   -0.44470E+06        -0.61952E+08         0.00000E+00
    0.00000E+00         0.00000E+00        -0.51207E+08
 
   -0.41668E+08        -0.19099E+06         0.00000E+00
   -0.19099E+06        -0.62098E+08         0.00000E+00
    0.00000E+00         0.00000E+00        -0.51386E+08
 
   -0.43132E+08         0.73044E+05         0.00000E+00
    0.73044E+05        -0.62095E+08         0.00000E+00
    0.00000E+00         0.00000E+00        -0.51546E+08
 
   -0.44681E+08         0.37150E+06         0.00000E+00
    0.37150E+06        -0.61918E+08         0.00000E+00
    0.00000E+00         0.00000E+00        -0.51681E+08
 
   -0.46397E+08         0.74456E+06         0.00000E+00
    0.74456E+06        -0.61531E+08         0.00000E+00
    0.00000E+00         0.00000E+00        -0.51789E+08
 
   -0.48400E+08         0.12861E+07         0.00000E+00
    0.12861E+07        -0.60866E+08         0.00000E+00
    0.00000E+00         0.00000E+00        -0.51865E+08
 
   -0.50704E+08         0.22991E+07         0.00000E+00
    0.22991E+07        -0.59854E+08         0.00000E+00
    0.00000E+00         0.00000E+00        -0.51905E+08
 
   -0.30151E+08        -0.10829E+06         0.00000E+00
   -0.10829E+06        -0.60484E+08         0.00000E+00
    0.00000E+00         0.00000E+00        -0.48545E+08
 
   -0.31268E+08         0.14795E+05         0.00000E+00
    0.14795E+05        -0.60510E+08         0.00000E+00
    0.00000E+00         0.00000E+00        -0.48554E+08
 
   -0.31683E+08        -0.22837E+06         0.00000E+00
   -0.22837E+06        -0.60627E+08         0.00000E+00
    0.00000E+00         0.00000E+00        -0.48633E+08
 
   -0.32354E+08        -0.65669E+06         0.00000E+00
   -0.65669E+06        -0.60787E+08         0.00000E+00
    0.00000E+00         0.00000E+00        -0.48733E+08
 
   -0.33504E+08        -0.11243E+07         0.00000E+00
   -0.11243E+07        -0.60795E+08         0.00000E+00
    0.00000E+00         0.00000E+00        -0.48853E+08
 
   -0.35103E+08        -0.13446E+07         0.00000E+00
   -0.13446E+07        -0.60703E+08         0.00000E+00
    0.00000E+00         0.00000E+00        -0.48997E+08
 
   -0.36828E+08        -0.12190E+07         0.00000E+00
   -0.12190E+07        -0.60707E+08         0.00000E+00
    0.00000E+00         0.00000E+00        -0.49159E+08
 
   -0.38433E+08        -0.92809E+06         0.00000E+00
   -0.92809E+06        -0.60799E+08         0.00000E+00
    0.00000E+00         0.00000E+00        -0.49329E+08
 
   -0.39918E+08        -0.58741E+06         0.00000E+00
   -0.58741E+06        -0.60888E+08         0.00000E+00
    0.00000E+00         0.00000E+00        -0.49496E+08
 
   -0.41347E+08        -0.21863E+06         0.00000E+00
   -0.21863E+06        -0.60910E+08         0.00000E+00
    0.00000E+00         0.00000E+00        -0.49653E+08
 
   -0.42776E+08         0.18788E+06         0.00000E+00
    0.18788E+06        -0.60824E+08         0.00000E+00
    0.00000E+00         0.00000E+00        -0.49794E+08
 
   -0.44256E+08         0.65934E+06         0.00000E+00
    0.65934E+06        -0.60597E+08         0.00000E+00
    0.00000E+00         0.00000E+00        -0.49915E+08
 
   -0.45838E+08         0.12482E+07         0.00000E+00
    0.12482E+07        -0.60198E+08         0.00000E+00
    0.00000E+00         0.00000E+00        -0.50011E+08
 
   -0.47540E+08         0.20630E+07         0.00000E+00
    0.20630E+07        -0.59597E+08         0.00000E+00
    0.00000E+00         0.00000E+00        -0.50079E+08
 
   -0.49272E+08         0.32684E+07         0.00000E+00
    0.32684E+07        -0.58839E+08         0.00000E+00
    0.00000E+00         0.00000E+00        -0.50115E+08
 
   -0.30317E+08        -0.20036E+06         0.00000E+00
   -0.20036E+06        -0.59964E+08         0.00000E+00
    0.00000E+00         0.00000E+00        -0.47175E+08
 
   -0.31297E+08        -0.27414E+06         0.00000E+00
   -0.27414E+06        -0.60098E+08         0.00000E+00
    0.00000E+00         0.00000E+00        -0.47206E+08
 
   -0.31993E+08        -0.42810E+06         0.00000E+00
   -0.42810E+06        -0.60327E+08         0.00000E+00
    0.00000E+00         0.00000E+00        -0.47259E+08
 
   -0.32762E+08        -0.74953E+06         0.00000E+00
   -0.74953E+06        -0.60461E+08         0.00000E+00
    0.00000E+00         0.00000E+00        -0.47329E+08
 
   -0.33820E+08        -0.10669E+07         0.00000E+00
   -0.10669E+07        -0.60477E+08         0.00000E+00
    0.00000E+00         0.00000E+00        -0.47418E+08
 
   -0.35155E+08        -0.12388E+07         0.00000E+00
   -0.12388E+07        -0.60396E+08         0.00000E+00
    0.00000E+00         0.00000E+00        -0.47525E+08
 
   -0.36634E+08        -0.11867E+07         0.00000E+00
   -0.11867E+07        -0.60289E+08         0.00000E+00
    0.00000E+00         0.00000E+00        -0.47650E+08
 
   -0.38116E+08        -0.94299E+06         0.00000E+00
   -0.94299E+06        -0.60212E+08         0.00000E+00
    0.00000E+00         0.00000E+00        -0.47783E+08
 
   -0.39539E+08        -0.58192E+06         0.00000E+00
   -0.58192E+06        -0.60148E+08         0.00000E+00
    0.00000E+00         0.00000E+00        -0.47919E+08
 
   -0.40917E+08        -0.14329E+06         0.00000E+00
   -0.14329E+06        -0.60053E+08         0.00000E+00
    0.00000E+00         0.00000E+00        -0.48050E+08
 
   -0.42280E+08         0.36937E+06         0.00000E+00
    0.36937E+06        -0.59887E+08         0.00000E+00
    0.00000E+00         0.00000E+00        -0.48169E+08
 
   -0.43660E+08         0.97744E+06         0.00000E+00
    0.97744E+06        -0.59618E+08         0.00000E+00
    0.00000E+00         0.00000E+00        -0.48272E+08
 
   -0.45072E+08         0.17279E+07         0.00000E+00
    0.17279E+07        -0.59225E+08         0.00000E+00
    0.00000E+00         0.00000E+00        -0.48355E+08
 
   -0.46491E+08         0.26946E+07         0.00000E+00
    0.26946E+07        -0.58712E+08         0.00000E+00
    0.00000E+00         0.00000E+00        -0.48414E+08
 
   -0.47825E+08         0.39597E+07         0.00000E+00
    0.39597E+07        -0.58131E+08         0.00000E+00
    0.00000E+00         0.00000E+00        -0.48445E+08
 
   -0.30604E+08        -0.17897E+06         0.00000E+00
   -0.17897E+06        -0.59993E+08         0.00000E+00
    0.00000E+00         0.00000E+00        -0.45922E+08
 
   -0.31427E+08        -0.41432E+06         0.00000E+00
   -0.41432E+06        -0.60018E+08         0.00000E+00
    0.00000E+00         0.00000E+00        -0.45941E+08
 
   -0.32215E+08        -0.59345E+06         0.00000E+00
   -0.59345E+06        -0.60107E+08         0.00000E+00
    0.00000E+00         0.00000E+00        -0.45976E+08
 
   -0.33044E+08        -0.81144E+06         0.00000E+00
   -0.81144E+06        -0.60183E+08         0.00000E+00
    0.00000E+00         0.00000E+00        -0.46024E+08
 
   -0.34032E+08        -0.10180E+07         0.00000E+00
   -0.10180E+07        -0.60174E+08         0.00000E+00
    0.00000E+00         0.00000E+00        -0.46086E+08
 
   -0.35198E+08        -0.11188E+07         0.00000E+00
   -0.11188E+07        -0.60084E+08         0.00000E+00
    0.00000E+00         0.00000E+00        -0.46164E+08
 
   -0.36483E+08        -0.10578E+07         0.00000E+00
   -0.10578E+07        -0.59947E+08         0.00000E+00
    0.00000E+00         0.00000E+00        -0.46255E+08
 
   -0.37809E+08        -0.82963E+06         0.00000E+00
   -0.82963E+06        -0.59796E+08         0.00000E+00
    0.00000E+00         0.00000E+00        -0.46356E+08
 
   -0.39124E+08        -0.46169E+06         0.00000E+00
   -0.46169E+06        -0.59641E+08         0.00000E+00
    0.00000E+00         0.00000E+00        -0.46461E+08
 
   -0.40413E+08         0.19297E+05         0.00000E+00
    0.19297E+05        -0.59463E+08         0.00000E+00
    0.00000E+00         0.00000E+00        -0.46564E+08
 
   -0.41681E+08         0.60548E+06         0.00000E+00
    0.60548E+06        -0.59238E+08         0.00000E+00
    0.00000E+00         0.00000E+00        -0.46660E+08
 
   -0.42937E+08         0.13097E+07         0.00000E+00
    0.13097E+07        -0.58944E+08         0.00000E+00
    0.00000E+00         0.00000E+00        -0.46744E+08
 
   -0.44176E+08         0.21625E+07         0.00000E+00
    0.21625E+07        -0.58572E+08         0.00000E+00
    0.00000E+00         0.00000E+00        -0.46812E+08
 
   -0.45361E+08         0.32055E+07         0.00000E+00
    0.32055E+07        -0.58136E+08         0.00000E+00
    0.00000E+00         0.00000E+00        -0.46861E+08
 
   -0.46413E+08         0.44749E+07         0.00000E+00
    0.44749E+07        -0.57679E+08         0.00000E+00
    0.00000E+00         0.00000E+00        -0.46887E+08
 
   -0.30919E+08        -0.17134E+06         0.00000E+00
   -0.17134E+06        -0.59992E+08         0.00000E+00
    0.00000E+00         0.00000E+00        -0.44746E+08
 
   -0.31640E+08        -0.44212E+06         0.00000E+00
   -0.44212E+06        -0.59990E+08         0.00000E+00
    0.00000E+00         0.00000E+00        -0.44756E+08
 
   -0.32408E+08        -0.64883E+06         0.00000E+00
   -0.64883E+06        -0.59998E+08         0.00000E+00
    0.00000E+00         0.00000E+00        -0.44775E+08
 
   -0.33234E+08        -0.82281E+06         0.00000E+00
   -0.82281E+06        -0.59996E+08         0.00000E+00
    0.00000E+00         0.00000E+00        -0.44804E+08
 
   -0.34158E+08        -0.95169E+06         0.00000E+00
   -0.95169E+06        -0.59949E+08         0.00000E+00
    0.00000E+00         0.00000E+00        -0.44844E+08
 
   -0.35197E+08        -0.98929E+06         0.00000E+00
   -0.98929E+06        -0.59842E+08         0.00000E+00
    0.00000E+00         0.00000E+00        -0.44895E+08
 
   -0.36327E+08        -0.89526E+06         0.00000E+00
   -0.89526E+06        -0.59689E+08         0.00000E+00
    0.00000E+00         0.00000E+00        -0.44957E+08
 
   -0.37502E+08        -0.65458E+06         0.00000E+00
   -0.65458E+06        -0.59508E+08         0.00000E+00
    0.00000E+00         0.00000E+00        -0.45028E+08
 
   -0.38687E+08        -0.27275E+06         0.00000E+00
   -0.27275E+06        -0.59309E+08         0.00000E+00
    0.00000E+00         0.00000E+00        -0.45103E+08
 
   -0.39859E+08         0.23862E+06         0.00000E+00
    0.23862E+06        -0.59086E+08         0.00000E+00
    0.00000E+00         0.00000E+00        -0.45179E+08
 
   -0.41010E+08         0.87413E+06         0.00000E+00
    0.87413E+06        -0.58830E+08         0.00000E+00
    0.00000E+00         0.00000E+00        -0.45251E+08
 
   -0.42132E+08         0.16396E+07         0.00000E+00
    0.16396E+07        -0.58530E+08         0.00000E+00
    0.00000E+00         0.00000E+00        -0.45316E+08
 
   -0.43209E+08         0.25505E+07         0.00000E+00
    0.25505E+07        -0.58185E+08         0.00000E+00
    0.00000E+00         0.00000E+00        -0.45369E+08
 
   -0.44203E+08         0.36252E+07         0.00000E+00
    0.36252E+07        -0.57811E+08         0.00000E+00
    0.00000E+00         0.00000E+00        -0.45407E+08
 
   -0.45054E+08         0.48732E+07         0.00000E+00
    0.48732E+07        -0.57442E+08         0.00000E+00
    0.00000E+00         0.00000E+00        -0.45428E+08
 
   -0.31229E+08        -0.15952E+06         0.00000E+00
   -0.15952E+06        -0.59990E+08         0.00000E+00
    0.00000E+00         0.00000E+00        -0.43636E+08
 
   -0.31875E+08        -0.42735E+06         0.00000E+00
   -0.42735E+06        -0.59969E+08         0.00000E+00
    0.00000E+00         0.00000E+00        -0.43639E+08
 
   -0.32591E+08        -0.63297E+06         0.00000E+00
   -0.63297E+06        -0.59937E+08         0.00000E+00
    0.00000E+00         0.00000E+00        -0.43645E+08
 
   -0.33370E+08        -0.78128E+06         0.00000E+00
   -0.78128E+06        -0.59888E+08         0.00000E+00
    0.00000E+00         0.00000E+00        -0.43657E+08
 
   -0.34222E+08        -0.86194E+06         0.00000E+00
   -0.86194E+06        -0.59808E+08         0.00000E+00
    0.00000E+00         0.00000E+00        -0.43675E+08
 
   -0.35151E+08        -0.85001E+06         0.00000E+00
   -0.85001E+06        -0.59687E+08         0.00000E+00
    0.00000E+00         0.00000E+00        -0.43702E+08
 
   -0.36145E+08        -0.71943E+06         0.00000E+00
   -0.71943E+06        -0.59526E+08         0.00000E+00
    0.00000E+00         0.00000E+00        -0.43738E+08
 
   -0.37179E+08        -0.45472E+06         0.00000E+00
   -0.45472E+06        -0.59335E+08         0.00000E+00
    0.00000E+00         0.00000E+00        -0.43781E+08
 
   -0.38228E+08        -0.52490E+05         0.00000E+00
   -0.52490E+05        -0.59120E+08         0.00000E+00
    0.00000E+00         0.00000E+00        -0.43829E+08
 
   -0.39271E+08         0.48432E+06         0.00000E+00
    0.48432E+06        -0.58882E+08         0.00000E+00
    0.00000E+00         0.00000E+00        -0.43880E+08
 
   -0.40293E+08         0.11531E+07         0.00000E+00
    0.11531E+07        -0.58619E+08         0.00000E+00
    0.00000E+00         0.00000E+00        -0.43929E+08
 
   -0.41279E+08         0.19551E+07         0.00000E+00
    0.19551E+07        -0.58328E+08         0.00000E+00
    0.00000E+00         0.00000E+00        -0.43974E+08
 
   -0.42208E+08         0.28951E+07         0.00000E+00
    0.28951E+07        -0.58013E+08         0.00000E+00
    0.00000E+00         0.00000E+00        -0.44012E+08
 
   -0.43047E+08         0.39762E+07         0.00000E+00
    0.39762E+07        -0.57690E+08         0.00000E+00
    0.00000E+00         0.00000E+00        -0.44040E+08
 
   -0.43749E+08         0.51927E+07         0.00000E+00
    0.51927E+07        -0.57383E+08         0.00000E+00
    0.00000E+00         0.00000E+00        -0.44055E+08
 
   -0.31517E+08        -0.14259E+06         0.00000E+00
   -0.14259E+06        -0.59989E+08         0.00000E+00
    0.00000E+00         0.00000E+00        -0.42580E+08
 
   -0.32103E+08        -0.39085E+06         0.00000E+00
   -0.39085E+06        -0.59959E+08         0.00000E+00
    0.00000E+00         0.00000E+00        -0.42576E+08
 
   -0.32759E+08        -0.58203E+06         0.00000E+00
   -0.58203E+06        -0.59908E+08         0.00000E+00
    0.00000E+00         0.00000E+00        -0.42570E+08
 
   -0.33473E+08        -0.70751E+06         0.00000E+00
   -0.70751E+06        -0.59837E+08         0.00000E+00
    0.00000E+00         0.00000E+00        -0.42566E+08
 
   -0.34241E+08        -0.75456E+06         0.00000E+00
   -0.75456E+06        -0.59740E+08         0.00000E+00
    0.00000E+00         0.00000E+00        -0.42565E+08
 
   -0.35065E+08        -0.70537E+06         0.00000E+00
   -0.70537E+06        -0.59612E+08         0.00000E+00
    0.00000E+00         0.00000E+00        -0.42570E+08
 
   -0.35934E+08        -0.54178E+06         0.00000E+00
   -0.54178E+06        -0.59452E+08         0.00000E+00
    0.00000E+00         0.00000E+00        -0.42582E+08
 
   -0.36834E+08        -0.25071E+06         0.00000E+00
   -0.25071E+06        -0.59264E+08         0.00000E+00
    0.00000E+00         0.00000E+00        -0.42600E+08
 
   -0.37747E+08         0.17390E+06         0.00000E+00
    0.17390E+06        -0.59053E+08         0.00000E+00
    0.00000E+00         0.00000E+00        -0.42623E+08
 
   -0.38657E+08         0.73285E+06         0.00000E+00
    0.73285E+06        -0.58819E+08         0.00000E+00
    0.00000E+00         0.00000E+00        -0.42650E+08
 
   -0.39546E+08         0.14247E+07         0.00000E+00
    0.14247E+07        -0.58566E+08         0.00000E+00
    0.00000E+00         0.00000E+00        -0.42678E+08
 
   -0.40399E+08         0.22478E+07         0.00000E+00
    0.22478E+07        -0.58295E+08         0.00000E+00
    0.00000E+00         0.00000E+00        -0.42704E+08
 
   -0.41195E+08         0.31998E+07         0.00000E+00
    0.31998E+07        -0.58013E+08         0.00000E+00
    0.00000E+00         0.00000E+00        -0.42727E+08
 
   -0.41906E+08         0.42745E+07         0.00000E+00
    0.42745E+07        -0.57732E+08         0.00000E+00
    0.00000E+00         0.00000E+00        -0.42744E+08
 
   -0.42496E+08         0.54578E+07         0.00000E+00
    0.54578E+07        -0.57471E+08         0.00000E+00
    0.00000E+00         0.00000E+00        -0.42754E+08
 
   -0.31773E+08        -0.12371E+06         0.00000E+00
   -0.12371E+06        -0.59990E+08         0.00000E+00
    0.00000E+00         0.00000E+00        -0.41562E+08
 
   -0.32314E+08        -0.34604E+06         0.00000E+00
   -0.34604E+06        -0.59958E+08         0.00000E+00
    0.00000E+00         0.00000E+00        -0.41552E+08
 
   -0.32909E+08        -0.51757E+06         0.00000E+00
   -0.51757E+06        -0.59903E+08         0.00000E+00
    0.00000E+00         0.00000E+00        -0.41535E+08
 
   -0.33549E+08        -0.62144E+06         0.00000E+00
   -0.62144E+06        -0.59827E+08         0.00000E+00
    0.00000E+00         0.00000E+00        -0.41516E+08
 
   -0.34229E+08        -0.64207E+06         0.00000E+00
   -0.64207E+06        -0.59729E+08         0.00000E+00
    0.00000E+00         0.00000E+00        -0.41497E+08
 
   -0.34946E+08        -0.56377E+06         0.00000E+00
   -0.56377E+06        -0.59605E+08         0.00000E+00
    0.00000E+00         0.00000E+00        -0.41482E+08
 
   -0.35694E+08        -0.37214E+06         0.00000E+00
   -0.37214E+06        -0.59456E+08         0.00000E+00
    0.00000E+00         0.00000E+00        -0.41471E+08
 
   -0.36465E+08        -0.56325E+05         0.00000E+00
   -0.56325E+05        -0.59282E+08         0.00000E+00
    0.00000E+00         0.00000E+00        -0.41467E+08
 
   -0.37245E+08         0.38979E+06         0.00000E+00
    0.38979E+06        -0.59086E+08         0.00000E+00
    0.00000E+00         0.00000E+00        -0.41467E+08
 
   -0.38022E+08         0.96791E+06         0.00000E+00
    0.96791E+06        -0.58871E+08         0.00000E+00
    0.00000E+00         0.00000E+00        -0.41472E+08
 
   -0.38781E+08         0.16766E+07         0.00000E+00
    0.16766E+07        -0.58639E+08         0.00000E+00
    0.00000E+00         0.00000E+00        -0.41480E+08
 
   -0.39507E+08         0.25118E+07         0.00000E+00
    0.25118E+07        -0.58396E+08         0.00000E+00
    0.00000E+00         0.00000E+00        -0.41490E+08
 
   -0.40182E+08         0.34670E+07         0.00000E+00
    0.34670E+07        -0.58147E+08         0.00000E+00
    0.00000E+00         0.00000E+00        -0.41499E+08
 
   -0.40784E+08         0.45308E+07         0.00000E+00
    0.45308E+07        -0.57903E+08         0.00000E+00
    0.00000E+00         0.00000E+00        -0.41506E+08
 
   -0.41288E+08         0.56844E+07         0.00000E+00
    0.56844E+07        -0.57679E+08         0.00000E+00
    0.00000E+00         0.00000E+00        -0.41510E+08
 
   -0.31998E+08        -0.10629E+06         0.00000E+00
   -0.10629E+06        -0.59992E+08         0.00000E+00
    0.00000E+00         0.00000E+00        -0.40566E+08
 
   -0.32502E+08        -0.30283E+06         0.00000E+00
   -0.30283E+06        -0.59964E+08         0.00000E+00
    0.00000E+00         0.00000E+00        -0.40550E+08
 
   -0.33039E+08        -0.45430E+06         0.00000E+00
   -0.45430E+06        -0.59915E+08         0.00000E+00
    0.00000E+00         0.00000E+00        -0.40523E+08
 
   -0.33603E+08        -0.53838E+06         0.00000E+00
   -0.53838E+06        -0.59847E+08         0.00000E+00
    0.00000E+00         0.00000E+00        -0.40490E+08
 
   -0.34190E+08        -0.53707E+06         0.00000E+00
   -0.53707E+06        -0.59760E+08         0.00000E+00
    0.00000E+00         0.00000E+00        -0.40455E+08
 
   -0.34800E+08        -0.43507E+06         0.00000E+00
   -0.43507E+06        -0.59652E+08         0.00000E+00
    0.00000E+00         0.00000E+00        -0.40422E+08
 
   -0.35430E+08        -0.21977E+06         0.00000E+00
   -0.21977E+06        -0.59523E+08         0.00000E+00
    0.00000E+00         0.00000E+00        -0.40392E+08
 
   -0.36074E+08         0.11807E+06         0.00000E+00
    0.11807E+06        -0.59372E+08         0.00000E+00
    0.00000E+00         0.00000E+00        -0.40367E+08
 
   -0.36724E+08         0.58373E+06         0.00000E+00
    0.58373E+06        -0.59201E+08         0.00000E+00
    0.00000E+00         0.00000E+00        -0.40347E+08
 
   -0.37370E+08         0.11786E+07         0.00000E+00
    0.11786E+07        -0.59013E+08         0.00000E+00
    0.00000E+00         0.00000E+00        -0.40333E+08
 
   -0.38003E+08         0.19004E+07         0.00000E+00
    0.19004E+07        -0.58811E+08         0.00000E+00
    0.00000E+00         0.00000E+00        -0.40323E+08
 
   -0.38609E+08         0.27436E+07         0.00000E+00
    0.27436E+07        -0.58600E+08         0.00000E+00
    0.00000E+00         0.00000E+00        -0.40316E+08
 
   -0.39173E+08         0.36989E+07         0.00000E+00
    0.36989E+07        -0.58385E+08         0.00000E+00
    0.00000E+00         0.00000E+00        -0.40312E+08
 
   -0.39681E+08         0.47520E+07         0.00000E+00
    0.47520E+07        -0.58175E+08         0.00000E+00
    0.00000E+00         0.00000E+00        -0.40311E+08
 
   -0.40114E+08         0.58823E+07         0.00000E+00
    0.58823E+07        -0.57980E+08         0.00000E+00
    0.00000E+00         0.00000E+00        -0.40310E+08
 
   -0.32194E+08        -0.92985E+05         0.00000E+00
   -0.92985E+05        -0.59995E+08         0.00000E+00
    0.00000E+00         0.00000E+00        -0.39576E+08
 
   -0.32670E+08        -0.26852E+06         0.00000E+00
   -0.26852E+06        -0.59976E+08         0.00000E+00
    0.00000E+00         0.00000E+00        -0.39555E+08
 
   -0.33151E+08        -0.40271E+06         0.00000E+00
   -0.40271E+06        -0.59941E+08         0.00000E+00
    0.00000E+00         0.00000E+00        -0.39519E+08
 
   -0.33638E+08        -0.46983E+06         0.00000E+00
   -0.46983E+06        -0.59890E+08         0.00000E+00
    0.00000E+00         0.00000E+00        -0.39474E+08
 
   -0.34131E+08        -0.45020E+06         0.00000E+00
   -0.45020E+06        -0.59824E+08         0.00000E+00
    0.00000E+00         0.00000E+00        -0.39425E+08
 
   -0.34633E+08        -0.32846E+06         0.00000E+00
   -0.32846E+06        -0.59740E+08         0.00000E+00
    0.00000E+00         0.00000E+00        -0.39375E+08
 
   -0.35144E+08        -0.92959E+05         0.00000E+00
   -0.92959E+05        -0.59638E+08         0.00000E+00
    0.00000E+00         0.00000E+00        -0.39328E+08
 
   -0.35663E+08         0.26432E+06         0.00000E+00
    0.26432E+06        -0.59517E+08         0.00000E+00
    0.00000E+00         0.00000E+00        -0.39285E+08
 
   -0.36185E+08         0.74764E+06         0.00000E+00
    0.74764E+06        -0.59379E+08         0.00000E+00
    0.00000E+00         0.00000E+00        -0.39247E+08
 
   -0.36705E+08         0.13575E+07         0.00000E+00
    0.13575E+07        -0.59225E+08         0.00000E+00
    0.00000E+00         0.00000E+00        -0.39215E+08
 
   -0.37215E+08         0.20909E+07         0.00000E+00
    0.20909E+07        -0.59058E+08         0.00000E+00
    0.00000E+00         0.00000E+00        -0.39189E+08
 
   -0.37706E+08         0.29408E+07         0.00000E+00
    0.29408E+07        -0.58882E+08         0.00000E+00
    0.00000E+00         0.00000E+00        -0.39169E+08
 
   -0.38168E+08         0.38965E+07         0.00000E+00
    0.38965E+07        -0.58702E+08         0.00000E+00
    0.00000E+00         0.00000E+00        -0.39154E+08
 
   -0.38591E+08         0.49426E+07         0.00000E+00
    0.49426E+07        -0.58523E+08         0.00000E+00
    0.00000E+00         0.00000E+00        -0.39144E+08
 
   -0.38965E+08         0.60577E+07         0.00000E+00
    0.60577E+07        -0.58353E+08         0.00000E+00
    0.00000E+00         0.00000E+00        -0.39139E+08
 
   -0.32371E+08        -0.85595E+05         0.00000E+00
   -0.85595E+05        -0.59999E+08         0.00000E+00
    0.00000E+00         0.00000E+00        -0.38576E+08
 
   -0.32823E+08        -0.24820E+06         0.00000E+00
   -0.24820E+06        -0.59991E+08         0.00000E+00
    0.00000E+00         0.00000E+00        -0.38551E+08
 
   -0.33249E+08        -0.37023E+06         0.00000E+00
   -0.37023E+06        -0.59974E+08         0.00000E+00
    0.00000E+00         0.00000E+00        -0.38507E+08
 
   -0.33657E+08        -0.42426E+06         0.00000E+00
   -0.42426E+06        -0.59948E+08         0.00000E+00
    0.00000E+00         0.00000E+00        -0.38452E+08
 
   -0.34054E+08        -0.38977E+06         0.00000E+00
   -0.38977E+06        -0.59910E+08         0.00000E+00
    0.00000E+00         0.00000E+00        -0.38391E+08
 
   -0.34447E+08        -0.25149E+06         0.00000E+00
   -0.25149E+06        -0.59857E+08         0.00000E+00
    0.00000E+00         0.00000E+00        -0.38327E+08
 
   -0.34840E+08         0.15044E+04         0.00000E+00
    0.15044E+04        -0.59789E+08         0.00000E+00
    0.00000E+00         0.00000E+00        -0.38265E+08
 
   -0.35235E+08         0.37619E+06         0.00000E+00
    0.37619E+06        -0.59704E+08         0.00000E+00
    0.00000E+00         0.00000E+00        -0.38207E+08
 
   -0.35631E+08         0.87581E+06         0.00000E+00
    0.87581E+06        -0.59603E+08         0.00000E+00
    0.00000E+00         0.00000E+00        -0.38153E+08
 
   -0.36026E+08         0.15000E+07         0.00000E+00
    0.15000E+07        -0.59487E+08         0.00000E+00
    0.00000E+00         0.00000E+00        -0.38107E+08
 
   -0.36417E+08         0.22446E+07         0.00000E+00
    0.22446E+07        -0.59359E+08         0.00000E+00
    0.00000E+00         0.00000E+00        -0.38067E+08
 
   -0.36799E+08         0.31021E+07         0.00000E+00
    0.31021E+07        -0.59220E+08         0.00000E+00
    0.00000E+00         0.00000E+00        -0.38034E+08
 
   -0.37165E+08         0.40608E+07         0.00000E+00
    0.40608E+07        -0.59074E+08         0.00000E+00
    0.00000E+00         0.00000E+00        -0.38009E+08
 
   -0.37510E+08         0.51049E+07         0.00000E+00
    0.51049E+07        -0.58926E+08         0.00000E+00
    0.00000E+00         0.00000E+00        -0.37992E+08
 
   -0.37829E+08         0.62137E+07         0.00000E+00
    0.62137E+07        -0.58778E+08         0.00000E+00
    0.00000E+00         0.00000E+00        -0.37983E+08
 
   -0.32541E+08        -0.85240E+05         0.00000E+00
   -0.85240E+05        -0.60003E+08         0.00000E+00
    0.00000E+00         0.00000E+00        -0.37554E+08
 
   -0.32967E+08        -0.24519E+06         0.00000E+00
   -0.24519E+06        -0.60008E+08         0.00000E+00
    0.00000E+00         0.00000E+00        -0.37526E+08
 
   -0.33336E+08        -0.36184E+06         0.00000E+00
   -0.36184E+06        -0.60014E+08         0.00000E+00
    0.00000E+00         0.00000E+00        -0.37476E+08
 
   -0.33664E+08        -0.40753E+06         0.00000E+00
   -0.40753E+06        -0.60016E+08         0.00000E+00
    0.00000E+00         0.00000E+00        -0.37412E+08
 
   -0.33963E+08        -0.36176E+06         0.00000E+00
   -0.36176E+06        -0.60010E+08         0.00000E+00
    0.00000E+00         0.00000E+00        -0.37340E+08
 
   -0.34245E+08        -0.20975E+06         0.00000E+00
   -0.20975E+06        -0.59993E+08         0.00000E+00
    0.00000E+00         0.00000E+00        -0.37265E+08
 
   -0.34519E+08         0.58584E+05         0.00000E+00
    0.58584E+05        -0.59963E+08         0.00000E+00
    0.00000E+00         0.00000E+00        -0.37191E+08
 
   -0.34790E+08         0.44921E+06         0.00000E+00
    0.44921E+06        -0.59919E+08         0.00000E+00
    0.00000E+00         0.00000E+00        -0.37120E+08
 
   -0.35061E+08         0.96436E+06         0.00000E+00
    0.96436E+06        -0.59858E+08         0.00000E+00
    0.00000E+00         0.00000E+00        -0.37054E+08
 
   -0.35334E+08         0.16027E+07         0.00000E+00
    0.16027E+07        -0.59783E+08         0.00000E+00
    0.00000E+00         0.00000E+00        -0.36994E+08
 
   -0.35609E+08         0.23596E+07         0.00000E+00
    0.23596E+07        -0.59694E+08         0.00000E+00
    0.00000E+00         0.00000E+00        -0.36943E+08
 
   -0.35885E+08         0.32266E+07         0.00000E+00
    0.32266E+07        -0.59594E+08         0.00000E+00
    0.00000E+00         0.00000E+00        -0.36900E+08
 
   -0.36158E+08         0.41921E+07         0.00000E+00
    0.41921E+07        -0.59483E+08         0.00000E+00
    0.00000E+00         0.00000E+00        -0.36867E+08
 
   -0.36429E+08         0.52402E+07         0.00000E+00
    0.52402E+07        -0.59365E+08         0.00000E+00
    0.00000E+00         0.00000E+00        -0.36844E+08
 
   -0.36696E+08         0.63515E+07         0.00000E+00
    0.63515E+07        -0.59240E+08         0.00000E+00
    0.00000E+00         0.00000E+00        -0.36831E+08
 
   -0.32716E+08        -0.92518E+05         0.00000E+00
   -0.92518E+05        -0.60007E+08         0.00000E+00
    0.00000E+00         0.00000E+00        -0.36498E+08
 
   -0.33112E+08        -0.26140E+06         0.00000E+00
   -0.26140E+06        -0.60026E+08         0.00000E+00
    0.00000E+00         0.00000E+00        -0.36467E+08
 
   -0.33420E+08        -0.38055E+06         0.00000E+00
   -0.38055E+06        -0.60056E+08         0.00000E+00
    0.00000E+00         0.00000E+00        -0.36412E+08
 
   -0.33663E+08        -0.42327E+06         0.00000E+00
   -0.42327E+06        -0.60088E+08         0.00000E+00
    0.00000E+00         0.00000E+00        -0.36342E+08
 
   -0.33861E+08        -0.36996E+06         0.00000E+00
   -0.36996E+06        -0.60118E+08         0.00000E+00
    0.00000E+00         0.00000E+00        -0.36262E+08
 
   -0.34030E+08        -0.20683E+06         0.00000E+00
   -0.20683E+06        -0.60140E+08         0.00000E+00
    0.00000E+00         0.00000E+00        -0.36178E+08
 
   -0.34183E+08         0.75079E+05         0.00000E+00
    0.75079E+05        -0.60151E+08         0.00000E+00
    0.00000E+00         0.00000E+00        -0.36094E+08
 
   -0.34329E+08         0.48063E+06         0.00000E+00
    0.48063E+06        -0.60148E+08         0.00000E+00
    0.00000E+00         0.00000E+00        -0.36012E+08
 
   -0.34476E+08         0.10110E+07         0.00000E+00
    0.10110E+07        -0.60130E+08         0.00000E+00
    0.00000E+00         0.00000E+00        -0.35936E+08
 
   -0.34629E+08         0.16642E+07         0.00000E+00
    0.16642E+07        -0.60097E+08         0.00000E+00
    0.00000E+00         0.00000E+00        -0.35867E+08
 
   -0.34790E+08         0.24346E+07         0.00000E+00
    0.24346E+07        -0.60049E+08         0.00000E+00
    0.00000E+00         0.00000E+00        -0.35806E+08
 
   -0.34961E+08         0.33139E+07         0.00000E+00
    0.33139E+07        -0.59987E+08         0.00000E+00
    0.00000E+00         0.00000E+00        -0.35755E+08
 
   -0.35144E+08         0.42903E+07         0.00000E+00
    0.42903E+07        -0.59912E+08         0.00000E+00
    0.00000E+00         0.00000E+00        -0.35715E+08
 
   -0.35341E+08         0.53488E+07         0.00000E+00
    0.53488E+07        -0.59824E+08         0.00000E+00
    0.00000E+00         0.00000E+00        -0.35686E+08
 
   -0.35555E+08         0.64709E+07         0.00000E+00
    0.64709E+07        -0.59721E+08         0.00000E+00
    0.00000E+00         0.00000E+00        -0.35671E+08
 
   -0.32910E+08        -0.10763E+06         0.00000E+00
   -0.10763E+06        -0.60012E+08         0.00000E+00
    0.00000E+00         0.00000E+00        -0.35397E+08
 
   -0.33268E+08        -0.29763E+06         0.00000E+00
   -0.29763E+06        -0.60044E+08         0.00000E+00
    0.00000E+00         0.00000E+00        -0.35365E+08
 
   -0.33507E+08        -0.42773E+06         0.00000E+00
   -0.42773E+06        -0.60098E+08         0.00000E+00
    0.00000E+00         0.00000E+00        -0.35307E+08
 
   -0.33660E+08        -0.47320E+06         0.00000E+00
   -0.47320E+06        -0.60162E+08         0.00000E+00
    0.00000E+00         0.00000E+00        -0.35232E+08
 
   -0.33751E+08        -0.41614E+06         0.00000E+00
   -0.41614E+06        -0.60228E+08         0.00000E+00
    0.00000E+00         0.00000E+00        -0.35147E+08
 
   -0.33803E+08        -0.24437E+06         0.00000E+00
   -0.24437E+06        -0.60290E+08         0.00000E+00
    0.00000E+00         0.00000E+00        -0.35056E+08
 
   -0.33833E+08         0.49619E+05         0.00000E+00
    0.49619E+05        -0.60342E+08         0.00000E+00
    0.00000E+00         0.00000E+00        -0.34964E+08
 
   -0.33854E+08         0.46937E+06         0.00000E+00
    0.46937E+06        -0.60381E+08         0.00000E+00
    0.00000E+00         0.00000E+00        -0.34875E+08
 
   -0.33876E+08         0.10150E+07         0.00000E+00
    0.10150E+07        -0.60406E+08         0.00000E+00
    0.00000E+00         0.00000E+00        -0.34790E+08
 
   -0.33908E+08         0.16837E+07         0.00000E+00
    0.16837E+07        -0.60415E+08         0.00000E+00
    0.00000E+00         0.00000E+00        -0.34713E+08
 
   -0.33956E+08         0.24695E+07         0.00000E+00
    0.24695E+07        -0.60408E+08         0.00000E+00
    0.00000E+00         0.00000E+00        -0.34645E+08
 
   -0.34024E+08         0.33639E+07         0.00000E+00
    0.33639E+07        -0.60385E+08         0.00000E+00
    0.00000E+00         0.00000E+00        -0.34588E+08
 
   -0.34117E+08         0.43554E+07         0.00000E+00
    0.43554E+07        -0.60345E+08         0.00000E+00
    0.00000E+00         0.00000E+00        -0.34542E+08
 
   -0.34239E+08         0.54299E+07         0.00000E+00
    0.54299E+07        -0.60288E+08         0.00000E+00
    0.00000E+00         0.00000E+00        -0.34510E+08
 
   -0.34399E+08         0.65705E+07         0.00000E+00
    0.65705E+07        -0.60209E+08         0.00000E+00
    0.00000E+00         0.00000E+00        -0.34493E+08
 
   -0.33139E+08        -0.13049E+06         0.00000E+00
   -0.13049E+06        -0.60016E+08         0.00000E+00
    0.00000E+00         0.00000E+00        -0.34245E+08
 
   -0.33445E+08        -0.35381E+06         0.00000E+00
   -0.35381E+06        -0.60062E+08         0.00000E+00
    0.00000E+00         0.00000E+00        -0.34211E+08
 
   -0.33605E+08        -0.50339E+06         0.00000E+00
   -0.50339E+06        -0.60140E+08         0.00000E+00
    0.00000E+00         0.00000E+00        -0.34152E+08
 
   -0.33658E+08        -0.55731E+06         0.00000E+00
   -0.55731E+06        -0.60235E+08         0.00000E+00
    0.00000E+00         0.00000E+00        -0.34074E+08
 
   -0.33636E+08        -0.50020E+06         0.00000E+00
   -0.50020E+06        -0.60336E+08         0.00000E+00
    0.00000E+00         0.00000E+00        -0.33985E+08
 
   -0.33567E+08        -0.32207E+06         0.00000E+00
   -0.32207E+06        -0.60436E+08         0.00000E+00
    0.00000E+00         0.00000E+00        -0.33890E+08
 
   -0.33470E+08        -0.17351E+05         0.00000E+00
   -0.17351E+05        -0.60528E+08         0.00000E+00
    0.00000E+00         0.00000E+00        -0.33793E+08
 
   -0.33364E+08         0.41597E+06         0.00000E+00
    0.41597E+06        -0.60608E+08         0.00000E+00
    0.00000E+00         0.00000E+00        -0.33698E+08
 
   -0.33261E+08         0.97691E+06         0.00000E+00
    0.97691E+06        -0.60674E+08         0.00000E+00
    0.00000E+00         0.00000E+00        -0.33609E+08
 
   -0.33172E+08         0.16618E+07         0.00000E+00
    0.16618E+07        -0.60724E+08         0.00000E+00
    0.00000E+00         0.00000E+00        -0.33526E+08
 
   -0.33106E+08         0.24645E+07         0.00000E+00
    0.24645E+07        -0.60758E+08         0.00000E+00
    0.00000E+00         0.00000E+00        -0.33453E+08
 
   -0.33070E+08         0.33765E+07         0.00000E+00
    0.33765E+07        -0.60773E+08         0.00000E+00
    0.00000E+00         0.00000E+00        -0.33391E+08
 
   -0.33072E+08         0.43868E+07         0.00000E+00
    0.43868E+07        -0.60769E+08         0.00000E+00
    0.00000E+00         0.00000E+00        -0.33342E+08
 
   -0.33118E+08         0.54825E+07         0.00000E+00
    0.54825E+07        -0.60742E+08         0.00000E+00
    0.00000E+00         0.00000E+00        -0.33307E+08
 
   -0.33219E+08         0.66482E+07         0.00000E+00
    0.66482E+07        -0.60691E+08         0.00000E+00
    0.00000E+00         0.00000E+00        -0.33288E+08
 
   -0.33417E+08        -0.16078E+06         0.00000E+00
   -0.16078E+06        -0.60020E+08         0.00000E+00
    0.00000E+00         0.00000E+00        -0.33034E+08
 
   -0.33652E+08        -0.42914E+06         0.00000E+00
   -0.42914E+06        -0.60079E+08         0.00000E+00
    0.00000E+00         0.00000E+00        -0.33000E+08
 
   -0.33719E+08        -0.60632E+06         0.00000E+00
   -0.60632E+06        -0.60179E+08         0.00000E+00
    0.00000E+00         0.00000E+00        -0.32940E+08
 
   -0.33662E+08        -0.67404E+06         0.00000E+00
   -0.67404E+06        -0.60302E+08         0.00000E+00
    0.00000E+00         0.00000E+00        -0.32861E+08
 
   -0.33519E+08        -0.62021E+06         0.00000E+00
   -0.62021E+06        -0.60437E+08         0.00000E+00
    0.00000E+00         0.00000E+00        -0.32771E+08
 
   -0.33322E+08        -0.43777E+06         0.00000E+00
   -0.43777E+06        -0.60572E+08         0.00000E+00
    0.00000E+00         0.00000E+00        -0.32673E+08
 
   -0.33095E+08        -0.12355E+06         0.00000E+00
   -0.12355E+06        -0.60700E+08         0.00000E+00
    0.00000E+00         0.00000E+00        -0.32574E+08
 
   -0.32859E+08         0.32261E+06         0.00000E+00
    0.32261E+06        -0.60818E+08         0.00000E+00
    0.00000E+00         0.00000E+00        -0.32476E+08
 
   -0.32629E+08         0.89853E+06         0.00000E+00
    0.89853E+06        -0.60923E+08         0.00000E+00
    0.00000E+00         0.00000E+00        -0.32383E+08
 
   -0.32419E+08         0.15999E+07         0.00000E+00
    0.15999E+07        -0.61012E+08         0.00000E+00
    0.00000E+00         0.00000E+00        -0.32297E+08
 
   -0.32238E+08         0.24205E+07         0.00000E+00
    0.24205E+07        -0.61084E+08         0.00000E+00
    0.00000E+00         0.00000E+00        -0.32221E+08
 
   -0.32097E+08         0.33520E+07         0.00000E+00
    0.33520E+07        -0.61137E+08         0.00000E+00
    0.00000E+00         0.00000E+00        -0.32156E+08
 
   -0.32005E+08         0.43840E+07         0.00000E+00
    0.43840E+07        -0.61169E+08         0.00000E+00
    0.00000E+00         0.00000E+00        -0.32105E+08
 
   -0.31972E+08         0.55048E+07         0.00000E+00
    0.55048E+07        -0.61175E+08         0.00000E+00
    0.00000E+00         0.00000E+00        -0.32068E+08
 
   -0.32007E+08         0.67009E+07         0.00000E+00
    0.67009E+07        -0.61153E+08         0.00000E+00
    0.00000E+00         0.00000E+00        -0.32049E+08
 
   -0.33755E+08        -0.19798E+06         0.00000E+00
   -0.19798E+06        -0.60023E+08         0.00000E+00
    0.00000E+00         0.00000E+00        -0.31761E+08
 
   -0.33900E+08        -0.52216E+06         0.00000E+00
   -0.52216E+06        -0.60094E+08         0.00000E+00
    0.00000E+00         0.00000E+00        -0.31727E+08
 
   -0.33856E+08        -0.73421E+06         0.00000E+00
   -0.73421E+06        -0.60214E+08         0.00000E+00
    0.00000E+00         0.00000E+00        -0.31668E+08
 
   -0.33676E+08        -0.82029E+06         0.00000E+00
   -0.82029E+06        -0.60363E+08         0.00000E+00
    0.00000E+00         0.00000E+00        -0.31589E+08
 
   -0.33402E+08        -0.77244E+06         0.00000E+00
   -0.77244E+06        -0.60526E+08         0.00000E+00
    0.00000E+00         0.00000E+00        -0.31498E+08
 
   -0.33071E+08        -0.58731E+06         0.00000E+00
   -0.58731E+06        -0.60691E+08         0.00000E+00
    0.00000E+00         0.00000E+00        -0.31401E+08
 
   -0.32710E+08        -0.26475E+06         0.00000E+00
   -0.26475E+06        -0.60851E+08         0.00000E+00
    0.00000E+00         0.00000E+00        -0.31301E+08
 
   -0.32341E+08         0.19322E+06         0.00000E+00
    0.19322E+06        -0.61002E+08         0.00000E+00
    0.00000E+00         0.00000E+00        -0.31202E+08
 
   -0.31983E+08         0.78314E+06         0.00000E+00
    0.78314E+06        -0.61141E+08         0.00000E+00
    0.00000E+00         0.00000E+00        -0.31108E+08
 
   -0.31648E+08         0.15004E+07         0.00000E+00
    0.15004E+07        -0.61266E+08         0.00000E+00
    0.00000E+00         0.00000E+00        -0.31021E+08
 
   -0.31351E+08         0.23388E+07         0.00000E+00
    0.23388E+07        -0.61374E+08         0.00000E+00
    0.00000E+00         0.00000E+00        -0.30944E+08
 
   -0.31103E+08         0.32907E+07         0.00000E+00
    0.32907E+07        -0.61464E+08         0.00000E+00
    0.00000E+00         0.00000E+00        -0.30878E+08
 
   -0.30915E+08         0.43461E+07         0.00000E+00
    0.43461E+07        -0.61532E+08         0.00000E+00
    0.00000E+00         0.00000E+00        -0.30825E+08
 
   -0.30796E+08         0.54945E+07         0.00000E+00
    0.54945E+07        -0.61573E+08         0.00000E+00
    0.00000E+00         0.00000E+00        -0.30788E+08
 
   -0.30759E+08         0.67248E+07         0.00000E+00
    0.67248E+07        -0.61583E+08         0.00000E+00
    0.00000E+00         0.00000E+00        -0.30769E+08
 
   -0.34168E+08        -0.24141E+06         0.00000E+00
   -0.24141E+06        -0.60026E+08         0.00000E+00
    0.00000E+00         0.00000E+00        -0.30421E+08
 
   -0.34197E+08        -0.63085E+06         0.00000E+00
   -0.63085E+06        -0.60107E+08         0.00000E+00
    0.00000E+00         0.00000E+00        -0.30389E+08
 
   -0.34022E+08        -0.88369E+06         0.00000E+00
   -0.88369E+06        -0.60244E+08         0.00000E+00
    0.00000E+00         0.00000E+00        -0.30331E+08
 
   -0.33703E+08        -0.99142E+06         0.00000E+00
   -0.99142E+06        -0.60414E+08         0.00000E+00
    0.00000E+00         0.00000E+00        -0.30254E+08
 
   -0.33287E+08        -0.95124E+06         0.00000E+00
   -0.95124E+06        -0.60599E+08         0.00000E+00
    0.00000E+00         0.00000E+00        -0.30165E+08
 
   -0.32815E+08        -0.76442E+06         0.00000E+00
   -0.76442E+06        -0.60788E+08         0.00000E+00
    0.00000E+00         0.00000E+00        -0.30069E+08
 
   -0.32315E+08        -0.43456E+06         0.00000E+00
   -0.43456E+06        -0.60972E+08         0.00000E+00
    0.00000E+00         0.00000E+00        -0.29970E+08
 
   -0.31811E+08         0.33691E+05         0.00000E+00
    0.33691E+05        -0.61148E+08         0.00000E+00
    0.00000E+00         0.00000E+00        -0.29873E+08
 
   -0.31322E+08         0.63555E+06         0.00000E+00
    0.63555E+06        -0.61315E+08         0.00000E+00
    0.00000E+00         0.00000E+00        -0.29779E+08
 
   -0.30862E+08         0.13663E+07         0.00000E+00
    0.13663E+07        -0.61470E+08         0.00000E+00
    0.00000E+00         0.00000E+00        -0.29693E+08
 
   -0.30446E+08         0.22207E+07         0.00000E+00
    0.22207E+07        -0.61613E+08         0.00000E+00
    0.00000E+00         0.00000E+00        -0.29616E+08
 
   -0.30087E+08         0.31923E+07         0.00000E+00
    0.31923E+07        -0.61739E+08         0.00000E+00
    0.00000E+00         0.00000E+00        -0.29550E+08
 
   -0.29798E+08         0.42718E+07         0.00000E+00
    0.42718E+07        -0.61844E+08         0.00000E+00
    0.00000E+00         0.00000E+00        -0.29498E+08
 
   -0.29590E+08         0.54487E+07         0.00000E+00
    0.54487E+07        -0.61924E+08         0.00000E+00
    0.00000E+00         0.00000E+00        -0.29462E+08
 
   -0.29472E+08         0.67147E+07         0.00000E+00
    0.67147E+07        -0.61971E+08         0.00000E+00
    0.00000E+00         0.00000E+00        -0.29442E+08
 
   -0.34665E+08        -0.29027E+06         0.00000E+00
   -0.29027E+06        -0.60028E+08         0.00000E+00
    0.00000E+00         0.00000E+00        -0.29014E+08
 
   -0.34548E+08        -0.75261E+06         0.00000E+00
   -0.75261E+06        -0.60118E+08         0.00000E+00
    0.00000E+00         0.00000E+00        -0.28983E+08
 
   -0.34219E+08        -0.10503E+07         0.00000E+00
   -0.10503E+07        -0.60268E+08         0.00000E+00
    0.00000E+00         0.00000E+00        -0.28927E+08
 
   -0.33744E+08        -0.11811E+07         0.00000E+00
   -0.11811E+07        -0.60452E+08         0.00000E+00
    0.00000E+00         0.00000E+00        -0.28853E+08
 
   -0.33175E+08        -0.11488E+07         0.00000E+00
   -0.11488E+07        -0.60652E+08         0.00000E+00
    0.00000E+00         0.00000E+00        -0.28767E+08
 
   -0.32554E+08        -0.96040E+06         0.00000E+00
   -0.96040E+06        -0.60854E+08         0.00000E+00
    0.00000E+00         0.00000E+00        -0.28675E+08
 
   -0.31911E+08        -0.62413E+06         0.00000E+00
   -0.62413E+06        -0.61052E+08         0.00000E+00
    0.00000E+00         0.00000E+00        -0.28579E+08
 
   -0.31271E+08        -0.14777E+06         0.00000E+00
   -0.14777E+06        -0.61244E+08         0.00000E+00
    0.00000E+00         0.00000E+00        -0.28484E+08
 
   -0.30651E+08         0.46247E+06         0.00000E+00
    0.46247E+06        -0.61430E+08         0.00000E+00
    0.00000E+00         0.00000E+00        -0.28393E+08
 
   -0.30064E+08         0.12021E+07         0.00000E+00
    0.12021E+07        -0.61609E+08         0.00000E+00
    0.00000E+00         0.00000E+00        -0.28309E+08
 
   -0.29525E+08         0.20677E+07         0.00000E+00
    0.20677E+07        -0.61783E+08         0.00000E+00
    0.00000E+00         0.00000E+00        -0.28234E+08
 
   -0.29051E+08         0.30555E+07         0.00000E+00
    0.30555E+07        -0.61946E+08         0.00000E+00
    0.00000E+00         0.00000E+00        -0.28170E+08
 
   -0.28656E+08         0.41584E+07         0.00000E+00
    0.41584E+07        -0.62092E+08         0.00000E+00
    0.00000E+00         0.00000E+00        -0.28120E+08
 
   -0.28352E+08         0.53633E+07         0.00000E+00
    0.53633E+07        -0.62213E+08         0.00000E+00
    0.00000E+00         0.00000E+00        -0.28085E+08
 
   -0.28142E+08         0.66632E+07         0.00000E+00
    0.66632E+07        -0.62305E+08         0.00000E+00
    0.00000E+00         0.00000E+00        -0.28066E+08
 
   -0.35255E+08        -0.34361E+06         0.00000E+00
   -0.34361E+06        -0.60030E+08         0.00000E+00
    0.00000E+00         0.00000E+00        -0.27538E+08
 
   -0.34960E+08        -0.88425E+06         0.00000E+00
   -0.88425E+06        -0.60126E+08         0.00000E+00
    0.00000E+00         0.00000E+00        -0.27509E+08
 
   -0.34450E+08        -0.12282E+07         0.00000E+00
   -0.12282E+07        -0.60284E+08         0.00000E+00
    0.00000E+00         0.00000E+00        -0.27456E+08
 
   -0.33799E+08        -0.13812E+07         0.00000E+00
   -0.13812E+07        -0.60475E+08         0.00000E+00
    0.00000E+00         0.00000E+00        -0.27386E+08
 
   -0.33064E+08        -0.13550E+07         0.00000E+00
   -0.13550E+07        -0.60678E+08         0.00000E+00
    0.00000E+00         0.00000E+00        -0.27305E+08
 
   -0.32288E+08        -0.11638E+07         0.00000E+00
   -0.11638E+07        -0.60882E+08         0.00000E+00
    0.00000E+00         0.00000E+00        -0.27216E+08
 
   -0.31501E+08        -0.82173E+06         0.00000E+00
   -0.82173E+06        -0.61081E+08         0.00000E+00
    0.00000E+00         0.00000E+00        -0.27125E+08
 
   -0.30725E+08        -0.34015E+06         0.00000E+00
   -0.34015E+06        -0.61276E+08         0.00000E+00
    0.00000E+00         0.00000E+00        -0.27034E+08
 
   -0.29974E+08         0.27310E+06         0.00000E+00
    0.27310E+06        -0.61469E+08         0.00000E+00
    0.00000E+00         0.00000E+00        -0.26947E+08
 
   -0.29260E+08         0.10141E+07         0.00000E+00
    0.10141E+07        -0.61663E+08         0.00000E+00
    0.00000E+00         0.00000E+00        -0.26867E+08
 
   -0.28596E+08         0.18823E+07         0.00000E+00
    0.18823E+07        -0.61862E+08         0.00000E+00
    0.00000E+00         0.00000E+00        -0.26795E+08
 
   -0.27998E+08         0.28774E+07         0.00000E+00
    0.28774E+07        -0.62061E+08         0.00000E+00
    0.00000E+00         0.00000E+00        -0.26734E+08
 
   -0.27488E+08         0.39978E+07         0.00000E+00
    0.39978E+07        -0.62255E+08         0.00000E+00
    0.00000E+00         0.00000E+00        -0.26687E+08
 
   -0.27087E+08         0.52313E+07         0.00000E+00
    0.52313E+07        -0.62432E+08         0.00000E+00
    0.00000E+00         0.00000E+00        -0.26654E+08
 
   -0.26774E+08         0.65565E+07         0.00000E+00
    0.65565E+07        -0.62584E+08         0.00000E+00
    0.00000E+00         0.00000E+00        -0.26637E+08
 
   -0.35944E+08        -0.40037E+06         0.00000E+00
   -0.40037E+06        -0.60032E+08         0.00000E+00
    0.00000E+00         0.00000E+00        -0.25994E+08
 
   -0.35432E+08        -0.10219E+07         0.00000E+00
   -0.10219E+07        -0.60130E+08         0.00000E+00
    0.00000E+00         0.00000E+00        -0.25967E+08
 
   -0.34712E+08        -0.14102E+07         0.00000E+00
   -0.14102E+07        -0.60290E+08         0.00000E+00
    0.00000E+00         0.00000E+00        -0.25918E+08
 
   -0.33865E+08        -0.15811E+07         0.00000E+00
   -0.15811E+07        -0.60478E+08         0.00000E+00
    0.00000E+00         0.00000E+00        -0.25853E+08
 
   -0.32952E+08        -0.15566E+07         0.00000E+00
   -0.15566E+07        -0.60672E+08         0.00000E+00
    0.00000E+00         0.00000E+00        -0.25776E+08
 
   -0.32016E+08        -0.13601E+07         0.00000E+00
   -0.13601E+07        -0.60862E+08         0.00000E+00
    0.00000E+00         0.00000E+00        -0.25694E+08
 
   -0.31086E+08        -0.10125E+07         0.00000E+00
   -0.10125E+07        -0.61046E+08         0.00000E+00
    0.00000E+00         0.00000E+00        -0.25608E+08
 
   -0.30178E+08        -0.52935E+06         0.00000E+00
   -0.52935E+06        -0.61227E+08         0.00000E+00
    0.00000E+00         0.00000E+00        -0.25523E+08
 
   -0.29300E+08         0.79771E+05         0.00000E+00
    0.79771E+05        -0.61412E+08         0.00000E+00
    0.00000E+00         0.00000E+00        -0.25441E+08
 
   -0.28461E+08         0.81172E+06         0.00000E+00
    0.81172E+06        -0.61609E+08         0.00000E+00
    0.00000E+00         0.00000E+00        -0.25365E+08
 
   -0.27669E+08         0.16692E+07         0.00000E+00
    0.16692E+07        -0.61824E+08         0.00000E+00
    0.00000E+00         0.00000E+00        -0.25298E+08
 
   -0.26941E+08         0.26584E+07         0.00000E+00
    0.26584E+07        -0.62055E+08         0.00000E+00
    0.00000E+00         0.00000E+00        -0.25242E+08
 
   -0.26303E+08         0.37802E+07         0.00000E+00
    0.37802E+07        -0.62295E+08         0.00000E+00
    0.00000E+00         0.00000E+00        -0.25198E+08
 
   -0.25804E+08         0.50299E+07         0.00000E+00
    0.50299E+07        -0.62533E+08         0.00000E+00
    0.00000E+00         0.00000E+00        -0.25168E+08
 
   -0.25416E+08         0.63391E+07         0.00000E+00
    0.63391E+07        -0.62822E+08         0.00000E+00
    0.00000E+00         0.00000E+00        -0.25196E+08
 
   -0.36737E+08        -0.45940E+06         0.00000E+00
   -0.45940E+06        -0.60033E+08         0.00000E+00
    0.00000E+00         0.00000E+00        -0.24382E+08
 
   -0.35965E+08        -0.11609E+07         0.00000E+00
   -0.11609E+07        -0.60131E+08         0.00000E+00
    0.00000E+00         0.00000E+00        -0.24357E+08
 
   -0.35000E+08        -0.15872E+07         0.00000E+00
   -0.15872E+07        -0.60285E+08         0.00000E+00
    0.00000E+00         0.00000E+00        -0.24312E+08
 
   -0.33935E+08        -0.17674E+07         0.00000E+00
   -0.17674E+07        -0.60457E+08         0.00000E+00
    0.00000E+00         0.00000E+00        -0.24253E+08
 
   -0.32834E+08        -0.17373E+07         0.00000E+00
   -0.17373E+07        -0.60625E+08         0.00000E+00
    0.00000E+00         0.00000E+00        -0.24183E+08
 
   -0.31738E+08        -0.15314E+07         0.00000E+00
   -0.15314E+07        -0.60781E+08         0.00000E+00
    0.00000E+00         0.00000E+00        -0.24107E+08
 
   -0.30669E+08        -0.11784E+07         0.00000E+00
   -0.11784E+07        -0.60930E+08         0.00000E+00
    0.00000E+00         0.00000E+00        -0.24028E+08
 
   -0.29635E+08        -0.69833E+06         0.00000E+00
   -0.69833E+06        -0.61079E+08         0.00000E+00
    0.00000E+00         0.00000E+00        -0.23950E+08
 
   -0.28639E+08        -0.10209E+06         0.00000E+00
   -0.10209E+06        -0.61239E+08         0.00000E+00
    0.00000E+00         0.00000E+00        -0.23875E+08
 
   -0.27680E+08         0.60802E+06         0.00000E+00
    0.60802E+06        -0.61423E+08         0.00000E+00
    0.00000E+00         0.00000E+00        -0.23805E+08
 
   -0.26760E+08         0.14380E+07         0.00000E+00
    0.14380E+07        -0.61640E+08         0.00000E+00
    0.00000E+00         0.00000E+00        -0.23743E+08
 
   -0.25893E+08         0.24020E+07         0.00000E+00
    0.24020E+07        -0.61893E+08         0.00000E+00
    0.00000E+00         0.00000E+00        -0.23691E+08
 
   -0.25123E+08         0.35153E+07         0.00000E+00
    0.35153E+07        -0.62172E+08         0.00000E+00
    0.00000E+00         0.00000E+00        -0.23651E+08
 
   -0.24464E+08         0.47653E+07         0.00000E+00
    0.47653E+07        -0.62466E+08         0.00000E+00
    0.00000E+00         0.00000E+00        -0.23626E+08
 
   -0.24297E+08         0.59603E+07         0.00000E+00
    0.59603E+07        -0.62801E+08         0.00000E+00
    0.00000E+00         0.00000E+00        -0.24031E+08
 
   -0.37635E+08        -0.51945E+06         0.00000E+00
   -0.51945E+06        -0.60033E+08         0.00000E+00
    0.00000E+00         0.00000E+00        -0.22704E+08
 
   -0.36549E+08        -0.12951E+07         0.00000E+00
   -0.12951E+07        -0.60127E+08         0.00000E+00
    0.00000E+00         0.00000E+00        -0.22682E+08
 
   -0.35304E+08        -0.17468E+07         0.00000E+00
   -0.17468E+07        -0.60264E+08         0.00000E+00
    0.00000E+00         0.00000E+00        -0.22642E+08
 
   -0.34000E+08        -0.19226E+07         0.00000E+00
   -0.19226E+07        -0.60402E+08         0.00000E+00
    0.00000E+00         0.00000E+00        -0.22589E+08
 
   -0.32704E+08        -0.18763E+07         0.00000E+00
   -0.18763E+07        -0.60522E+08         0.00000E+00
    0.00000E+00         0.00000E+00        -0.22526E+08
 
   -0.31451E+08        -0.16562E+07         0.00000E+00
   -0.16562E+07        -0.60623E+08         0.00000E+00
    0.00000E+00         0.00000E+00        -0.22458E+08
 
   -0.30251E+08        -0.12990E+07         0.00000E+00
   -0.12990E+07        -0.60714E+08         0.00000E+00
    0.00000E+00         0.00000E+00        -0.22387E+08
 
   -0.29104E+08        -0.82813E+06         0.00000E+00
   -0.82813E+06        -0.60811E+08         0.00000E+00
    0.00000E+00         0.00000E+00        -0.22316E+08
 
   -0.28001E+08        -0.25518E+06         0.00000E+00
   -0.25518E+06        -0.60928E+08         0.00000E+00
    0.00000E+00         0.00000E+00        -0.22248E+08
 
   -0.26931E+08         0.41898E+06         0.00000E+00
    0.41898E+06        -0.61082E+08         0.00000E+00
    0.00000E+00         0.00000E+00        -0.22185E+08
 
   -0.25889E+08         0.12038E+07         0.00000E+00
    0.12038E+07        -0.61285E+08         0.00000E+00
    0.00000E+00         0.00000E+00        -0.22129E+08
 
   -0.24877E+08         0.21197E+07         0.00000E+00
    0.21197E+07        -0.61544E+08         0.00000E+00
    0.00000E+00         0.00000E+00        -0.22083E+08
 
   -0.23932E+08         0.32069E+07         0.00000E+00
    0.32069E+07        -0.61850E+08         0.00000E+00
    0.00000E+00         0.00000E+00        -0.22048E+08
 
   -0.23201E+08         0.44350E+07         0.00000E+00
    0.44350E+07        -0.62201E+08         0.00000E+00
    0.00000E+00         0.00000E+00        -0.22175E+08
 
   -0.23229E+08         0.55810E+07         0.00000E+00
    0.55810E+07        -0.62573E+08         0.00000E+00
    0.00000E+00         0.00000E+00        -0.22934E+08
 
   -0.38634E+08        -0.57902E+06         0.00000E+00
   -0.57902E+06        -0.60032E+08         0.00000E+00
    0.00000E+00         0.00000E+00        -0.20963E+08
 
   -0.37173E+08        -0.14162E+07         0.00000E+00
   -0.14162E+07        -0.60116E+08         0.00000E+00
    0.00000E+00         0.00000E+00        -0.20944E+08
 
   -0.35604E+08        -0.18722E+07         0.00000E+00
   -0.18722E+07        -0.60221E+08         0.00000E+00
    0.00000E+00         0.00000E+00        -0.20909E+08
 
   -0.34043E+08        -0.20232E+07         0.00000E+00
   -0.20232E+07        -0.60302E+08         0.00000E+00
    0.00000E+00         0.00000E+00        -0.20862E+08
 
   -0.32553E+08        -0.19481E+07         0.00000E+00
   -0.19481E+07        -0.60346E+08         0.00000E+00
    0.00000E+00         0.00000E+00        -0.20807E+08
 
   -0.31153E+08        -0.17101E+07         0.00000E+00
   -0.17101E+07        -0.60364E+08         0.00000E+00
    0.00000E+00         0.00000E+00        -0.20748E+08
 
   -0.29840E+08        -0.13525E+07         0.00000E+00
   -0.13525E+07        -0.60374E+08         0.00000E+00
    0.00000E+00         0.00000E+00        -0.20685E+08
 
   -0.28595E+08        -0.90001E+06         0.00000E+00
   -0.90001E+06        -0.60398E+08         0.00000E+00
    0.00000E+00         0.00000E+00        -0.20623E+08
 
   -0.27400E+08        -0.36307E+06         0.00000E+00
   -0.36307E+06        -0.60457E+08         0.00000E+00
    0.00000E+00         0.00000E+00        -0.20564E+08
 
   -0.26233E+08         0.25978E+06         0.00000E+00
    0.25978E+06        -0.60567E+08         0.00000E+00
    0.00000E+00         0.00000E+00        -0.20508E+08
 
   -0.25076E+08         0.98141E+06         0.00000E+00
    0.98141E+06        -0.60743E+08         0.00000E+00
    0.00000E+00         0.00000E+00        -0.20459E+08
 
   -0.23916E+08         0.18297E+07         0.00000E+00
    0.18297E+07        -0.60996E+08         0.00000E+00
    0.00000E+00         0.00000E+00        -0.20419E+08
 
   -0.22739E+08         0.28633E+07         0.00000E+00
    0.28633E+07        -0.61329E+08         0.00000E+00
    0.00000E+00         0.00000E+00        -0.20390E+08
 
   -0.22059E+08         0.40184E+07         0.00000E+00
    0.40184E+07        -0.61729E+08         0.00000E+00
    0.00000E+00         0.00000E+00        -0.20844E+08
 
   -0.22062E+08         0.51900E+07         0.00000E+00
    0.51900E+07        -0.62164E+08         0.00000E+00
    0.00000E+00         0.00000E+00        -0.21727E+08
 
   -0.39727E+08        -0.63617E+06         0.00000E+00
   -0.63617E+06        -0.60030E+08         0.00000E+00
    0.00000E+00         0.00000E+00        -0.19161E+08
 
   -0.37810E+08        -0.15112E+07         0.00000E+00
   -0.15112E+07        -0.60094E+08         0.00000E+00
    0.00000E+00         0.00000E+00        -0.19144E+08
 
   -0.35874E+08        -0.19374E+07         0.00000E+00
   -0.19374E+07        -0.60142E+08         0.00000E+00
    0.00000E+00         0.00000E+00        -0.19115E+08
 
   -0.34048E+08        -0.20372E+07         0.00000E+00
   -0.20372E+07        -0.60130E+08         0.00000E+00
    0.00000E+00         0.00000E+00        -0.19075E+08
 
   -0.32375E+08        -0.19214E+07         0.00000E+00
   -0.19214E+07        -0.60063E+08         0.00000E+00
    0.00000E+00         0.00000E+00        -0.19029E+08
 
   -0.30850E+08        -0.16669E+07         0.00000E+00
   -0.16669E+07        -0.59968E+08         0.00000E+00
    0.00000E+00         0.00000E+00        -0.18978E+08
 
   -0.29443E+08        -0.13185E+07         0.00000E+00
   -0.13185E+07        -0.59875E+08         0.00000E+00
    0.00000E+00         0.00000E+00        -0.18926E+08
 
   -0.28121E+08        -0.89842E+06         0.00000E+00
   -0.89842E+06        -0.59812E+08         0.00000E+00
    0.00000E+00         0.00000E+00        -0.18873E+08
 
   -0.26851E+08        -0.41354E+06         0.00000E+00
   -0.41354E+06        -0.59801E+08         0.00000E+00
    0.00000E+00         0.00000E+00        -0.18823E+08
 
   -0.25601E+08         0.14050E+06         0.00000E+00
    0.14050E+06        -0.59860E+08         0.00000E+00
    0.00000E+00         0.00000E+00        -0.18776E+08
 
   -0.24340E+08         0.77885E+06         0.00000E+00
    0.77885E+06        -0.60005E+08         0.00000E+00
    0.00000E+00         0.00000E+00        -0.18735E+08
 
   -0.23035E+08         0.15326E+07         0.00000E+00
    0.15326E+07        -0.60253E+08         0.00000E+00
    0.00000E+00         0.00000E+00        -0.18701E+08
 
   -0.21644E+08         0.24552E+07         0.00000E+00
    0.24552E+07        -0.60627E+08         0.00000E+00
    0.00000E+00         0.00000E+00        -0.18678E+08
 
   -0.20929E+08         0.35391E+07         0.00000E+00
    0.35391E+07        -0.61096E+08         0.00000E+00
    0.00000E+00         0.00000E+00        -0.19387E+08
 
   -0.20821E+08         0.47501E+07         0.00000E+00
    0.47501E+07        -0.61598E+08         0.00000E+00
    0.00000E+00         0.00000E+00        -0.20392E+08
 
   -0.40894E+08        -0.68759E+06         0.00000E+00
   -0.68759E+06        -0.60026E+08         0.00000E+00
    0.00000E+00         0.00000E+00        -0.17300E+08
 
   -0.38420E+08        -0.15562E+07         0.00000E+00
   -0.15562E+07        -0.60051E+08         0.00000E+00
    0.00000E+00         0.00000E+00        -0.17287E+08
 
   -0.36078E+08        -0.19008E+07         0.00000E+00
   -0.19008E+07        -0.59997E+08         0.00000E+00
    0.00000E+00         0.00000E+00        -0.17263E+08
 
   -0.33996E+08        -0.19206E+07         0.00000E+00
   -0.19206E+07        -0.59840E+08         0.00000E+00
    0.00000E+00         0.00000E+00        -0.17231E+08
 
   -0.32171E+08        -0.17616E+07         0.00000E+00
   -0.17616E+07        -0.59620E+08         0.00000E+00
    0.00000E+00         0.00000E+00        -0.17194E+08
 
   -0.30551E+08        -0.15031E+07         0.00000E+00
   -0.15031E+07        -0.59385E+08         0.00000E+00
    0.00000E+00         0.00000E+00        -0.17153E+08
 
   -0.29077E+08        -0.11824E+07         0.00000E+00
   -0.11824E+07        -0.59175E+08         0.00000E+00
    0.00000E+00         0.00000E+00        -0.17111E+08
 
   -0.27700E+08        -0.81450E+06         0.00000E+00
   -0.81450E+06        -0.59018E+08         0.00000E+00
    0.00000E+00         0.00000E+00        -0.17069E+08
 
   -0.26373E+08        -0.40162E+06         0.00000E+00
   -0.40162E+06        -0.58934E+08         0.00000E+00
    0.00000E+00         0.00000E+00        -0.17028E+08
 
   -0.25056E+08         0.63373E+05         0.00000E+00
    0.63373E+05        -0.58942E+08         0.00000E+00
    0.00000E+00         0.00000E+00        -0.16991E+08
 
   -0.23708E+08         0.59603E+06         0.00000E+00
    0.59603E+06        -0.59058E+08         0.00000E+00
    0.00000E+00         0.00000E+00        -0.16958E+08
 
   -0.22278E+08         0.12206E+07         0.00000E+00
    0.12206E+07        -0.59304E+08         0.00000E+00
    0.00000E+00         0.00000E+00        -0.16931E+08
 
   -0.20701E+08         0.19793E+07         0.00000E+00
    0.19793E+07        -0.59716E+08         0.00000E+00
    0.00000E+00         0.00000E+00        -0.16913E+08
 
   -0.19782E+08         0.29750E+07         0.00000E+00
    0.29750E+07        -0.60267E+08         0.00000E+00
    0.00000E+00         0.00000E+00        -0.17723E+08
 
   -0.19514E+08         0.42193E+07         0.00000E+00
    0.42193E+07        -0.60884E+08         0.00000E+00
    0.00000E+00         0.00000E+00        -0.18923E+08
 
   -0.42098E+08        -0.72534E+06         0.00000E+00
   -0.72534E+06        -0.60014E+08         0.00000E+00
    0.00000E+00         0.00000E+00        -0.15383E+08
 
   -0.38930E+08        -0.15000E+07         0.00000E+00
   -0.15000E+07        -0.59954E+08         0.00000E+00
    0.00000E+00         0.00000E+00        -0.15373E+08
 
   -0.36173E+08        -0.16916E+07         0.00000E+00
   -0.16916E+07        -0.59714E+08         0.00000E+00
    0.00000E+00         0.00000E+00        -0.15356E+08
 
   -0.33885E+08        -0.16204E+07         0.00000E+00
   -0.16204E+07        -0.59343E+08         0.00000E+00
    0.00000E+00         0.00000E+00        -0.15332E+08
 
   -0.31957E+08        -0.14395E+07         0.00000E+00
   -0.14395E+07        -0.58934E+08         0.00000E+00
    0.00000E+00         0.00000E+00        -0.15305E+08
 
   -0.30279E+08        -0.12055E+07         0.00000E+00
   -0.12055E+07        -0.58549E+08         0.00000E+00
    0.00000E+00         0.00000E+00        -0.15275E+08
 
   -0.28766E+08        -0.94012E+06         0.00000E+00
   -0.94012E+06        -0.58221E+08         0.00000E+00
    0.00000E+00         0.00000E+00        -0.15244E+08
 
   -0.27353E+08        -0.64943E+06         0.00000E+00
   -0.64943E+06        -0.57975E+08         0.00000E+00
    0.00000E+00         0.00000E+00        -0.15213E+08
 
   -0.25987E+08        -0.33121E+06         0.00000E+00
   -0.33121E+06        -0.57826E+08         0.00000E+00
    0.00000E+00         0.00000E+00        -0.15183E+08
 
   -0.24620E+08         0.22865E+05         0.00000E+00
    0.22865E+05        -0.57792E+08         0.00000E+00
    0.00000E+00         0.00000E+00        -0.15155E+08
 
   -0.23203E+08         0.42652E+06         0.00000E+00
    0.42652E+06        -0.57888E+08         0.00000E+00
    0.00000E+00         0.00000E+00        -0.15131E+08
 
   -0.21682E+08         0.89771E+06         0.00000E+00
    0.89771E+06        -0.58137E+08         0.00000E+00
    0.00000E+00         0.00000E+00        -0.15112E+08
 
   -0.19967E+08         0.14507E+07         0.00000E+00
    0.14507E+07        -0.58573E+08         0.00000E+00
    0.00000E+00         0.00000E+00        -0.15100E+08
 
   -0.18650E+08         0.22855E+07         0.00000E+00
    0.22855E+07        -0.59211E+08         0.00000E+00
    0.00000E+00         0.00000E+00        -0.15812E+08
 
   -0.18152E+08         0.35142E+07         0.00000E+00
    0.35142E+07        -0.60024E+08         0.00000E+00
    0.00000E+00         0.00000E+00        -0.17298E+08
 
   -0.43243E+08        -0.71922E+06         0.00000E+00
   -0.71922E+06        -0.59974E+08         0.00000E+00
    0.00000E+00         0.00000E+00        -0.13414E+08
 
   -0.39230E+08        -0.12129E+07         0.00000E+00
   -0.12129E+07        -0.59681E+08         0.00000E+00
    0.00000E+00         0.00000E+00        -0.13408E+08
 
   -0.36149E+08        -0.12145E+07         0.00000E+00
   -0.12145E+07        -0.59118E+08         0.00000E+00
    0.00000E+00         0.00000E+00        -0.13397E+08
 
   -0.33748E+08        -0.11012E+07         0.00000E+00
   -0.11012E+07        -0.58491E+08         0.00000E+00
    0.00000E+00         0.00000E+00        -0.13383E+08
 
   -0.31771E+08        -0.94981E+06         0.00000E+00
   -0.94981E+06        -0.57898E+08         0.00000E+00
    0.00000E+00         0.00000E+00        -0.13366E+08
 
   -0.30066E+08        -0.78218E+06         0.00000E+00
   -0.78218E+06        -0.57380E+08         0.00000E+00
    0.00000E+00         0.00000E+00        -0.13347E+08
 
   -0.28535E+08        -0.60453E+06         0.00000E+00
   -0.60453E+06        -0.56958E+08         0.00000E+00
    0.00000E+00         0.00000E+00        -0.13328E+08
 
   -0.27104E+08        -0.41675E+06         0.00000E+00
   -0.41675E+06        -0.56643E+08         0.00000E+00
    0.00000E+00         0.00000E+00        -0.13309E+08
 
   -0.25714E+08        -0.21506E+06         0.00000E+00
   -0.21506E+06        -0.56449E+08         0.00000E+00
    0.00000E+00         0.00000E+00        -0.13290E+08
 
   -0.24313E+08         0.74065E+04         0.00000E+00
    0.74065E+04        -0.56387E+08         0.00000E+00
    0.00000E+00         0.00000E+00        -0.13273E+08
 
   -0.22849E+08         0.26055E+06         0.00000E+00
    0.26055E+06        -0.56475E+08         0.00000E+00
    0.00000E+00         0.00000E+00        -0.13258E+08
 
   -0.21264E+08         0.55648E+06         0.00000E+00
    0.55648E+06        -0.56736E+08         0.00000E+00
    0.00000E+00         0.00000E+00        -0.13247E+08
 
   -0.19508E+08         0.89728E+06         0.00000E+00
    0.89728E+06        -0.57198E+08         0.00000E+00
    0.00000E+00         0.00000E+00        -0.13240E+08
 
   -0.17643E+08         0.14287E+07         0.00000E+00
    0.14287E+07        -0.57947E+08         0.00000E+00
    0.00000E+00         0.00000E+00        -0.13606E+08
 
   -0.16771E+08         0.25179E+07         0.00000E+00
    0.25179E+07        -0.59002E+08         0.00000E+00
    0.00000E+00         0.00000E+00        -0.15485E+08
 
   -0.44054E+08        -0.43543E+06         0.00000E+00
   -0.43543E+06        -0.59578E+08         0.00000E+00
    0.00000E+00         0.00000E+00        -0.11396E+08
 
   -0.39274E+08        -0.49379E+06         0.00000E+00
   -0.49379E+06        -0.58802E+08         0.00000E+00
    0.00000E+00         0.00000E+00        -0.11394E+08
 
   -0.36086E+08        -0.44774E+06         0.00000E+00
   -0.44774E+06        -0.57920E+08         0.00000E+00
    0.00000E+00         0.00000E+00        -0.11390E+08
 
   -0.33650E+08        -0.39192E+06         0.00000E+00
   -0.39192E+06        -0.57109E+08         0.00000E+00
    0.00000E+00         0.00000E+00        -0.11385E+08
 
   -0.31660E+08        -0.33183E+06         0.00000E+00
   -0.33183E+06        -0.56401E+08         0.00000E+00
    0.00000E+00         0.00000E+00        -0.11380E+08
 
   -0.29949E+08        -0.27033E+06         0.00000E+00
   -0.27033E+06        -0.55809E+08         0.00000E+00
    0.00000E+00         0.00000E+00        -0.11373E+08
 
   -0.28412E+08        -0.20752E+06         0.00000E+00
   -0.20752E+06        -0.55337E+08         0.00000E+00
    0.00000E+00         0.00000E+00        -0.11367E+08
 
   -0.26974E+08        -0.14244E+06         0.00000E+00
   -0.14244E+06        -0.54991E+08         0.00000E+00
    0.00000E+00         0.00000E+00        -0.11360E+08
 
   -0.25573E+08        -0.73307E+05         0.00000E+00
   -0.73307E+05        -0.54777E+08         0.00000E+00
    0.00000E+00         0.00000E+00        -0.11354E+08
 
   -0.24155E+08         0.25665E+04         0.00000E+00
    0.25665E+04        -0.54707E+08         0.00000E+00
    0.00000E+00         0.00000E+00        -0.11348E+08
 
   -0.22666E+08         0.88955E+05         0.00000E+00
    0.88955E+05        -0.54798E+08         0.00000E+00
    0.00000E+00         0.00000E+00        -0.11343E+08
 
   -0.21051E+08         0.18947E+06         0.00000E+00
    0.18947E+06        -0.55074E+08         0.00000E+00
    0.00000E+00         0.00000E+00        -0.11339E+08
 
   -0.19258E+08         0.31001E+06         0.00000E+00
    0.31001E+06        -0.55566E+08         0.00000E+00
    0.00000E+00         0.00000E+00        -0.11337E+08
 
   -0.17108E+08         0.47418E+06         0.00000E+00
    0.47418E+06        -0.56393E+08         0.00000E+00
    0.00000E+00         0.00000E+00        -0.11348E+08
 
   -0.15498E+08         0.97085E+06         0.00000E+00
    0.97085E+06        -0.57784E+08         0.00000E+00
    0.00000E+00         0.00000E+00        -0.13399E+08
 
SCALARS stresss double 
LOOKUP_TABLE default
  -47477632.7920387     
  -47137507.9987432     
  -47196099.6536210     
  -47587261.9644197     
  -48404713.9756530     
  -49767931.7515338     
  -50785627.4474450     
  -51603955.7228097     
  -52305328.9958916     
  -52927948.3781311     
  -53494968.8393338     
  -54024850.2133392     
  -54537884.7464807     
  -55065075.1052680     
  -55694285.0687061     
  -47425760.2771346     
  -47562574.4550081     
  -47535081.8895562     
  -47678919.1735061     
  -48085208.7623508     
  -48895996.2967635     
  -49735630.5187934     
  -50473050.0128595     
  -51127529.4141764     
  -51717350.3152354     
  -52257287.0070285     
  -52760205.1376611     
  -53239046.8405662     
  -53710206.9560350     
  -54154449.6430140     
  -46393234.5701042     
  -46777454.8438968     
  -46980932.7051619     
  -47291279.0397169     
  -47717457.0013506     
  -48268018.3061981     
  -48897939.5317477     
  -49520309.7404473     
  -50100696.6251457     
  -50636437.1471821     
  -51131078.9440865     
  -51589451.9794400     
  -52015535.7587660     
  -52405234.7402745     
  -52742014.6185907     
  -45818657.8444552     
  -46200199.8860959     
  -46526292.3220585     
  -46850562.5569903     
  -47238200.6642875     
  -47692019.6573206     
  -48191017.9536588     
  -48703737.8526750     
  -49202278.5995375     
  -49673231.8183114     
  -50112015.4101325     
  -50516659.4713007     
  -50883852.6655340     
  -51205787.2361776     
  -51467324.7023675     
  -45506643.0051425     
  -45795144.9865049     
  -46099371.6669185     
  -46416956.6132039     
  -46764000.4384066     
  -47148425.9864620     
  -47561580.0532637     
  -47987171.6922483     
  -48408615.9270953     
  -48813212.9850975     
  -49192863.8803692     
  -49541682.2582010     
  -49853365.2683074     
  -50119112.3483347     
  -50326574.2782467     
  -45219084.0835891     
  -45461723.0844248     
  -45726749.9131150     
  -46011223.4836245     
  -46316878.9266833     
  -46644844.6877753     
  -46990943.2908780     
  -47346097.8069419     
  -47699603.0908988     
  -48041597.7839609     
  -48363881.4159400     
  -48659391.0971997     
  -48920995.2609385     
  -49140423.1006614     
  -49307744.9115381     
  -44951795.3512320     
  -45160934.5264973     
  -45390920.8523668     
  -45638263.0796050     
  -45901734.1686955     
  -46179984.7123655     
  -46469696.5188793     
  -46765165.7454018     
  -47059215.9068982     
  -47344402.0297257     
  -47613671.0916261     
  -47860356.9853154     
  -48077780.4362752     
  -48258807.7327599     
  -48395670.8144787     
  -44695314.3187979     
  -44879467.6040124     
  -45079172.5778587     
  -45291721.8698750     
  -45515483.5748551     
  -45748823.3031666     
  -45989157.4669108     
  -46232605.6621502     
  -46474232.3675471     
  -46708557.0719097     
  -46929969.1722500     
  -47132881.5898736     
  -47311678.7653938     
  -47460620.1791675     
  -47573854.4278375     
  -44441843.0528240     
  -44607854.9160028     
  -44782282.5124702     
  -44963765.8838977     
  -45151415.7278174     
  -45344210.5364485     
  -45540508.0564800     
  -45737812.3306111     
  -45932831.0847652     
  -46121709.6012471     
  -46300285.7201710     
  -46464266.5664095     
  -46609320.5120052     
  -46731143.8294425     
  -46825576.9393971     
  -44185315.7275261     
  -44338853.5515359     
  -44492531.2383910     
  -44646778.7317710     
  -44801975.9547283     
  -44958169.4486999     
  -45114828.1465456     
  -45270722.5276495     
  -45423950.1575710     
  -45572071.2209564     
  -45712287.5000927     
  -45841612.0511267     
  -45957013.8288041     
  -46055555.0211059     
  -46134552.5947141     
  -43921713.4965409     
  -44066950.0390494     
  -44203519.0801542     
  -44333831.2292011     
  -44459798.3687127     
  -44582760.5416622     
  -44703405.4501273     
  -44821738.3541842     
  -44937126.5897681     
  -45048410.0803319     
  -45154050.9618095     
  -45252295.8081381     
  -45341337.4990112     
  -45419479.1307456     
  -45485310.8975606     
  -43648823.9708967     
  -43788234.2319531     
  -43910137.5912944     
  -44018934.2312428     
  -44118156.8257618     
  -44210533.2603486     
  -44298016.2487880     
  -44381824.7793801     
  -44462520.2302190     
  -44540120.4951166     
  -44614242.9413229     
  -44684263.7407227     
  -44749484.8266042     
  -44809305.7897182     
  -44863402.2951222     
  -43365936.8259505     
  -43500225.1592399     
  -43608530.0079283     
  -43697133.3749037     
  -43771166.9327348     
  -43834752.9181668     
  -43891104.3819335     
  -43942618.5460816     
  -43990983.0937165     
  -44037302.8167451     
  -44082245.5074127     
  -44126202.0870195     
  -44169455.6518047     
  -44212355.3011039     
  -44255491.6687290     
  -43073542.7842428     
  -43201665.5236920     
  -43295983.8217095     
  -43364494.8941293     
  -43413841.4507710     
  -43449488.9740541     
  -43475866.3002760     
  -43496493.1995697     
  -43514110.1450436     
  -43530817.8138000     
  -43548228.5424176     
  -43567629.0299964     
  -43590151.9409430     
  -43616952.1337277     
  -43649381.0195628     
  -42773062.8195160     
  -42892299.0574630     
  -42970772.8242899     
  -43018012.1143837     
  -43042049.6484539     
  -43049607.9656399     
  -43046258.3894385     
  -43036568.6916023     
  -43024248.9877221     
  -43012301.0014521     
  -43003173.6224465     
  -42998927.5133482     
  -43001410.4239163     
  -43012440.7289799     
  -43033988.5705722     
  -42466607.3250326     
  -42572644.6237614     
  -42631967.3065551     
  -42655458.7757186     
  -42652410.9110026     
  -42630698.6738524     
  -42596943.0296418     
  -42556669.4850148     
  -42514465.1622430     
  -42474134.3357658     
  -42438853.6958661     
  -42411333.2902657     
  -42393994.4433707     
  -42389168.7392020     
  -42399305.0530362     
  -42156760.3500274     
  -42243773.6259247     
  -42279226.1789596     
  -42275207.3924602     
  -42242143.2309685     
  -42188949.0998731     
  -42123188.8973467     
  -42051241.2455658     
  -41978468.3088267     
  -41909377.9467062     
  -41847771.3711199     
  -41796886.1231771     
  -41759560.8811269     
  -41738461.0853308     
  -41736349.7463768     
  -41846383.3156420     
  -41907092.2751260     
  -41912577.6894040     
  -41876022.9976340     
  -41808879.3176029     
  -41720989.1851422     
  -41620739.5048701     
  -41515239.6044109     
  -41410510.7211334     
  -41311666.2758668     
  -41223053.5389600     
  -41148338.5207273     
  -41090612.8656238     
  -41052614.1947638     
  -41037165.5161983     
  -41538433.3767602     
  -41564125.9878023     
  -41532188.3343716     
  -41456834.4343421     
  -41350455.3574749     
  -41223707.4857032     
  -41085662.0074654     
  -40944006.8572251     
  -40805278.7681444     
  -40675086.2555586     
  -40558282.5817555     
  -40458991.3389450     
  -40380413.3381573     
  -40324972.5060708     
  -40294942.3881942     
  -41235792.4145107     
  -41216298.6468467     
  -41138111.7188293     
  -41016476.3091780     
  -40864668.8803243     
  -40694043.2476031     
  -40514184.4032663     
  -40333155.3153241     
  -40157804.3932393     
  -39994087.7463688     
  -39847307.6760163     
  -39722257.8718143     
  -39622773.6404651     
  -39550131.8715337     
  -39504621.9907571     
  -40941102.6165277     
  -40864693.0009215     
  -40729998.9702743     
  -40553383.6751417     
  -40348992.1464032     
  -40128746.8736773     
  -39902522.8522303     
  -39678470.8774660     
  -39463442.6268355     
  -39263467.9486715     
  -39084234.6613136     
  -38931197.5315078     
  -38810137.0522154     
  -38724625.9461475     
  -38665339.3701863     
  -40656602.1850164     
  -40509767.2720735     
  -40306737.0191380     
  -40065206.8549793     
  -39800215.9079640     
  -39524092.8288021     
  -39246690.9753644     
  -38975839.7756678     
  -38717931.3327725     
  -38478595.7476212     
  -38263470.5615541     
  -38079175.8488426     
  -37932012.6851762     
  -37834935.3514229     
  -37811198.4520953     
  -40383947.1433303     
  -40150981.3471338     
  -39865955.2684222     
  -39548292.9770109     
  -39213986.5713444     
  -38875523.3632444     
  -38542276.2421148     
  -38221177.9904681     
  -37917520.1391645     
  -37635813.5428543     
  -37380778.2532098     
  -37158921.1432976     
  -36982170.7124467     
  -36851908.1350624     
  -37043078.0195908     
  -40123986.0372853     
  -39786241.5043699     
  -39403293.1748250     
  -38996950.2086289     
  -38584191.4009229     
  -38177208.1370392     
  -37784175.0236222     
  -37410333.6439610     
  -37059072.6437125     
  -36732903.4565891     
  -36434463.3492246     
  -36167668.7530501     
  -35943222.9847245     
  -35858927.7317355     
  -36245161.8799134     
  -39876411.9815703     
  -39410970.4290528     
  -38911228.7637106     
  -38402364.8055120     
  -37902154.8413330     
  -37421539.2769805     
  -36966314.4911927     
  -36538952.4244589     
  -36140040.1146164     
  -35769259.5849339     
  -35426057.1024130     
  -35110413.8350965     
  -34819418.0567721     
  -34876964.1458526     
  -35317373.1574629     
  -39639083.8482827     
  -39016377.3998249     
  -38377062.1065475     
  -37751000.3408767     
  -37155669.0885525     
  -36598674.3004927     
  -36081462.9195830     
  -35602357.9840269     
  -35158280.6866540     
  -34745520.5788099     
  -34359909.4267609     
  -33996470.2672060     
  -33649260.7633682     
  -33804194.2430496     
  -34270452.6611274     
  -39406543.4644914     
  -38585728.6791220     
  -37779316.4079706     
  -37022324.8221607     
  -36328141.6703373     
  -35696418.5104825     
  -35121310.2651680     
  -34595569.8519787     
  -34111830.3843915     
  -33662848.6233348     
  -33241186.9092410     
  -32837881.9643453     
  -32443529.8904086     
  -32590884.9584296     
  -33107136.1974131     
  -39165018.9719891     
  -38085829.4449482     
  -37080856.2061087     
  -36186652.6321396     
  -35398802.5667522     
  -34700859.4941844     
  -34077029.7422763     
  -33513604.0188976     
  -32998821.5650444     
  -32522258.8110629     
  -32073966.8479617     
  -31643742.1320124     
  -31213304.2295609     
  -31224329.9108014     
  -31824593.1361957     
  -38877112.1316811     
  -37439746.1967726     
  -36221274.9124202     
  -35207220.5977868     
  -34344949.8703601     
  -33598122.1018430     
  -32940412.6843459     
  -32352120.5412763     
  -31817735.2860772     
  -31324358.2893090     
  -30860679.0569129     
  -30415709.2257364     
  -29981771.3247516     
  -29732276.5993418     
  -30419426.2912430     
  -38342488.3140955     
  -36490056.8559232     
  -35132242.3024160     
  -34047969.7743001     
  -33146821.7785272     
  -32377076.3327744     
  -31705417.5242256     
  -31108323.6628641     
  -30567953.3653118     
  -30069913.3099484     
  -29602052.6880267     
  -29154488.1763564     
  -28720256.8309184     
  -28282703.3681998     
  -28893865.4350124     
SCALARS 2waySource double 
LOOKUP_TABLE default
  8.069134786426901E-003
  5.508552799175497E-003
  3.838883730510222E-003
  3.584061619878171E-003
 -1.002356028930643E-003
  2.046911466540640E-003
  4.404097355985451E-003
  5.703166407737870E-003
  6.550115616908525E-003
  7.154929602552710E-003
  7.612685914288702E-003
  7.975733571321848E-003
  8.277763213461561E-003
  8.544562248587032E-003
  8.798052377064193E-003
  9.068409647719797E-003
  1.005315249874676E-002
  8.985588626308577E-003
  8.224485328474765E-003
  5.125344907994343E-003
  3.989717532036441E-003
  5.070288829783555E-003
  5.936540720666717E-003
  6.597603584484159E-003
  7.108439095585396E-003
  7.515114307301715E-003
  7.849261970052677E-003
  8.135071256287339E-003
  8.393564090274011E-003
  8.646185660111643E-003
  8.275401670404206E-003
  9.312984863072771E-003
  8.567661251815423E-003
  7.475339409042293E-003
  6.436653810022770E-003
  5.623795023494518E-003
  5.660161291019768E-003
  6.097743609285871E-003
  6.536713446369987E-003
  6.927296628652484E-003
  7.265043297688132E-003
  7.559049437203046E-003
  7.821743290247561E-003
  8.067724028887682E-003
  8.314485165611583E-003
  7.118978260986310E-003
  7.678136542491582E-003
  7.631437243627266E-003
  7.089680584120592E-003
  6.490429956397271E-003
  6.057369599428436E-003
  5.921194096520032E-003
  6.059695889518167E-003
  6.317013429641935E-003
  6.594152658942030E-003
  6.861767439374864E-003
  7.112356502019985E-003
  7.348391686498588E-003
  7.577810635741448E-003
  7.813000248044637E-003
  6.475062438162258E-003
  6.679522875847062E-003
  6.679474666547669E-003
  6.451064285839064E-003
  6.128247974899301E-003
  5.865514636494109E-003
  5.746863049845936E-003
  5.779706991005241E-003
  5.918801241166928E-003
  6.108847535364847E-003
  6.315871943093774E-003
  6.525556257346674E-003
  6.733911300974303E-003
  6.943348490316991E-003
  7.161010376924464E-003
  5.755010308006393E-003
  5.822127734863305E-003
  5.802564881179337E-003
  5.683437829210257E-003
  5.510732736177503E-003
  5.355518453998866E-003
  5.271634577882441E-003
  5.276461807487049E-003
  5.357342938934716E-003
  5.489192335265716E-003
  5.649270646872301E-003
  5.823228630225960E-003
  6.004232624574063E-003
  6.190714371142198E-003
  6.385059897545611E-003
  5.043480303024967E-003
  5.013808334498283E-003
  4.959992701104369E-003
  4.872992587042340E-003
  4.766984475432423E-003
  4.672397226862385E-003
  4.617881217903469E-003
  4.617939758577765E-003
  4.671377985257503E-003
  4.767315304042093E-003
  4.892510228308311E-003
  5.035926614361266E-003
  5.190145468752769E-003
  5.351007962702525E-003
  5.516871078656452E-003
  4.390487774023871E-003
  4.260842295975960E-003
  4.158619008823666E-003
  4.066091067237420E-003
  3.981089326186219E-003
  3.912930545310047E-003
  3.874134629183566E-003
  3.873029303693213E-003
  3.910793541050455E-003
  3.982641474698567E-003
  4.080819460550074E-003
  4.197233149757430E-003
  4.324794088015775E-003
  4.457670971136463E-003
  4.590967873440891E-003
  3.813739849087361E-003
  3.580830713036578E-003
  3.418764977458127E-003
  3.299026248887596E-003
  3.208104605962882E-003
  3.142971762002517E-003
  3.105803967429143E-003
  3.099196958691725E-003
  3.123317671233178E-003
  3.175272303805021E-003
  3.249879282343621E-003
  3.340779971756268E-003
  3.441194723705437E-003
  3.544136389416439E-003
  3.642192897224123E-003
  3.315120453708922E-003
  2.984464829969911E-003
  2.757687991433267E-003
  2.598363949600978E-003
  2.485160528650168E-003
  2.407183887185636E-003
  2.359799579473213E-003
  2.341041661366974E-003
  2.349092738373575E-003
  2.381011803296205E-003
  2.432429053220703E-003
  2.497701428333414E-003
  2.570093373208916E-003
  2.641754898778461E-003
  2.703444874262165E-003
  2.889521269032936E-003
  2.474381545469266E-003
  2.184790992621722E-003
  1.980580236734965E-003
  1.835825667851245E-003
  1.734754957398690E-003
  1.668267452526586E-003
  1.631015476634108E-003
  1.619182673691585E-003
  1.629031233357526E-003
  1.656105466284071E-003
  1.694847300250015E-003
  1.738367898331533E-003
  1.778194191898535E-003
  1.803897678798916E-003
  2.529009088003092E-003
  2.047209023192986E-003
  1.701983025039896E-003
  1.453117051904775E-003
  1.272912545176727E-003
  1.143011237671569E-003
  1.051599216638196E-003
  9.910094725472771E-004
  9.557870078178367E-004
  9.412518336220845E-004
  9.425130461149176E-004
  9.538134244168304E-004
  9.680588262083439E-004
  9.764076245744577E-004
  9.678349345015860E-004
  2.224819292418920E-003
  1.695852584750390E-003
  1.305567739775680E-003
  1.016366697330884E-003
  8.009703010603431E-004
  6.402224718097301E-004
  5.209778968839601E-004
  4.341854975455999E-004
  3.732471483269758E-004
  3.326938928580034E-004
  3.071713579241050E-004
  2.906801238214763E-004
  2.759926168501430E-004
  2.541686547453188E-004
  2.141060882802277E-004
  1.968381962990617E-003
  1.411361728036132E-003
  9.883117986781874E-004
  6.658434130682248E-004
  4.186157190105065E-004
  2.280033285106893E-004
  8.061112538056539E-005
 -3.319525958503880E-005
 -1.206360715327440E-004
 -1.876796782180636E-004
 -2.399994057884857E-004
 -2.837379458633607E-004
 -3.261131899111156E-004
 -3.759074045852524E-004
 -4.438795119467523E-004
  1.751862608815929E-003
  1.184292020190934E-003
  7.412018303281196E-004
  3.941292076647363E-004
  1.205810884002832E-004
 -9.662595995749852E-005
 -2.703257526142977E-004
 -4.100773083250152E-004
 -5.232328140941408E-004
 -6.159221595628331E-004
 -6.939122768508278E-004
 -7.633230130714755E-004
 -8.312020762562043E-004
 -9.059685250724502E-004
 -9.977443159982337E-004
  1.568421811519552E-003
  1.005605379460483E-003
  5.547526234653075E-004
  1.924173869877934E-004
 -1.006202590782591E-004
 -3.395443527010919E-004
 -5.360579193658818E-004
 -6.991291403858275E-004
 -8.358098527587217E-004
 -9.520501634960142E-004
 -1.053452459239796E-003
 -1.145928720619309E-003
 -1.236220224567101E-003
 -1.332272530114663E-003
 -1.443439373987276E-003
  1.412292735086449E-003
  8.671894450764905E-004
  4.198741261404216E-004
  5.161952827161282E-005
 -2.534405724670149E-004
 -5.082114695181856E-004
 -7.229026123328553E-004
 -9.055127455532561E-004
 -1.062431819219795E-003
 -1.199094677785812E-003
 -1.320661152046870E-003
 -1.432631167201018E-003
 -1.541364269329058E-003
 -1.654358643483735E-003
 -1.780320978362949E-003
  1.278737204867986E-003
  7.620848300251343E-004
  3.283648439278170E-004
 -3.692317767738536E-005
 -3.464288235701379E-004
 -6.107022718844458E-004
 -8.382669906138938E-004
 -1.035901945351862E-003
 -1.209054732744427E-003
 -1.362333805959562E-003
 -1.500072814074908E-003
 -1.627116440527816E-003
 -1.749331422659111E-003
 -1.874087452716578E-003
 -2.009958940806147E-003
  1.163926115926283E-003
  6.845055825851910E-004
  2.731195179570264E-004
 -8.104891372751203E-005
 -3.876847888435478E-004
 -6.550440461983210E-004
 -8.899082818481487E-004
 -1.097712171144427E-003
 -1.282776841503027E-003
 -1.448638816559468E-003
 -1.598427146251664E-003
 -1.735370698455101E-003
 -1.864899819478280E-003
 -1.994406453396319E-003
 -2.134338374879127E-003
  1.064782862617275E-003
  6.297295407120459E-004
  2.481404056132780E-004
 -8.761856420294958E-005
 -3.845609325542061E-004
 -6.487927463867025E-004
 -8.854030357209888E-004
 -1.098477929643012E-003
 -1.291179749598494E-003
 -1.465816107872984E-003
 -1.624121318554347E-003
 -1.767225271673001E-003
 -1.895095025289340E-003
 -2.018378024330892E-003
 -2.151314286531347E-003
  9.788238019610258E-004
  5.939255496209307E-004
  2.484353917569903E-004
 -6.250853799534891E-005
 -3.435362403993103E-004
 -5.987892182070086E-004
 -8.317811151108611E-004
 -1.045348357405670E-003
 -1.241618351253634E-003
 -1.421909422642309E-003
 -1.586185807175961E-003
 -1.734135420291960E-003
 -1.862943650031969E-003
 -1.949599536747160E-003
 -2.035983211209949E-003
  9.040255259680074E-004
  5.739765230272423E-004
  2.698792897949546E-004
 -1.067283072275814E-005
 -2.701904421024162E-004
 -5.110438419285295E-004
 -7.353109439948197E-004
 -9.447139777259208E-004
 -1.140592493927943E-003
 -1.323739457109399E-003
 -1.493938128717816E-003
 -1.645994709202207E-003
 -1.779317420626096E-003
 -1.906902517566399E-003
 -1.541675963855047E-003
  8.387443621868859E-004
  5.673529270654098E-004
  3.091108349595234E-004
  6.380261345068518E-005
 -1.692095701145648E-004
 -3.907020358291924E-004
 -6.014273710285619E-004
 -8.020819565224555E-004
 -9.933622390684801E-004
 -1.176083862601438E-003
 -1.351027546280591E-003
 -1.518882929698322E-003
 -1.654149062203571E-003
 -1.708151545879610E-003
 -6.506749681954296E-004
  7.817096681506199E-004
  5.720919649029896E-004
  3.635389156472324E-004
  1.577288276562634E-004
 -4.435536148057680E-005
 -2.420350287953885E-004
 -4.347730854128104E-004
 -6.222078725051328E-004
 -8.043237365862722E-004
 -9.817729816582487E-004
 -1.156750834021971E-003
 -1.335106787632212E-003
 -1.539615561134532E-003
 -8.269531612724075E-004
 -4.936734720429688E-004
  7.321102996235708E-004
  5.869480457736838E-004
  4.315390017434223E-004
  2.689990970215335E-004
  1.016591111212919E-004
 -6.840102360125914E-005
 -2.392702787345976E-004
 -4.093694889480497E-004
 -5.777140946906076E-004
 -7.442363806844438E-004
 -9.104354768455412E-004
 -1.081231587616379E-003
 -1.278832004246213E-003
 -2.653245853412510E-004
 -2.436779502246858E-004
  6.898038658154798E-004
  6.118098369210793E-004
  5.129459081281185E-004
  3.969887927605518E-004
  2.674080888420605E-004
  1.278442413187951E-004
 -1.814958965794760E-005
 -1.675280551533769E-004
 -3.180644751961291E-004
 -4.686380734220419E-004
 -6.190577178477458E-004
 -7.700541841544970E-004
 -9.176847286533809E-004
  1.397379631263049E-004
  1.359282173313036E-004
  6.556929383294951E-004
  6.486169585517138E-004
  6.099900017796448E-004
  5.431828490442359E-004
  4.530207614179311E-004
  3.454276298383279E-004
  2.260682496111056E-004
  9.969119680945628E-005
 -3.004411011670716E-005
 -1.607376125204253E-004
 -2.920025054055821E-004
 -4.225972753035812E-004
 -5.430470288300463E-004
  5.541454858605771E-004
  5.356658325827714E-004
  6.326989351785647E-004
  7.033106978680042E-004
  7.290114702434589E-004
  7.117277710990534E-004
  6.601878928119051E-004
  5.841147858640307E-004
  4.915766886556922E-004
  3.890730969653992E-004
  2.818100954038995E-004
  1.737544037492756E-004
  6.713655978858406E-005
 -4.407798362836601E-005
 -1.669727150623941E-004
  1.001775666148245E-003
  9.306995463234649E-004
  6.282384991234831E-004
  7.921275967920552E-004
  8.819582704681817E-004
  9.087117791515430E-004
  8.916677094770117E-004
  8.444580124242645E-004
  7.772345716596854E-004
  6.978983270886443E-004
  6.130144071724585E-004
  5.285617547870502E-004
  4.503800199560685E-004
  3.843166430873805E-004
  2.942441253603170E-004
  1.251427834024961E-003
  1.469770552110598E-003
  6.850646454871795E-004
  9.484466606329341E-004
  1.081227168703702E-003
  1.140129221356663E-003
  1.150306456771764E-003
  1.127420558795839E-003
  1.082503948666932E-003
  1.024095872822578E-003
  9.595213728974882E-004
  8.960983357428284E-004
  8.431427154888266E-004
  8.183652380665400E-004
  8.723883771901227E-004
  1.091555470607145E-003
  2.280184128740597E-003
SCALARS elementIsPlast double 
LOOKUP_TABLE default
   1.00000000000000     
   1.00000000000000     
   1.00000000000000     
   1.00000000000000     
   1.00000000000000     
  0.000000000000000E+000
  0.000000000000000E+000
  0.000000000000000E+000
  0.000000000000000E+000
  0.000000000000000E+000
  0.000000000000000E+000
  0.000000000000000E+000
  0.000000000000000E+000
  0.000000000000000E+000
  0.000000000000000E+000
   1.00000000000000     
   1.00000000000000     
   1.00000000000000     
  0.000000000000000E+000
  0.000000000000000E+000
  0.000000000000000E+000
  0.000000000000000E+000
  0.000000000000000E+000
  0.000000000000000E+000
  0.000000000000000E+000
  0.000000000000000E+000
  0.000000000000000E+000
  0.000000000000000E+000
  0.000000000000000E+000
  0.000000000000000E+000
   1.00000000000000     
  0.000000000000000E+000
  0.000000000000000E+000
  0.000000000000000E+000
  0.000000000000000E+000
  0.000000000000000E+000
  0.000000000000000E+000
  0.000000000000000E+000
  0.000000000000000E+000
  0.000000000000000E+000
  0.000000000000000E+000
  0.000000000000000E+000
  0.000000000000000E+000
  0.000000000000000E+000
  0.000000000000000E+000
  0.000000000000000E+000
  0.000000000000000E+000
  0.000000000000000E+000
  0.000000000000000E+000
  0.000000000000000E+000
  0.000000000000000E+000
  0.000000000000000E+000
  0.000000000000000E+000
  0.000000000000000E+000
  0.000000000000000E+000
  0.000000000000000E+000
  0.000000000000000E+000
  0.000000000000000E+000
  0.000000000000000E+000
  0.000000000000000E+000
  0.000000000000000E+000
  0.000000000000000E+000
  0.000000000000000E+000
  0.000000000000000E+000
  0.000000000000000E+000
  0.000000000000000E+000
  0.000000000000000E+000
  0.000000000000000E+000
  0.000000000000000E+000
  0.000000000000000E+000
  0.000000000000000E+000
  0.000000000000000E+000
  0.000000000000000E+000
  0.000000000000000E+000
  0.000000000000000E+000
  0.000000000000000E+000
  0.000000000000000E+000
  0.000000000000000E+000
  0.000000000000000E+000
  0.000000000000000E+000
  0.000000000000000E+000
  0.000000000000000E+000
  0.000000000000000E+000
  0.000000000000000E+000
  0.000000000000000E+000
  0.000000000000000E+000
  0.000000000000000E+000
  0.000000000000000E+000
  0.000000000000000E+000
  0.000000000000000E+000
  0.000000000000000E+000
  0.000000000000000E+000
  0.000000000000000E+000
  0.000000000000000E+000
  0.000000000000000E+000
  0.000000000000000E+000
  0.000000000000000E+000
  0.000000000000000E+000
  0.000000000000000E+000
  0.000000000000000E+000
  0.000000000000000E+000
  0.000000000000000E+000
  0.000000000000000E+000
  0.000000000000000E+000
  0.000000000000000E+000
  0.000000000000000E+000
  0.000000000000000E+000
  0.000000000000000E+000
  0.000000000000000E+000
  0.000000000000000E+000
  0.000000000000000E+000
  0.000000000000000E+000
  0.000000000000000E+000
  0.000000000000000E+000
  0.000000000000000E+000
  0.000000000000000E+000
  0.000000000000000E+000
  0.000000000000000E+000
  0.000000000000000E+000
  0.000000000000000E+000
  0.000000000000000E+000
  0.000000000000000E+000
  0.000000000000000E+000
  0.000000000000000E+000
  0.000000000000000E+000
  0.000000000000000E+000
  0.000000000000000E+000
  0.000000000000000E+000
  0.000000000000000E+000
  0.000000000000000E+000
  0.000000000000000E+000
  0.000000000000000E+000
  0.000000000000000E+000
  0.000000000000000E+000
  0.000000000000000E+000
  0.000000000000000E+000
  0.000000000000000E+000
  0.000000000000000E+000
  0.000000000000000E+000
  0.000000000000000E+000
  0.000000000000000E+000
  0.000000000000000E+000
  0.000000000000000E+000
  0.000000000000000E+000
  0.000000000000000E+000
  0.000000000000000E+000
  0.000000000000000E+000
  0.000000000000000E+000
  0.000000000000000E+000
  0.000000000000000E+000
  0.000000000000000E+000
  0.000000000000000E+000
  0.000000000000000E+000
  0.000000000000000E+000
  0.000000000000000E+000
  0.000000000000000E+000
  0.000000000000000E+000
  0.000000000000000E+000
  0.000000000000000E+000
  0.000000000000000E+000
  0.000000000000000E+000
  0.000000000000000E+000
  0.000000000000000E+000
  0.000000000000000E+000
  0.000000000000000E+000
  0.000000000000000E+000
  0.000000000000000E+000
  0.000000000000000E+000
  0.000000000000000E+000
  0.000000000000000E+000
  0.000000000000000E+000
  0.000000000000000E+000
  0.000000000000000E+000
  0.000000000000000E+000
  0.000000000000000E+000
  0.000000000000000E+000
  0.000000000000000E+000
  0.000000000000000E+000
  0.000000000000000E+000
  0.000000000000000E+000
  0.000000000000000E+000
  0.000000000000000E+000
  0.000000000000000E+000
  0.000000000000000E+000
  0.000000000000000E+000
  0.000000000000000E+000
  0.000000000000000E+000
  0.000000000000000E+000
  0.000000000000000E+000
  0.000000000000000E+000
  0.000000000000000E+000
  0.000000000000000E+000
  0.000000000000000E+000
  0.000000000000000E+000
  0.000000000000000E+000
  0.000000000000000E+000
  0.000000000000000E+000
  0.000000000000000E+000
  0.000000000000000E+000
  0.000000000000000E+000
  0.000000000000000E+000
  0.000000000000000E+000
  0.000000000000000E+000
  0.000000000000000E+000
  0.000000000000000E+000
  0.000000000000000E+000
  0.000000000000000E+000
  0.000000000000000E+000
  0.000000000000000E+000
  0.000000000000000E+000
  0.000000000000000E+000
  0.000000000000000E+000
  0.000000000000000E+000
  0.000000000000000E+000
  0.000000000000000E+000
  0.000000000000000E+000
  0.000000000000000E+000
  0.000000000000000E+000
  0.000000000000000E+000
  0.000000000000000E+000
  0.000000000000000E+000
  0.000000000000000E+000
  0.000000000000000E+000
  0.000000000000000E+000
  0.000000000000000E+000
  0.000000000000000E+000
  0.000000000000000E+000
  0.000000000000000E+000
  0.000000000000000E+000
  0.000000000000000E+000
  0.000000000000000E+000
  0.000000000000000E+000
  0.000000000000000E+000
  0.000000000000000E+000
  0.000000000000000E+000
  0.000000000000000E+000
  0.000000000000000E+000
  0.000000000000000E+000
  0.000000000000000E+000
  0.000000000000000E+000
  0.000000000000000E+000
  0.000000000000000E+000
  0.000000000000000E+000
  0.000000000000000E+000
  0.000000000000000E+000
  0.000000000000000E+000
  0.000000000000000E+000
  0.000000000000000E+000
  0.000000000000000E+000
  0.000000000000000E+000
  0.000000000000000E+000
  0.000000000000000E+000
  0.000000000000000E+000
  0.000000000000000E+000
  0.000000000000000E+000
  0.000000000000000E+000
  0.000000000000000E+000
  0.000000000000000E+000
  0.000000000000000E+000
  0.000000000000000E+000
  0.000000000000000E+000
  0.000000000000000E+000
  0.000000000000000E+000
  0.000000000000000E+000
  0.000000000000000E+000
  0.000000000000000E+000
  0.000000000000000E+000
  0.000000000000000E+000
  0.000000000000000E+000
  0.000000000000000E+000
  0.000000000000000E+000
  0.000000000000000E+000
  0.000000000000000E+000
  0.000000000000000E+000
  0.000000000000000E+000
  0.000000000000000E+000
  0.000000000000000E+000
  0.000000000000000E+000
  0.000000000000000E+000
  0.000000000000000E+000
  0.000000000000000E+000
  0.000000000000000E+000
  0.000000000000000E+000
  0.000000000000000E+000
  0.000000000000000E+000
  0.000000000000000E+000
  0.000000000000000E+000
  0.000000000000000E+000
  0.000000000000000E+000
  0.000000000000000E+000
  0.000000000000000E+000
  0.000000000000000E+000
  0.000000000000000E+000
  0.000000000000000E+000
  0.000000000000000E+000
  0.000000000000000E+000
  0.000000000000000E+000
  0.000000000000000E+000
  0.000000000000000E+000
  0.000000000000000E+000
  0.000000000000000E+000
  0.000000000000000E+000
  0.000000000000000E+000
  0.000000000000000E+000
  0.000000000000000E+000
  0.000000000000000E+000
  0.000000000000000E+000
  0.000000000000000E+000
  0.000000000000000E+000
  0.000000000000000E+000
  0.000000000000000E+000
  0.000000000000000E+000
  0.000000000000000E+000
  0.000000000000000E+000
  0.000000000000000E+000
  0.000000000000000E+000
  0.000000000000000E+000
  0.000000000000000E+000
  0.000000000000000E+000
  0.000000000000000E+000
  0.000000000000000E+000
  0.000000000000000E+000
  0.000000000000000E+000
  0.000000000000000E+000
  0.000000000000000E+000
  0.000000000000000E+000
  0.000000000000000E+000
  0.000000000000000E+000
  0.000000000000000E+000
   1.00000000000000     
  0.000000000000000E+000
  0.000000000000000E+000
  0.000000000000000E+000
  0.000000000000000E+000
  0.000000000000000E+000
  0.000000000000000E+000
  0.000000000000000E+000
  0.000000000000000E+000
  0.000000000000000E+000
  0.000000000000000E+000
  0.000000000000000E+000
  0.000000000000000E+000
  0.000000000000000E+000
  0.000000000000000E+000
   1.00000000000000     
  0.000000000000000E+000
  0.000000000000000E+000
  0.000000000000000E+000
  0.000000000000000E+000
  0.000000000000000E+000
  0.000000000000000E+000
  0.000000000000000E+000
  0.000000000000000E+000
  0.000000000000000E+000
  0.000000000000000E+000
  0.000000000000000E+000
  0.000000000000000E+000
  0.000000000000000E+000
   1.00000000000000     
   1.00000000000000     
  0.000000000000000E+000
  0.000000000000000E+000
  0.000000000000000E+000
  0.000000000000000E+000
  0.000000000000000E+000
  0.000000000000000E+000
  0.000000000000000E+000
  0.000000000000000E+000
  0.000000000000000E+000
  0.000000000000000E+000
  0.000000000000000E+000
  0.000000000000000E+000
  0.000000000000000E+000
   1.00000000000000     
   1.00000000000000     
  0.000000000000000E+000
  0.000000000000000E+000
  0.000000000000000E+000
  0.000000000000000E+000
  0.000000000000000E+000
  0.000000000000000E+000
  0.000000000000000E+000
  0.000000000000000E+000
  0.000000000000000E+000
  0.000000000000000E+000
  0.000000000000000E+000
  0.000000000000000E+000
  0.000000000000000E+000
   1.00000000000000     
   1.00000000000000     
  0.000000000000000E+000
  0.000000000000000E+000
  0.000000000000000E+000
  0.000000000000000E+000
  0.000000000000000E+000
  0.000000000000000E+000
  0.000000000000000E+000
  0.000000000000000E+000
  0.000000000000000E+000
  0.000000000000000E+000
  0.000000000000000E+000
  0.000000000000000E+000
  0.000000000000000E+000
   1.00000000000000     
   1.00000000000000     
  0.000000000000000E+000
  0.000000000000000E+000
  0.000000000000000E+000
  0.000000000000000E+000
  0.000000000000000E+000
  0.000000000000000E+000
  0.000000000000000E+000
  0.000000000000000E+000
  0.000000000000000E+000
  0.000000000000000E+000
  0.000000000000000E+000
  0.000000000000000E+000
  0.000000000000000E+000
   1.00000000000000     
   1.00000000000000     
  0.000000000000000E+000
  0.000000000000000E+000
  0.000000000000000E+000
  0.000000000000000E+000
  0.000000000000000E+000
  0.000000000000000E+000
  0.000000000000000E+000
  0.000000000000000E+000
  0.000000000000000E+000
  0.000000000000000E+000
  0.000000000000000E+000
  0.000000000000000E+000
  0.000000000000000E+000
   1.00000000000000     
   1.00000000000000     
  0.000000000000000E+000
  0.000000000000000E+000
  0.000000000000000E+000
  0.000000000000000E+000
  0.000000000000000E+000
  0.000000000000000E+000
  0.000000000000000E+000
  0.000000000000000E+000
  0.000000000000000E+000
  0.000000000000000E+000
  0.000000000000000E+000
  0.000000000000000E+000
  0.000000000000000E+000
   1.00000000000000     
   1.00000000000000     
SCALARS poroL double 
LOOKUP_TABLE default
  0.257775223084596     
  0.257015037670197     
  0.255629960080518     
  0.254107257657553     
  0.252866007289216     
  0.251958621612018     
  0.251376133847587     
  0.250935367620709     
  0.250570276147624     
  0.250249472003288     
  0.249953247643415     
  0.249665446400985     
  0.249368329392563     
  0.249035655933146     
  0.248597421990108     
  0.253149602813829     
  0.252242381506409     
  0.251949232199079     
  0.251923802736024     
  0.251744809655654     
  0.251280042517237     
  0.250803859378483     
  0.250404181913302     
  0.250059501434045     
  0.249751634826133     
  0.249466195234740     
  0.249190660475751     
  0.248912475696030     
  0.248616228420997     
  0.248313080020006     
  0.251634658753439     
  0.251332647237631     
  0.251239069428949     
  0.251081080286148     
  0.250851943756092     
  0.250546890913820     
  0.250196078023964     
  0.249856490002917     
  0.249546386977824     
  0.249262166028145     
  0.248996990799759     
  0.248743824997495     
  0.248496588546431     
  0.248255363818817     
  0.248029658354900     
  0.251017134973749     
  0.250754373080713     
  0.250549323471282     
  0.250358824475345     
  0.250134552320268     
  0.249874984725378     
  0.249593873350679     
  0.249309817098253     
  0.249037745611269     
  0.248782364586490     
  0.248542732093625     
  0.248316697460764     
  0.248103582200853     
  0.247906348273813     
  0.247733599452296     
  0.250311737738981     
  0.250109564763553     
  0.249907133165937     
  0.249704965791162     
  0.249491556829154     
  0.249261466009055     
  0.249020068667976     
  0.248776530898923     
  0.248539078360233     
  0.248312872576891     
  0.248100028007789     
  0.247901509320106     
  0.247719015893093     
  0.247556411336063     
  0.247420375659685     
  0.249644977723605     
  0.249470536758275     
  0.249286304705874     
  0.249094641316930     
  0.248895095097305     
  0.248687468135954     
  0.248474465555392     
  0.248261115217035     
  0.248052641643809     
  0.247853187716936     
  0.247665666781696     
  0.247492382254943     
  0.247335979102303     
  0.247200198945051     
  0.247090172880834     
  0.249013262239734     
  0.248858363042900     
  0.248690567900633     
  0.248513726844118     
  0.248330110268447     
  0.248141719056854     
  0.247951199294698     
  0.247761969115524     
  0.247577682711813     
  0.247401665383547     
  0.247236759111792     
  0.247085559901880     
  0.246950828430998     
  0.246835838571614     
  0.246744467184187     
  0.248413659721542     
  0.248272455312192     
  0.248118342075748     
  0.247955516386685     
  0.247787133888025     
  0.247615855423968     
  0.247444315185483     
  0.247275283970400     
  0.247111575633668     
  0.246955880602207     
  0.246810702943104     
  0.246678450338787     
  0.246561604064198     
  0.246462849983455     
  0.246385068430326     
  0.247840341505615     
  0.247708092005396     
  0.247564592112655     
  0.247413889023180     
  0.247259180405428     
  0.247103149826574     
  0.246948229801618     
  0.246796749337391     
  0.246650966766999     
  0.246513051739609     
  0.246385083790998     
  0.246269094902957     
  0.246167132895720     
  0.246081293002811     
  0.246013665675242     
  0.247285625508945     
  0.247158503632956     
  0.247022972405558     
  0.246882527173995     
  0.246739992504391     
  0.246597727093951     
  0.246457796156766     
  0.246322088340505     
  0.246192379092002     
  0.246070360798169     
  0.245957664811363     
  0.245855886674542     
  0.245766605623080     
  0.245691375444521     
  0.245631662836819     
  0.246740535156328     
  0.246615915277595     
  0.246486502770241     
  0.246355001502670     
  0.246223616220761     
  0.246094178518645     
  0.245968260729673     
  0.245847264789407     
  0.245732483408873     
  0.245625139644143     
  0.245526412942870     
  0.245437455192713     
  0.245359392521482     
  0.245293302987830     
  0.245240160351558     
  0.246195530113693     
  0.246072133459770     
  0.245948008469881     
  0.245824937523288     
  0.245704365070571     
  0.245587472697595     
  0.245475253476981     
  0.245368575734341     
  0.245268232180399     
  0.245174974555055     
  0.245089535410770     
  0.245012637321865     
  0.244944987262863     
  0.244887252298875     
  0.244840013680606     
  0.245641082223462     
  0.245519002316077     
  0.245400442663307     
  0.245286205013136     
  0.245176898845864     
  0.245072985113779     
  0.244974823394856     
  0.244882715115783     
  0.244796938651680     
  0.244717774498466     
  0.244645519765574     
  0.244580491169728     
  0.244523015355321     
  0.244473405696534     
  0.244431926303680     
  0.245068087976735     
  0.244948740744834     
  0.244837141789883     
  0.244733092779597     
  0.244636333929733     
  0.244546569507578     
  0.244463496728788     
  0.244386832822440     
  0.244316336953794     
  0.244251825086469     
  0.244193176436342     
  0.244140330305063     
  0.244093272527953     
  0.244052012308871     
  0.244016552614618     
  0.244468138077126     
  0.244354180512972     
  0.244252019936572     
  0.244160457456627     
  0.244078352589639     
  0.244004639254356     
  0.243938342526605     
  0.243878592832414     
  0.243824635886375     
  0.243775837559258     
  0.243731682685381     
  0.243691765957182     
  0.243655773392212     
  0.243623455265083     
  0.243594596327835     
  0.243833680684465     
  0.243728925857012     
  0.243639711694386     
  0.243563843736569     
  0.243499300525487     
  0.243444245985078     
  0.243397037728126     
  0.243356229730917     
  0.243320570162631     
  0.243288996325166     
  0.243260627121027     
  0.243234750295205     
  0.243210798312000     
  0.243188311272200     
  0.243166894266132     
  0.243158112054278     
  0.243067456898074     
  0.242995676063629     
  0.242939580787808     
  0.242896271684208     
  0.242863151905498     
  0.242837928506055     
  0.242818602231064     
  0.242803449935574     
  0.242791006972695     
  0.242780056125550     
  0.242769618224037     
  0.242758930355528     
  0.242747389525848     
  0.242734473608592     
  0.242435821707502     
  0.242365197361618     
  0.242316275763848     
  0.242284863753710     
  0.242267184785412     
  0.242259896964605     
  0.242260086926604     
  0.242265241566088     
  0.242273206756893     
  0.242282147174161     
  0.242290528182861     
  0.242297134737462     
  0.242301076730466     
  0.242301731410837     
  0.242298557800301     
  0.241662211859011     
  0.241618564308021     
  0.241598846924166     
  0.241597831997859     
  0.241610859528427     
  0.241633864974883     
  0.241663362938743     
  0.241696391088229     
  0.241730428540156     
  0.241763314897446     
  0.241793196967948     
  0.241818573157072     
  0.241838492858315     
  0.241852525276860     
  0.241860457858416     
  0.240833704251362     
  0.240825015465959     
  0.240841775268728     
  0.240877658688388     
  0.240927103844391     
  0.240985355501639     
  0.241048432857334     
  0.241113030161697     
  0.241176371002751     
  0.241236046116410     
  0.241289901955342     
  0.241335979223336     
  0.241372867040882     
  0.241400894951517     
  0.241421084526652     
  0.239947742757339     
  0.239983110035208     
  0.240044598401030     
  0.240124671028728     
  0.240216828026294     
  0.240315671968184     
  0.240416847711616     
  0.240516876708557     
  0.240612916797264     
  0.240702479814288     
  0.240783136139303     
  0.240852469474170     
  0.240907654176934     
  0.240947252862284     
  0.240979034309952     
  0.239002798383799     
  0.239092603817833     
  0.239208162131775     
  0.239340528674374     
  0.239482207800752     
  0.239627240770766     
  0.239771089482862     
  0.239910366895062     
  0.240042470365794     
  0.240165148527012     
  0.240275991917989     
  0.240371745206537     
  0.240449241718135     
  0.240500099542018     
  0.240518598344955     
  0.237998386701319     
  0.238154613633205     
  0.238334876207356     
  0.238528501911128     
  0.238726925979992     
  0.238923779225344     
  0.239114646621516     
  0.239296624625649     
  0.239467790816181     
  0.239626629377627     
  0.239771360083504     
  0.239898825756678     
  0.240001757502807     
  0.240080467509915     
  0.240041993515523     
  0.236935121057307     
  0.237171918376514     
  0.237429150184270     
  0.237693913905712     
  0.237956528807275     
  0.238210525642892     
  0.238452116070983     
  0.238679440631015     
  0.238891824188435     
  0.239089111906068     
  0.239270990229002     
  0.239436210946575     
  0.239578650576533     
  0.239665259541882     
  0.239577981293418     
  0.235814856882345     
  0.236149541145500     
  0.236498160426616     
  0.236844847080943     
  0.237178928440285     
  0.237494521035079     
  0.237789314741116     
  0.238063271964006     
  0.238317611200817     
  0.238554136074915     
  0.238774808682055     
  0.238981282666997     
  0.239177734257283     
  0.239245773870899     
  0.239153966181385     
  0.234641083537518     
  0.235095932824977     
  0.235553256593402     
  0.235993247451006     
  0.236405040627737     
  0.236784864396852     
  0.237133331535010     
  0.237453234097790     
  0.237748309773334     
  0.238022720723295     
  0.238280996000996     
  0.238528412844771     
  0.238771262256693     
  0.238833419073885     
  0.238757636462650     
  0.233419922319147     
  0.234025664212285     
  0.234612571514163     
  0.235156554479276     
  0.235649354101979     
  0.236092728145483     
  0.236492389903979     
  0.236855006705565     
  0.237187280951952     
  0.237495809902260     
  0.237787382091407     
  0.238070059429935     
  0.238352457143560     
  0.238445507534272     
  0.238384883177088     
  0.232163779510351     
  0.232965740567618     
  0.233706139667629     
  0.234359286962967     
  0.234929728055806     
  0.235430820826236     
  0.235875362116524     
  0.236274549733820     
  0.236638105178889     
  0.236974758028990     
  0.237292928417579     
  0.237601319211414     
  0.237914869612704     
  0.238083680200730     
  0.238033454442883     
  0.230902805443562     
  0.231976116808646     
  0.232881683476833     
  0.233631498210103     
  0.234265658252113     
  0.234812001693146     
  0.235290854819948     
  0.235717575553528     
  0.236104382881717     
  0.236461555444027     
  0.236798221484289     
  0.237123336784183     
  0.237443499303739     
  0.237720142124064     
  0.237699234653316     
  0.229790032766219     
  0.231177729811190     
  0.232193280382289     
  0.233002883757816     
  0.233674509759489     
  0.234247142029414     
  0.234745968289238     
  0.235188834476376     
  0.235589330005012     
  0.235958467240562     
  0.236305595495720     
  0.236638396198670     
  0.236962408045985     
  0.237292935911858     
  0.237361150366958     
