# vtk DataFile Version 3.0
vtk output
ASCII
DATASET UNSTRUCTURED_GRID
POINTS       496 double 
  0.00000000E+00  3.00000000E+02  0.00000000E+00
  0.00000000E+00  2.80000000E+02  0.00000000E+00
  0.00000000E+00  2.60000000E+02  0.00000000E+00
  0.00000000E+00  2.40000000E+02  0.00000000E+00
  0.00000000E+00  2.20000000E+02  0.00000000E+00
  0.00000000E+00  2.00000000E+02  0.00000000E+00
  0.00000000E+00  1.80000000E+02  0.00000000E+00
  0.00000000E+00  1.60000000E+02  0.00000000E+00
  0.00000000E+00  1.40000000E+02  0.00000000E+00
  0.00000000E+00  1.20000000E+02  0.00000000E+00
  0.00000000E+00  1.00000000E+02  0.00000000E+00
  0.00000000E+00  8.00000000E+01  0.00000000E+00
  0.00000000E+00  6.00000000E+01  0.00000000E+00
  0.00000000E+00  4.00000000E+01  0.00000000E+00
  0.00000000E+00  2.00000000E+01  0.00000000E+00
  0.00000000E+00  4.99600361E-14  0.00000000E+00
  2.00000000E+01  3.00000000E+02  0.00000000E+00
  2.00000000E+01  2.80000000E+02  0.00000000E+00
  2.00000000E+01  2.60000000E+02  0.00000000E+00
  2.00000000E+01  2.40000000E+02  0.00000000E+00
  2.00000000E+01  2.20000000E+02  0.00000000E+00
  2.00000000E+01  2.00000000E+02  0.00000000E+00
  2.00000000E+01  1.80000000E+02  0.00000000E+00
  2.00000000E+01  1.60000000E+02  0.00000000E+00
  2.00000000E+01  1.40000000E+02  0.00000000E+00
  2.00000000E+01  1.20000000E+02  0.00000000E+00
  2.00000000E+01  1.00000000E+02  0.00000000E+00
  2.00000000E+01  8.00000000E+01  0.00000000E+00
  2.00000000E+01  6.00000000E+01  0.00000000E+00
  2.00000000E+01  4.00000000E+01  0.00000000E+00
  2.00000000E+01  2.00000000E+01  0.00000000E+00
  2.00000000E+01  4.99600361E-14  0.00000000E+00
  4.00000000E+01  3.00000000E+02  0.00000000E+00
  4.00000000E+01  2.80000000E+02  0.00000000E+00
  4.00000000E+01  2.60000000E+02  0.00000000E+00
  4.00000000E+01  2.40000000E+02  0.00000000E+00
  4.00000000E+01  2.20000000E+02  0.00000000E+00
  4.00000000E+01  2.00000000E+02  0.00000000E+00
  4.00000000E+01  1.80000000E+02  0.00000000E+00
  4.00000000E+01  1.60000000E+02  0.00000000E+00
  4.00000000E+01  1.40000000E+02  0.00000000E+00
  4.00000000E+01  1.20000000E+02  0.00000000E+00
  4.00000000E+01  1.00000000E+02  0.00000000E+00
  4.00000000E+01  8.00000000E+01  0.00000000E+00
  4.00000000E+01  6.00000000E+01  0.00000000E+00
  4.00000000E+01  4.00000000E+01  0.00000000E+00
  4.00000000E+01  2.00000000E+01  0.00000000E+00
  4.00000000E+01  4.99600361E-14  0.00000000E+00
  6.00000000E+01  3.00000000E+02  0.00000000E+00
  6.00000000E+01  2.80000000E+02  0.00000000E+00
  6.00000000E+01  2.60000000E+02  0.00000000E+00
  6.00000000E+01  2.40000000E+02  0.00000000E+00
  6.00000000E+01  2.20000000E+02  0.00000000E+00
  6.00000000E+01  2.00000000E+02  0.00000000E+00
  6.00000000E+01  1.80000000E+02  0.00000000E+00
  6.00000000E+01  1.60000000E+02  0.00000000E+00
  6.00000000E+01  1.40000000E+02  0.00000000E+00
  6.00000000E+01  1.20000000E+02  0.00000000E+00
  6.00000000E+01  1.00000000E+02  0.00000000E+00
  6.00000000E+01  8.00000000E+01  0.00000000E+00
  6.00000000E+01  6.00000000E+01  0.00000000E+00
  6.00000000E+01  4.00000000E+01  0.00000000E+00
  6.00000000E+01  2.00000000E+01  0.00000000E+00
  6.00000000E+01  4.99600361E-14  0.00000000E+00
  8.00000000E+01  3.00000000E+02  0.00000000E+00
  8.00000000E+01  2.80000000E+02  0.00000000E+00
  8.00000000E+01  2.60000000E+02  0.00000000E+00
  8.00000000E+01  2.40000000E+02  0.00000000E+00
  8.00000000E+01  2.20000000E+02  0.00000000E+00
  8.00000000E+01  2.00000000E+02  0.00000000E+00
  8.00000000E+01  1.80000000E+02  0.00000000E+00
  8.00000000E+01  1.60000000E+02  0.00000000E+00
  8.00000000E+01  1.40000000E+02  0.00000000E+00
  8.00000000E+01  1.20000000E+02  0.00000000E+00
  8.00000000E+01  1.00000000E+02  0.00000000E+00
  8.00000000E+01  8.00000000E+01  0.00000000E+00
  8.00000000E+01  6.00000000E+01  0.00000000E+00
  8.00000000E+01  4.00000000E+01  0.00000000E+00
  8.00000000E+01  2.00000000E+01  0.00000000E+00
  8.00000000E+01  4.99600361E-14  0.00000000E+00
  1.00000000E+02  3.00000000E+02  0.00000000E+00
  1.00000000E+02  2.80000000E+02  0.00000000E+00
  1.00000000E+02  2.60000000E+02  0.00000000E+00
  1.00000000E+02  2.40000000E+02  0.00000000E+00
  1.00000000E+02  2.20000000E+02  0.00000000E+00
  1.00000000E+02  2.00000000E+02  0.00000000E+00
  1.00000000E+02  1.80000000E+02  0.00000000E+00
  1.00000000E+02  1.60000000E+02  0.00000000E+00
  1.00000000E+02  1.40000000E+02  0.00000000E+00
  1.00000000E+02  1.20000000E+02  0.00000000E+00
  1.00000000E+02  1.00000000E+02  0.00000000E+00
  1.00000000E+02  8.00000000E+01  0.00000000E+00
  1.00000000E+02  6.00000000E+01  0.00000000E+00
  1.00000000E+02  4.00000000E+01  0.00000000E+00
  1.00000000E+02  2.00000000E+01  0.00000000E+00
  1.00000000E+02  4.99600361E-14  0.00000000E+00
  1.20000000E+02  3.00000000E+02  0.00000000E+00
  1.20000000E+02  2.80000000E+02  0.00000000E+00
  1.20000000E+02  2.60000000E+02  0.00000000E+00
  1.20000000E+02  2.40000000E+02  0.00000000E+00
  1.20000000E+02  2.20000000E+02  0.00000000E+00
  1.20000000E+02  2.00000000E+02  0.00000000E+00
  1.20000000E+02  1.80000000E+02  0.00000000E+00
  1.20000000E+02  1.60000000E+02  0.00000000E+00
  1.20000000E+02  1.40000000E+02  0.00000000E+00
  1.20000000E+02  1.20000000E+02  0.00000000E+00
  1.20000000E+02  1.00000000E+02  0.00000000E+00
  1.20000000E+02  8.00000000E+01  0.00000000E+00
  1.20000000E+02  6.00000000E+01  0.00000000E+00
  1.20000000E+02  4.00000000E+01  0.00000000E+00
  1.20000000E+02  2.00000000E+01  0.00000000E+00
  1.20000000E+02  4.99600361E-14  0.00000000E+00
  1.40000000E+02  3.00000000E+02  0.00000000E+00
  1.40000000E+02  2.80000000E+02  0.00000000E+00
  1.40000000E+02  2.60000000E+02  0.00000000E+00
  1.40000000E+02  2.40000000E+02  0.00000000E+00
  1.40000000E+02  2.20000000E+02  0.00000000E+00
  1.40000000E+02  2.00000000E+02  0.00000000E+00
  1.40000000E+02  1.80000000E+02  0.00000000E+00
  1.40000000E+02  1.60000000E+02  0.00000000E+00
  1.40000000E+02  1.40000000E+02  0.00000000E+00
  1.40000000E+02  1.20000000E+02  0.00000000E+00
  1.40000000E+02  1.00000000E+02  0.00000000E+00
  1.40000000E+02  8.00000000E+01  0.00000000E+00
  1.40000000E+02  6.00000000E+01  0.00000000E+00
  1.40000000E+02  4.00000000E+01  0.00000000E+00
  1.40000000E+02  2.00000000E+01  0.00000000E+00
  1.40000000E+02  4.99600361E-14  0.00000000E+00
  1.60000000E+02  3.00000000E+02  0.00000000E+00
  1.60000000E+02  2.80000000E+02  0.00000000E+00
  1.60000000E+02  2.60000000E+02  0.00000000E+00
  1.60000000E+02  2.40000000E+02  0.00000000E+00
  1.60000000E+02  2.20000000E+02  0.00000000E+00
  1.60000000E+02  2.00000000E+02  0.00000000E+00
  1.60000000E+02  1.80000000E+02  0.00000000E+00
  1.60000000E+02  1.60000000E+02  0.00000000E+00
  1.60000000E+02  1.40000000E+02  0.00000000E+00
  1.60000000E+02  1.20000000E+02  0.00000000E+00
  1.60000000E+02  1.00000000E+02  0.00000000E+00
  1.60000000E+02  8.00000000E+01  0.00000000E+00
  1.60000000E+02  6.00000000E+01  0.00000000E+00
  1.60000000E+02  4.00000000E+01  0.00000000E+00
  1.60000000E+02  2.00000000E+01  0.00000000E+00
  1.60000000E+02  4.99600361E-14  0.00000000E+00
  1.80000000E+02  3.00000000E+02  0.00000000E+00
  1.80000000E+02  2.80000000E+02  0.00000000E+00
  1.80000000E+02  2.60000000E+02  0.00000000E+00
  1.80000000E+02  2.40000000E+02  0.00000000E+00
  1.80000000E+02  2.20000000E+02  0.00000000E+00
  1.80000000E+02  2.00000000E+02  0.00000000E+00
  1.80000000E+02  1.80000000E+02  0.00000000E+00
  1.80000000E+02  1.60000000E+02  0.00000000E+00
  1.80000000E+02  1.40000000E+02  0.00000000E+00
  1.80000000E+02  1.20000000E+02  0.00000000E+00
  1.80000000E+02  1.00000000E+02  0.00000000E+00
  1.80000000E+02  8.00000000E+01  0.00000000E+00
  1.80000000E+02  6.00000000E+01  0.00000000E+00
  1.80000000E+02  4.00000000E+01  0.00000000E+00
  1.80000000E+02  2.00000000E+01  0.00000000E+00
  1.80000000E+02  4.99600361E-14  0.00000000E+00
  2.00000000E+02  3.00000000E+02  0.00000000E+00
  2.00000000E+02  2.80000000E+02  0.00000000E+00
  2.00000000E+02  2.60000000E+02  0.00000000E+00
  2.00000000E+02  2.40000000E+02  0.00000000E+00
  2.00000000E+02  2.20000000E+02  0.00000000E+00
  2.00000000E+02  2.00000000E+02  0.00000000E+00
  2.00000000E+02  1.80000000E+02  0.00000000E+00
  2.00000000E+02  1.60000000E+02  0.00000000E+00
  2.00000000E+02  1.40000000E+02  0.00000000E+00
  2.00000000E+02  1.20000000E+02  0.00000000E+00
  2.00000000E+02  1.00000000E+02  0.00000000E+00
  2.00000000E+02  8.00000000E+01  0.00000000E+00
  2.00000000E+02  6.00000000E+01  0.00000000E+00
  2.00000000E+02  4.00000000E+01  0.00000000E+00
  2.00000000E+02  2.00000000E+01  0.00000000E+00
  2.00000000E+02  4.99600361E-14  0.00000000E+00
  2.20000000E+02  3.00000000E+02  0.00000000E+00
  2.20000000E+02  2.80000000E+02  0.00000000E+00
  2.20000000E+02  2.60000000E+02  0.00000000E+00
  2.20000000E+02  2.40000000E+02  0.00000000E+00
  2.20000000E+02  2.20000000E+02  0.00000000E+00
  2.20000000E+02  2.00000000E+02  0.00000000E+00
  2.20000000E+02  1.80000000E+02  0.00000000E+00
  2.20000000E+02  1.60000000E+02  0.00000000E+00
  2.20000000E+02  1.40000000E+02  0.00000000E+00
  2.20000000E+02  1.20000000E+02  0.00000000E+00
  2.20000000E+02  1.00000000E+02  0.00000000E+00
  2.20000000E+02  8.00000000E+01  0.00000000E+00
  2.20000000E+02  6.00000000E+01  0.00000000E+00
  2.20000000E+02  4.00000000E+01  0.00000000E+00
  2.20000000E+02  2.00000000E+01  0.00000000E+00
  2.20000000E+02  4.99600361E-14  0.00000000E+00
  2.40000000E+02  3.00000000E+02  0.00000000E+00
  2.40000000E+02  2.80000000E+02  0.00000000E+00
  2.40000000E+02  2.60000000E+02  0.00000000E+00
  2.40000000E+02  2.40000000E+02  0.00000000E+00
  2.40000000E+02  2.20000000E+02  0.00000000E+00
  2.40000000E+02  2.00000000E+02  0.00000000E+00
  2.40000000E+02  1.80000000E+02  0.00000000E+00
  2.40000000E+02  1.60000000E+02  0.00000000E+00
  2.40000000E+02  1.40000000E+02  0.00000000E+00
  2.40000000E+02  1.20000000E+02  0.00000000E+00
  2.40000000E+02  1.00000000E+02  0.00000000E+00
  2.40000000E+02  8.00000000E+01  0.00000000E+00
  2.40000000E+02  6.00000000E+01  0.00000000E+00
  2.40000000E+02  4.00000000E+01  0.00000000E+00
  2.40000000E+02  2.00000000E+01  0.00000000E+00
  2.40000000E+02  4.99600361E-14  0.00000000E+00
  2.60000000E+02  3.00000000E+02  0.00000000E+00
  2.60000000E+02  2.80000000E+02  0.00000000E+00
  2.60000000E+02  2.60000000E+02  0.00000000E+00
  2.60000000E+02  2.40000000E+02  0.00000000E+00
  2.60000000E+02  2.20000000E+02  0.00000000E+00
  2.60000000E+02  2.00000000E+02  0.00000000E+00
  2.60000000E+02  1.80000000E+02  0.00000000E+00
  2.60000000E+02  1.60000000E+02  0.00000000E+00
  2.60000000E+02  1.40000000E+02  0.00000000E+00
  2.60000000E+02  1.20000000E+02  0.00000000E+00
  2.60000000E+02  1.00000000E+02  0.00000000E+00
  2.60000000E+02  8.00000000E+01  0.00000000E+00
  2.60000000E+02  6.00000000E+01  0.00000000E+00
  2.60000000E+02  4.00000000E+01  0.00000000E+00
  2.60000000E+02  2.00000000E+01  0.00000000E+00
  2.60000000E+02  4.99600361E-14  0.00000000E+00
  2.80000000E+02  3.00000000E+02  0.00000000E+00
  2.80000000E+02  2.80000000E+02  0.00000000E+00
  2.80000000E+02  2.60000000E+02  0.00000000E+00
  2.80000000E+02  2.40000000E+02  0.00000000E+00
  2.80000000E+02  2.20000000E+02  0.00000000E+00
  2.80000000E+02  2.00000000E+02  0.00000000E+00
  2.80000000E+02  1.80000000E+02  0.00000000E+00
  2.80000000E+02  1.60000000E+02  0.00000000E+00
  2.80000000E+02  1.40000000E+02  0.00000000E+00
  2.80000000E+02  1.20000000E+02  0.00000000E+00
  2.80000000E+02  1.00000000E+02  0.00000000E+00
  2.80000000E+02  8.00000000E+01  0.00000000E+00
  2.80000000E+02  6.00000000E+01  0.00000000E+00
  2.80000000E+02  4.00000000E+01  0.00000000E+00
  2.80000000E+02  2.00000000E+01  0.00000000E+00
  2.80000000E+02  4.99600361E-14  0.00000000E+00
  3.00000000E+02  3.00000000E+02  0.00000000E+00
  3.00000000E+02  2.80000000E+02  0.00000000E+00
  3.00000000E+02  2.60000000E+02  0.00000000E+00
  3.00000000E+02  2.40000000E+02  0.00000000E+00
  3.00000000E+02  2.20000000E+02  0.00000000E+00
  3.00000000E+02  2.00000000E+02  0.00000000E+00
  3.00000000E+02  1.80000000E+02  0.00000000E+00
  3.00000000E+02  1.60000000E+02  0.00000000E+00
  3.00000000E+02  1.40000000E+02  0.00000000E+00
  3.00000000E+02  1.20000000E+02  0.00000000E+00
  3.00000000E+02  1.00000000E+02  0.00000000E+00
  3.00000000E+02  8.00000000E+01  0.00000000E+00
  3.00000000E+02  6.00000000E+01  0.00000000E+00
  3.00000000E+02  4.00000000E+01  0.00000000E+00
  3.00000000E+02  2.00000000E+01  0.00000000E+00
  3.00000000E+02  4.99600361E-14  0.00000000E+00
  3.20000000E+02  3.00000000E+02  0.00000000E+00
  3.20000000E+02  2.80000000E+02  0.00000000E+00
  3.20000000E+02  2.60000000E+02  0.00000000E+00
  3.20000000E+02  2.40000000E+02  0.00000000E+00
  3.20000000E+02  2.20000000E+02  0.00000000E+00
  3.20000000E+02  2.00000000E+02  0.00000000E+00
  3.20000000E+02  1.80000000E+02  0.00000000E+00
  3.20000000E+02  1.60000000E+02  0.00000000E+00
  3.20000000E+02  1.40000000E+02  0.00000000E+00
  3.20000000E+02  1.20000000E+02  0.00000000E+00
  3.20000000E+02  1.00000000E+02  0.00000000E+00
  3.20000000E+02  8.00000000E+01  0.00000000E+00
  3.20000000E+02  6.00000000E+01  0.00000000E+00
  3.20000000E+02  4.00000000E+01  0.00000000E+00
  3.20000000E+02  2.00000000E+01  0.00000000E+00
  3.20000000E+02  4.99600361E-14  0.00000000E+00
  3.40000000E+02  3.00000000E+02  0.00000000E+00
  3.40000000E+02  2.80000000E+02  0.00000000E+00
  3.40000000E+02  2.60000000E+02  0.00000000E+00
  3.40000000E+02  2.40000000E+02  0.00000000E+00
  3.40000000E+02  2.20000000E+02  0.00000000E+00
  3.40000000E+02  2.00000000E+02  0.00000000E+00
  3.40000000E+02  1.80000000E+02  0.00000000E+00
  3.40000000E+02  1.60000000E+02  0.00000000E+00
  3.40000000E+02  1.40000000E+02  0.00000000E+00
  3.40000000E+02  1.20000000E+02  0.00000000E+00
  3.40000000E+02  1.00000000E+02  0.00000000E+00
  3.40000000E+02  8.00000000E+01  0.00000000E+00
  3.40000000E+02  6.00000000E+01  0.00000000E+00
  3.40000000E+02  4.00000000E+01  0.00000000E+00
  3.40000000E+02  2.00000000E+01  0.00000000E+00
  3.40000000E+02  4.99600361E-14  0.00000000E+00
  3.60000000E+02  3.00000000E+02  0.00000000E+00
  3.60000000E+02  2.80000000E+02  0.00000000E+00
  3.60000000E+02  2.60000000E+02  0.00000000E+00
  3.60000000E+02  2.40000000E+02  0.00000000E+00
  3.60000000E+02  2.20000000E+02  0.00000000E+00
  3.60000000E+02  2.00000000E+02  0.00000000E+00
  3.60000000E+02  1.80000000E+02  0.00000000E+00
  3.60000000E+02  1.60000000E+02  0.00000000E+00
  3.60000000E+02  1.40000000E+02  0.00000000E+00
  3.60000000E+02  1.20000000E+02  0.00000000E+00
  3.60000000E+02  1.00000000E+02  0.00000000E+00
  3.60000000E+02  8.00000000E+01  0.00000000E+00
  3.60000000E+02  6.00000000E+01  0.00000000E+00
  3.60000000E+02  4.00000000E+01  0.00000000E+00
  3.60000000E+02  2.00000000E+01  0.00000000E+00
  3.60000000E+02  4.99600361E-14  0.00000000E+00
  3.80000000E+02  3.00000000E+02  0.00000000E+00
  3.80000000E+02  2.80000000E+02  0.00000000E+00
  3.80000000E+02  2.60000000E+02  0.00000000E+00
  3.80000000E+02  2.40000000E+02  0.00000000E+00
  3.80000000E+02  2.20000000E+02  0.00000000E+00
  3.80000000E+02  2.00000000E+02  0.00000000E+00
  3.80000000E+02  1.80000000E+02  0.00000000E+00
  3.80000000E+02  1.60000000E+02  0.00000000E+00
  3.80000000E+02  1.40000000E+02  0.00000000E+00
  3.80000000E+02  1.20000000E+02  0.00000000E+00
  3.80000000E+02  1.00000000E+02  0.00000000E+00
  3.80000000E+02  8.00000000E+01  0.00000000E+00
  3.80000000E+02  6.00000000E+01  0.00000000E+00
  3.80000000E+02  4.00000000E+01  0.00000000E+00
  3.80000000E+02  2.00000000E+01  0.00000000E+00
  3.80000000E+02  4.99600361E-14  0.00000000E+00
  4.00000000E+02  3.00000000E+02  0.00000000E+00
  4.00000000E+02  2.80000000E+02  0.00000000E+00
  4.00000000E+02  2.60000000E+02  0.00000000E+00
  4.00000000E+02  2.40000000E+02  0.00000000E+00
  4.00000000E+02  2.20000000E+02  0.00000000E+00
  4.00000000E+02  2.00000000E+02  0.00000000E+00
  4.00000000E+02  1.80000000E+02  0.00000000E+00
  4.00000000E+02  1.60000000E+02  0.00000000E+00
  4.00000000E+02  1.40000000E+02  0.00000000E+00
  4.00000000E+02  1.20000000E+02  0.00000000E+00
  4.00000000E+02  1.00000000E+02  0.00000000E+00
  4.00000000E+02  8.00000000E+01  0.00000000E+00
  4.00000000E+02  6.00000000E+01  0.00000000E+00
  4.00000000E+02  4.00000000E+01  0.00000000E+00
  4.00000000E+02  2.00000000E+01  0.00000000E+00
  4.00000000E+02  4.99600361E-14  0.00000000E+00
  4.20000000E+02  3.00000000E+02  0.00000000E+00
  4.20000000E+02  2.80000000E+02  0.00000000E+00
  4.20000000E+02  2.60000000E+02  0.00000000E+00
  4.20000000E+02  2.40000000E+02  0.00000000E+00
  4.20000000E+02  2.20000000E+02  0.00000000E+00
  4.20000000E+02  2.00000000E+02  0.00000000E+00
  4.20000000E+02  1.80000000E+02  0.00000000E+00
  4.20000000E+02  1.60000000E+02  0.00000000E+00
  4.20000000E+02  1.40000000E+02  0.00000000E+00
  4.20000000E+02  1.20000000E+02  0.00000000E+00
  4.20000000E+02  1.00000000E+02  0.00000000E+00
  4.20000000E+02  8.00000000E+01  0.00000000E+00
  4.20000000E+02  6.00000000E+01  0.00000000E+00
  4.20000000E+02  4.00000000E+01  0.00000000E+00
  4.20000000E+02  2.00000000E+01  0.00000000E+00
  4.20000000E+02  4.99600361E-14  0.00000000E+00
  4.40000000E+02  3.00000000E+02  0.00000000E+00
  4.40000000E+02  2.80000000E+02  0.00000000E+00
  4.40000000E+02  2.60000000E+02  0.00000000E+00
  4.40000000E+02  2.40000000E+02  0.00000000E+00
  4.40000000E+02  2.20000000E+02  0.00000000E+00
  4.40000000E+02  2.00000000E+02  0.00000000E+00
  4.40000000E+02  1.80000000E+02  0.00000000E+00
  4.40000000E+02  1.60000000E+02  0.00000000E+00
  4.40000000E+02  1.40000000E+02  0.00000000E+00
  4.40000000E+02  1.20000000E+02  0.00000000E+00
  4.40000000E+02  1.00000000E+02  0.00000000E+00
  4.40000000E+02  8.00000000E+01  0.00000000E+00
  4.40000000E+02  6.00000000E+01  0.00000000E+00
  4.40000000E+02  4.00000000E+01  0.00000000E+00
  4.40000000E+02  2.00000000E+01  0.00000000E+00
  4.40000000E+02  4.99600361E-14  0.00000000E+00
  4.60000000E+02  3.00000000E+02  0.00000000E+00
  4.60000000E+02  2.80000000E+02  0.00000000E+00
  4.60000000E+02  2.60000000E+02  0.00000000E+00
  4.60000000E+02  2.40000000E+02  0.00000000E+00
  4.60000000E+02  2.20000000E+02  0.00000000E+00
  4.60000000E+02  2.00000000E+02  0.00000000E+00
  4.60000000E+02  1.80000000E+02  0.00000000E+00
  4.60000000E+02  1.60000000E+02  0.00000000E+00
  4.60000000E+02  1.40000000E+02  0.00000000E+00
  4.60000000E+02  1.20000000E+02  0.00000000E+00
  4.60000000E+02  1.00000000E+02  0.00000000E+00
  4.60000000E+02  8.00000000E+01  0.00000000E+00
  4.60000000E+02  6.00000000E+01  0.00000000E+00
  4.60000000E+02  4.00000000E+01  0.00000000E+00
  4.60000000E+02  2.00000000E+01  0.00000000E+00
  4.60000000E+02  4.99600361E-14  0.00000000E+00
  4.80000000E+02  3.00000000E+02  0.00000000E+00
  4.80000000E+02  2.80000000E+02  0.00000000E+00
  4.80000000E+02  2.60000000E+02  0.00000000E+00
  4.80000000E+02  2.40000000E+02  0.00000000E+00
  4.80000000E+02  2.20000000E+02  0.00000000E+00
  4.80000000E+02  2.00000000E+02  0.00000000E+00
  4.80000000E+02  1.80000000E+02  0.00000000E+00
  4.80000000E+02  1.60000000E+02  0.00000000E+00
  4.80000000E+02  1.40000000E+02  0.00000000E+00
  4.80000000E+02  1.20000000E+02  0.00000000E+00
  4.80000000E+02  1.00000000E+02  0.00000000E+00
  4.80000000E+02  8.00000000E+01  0.00000000E+00
  4.80000000E+02  6.00000000E+01  0.00000000E+00
  4.80000000E+02  4.00000000E+01  0.00000000E+00
  4.80000000E+02  2.00000000E+01  0.00000000E+00
  4.80000000E+02  4.99600361E-14  0.00000000E+00
  5.00000000E+02  3.00000000E+02  0.00000000E+00
  5.00000000E+02  2.80000000E+02  0.00000000E+00
  5.00000000E+02  2.60000000E+02  0.00000000E+00
  5.00000000E+02  2.40000000E+02  0.00000000E+00
  5.00000000E+02  2.20000000E+02  0.00000000E+00
  5.00000000E+02  2.00000000E+02  0.00000000E+00
  5.00000000E+02  1.80000000E+02  0.00000000E+00
  5.00000000E+02  1.60000000E+02  0.00000000E+00
  5.00000000E+02  1.40000000E+02  0.00000000E+00
  5.00000000E+02  1.20000000E+02  0.00000000E+00
  5.00000000E+02  1.00000000E+02  0.00000000E+00
  5.00000000E+02  8.00000000E+01  0.00000000E+00
  5.00000000E+02  6.00000000E+01  0.00000000E+00
  5.00000000E+02  4.00000000E+01  0.00000000E+00
  5.00000000E+02  2.00000000E+01  0.00000000E+00
  5.00000000E+02  4.99600361E-14  0.00000000E+00
  5.20000000E+02  3.00000000E+02  0.00000000E+00
  5.20000000E+02  2.80000000E+02  0.00000000E+00
  5.20000000E+02  2.60000000E+02  0.00000000E+00
  5.20000000E+02  2.40000000E+02  0.00000000E+00
  5.20000000E+02  2.20000000E+02  0.00000000E+00
  5.20000000E+02  2.00000000E+02  0.00000000E+00
  5.20000000E+02  1.80000000E+02  0.00000000E+00
  5.20000000E+02  1.60000000E+02  0.00000000E+00
  5.20000000E+02  1.40000000E+02  0.00000000E+00
  5.20000000E+02  1.20000000E+02  0.00000000E+00
  5.20000000E+02  1.00000000E+02  0.00000000E+00
  5.20000000E+02  8.00000000E+01  0.00000000E+00
  5.20000000E+02  6.00000000E+01  0.00000000E+00
  5.20000000E+02  4.00000000E+01  0.00000000E+00
  5.20000000E+02  2.00000000E+01  0.00000000E+00
  5.20000000E+02  4.99600361E-14  0.00000000E+00
  5.40000000E+02  3.00000000E+02  0.00000000E+00
  5.40000000E+02  2.80000000E+02  0.00000000E+00
  5.40000000E+02  2.60000000E+02  0.00000000E+00
  5.40000000E+02  2.40000000E+02  0.00000000E+00
  5.40000000E+02  2.20000000E+02  0.00000000E+00
  5.40000000E+02  2.00000000E+02  0.00000000E+00
  5.40000000E+02  1.80000000E+02  0.00000000E+00
  5.40000000E+02  1.60000000E+02  0.00000000E+00
  5.40000000E+02  1.40000000E+02  0.00000000E+00
  5.40000000E+02  1.20000000E+02  0.00000000E+00
  5.40000000E+02  1.00000000E+02  0.00000000E+00
  5.40000000E+02  8.00000000E+01  0.00000000E+00
  5.40000000E+02  6.00000000E+01  0.00000000E+00
  5.40000000E+02  4.00000000E+01  0.00000000E+00
  5.40000000E+02  2.00000000E+01  0.00000000E+00
  5.40000000E+02  4.99600361E-14  0.00000000E+00
  5.60000000E+02  3.00000000E+02  0.00000000E+00
  5.60000000E+02  2.80000000E+02  0.00000000E+00
  5.60000000E+02  2.60000000E+02  0.00000000E+00
  5.60000000E+02  2.40000000E+02  0.00000000E+00
  5.60000000E+02  2.20000000E+02  0.00000000E+00
  5.60000000E+02  2.00000000E+02  0.00000000E+00
  5.60000000E+02  1.80000000E+02  0.00000000E+00
  5.60000000E+02  1.60000000E+02  0.00000000E+00
  5.60000000E+02  1.40000000E+02  0.00000000E+00
  5.60000000E+02  1.20000000E+02  0.00000000E+00
  5.60000000E+02  1.00000000E+02  0.00000000E+00
  5.60000000E+02  8.00000000E+01  0.00000000E+00
  5.60000000E+02  6.00000000E+01  0.00000000E+00
  5.60000000E+02  4.00000000E+01  0.00000000E+00
  5.60000000E+02  2.00000000E+01  0.00000000E+00
  5.60000000E+02  4.99600361E-14  0.00000000E+00
  5.80000000E+02  3.00000000E+02  0.00000000E+00
  5.80000000E+02  2.80000000E+02  0.00000000E+00
  5.80000000E+02  2.60000000E+02  0.00000000E+00
  5.80000000E+02  2.40000000E+02  0.00000000E+00
  5.80000000E+02  2.20000000E+02  0.00000000E+00
  5.80000000E+02  2.00000000E+02  0.00000000E+00
  5.80000000E+02  1.80000000E+02  0.00000000E+00
  5.80000000E+02  1.60000000E+02  0.00000000E+00
  5.80000000E+02  1.40000000E+02  0.00000000E+00
  5.80000000E+02  1.20000000E+02  0.00000000E+00
  5.80000000E+02  1.00000000E+02  0.00000000E+00
  5.80000000E+02  8.00000000E+01  0.00000000E+00
  5.80000000E+02  6.00000000E+01  0.00000000E+00
  5.80000000E+02  4.00000000E+01  0.00000000E+00
  5.80000000E+02  2.00000000E+01  0.00000000E+00
  5.80000000E+02  4.99600361E-14  0.00000000E+00
  6.00000000E+02  3.00000000E+02  0.00000000E+00
  6.00000000E+02  2.80000000E+02  0.00000000E+00
  6.00000000E+02  2.60000000E+02  0.00000000E+00
  6.00000000E+02  2.40000000E+02  0.00000000E+00
  6.00000000E+02  2.20000000E+02  0.00000000E+00
  6.00000000E+02  2.00000000E+02  0.00000000E+00
  6.00000000E+02  1.80000000E+02  0.00000000E+00
  6.00000000E+02  1.60000000E+02  0.00000000E+00
  6.00000000E+02  1.40000000E+02  0.00000000E+00
  6.00000000E+02  1.20000000E+02  0.00000000E+00
  6.00000000E+02  1.00000000E+02  0.00000000E+00
  6.00000000E+02  8.00000000E+01  0.00000000E+00
  6.00000000E+02  6.00000000E+01  0.00000000E+00
  6.00000000E+02  4.00000000E+01  0.00000000E+00
  6.00000000E+02  2.00000000E+01  0.00000000E+00
  6.00000000E+02  4.99600361E-14  0.00000000E+00
CELLS       450      2250
         4           0           1          17          16
         4           1           2          18          17
         4           2           3          19          18
         4           3           4          20          19
         4           4           5          21          20
         4           5           6          22          21
         4           6           7          23          22
         4           7           8          24          23
         4           8           9          25          24
         4           9          10          26          25
         4          10          11          27          26
         4          11          12          28          27
         4          12          13          29          28
         4          13          14          30          29
         4          14          15          31          30
         4          16          17          33          32
         4          17          18          34          33
         4          18          19          35          34
         4          19          20          36          35
         4          20          21          37          36
         4          21          22          38          37
         4          22          23          39          38
         4          23          24          40          39
         4          24          25          41          40
         4          25          26          42          41
         4          26          27          43          42
         4          27          28          44          43
         4          28          29          45          44
         4          29          30          46          45
         4          30          31          47          46
         4          32          33          49          48
         4          33          34          50          49
         4          34          35          51          50
         4          35          36          52          51
         4          36          37          53          52
         4          37          38          54          53
         4          38          39          55          54
         4          39          40          56          55
         4          40          41          57          56
         4          41          42          58          57
         4          42          43          59          58
         4          43          44          60          59
         4          44          45          61          60
         4          45          46          62          61
         4          46          47          63          62
         4          48          49          65          64
         4          49          50          66          65
         4          50          51          67          66
         4          51          52          68          67
         4          52          53          69          68
         4          53          54          70          69
         4          54          55          71          70
         4          55          56          72          71
         4          56          57          73          72
         4          57          58          74          73
         4          58          59          75          74
         4          59          60          76          75
         4          60          61          77          76
         4          61          62          78          77
         4          62          63          79          78
         4          64          65          81          80
         4          65          66          82          81
         4          66          67          83          82
         4          67          68          84          83
         4          68          69          85          84
         4          69          70          86          85
         4          70          71          87          86
         4          71          72          88          87
         4          72          73          89          88
         4          73          74          90          89
         4          74          75          91          90
         4          75          76          92          91
         4          76          77          93          92
         4          77          78          94          93
         4          78          79          95          94
         4          80          81          97          96
         4          81          82          98          97
         4          82          83          99          98
         4          83          84         100          99
         4          84          85         101         100
         4          85          86         102         101
         4          86          87         103         102
         4          87          88         104         103
         4          88          89         105         104
         4          89          90         106         105
         4          90          91         107         106
         4          91          92         108         107
         4          92          93         109         108
         4          93          94         110         109
         4          94          95         111         110
         4          96          97         113         112
         4          97          98         114         113
         4          98          99         115         114
         4          99         100         116         115
         4         100         101         117         116
         4         101         102         118         117
         4         102         103         119         118
         4         103         104         120         119
         4         104         105         121         120
         4         105         106         122         121
         4         106         107         123         122
         4         107         108         124         123
         4         108         109         125         124
         4         109         110         126         125
         4         110         111         127         126
         4         112         113         129         128
         4         113         114         130         129
         4         114         115         131         130
         4         115         116         132         131
         4         116         117         133         132
         4         117         118         134         133
         4         118         119         135         134
         4         119         120         136         135
         4         120         121         137         136
         4         121         122         138         137
         4         122         123         139         138
         4         123         124         140         139
         4         124         125         141         140
         4         125         126         142         141
         4         126         127         143         142
         4         128         129         145         144
         4         129         130         146         145
         4         130         131         147         146
         4         131         132         148         147
         4         132         133         149         148
         4         133         134         150         149
         4         134         135         151         150
         4         135         136         152         151
         4         136         137         153         152
         4         137         138         154         153
         4         138         139         155         154
         4         139         140         156         155
         4         140         141         157         156
         4         141         142         158         157
         4         142         143         159         158
         4         144         145         161         160
         4         145         146         162         161
         4         146         147         163         162
         4         147         148         164         163
         4         148         149         165         164
         4         149         150         166         165
         4         150         151         167         166
         4         151         152         168         167
         4         152         153         169         168
         4         153         154         170         169
         4         154         155         171         170
         4         155         156         172         171
         4         156         157         173         172
         4         157         158         174         173
         4         158         159         175         174
         4         160         161         177         176
         4         161         162         178         177
         4         162         163         179         178
         4         163         164         180         179
         4         164         165         181         180
         4         165         166         182         181
         4         166         167         183         182
         4         167         168         184         183
         4         168         169         185         184
         4         169         170         186         185
         4         170         171         187         186
         4         171         172         188         187
         4         172         173         189         188
         4         173         174         190         189
         4         174         175         191         190
         4         176         177         193         192
         4         177         178         194         193
         4         178         179         195         194
         4         179         180         196         195
         4         180         181         197         196
         4         181         182         198         197
         4         182         183         199         198
         4         183         184         200         199
         4         184         185         201         200
         4         185         186         202         201
         4         186         187         203         202
         4         187         188         204         203
         4         188         189         205         204
         4         189         190         206         205
         4         190         191         207         206
         4         192         193         209         208
         4         193         194         210         209
         4         194         195         211         210
         4         195         196         212         211
         4         196         197         213         212
         4         197         198         214         213
         4         198         199         215         214
         4         199         200         216         215
         4         200         201         217         216
         4         201         202         218         217
         4         202         203         219         218
         4         203         204         220         219
         4         204         205         221         220
         4         205         206         222         221
         4         206         207         223         222
         4         208         209         225         224
         4         209         210         226         225
         4         210         211         227         226
         4         211         212         228         227
         4         212         213         229         228
         4         213         214         230         229
         4         214         215         231         230
         4         215         216         232         231
         4         216         217         233         232
         4         217         218         234         233
         4         218         219         235         234
         4         219         220         236         235
         4         220         221         237         236
         4         221         222         238         237
         4         222         223         239         238
         4         224         225         241         240
         4         225         226         242         241
         4         226         227         243         242
         4         227         228         244         243
         4         228         229         245         244
         4         229         230         246         245
         4         230         231         247         246
         4         231         232         248         247
         4         232         233         249         248
         4         233         234         250         249
         4         234         235         251         250
         4         235         236         252         251
         4         236         237         253         252
         4         237         238         254         253
         4         238         239         255         254
         4         240         241         257         256
         4         241         242         258         257
         4         242         243         259         258
         4         243         244         260         259
         4         244         245         261         260
         4         245         246         262         261
         4         246         247         263         262
         4         247         248         264         263
         4         248         249         265         264
         4         249         250         266         265
         4         250         251         267         266
         4         251         252         268         267
         4         252         253         269         268
         4         253         254         270         269
         4         254         255         271         270
         4         256         257         273         272
         4         257         258         274         273
         4         258         259         275         274
         4         259         260         276         275
         4         260         261         277         276
         4         261         262         278         277
         4         262         263         279         278
         4         263         264         280         279
         4         264         265         281         280
         4         265         266         282         281
         4         266         267         283         282
         4         267         268         284         283
         4         268         269         285         284
         4         269         270         286         285
         4         270         271         287         286
         4         272         273         289         288
         4         273         274         290         289
         4         274         275         291         290
         4         275         276         292         291
         4         276         277         293         292
         4         277         278         294         293
         4         278         279         295         294
         4         279         280         296         295
         4         280         281         297         296
         4         281         282         298         297
         4         282         283         299         298
         4         283         284         300         299
         4         284         285         301         300
         4         285         286         302         301
         4         286         287         303         302
         4         288         289         305         304
         4         289         290         306         305
         4         290         291         307         306
         4         291         292         308         307
         4         292         293         309         308
         4         293         294         310         309
         4         294         295         311         310
         4         295         296         312         311
         4         296         297         313         312
         4         297         298         314         313
         4         298         299         315         314
         4         299         300         316         315
         4         300         301         317         316
         4         301         302         318         317
         4         302         303         319         318
         4         304         305         321         320
         4         305         306         322         321
         4         306         307         323         322
         4         307         308         324         323
         4         308         309         325         324
         4         309         310         326         325
         4         310         311         327         326
         4         311         312         328         327
         4         312         313         329         328
         4         313         314         330         329
         4         314         315         331         330
         4         315         316         332         331
         4         316         317         333         332
         4         317         318         334         333
         4         318         319         335         334
         4         320         321         337         336
         4         321         322         338         337
         4         322         323         339         338
         4         323         324         340         339
         4         324         325         341         340
         4         325         326         342         341
         4         326         327         343         342
         4         327         328         344         343
         4         328         329         345         344
         4         329         330         346         345
         4         330         331         347         346
         4         331         332         348         347
         4         332         333         349         348
         4         333         334         350         349
         4         334         335         351         350
         4         336         337         353         352
         4         337         338         354         353
         4         338         339         355         354
         4         339         340         356         355
         4         340         341         357         356
         4         341         342         358         357
         4         342         343         359         358
         4         343         344         360         359
         4         344         345         361         360
         4         345         346         362         361
         4         346         347         363         362
         4         347         348         364         363
         4         348         349         365         364
         4         349         350         366         365
         4         350         351         367         366
         4         352         353         369         368
         4         353         354         370         369
         4         354         355         371         370
         4         355         356         372         371
         4         356         357         373         372
         4         357         358         374         373
         4         358         359         375         374
         4         359         360         376         375
         4         360         361         377         376
         4         361         362         378         377
         4         362         363         379         378
         4         363         364         380         379
         4         364         365         381         380
         4         365         366         382         381
         4         366         367         383         382
         4         368         369         385         384
         4         369         370         386         385
         4         370         371         387         386
         4         371         372         388         387
         4         372         373         389         388
         4         373         374         390         389
         4         374         375         391         390
         4         375         376         392         391
         4         376         377         393         392
         4         377         378         394         393
         4         378         379         395         394
         4         379         380         396         395
         4         380         381         397         396
         4         381         382         398         397
         4         382         383         399         398
         4         384         385         401         400
         4         385         386         402         401
         4         386         387         403         402
         4         387         388         404         403
         4         388         389         405         404
         4         389         390         406         405
         4         390         391         407         406
         4         391         392         408         407
         4         392         393         409         408
         4         393         394         410         409
         4         394         395         411         410
         4         395         396         412         411
         4         396         397         413         412
         4         397         398         414         413
         4         398         399         415         414
         4         400         401         417         416
         4         401         402         418         417
         4         402         403         419         418
         4         403         404         420         419
         4         404         405         421         420
         4         405         406         422         421
         4         406         407         423         422
         4         407         408         424         423
         4         408         409         425         424
         4         409         410         426         425
         4         410         411         427         426
         4         411         412         428         427
         4         412         413         429         428
         4         413         414         430         429
         4         414         415         431         430
         4         416         417         433         432
         4         417         418         434         433
         4         418         419         435         434
         4         419         420         436         435
         4         420         421         437         436
         4         421         422         438         437
         4         422         423         439         438
         4         423         424         440         439
         4         424         425         441         440
         4         425         426         442         441
         4         426         427         443         442
         4         427         428         444         443
         4         428         429         445         444
         4         429         430         446         445
         4         430         431         447         446
         4         432         433         449         448
         4         433         434         450         449
         4         434         435         451         450
         4         435         436         452         451
         4         436         437         453         452
         4         437         438         454         453
         4         438         439         455         454
         4         439         440         456         455
         4         440         441         457         456
         4         441         442         458         457
         4         442         443         459         458
         4         443         444         460         459
         4         444         445         461         460
         4         445         446         462         461
         4         446         447         463         462
         4         448         449         465         464
         4         449         450         466         465
         4         450         451         467         466
         4         451         452         468         467
         4         452         453         469         468
         4         453         454         470         469
         4         454         455         471         470
         4         455         456         472         471
         4         456         457         473         472
         4         457         458         474         473
         4         458         459         475         474
         4         459         460         476         475
         4         460         461         477         476
         4         461         462         478         477
         4         462         463         479         478
         4         464         465         481         480
         4         465         466         482         481
         4         466         467         483         482
         4         467         468         484         483
         4         468         469         485         484
         4         469         470         486         485
         4         470         471         487         486
         4         471         472         488         487
         4         472         473         489         488
         4         473         474         490         489
         4         474         475         491         490
         4         475         476         492         491
         4         476         477         493         492
         4         477         478         494         493
         4         478         479         495         494
CELL_TYPES        450
9
9
9
9
9
9
9
9
9
9
9
9
9
9
9
9
9
9
9
9
9
9
9
9
9
9
9
9
9
9
9
9
9
9
9
9
9
9
9
9
9
9
9
9
9
9
9
9
9
9
9
9
9
9
9
9
9
9
9
9
9
9
9
9
9
9
9
9
9
9
9
9
9
9
9
9
9
9
9
9
9
9
9
9
9
9
9
9
9
9
9
9
9
9
9
9
9
9
9
9
9
9
9
9
9
9
9
9
9
9
9
9
9
9
9
9
9
9
9
9
9
9
9
9
9
9
9
9
9
9
9
9
9
9
9
9
9
9
9
9
9
9
9
9
9
9
9
9
9
9
9
9
9
9
9
9
9
9
9
9
9
9
9
9
9
9
9
9
9
9
9
9
9
9
9
9
9
9
9
9
9
9
9
9
9
9
9
9
9
9
9
9
9
9
9
9
9
9
9
9
9
9
9
9
9
9
9
9
9
9
9
9
9
9
9
9
9
9
9
9
9
9
9
9
9
9
9
9
9
9
9
9
9
9
9
9
9
9
9
9
9
9
9
9
9
9
9
9
9
9
9
9
9
9
9
9
9
9
9
9
9
9
9
9
9
9
9
9
9
9
9
9
9
9
9
9
9
9
9
9
9
9
9
9
9
9
9
9
9
9
9
9
9
9
9
9
9
9
9
9
9
9
9
9
9
9
9
9
9
9
9
9
9
9
9
9
9
9
9
9
9
9
9
9
9
9
9
9
9
9
9
9
9
9
9
9
9
9
9
9
9
9
9
9
9
9
9
9
9
9
9
9
9
9
9
9
9
9
9
9
9
9
9
9
9
9
9
9
9
9
9
9
9
9
9
9
9
9
9
9
9
9
9
9
9
9
9
9
9
9
9
9
9
9
9
9
9
9
9
9
9
9
9
9
9
9
9
9
9
9
9
9
9
9
9
9
9
9
9
9
9
9
9
9
9
9
9
9
9
9
9
9
9
9
9
9
9
9
9
9
9
9
9
9
9
9
9
9
9
9
POINT_DATA       496
SCALARS p double 
LOOKUP_TABLE default
   59641844.4540533     
   59644760.6877137     
   59651275.5597659     
   59659881.4274528     
   59670119.6688206     
   59681593.3687994     
   59693866.3370620     
   59706531.7933370     
   59719226.3311329     
   59731637.9047829     
   59743518.4975398     
   59754693.2541481     
   59765042.7610748     
   59774674.3815124     
   59783821.9183813     
   59789890.8985375     
   59638474.1835443     
   59641396.3649563     
   59648015.3871872     
   59656816.5475238     
   59667274.8185062     
   59678965.1910198     
   59691440.8604868     
   59704288.3280476     
   59717138.6758134     
   59729674.9325144     
   59741643.7253249     
   59752864.2729714     
   59763210.5792806     
   59772768.4511171     
   59781738.0745301     
   59787611.3924378     
   59633973.0196227     
   59637115.1583129     
   59644262.4324481     
   59653716.2595353     
   59664853.7586208     
   59677204.5158557     
   59690295.2035832     
   59703694.0534336     
   59717016.8257851     
   59729932.2381845     
   59742171.6952928     
   59753537.7188889     
   59763886.3049887     
   59773257.4407082     
   59781787.5857810     
   59787213.1384836     
   59626648.3549575     
   59630484.2415523     
   59638832.9397858     
   59649500.9136252     
   59661819.8609602     
   59675300.1543940     
   59689436.4884147     
   59703771.3099432     
   59717897.5201279     
   59731461.3779448     
   59744170.8298030     
   59755803.1326324     
   59766189.0236927     
   59775323.6811128     
   59783299.9131440     
   59788176.1414999     
   59616000.2895759     
   59620932.9526944     
   59631128.0862914     
   59643605.7697355     
   59657646.7925931     
   59672756.1435065     
   59688394.2254013     
   59704072.7117864     
   59719355.8340909     
   59733860.6929633     
   59747264.6994824     
   59759312.5763075     
   59769804.8217857     
   59778691.5373328     
   59786030.4777321     
   59790271.2727314     
   59602145.7260998     
   59608505.6742440     
   59621147.0542344     
   59636040.6277420     
   59652374.0681319     
   59669643.7256744     
   59687269.8924017     
   59704728.8358710     
   59721551.4887625     
   59737320.3270351     
   59751675.7671183     
   59764322.5059813     
   59775023.8179954     
   59783671.0552717     
   59790266.8997526     
   59793733.8224935     
   59585059.3029745     
   59593235.7761208     
   59608990.1589619     
   59626949.7636972     
   59646184.0363593     
   59666181.4386214     
   59686316.4708229     
   59706026.4573873     
   59724805.8849549     
   59742198.4659532     
   59757801.8579947     
   59771272.7957219     
   59782327.5700340     
   59790779.9179266     
   59796551.0014174     
   59799110.7735806     
   59564663.1655487     
   59575108.6237614     
   59594724.6743185     
   59616461.8035857     
   59639253.2160081     
   59662586.9649285     
   59685789.3883040     
   59708258.0430697     
   59729450.2439719     
   59748868.7902712     
   59766064.1525850     
   59780637.5344015     
   59792247.4253256     
   59800611.2352453     
   59805544.8025650     
   59807116.7632586     
   59540942.0204471     
   59554157.8650860     
   59578460.4286112     
   59604749.2362170     
   59631804.0810566     
   59659125.2096075     
   59685991.9338315     
   59711764.8033839     
   59735866.6706080     
   59757760.2478716     
   59776946.6732768     
   59792965.2931923     
   59805405.7044153     
   59813870.2093011     
   59818044.2006011     
   59818612.1353403     
   59513932.3725084     
   59530475.9059621     
   59560371.5679922     
   59592049.7176736     
   59624122.8653476     
   59656122.1824274     
   59687285.4168068     
   59716943.4261492     
   59744491.9036291     
   59769358.5381372     
   59790996.4908022     
   59808879.1789169     
   59822516.3798686     
   59831376.4854449     
   59834986.3729009     
   59834616.0409612     
   59483748.7698808     
   59504231.9669450     
   59540705.5760681     
   59578670.0762853     
   59616559.3637540     
   59653960.4477876     
   59690080.0527196     
   59724232.3894259     
   59755799.3847991     
   59784184.6947469     
   59808800.0610361     
   59829052.6552148     
   59844362.5934895     
   59854046.3992217     
   59857441.3982260     
   59856309.3773773     
   59450615.1416866     
   59475699.7131486     
   59519806.1647337     
   59565004.1409515     
   59609539.7633012     
   59653086.6693533     
   59694836.7407599     
   59734107.6615979     
   59770289.0193566     
   59802779.6615062     
   59830964.0703451     
   59854188.7820171     
   59871776.9151357     
   59882877.3740655     
   59886604.1094011     
   59885032.8316090     
   59414891.0139367     
   59445281.4051392     
   59498133.6883806     
   59551549.3413286     
   59603578.6422369     
   59654017.7454524     
   59702066.0744968     
   59747073.6910999     
   59788469.9247039     
   59825679.4806697     
   59858084.7459957     
   59884986.3350690     
   59905607.7888250     
   59918919.2070681     
   59923775.3575155     
   59922277.6580021     
   59377096.8238975     
   59413531.1303862     
   59476285.6432753     
   59538925.0925283     
   59599293.6867054     
   59657349.3075459     
   59712328.0953339     
   59763652.5250721     
   59810838.0942310     
   59853381.9801353     
   59890705.4707655     
   59922091.6651080     
   59946670.2350452     
   59963229.4377788     
   59970328.8905240     
   59969663.8078599     
   59337935.2006312     
   59381176.8005560     
   59455021.3572353     
   59527897.8933697     
   59597427.7994893     
   59663770.5966301     
   59726235.8598811     
   59784372.9955053     
   59837849.6122178     
   59886304.2341907     
   59929260.6285795     
   59966033.0308055     
   59995676.3664056     
   60016807.4928762     
   60027657.3561998     
   60028898.3013980     
   59298301.2532290     
   59349132.0501112     
   59435279.0704136     
   59519404.4748284     
   59598872.7088364     
   59674080.9590050     
   59744457.7846232     
   59809753.6729831     
   59869881.4107122     
   59924720.8356896     
   59973993.7924178     
   60017123.8110665     
   60053131.4928830     
   60080493.9676775     
   60097086.8645622     
   60101707.3743535     
   59259258.6801383     
   59318500.6929194     
   59418215.4104805     
   59514611.7585704     
   59604733.1328766     
   59689244.4763960     
   59767752.0111687     
   59840309.8667386     
   59907207.0255283     
   59968707.6841253     
   60024871.8579826     
   60075352.7481895     
   60119209.1476423     
   60154842.6157131     
   60179759.9551123     
   60189731.1783697     
   59222067.7202128     
   59290593.1522271     
   59405241.6515786     
   59514966.5052378     
   59616379.2490026     
   59710428.8247634     
   59796977.6090268     
   59876527.2725421     
   59949927.5319390     
   60018028.7760259     
   60081430.4655562     
   60140195.5299892     
   60193542.7575785     
   60239910.4391055     
   60276444.3149928     
   60294358.9641914     
   59187941.9507618     
   59266818.5957097     
   59398026.1919354     
   59522290.2432665     
   59635568.6808848     
   59739112.0966565     
   59833160.0285023     
   59918874.0451634     
   59997924.6904932     
   60072028.4134725     
   60142605.6452813     
   60210392.4464854     
   60274963.3721797     
   60334984.9343877     
   60387284.4010014     
   60416521.6035752     
   59158308.9744458     
   59248955.3531112     
   59398941.6668128     
   59539224.1297068     
   59664860.1323376     
   59777435.0753784     
   59877771.2811683     
   59968003.5068928     
   60050985.2913734     
   60129674.6500318     
   60206695.0498226     
   60283829.2173576     
   60361315.5485460     
   60438347.2119567     
   60511538.0053539     
   60556348.7153506     
   59134213.8014448     
   59238563.7889932     
   59410338.4664872     
   59568685.0598101     
   59707113.8264839     
   59827665.7994542     
   59932106.5991161     
   60024038.1176259     
   60107993.3458752     
   60188656.3857721     
   60270347.9273439     
   60356424.7809240     
   60448278.7423475     
   60546168.3587365     
   60646674.2876309     
   60712748.9246716     
   59115823.2677154     
   59237927.2057046     
   59437176.7713021     
   59616764.7817621     
   59768294.2455374     
   59894741.0996403     
   59999619.2816945     
   60088748.0825787     
   60168990.8190002     
   60247319.2184392     
   60330337.5171214     
   60423663.2345445     
   60530613.8730063     
   60653362.3323199     
   60788972.9197680     
   60883092.8869126     
   59105636.1933136     
   59250622.2907097     
   59485101.5766011     
   59690022.2671985     
   59854145.4327072     
   59982665.2771281     
   60082090.9289892     
   60161609.2277079     
   60231170.0133806     
   60300590.0891338     
   60379347.6623371     
   60476213.6313630     
   60597611.8510903     
   60749337.1889662     
   60929655.4710126     
   61061483.0260063     
   59101467.7574010     
   59278685.4766252     
   59562851.3813144     
   59799861.4489882     
   59975185.3037744     
   60098924.9736561     
   60183705.2985489     
   60243732.2910625     
   60292807.8264003     
   60343879.9175753     
   60409675.9032999     
   60503021.1683137     
   60635451.2273592     
   60819452.5681184     
   61057575.1565372     
   61240177.3044022     
   59086228.7960635     
   59329087.5177161     
   59693579.1397189     
   59972034.9005683     
   60151246.5705968     
   60257071.9084584     
   60312864.6490129     
   60339656.8129866     
   60355248.8567426     
   60375278.0284843     
   60415323.3426157     
   60492813.6317516     
   60626484.7069776     
   60842035.2154186     
   61151763.2137900     
   61404499.5322583     
   59160519.2149145     
   59468076.2459399     
   59937030.8515444     
   60250839.6110366     
   60413107.0319539     
   60477481.4449850     
   60483173.5143309     
   60458760.1226638     
   60425056.3094261     
   60398315.5964681     
   60395210.1736611     
   60436940.3701310     
   60551772.1927494     
   60787079.9358737     
   61183018.9511884     
   61526068.1886784     
   59090105.5517512     
   59549659.7753830     
   60197754.6471794     
   60552703.5675313     
   60662410.7178072     
   60648786.8750330     
   60576079.5278433     
   60480581.4869479     
   60381962.7304124     
   60292589.9557256     
   60225678.2559146     
   60203181.9113968     
   60261911.8921129     
   60492292.4277190     
   61017855.8624478     
   61577864.5664475     
   58795626.8556197     
   60007217.5505152     
   61093486.4096093     
   61391797.8702261     
   61331537.0622646     
   61165295.1768654     
   60974568.7246254     
   60786846.1551047     
   60609759.0057513     
   60443394.5006404     
   60289169.5513535     
   60157738.3024459     
   60077364.6040196     
   60166013.9118256     
   60714607.5529131     
   61532588.1531051     
   61732671.5553758     
   62940426.1408062     
   63515321.1540329     
   63169504.7449292     
   62678836.4360911     
   62257901.6805011     
   61909233.3828339     
   61613418.5803788     
   61349652.7446567     
   61097748.9047330     
   60837939.4219475     
   60552396.7627492     
   60220359.3939178     
   59882592.1076793     
   59762593.6762524     
   60000487.0672470     
   63568564.0449486     
   61800402.7132053     
   60042586.5075283     
   58847383.7373272     
   58002309.8700752     
   57427056.3390581     
   57008526.6174335     
   56676528.0815919     
   56389494.1242964     
   56113863.9682148     
   55817040.1996567     
   55457480.3836023     
   54969672.2097585     
   54272496.3949133     
   53192688.9564115     
   51845411.5565683     
   30766666.6666667     
   30766666.6666667     
   30766666.6666667     
   30766666.6666667     
   30766666.6666667     
   30766666.6666667     
   30766666.6666667     
   30766666.6666667     
   30766666.6666667     
   30766666.6666667     
   30766666.6666667     
   30766666.6666667     
   30766666.6666667     
   30766666.6666667     
   30766666.6666667     
   30766666.6666667     
VECTORS u double 
    0.00000E+00        -0.13817E-01         0.00000E+00
    0.00000E+00        -0.12036E-01         0.00000E+00
    0.00000E+00        -0.10304E-01         0.00000E+00
    0.00000E+00        -0.86604E-02         0.00000E+00
    0.00000E+00        -0.71346E-02         0.00000E+00
    0.00000E+00        -0.57483E-02         0.00000E+00
    0.00000E+00        -0.45158E-02         0.00000E+00
    0.00000E+00        -0.34447E-02         0.00000E+00
    0.00000E+00        -0.25364E-02         0.00000E+00
    0.00000E+00        -0.17868E-02         0.00000E+00
    0.00000E+00        -0.11878E-02         0.00000E+00
    0.00000E+00        -0.72748E-03         0.00000E+00
    0.00000E+00        -0.39221E-03         0.00000E+00
    0.00000E+00        -0.16777E-03         0.00000E+00
    0.00000E+00        -0.41815E-04         0.00000E+00
    0.00000E+00         0.00000E+00         0.00000E+00
    0.18112E-02        -0.13828E-01         0.00000E+00
    0.17760E-02        -0.12036E-01         0.00000E+00
    0.17037E-02        -0.10297E-01         0.00000E+00
    0.15986E-02        -0.86481E-02         0.00000E+00
    0.14682E-02        -0.71188E-02         0.00000E+00
    0.13199E-02        -0.57304E-02         0.00000E+00
    0.11608E-02        -0.44972E-02         0.00000E+00
    0.99739E-03        -0.34264E-02         0.00000E+00
    0.83547E-03        -0.25195E-02         0.00000E+00
    0.67994E-03        -0.17722E-02         0.00000E+00
    0.53470E-03        -0.11759E-02         0.00000E+00
    0.40248E-03        -0.71880E-03         0.00000E+00
    0.28462E-03        -0.38679E-03         0.00000E+00
    0.18084E-03        -0.16537E-03         0.00000E+00
    0.88633E-04        -0.41752E-04         0.00000E+00
    0.00000E+00         0.00000E+00         0.00000E+00
    0.36297E-02        -0.13849E-01         0.00000E+00
    0.35605E-02        -0.12035E-01         0.00000E+00
    0.34122E-02        -0.10275E-01         0.00000E+00
    0.31987E-02        -0.86116E-02         0.00000E+00
    0.29348E-02        -0.70719E-02         0.00000E+00
    0.26355E-02        -0.56775E-02         0.00000E+00
    0.23149E-02        -0.44420E-02         0.00000E+00
    0.19859E-02        -0.33724E-02         0.00000E+00
    0.16603E-02        -0.24695E-02         0.00000E+00
    0.13478E-02        -0.17287E-02         0.00000E+00
    0.10564E-02        -0.11407E-02         0.00000E+00
    0.79147E-03        -0.69290E-03         0.00000E+00
    0.55593E-03        -0.37046E-03         0.00000E+00
    0.34936E-03        -0.15776E-03         0.00000E+00
    0.16715E-03        -0.40408E-04         0.00000E+00
    0.00000E+00         0.00000E+00         0.00000E+00
    0.54792E-02        -0.13881E-01         0.00000E+00
    0.53713E-02        -0.12031E-01         0.00000E+00
    0.51418E-02        -0.10241E-01         0.00000E+00
    0.48139E-02        -0.85532E-02         0.00000E+00
    0.44109E-02        -0.69967E-02         0.00000E+00
    0.39552E-02        -0.55922E-02         0.00000E+00
    0.34683E-02        -0.43528E-02         0.00000E+00
    0.29697E-02        -0.32848E-02         0.00000E+00
    0.24768E-02        -0.23883E-02         0.00000E+00
    0.20046E-02        -0.16578E-02         0.00000E+00
    0.15650E-02        -0.10830E-02         0.00000E+00
    0.11665E-02        -0.65030E-03         0.00000E+00
    0.81366E-03        -0.34322E-03         0.00000E+00
    0.50637E-03        -0.14434E-03         0.00000E+00
    0.23893E-03        -0.36682E-04         0.00000E+00
    0.00000E+00         0.00000E+00         0.00000E+00
    0.73777E-02        -0.13932E-01         0.00000E+00
    0.72228E-02        -0.12031E-01         0.00000E+00
    0.69040E-02        -0.10199E-01         0.00000E+00
    0.64535E-02        -0.84780E-02         0.00000E+00
    0.59031E-02        -0.68981E-02         0.00000E+00
    0.52834E-02        -0.54793E-02         0.00000E+00
    0.46233E-02        -0.42340E-02         0.00000E+00
    0.39489E-02        -0.31677E-02         0.00000E+00
    0.32836E-02        -0.22793E-02         0.00000E+00
    0.26475E-02        -0.15622E-02         0.00000E+00
    0.20569E-02        -0.10050E-02         0.00000E+00
    0.15235E-02        -0.59219E-03         0.00000E+00
    0.10540E-02        -0.30557E-03         0.00000E+00
    0.64909E-03        -0.12513E-03         0.00000E+00
    0.30240E-03        -0.30814E-04         0.00000E+00
    0.00000E+00         0.00000E+00         0.00000E+00
    0.93416E-02        -0.14011E-01         0.00000E+00
    0.91287E-02        -0.12045E-01         0.00000E+00
    0.87095E-02        -0.10157E-01         0.00000E+00
    0.81252E-02        -0.83937E-02         0.00000E+00
    0.74168E-02        -0.67837E-02         0.00000E+00
    0.66233E-02        -0.53461E-02         0.00000E+00
    0.57810E-02        -0.40925E-02         0.00000E+00
    0.49229E-02        -0.30272E-02         0.00000E+00
    0.40786E-02        -0.21477E-02         0.00000E+00
    0.32734E-02        -0.14462E-02         0.00000E+00
    0.25280E-02        -0.90956E-03         0.00000E+00
    0.18579E-02        -0.52063E-03         0.00000E+00
    0.12724E-02        -0.25871E-03         0.00000E+00
    0.77343E-03        -0.10084E-03         0.00000E+00
    0.35470E-03        -0.23207E-04         0.00000E+00
    0.00000E+00         0.00000E+00         0.00000E+00
    0.11388E-01        -0.14130E-01         0.00000E+00
    0.11103E-01        -0.12083E-01         0.00000E+00
    0.10569E-01        -0.10127E-01         0.00000E+00
    0.98373E-02        -0.83118E-02         0.00000E+00
    0.89578E-02        -0.66645E-02         0.00000E+00
    0.79785E-02        -0.52032E-02         0.00000E+00
    0.69433E-02        -0.39381E-02         0.00000E+00
    0.58923E-02        -0.28719E-02         0.00000E+00
    0.48610E-02        -0.20010E-02         0.00000E+00
    0.38802E-02        -0.13157E-02         0.00000E+00
    0.29754E-02        -0.80137E-03         0.00000E+00
    0.21661E-02        -0.43873E-03         0.00000E+00
    0.14648E-02        -0.20454E-03         0.00000E+00
    0.87575E-03        -0.72444E-04         0.00000E+00
    0.39330E-03        -0.14218E-04         0.00000E+00
    0.00000E+00         0.00000E+00         0.00000E+00
    0.13535E-01        -0.14304E-01         0.00000E+00
    0.13161E-01        -0.12161E-01         0.00000E+00
    0.12495E-01        -0.10125E-01         0.00000E+00
    0.11598E-01        -0.82472E-02         0.00000E+00
    0.10532E-01        -0.65552E-02         0.00000E+00
    0.93533E-02        -0.50646E-02         0.00000E+00
    0.81131E-02        -0.37839E-02         0.00000E+00
    0.68586E-02        -0.27140E-02         0.00000E+00
    0.56313E-02        -0.18495E-02         0.00000E+00
    0.44676E-02        -0.11792E-02         0.00000E+00
    0.33978E-02        -0.68677E-03         0.00000E+00
    0.24461E-02        -0.35090E-03         0.00000E+00
    0.16288E-02        -0.14571E-03         0.00000E+00
    0.95351E-03        -0.41211E-04         0.00000E+00
    0.41634E-03        -0.42068E-05         0.00000E+00
    0.00000E+00         0.00000E+00         0.00000E+00
    0.15802E-01        -0.14553E-01         0.00000E+00
    0.15316E-01        -0.12299E-01         0.00000E+00
    0.14497E-01        -0.10169E-01         0.00000E+00
    0.13416E-01        -0.82193E-02         0.00000E+00
    0.12147E-01        -0.64750E-02         0.00000E+00
    0.10753E-01        -0.49490E-02         0.00000E+00
    0.92947E-02        -0.36475E-02         0.00000E+00
    0.78253E-02        -0.25692E-02         0.00000E+00
    0.63924E-02        -0.17069E-02         0.00000E+00
    0.50376E-02        -0.10480E-02         0.00000E+00
    0.37966E-02        -0.57442E-03         0.00000E+00
    0.26983E-02        -0.26314E-03         0.00000E+00
    0.17640E-02        -0.85816E-04         0.00000E+00
    0.10055E-02        -0.88363E-05         0.00000E+00
    0.42264E-03         0.63548E-05         0.00000E+00
    0.00000E+00         0.00000E+00         0.00000E+00
    0.18206E-01        -0.14901E-01         0.00000E+00
    0.17584E-01        -0.12520E-01         0.00000E+00
    0.16586E-01        -0.10283E-01         0.00000E+00
    0.15300E-01        -0.82529E-02         0.00000E+00
    0.13808E-01        -0.64485E-02         0.00000E+00
    0.12184E-01        -0.48804E-02         0.00000E+00
    0.10494E-01        -0.35516E-02         0.00000E+00
    0.87980E-02        -0.24583E-02         0.00000E+00
    0.71497E-02        -0.15915E-02         0.00000E+00
    0.55954E-02        -0.93703E-03         0.00000E+00
    0.41761E-02        -0.47582E-03         0.00000E+00
    0.29260E-02        -0.18348E-03         0.00000E+00
    0.18722E-02        -0.29720E-04         0.00000E+00
    0.10325E-02         0.22390E-04         0.00000E+00
    0.41204E-03         0.16825E-04         0.00000E+00
    0.00000E+00         0.00000E+00         0.00000E+00
    0.20766E-01        -0.15376E-01         0.00000E+00
    0.19976E-01        -0.12853E-01         0.00000E+00
    0.18774E-01        -0.10500E-01         0.00000E+00
    0.17259E-01        -0.83788E-02         0.00000E+00
    0.15524E-01        -0.65068E-02         0.00000E+00
    0.13652E-01        -0.48891E-02         0.00000E+00
    0.11717E-01        -0.35251E-02         0.00000E+00
    0.97846E-02        -0.24080E-02         0.00000E+00
    0.79117E-02        -0.15266E-02         0.00000E+00
    0.61498E-02        -0.86584E-03         0.00000E+00
    0.45446E-02        -0.40607E-03         0.00000E+00
    0.31363E-02        -0.12253E-03         0.00000E+00
    0.19588E-02         0.16130E-04         0.00000E+00
    0.10375E-02         0.49399E-04         0.00000E+00
    0.38567E-03         0.26334E-04         0.00000E+00
    0.00000E+00         0.00000E+00         0.00000E+00
    0.23500E-01        -0.16014E-01         0.00000E+00
    0.22508E-01        -0.13336E-01         0.00000E+00
    0.21069E-01        -0.10854E-01         0.00000E+00
    0.19299E-01        -0.86349E-02         0.00000E+00
    0.17301E-01        -0.66881E-02         0.00000E+00
    0.15167E-01        -0.50132E-02         0.00000E+00
    0.12975E-01        -0.36045E-02         0.00000E+00
    0.10796E-01        -0.24519E-02         0.00000E+00
    0.86910E-02        -0.15421E-02         0.00000E+00
    0.67141E-02        -0.85943E-03         0.00000E+00
    0.49156E-02        -0.38472E-03         0.00000E+00
    0.33415E-02        -0.94129E-04         0.00000E+00
    0.20336E-02         0.43246E-04         0.00000E+00
    0.10271E-02         0.68113E-04         0.00000E+00
    0.34645E-03         0.33720E-04         0.00000E+00
    0.00000E+00         0.00000E+00         0.00000E+00
    0.26425E-01        -0.16854E-01         0.00000E+00
    0.25188E-01        -0.14010E-01         0.00000E+00
    0.23480E-01        -0.11391E-01         0.00000E+00
    0.21428E-01        -0.90675E-02         0.00000E+00
    0.19147E-01        -0.70395E-02         0.00000E+00
    0.16736E-01        -0.52992E-02         0.00000E+00
    0.14279E-01        -0.38350E-02         0.00000E+00
    0.11848E-01        -0.26323E-02         0.00000E+00
    0.95051E-02        -0.16757E-02         0.00000E+00
    0.73077E-02        -0.94965E-03         0.00000E+00
    0.53088E-02        -0.43680E-03         0.00000E+00
    0.35600E-02        -0.11615E-03         0.00000E+00
    0.21119E-02         0.40579E-04         0.00000E+00
    0.10119E-02         0.73184E-04         0.00000E+00
    0.29963E-03         0.37437E-04         0.00000E+00
    0.00000E+00         0.00000E+00         0.00000E+00
    0.29556E-01        -0.17945E-01         0.00000E+00
    0.28028E-01        -0.14925E-01         0.00000E+00
    0.26012E-01        -0.12164E-01         0.00000E+00
    0.23650E-01        -0.97315E-02         0.00000E+00
    0.21068E-01        -0.76175E-02         0.00000E+00
    0.18370E-01        -0.58042E-02         0.00000E+00
    0.15642E-01        -0.42721E-02         0.00000E+00
    0.12957E-01        -0.30013E-02         0.00000E+00
    0.10377E-01        -0.19744E-02         0.00000E+00
    0.79570E-02        -0.11765E-02         0.00000E+00
    0.57519E-02        -0.59403E-03         0.00000E+00
    0.38183E-02        -0.21142E-03         0.00000E+00
    0.22164E-02        -0.61028E-05         0.00000E+00
    0.10084E-02         0.57655E-04         0.00000E+00
    0.25354E-03         0.35460E-04         0.00000E+00
    0.00000E+00         0.00000E+00         0.00000E+00
    0.32904E-01        -0.19342E-01         0.00000E+00
    0.31033E-01        -0.16141E-01         0.00000E+00
    0.28669E-01        -0.13235E-01         0.00000E+00
    0.25970E-01        -0.10692E-01         0.00000E+00
    0.23070E-01        -0.84895E-02         0.00000E+00
    0.20078E-01        -0.65964E-02         0.00000E+00
    0.17081E-01        -0.49830E-02         0.00000E+00
    0.14148E-01        -0.36230E-02         0.00000E+00
    0.11337E-01        -0.24961E-02         0.00000E+00
    0.86968E-02        -0.15897E-02         0.00000E+00
    0.62822E-02        -0.89618E-03         0.00000E+00
    0.41528E-02        -0.40880E-03         0.00000E+00
    0.23788E-02        -0.11495E-03         0.00000E+00
    0.10398E-02         0.12579E-04         0.00000E+00
    0.22050E-03         0.25157E-04         0.00000E+00
    0.00000E+00         0.00000E+00         0.00000E+00
    0.36477E-01        -0.21106E-01         0.00000E+00
    0.34204E-01        -0.17723E-01         0.00000E+00
    0.31450E-01        -0.14674E-01         0.00000E+00
    0.28385E-01        -0.12025E-01         0.00000E+00
    0.25154E-01        -0.97348E-02         0.00000E+00
    0.21869E-01        -0.77569E-02         0.00000E+00
    0.18614E-01        -0.60485E-02         0.00000E+00
    0.15449E-01        -0.45744E-02         0.00000E+00
    0.12421E-01        -0.33117E-02         0.00000E+00
    0.95719E-02        -0.22506E-02         0.00000E+00
    0.69488E-02        -0.13926E-02         0.00000E+00
    0.46122E-02        -0.74442E-03         0.00000E+00
    0.26422E-02        -0.30887E-03         0.00000E+00
    0.11387E-02        -0.73438E-04         0.00000E+00
    0.21795E-03         0.31472E-05         0.00000E+00
    0.00000E+00         0.00000E+00         0.00000E+00
    0.40278E-01        -0.23307E-01         0.00000E+00
    0.37540E-01        -0.19748E-01         0.00000E+00
    0.34348E-01        -0.16563E-01         0.00000E+00
    0.30891E-01        -0.13817E-01         0.00000E+00
    0.27322E-01        -0.11445E-01         0.00000E+00
    0.23753E-01        -0.93810E-02         0.00000E+00
    0.20260E-01        -0.75641E-02         0.00000E+00
    0.16892E-01        -0.59480E-02         0.00000E+00
    0.13676E-01        -0.45062E-02         0.00000E+00
    0.10639E-01        -0.32335E-02         0.00000E+00
    0.78145E-02        -0.21439E-02         0.00000E+00
    0.52601E-02        -0.12630E-02         0.00000E+00
    0.30638E-02        -0.61648E-03         0.00000E+00
    0.13489E-02        -0.21476E-03         0.00000E+00
    0.26987E-03        -0.34875E-04         0.00000E+00
    0.00000E+00         0.00000E+00         0.00000E+00
    0.44305E-01        -0.26023E-01         0.00000E+00
    0.41029E-01        -0.22297E-01         0.00000E+00
    0.37350E-01        -0.18993E-01         0.00000E+00
    0.33475E-01        -0.16166E-01         0.00000E+00
    0.29565E-01        -0.13727E-01         0.00000E+00
    0.25733E-01        -0.11579E-01         0.00000E+00
    0.22041E-01        -0.96417E-02         0.00000E+00
    0.18515E-01        -0.78527E-02         0.00000E+00
    0.15158E-01        -0.61810E-02         0.00000E+00
    0.11967E-01        -0.46276E-02         0.00000E+00
    0.89585E-02        -0.32231E-02         0.00000E+00
    0.61776E-02        -0.20191E-02         0.00000E+00
    0.37181E-02        -0.10731E-02         0.00000E+00
    0.17279E-02        -0.42931E-03         0.00000E+00
    0.40841E-03        -0.94332E-04         0.00000E+00
    0.00000E+00         0.00000E+00         0.00000E+00
    0.48548E-01        -0.29338E-01         0.00000E+00
    0.44656E-01        -0.25465E-01         0.00000E+00
    0.40435E-01        -0.22065E-01         0.00000E+00
    0.36116E-01        -0.19185E-01         0.00000E+00
    0.31873E-01        -0.16700E-01         0.00000E+00
    0.27812E-01        -0.14479E-01         0.00000E+00
    0.23978E-01        -0.12410E-01         0.00000E+00
    0.20363E-01        -0.10415E-01         0.00000E+00
    0.16931E-01        -0.84541E-02         0.00000E+00
    0.13642E-01        -0.65376E-02         0.00000E+00
    0.10479E-01        -0.47173E-02         0.00000E+00
    0.74668E-02        -0.30785E-02         0.00000E+00
    0.46998E-02        -0.17220E-02         0.00000E+00
    0.23508E-02        -0.73926E-03         0.00000E+00
    0.67597E-03        -0.18200E-03         0.00000E+00
    0.00000E+00         0.00000E+00         0.00000E+00
    0.52992E-01        -0.33346E-01         0.00000E+00
    0.48395E-01        -0.29351E-01         0.00000E+00
    0.43571E-01        -0.25890E-01         0.00000E+00
    0.38782E-01        -0.22996E-01         0.00000E+00
    0.34221E-01        -0.20500E-01         0.00000E+00
    0.29987E-01        -0.18223E-01         0.00000E+00
    0.26092E-01        -0.16016E-01         0.00000E+00
    0.22484E-01        -0.13777E-01         0.00000E+00
    0.19073E-01        -0.11459E-01         0.00000E+00
    0.15765E-01        -0.90836E-02         0.00000E+00
    0.12494E-01        -0.67277E-02         0.00000E+00
    0.92539E-02        -0.45195E-02         0.00000E+00
    0.61285E-02        -0.26153E-02         0.00000E+00
    0.33135E-02        -0.11719E-02         0.00000E+00
    0.11278E-02        -0.30638E-03         0.00000E+00
    0.00000E+00         0.00000E+00         0.00000E+00
    0.57619E-01        -0.38151E-01         0.00000E+00
    0.52213E-01        -0.34068E-01         0.00000E+00
    0.46709E-01        -0.30593E-01         0.00000E+00
    0.41426E-01        -0.27742E-01         0.00000E+00
    0.36577E-01        -0.25282E-01         0.00000E+00
    0.32248E-01        -0.22973E-01         0.00000E+00
    0.28407E-01        -0.20621E-01         0.00000E+00
    0.24935E-01        -0.18094E-01         0.00000E+00
    0.21672E-01        -0.15342E-01         0.00000E+00
    0.18451E-01        -0.12398E-01         0.00000E+00
    0.15143E-01        -0.93689E-02         0.00000E+00
    0.11690E-01        -0.64330E-02         0.00000E+00
    0.81509E-02        -0.38159E-02         0.00000E+00
    0.47366E-02        -0.17610E-02         0.00000E+00
    0.18343E-02        -0.47798E-03         0.00000E+00
    0.00000E+00         0.00000E+00         0.00000E+00
    0.62403E-01        -0.43874E-01         0.00000E+00
    0.56062E-01        -0.39743E-01         0.00000E+00
    0.49789E-01        -0.36319E-01         0.00000E+00
    0.43985E-01        -0.33584E-01         0.00000E+00
    0.38899E-01        -0.31220E-01         0.00000E+00
    0.34589E-01        -0.28907E-01         0.00000E+00
    0.30952E-01        -0.26394E-01         0.00000E+00
    0.27783E-01        -0.23526E-01         0.00000E+00
    0.24828E-01        -0.20251E-01         0.00000E+00
    0.21833E-01        -0.16617E-01         0.00000E+00
    0.18584E-01        -0.12765E-01         0.00000E+00
    0.14952E-01        -0.89237E-02         0.00000E+00
    0.10946E-01        -0.54004E-02         0.00000E+00
    0.67723E-02        -0.25494E-02         0.00000E+00
    0.28872E-02        -0.71096E-03         0.00000E+00
    0.00000E+00         0.00000E+00         0.00000E+00
    0.67332E-01        -0.50659E-01         0.00000E+00
    0.59888E-01        -0.46534E-01         0.00000E+00
    0.52725E-01        -0.43242E-01         0.00000E+00
    0.46380E-01        -0.40719E-01         0.00000E+00
    0.41141E-01        -0.38519E-01         0.00000E+00
    0.37010E-01        -0.36215E-01         0.00000E+00
    0.33774E-01        -0.33503E-01         0.00000E+00
    0.31109E-01        -0.30216E-01         0.00000E+00
    0.28651E-01        -0.26315E-01         0.00000E+00
    0.26047E-01        -0.21868E-01         0.00000E+00
    0.22985E-01        -0.17041E-01         0.00000E+00
    0.19238E-01        -0.12110E-01         0.00000E+00
    0.14724E-01        -0.74632E-02         0.00000E+00
    0.96092E-02        -0.35936E-02         0.00000E+00
    0.44031E-02        -0.10241E-02         0.00000E+00
    0.00000E+00         0.00000E+00         0.00000E+00
    0.72397E-01        -0.58713E-01         0.00000E+00
    0.63615E-01        -0.54643E-01         0.00000E+00
    0.55400E-01        -0.51593E-01         0.00000E+00
    0.48512E-01        -0.49401E-01         0.00000E+00
    0.43270E-01        -0.47419E-01         0.00000E+00
    0.39546E-01        -0.45091E-01         0.00000E+00
    0.36955E-01        -0.42083E-01         0.00000E+00
    0.35016E-01        -0.38256E-01         0.00000E+00
    0.33252E-01        -0.33609E-01         0.00000E+00
    0.31217E-01        -0.28236E-01         0.00000E+00
    0.28499E-01        -0.22310E-01         0.00000E+00
    0.24744E-01        -0.16123E-01         0.00000E+00
    0.19723E-01        -0.10128E-01         0.00000E+00
    0.13481E-01        -0.49758E-02         0.00000E+00
    0.65362E-02        -0.14467E-02         0.00000E+00
    0.00000E+00         0.00000E+00         0.00000E+00
    0.77583E-01        -0.68288E-01         0.00000E+00
    0.67128E-01        -0.64355E-01         0.00000E+00
    0.57659E-01        -0.61722E-01         0.00000E+00
    0.50304E-01        -0.59985E-01         0.00000E+00
    0.45324E-01        -0.58205E-01         0.00000E+00
    0.42330E-01        -0.55703E-01         0.00000E+00
    0.40659E-01        -0.52188E-01         0.00000E+00
    0.39654E-01        -0.47625E-01         0.00000E+00
    0.38747E-01        -0.42097E-01         0.00000E+00
    0.37437E-01        -0.35719E-01         0.00000E+00
    0.35237E-01        -0.28641E-01         0.00000E+00
    0.31647E-01        -0.21106E-01         0.00000E+00
    0.26204E-01        -0.13569E-01         0.00000E+00
    0.18690E-01        -0.68308E-02         0.00000E+00
    0.95050E-02        -0.20327E-02         0.00000E+00
    0.00000E+00         0.00000E+00         0.00000E+00
    0.83136E-01        -0.79800E-01         0.00000E+00
    0.70347E-01        -0.76252E-01         0.00000E+00
    0.59394E-01        -0.74200E-01         0.00000E+00
    0.51786E-01        -0.72988E-01         0.00000E+00
    0.47544E-01        -0.71204E-01         0.00000E+00
    0.45706E-01        -0.68120E-01         0.00000E+00
    0.45210E-01        -0.63687E-01         0.00000E+00
    0.45255E-01        -0.58098E-01         0.00000E+00
    0.45263E-01        -0.51543E-01         0.00000E+00
    0.44753E-01        -0.44153E-01         0.00000E+00
    0.43224E-01        -0.36003E-01         0.00000E+00
    0.40047E-01        -0.27195E-01         0.00000E+00
    0.34437E-01        -0.18039E-01         0.00000E+00
    0.25648E-01        -0.93903E-02         0.00000E+00
    0.13652E-01        -0.28848E-02         0.00000E+00
    0.00000E+00         0.00000E+00         0.00000E+00
    0.88885E-01        -0.94546E-01         0.00000E+00
    0.72831E-01        -0.91089E-01         0.00000E+00
    0.60060E-01        -0.89949E-01         0.00000E+00
    0.52907E-01        -0.89201E-01         0.00000E+00
    0.50274E-01        -0.86657E-01         0.00000E+00
    0.50041E-01        -0.82117E-01         0.00000E+00
    0.50810E-01        -0.76117E-01         0.00000E+00
    0.51817E-01        -0.69126E-01         0.00000E+00
    0.52606E-01        -0.61423E-01         0.00000E+00
    0.52815E-01        -0.53111E-01         0.00000E+00
    0.52012E-01        -0.44155E-01         0.00000E+00
    0.49536E-01        -0.34439E-01         0.00000E+00
    0.44287E-01        -0.23910E-01         0.00000E+00
    0.34662E-01        -0.13127E-01         0.00000E+00
    0.19410E-01        -0.41946E-02         0.00000E+00
    0.00000E+00         0.00000E+00         0.00000E+00
    0.94592E-01        -0.11235E+00         0.00000E+00
    0.73793E-01        -0.11041E+00         0.00000E+00
    0.59846E-01        -0.11138E+00         0.00000E+00
    0.55359E-01        -0.10960E+00         0.00000E+00
    0.55323E-01        -0.10423E+00         0.00000E+00
    0.56726E-01        -0.96831E-01         0.00000E+00
    0.58436E-01        -0.88488E-01         0.00000E+00
    0.59995E-01        -0.79758E-01         0.00000E+00
    0.61182E-01        -0.70863E-01         0.00000E+00
    0.61807E-01        -0.61819E-01         0.00000E+00
    0.61582E-01        -0.52480E-01         0.00000E+00
    0.59942E-01        -0.42543E-01         0.00000E+00
    0.55733E-01        -0.31536E-01         0.00000E+00
    0.46485E-01        -0.19078E-01         0.00000E+00
    0.28269E-01        -0.68359E-02         0.00000E+00
    0.00000E+00         0.00000E+00         0.00000E+00
    0.10868E+00        -0.13679E+00         0.00000E+00
    0.74905E-01        -0.14391E+00         0.00000E+00
    0.64805E-01        -0.14216E+00         0.00000E+00
    0.64966E-01        -0.13314E+00         0.00000E+00
    0.66829E-01        -0.12186E+00         0.00000E+00
    0.68825E-01        -0.11031E+00         0.00000E+00
    0.70539E-01        -0.99181E-01         0.00000E+00
    0.71896E-01        -0.88651E-01         0.00000E+00
    0.72870E-01        -0.78682E-01         0.00000E+00
    0.73401E-01        -0.69146E-01         0.00000E+00
    0.73330E-01        -0.59830E-01         0.00000E+00
    0.72266E-01        -0.50388E-01         0.00000E+00
    0.69268E-01        -0.40206E-01         0.00000E+00
    0.62020E-01        -0.28199E-01         0.00000E+00
    0.43086E-01        -0.12967E-01         0.00000E+00
    0.00000E+00         0.00000E+00         0.00000E+00
    0.11892E+00        -0.21149E+00         0.00000E+00
    0.71842E-01        -0.20018E+00         0.00000E+00
    0.70643E-01        -0.17476E+00         0.00000E+00
    0.71424E-01        -0.15294E+00         0.00000E+00
    0.72433E-01        -0.13492E+00         0.00000E+00
    0.73252E-01        -0.11956E+00         0.00000E+00
    0.73869E-01        -0.10619E+00         0.00000E+00
    0.74295E-01        -0.94321E-01         0.00000E+00
    0.74527E-01        -0.83616E-01         0.00000E+00
    0.74527E-01        -0.73807E-01         0.00000E+00
    0.74190E-01        -0.64656E-01         0.00000E+00
    0.73277E-01        -0.55885E-01         0.00000E+00
    0.71216E-01        -0.47041E-01         0.00000E+00
    0.66420E-01        -0.37244E-01         0.00000E+00
    0.54108E-01        -0.23705E-01         0.00000E+00
    0.00000E+00         0.00000E+00         0.00000E+00
    0.00000E+00        -0.32030E+00         0.00000E+00
    0.00000E+00        -0.23094E+00         0.00000E+00
    0.00000E+00        -0.18719E+00         0.00000E+00
    0.00000E+00        -0.15959E+00         0.00000E+00
    0.00000E+00        -0.13896E+00         0.00000E+00
    0.00000E+00        -0.12231E+00         0.00000E+00
    0.00000E+00        -0.10821E+00         0.00000E+00
    0.00000E+00        -0.95927E-01         0.00000E+00
    0.00000E+00        -0.84991E-01         0.00000E+00
    0.00000E+00        -0.75089E-01         0.00000E+00
    0.00000E+00        -0.65971E-01         0.00000E+00
    0.00000E+00        -0.57384E-01         0.00000E+00
    0.00000E+00        -0.48970E-01         0.00000E+00
    0.00000E+00        -0.39962E-01         0.00000E+00
    0.00000E+00        -0.28615E-01         0.00000E+00
    0.00000E+00         0.00000E+00         0.00000E+00
CELL_DATA        450
VECTORS vDarcy double 
    0.13469E-10         0.11677E-10         0.00000E+00
    0.13249E-10         0.26268E-10         0.00000E+00
    0.12650E-10         0.34814E-10         0.00000E+00
    0.11819E-10         0.41393E-10         0.00000E+00
    0.10946E-10         0.46328E-10         0.00000E+00
    0.10107E-10         0.49497E-10         0.00000E+00
    0.93379E-11         0.51026E-10         0.00000E+00
    0.86622E-11         0.51090E-10         0.00000E+00
    0.81013E-11         0.49896E-10         0.00000E+00
    0.76755E-11         0.47699E-10         0.00000E+00
    0.74075E-11         0.44791E-10         0.00000E+00
    0.73223E-11         0.41392E-10         0.00000E+00
    0.74762E-11         0.38379E-10         0.00000E+00
    0.79795E-11         0.36234E-10         0.00000E+00
    0.87267E-11         0.23885E-10         0.00000E+00
    0.17565E-10         0.12129E-10         0.00000E+00
    0.16068E-10         0.27533E-10         0.00000E+00
    0.13706E-10         0.36510E-10         0.00000E+00
    0.11043E-10         0.43192E-10         0.00000E+00
    0.83635E-11         0.48082E-10         0.00000E+00
    0.58127E-11         0.51133E-10         0.00000E+00
    0.34799E-11         0.52493E-10         0.00000E+00
    0.14322E-11         0.52346E-10         0.00000E+00
   -0.27091E-12         0.50903E-10         0.00000E+00
   -0.15706E-11         0.48416E-10         0.00000E+00
   -0.24028E-11         0.45173E-10         0.00000E+00
   -0.26983E-11         0.41390E-10         0.00000E+00
   -0.23294E-11         0.37858E-10         0.00000E+00
   -0.10770E-11         0.35000E-10         0.00000E+00
    0.69749E-12         0.22598E-10         0.00000E+00
    0.27911E-10         0.13956E-10         0.00000E+00
    0.24121E-10         0.30992E-10         0.00000E+00
    0.19290E-10         0.40244E-10         0.00000E+00
    0.14498E-10         0.46913E-10         0.00000E+00
    0.98765E-11         0.51662E-10         0.00000E+00
    0.55262E-11         0.54454E-10         0.00000E+00
    0.15629E-11         0.55467E-10         0.00000E+00
   -0.19159E-11         0.54898E-10         0.00000E+00
   -0.48197E-11         0.52959E-10         0.00000E+00
   -0.70565E-11         0.49898E-10         0.00000E+00
   -0.85291E-11         0.45997E-10         0.00000E+00
   -0.91363E-11         0.41469E-10         0.00000E+00
   -0.87379E-11         0.37012E-10         0.00000E+00
   -0.71571E-11         0.33013E-10         0.00000E+00
   -0.49507E-11         0.20604E-10         0.00000E+00
    0.40399E-10         0.17537E-10         0.00000E+00
    0.34512E-10         0.37088E-10         0.00000E+00
    0.27200E-10         0.46291E-10         0.00000E+00
    0.20136E-10         0.52720E-10         0.00000E+00
    0.13434E-10         0.57179E-10         0.00000E+00
    0.71725E-11         0.59549E-10         0.00000E+00
    0.14817E-11         0.60027E-10         0.00000E+00
   -0.35194E-11         0.58819E-10         0.00000E+00
   -0.77153E-11         0.56137E-10         0.00000E+00
   -0.10986E-10         0.52227E-10         0.00000E+00
   -0.13207E-10         0.47360E-10         0.00000E+00
   -0.14250E-10         0.41756E-10         0.00000E+00
   -0.13967E-10         0.36043E-10         0.00000E+00
   -0.12197E-10         0.30630E-10         0.00000E+00
   -0.96514E-11         0.18234E-10         0.00000E+00
    0.52564E-10         0.22585E-10         0.00000E+00
    0.44817E-10         0.45673E-10         0.00000E+00
    0.35092E-10         0.54743E-10         0.00000E+00
    0.25676E-10         0.60749E-10         0.00000E+00
    0.16770E-10         0.64758E-10         0.00000E+00
    0.84735E-11         0.66528E-10         0.00000E+00
    0.93642E-12         0.66275E-10         0.00000E+00
   -0.57036E-11         0.64212E-10         0.00000E+00
   -0.11311E-10         0.60547E-10         0.00000E+00
   -0.15741E-10         0.55519E-10         0.00000E+00
   -0.18842E-10         0.49389E-10         0.00000E+00
   -0.20458E-10         0.42387E-10         0.00000E+00
   -0.20397E-10         0.35068E-10         0.00000E+00
   -0.18432E-10         0.27870E-10         0.00000E+00
   -0.15398E-10         0.15415E-10         0.00000E+00
    0.64713E-10         0.29073E-10         0.00000E+00
    0.54854E-10         0.56792E-10         0.00000E+00
    0.42496E-10         0.65706E-10         0.00000E+00
    0.30562E-10         0.71135E-10         0.00000E+00
    0.19305E-10         0.74534E-10         0.00000E+00
    0.88314E-11         0.75522E-10         0.00000E+00
   -0.68840E-12         0.74338E-10         0.00000E+00
   -0.91040E-11         0.71204E-10         0.00000E+00
   -0.16265E-10         0.66323E-10         0.00000E+00
   -0.22008E-10         0.59918E-10         0.00000E+00
   -0.26153E-10         0.52235E-10         0.00000E+00
   -0.28508E-10         0.43512E-10         0.00000E+00
   -0.28825E-10         0.34199E-10         0.00000E+00
   -0.26786E-10         0.24734E-10         0.00000E+00
   -0.23322E-10         0.12053E-10         0.00000E+00
    0.77047E-10         0.37244E-10         0.00000E+00
    0.64785E-10         0.70741E-10         0.00000E+00
    0.49507E-10         0.79393E-10         0.00000E+00
    0.34838E-10         0.84051E-10         0.00000E+00
    0.21051E-10         0.86662E-10         0.00000E+00
    0.82431E-11         0.86675E-10         0.00000E+00
   -0.34090E-11         0.84357E-10         0.00000E+00
   -0.13752E-10         0.79943E-10         0.00000E+00
   -0.22629E-10         0.73622E-10         0.00000E+00
   -0.29865E-10         0.65598E-10         0.00000E+00
   -0.35254E-10         0.56089E-10         0.00000E+00
   -0.38569E-10         0.45329E-10         0.00000E+00
   -0.39502E-10         0.33632E-10         0.00000E+00
   -0.37650E-10         0.21409E-10         0.00000E+00
   -0.34000E-10         0.82635E-11         0.00000E+00
    0.89344E-10         0.47323E-10         0.00000E+00
    0.74430E-10         0.87837E-10         0.00000E+00
    0.55954E-10         0.96052E-10         0.00000E+00
    0.38323E-10         0.99693E-10         0.00000E+00
    0.21822E-10         0.10131E-09         0.00000E+00
    0.65184E-11         0.10014E-09         0.00000E+00
   -0.74186E-11         0.96483E-10         0.00000E+00
   -0.19846E-10         0.90588E-10         0.00000E+00
   -0.30616E-10         0.82624E-10         0.00000E+00
   -0.39548E-10         0.72764E-10         0.00000E+00
   -0.46421E-10         0.61184E-10         0.00000E+00
   -0.50972E-10         0.48101E-10         0.00000E+00
   -0.52835E-10         0.33657E-10         0.00000E+00
   -0.51517E-10         0.18215E-10         0.00000E+00
   -0.47990E-10         0.42798E-11         0.00000E+00
    0.10138E-09         0.59519E-10         0.00000E+00
    0.83542E-10         0.10840E-09         0.00000E+00
    0.61577E-10         0.11593E-09         0.00000E+00
    0.40761E-10         0.11826E-09         0.00000E+00
    0.21368E-10         0.11864E-09         0.00000E+00
    0.34191E-11         0.11606E-09         0.00000E+00
   -0.12944E-10         0.11086E-09         0.00000E+00
   -0.27608E-10         0.10330E-09         0.00000E+00
   -0.40447E-10         0.93520E-10         0.00000E+00
   -0.51296E-10         0.81649E-10         0.00000E+00
   -0.59927E-10         0.67803E-10         0.00000E+00
   -0.66049E-10         0.52155E-10         0.00000E+00
   -0.69234E-10         0.34649E-10         0.00000E+00
   -0.68897E-10         0.15568E-10         0.00000E+00
   -0.65892E-10         0.39521E-12         0.00000E+00
    0.11286E-09         0.74053E-10         0.00000E+00
    0.91820E-10         0.13274E-09         0.00000E+00
    0.66091E-10         0.13929E-09         0.00000E+00
    0.41886E-10         0.13992E-09         0.00000E+00
    0.19450E-10         0.13880E-09         0.00000E+00
   -0.12658E-11         0.13457E-09         0.00000E+00
   -0.20167E-10         0.12762E-09         0.00000E+00
   -0.37193E-10         0.11823E-09         0.00000E+00
   -0.52267E-10         0.10650E-09         0.00000E+00
   -0.65259E-10         0.92507E-10         0.00000E+00
   -0.75954E-10         0.76271E-10         0.00000E+00
   -0.84039E-10         0.57894E-10         0.00000E+00
   -0.89032E-10         0.37088E-10         0.00000E+00
   -0.90250E-10         0.14010E-10         0.00000E+00
   -0.88297E-10        -0.30047E-11         0.00000E+00
    0.12333E-09         0.91136E-10         0.00000E+00
    0.98863E-10         0.16116E-09         0.00000E+00
    0.69131E-10         0.16632E-09         0.00000E+00
    0.41371E-10         0.16485E-09         0.00000E+00
    0.15787E-10         0.16190E-09         0.00000E+00
   -0.77658E-11         0.15574E-09         0.00000E+00
   -0.29264E-10         0.14685E-09         0.00000E+00
   -0.48730E-10         0.13550E-09         0.00000E+00
   -0.66169E-10         0.12175E-09         0.00000E+00
   -0.81518E-10         0.10560E-09         0.00000E+00
   -0.94600E-10         0.86955E-10         0.00000E+00
   -0.10510E-09         0.65796E-10         0.00000E+00
   -0.11249E-09         0.41569E-10         0.00000E+00
   -0.11599E-09         0.14243E-10         0.00000E+00
   -0.11577E-09        -0.54066E-11         0.00000E+00
    0.13228E-09         0.11095E-09         0.00000E+00
    0.10418E-09         0.19392E-09         0.00000E+00
    0.70255E-10         0.19723E-09         0.00000E+00
    0.38832E-10         0.19313E-09         0.00000E+00
    0.10060E-10         0.18797E-09         0.00000E+00
   -0.16321E-10         0.17960E-09         0.00000E+00
   -0.40391E-10         0.16856E-09         0.00000E+00
   -0.62294E-10         0.15516E-09         0.00000E+00
   -0.82161E-10         0.13940E-09         0.00000E+00
   -0.10004E-09         0.12118E-09         0.00000E+00
   -0.11584E-09         0.10025E-09         0.00000E+00
   -0.12926E-09         0.76419E-10         0.00000E+00
   -0.13975E-09         0.48824E-10         0.00000E+00
   -0.14643E-09         0.17166E-10         0.00000E+00
   -0.14883E-09        -0.61380E-11         0.00000E+00
    0.13909E-09         0.13365E-09         0.00000E+00
    0.10720E-09         0.23121E-09         0.00000E+00
    0.68945E-10         0.23211E-09         0.00000E+00
    0.33818E-10         0.22480E-09         0.00000E+00
    0.19068E-11         0.21699E-09         0.00000E+00
   -0.27187E-10         0.20605E-09         0.00000E+00
   -0.53682E-10         0.19266E-09         0.00000E+00
   -0.77894E-10         0.17716E-09         0.00000E+00
   -0.10014E-09         0.15951E-09         0.00000E+00
   -0.12065E-09         0.13946E-09         0.00000E+00
   -0.13945E-09         0.11658E-09         0.00000E+00
   -0.15634E-09         0.90400E-10         0.00000E+00
   -0.17075E-09         0.59741E-10         0.00000E+00
   -0.18173E-09         0.23911E-10         0.00000E+00
   -0.18788E-09        -0.43256E-11         0.00000E+00
    0.14303E-09         0.15935E-09         0.00000E+00
    0.10724E-09         0.27320E-09         0.00000E+00
    0.64583E-10         0.27103E-09         0.00000E+00
    0.25786E-10         0.25980E-09         0.00000E+00
   -0.91108E-11         0.24880E-09         0.00000E+00
   -0.40658E-10         0.23489E-09         0.00000E+00
   -0.69256E-10         0.21892E-09         0.00000E+00
   -0.95464E-10         0.20132E-09         0.00000E+00
   -0.11987E-09         0.18200E-09         0.00000E+00
   -0.14295E-09         0.16056E-09         0.00000E+00
   -0.16499E-09         0.13632E-09         0.00000E+00
   -0.18589E-09         0.10844E-09         0.00000E+00
   -0.20517E-09         0.75381E-10         0.00000E+00
   -0.22181E-09         0.35899E-10         0.00000E+00
   -0.23313E-09         0.11517E-11         0.00000E+00
    0.14336E-09         0.18814E-09         0.00000E+00
    0.10357E-09         0.31998E-09         0.00000E+00
    0.56471E-10         0.31400E-09         0.00000E+00
    0.14097E-10         0.29800E-09         0.00000E+00
   -0.23511E-10         0.28310E-09         0.00000E+00
   -0.57065E-10         0.26568E-09         0.00000E+00
   -0.87205E-10         0.24687E-09         0.00000E+00
   -0.11482E-09         0.22721E-09         0.00000E+00
   -0.14090E-09         0.20659E-09         0.00000E+00
   -0.16630E-09         0.18446E-09         0.00000E+00
   -0.19165E-09         0.15980E-09         0.00000E+00
   -0.21709E-09         0.13130E-09         0.00000E+00
   -0.24228E-09         0.96987E-10         0.00000E+00
   -0.26623E-09         0.54886E-10         0.00000E+00
   -0.28448E-09         0.11723E-10         0.00000E+00
    0.13935E-09         0.22015E-09         0.00000E+00
    0.95390E-10         0.37172E-09         0.00000E+00
    0.43713E-10         0.36104E-09         0.00000E+00
   -0.21354E-11         0.33918E-09         0.00000E+00
   -0.42048E-10         0.31944E-09         0.00000E+00
   -0.76915E-10         0.29777E-09         0.00000E+00
   -0.10770E-09         0.27571E-09         0.00000E+00
   -0.13576E-09         0.25405E-09         0.00000E+00
   -0.16262E-09         0.23268E-09         0.00000E+00
   -0.18973E-09         0.21087E-09         0.00000E+00
   -0.21821E-09         0.18722E-09         0.00000E+00
   -0.24861E-09         0.15973E-09         0.00000E+00
   -0.28085E-09         0.12599E-09         0.00000E+00
   -0.31404E-09         0.83020E-10         0.00000E+00
   -0.34139E-09         0.29183E-10         0.00000E+00
    0.13020E-09         0.25553E-09         0.00000E+00
    0.81763E-10         0.42873E-09         0.00000E+00
    0.25238E-10         0.41224E-09         0.00000E+00
   -0.24002E-10         0.38307E-09         0.00000E+00
   -0.65661E-10         0.35712E-09         0.00000E+00
   -0.10082E-09         0.33011E-09         0.00000E+00
   -0.13089E-09         0.30422E-09         0.00000E+00
   -0.15788E-09         0.28059E-09         0.00000E+00
   -0.18408E-09         0.25920E-09         0.00000E+00
   -0.21176E-09         0.23913E-09         0.00000E+00
   -0.24280E-09         0.21849E-09         0.00000E+00
   -0.27835E-09         0.19441E-09         0.00000E+00
   -0.31880E-09         0.16400E-09         0.00000E+00
   -0.36350E-09         0.12290E-09         0.00000E+00
   -0.40262E-09         0.55772E-10         0.00000E+00
    0.11580E-09         0.29480E-09         0.00000E+00
    0.61980E-10         0.49171E-09         0.00000E+00
   -0.21656E-12         0.46798E-09         0.00000E+00
   -0.53026E-10         0.42938E-09         0.00000E+00
   -0.95745E-10         0.39519E-09         0.00000E+00
   -0.12973E-09         0.36119E-09         0.00000E+00
   -0.15706E-09         0.33053E-09         0.00000E+00
   -0.18069E-09         0.30490E-09         0.00000E+00
   -0.20399E-09         0.28441E-09         0.00000E+00
   -0.23035E-09         0.26796E-09         0.00000E+00
   -0.26274E-09         0.25310E-09         0.00000E+00
   -0.30324E-09         0.23584E-09         0.00000E+00
   -0.35299E-09         0.21278E-09         0.00000E+00
   -0.41183E-09         0.17767E-09         0.00000E+00
   -0.46601E-09         0.94304E-10         0.00000E+00
    0.94992E-10         0.33905E-09         0.00000E+00
    0.33896E-10         0.56239E-09         0.00000E+00
   -0.35699E-10         0.52909E-09         0.00000E+00
   -0.92451E-10         0.47783E-09         0.00000E+00
   -0.13523E-09         0.43224E-09         0.00000E+00
   -0.16587E-09         0.38877E-09         0.00000E+00
   -0.18748E-09         0.35189E-09         0.00000E+00
   -0.20438E-09         0.32406E-09         0.00000E+00
   -0.22141E-09         0.30559E-09         0.00000E+00
   -0.24347E-09         0.29520E-09         0.00000E+00
   -0.27505E-09         0.28984E-09         0.00000E+00
   -0.31958E-09         0.28411E-09         0.00000E+00
   -0.37943E-09         0.27411E-09         0.00000E+00
   -0.45523E-09         0.25098E-09         0.00000E+00
   -0.52816E-09         0.14810E-09         0.00000E+00
    0.68973E-10         0.38999E-09         0.00000E+00
   -0.20105E-11         0.64352E-09         0.00000E+00
   -0.81715E-10         0.59726E-09         0.00000E+00
   -0.14343E-09         0.52813E-09         0.00000E+00
   -0.18497E-09         0.46625E-09         0.00000E+00
   -0.20913E-09         0.40955E-09         0.00000E+00
   -0.22074E-09         0.36433E-09         0.00000E+00
   -0.22609E-09         0.33387E-09         0.00000E+00
   -0.23198E-09         0.31870E-09         0.00000E+00
   -0.24527E-09         0.31742E-09         0.00000E+00
   -0.27250E-09         0.32642E-09         0.00000E+00
   -0.31912E-09         0.33868E-09         0.00000E+00
   -0.38957E-09         0.34984E-09         0.00000E+00
   -0.48591E-09         0.34739E-09         0.00000E+00
   -0.58307E-09         0.22177E-09         0.00000E+00
    0.38054E-10         0.45291E-09         0.00000E+00
   -0.52403E-10         0.74205E-09         0.00000E+00
   -0.14984E-09         0.67587E-09         0.00000E+00
   -0.21852E-09         0.57992E-09         0.00000E+00
   -0.25651E-09         0.49400E-09         0.00000E+00
   -0.26918E-09         0.41864E-09         0.00000E+00
   -0.26445E-09         0.36212E-09         0.00000E+00
   -0.25141E-09         0.32840E-09         0.00000E+00
   -0.23932E-09         0.31798E-09         0.00000E+00
   -0.23730E-09         0.32942E-09         0.00000E+00
   -0.25446E-09         0.35881E-09         0.00000E+00
   -0.29915E-09         0.39761E-09         0.00000E+00
   -0.37906E-09         0.44128E-09         0.00000E+00
   -0.49899E-09         0.47223E-09         0.00000E+00
   -0.62529E-09         0.32039E-09         0.00000E+00
   -0.50160E-11         0.53418E-09         0.00000E+00
   -0.12124E-09         0.86746E-09         0.00000E+00
   -0.24236E-09         0.76902E-09         0.00000E+00
   -0.31822E-09         0.63131E-09         0.00000E+00
   -0.34755E-09         0.50993E-09         0.00000E+00
   -0.34079E-09         0.40861E-09         0.00000E+00
   -0.31067E-09         0.33729E-09         0.00000E+00
   -0.27008E-09         0.29961E-09         0.00000E+00
   -0.23090E-09         0.29550E-09         0.00000E+00
   -0.20456E-09         0.32355E-09         0.00000E+00
   -0.20312E-09         0.38038E-09         0.00000E+00
   -0.23910E-09         0.45670E-09         0.00000E+00
   -0.32595E-09         0.54895E-09         0.00000E+00
   -0.47331E-09         0.63186E-09         0.00000E+00
   -0.63815E-09         0.45190E-09         0.00000E+00
   -0.47790E-10         0.64441E-09         0.00000E+00
   -0.21163E-09         0.10373E-08         0.00000E+00
   -0.37518E-09         0.88386E-09         0.00000E+00
   -0.46176E-09         0.67889E-09         0.00000E+00
   -0.47460E-09         0.50452E-09         0.00000E+00
   -0.43575E-09         0.36841E-09         0.00000E+00
   -0.36747E-09         0.27909E-09         0.00000E+00
   -0.28752E-09         0.23727E-09         0.00000E+00
   -0.20986E-09         0.24098E-09         0.00000E+00
   -0.14724E-09         0.28911E-09         0.00000E+00
   -0.11427E-09         0.38042E-09         0.00000E+00
   -0.12929E-09         0.50766E-09         0.00000E+00
   -0.21591E-09         0.67145E-09         0.00000E+00
   -0.39607E-09         0.83688E-09         0.00000E+00
   -0.61323E-09         0.62886E-09         0.00000E+00
   -0.70326E-10         0.84015E-09         0.00000E+00
   -0.36226E-09         0.12973E-08         0.00000E+00
   -0.60580E-09         0.10309E-08         0.00000E+00
   -0.69647E-09         0.70907E-09         0.00000E+00
   -0.66842E-09         0.45913E-09         0.00000E+00
   -0.57461E-09         0.28115E-09         0.00000E+00
   -0.45017E-09         0.17364E-09         0.00000E+00
   -0.31673E-09         0.12934E-09         0.00000E+00
   -0.18768E-09         0.14220E-09         0.00000E+00
   -0.74091E-10         0.21168E-09         0.00000E+00
    0.91202E-11         0.34167E-09         0.00000E+00
    0.38348E-10         0.53220E-09         0.00000E+00
   -0.27232E-10         0.79910E-09         0.00000E+00
   -0.23354E-09         0.10957E-08         0.00000E+00
   -0.51702E-09         0.87068E-09         0.00000E+00
   -0.42656E-09         0.11008E-08         0.00000E+00
   -0.76488E-09         0.16669E-08         0.00000E+00
   -0.10445E-08         0.11845E-08         0.00000E+00
   -0.10813E-08         0.68296E-09         0.00000E+00
   -0.96454E-09         0.34040E-09         0.00000E+00
   -0.78144E-09         0.12297E-09         0.00000E+00
   -0.57882E-09         0.47575E-11         0.00000E+00
   -0.37782E-09        -0.36224E-10         0.00000E+00
   -0.18569E-09        -0.13423E-10         0.00000E+00
   -0.58488E-11         0.73880E-10         0.00000E+00
    0.15197E-09         0.23844E-09         0.00000E+00
    0.26117E-09         0.49701E-09         0.00000E+00
    0.25934E-09         0.90172E-09         0.00000E+00
    0.47399E-10         0.14113E-08         0.00000E+00
   -0.30565E-09         0.11916E-08         0.00000E+00
   -0.22340E-10         0.15342E-08         0.00000E+00
   -0.68461E-09         0.22341E-08         0.00000E+00
   -0.11252E-08         0.13375E-08         0.00000E+00
   -0.11023E-08         0.54395E-09         0.00000E+00
   -0.84122E-09         0.10150E-09         0.00000E+00
   -0.52842E-09        -0.13403E-09         0.00000E+00
   -0.22945E-09        -0.23982E-09         0.00000E+00
    0.42544E-10        -0.26465E-09         0.00000E+00
    0.29764E-09        -0.23223E-09         0.00000E+00
    0.55052E-09        -0.14003E-09         0.00000E+00
    0.80658E-09         0.38468E-10         0.00000E+00
    0.10472E-08         0.34712E-09         0.00000E+00
    0.11693E-08         0.93138E-09         0.00000E+00
    0.91990E-09         0.18430E-08         0.00000E+00
    0.22673E-09         0.18061E-08         0.00000E+00
   -0.32616E-09         0.33423E-08         0.00000E+00
   -0.27066E-08         0.34687E-08         0.00000E+00
   -0.34697E-08         0.13065E-08         0.00000E+00
   -0.30164E-08         0.98893E-10         0.00000E+00
   -0.23713E-08        -0.35973E-09         0.00000E+00
   -0.18300E-08        -0.52687E-09         0.00000E+00
   -0.14095E-08        -0.56644E-09         0.00000E+00
   -0.10681E-08        -0.55141E-09         0.00000E+00
   -0.75720E-09        -0.51147E-09         0.00000E+00
   -0.42859E-09        -0.44227E-09         0.00000E+00
   -0.36095E-10        -0.30786E-09         0.00000E+00
    0.45998E-09        -0.43287E-10         0.00000E+00
    0.10217E-08         0.63806E-09         0.00000E+00
    0.12591E-08         0.21483E-08         0.00000E+00
    0.69705E-09         0.27560E-08         0.00000E+00
   -0.11741E-07         0.48387E-08         0.00000E+00
   -0.10710E-07         0.33223E-08         0.00000E+00
   -0.83991E-08        -0.95010E-10         0.00000E+00
   -0.62500E-08        -0.11019E-08         0.00000E+00
   -0.48798E-08        -0.11744E-08         0.00000E+00
   -0.40545E-08        -0.10788E-08         0.00000E+00
   -0.35225E-08        -0.96707E-09         0.00000E+00
   -0.31329E-08        -0.88171E-09         0.00000E+00
   -0.27885E-08        -0.83654E-09         0.00000E+00
   -0.24062E-08        -0.82807E-09         0.00000E+00
   -0.18869E-08        -0.83395E-09         0.00000E+00
   -0.10753E-08        -0.82482E-09         0.00000E+00
    0.28085E-09        -0.49824E-09         0.00000E+00
    0.24709E-08         0.85719E-09         0.00000E+00
    0.49682E-08         0.21117E-08         0.00000E+00
   -0.13917E-08        -0.11208E-08         0.00000E+00
    0.92255E-08        -0.23658E-08         0.00000E+00
    0.15590E-07        -0.30820E-08         0.00000E+00
    0.17997E-07        -0.26715E-08         0.00000E+00
    0.19015E-07        -0.19924E-08         0.00000E+00
    0.19463E-07        -0.15344E-08         0.00000E+00
    0.19675E-07        -0.12556E-08         0.00000E+00
    0.19794E-07        -0.11016E-08         0.00000E+00
    0.19888E-07        -0.10551E-08         0.00000E+00
    0.20010E-07        -0.11133E-08         0.00000E+00
    0.20232E-07        -0.12902E-08         0.00000E+00
    0.20691E-07        -0.16397E-08         0.00000E+00
    0.21722E-07        -0.20699E-08         0.00000E+00
    0.24360E-07        -0.23996E-08         0.00000E+00
    0.29450E-07        -0.22188E-08         0.00000E+00
    0.12767E-06        -0.35363E-08         0.00000E+00
    0.12062E-06        -0.35156E-08         0.00000E+00
    0.11471E-06        -0.23904E-08         0.00000E+00
    0.11063E-06        -0.16901E-08         0.00000E+00
    0.10779E-06        -0.11505E-08         0.00000E+00
    0.10580E-06        -0.83706E-09         0.00000E+00
    0.10430E-06        -0.66400E-09         0.00000E+00
    0.10307E-06        -0.57407E-09         0.00000E+00
    0.10194E-06        -0.55126E-09         0.00000E+00
    0.10080E-06        -0.59365E-09         0.00000E+00
    0.99482E-07        -0.71912E-09         0.00000E+00
    0.97788E-07        -0.97562E-09         0.00000E+00
    0.95418E-07        -0.13944E-08         0.00000E+00
    0.91864E-07        -0.21596E-08         0.00000E+00
    0.87010E-07        -0.26946E-08         0.00000E+00
POINT_DATA        496
VECTORS vDarcyNodal double 
    0.13481E-10         0.11665E-10         0.00000E+00
    0.13457E-10         0.18862E-10         0.00000E+00
    0.13041E-10         0.30241E-10         0.00000E+00
    0.12260E-10         0.37688E-10         0.00000E+00
    0.11379E-10         0.43424E-10         0.00000E+00
    0.10513E-10         0.47493E-10         0.00000E+00
    0.97019E-11         0.49877E-10         0.00000E+00
    0.89739E-11         0.50720E-10         0.00000E+00
    0.83506E-11         0.50212E-10         0.00000E+00
    0.78519E-11         0.48584E-10         0.00000E+00
    0.74991E-11         0.46111E-10         0.00000E+00
    0.73159E-11         0.43049E-10         0.00000E+00
    0.73287E-11         0.39962E-10         0.00000E+00
    0.76237E-11         0.37558E-10         0.00000E+00
    0.83354E-11         0.30433E-10         0.00000E+00
    0.91180E-11         0.24276E-10         0.00000E+00
    0.15743E-10         0.11689E-10         0.00000E+00
    0.15291E-10         0.19082E-10         0.00000E+00
    0.14026E-10         0.30840E-10         0.00000E+00
    0.12330E-10         0.38519E-10         0.00000E+00
    0.10532E-10         0.44297E-10         0.00000E+00
    0.87777E-11         0.48332E-10         0.00000E+00
    0.71423E-11         0.50646E-10         0.00000E+00
    0.56755E-11         0.51396E-10         0.00000E+00
    0.44190E-11         0.50773E-10         0.00000E+00
    0.34113E-11         0.49010E-10         0.00000E+00
    0.26936E-11         0.46379E-10         0.00000E+00
    0.23111E-11         0.43134E-10         0.00000E+00
    0.23129E-11         0.39808E-10         0.00000E+00
    0.28339E-11         0.37055E-10         0.00000E+00
    0.40687E-11         0.29686E-10         0.00000E+00
    0.53555E-11         0.23493E-10         0.00000E+00
    0.23652E-10         0.12569E-10         0.00000E+00
    0.21824E-10         0.20579E-10         0.00000E+00
    0.18365E-10         0.33202E-10         0.00000E+00
    0.14631E-10         0.41183E-10         0.00000E+00
    0.10910E-10         0.46977E-10         0.00000E+00
    0.73301E-11         0.50883E-10         0.00000E+00
    0.40087E-11         0.52979E-10         0.00000E+00
    0.10340E-11         0.53443E-10         0.00000E+00
   -0.15177E-11         0.52476E-10         0.00000E+00
   -0.35729E-11         0.50310E-10         0.00000E+00
   -0.50542E-11         0.47211E-10         0.00000E+00
   -0.58777E-11         0.43429E-10         0.00000E+00
   -0.59569E-11         0.39439E-10         0.00000E+00
   -0.51105E-11         0.35803E-10         0.00000E+00
   -0.31237E-11         0.27911E-10         0.00000E+00
   -0.11295E-11         0.21702E-10         0.00000E+00
    0.35945E-10         0.15344E-10         0.00000E+00
    0.32364E-10         0.24369E-10         0.00000E+00
    0.26269E-10         0.38033E-10         0.00000E+00
    0.20221E-10         0.45974E-10         0.00000E+00
    0.14414E-10         0.51598E-10         0.00000E+00
    0.88967E-11         0.55233E-10         0.00000E+00
    0.38020E-11         0.56942E-10         0.00000E+00
   -0.75732E-12         0.56922E-10         0.00000E+00
   -0.46780E-11         0.55380E-10         0.00000E+00
   -0.78569E-11         0.52547E-10         0.00000E+00
   -0.10186E-10         0.48684E-10         0.00000E+00
   -0.11550E-10         0.44036E-10         0.00000E+00
   -0.11837E-10         0.39041E-10         0.00000E+00
   -0.10868E-10         0.34222E-10         0.00000E+00
   -0.84858E-11         0.25705E-10         0.00000E+00
   -0.61163E-11         0.19505E-10         0.00000E+00
    0.49005E-10         0.19731E-10         0.00000E+00
    0.43957E-10         0.30256E-10         0.00000E+00
    0.35372E-10         0.45346E-10         0.00000E+00
    0.26921E-10         0.53037E-10         0.00000E+00
    0.18892E-10         0.58301E-10         0.00000E+00
    0.11313E-10         0.61495E-10         0.00000E+00
    0.43332E-11         0.62633E-10         0.00000E+00
   -0.19151E-11         0.61923E-10         0.00000E+00
   -0.73079E-11         0.59576E-10         0.00000E+00
   -0.11718E-10         0.55818E-10         0.00000E+00
   -0.15010E-10         0.50904E-10         0.00000E+00
   -0.17039E-10         0.45080E-10         0.00000E+00
   -0.17670E-10         0.38758E-10         0.00000E+00
   -0.16695E-10         0.32451E-10         0.00000E+00
   -0.13934E-10         0.23159E-10         0.00000E+00
   -0.11115E-10         0.16963E-10         0.00000E+00
    0.61882E-10         0.25440E-10         0.00000E+00
    0.55394E-10         0.38003E-10         0.00000E+00
    0.44276E-10         0.55070E-10         0.00000E+00
    0.33312E-10         0.62454E-10         0.00000E+00
    0.22926E-10         0.67206E-10         0.00000E+00
    0.13149E-10         0.69792E-10         0.00000E+00
    0.41555E-11         0.70170E-10         0.00000E+00
   -0.39075E-11         0.68563E-10         0.00000E+00
   -0.10900E-10         0.65183E-10         0.00000E+00
   -0.16676E-10         0.60249E-10         0.00000E+00
   -0.21074E-10         0.54004E-10         0.00000E+00
   -0.23920E-10         0.46696E-10         0.00000E+00
   -0.25045E-10         0.38697E-10         0.00000E+00
   -0.24177E-10         0.30486E-10         0.00000E+00
   -0.21041E-10         0.20126E-10         0.00000E+00
   -0.17679E-10         0.13868E-10         0.00000E+00
    0.74965E-10         0.32706E-10         0.00000E+00
    0.66794E-10         0.47862E-10         0.00000E+00
    0.52845E-10         0.67428E-10         0.00000E+00
    0.39158E-10         0.74388E-10         0.00000E+00
    0.26242E-10         0.78463E-10         0.00000E+00
    0.14114E-10         0.80265E-10         0.00000E+00
    0.29610E-11         0.79690E-10         0.00000E+00
   -0.70584E-11         0.76979E-10         0.00000E+00
   -0.15798E-10         0.72344E-10         0.00000E+00
   -0.23097E-10         0.65992E-10         0.00000E+00
   -0.28777E-10         0.58149E-10         0.00000E+00
   -0.32630E-10         0.49051E-10         0.00000E+00
   -0.34447E-10         0.39014E-10         0.00000E+00
   -0.33880E-10         0.28447E-10         0.00000E+00
   -0.30556E-10         0.16662E-10         0.00000E+00
   -0.26766E-10         0.10239E-10         0.00000E+00
    0.88235E-10         0.41782E-10         0.00000E+00
    0.78156E-10         0.60123E-10         0.00000E+00
    0.61059E-10         0.82706E-10         0.00000E+00
    0.44401E-10         0.89057E-10         0.00000E+00
    0.28760E-10         0.92250E-10         0.00000E+00
    0.14112E-10         0.93072E-10         0.00000E+00
    0.64907E-12         0.91342E-10         0.00000E+00
   -0.11477E-10         0.87322E-10         0.00000E+00
   -0.22122E-10         0.81221E-10         0.00000E+00
   -0.31124E-10         0.73228E-10         0.00000E+00
   -0.38290E-10         0.63537E-10         0.00000E+00
   -0.43385E-10         0.52367E-10         0.00000E+00
   -0.46156E-10         0.39947E-10         0.00000E+00
   -0.46181E-10         0.26595E-10         0.00000E+00
   -0.42986E-10         0.13011E-10         0.00000E+00
   -0.39003E-10         0.62878E-11         0.00000E+00
    0.10146E-09         0.52863E-10         0.00000E+00
    0.89265E-10         0.75037E-10         0.00000E+00
    0.68706E-10         0.10118E-09         0.00000E+00
    0.48824E-10         0.10669E-09         0.00000E+00
    0.30261E-10         0.10875E-09         0.00000E+00
    0.12930E-10         0.10838E-09         0.00000E+00
   -0.29921E-11         0.10528E-09         0.00000E+00
   -0.17371E-10         0.99749E-10         0.00000E+00
   -0.30083E-10         0.91991E-10         0.00000E+00
   -0.40979E-10         0.82160E-10         0.00000E+00
   -0.49865E-10         0.70410E-10         0.00000E+00
   -0.56483E-10         0.56918E-10         0.00000E+00
   -0.60538E-10         0.41810E-10         0.00000E+00
   -0.61531E-10         0.25277E-10         0.00000E+00
   -0.58883E-10         0.94839E-11         0.00000E+00
   -0.54999E-10         0.22717E-11         0.00000E+00
    0.11439E-09         0.66174E-10         0.00000E+00
    0.99852E-10         0.92878E-10         0.00000E+00
    0.75510E-10         0.12315E-09         0.00000E+00
    0.52158E-10         0.12750E-09         0.00000E+00
    0.30489E-10         0.12814E-09         0.00000E+00
    0.10330E-10         0.12633E-09         0.00000E+00
   -0.81762E-11         0.12164E-09         0.00000E+00
   -0.24935E-10         0.11441E-09         0.00000E+00
   -0.39865E-10         0.10483E-09         0.00000E+00
   -0.52849E-10         0.93009E-10         0.00000E+00
   -0.63707E-10         0.79041E-10         0.00000E+00
   -0.72175E-10         0.63040E-10         0.00000E+00
   -0.77914E-10         0.44995E-10         0.00000E+00
   -0.80352E-10         0.24940E-10         0.00000E+00
   -0.78794E-10         0.64791E-11         0.00000E+00
   -0.75394E-10        -0.14813E-11         0.00000E+00
    0.12663E-09         0.81933E-10         0.00000E+00
    0.10955E-09         0.11391E-09         0.00000E+00
    0.81131E-10         0.14888E-09         0.00000E+00
    0.54091E-10         0.15171E-09         0.00000E+00
    0.29166E-10         0.15058E-09         0.00000E+00
    0.60710E-11         0.14704E-09         0.00000E+00
   -0.15103E-10         0.14054E-09         0.00000E+00
   -0.34328E-10         0.13144E-09         0.00000E+00
   -0.51594E-10         0.11990E-09         0.00000E+00
   -0.66842E-10         0.10600E-09         0.00000E+00
   -0.79935E-10         0.89736E-10         0.00000E+00
   -0.90619E-10         0.71125E-10         0.00000E+00
   -0.98521E-10         0.49987E-10         0.00000E+00
   -0.10300E-09         0.26158E-10         0.00000E+00
   -0.10324E-09         0.45260E-11         0.00000E+00
   -0.10083E-09        -0.45281E-11         0.00000E+00
    0.13772E-09         0.10034E-09         0.00000E+00
    0.11790E-09         0.13838E-09         0.00000E+00
    0.85144E-10         0.17861E-09         0.00000E+00
    0.54241E-10         0.17947E-09         0.00000E+00
    0.25961E-10         0.17617E-09         0.00000E+00
   -0.11460E-12         0.17059E-09         0.00000E+00
   -0.23972E-10         0.16204E-09         0.00000E+00
   -0.45683E-10         0.15090E-09         0.00000E+00
   -0.65341E-10         0.13734E-09         0.00000E+00
   -0.82990E-10         0.12135E-09         0.00000E+00
   -0.98569E-10         0.10282E-09         0.00000E+00
   -0.11187E-09         0.81626E-10         0.00000E+00
   -0.12249E-09         0.57377E-10         0.00000E+00
   -0.12975E-09         0.29654E-10         0.00000E+00
   -0.13267E-09         0.43109E-11         0.00000E+00
   -0.13194E-09        -0.62851E-11         0.00000E+00
    0.14704E-09         0.12156E-09         0.00000E+00
    0.12434E-09         0.16649E-09         0.00000E+00
    0.87041E-10         0.21254E-09         0.00000E+00
    0.52158E-10         0.21089E-09         0.00000E+00
    0.20492E-10         0.20494E-09         0.00000E+00
   -0.85253E-11         0.19697E-09         0.00000E+00
   -0.34983E-10         0.18611E-09         0.00000E+00
   -0.59090E-10         0.17281E-09         0.00000E+00
   -0.81098E-10         0.15721E-09         0.00000E+00
   -0.10120E-09         0.13923E-09         0.00000E+00
   -0.11948E-09         0.11861E-09         0.00000E+00
   -0.13581E-09         0.95046E-10         0.00000E+00
   -0.14979E-09         0.67866E-10         0.00000E+00
   -0.16070E-09         0.36335E-10         0.00000E+00
   -0.16745E-09         0.67169E-11         0.00000E+00
   -0.16926E-09        -0.59908E-11         0.00000E+00
    0.15391E-09         0.14574E-09         0.00000E+00
    0.12821E-09         0.19838E-09         0.00000E+00
    0.86225E-10         0.25079E-09         0.00000E+00
    0.47303E-10         0.24602E-09         0.00000E+00
    0.12302E-10         0.23685E-09         0.00000E+00
   -0.19506E-10         0.22607E-09         0.00000E+00
   -0.48340E-10         0.21261E-09         0.00000E+00
   -0.74599E-10         0.19702E-09         0.00000E+00
   -0.98759E-10         0.17946E-09         0.00000E+00
   -0.12125E-09         0.15973E-09         0.00000E+00
   -0.14235E-09         0.13742E-09         0.00000E+00
   -0.16209E-09         0.11193E-09         0.00000E+00
   -0.18014E-09         0.82276E-10         0.00000E+00
   -0.19578E-09         0.47317E-10         0.00000E+00
   -0.20776E-09         0.12869E-10         0.00000E+00
   -0.21324E-09        -0.26603E-11         0.00000E+00
    0.15759E-09         0.17297E-09         0.00000E+00
    0.12880E-09         0.23417E-09         0.00000E+00
    0.82013E-10         0.29344E-09         0.00000E+00
    0.39041E-10         0.28481E-09         0.00000E+00
    0.84196E-12         0.27175E-09         0.00000E+00
   -0.33463E-10         0.25762E-09         0.00000E+00
   -0.64259E-10         0.24120E-09         0.00000E+00
   -0.92202E-10         0.22323E-09         0.00000E+00
   -0.11809E-09         0.20386E-09         0.00000E+00
   -0.14268E-09         0.18282E-09         0.00000E+00
   -0.16658E-09         0.15946E-09         0.00000E+00
   -0.19006E-09         0.13283E-09         0.00000E+00
   -0.21292E-09         0.10155E-09         0.00000E+00
   -0.23453E-09         0.63962E-10         0.00000E+00
   -0.25352E-09         0.24182E-10         0.00000E+00
   -0.26409E-09         0.49638E-11         0.00000E+00
    0.15735E-09         0.20332E-09         0.00000E+00
    0.12535E-09         0.27396E-09         0.00000E+00
    0.73612E-10         0.34054E-09         0.00000E+00
    0.26572E-10         0.32719E-09         0.00000E+00
   -0.14611E-10         0.30935E-09         0.00000E+00
   -0.50948E-10         0.29117E-09         0.00000E+00
   -0.83032E-10         0.27135E-09         0.00000E+00
   -0.11187E-09         0.25085E-09         0.00000E+00
   -0.13871E-09         0.22993E-09         0.00000E+00
   -0.16481E-09         0.20822E-09         0.00000E+00
   -0.19122E-09         0.18481E-09         0.00000E+00
   -0.21864E-09         0.15828E-09         0.00000E+00
   -0.24707E-09         0.12674E-09         0.00000E+00
   -0.27607E-09         0.87911E-10         0.00000E+00
   -0.30421E-09         0.42427E-10         0.00000E+00
   -0.32167E-09         0.18482E-10         0.00000E+00
    0.15247E-09         0.23697E-09         0.00000E+00
    0.11708E-09         0.31791E-09         0.00000E+00
    0.60075E-10         0.39222E-09         0.00000E+00
    0.88759E-11         0.37304E-09         0.00000E+00
   -0.35013E-10         0.34927E-09         0.00000E+00
   -0.72696E-10         0.32604E-09         0.00000E+00
   -0.10504E-09         0.30213E-09         0.00000E+00
   -0.13355E-09         0.27891E-09         0.00000E+00
   -0.16009E-09         0.25680E-09         0.00000E+00
   -0.18662E-09         0.23533E-09         0.00000E+00
   -0.21487E-09         0.21329E-09         0.00000E+00
   -0.24614E-09         0.18867E-09         0.00000E+00
   -0.28082E-09         0.15898E-09         0.00000E+00
   -0.31883E-09         0.12110E-09         0.00000E+00
   -0.35871E-09         0.69777E-10         0.00000E+00
   -0.38530E-09         0.39885E-10         0.00000E+00
    0.14263E-09         0.27410E-09         0.00000E+00
    0.10336E-09         0.36635E-09         0.00000E+00
    0.40378E-10         0.44875E-09         0.00000E+00
   -0.15357E-10         0.42228E-09         0.00000E+00
   -0.61671E-10         0.39092E-09         0.00000E+00
   -0.99735E-10         0.36120E-09         0.00000E+00
   -0.13082E-09         0.33220E-09         0.00000E+00
   -0.15713E-09         0.30590E-09         0.00000E+00
   -0.18144E-09         0.28300E-09         0.00000E+00
   -0.20664E-09         0.26301E-09         0.00000E+00
   -0.23547E-09         0.24433E-09         0.00000E+00
   -0.27008E-09         0.22422E-09         0.00000E+00
   -0.31151E-09         0.19943E-09         0.00000E+00
   -0.36028E-09         0.16580E-09         0.00000E+00
   -0.41505E-09         0.10890E-09         0.00000E+00
   -0.45358E-09         0.71659E-10         0.00000E+00
    0.12752E-09         0.31551E-09         0.00000E+00
    0.83276E-10         0.42017E-09         0.00000E+00
    0.12600E-10         0.51094E-09         0.00000E+00
   -0.48515E-10         0.47508E-09         0.00000E+00
   -0.96962E-10         0.43364E-09         0.00000E+00
   -0.13401E-09         0.39518E-09         0.00000E+00
   -0.16159E-09         0.35952E-09         0.00000E+00
   -0.18295E-09         0.32953E-09         0.00000E+00
   -0.20212E-09         0.30631E-09         0.00000E+00
   -0.22329E-09         0.28936E-09         0.00000E+00
   -0.25053E-09         0.27673E-09         0.00000E+00
   -0.28727E-09         0.26472E-09         0.00000E+00
   -0.33555E-09         0.24918E-09         0.00000E+00
   -0.39687E-09         0.22464E-09         0.00000E+00
   -0.47019E-09         0.16307E-09         0.00000E+00
   -0.52398E-09         0.11695E-09         0.00000E+00
    0.10746E-09         0.36259E-09         0.00000E+00
    0.56510E-10         0.48127E-09         0.00000E+00
   -0.24625E-10         0.58054E-09         0.00000E+00
   -0.92790E-10         0.53184E-09         0.00000E+00
   -0.14309E-09         0.47642E-09         0.00000E+00
   -0.17711E-09         0.42582E-09         0.00000E+00
   -0.19789E-09         0.38114E-09         0.00000E+00
   -0.21033E-09         0.34643E-09         0.00000E+00
   -0.22014E-09         0.32334E-09         0.00000E+00
   -0.23326E-09         0.31142E-09         0.00000E+00
   -0.25548E-09         0.30831E-09         0.00000E+00
   -0.29206E-09         0.30924E-09         0.00000E+00
   -0.34663E-09         0.30904E-09         0.00000E+00
   -0.42237E-09         0.30044E-09         0.00000E+00
   -0.51878E-09         0.23600E-09         0.00000E+00
   -0.59245E-09         0.17924E-09         0.00000E+00
    0.84971E-10         0.41740E-09         0.00000E+00
    0.22056E-10         0.55225E-09         0.00000E+00
   -0.76470E-10         0.66024E-09         0.00000E+00
   -0.15508E-09         0.59355E-09         0.00000E+00
   -0.20687E-09         0.51796E-09         0.00000E+00
   -0.23461E-09         0.44999E-09         0.00000E+00
   -0.24370E-09         0.39274E-09         0.00000E+00
   -0.24149E-09         0.35177E-09         0.00000E+00
   -0.23601E-09         0.32924E-09         0.00000E+00
   -0.23529E-09         0.32471E-09         0.00000E+00
   -0.24728E-09         0.33554E-09         0.00000E+00
   -0.27967E-09         0.35586E-09         0.00000E+00
   -0.33860E-09         0.37949E-09         0.00000E+00
   -0.43003E-09         0.39679E-09         0.00000E+00
   -0.55487E-09         0.33316E-09         0.00000E+00
   -0.65349E-09         0.26430E-09         0.00000E+00
    0.57155E-10         0.48842E-09         0.00000E+00
   -0.24117E-10         0.64271E-09         0.00000E+00
   -0.14953E-09         0.75768E-09         0.00000E+00
   -0.24267E-09         0.66223E-09         0.00000E+00
   -0.29406E-09         0.55595E-09         0.00000E+00
   -0.31000E-09         0.46265E-09         0.00000E+00
   -0.29997E-09         0.38801E-09         0.00000E+00
   -0.27514E-09         0.33874E-09         0.00000E+00
   -0.24635E-09         0.31714E-09         0.00000E+00
   -0.22387E-09         0.32269E-09         0.00000E+00
   -0.21800E-09         0.35269E-09         0.00000E+00
   -0.23958E-09         0.40055E-09         0.00000E+00
   -0.29867E-09         0.45940E-09         0.00000E+00
   -0.40634E-09         0.51672E-09         0.00000E+00
   -0.56596E-09         0.45946E-09         0.00000E+00
   -0.69747E-09         0.37648E-09         0.00000E+00
    0.28711E-10         0.57994E-09         0.00000E+00
   -0.81517E-10         0.75893E-09         0.00000E+00
   -0.25135E-09         0.87880E-09         0.00000E+00
   -0.36619E-09         0.73809E-09         0.00000E+00
   -0.41378E-09         0.58529E-09         0.00000E+00
   -0.40837E-09         0.45589E-09         0.00000E+00
   -0.36817E-09         0.35789E-09         0.00000E+00
   -0.30997E-09         0.29816E-09         0.00000E+00
   -0.24763E-09         0.27796E-09         0.00000E+00
   -0.19312E-09         0.29636E-09         0.00000E+00
   -0.15868E-09         0.35125E-09         0.00000E+00
   -0.15872E-09         0.43653E-09         0.00000E+00
   -0.20967E-09         0.54625E-09         0.00000E+00
   -0.33218E-09         0.66409E-09         0.00000E+00
   -0.53720E-09         0.62429E-09         0.00000E+00
   -0.71417E-09         0.52731E-09         0.00000E+00
    0.38815E-10         0.70887E-09         0.00000E+00
   -0.15693E-09         0.92277E-09         0.00000E+00
   -0.41696E-09         0.10424E-08         0.00000E+00
   -0.56403E-09         0.82467E-09         0.00000E+00
   -0.59420E-09         0.59813E-09         0.00000E+00
   -0.54881E-09         0.41704E-09         0.00000E+00
   -0.46155E-09         0.28961E-09         0.00000E+00
   -0.35610E-09         0.21821E-09         0.00000E+00
   -0.24816E-09         0.20030E-09         0.00000E+00
   -0.14938E-09         0.23374E-09         0.00000E+00
   -0.71951E-10         0.31828E-09         0.00000E+00
   -0.33200E-10         0.45155E-09         0.00000E+00
   -0.57746E-10         0.63286E-09         0.00000E+00
   -0.18540E-09         0.84425E-09         0.00000E+00
   -0.44422E-09         0.84145E-09         0.00000E+00
   -0.68603E-09         0.73041E-09         0.00000E+00
   -0.11810E-09         0.97143E-09         0.00000E+00
   -0.37878E-09         0.12147E-08         0.00000E+00
   -0.74836E-09         0.12859E-08         0.00000E+00
   -0.90196E-09         0.91533E-09         0.00000E+00
   -0.87584E-09         0.57007E-09         0.00000E+00
   -0.75711E-09         0.32324E-09         0.00000E+00
   -0.59894E-09         0.16517E-09         0.00000E+00
   -0.43006E-09         0.84768E-10         0.00000E+00
   -0.26450E-09         0.71242E-10         0.00000E+00
   -0.10887E-09         0.12015E-09         0.00000E+00
    0.28931E-10         0.23507E-09         0.00000E+00
    0.13216E-09         0.42232E-09         0.00000E+00
    0.16736E-09         0.69844E-09         0.00000E+00
    0.64745E-10         0.10506E-08         0.00000E+00
   -0.25089E-09         0.11249E-08         0.00000E+00
   -0.57178E-09         0.10109E-08         0.00000E+00
   -0.77535E-11         0.12302E-08         0.00000E+00
   -0.44114E-09         0.15530E-08         0.00000E+00
   -0.10084E-08         0.15655E-08         0.00000E+00
   -0.11613E-08         0.95215E-09         0.00000E+00
   -0.10223E-08         0.45328E-09         0.00000E+00
   -0.78343E-09         0.14013E-09         0.00000E+00
   -0.52643E-09        -0.37443E-10         0.00000E+00
   -0.28185E-09        -0.11623E-09         0.00000E+00
   -0.53428E-10        -0.12089E-09         0.00000E+00
    0.16538E-09        -0.59692E-10         0.00000E+00
    0.37929E-09         0.77250E-10         0.00000E+00
    0.57926E-09         0.31312E-09         0.00000E+00
    0.72915E-09         0.70028E-09         0.00000E+00
    0.69949E-09         0.12625E-08         0.00000E+00
    0.26781E-09         0.14780E-08         0.00000E+00
   -0.34673E-09         0.13722E-08         0.00000E+00
    0.72978E-09         0.18382E-08         0.00000E+00
   -0.10783E-08         0.22153E-08         0.00000E+00
   -0.23129E-08         0.20061E-08         0.00000E+00
   -0.22819E-08         0.92931E-09         0.00000E+00
   -0.18369E-08         0.19217E-09         0.00000E+00
   -0.13756E-08        -0.17266E-09         0.00000E+00
   -0.98279E-09        -0.33641E-09         0.00000E+00
   -0.65617E-09        -0.38823E-09         0.00000E+00
   -0.36941E-09        -0.37598E-09         0.00000E+00
   -0.90158E-10        -0.31257E-09         0.00000E+00
    0.21208E-09        -0.17882E-09         0.00000E+00
    0.55840E-09         0.72467E-10         0.00000E+00
    0.94882E-09         0.57822E-09         0.00000E+00
    0.12421E-08         0.15119E-08         0.00000E+00
    0.93682E-09         0.21711E-08         0.00000E+00
   -0.13040E-10         0.22400E-08         0.00000E+00
   -0.52851E-08         0.48464E-08         0.00000E+00
   -0.67815E-08         0.45957E-08         0.00000E+00
   -0.66351E-08         0.27692E-08         0.00000E+00
   -0.52336E-08         0.47610E-09         0.00000E+00
   -0.40329E-08        -0.45301E-09         0.00000E+00
   -0.32182E-08        -0.71394E-09         0.00000E+00
   -0.26663E-08        -0.75690E-09         0.00000E+00
   -0.22657E-08        -0.72962E-09         0.00000E+00
   -0.19354E-08        -0.68690E-09         0.00000E+00
   -0.16103E-08        -0.64118E-09         0.00000E+00
   -0.12245E-08        -0.57131E-09         0.00000E+00
   -0.69843E-09        -0.42361E-09         0.00000E+00
    0.83105E-10         0.16551E-10         0.00000E+00
    0.12194E-08         0.12745E-08         0.00000E+00
    0.25105E-08         0.27331E-08         0.00000E+00
    0.31548E-08         0.32719E-08         0.00000E+00
   -0.95459E-08         0.48310E-08         0.00000E+00
   -0.35864E-08         0.35653E-08         0.00000E+00
    0.21018E-08         0.45816E-09         0.00000E+00
    0.50888E-08        -0.16730E-08         0.00000E+00
    0.66585E-08        -0.18232E-08         0.00000E+00
    0.74765E-08        -0.15392E-08         0.00000E+00
    0.79321E-08        -0.12890E-08         0.00000E+00
    0.82206E-08        -0.11192E-08         0.00000E+00
    0.84405E-08        -0.10313E-08         0.00000E+00
    0.86591E-08        -0.10234E-08         0.00000E+00
    0.89443E-08        -0.10907E-08         0.00000E+00
    0.94005E-08        -0.12352E-08         0.00000E+00
    0.10215E-07        -0.13396E-08         0.00000E+00
    0.11787E-07        -0.91553E-09         0.00000E+00
    0.15044E-07         0.23579E-09         0.00000E+00
    0.19374E-07         0.95157E-09         0.00000E+00
    0.61932E-07        -0.70726E-08         0.00000E+00
    0.64348E-07        -0.70520E-08         0.00000E+00
    0.65497E-07        -0.59060E-08         0.00000E+00
    0.64806E-07        -0.40806E-08         0.00000E+00
    0.63824E-07        -0.28407E-08         0.00000E+00
    0.62982E-07        -0.19876E-08         0.00000E+00
    0.62285E-07        -0.15011E-08         0.00000E+00
    0.61694E-07        -0.12381E-08         0.00000E+00
    0.61166E-07        -0.11253E-08         0.00000E+00
    0.60662E-07        -0.11449E-08         0.00000E+00
    0.60143E-07        -0.13128E-08         0.00000E+00
    0.59571E-07        -0.16947E-08         0.00000E+00
    0.58907E-07        -0.23700E-08         0.00000E+00
    0.58232E-07        -0.35540E-08         0.00000E+00
    0.57992E-07        -0.48542E-08         0.00000E+00
    0.58468E-07        -0.53891E-08         0.00000E+00
    0.13121E-06         0.00000E+00         0.00000E+00
    0.12413E-06         0.00000E+00         0.00000E+00
    0.11710E-06        -0.32596E-21         0.00000E+00
    0.11232E-06        -0.93132E-23         0.00000E+00
    0.10894E-06         0.31665E-21         0.00000E+00
    0.10664E-06         0.00000E+00         0.00000E+00
    0.10497E-06         0.00000E+00         0.00000E+00
    0.10364E-06        -0.28871E-21         0.00000E+00
    0.10249E-06        -0.29802E-21         0.00000E+00
    0.10139E-06         0.27940E-21         0.00000E+00
    0.10020E-06         0.28871E-21         0.00000E+00
    0.98763E-07        -0.27940E-21         0.00000E+00
    0.96812E-07        -0.93132E-23         0.00000E+00
    0.94023E-07         0.26077E-21         0.00000E+00
    0.89704E-07         0.18626E-22         0.00000E+00
    0.84315E-07         0.00000E+00         0.00000E+00
CELL_DATA        450
TENSORS stressef double 
    0.35872E+06         0.11623E+04         0.00000E+00
    0.11623E+04        -0.35724E+06         0.00000E+00
    0.00000E+00         0.00000E+00         0.00000E+00
 
    0.34797E+06         0.39650E+04         0.00000E+00
    0.39650E+04        -0.34716E+06         0.00000E+00
    0.00000E+00         0.00000E+00         0.00000E+00
 
    0.33024E+06         0.62313E+04         0.00000E+00
    0.62313E+04        -0.32925E+06         0.00000E+00
    0.00000E+00         0.00000E+00         0.00000E+00
 
    0.30668E+06         0.79330E+04         0.00000E+00
    0.79330E+04        -0.30551E+06         0.00000E+00
    0.00000E+00         0.00000E+00         0.00000E+00
 
    0.27881E+06         0.91049E+04         0.00000E+00
    0.91049E+04        -0.27747E+06         0.00000E+00
    0.00000E+00         0.00000E+00         0.00000E+00
 
    0.24807E+06         0.97840E+04         0.00000E+00
    0.97840E+04        -0.24657E+06         0.00000E+00
    0.00000E+00         0.00000E+00         0.00000E+00
 
    0.21582E+06         0.10015E+05         0.00000E+00
    0.10015E+05        -0.21418E+06         0.00000E+00
    0.00000E+00         0.00000E+00         0.00000E+00
 
    0.18329E+06         0.98516E+04         0.00000E+00
    0.98516E+04        -0.18153E+06         0.00000E+00
    0.00000E+00         0.00000E+00         0.00000E+00
 
    0.15154E+06         0.93526E+04         0.00000E+00
    0.93526E+04        -0.14969E+06         0.00000E+00
    0.00000E+00         0.00000E+00         0.00000E+00
 
    0.12146E+06         0.85880E+04         0.00000E+00
    0.85880E+04        -0.11953E+06         0.00000E+00
    0.00000E+00         0.00000E+00         0.00000E+00
 
    0.93718E+05         0.76382E+04         0.00000E+00
    0.76382E+04        -0.91738E+05         0.00000E+00
    0.00000E+00         0.00000E+00         0.00000E+00
 
    0.68710E+05         0.65976E+04         0.00000E+00
    0.65976E+04        -0.66728E+05         0.00000E+00
    0.00000E+00         0.00000E+00         0.00000E+00
 
    0.46547E+05         0.55801E+04         0.00000E+00
    0.55801E+04        -0.44586E+05         0.00000E+00
    0.00000E+00         0.00000E+00         0.00000E+00
 
    0.26948E+05         0.47340E+04         0.00000E+00
    0.47340E+04        -0.24957E+05         0.00000E+00
    0.00000E+00         0.00000E+00         0.00000E+00
 
    0.88633E+04         0.44348E+04         0.00000E+00
    0.44348E+04        -0.83567E+04         0.00000E+00
    0.00000E+00         0.00000E+00         0.00000E+00
 
    0.36030E+06         0.42548E+04         0.00000E+00
    0.42548E+04        -0.36069E+06         0.00000E+00
    0.00000E+00         0.00000E+00         0.00000E+00
 
    0.34930E+06         0.12190E+05         0.00000E+00
    0.12190E+05        -0.34988E+06         0.00000E+00
    0.00000E+00         0.00000E+00         0.00000E+00
 
    0.33086E+06         0.18830E+05         0.00000E+00
    0.18830E+05        -0.33126E+06         0.00000E+00
    0.00000E+00         0.00000E+00         0.00000E+00
 
    0.30667E+06         0.23881E+05         0.00000E+00
    0.23881E+05        -0.30689E+06         0.00000E+00
    0.00000E+00         0.00000E+00         0.00000E+00
 
    0.27823E+06         0.27370E+05         0.00000E+00
    0.27370E+05        -0.27828E+06         0.00000E+00
    0.00000E+00         0.00000E+00         0.00000E+00
 
    0.24697E+06         0.29392E+05         0.00000E+00
    0.29392E+05        -0.24687E+06         0.00000E+00
    0.00000E+00         0.00000E+00         0.00000E+00
 
    0.21426E+06         0.30077E+05         0.00000E+00
    0.30077E+05        -0.21403E+06         0.00000E+00
    0.00000E+00         0.00000E+00         0.00000E+00
 
    0.18134E+06         0.29578E+05         0.00000E+00
    0.29578E+05        -0.18098E+06         0.00000E+00
    0.00000E+00         0.00000E+00         0.00000E+00
 
    0.14927E+06         0.28075E+05         0.00000E+00
    0.28075E+05        -0.14882E+06         0.00000E+00
    0.00000E+00         0.00000E+00         0.00000E+00
 
    0.11896E+06         0.25774E+05         0.00000E+00
    0.25774E+05        -0.11843E+06         0.00000E+00
    0.00000E+00         0.00000E+00         0.00000E+00
 
    0.91067E+05         0.22915E+05         0.00000E+00
    0.22915E+05        -0.90486E+05         0.00000E+00
    0.00000E+00         0.00000E+00         0.00000E+00
 
    0.66030E+05         0.19781E+05         0.00000E+00
    0.19781E+05        -0.65444E+05         0.00000E+00
    0.00000E+00         0.00000E+00         0.00000E+00
 
    0.43983E+05         0.16714E+05         0.00000E+00
    0.16714E+05        -0.43413E+05         0.00000E+00
    0.00000E+00         0.00000E+00         0.00000E+00
 
    0.24704E+05         0.14169E+05         0.00000E+00
    0.14169E+05        -0.24097E+05         0.00000E+00
    0.00000E+00         0.00000E+00         0.00000E+00
 
    0.78521E+04         0.12857E+05         0.00000E+00
    0.12857E+05        -0.82160E+04         0.00000E+00
    0.00000E+00         0.00000E+00         0.00000E+00
 
    0.36603E+06         0.74693E+04         0.00000E+00
    0.74693E+04        -0.36649E+06         0.00000E+00
    0.00000E+00         0.00000E+00         0.00000E+00
 
    0.35404E+06         0.20798E+05         0.00000E+00
    0.20798E+05        -0.35492E+06         0.00000E+00
    0.00000E+00         0.00000E+00         0.00000E+00
 
    0.33447E+06         0.31705E+05         0.00000E+00
    0.31705E+05        -0.33515E+06         0.00000E+00
    0.00000E+00         0.00000E+00         0.00000E+00
 
    0.30912E+06         0.40021E+05         0.00000E+00
    0.40021E+05        -0.30961E+06         0.00000E+00
    0.00000E+00         0.00000E+00         0.00000E+00
 
    0.27957E+06         0.45774E+05         0.00000E+00
    0.45774E+05        -0.27990E+06         0.00000E+00
    0.00000E+00         0.00000E+00         0.00000E+00
 
    0.24731E+06         0.49104E+05         0.00000E+00
    0.49104E+05        -0.24749E+06         0.00000E+00
    0.00000E+00         0.00000E+00         0.00000E+00
 
    0.21371E+06         0.50216E+05         0.00000E+00
    0.50216E+05        -0.21375E+06         0.00000E+00
    0.00000E+00         0.00000E+00         0.00000E+00
 
    0.18002E+06         0.49363E+05         0.00000E+00
    0.49363E+05        -0.17994E+06         0.00000E+00
    0.00000E+00         0.00000E+00         0.00000E+00
 
    0.14732E+06         0.46838E+05         0.00000E+00
    0.46838E+05        -0.14714E+06         0.00000E+00
    0.00000E+00         0.00000E+00         0.00000E+00
 
    0.11653E+06         0.42979E+05         0.00000E+00
    0.42979E+05        -0.11627E+06         0.00000E+00
    0.00000E+00         0.00000E+00         0.00000E+00
 
    0.88360E+05         0.38181E+05         0.00000E+00
    0.38181E+05        -0.88049E+05         0.00000E+00
    0.00000E+00         0.00000E+00         0.00000E+00
 
    0.63274E+05         0.32909E+05         0.00000E+00
    0.32909E+05        -0.62951E+05         0.00000E+00
    0.00000E+00         0.00000E+00         0.00000E+00
 
    0.41473E+05         0.27726E+05         0.00000E+00
    0.27726E+05        -0.41159E+05         0.00000E+00
    0.00000E+00         0.00000E+00         0.00000E+00
 
    0.22878E+05         0.23340E+05         0.00000E+00
    0.23340E+05        -0.22501E+05         0.00000E+00
    0.00000E+00         0.00000E+00         0.00000E+00
 
    0.71775E+04         0.20491E+05         0.00000E+00
    0.20491E+05        -0.77090E+04         0.00000E+00
    0.00000E+00         0.00000E+00         0.00000E+00
 
    0.37499E+06         0.10596E+05         0.00000E+00
    0.10596E+05        -0.37504E+06         0.00000E+00
    0.00000E+00         0.00000E+00         0.00000E+00
 
    0.36137E+06         0.29516E+05         0.00000E+00
    0.29516E+05        -0.36225E+06         0.00000E+00
    0.00000E+00         0.00000E+00         0.00000E+00
 
    0.34018E+06         0.44800E+05         0.00000E+00
    0.44800E+05        -0.34084E+06         0.00000E+00
    0.00000E+00         0.00000E+00         0.00000E+00
 
    0.31318E+06         0.56367E+05         0.00000E+00
    0.56367E+05        -0.31364E+06         0.00000E+00
    0.00000E+00         0.00000E+00         0.00000E+00
 
    0.28204E+06         0.64342E+05         0.00000E+00
    0.64342E+05        -0.28234E+06         0.00000E+00
    0.00000E+00         0.00000E+00         0.00000E+00
 
    0.24832E+06         0.68938E+05         0.00000E+00
    0.68938E+05        -0.24847E+06         0.00000E+00
    0.00000E+00         0.00000E+00         0.00000E+00
 
    0.21342E+06         0.70445E+05         0.00000E+00
    0.70445E+05        -0.21343E+06         0.00000E+00
    0.00000E+00         0.00000E+00         0.00000E+00
 
    0.17860E+06         0.69212E+05         0.00000E+00
    0.69212E+05        -0.17849E+06         0.00000E+00
    0.00000E+00         0.00000E+00         0.00000E+00
 
    0.14498E+06         0.65642E+05         0.00000E+00
    0.65642E+05        -0.14476E+06         0.00000E+00
    0.00000E+00         0.00000E+00         0.00000E+00
 
    0.11349E+06         0.60193E+05         0.00000E+00
    0.60193E+05        -0.11320E+06         0.00000E+00
    0.00000E+00         0.00000E+00         0.00000E+00
 
    0.84901E+05         0.53403E+05         0.00000E+00
    0.53403E+05        -0.84551E+05         0.00000E+00
    0.00000E+00         0.00000E+00         0.00000E+00
 
    0.59743E+05         0.45904E+05         0.00000E+00
    0.45904E+05        -0.59370E+05         0.00000E+00
    0.00000E+00         0.00000E+00         0.00000E+00
 
    0.38310E+05         0.38455E+05         0.00000E+00
    0.38455E+05        -0.37933E+05         0.00000E+00
    0.00000E+00         0.00000E+00         0.00000E+00
 
    0.20620E+05         0.31960E+05         0.00000E+00
    0.31960E+05        -0.20197E+05         0.00000E+00
    0.00000E+00         0.00000E+00         0.00000E+00
 
    0.63467E+04         0.27360E+05         0.00000E+00
    0.27360E+05        -0.67496E+04         0.00000E+00
    0.00000E+00         0.00000E+00         0.00000E+00
 
    0.38698E+06         0.13765E+05         0.00000E+00
    0.13765E+05        -0.38663E+06         0.00000E+00
    0.00000E+00         0.00000E+00         0.00000E+00
 
    0.37115E+06         0.38314E+05         0.00000E+00
    0.38314E+05        -0.37204E+06         0.00000E+00
    0.00000E+00         0.00000E+00         0.00000E+00
 
    0.34772E+06         0.58043E+05         0.00000E+00
    0.58043E+05        -0.34838E+06         0.00000E+00
    0.00000E+00         0.00000E+00         0.00000E+00
 
    0.31855E+06         0.72870E+05         0.00000E+00
    0.72870E+05        -0.31899E+06         0.00000E+00
    0.00000E+00         0.00000E+00         0.00000E+00
 
    0.28536E+06         0.83035E+05         0.00000E+00
    0.83035E+05        -0.28564E+06         0.00000E+00
    0.00000E+00         0.00000E+00         0.00000E+00
 
    0.24976E+06         0.88856E+05         0.00000E+00
    0.88856E+05        -0.24989E+06         0.00000E+00
    0.00000E+00         0.00000E+00         0.00000E+00
 
    0.21318E+06         0.90723E+05         0.00000E+00
    0.90723E+05        -0.21317E+06         0.00000E+00
    0.00000E+00         0.00000E+00         0.00000E+00
 
    0.17691E+06         0.89085E+05         0.00000E+00
    0.89085E+05        -0.17678E+06         0.00000E+00
    0.00000E+00         0.00000E+00         0.00000E+00
 
    0.14209E+06         0.84446E+05         0.00000E+00
    0.84446E+05        -0.14186E+06         0.00000E+00
    0.00000E+00         0.00000E+00         0.00000E+00
 
    0.10970E+06         0.77373E+05         0.00000E+00
    0.77373E+05        -0.10939E+06         0.00000E+00
    0.00000E+00         0.00000E+00         0.00000E+00
 
    0.80550E+05         0.68524E+05         0.00000E+00
    0.68524E+05        -0.80170E+05         0.00000E+00
    0.00000E+00         0.00000E+00         0.00000E+00
 
    0.55270E+05         0.58674E+05         0.00000E+00
    0.58674E+05        -0.54854E+05         0.00000E+00
    0.00000E+00         0.00000E+00         0.00000E+00
 
    0.34265E+05         0.48751E+05         0.00000E+00
    0.48751E+05        -0.33832E+05         0.00000E+00
    0.00000E+00         0.00000E+00         0.00000E+00
 
    0.17663E+05         0.39866E+05         0.00000E+00
    0.39866E+05        -0.17195E+05         0.00000E+00
    0.00000E+00         0.00000E+00         0.00000E+00
 
    0.52300E+04         0.33235E+05         0.00000E+00
    0.33235E+05        -0.54021E+04         0.00000E+00
    0.00000E+00         0.00000E+00         0.00000E+00
 
    0.40212E+06         0.17010E+05         0.00000E+00
    0.17010E+05        -0.40125E+06         0.00000E+00
    0.00000E+00         0.00000E+00         0.00000E+00
 
    0.38345E+06         0.47236E+05         0.00000E+00
    0.47236E+05        -0.38437E+06         0.00000E+00
    0.00000E+00         0.00000E+00         0.00000E+00
 
    0.35719E+06         0.71398E+05         0.00000E+00
    0.71398E+05        -0.35785E+06         0.00000E+00
    0.00000E+00         0.00000E+00         0.00000E+00
 
    0.32531E+06         0.89449E+05         0.00000E+00
    0.89449E+05        -0.32574E+06         0.00000E+00
    0.00000E+00         0.00000E+00         0.00000E+00
 
    0.28962E+06         0.10175E+06         0.00000E+00
    0.10175E+06        -0.28989E+06         0.00000E+00
    0.00000E+00         0.00000E+00         0.00000E+00
 
    0.25175E+06         0.10875E+06         0.00000E+00
    0.10875E+06        -0.25187E+06         0.00000E+00
    0.00000E+00         0.00000E+00         0.00000E+00
 
    0.21316E+06         0.11094E+06         0.00000E+00
    0.11094E+06        -0.21315E+06         0.00000E+00
    0.00000E+00         0.00000E+00         0.00000E+00
 
    0.17517E+06         0.10888E+06         0.00000E+00
    0.10888E+06        -0.17504E+06         0.00000E+00
    0.00000E+00         0.00000E+00         0.00000E+00
 
    0.13891E+06         0.10316E+06         0.00000E+00
    0.10316E+06        -0.13868E+06         0.00000E+00
    0.00000E+00         0.00000E+00         0.00000E+00
 
    0.10541E+06         0.94443E+05         0.00000E+00
    0.94443E+05        -0.10509E+06         0.00000E+00
    0.00000E+00         0.00000E+00         0.00000E+00
 
    0.75545E+05         0.83476E+05         0.00000E+00
    0.83476E+05        -0.75157E+05         0.00000E+00
    0.00000E+00         0.00000E+00         0.00000E+00
 
    0.50053E+05         0.71146E+05         0.00000E+00
    0.71146E+05        -0.49611E+05         0.00000E+00
    0.00000E+00         0.00000E+00         0.00000E+00
 
    0.29473E+05         0.58525E+05         0.00000E+00
    0.58525E+05        -0.28997E+05         0.00000E+00
    0.00000E+00         0.00000E+00         0.00000E+00
 
    0.14093E+05         0.46928E+05         0.00000E+00
    0.46928E+05        -0.13586E+05         0.00000E+00
    0.00000E+00         0.00000E+00         0.00000E+00
 
    0.38607E+04         0.37849E+05         0.00000E+00
    0.37849E+05        -0.37425E+04         0.00000E+00
    0.00000E+00         0.00000E+00         0.00000E+00
 
    0.42051E+06         0.20313E+05         0.00000E+00
    0.20313E+05        -0.41895E+06         0.00000E+00
    0.00000E+00         0.00000E+00         0.00000E+00
 
    0.39831E+06         0.56248E+05         0.00000E+00
    0.56248E+05        -0.39925E+06         0.00000E+00
    0.00000E+00         0.00000E+00         0.00000E+00
 
    0.36862E+06         0.84784E+05         0.00000E+00
    0.84784E+05        -0.36927E+06         0.00000E+00
    0.00000E+00         0.00000E+00         0.00000E+00
 
    0.33353E+06         0.10596E+06         0.00000E+00
    0.10596E+06        -0.33394E+06         0.00000E+00
    0.00000E+00         0.00000E+00         0.00000E+00
 
    0.29493E+06         0.12031E+06         0.00000E+00
    0.12031E+06        -0.29518E+06         0.00000E+00
    0.00000E+00         0.00000E+00         0.00000E+00
 
    0.25447E+06         0.12841E+06         0.00000E+00
    0.12841E+06        -0.25458E+06         0.00000E+00
    0.00000E+00         0.00000E+00         0.00000E+00
 
    0.21362E+06         0.13089E+06         0.00000E+00
    0.13089E+06        -0.21361E+06         0.00000E+00
    0.00000E+00         0.00000E+00         0.00000E+00
 
    0.17367E+06         0.12840E+06         0.00000E+00
    0.12840E+06        -0.17355E+06         0.00000E+00
    0.00000E+00         0.00000E+00         0.00000E+00
 
    0.13577E+06         0.12163E+06         0.00000E+00
    0.12163E+06        -0.13556E+06         0.00000E+00
    0.00000E+00         0.00000E+00         0.00000E+00
 
    0.10098E+06         0.11128E+06         0.00000E+00
    0.11128E+06        -0.10067E+06         0.00000E+00
    0.00000E+00         0.00000E+00         0.00000E+00
 
    0.70244E+05         0.98174E+05         0.00000E+00
    0.98174E+05        -0.69850E+05         0.00000E+00
    0.00000E+00         0.00000E+00         0.00000E+00
 
    0.44407E+05         0.83260E+05         0.00000E+00
    0.83260E+05        -0.43939E+05         0.00000E+00
    0.00000E+00         0.00000E+00         0.00000E+00
 
    0.24183E+05         0.67719E+05         0.00000E+00
    0.67719E+05        -0.23659E+05         0.00000E+00
    0.00000E+00         0.00000E+00         0.00000E+00
 
    0.10080E+05         0.53043E+05         0.00000E+00
    0.53043E+05        -0.95230E+04         0.00000E+00
    0.00000E+00         0.00000E+00         0.00000E+00
 
    0.23034E+04         0.40983E+05         0.00000E+00
    0.40983E+05        -0.18425E+04         0.00000E+00
    0.00000E+00         0.00000E+00         0.00000E+00
 
    0.44217E+06         0.23643E+05         0.00000E+00
    0.23643E+05        -0.43975E+06         0.00000E+00
    0.00000E+00         0.00000E+00         0.00000E+00
 
    0.41573E+06         0.65250E+05         0.00000E+00
    0.65250E+05        -0.41669E+06         0.00000E+00
    0.00000E+00         0.00000E+00         0.00000E+00
 
    0.38202E+06         0.98031E+05         0.00000E+00
    0.98031E+05        -0.38266E+06         0.00000E+00
    0.00000E+00         0.00000E+00         0.00000E+00
 
    0.34327E+06         0.12218E+06         0.00000E+00
    0.12218E+06        -0.34364E+06         0.00000E+00
    0.00000E+00         0.00000E+00         0.00000E+00
 
    0.30142E+06         0.13842E+06         0.00000E+00
    0.13842E+06        -0.30165E+06         0.00000E+00
    0.00000E+00         0.00000E+00         0.00000E+00
 
    0.25813E+06         0.14752E+06         0.00000E+00
    0.14752E+06        -0.25823E+06         0.00000E+00
    0.00000E+00         0.00000E+00         0.00000E+00
 
    0.21483E+06         0.15026E+06         0.00000E+00
    0.15026E+06        -0.21482E+06         0.00000E+00
    0.00000E+00         0.00000E+00         0.00000E+00
 
    0.17279E+06         0.14738E+06         0.00000E+00
    0.14738E+06        -0.17268E+06         0.00000E+00
    0.00000E+00         0.00000E+00         0.00000E+00
 
    0.13312E+06         0.13961E+06         0.00000E+00
    0.13961E+06        -0.13292E+06         0.00000E+00
    0.00000E+00         0.00000E+00         0.00000E+00
 
    0.96888E+05         0.12772E+06         0.00000E+00
    0.12772E+06        -0.96597E+05         0.00000E+00
    0.00000E+00         0.00000E+00         0.00000E+00
 
    0.65101E+05         0.11251E+06         0.00000E+00
    0.11251E+06        -0.64714E+05         0.00000E+00
    0.00000E+00         0.00000E+00         0.00000E+00
 
    0.38737E+05         0.94959E+05         0.00000E+00
    0.94959E+05        -0.38252E+05         0.00000E+00
    0.00000E+00         0.00000E+00         0.00000E+00
 
    0.18717E+05         0.76301E+05         0.00000E+00
    0.76301E+05        -0.18148E+05         0.00000E+00
    0.00000E+00         0.00000E+00         0.00000E+00
 
    0.58322E+04         0.58150E+05         0.00000E+00
    0.58150E+05        -0.52195E+04         0.00000E+00
    0.00000E+00         0.00000E+00         0.00000E+00
 
    0.63063E+03         0.42477E+05         0.00000E+00
    0.42477E+05         0.21479E+03         0.00000E+00
    0.00000E+00         0.00000E+00         0.00000E+00
 
    0.46711E+06         0.26946E+05         0.00000E+00
    0.26946E+05        -0.46362E+06         0.00000E+00
    0.00000E+00         0.00000E+00         0.00000E+00
 
    0.43567E+06         0.74080E+05         0.00000E+00
    0.74080E+05        -0.43663E+06         0.00000E+00
    0.00000E+00         0.00000E+00         0.00000E+00
 
    0.39737E+06         0.11087E+06         0.00000E+00
    0.11087E+06        -0.39797E+06         0.00000E+00
    0.00000E+00         0.00000E+00         0.00000E+00
 
    0.35456E+06         0.13774E+06         0.00000E+00
    0.13774E+06        -0.35488E+06         0.00000E+00
    0.00000E+00         0.00000E+00         0.00000E+00
 
    0.30921E+06         0.15567E+06         0.00000E+00
    0.15567E+06        -0.30940E+06         0.00000E+00
    0.00000E+00         0.00000E+00         0.00000E+00
 
    0.26296E+06         0.16564E+06         0.00000E+00
    0.16564E+06        -0.26304E+06         0.00000E+00
    0.00000E+00         0.00000E+00         0.00000E+00
 
    0.21716E+06         0.16859E+06         0.00000E+00
    0.16859E+06        -0.21715E+06         0.00000E+00
    0.00000E+00         0.00000E+00         0.00000E+00
 
    0.17299E+06         0.16538E+06         0.00000E+00
    0.16538E+06        -0.17291E+06         0.00000E+00
    0.00000E+00         0.00000E+00         0.00000E+00
 
    0.13151E+06         0.15677E+06         0.00000E+00
    0.15677E+06        -0.13134E+06         0.00000E+00
    0.00000E+00         0.00000E+00         0.00000E+00
 
    0.93729E+05         0.14350E+06         0.00000E+00
    0.14350E+06        -0.93477E+05         0.00000E+00
    0.00000E+00         0.00000E+00         0.00000E+00
 
    0.60719E+05         0.12633E+06         0.00000E+00
    0.12633E+06        -0.60361E+05         0.00000E+00
    0.00000E+00         0.00000E+00         0.00000E+00
 
    0.33593E+05         0.10619E+06         0.00000E+00
    0.10619E+06        -0.33109E+05         0.00000E+00
    0.00000E+00         0.00000E+00         0.00000E+00
 
    0.13516E+05         0.84276E+05         0.00000E+00
    0.84276E+05        -0.12909E+05         0.00000E+00
    0.00000E+00         0.00000E+00         0.00000E+00
 
    0.16335E+04         0.62250E+05         0.00000E+00
    0.62250E+05        -0.96251E+03         0.00000E+00
    0.00000E+00         0.00000E+00         0.00000E+00
 
   -0.10603E+04         0.42258E+05         0.00000E+00
    0.42258E+05         0.23179E+04         0.00000E+00
    0.00000E+00         0.00000E+00         0.00000E+00
 
    0.49529E+06         0.30143E+05         0.00000E+00
    0.30143E+05        -0.49047E+06         0.00000E+00
    0.00000E+00         0.00000E+00         0.00000E+00
 
    0.45803E+06         0.82503E+05         0.00000E+00
    0.82503E+05        -0.45897E+06         0.00000E+00
    0.00000E+00         0.00000E+00         0.00000E+00
 
    0.41459E+06         0.12294E+06         0.00000E+00
    0.12294E+06        -0.41513E+06         0.00000E+00
    0.00000E+00         0.00000E+00         0.00000E+00
 
    0.36739E+06         0.15215E+06         0.00000E+00
    0.15215E+06        -0.36764E+06         0.00000E+00
    0.00000E+00         0.00000E+00         0.00000E+00
 
    0.31842E+06         0.17146E+06         0.00000E+00
    0.17146E+06        -0.31857E+06         0.00000E+00
    0.00000E+00         0.00000E+00         0.00000E+00
 
    0.26923E+06         0.18213E+06         0.00000E+00
    0.18213E+06        -0.26929E+06         0.00000E+00
    0.00000E+00         0.00000E+00         0.00000E+00
 
    0.22103E+06         0.18526E+06         0.00000E+00
    0.18526E+06        -0.22104E+06         0.00000E+00
    0.00000E+00         0.00000E+00         0.00000E+00
 
    0.17486E+06         0.18183E+06         0.00000E+00
    0.18183E+06        -0.17482E+06         0.00000E+00
    0.00000E+00         0.00000E+00         0.00000E+00
 
    0.13163E+06         0.17261E+06         0.00000E+00
    0.17261E+06        -0.13153E+06         0.00000E+00
    0.00000E+00         0.00000E+00         0.00000E+00
 
    0.92283E+05         0.15827E+06         0.00000E+00
    0.15827E+06        -0.92097E+05         0.00000E+00
    0.00000E+00         0.00000E+00         0.00000E+00
 
    0.57888E+05         0.13945E+06         0.00000E+00
    0.13945E+06        -0.57588E+05         0.00000E+00
    0.00000E+00         0.00000E+00         0.00000E+00
 
    0.29700E+05         0.11690E+06         0.00000E+00
    0.11690E+06        -0.29242E+05         0.00000E+00
    0.00000E+00         0.00000E+00         0.00000E+00
 
    0.91659E+04         0.91697E+05         0.00000E+00
    0.91697E+05        -0.85378E+04         0.00000E+00
    0.00000E+00         0.00000E+00         0.00000E+00
 
   -0.21345E+04         0.65438E+05         0.00000E+00
    0.65438E+05         0.28630E+04         0.00000E+00
    0.00000E+00         0.00000E+00         0.00000E+00
 
   -0.26369E+04         0.40361E+05         0.00000E+00
    0.40361E+05         0.43159E+04         0.00000E+00
    0.00000E+00         0.00000E+00         0.00000E+00
 
    0.52654E+06         0.33126E+05         0.00000E+00
    0.33126E+05        -0.52011E+06         0.00000E+00
    0.00000E+00         0.00000E+00         0.00000E+00
 
    0.48263E+06         0.90208E+05         0.00000E+00
    0.90208E+05        -0.48353E+06         0.00000E+00
    0.00000E+00         0.00000E+00         0.00000E+00
 
    0.43353E+06         0.13373E+06         0.00000E+00
    0.13373E+06        -0.43398E+06         0.00000E+00
    0.00000E+00         0.00000E+00         0.00000E+00
 
    0.38174E+06         0.16476E+06         0.00000E+00
    0.16476E+06        -0.38189E+06         0.00000E+00
    0.00000E+00         0.00000E+00         0.00000E+00
 
    0.32917E+06         0.18504E+06         0.00000E+00
    0.18504E+06        -0.32925E+06         0.00000E+00
    0.00000E+00         0.00000E+00         0.00000E+00
 
    0.27724E+06         0.19614E+06         0.00000E+00
    0.19614E+06        -0.27727E+06         0.00000E+00
    0.00000E+00         0.00000E+00         0.00000E+00
 
    0.22696E+06         0.19942E+06         0.00000E+00
    0.19942E+06        -0.22697E+06         0.00000E+00
    0.00000E+00         0.00000E+00         0.00000E+00
 
    0.17910E+06         0.19594E+06         0.00000E+00
    0.19594E+06        -0.17911E+06         0.00000E+00
    0.00000E+00         0.00000E+00         0.00000E+00
 
    0.13437E+06         0.18649E+06         0.00000E+00
    0.18649E+06        -0.13435E+06         0.00000E+00
    0.00000E+00         0.00000E+00         0.00000E+00
 
    0.93528E+05         0.17157E+06         0.00000E+00
    0.17157E+06        -0.93447E+05         0.00000E+00
    0.00000E+00         0.00000E+00         0.00000E+00
 
    0.57614E+05         0.15160E+06         0.00000E+00
    0.15160E+06        -0.57414E+05         0.00000E+00
    0.00000E+00         0.00000E+00         0.00000E+00
 
    0.27995E+05         0.12705E+06         0.00000E+00
    0.12705E+06        -0.27603E+05         0.00000E+00
    0.00000E+00         0.00000E+00         0.00000E+00
 
    0.64342E+04         0.98687E+05         0.00000E+00
    0.98687E+05        -0.58136E+04         0.00000E+00
    0.00000E+00         0.00000E+00         0.00000E+00
 
   -0.49660E+04         0.67926E+05         0.00000E+00
    0.67926E+05         0.57458E+04         0.00000E+00
    0.00000E+00         0.00000E+00         0.00000E+00
 
   -0.39223E+04         0.36975E+05         0.00000E+00
    0.36975E+05         0.60054E+04         0.00000E+00
    0.00000E+00         0.00000E+00         0.00000E+00
 
    0.56060E+06         0.35759E+05         0.00000E+00
    0.35759E+05        -0.55226E+06         0.00000E+00
    0.00000E+00         0.00000E+00         0.00000E+00
 
    0.50917E+06         0.96800E+05         0.00000E+00
    0.96800E+05        -0.50998E+06         0.00000E+00
    0.00000E+00         0.00000E+00         0.00000E+00
 
    0.45396E+06         0.14261E+06         0.00000E+00
    0.14261E+06        -0.45429E+06         0.00000E+00
    0.00000E+00         0.00000E+00         0.00000E+00
 
    0.39747E+06         0.17473E+06         0.00000E+00
    0.17473E+06        -0.39748E+06         0.00000E+00
    0.00000E+00         0.00000E+00         0.00000E+00
 
    0.34152E+06         0.19540E+06         0.00000E+00
    0.19540E+06        -0.34152E+06         0.00000E+00
    0.00000E+00         0.00000E+00         0.00000E+00
 
    0.28730E+06         0.20660E+06         0.00000E+00
    0.20660E+06        -0.28729E+06         0.00000E+00
    0.00000E+00         0.00000E+00         0.00000E+00
 
    0.23550E+06         0.20996E+06         0.00000E+00
    0.20996E+06        -0.23553E+06         0.00000E+00
    0.00000E+00         0.00000E+00         0.00000E+00
 
    0.18654E+06         0.20670E+06         0.00000E+00
    0.20670E+06        -0.18663E+06         0.00000E+00
    0.00000E+00         0.00000E+00         0.00000E+00
 
    0.14077E+06         0.19752E+06         0.00000E+00
    0.19752E+06        -0.14088E+06         0.00000E+00
    0.00000E+00         0.00000E+00         0.00000E+00
 
    0.98682E+05         0.18276E+06         0.00000E+00
    0.18276E+06        -0.98756E+05         0.00000E+00
    0.00000E+00         0.00000E+00         0.00000E+00
 
    0.61169E+05         0.16243E+06         0.00000E+00
    0.16243E+06        -0.61125E+05         0.00000E+00
    0.00000E+00         0.00000E+00         0.00000E+00
 
    0.29681E+05         0.13656E+06         0.00000E+00
    0.13656E+06        -0.29410E+05         0.00000E+00
    0.00000E+00         0.00000E+00         0.00000E+00
 
    0.63173E+04         0.10545E+06         0.00000E+00
    0.10545E+06        -0.57473E+04         0.00000E+00
    0.00000E+00         0.00000E+00         0.00000E+00
 
   -0.61968E+04         0.70084E+05         0.00000E+00
    0.70084E+05         0.70141E+04         0.00000E+00
    0.00000E+00         0.00000E+00         0.00000E+00
 
   -0.46822E+04         0.32490E+05         0.00000E+00
    0.32490E+05         0.71156E+04         0.00000E+00
    0.00000E+00         0.00000E+00         0.00000E+00
 
    0.59704E+06         0.37879E+05         0.00000E+00
    0.37879E+05        -0.58646E+06         0.00000E+00
    0.00000E+00         0.00000E+00         0.00000E+00
 
    0.53722E+06         0.10181E+06         0.00000E+00
    0.10181E+06        -0.53791E+06         0.00000E+00
    0.00000E+00         0.00000E+00         0.00000E+00
 
    0.47550E+06         0.14883E+06         0.00000E+00
    0.14883E+06        -0.47566E+06         0.00000E+00
    0.00000E+00         0.00000E+00         0.00000E+00
 
    0.41438E+06         0.18105E+06         0.00000E+00
    0.18105E+06        -0.41421E+06         0.00000E+00
    0.00000E+00         0.00000E+00         0.00000E+00
 
    0.35548E+06         0.20132E+06         0.00000E+00
    0.20132E+06        -0.35535E+06         0.00000E+00
    0.00000E+00         0.00000E+00         0.00000E+00
 
    0.29970E+06         0.21213E+06         0.00000E+00
    0.21213E+06        -0.29963E+06         0.00000E+00
    0.00000E+00         0.00000E+00         0.00000E+00
 
    0.24729E+06         0.21549E+06         0.00000E+00
    0.21549E+06        -0.24735E+06         0.00000E+00
    0.00000E+00         0.00000E+00         0.00000E+00
 
    0.19816E+06         0.21276E+06         0.00000E+00
    0.21276E+06        -0.19835E+06         0.00000E+00
    0.00000E+00         0.00000E+00         0.00000E+00
 
    0.15212E+06         0.20460E+06         0.00000E+00
    0.20460E+06        -0.15240E+06         0.00000E+00
    0.00000E+00         0.00000E+00         0.00000E+00
 
    0.10924E+06         0.19100E+06         0.00000E+00
    0.19100E+06        -0.10953E+06         0.00000E+00
    0.00000E+00         0.00000E+00         0.00000E+00
 
    0.70140E+05         0.17149E+06         0.00000E+00
    0.17149E+06        -0.70326E+05         0.00000E+00
    0.00000E+00         0.00000E+00         0.00000E+00
 
    0.36277E+05         0.14540E+06         0.00000E+00
    0.14540E+06        -0.36204E+05         0.00000E+00
    0.00000E+00         0.00000E+00         0.00000E+00
 
    0.10093E+05         0.11229E+06         0.00000E+00
    0.11229E+06        -0.96362E+04         0.00000E+00
    0.00000E+00         0.00000E+00         0.00000E+00
 
   -0.49639E+04         0.72480E+05         0.00000E+00
    0.72480E+05         0.57942E+04         0.00000E+00
    0.00000E+00         0.00000E+00         0.00000E+00
 
   -0.46091E+04         0.27559E+05         0.00000E+00
    0.27559E+05         0.72897E+04         0.00000E+00
    0.00000E+00         0.00000E+00         0.00000E+00
 
    0.63526E+06         0.39300E+05         0.00000E+00
    0.39300E+05        -0.62209E+06         0.00000E+00
    0.00000E+00         0.00000E+00         0.00000E+00
 
    0.56617E+06         0.10468E+06         0.00000E+00
    0.10468E+06        -0.56669E+06         0.00000E+00
    0.00000E+00         0.00000E+00         0.00000E+00
 
    0.49763E+06         0.15149E+06         0.00000E+00
    0.15149E+06        -0.49756E+06         0.00000E+00
    0.00000E+00         0.00000E+00         0.00000E+00
 
    0.43208E+06         0.18250E+06         0.00000E+00
    0.18250E+06        -0.43167E+06         0.00000E+00
    0.00000E+00         0.00000E+00         0.00000E+00
 
    0.37095E+06         0.20130E+06         0.00000E+00
    0.20130E+06        -0.37064E+06         0.00000E+00
    0.00000E+00         0.00000E+00         0.00000E+00
 
    0.31470E+06         0.21106E+06         0.00000E+00
    0.21106E+06        -0.31455E+06         0.00000E+00
    0.00000E+00         0.00000E+00         0.00000E+00
 
    0.26301E+06         0.21424E+06         0.00000E+00
    0.21424E+06        -0.26308E+06         0.00000E+00
    0.00000E+00         0.00000E+00         0.00000E+00
 
    0.21506E+06         0.21245E+06         0.00000E+00
    0.21245E+06        -0.21537E+06         0.00000E+00
    0.00000E+00         0.00000E+00         0.00000E+00
 
    0.16993E+06         0.20624E+06         0.00000E+00
    0.20624E+06        -0.17043E+06         0.00000E+00
    0.00000E+00         0.00000E+00         0.00000E+00
 
    0.12701E+06         0.19522E+06         0.00000E+00
    0.19522E+06        -0.12760E+06         0.00000E+00
    0.00000E+00         0.00000E+00         0.00000E+00
 
    0.86487E+05         0.17817E+06         0.00000E+00
    0.17817E+06        -0.86999E+05         0.00000E+00
    0.00000E+00         0.00000E+00         0.00000E+00
 
    0.49691E+05         0.15348E+06         0.00000E+00
    0.15348E+06        -0.49916E+05         0.00000E+00
    0.00000E+00         0.00000E+00         0.00000E+00
 
    0.19385E+05         0.11966E+06         0.00000E+00
    0.11966E+06        -0.19129E+05         0.00000E+00
    0.00000E+00         0.00000E+00         0.00000E+00
 
   -0.15680E+03         0.75939E+05         0.00000E+00
    0.75939E+05         0.96170E+03         0.00000E+00
    0.00000E+00         0.00000E+00         0.00000E+00
 
   -0.33039E+04         0.23186E+05         0.00000E+00
    0.23186E+05         0.60617E+04         0.00000E+00
    0.00000E+00         0.00000E+00         0.00000E+00
 
    0.67446E+06         0.39824E+05         0.00000E+00
    0.39824E+05        -0.65834E+06         0.00000E+00
    0.00000E+00         0.00000E+00         0.00000E+00
 
    0.59522E+06         0.10484E+06         0.00000E+00
    0.10484E+06        -0.59550E+06         0.00000E+00
    0.00000E+00         0.00000E+00         0.00000E+00
 
    0.51959E+06         0.14959E+06         0.00000E+00
    0.14959E+06        -0.51922E+06         0.00000E+00
    0.00000E+00         0.00000E+00         0.00000E+00
 
    0.45000E+06         0.17765E+06         0.00000E+00
    0.17765E+06        -0.44928E+06         0.00000E+00
    0.00000E+00         0.00000E+00         0.00000E+00
 
    0.38764E+06         0.19355E+06         0.00000E+00
    0.19355E+06        -0.38710E+06         0.00000E+00
    0.00000E+00         0.00000E+00         0.00000E+00
 
    0.33245E+06         0.20130E+06         0.00000E+00
    0.20130E+06        -0.33217E+06         0.00000E+00
    0.00000E+00         0.00000E+00         0.00000E+00
 
    0.28333E+06         0.20404E+06         0.00000E+00
    0.20404E+06        -0.28341E+06         0.00000E+00
    0.00000E+00         0.00000E+00         0.00000E+00
 
    0.23849E+06         0.20365E+06         0.00000E+00
    0.20365E+06        -0.23896E+06         0.00000E+00
    0.00000E+00         0.00000E+00         0.00000E+00
 
    0.19595E+06         0.20062E+06         0.00000E+00
    0.20062E+06        -0.19675E+06         0.00000E+00
    0.00000E+00         0.00000E+00         0.00000E+00
 
    0.15417E+06         0.19402E+06         0.00000E+00
    0.19402E+06        -0.15515E+06         0.00000E+00
    0.00000E+00         0.00000E+00         0.00000E+00
 
    0.11260E+06         0.18169E+06         0.00000E+00
    0.18169E+06        -0.11356E+06         0.00000E+00
    0.00000E+00         0.00000E+00         0.00000E+00
 
    0.72283E+05         0.16073E+06         0.00000E+00
    0.16073E+06        -0.72939E+05         0.00000E+00
    0.00000E+00         0.00000E+00         0.00000E+00
 
    0.36233E+05         0.12812E+06         0.00000E+00
    0.12812E+06        -0.36296E+05         0.00000E+00
    0.00000E+00         0.00000E+00         0.00000E+00
 
    0.96376E+04         0.81605E+05         0.00000E+00
    0.81605E+05        -0.89163E+04         0.00000E+00
    0.00000E+00         0.00000E+00         0.00000E+00
 
   -0.25447E+03         0.20822E+05         0.00000E+00
    0.20822E+05         0.28304E+04         0.00000E+00
    0.00000E+00         0.00000E+00         0.00000E+00
 
    0.71365E+06         0.39260E+05         0.00000E+00
    0.39260E+05        -0.69422E+06         0.00000E+00
    0.00000E+00         0.00000E+00         0.00000E+00
 
    0.62332E+06         0.10166E+06         0.00000E+00
    0.10166E+06        -0.62331E+06         0.00000E+00
    0.00000E+00         0.00000E+00         0.00000E+00
 
    0.54038E+06         0.14203E+06         0.00000E+00
    0.14203E+06        -0.53962E+06         0.00000E+00
    0.00000E+00         0.00000E+00         0.00000E+00
 
    0.46730E+06         0.16488E+06         0.00000E+00
    0.16488E+06        -0.46616E+06         0.00000E+00
    0.00000E+00         0.00000E+00         0.00000E+00
 
    0.40507E+06         0.17595E+06         0.00000E+00
    0.17595E+06        -0.40422E+06         0.00000E+00
    0.00000E+00         0.00000E+00         0.00000E+00
 
    0.35299E+06         0.18040E+06         0.00000E+00
    0.18040E+06        -0.35253E+06         0.00000E+00
    0.00000E+00         0.00000E+00         0.00000E+00
 
    0.30893E+06         0.18222E+06         0.00000E+00
    0.18222E+06        -0.30901E+06         0.00000E+00
    0.00000E+00         0.00000E+00         0.00000E+00
 
    0.26980E+06         0.18377E+06         0.00000E+00
    0.18377E+06        -0.27046E+06         0.00000E+00
    0.00000E+00         0.00000E+00         0.00000E+00
 
    0.23222E+06         0.18545E+06         0.00000E+00
    0.18545E+06        -0.23338E+06         0.00000E+00
    0.00000E+00         0.00000E+00         0.00000E+00
 
    0.19326E+06         0.18567E+06         0.00000E+00
    0.18567E+06        -0.19476E+06         0.00000E+00
    0.00000E+00         0.00000E+00         0.00000E+00
 
    0.15135E+06         0.18106E+06         0.00000E+00
    0.18106E+06        -0.15291E+06         0.00000E+00
    0.00000E+00         0.00000E+00         0.00000E+00
 
    0.10695E+06         0.16701E+06         0.00000E+00
    0.16701E+06        -0.10820E+06         0.00000E+00
    0.00000E+00         0.00000E+00         0.00000E+00
 
    0.63175E+05         0.13848E+06         0.00000E+00
    0.13848E+06        -0.63715E+05         0.00000E+00
    0.00000E+00         0.00000E+00         0.00000E+00
 
    0.26202E+05         0.91022E+05         0.00000E+00
    0.91022E+05        -0.25647E+05         0.00000E+00
    0.00000E+00         0.00000E+00         0.00000E+00
 
    0.51916E+04         0.22490E+05         0.00000E+00
    0.22490E+05        -0.31728E+04         0.00000E+00
    0.00000E+00         0.00000E+00         0.00000E+00
 
    0.75162E+06         0.37443E+05         0.00000E+00
    0.37443E+05        -0.72852E+06         0.00000E+00
    0.00000E+00         0.00000E+00         0.00000E+00
 
    0.64919E+06         0.94560E+05         0.00000E+00
    0.94560E+05        -0.64880E+06         0.00000E+00
    0.00000E+00         0.00000E+00         0.00000E+00
 
    0.55864E+06         0.12765E+06         0.00000E+00
    0.12765E+06        -0.55737E+06         0.00000E+00
    0.00000E+00         0.00000E+00         0.00000E+00
 
    0.48279E+06         0.14237E+06         0.00000E+00
    0.14237E+06        -0.48111E+06         0.00000E+00
    0.00000E+00         0.00000E+00         0.00000E+00
 
    0.42244E+06         0.14606E+06         0.00000E+00
    0.14606E+06        -0.42117E+06         0.00000E+00
    0.00000E+00         0.00000E+00         0.00000E+00
 
    0.37615E+06         0.14542E+06         0.00000E+00
    0.14542E+06        -0.37546E+06         0.00000E+00
    0.00000E+00         0.00000E+00         0.00000E+00
 
    0.34044E+06         0.14563E+06         0.00000E+00
    0.14563E+06        -0.34050E+06         0.00000E+00
    0.00000E+00         0.00000E+00         0.00000E+00
 
    0.31048E+06         0.14968E+06         0.00000E+00
    0.14968E+06        -0.31136E+06         0.00000E+00
    0.00000E+00         0.00000E+00         0.00000E+00
 
    0.28100E+06         0.15793E+06         0.00000E+00
    0.15793E+06        -0.28262E+06         0.00000E+00
    0.00000E+00         0.00000E+00         0.00000E+00
 
    0.24727E+06         0.16800E+06         0.00000E+00
    0.16800E+06        -0.24941E+06         0.00000E+00
    0.00000E+00         0.00000E+00         0.00000E+00
 
    0.20616E+06         0.17500E+06         0.00000E+00
    0.17500E+06        -0.20849E+06         0.00000E+00
    0.00000E+00         0.00000E+00         0.00000E+00
 
    0.15718E+06         0.17215E+06         0.00000E+00
    0.17215E+06        -0.15924E+06         0.00000E+00
    0.00000E+00         0.00000E+00         0.00000E+00
 
    0.10333E+06         0.15170E+06         0.00000E+00
    0.15170E+06        -0.10455E+06         0.00000E+00
    0.00000E+00         0.00000E+00         0.00000E+00
 
    0.51759E+05         0.10622E+06         0.00000E+00
    0.10622E+06        -0.51486E+05         0.00000E+00
    0.00000E+00         0.00000E+00         0.00000E+00
 
    0.13855E+05         0.30941E+05         0.00000E+00
    0.30941E+05        -0.12921E+05         0.00000E+00
    0.00000E+00         0.00000E+00         0.00000E+00
 
    0.78701E+06         0.34270E+05         0.00000E+00
    0.34270E+05        -0.75989E+06         0.00000E+00
    0.00000E+00         0.00000E+00         0.00000E+00
 
    0.67120E+06         0.83048E+05         0.00000E+00
    0.83048E+05        -0.67037E+06         0.00000E+00
    0.00000E+00         0.00000E+00         0.00000E+00
 
    0.57261E+06         0.10525E+06         0.00000E+00
    0.10525E+06        -0.57071E+06         0.00000E+00
    0.00000E+00         0.00000E+00         0.00000E+00
 
    0.49483E+06         0.10807E+06         0.00000E+00
    0.10807E+06        -0.49247E+06         0.00000E+00
    0.00000E+00         0.00000E+00         0.00000E+00
 
    0.43864E+06         0.10102E+06         0.00000E+00
    0.10102E+06        -0.43684E+06         0.00000E+00
    0.00000E+00         0.00000E+00         0.00000E+00
 
    0.40158E+06         0.92913E+05         0.00000E+00
    0.92913E+05        -0.40059E+06         0.00000E+00
    0.00000E+00         0.00000E+00         0.00000E+00
 
    0.37843E+06         0.90544E+05         0.00000E+00
    0.90544E+05        -0.37846E+06         0.00000E+00
    0.00000E+00         0.00000E+00         0.00000E+00
 
    0.36209E+06         0.97724E+05         0.00000E+00
    0.97724E+05        -0.36323E+06         0.00000E+00
    0.00000E+00         0.00000E+00         0.00000E+00
 
    0.34483E+06         0.11478E+06         0.00000E+00
    0.11478E+06        -0.34700E+06         0.00000E+00
    0.00000E+00         0.00000E+00         0.00000E+00
 
    0.31953E+06         0.13842E+06         0.00000E+00
    0.13842E+06        -0.32248E+06         0.00000E+00
    0.00000E+00         0.00000E+00         0.00000E+00
 
    0.28095E+06         0.16196E+06         0.00000E+00
    0.16196E+06        -0.28428E+06         0.00000E+00
    0.00000E+00         0.00000E+00         0.00000E+00
 
    0.22710E+06         0.17591E+06         0.00000E+00
    0.17591E+06        -0.23025E+06         0.00000E+00
    0.00000E+00         0.00000E+00         0.00000E+00
 
    0.16046E+06         0.16902E+06         0.00000E+00
    0.16902E+06        -0.16265E+06         0.00000E+00
    0.00000E+00         0.00000E+00         0.00000E+00
 
    0.89042E+05         0.12983E+06         0.00000E+00
    0.12983E+06        -0.89224E+05         0.00000E+00
    0.00000E+00         0.00000E+00         0.00000E+00
 
    0.26755E+05         0.49836E+05         0.00000E+00
    0.49836E+05        -0.27633E+05         0.00000E+00
    0.00000E+00         0.00000E+00         0.00000E+00
 
    0.81839E+06         0.29755E+05         0.00000E+00
    0.29755E+05        -0.78683E+06         0.00000E+00
    0.00000E+00         0.00000E+00         0.00000E+00
 
    0.68747E+06         0.66735E+05         0.00000E+00
    0.66735E+05        -0.68606E+06         0.00000E+00
    0.00000E+00         0.00000E+00         0.00000E+00
 
    0.58013E+06         0.73571E+05         0.00000E+00
    0.73571E+05        -0.57736E+06         0.00000E+00
    0.00000E+00         0.00000E+00         0.00000E+00
 
    0.50144E+06         0.59605E+05         0.00000E+00
    0.59605E+05        -0.49816E+06         0.00000E+00
    0.00000E+00         0.00000E+00         0.00000E+00
 
    0.45230E+06         0.37492E+05         0.00000E+00
    0.37492E+05        -0.44979E+06         0.00000E+00
    0.00000E+00         0.00000E+00         0.00000E+00
 
    0.42889E+06         0.18942E+05         0.00000E+00
    0.18942E+05        -0.42748E+06         0.00000E+00
    0.00000E+00         0.00000E+00         0.00000E+00
 
    0.42358E+06         0.12782E+05         0.00000E+00
    0.12782E+05        -0.42354E+06         0.00000E+00
    0.00000E+00         0.00000E+00         0.00000E+00
 
    0.42637E+06         0.23797E+05         0.00000E+00
    0.23797E+05        -0.42778E+06         0.00000E+00
    0.00000E+00         0.00000E+00         0.00000E+00
 
    0.42648E+06         0.52270E+05         0.00000E+00
    0.52270E+05        -0.42923E+06         0.00000E+00
    0.00000E+00         0.00000E+00         0.00000E+00
 
    0.41376E+06         0.93916E+05         0.00000E+00
    0.93916E+05        -0.41761E+06         0.00000E+00
    0.00000E+00         0.00000E+00         0.00000E+00
 
    0.38021E+06         0.14003E+06         0.00000E+00
    0.14003E+06        -0.38470E+06         0.00000E+00
    0.00000E+00         0.00000E+00         0.00000E+00
 
    0.32158E+06         0.17791E+06         0.00000E+00
    0.17791E+06        -0.32608E+06         0.00000E+00
    0.00000E+00         0.00000E+00         0.00000E+00
 
    0.23914E+06         0.19191E+06         0.00000E+00
    0.19191E+06        -0.24260E+06         0.00000E+00
    0.00000E+00         0.00000E+00         0.00000E+00
 
    0.14145E+06         0.16517E+06         0.00000E+00
    0.16517E+06        -0.14228E+06         0.00000E+00
    0.00000E+00         0.00000E+00         0.00000E+00
 
    0.45180E+05         0.83967E+05         0.00000E+00
    0.83967E+05        -0.48838E+05         0.00000E+00
    0.00000E+00         0.00000E+00         0.00000E+00
 
    0.84434E+06         0.24006E+05         0.00000E+00
    0.24006E+05        -0.80782E+06         0.00000E+00
    0.00000E+00         0.00000E+00         0.00000E+00
 
    0.69561E+06         0.45376E+05         0.00000E+00
    0.45376E+05        -0.69355E+06         0.00000E+00
    0.00000E+00         0.00000E+00         0.00000E+00
 
    0.57826E+06         0.31161E+05         0.00000E+00
    0.31161E+05        -0.57449E+06         0.00000E+00
    0.00000E+00         0.00000E+00         0.00000E+00
 
    0.49998E+06        -0.58950E+04         0.00000E+00
   -0.58950E+04        -0.49567E+06         0.00000E+00
    0.00000E+00         0.00000E+00         0.00000E+00
 
    0.46173E+06        -0.48467E+05         0.00000E+00
   -0.48467E+05        -0.45854E+06         0.00000E+00
    0.00000E+00         0.00000E+00         0.00000E+00
 
    0.45760E+06        -0.80933E+05         0.00000E+00
   -0.80933E+05        -0.45592E+06         0.00000E+00
    0.00000E+00         0.00000E+00         0.00000E+00
 
    0.47658E+06        -0.92100E+05         0.00000E+00
   -0.92100E+05        -0.47665E+06         0.00000E+00
    0.00000E+00         0.00000E+00         0.00000E+00
 
    0.50501E+06        -0.76293E+05         0.00000E+00
   -0.76293E+05        -0.50686E+06         0.00000E+00
    0.00000E+00         0.00000E+00         0.00000E+00
 
    0.52853E+06        -0.33420E+05         0.00000E+00
   -0.33420E+05        -0.53205E+06         0.00000E+00
    0.00000E+00         0.00000E+00         0.00000E+00
 
    0.53352E+06         0.31222E+05         0.00000E+00
    0.31222E+05        -0.53847E+06         0.00000E+00
    0.00000E+00         0.00000E+00         0.00000E+00
 
    0.50846E+06         0.10692E+06         0.00000E+00
    0.10692E+06        -0.51442E+06         0.00000E+00
    0.00000E+00         0.00000E+00         0.00000E+00
 
    0.44582E+06         0.17750E+06         0.00000E+00
    0.17750E+06        -0.45212E+06         0.00000E+00
    0.00000E+00         0.00000E+00         0.00000E+00
 
    0.34455E+06         0.22198E+06         0.00000E+00
    0.22198E+06        -0.34982E+06         0.00000E+00
    0.00000E+00         0.00000E+00         0.00000E+00
 
    0.21297E+06         0.21636E+06         0.00000E+00
    0.21636E+06        -0.21486E+06         0.00000E+00
    0.00000E+00         0.00000E+00         0.00000E+00
 
    0.70656E+05         0.13952E+06         0.00000E+00
    0.13952E+06        -0.78436E+05         0.00000E+00
    0.00000E+00         0.00000E+00         0.00000E+00
 
    0.86345E+06         0.17405E+05         0.00000E+00
    0.17405E+05        -0.82140E+06         0.00000E+00
    0.00000E+00         0.00000E+00         0.00000E+00
 
    0.69291E+06         0.18797E+05         0.00000E+00
    0.18797E+05        -0.68994E+06         0.00000E+00
    0.00000E+00         0.00000E+00         0.00000E+00
 
    0.56386E+06        -0.24010E+05         0.00000E+00
   -0.24010E+05        -0.55861E+06         0.00000E+00
    0.00000E+00         0.00000E+00         0.00000E+00
 
    0.48811E+06        -0.92315E+05         0.00000E+00
   -0.92315E+05        -0.48238E+06         0.00000E+00
    0.00000E+00         0.00000E+00         0.00000E+00
 
    0.46621E+06        -0.16170E+06         0.00000E+00
   -0.16170E+06        -0.46216E+06         0.00000E+00
    0.00000E+00         0.00000E+00         0.00000E+00
 
    0.48856E+06        -0.21147E+06         0.00000E+00
   -0.21147E+06        -0.48659E+06         0.00000E+00
    0.00000E+00         0.00000E+00         0.00000E+00
 
    0.53932E+06        -0.22824E+06         0.00000E+00
   -0.22824E+06        -0.53950E+06         0.00000E+00
    0.00000E+00         0.00000E+00         0.00000E+00
 
    0.60041E+06        -0.20610E+06         0.00000E+00
   -0.20610E+06        -0.60261E+06         0.00000E+00
    0.00000E+00         0.00000E+00         0.00000E+00
 
    0.65379E+06        -0.14560E+06         0.00000E+00
   -0.14560E+06        -0.65785E+06         0.00000E+00
    0.00000E+00         0.00000E+00         0.00000E+00
 
    0.68229E+06        -0.52875E+05         0.00000E+00
   -0.52875E+05        -0.68813E+06         0.00000E+00
    0.00000E+00         0.00000E+00         0.00000E+00
 
    0.67035E+06         0.59918E+05         0.00000E+00
    0.59918E+05        -0.67770E+06         0.00000E+00
    0.00000E+00         0.00000E+00         0.00000E+00
 
    0.60573E+06         0.17349E+06         0.00000E+00
    0.17349E+06        -0.61403E+06         0.00000E+00
    0.00000E+00         0.00000E+00         0.00000E+00
 
    0.48308E+06         0.26076E+06         0.00000E+00
    0.26076E+06        -0.49059E+06         0.00000E+00
    0.00000E+00         0.00000E+00         0.00000E+00
 
    0.30887E+06         0.28830E+06         0.00000E+00
    0.28830E+06        -0.31215E+06         0.00000E+00
    0.00000E+00         0.00000E+00         0.00000E+00
 
    0.10529E+06         0.22443E+06         0.00000E+00
    0.22443E+06        -0.11889E+06         0.00000E+00
    0.00000E+00         0.00000E+00         0.00000E+00
 
    0.87540E+06         0.10436E+05         0.00000E+00
    0.10436E+05        -0.82554E+06         0.00000E+00
    0.00000E+00         0.00000E+00         0.00000E+00
 
    0.67620E+06        -0.13884E+05         0.00000E+00
   -0.13884E+05        -0.67171E+06         0.00000E+00
    0.00000E+00         0.00000E+00         0.00000E+00
 
    0.53312E+06        -0.95496E+05         0.00000E+00
   -0.95496E+05        -0.52576E+06         0.00000E+00
    0.00000E+00         0.00000E+00         0.00000E+00
 
    0.46370E+06        -0.20548E+06         0.00000E+00
   -0.20548E+06        -0.45634E+06         0.00000E+00
    0.00000E+00         0.00000E+00         0.00000E+00
 
    0.46631E+06        -0.30829E+06         0.00000E+00
   -0.30829E+06        -0.46172E+06         0.00000E+00
    0.00000E+00         0.00000E+00         0.00000E+00
 
    0.52432E+06        -0.37727E+06         0.00000E+00
   -0.37727E+06        -0.52260E+06         0.00000E+00
    0.00000E+00         0.00000E+00         0.00000E+00
 
    0.61482E+06        -0.39824E+06         0.00000E+00
   -0.39824E+06        -0.61554E+06         0.00000E+00
    0.00000E+00         0.00000E+00         0.00000E+00
 
    0.71488E+06        -0.36702E+06         0.00000E+00
   -0.36702E+06        -0.71755E+06         0.00000E+00
    0.00000E+00         0.00000E+00         0.00000E+00
 
    0.80366E+06        -0.28572E+06         0.00000E+00
   -0.28572E+06        -0.80810E+06         0.00000E+00
    0.00000E+00         0.00000E+00         0.00000E+00
 
    0.86149E+06        -0.16080E+06         0.00000E+00
   -0.16080E+06        -0.86790E+06         0.00000E+00
    0.00000E+00         0.00000E+00         0.00000E+00
 
    0.86868E+06        -0.41433E+04         0.00000E+00
   -0.41433E+04        -0.87724E+06         0.00000E+00
    0.00000E+00         0.00000E+00         0.00000E+00
 
    0.80639E+06         0.16353E+06         0.00000E+00
    0.16353E+06        -0.81698E+06         0.00000E+00
    0.00000E+00         0.00000E+00         0.00000E+00
 
    0.66152E+06         0.30908E+06         0.00000E+00
    0.30908E+06        -0.67206E+06         0.00000E+00
    0.00000E+00         0.00000E+00         0.00000E+00
 
    0.43527E+06         0.38669E+06         0.00000E+00
    0.38669E+06        -0.44079E+06         0.00000E+00
    0.00000E+00         0.00000E+00         0.00000E+00
 
    0.15158E+06         0.34886E+06         0.00000E+00
    0.34886E+06        -0.17351E+06         0.00000E+00
    0.00000E+00         0.00000E+00         0.00000E+00
 
    0.87923E+06         0.32082E+04         0.00000E+00
    0.32082E+04        -0.81941E+06         0.00000E+00
    0.00000E+00         0.00000E+00         0.00000E+00
 
    0.64018E+06        -0.54093E+05         0.00000E+00
   -0.54093E+05        -0.63420E+06         0.00000E+00
    0.00000E+00         0.00000E+00         0.00000E+00
 
    0.48075E+06        -0.19001E+06         0.00000E+00
   -0.19001E+06        -0.47148E+06         0.00000E+00
    0.00000E+00         0.00000E+00         0.00000E+00
 
    0.42612E+06        -0.35499E+06         0.00000E+00
   -0.35499E+06        -0.41825E+06         0.00000E+00
    0.00000E+00         0.00000E+00         0.00000E+00
 
    0.46651E+06        -0.49601E+06         0.00000E+00
   -0.49601E+06        -0.46314E+06         0.00000E+00
    0.00000E+00         0.00000E+00         0.00000E+00
 
    0.57167E+06        -0.58148E+06         0.00000E+00
   -0.58148E+06        -0.57208E+06         0.00000E+00
    0.00000E+00         0.00000E+00         0.00000E+00
 
    0.70872E+06        -0.60083E+06         0.00000E+00
   -0.60083E+06        -0.71145E+06         0.00000E+00
    0.00000E+00         0.00000E+00         0.00000E+00
 
    0.85077E+06        -0.55562E+06         0.00000E+00
   -0.55562E+06        -0.85473E+06         0.00000E+00
    0.00000E+00         0.00000E+00         0.00000E+00
 
    0.97707E+06        -0.45112E+06         0.00000E+00
   -0.45112E+06        -0.98209E+06         0.00000E+00
    0.00000E+00         0.00000E+00         0.00000E+00
 
    0.10684E+07        -0.29290E+06         0.00000E+00
   -0.29290E+06        -0.10752E+07         0.00000E+00
    0.00000E+00         0.00000E+00         0.00000E+00
 
    0.11021E+07        -0.88984E+05         0.00000E+00
   -0.88984E+05        -0.11118E+07         0.00000E+00
    0.00000E+00         0.00000E+00         0.00000E+00
 
    0.10506E+07         0.14281E+06         0.00000E+00
    0.14281E+06        -0.10641E+07         0.00000E+00
    0.00000E+00         0.00000E+00         0.00000E+00
 
    0.88710E+06         0.36549E+06         0.00000E+00
    0.36549E+06        -0.90220E+06         0.00000E+00
    0.00000E+00         0.00000E+00         0.00000E+00
 
    0.60050E+06         0.51732E+06         0.00000E+00
    0.51732E+06        -0.60987E+06         0.00000E+00
    0.00000E+00         0.00000E+00         0.00000E+00
 
    0.21331E+06         0.52583E+06         0.00000E+00
    0.52583E+06        -0.24708E+06         0.00000E+00
    0.00000E+00         0.00000E+00         0.00000E+00
 
    0.86986E+06        -0.25436E+04         0.00000E+00
   -0.25436E+04        -0.80024E+06         0.00000E+00
    0.00000E+00         0.00000E+00         0.00000E+00
 
    0.57726E+06        -0.10788E+06         0.00000E+00
   -0.10788E+06        -0.56830E+06         0.00000E+00
    0.00000E+00         0.00000E+00         0.00000E+00
 
    0.40512E+06        -0.32345E+06         0.00000E+00
   -0.32345E+06        -0.39292E+06         0.00000E+00
    0.00000E+00         0.00000E+00         0.00000E+00
 
    0.38466E+06        -0.55739E+06         0.00000E+00
   -0.55739E+06        -0.37620E+06         0.00000E+00
    0.00000E+00         0.00000E+00         0.00000E+00
 
    0.48385E+06        -0.73403E+06         0.00000E+00
   -0.73403E+06        -0.48293E+06         0.00000E+00
    0.00000E+00         0.00000E+00         0.00000E+00
 
    0.64882E+06        -0.82274E+06         0.00000E+00
   -0.82274E+06        -0.65240E+06         0.00000E+00
    0.00000E+00         0.00000E+00         0.00000E+00
 
    0.83425E+06        -0.82652E+06         0.00000E+00
   -0.82652E+06        -0.83897E+06         0.00000E+00
    0.00000E+00         0.00000E+00         0.00000E+00
 
    0.10133E+07        -0.75930E+06         0.00000E+00
   -0.75930E+06        -0.10175E+07         0.00000E+00
    0.00000E+00         0.00000E+00         0.00000E+00
 
    0.11716E+07        -0.63129E+06         0.00000E+00
   -0.63129E+06        -0.11752E+07         0.00000E+00
    0.00000E+00         0.00000E+00         0.00000E+00
 
    0.12959E+07        -0.44488E+06         0.00000E+00
   -0.44488E+06        -0.13004E+07         0.00000E+00
    0.00000E+00         0.00000E+00         0.00000E+00
 
    0.13641E+07        -0.19846E+06         0.00000E+00
   -0.19846E+06        -0.13722E+07         0.00000E+00
    0.00000E+00         0.00000E+00         0.00000E+00
 
    0.13384E+07         0.10203E+06         0.00000E+00
    0.10203E+06        -0.13532E+07         0.00000E+00
    0.00000E+00         0.00000E+00         0.00000E+00
 
    0.11689E+07         0.42307E+06         0.00000E+00
    0.42307E+06        -0.11890E+07         0.00000E+00
    0.00000E+00         0.00000E+00         0.00000E+00
 
    0.81772E+06         0.68443E+06         0.00000E+00
    0.68443E+06        -0.83272E+06         0.00000E+00
    0.00000E+00         0.00000E+00         0.00000E+00
 
    0.29688E+06         0.77276E+06         0.00000E+00
    0.77276E+06        -0.34794E+06         0.00000E+00
    0.00000E+00         0.00000E+00         0.00000E+00
 
    0.87715E+06        -0.82863E+04         0.00000E+00
   -0.82863E+04        -0.74807E+06         0.00000E+00
    0.00000E+00         0.00000E+00         0.00000E+00
 
    0.49534E+06        -0.19769E+06         0.00000E+00
   -0.19769E+06        -0.46858E+06         0.00000E+00
    0.00000E+00         0.00000E+00         0.00000E+00
 
    0.32168E+06        -0.52588E+06         0.00000E+00
   -0.52588E+06        -0.29492E+06         0.00000E+00
    0.00000E+00         0.00000E+00         0.00000E+00
 
    0.37010E+06        -0.83894E+06         0.00000E+00
   -0.83894E+06        -0.35637E+06         0.00000E+00
    0.00000E+00         0.00000E+00         0.00000E+00
 
    0.55949E+06        -0.10291E+07         0.00000E+00
   -0.10291E+07        -0.55859E+06         0.00000E+00
    0.00000E+00         0.00000E+00         0.00000E+00
 
    0.79267E+06        -0.10875E+07         0.00000E+00
   -0.10875E+07        -0.79480E+06         0.00000E+00
    0.00000E+00         0.00000E+00         0.00000E+00
 
    0.10152E+07        -0.10506E+07         0.00000E+00
   -0.10506E+07        -0.10152E+07         0.00000E+00
    0.00000E+00         0.00000E+00         0.00000E+00
 
    0.12116E+07        -0.95095E+06         0.00000E+00
   -0.95095E+06        -0.12082E+07         0.00000E+00
    0.00000E+00         0.00000E+00         0.00000E+00
 
    0.13831E+07        -0.80305E+06         0.00000E+00
   -0.80305E+06        -0.13768E+07         0.00000E+00
    0.00000E+00         0.00000E+00         0.00000E+00
 
    0.15302E+07        -0.60337E+06         0.00000E+00
   -0.60337E+06        -0.15229E+07         0.00000E+00
    0.00000E+00         0.00000E+00         0.00000E+00
 
    0.16386E+07        -0.33419E+06         0.00000E+00
   -0.33419E+06        -0.16343E+07         0.00000E+00
    0.00000E+00         0.00000E+00         0.00000E+00
 
    0.16632E+07         0.24715E+05         0.00000E+00
    0.24715E+05        -0.16693E+07         0.00000E+00
    0.00000E+00         0.00000E+00         0.00000E+00
 
    0.15191E+07         0.46369E+06         0.00000E+00
    0.46369E+06        -0.15387E+07         0.00000E+00
    0.00000E+00         0.00000E+00         0.00000E+00
 
    0.11106E+07         0.88840E+06         0.00000E+00
    0.88840E+06        -0.11304E+07         0.00000E+00
    0.00000E+00         0.00000E+00         0.00000E+00
 
    0.41475E+06         0.11153E+07         0.00000E+00
    0.11153E+07        -0.49175E+06         0.00000E+00
    0.00000E+00         0.00000E+00         0.00000E+00
 
    0.82339E+06        -0.36986E+05         0.00000E+00
   -0.36986E+05        -0.70041E+06         0.00000E+00
    0.00000E+00         0.00000E+00         0.00000E+00
 
    0.31505E+06        -0.34316E+06         0.00000E+00
   -0.34316E+06        -0.31930E+06         0.00000E+00
    0.00000E+00         0.00000E+00         0.00000E+00
 
    0.17869E+06        -0.86001E+06         0.00000E+00
   -0.86001E+06        -0.19603E+06         0.00000E+00
    0.00000E+00         0.00000E+00         0.00000E+00
 
    0.38509E+06        -0.12395E+07         0.00000E+00
   -0.12395E+07        -0.43281E+06         0.00000E+00
    0.00000E+00         0.00000E+00         0.00000E+00
 
    0.70652E+06        -0.13690E+07         0.00000E+00
   -0.13690E+07        -0.76241E+06         0.00000E+00
    0.00000E+00         0.00000E+00         0.00000E+00
 
    0.99348E+06        -0.13350E+07         0.00000E+00
   -0.13350E+07        -0.10432E+07         0.00000E+00
    0.00000E+00         0.00000E+00         0.00000E+00
 
    0.12162E+07        -0.12255E+07         0.00000E+00
   -0.12255E+07        -0.12581E+07         0.00000E+00
    0.00000E+00         0.00000E+00         0.00000E+00
 
    0.13905E+07        -0.10852E+07         0.00000E+00
   -0.10852E+07        -0.14257E+07         0.00000E+00
    0.00000E+00         0.00000E+00         0.00000E+00
 
    0.15405E+07        -0.92685E+06         0.00000E+00
   -0.92685E+06        -0.15702E+07         0.00000E+00
    0.00000E+00         0.00000E+00         0.00000E+00
 
    0.16850E+07        -0.73894E+06         0.00000E+00
   -0.73894E+06        -0.17107E+07         0.00000E+00
    0.00000E+00         0.00000E+00         0.00000E+00
 
    0.18278E+07        -0.48717E+06         0.00000E+00
   -0.48717E+06        -0.18524E+07         0.00000E+00
    0.00000E+00         0.00000E+00         0.00000E+00
 
    0.19339E+07        -0.11275E+06         0.00000E+00
   -0.11275E+06        -0.19683E+07         0.00000E+00
    0.00000E+00         0.00000E+00         0.00000E+00
 
    0.18864E+07         0.44034E+06         0.00000E+00
    0.44034E+06        -0.19433E+07         0.00000E+00
    0.00000E+00         0.00000E+00         0.00000E+00
 
    0.14772E+07         0.11101E+07         0.00000E+00
    0.11101E+07        -0.15437E+07         0.00000E+00
    0.00000E+00         0.00000E+00         0.00000E+00
 
    0.57573E+06         0.15876E+07         0.00000E+00
    0.15876E+07        -0.70794E+06         0.00000E+00
    0.00000E+00         0.00000E+00         0.00000E+00
 
    0.66694E+06        -0.13685E+05         0.00000E+00
   -0.13685E+05        -0.54028E+06         0.00000E+00
    0.00000E+00         0.00000E+00         0.00000E+00
 
    0.74752E+05        -0.70170E+06         0.00000E+00
   -0.70170E+06        -0.16588E+05         0.00000E+00
    0.00000E+00         0.00000E+00         0.00000E+00
 
    0.22376E+06        -0.15096E+07         0.00000E+00
   -0.15096E+07        -0.25315E+06         0.00000E+00
    0.00000E+00         0.00000E+00         0.00000E+00
 
    0.75018E+06        -0.17652E+07         0.00000E+00
   -0.17652E+07        -0.79117E+06         0.00000E+00
    0.00000E+00         0.00000E+00         0.00000E+00
 
    0.11734E+07        -0.16729E+07         0.00000E+00
   -0.16729E+07        -0.11941E+07         0.00000E+00
    0.00000E+00         0.00000E+00         0.00000E+00
 
    0.14311E+07        -0.14782E+07         0.00000E+00
   -0.14782E+07        -0.14343E+07         0.00000E+00
    0.00000E+00         0.00000E+00         0.00000E+00
 
    0.15804E+07        -0.12785E+07         0.00000E+00
   -0.12785E+07        -0.15721E+07         0.00000E+00
    0.00000E+00         0.00000E+00         0.00000E+00
 
    0.16754E+07        -0.11024E+07         0.00000E+00
   -0.11024E+07        -0.16597E+07         0.00000E+00
    0.00000E+00         0.00000E+00         0.00000E+00
 
    0.17568E+07        -0.94908E+06         0.00000E+00
   -0.94908E+06        -0.17356E+07         0.00000E+00
    0.00000E+00         0.00000E+00         0.00000E+00
 
    0.18562E+07        -0.80029E+06         0.00000E+00
   -0.80029E+06        -0.18295E+07         0.00000E+00
    0.00000E+00         0.00000E+00         0.00000E+00
 
    0.19975E+07        -0.61572E+06         0.00000E+00
   -0.61572E+06        -0.19653E+07         0.00000E+00
    0.00000E+00         0.00000E+00         0.00000E+00
 
    0.21852E+07        -0.31363E+06         0.00000E+00
   -0.31363E+06        -0.21535E+07         0.00000E+00
    0.00000E+00         0.00000E+00         0.00000E+00
 
    0.23269E+07         0.26480E+06         0.00000E+00
    0.26480E+06        -0.23242E+07         0.00000E+00
    0.00000E+00         0.00000E+00         0.00000E+00
 
    0.20682E+07         0.12438E+07         0.00000E+00
    0.12438E+07        -0.21174E+07         0.00000E+00
    0.00000E+00         0.00000E+00         0.00000E+00
 
    0.88591E+06         0.22519E+07         0.00000E+00
    0.22519E+07        -0.11030E+07         0.00000E+00
    0.00000E+00         0.00000E+00         0.00000E+00
 
    0.15195E+07        -0.16842E+06         0.00000E+00
   -0.16842E+06         0.51749E+06         0.00000E+00
    0.00000E+00         0.00000E+00         0.00000E+00
 
    0.60709E+06        -0.20119E+07         0.00000E+00
   -0.20119E+07        -0.77239E+05         0.00000E+00
    0.00000E+00         0.00000E+00         0.00000E+00
 
    0.14567E+07        -0.24996E+07         0.00000E+00
   -0.24996E+07        -0.10812E+07         0.00000E+00
    0.00000E+00         0.00000E+00         0.00000E+00
 
    0.21113E+07        -0.21495E+07         0.00000E+00
   -0.21495E+07        -0.16644E+07         0.00000E+00
    0.00000E+00         0.00000E+00         0.00000E+00
 
    0.23605E+07        -0.17251E+07         0.00000E+00
   -0.17251E+07        -0.18953E+07         0.00000E+00
    0.00000E+00         0.00000E+00         0.00000E+00
 
    0.24203E+07        -0.13797E+07         0.00000E+00
   -0.13797E+07        -0.19468E+07         0.00000E+00
    0.00000E+00         0.00000E+00         0.00000E+00
 
    0.24004E+07        -0.11251E+07         0.00000E+00
   -0.11251E+07        -0.19261E+07         0.00000E+00
    0.00000E+00         0.00000E+00         0.00000E+00
 
    0.23589E+07        -0.94364E+06         0.00000E+00
   -0.94364E+06        -0.18863E+07         0.00000E+00
    0.00000E+00         0.00000E+00         0.00000E+00
 
    0.23282E+07        -0.81516E+06         0.00000E+00
   -0.81516E+06        -0.18580E+07         0.00000E+00
    0.00000E+00         0.00000E+00         0.00000E+00
 
    0.23342E+07        -0.71896E+06         0.00000E+00
   -0.71896E+06        -0.18655E+07         0.00000E+00
    0.00000E+00         0.00000E+00         0.00000E+00
 
    0.24072E+07        -0.62449E+06         0.00000E+00
   -0.62449E+06        -0.19378E+07         0.00000E+00
    0.00000E+00         0.00000E+00         0.00000E+00
 
    0.25859E+07        -0.46544E+06         0.00000E+00
   -0.46544E+06        -0.21189E+07         0.00000E+00
    0.00000E+00         0.00000E+00         0.00000E+00
 
    0.29070E+07        -0.64748E+05         0.00000E+00
   -0.64748E+05        -0.24465E+07         0.00000E+00
    0.00000E+00         0.00000E+00         0.00000E+00
 
    0.30352E+07         0.10949E+07         0.00000E+00
    0.10949E+07        -0.27475E+07         0.00000E+00
    0.00000E+00         0.00000E+00         0.00000E+00
 
    0.14817E+07         0.32612E+07         0.00000E+00
    0.32612E+07        -0.19803E+07         0.00000E+00
    0.00000E+00         0.00000E+00         0.00000E+00
 
    0.71841E+06        -0.25056E+07         0.00000E+00
   -0.25056E+07        -0.41899E+06         0.00000E+00
    0.00000E+00         0.00000E+00         0.00000E+00
 
    0.27750E+06        -0.38782E+07         0.00000E+00
   -0.38782E+07        -0.27163E+07         0.00000E+00
    0.00000E+00         0.00000E+00         0.00000E+00
 
    0.12295E+07        -0.26673E+07         0.00000E+00
   -0.26673E+07        -0.30848E+07         0.00000E+00
    0.00000E+00         0.00000E+00         0.00000E+00
 
    0.12061E+07        -0.17872E+07         0.00000E+00
   -0.17872E+07        -0.29293E+07         0.00000E+00
    0.00000E+00         0.00000E+00         0.00000E+00
 
    0.10031E+07        -0.12568E+07         0.00000E+00
   -0.12568E+07        -0.26916E+07         0.00000E+00
    0.00000E+00         0.00000E+00         0.00000E+00
 
    0.77566E+06        -0.92959E+06         0.00000E+00
   -0.92959E+06        -0.24500E+07         0.00000E+00
    0.00000E+00         0.00000E+00         0.00000E+00
 
    0.57289E+06        -0.72292E+06         0.00000E+00
   -0.72292E+06        -0.22397E+07         0.00000E+00
    0.00000E+00         0.00000E+00         0.00000E+00
 
    0.40572E+06        -0.59048E+06         0.00000E+00
   -0.59048E+06        -0.20674E+07         0.00000E+00
    0.00000E+00         0.00000E+00         0.00000E+00
 
    0.27834E+06        -0.50630E+06         0.00000E+00
   -0.50630E+06        -0.19345E+07         0.00000E+00
    0.00000E+00         0.00000E+00         0.00000E+00
 
    0.19862E+06        -0.45392E+06         0.00000E+00
   -0.45392E+06        -0.18468E+07         0.00000E+00
    0.00000E+00         0.00000E+00         0.00000E+00
 
    0.18723E+06        -0.41729E+06         0.00000E+00
   -0.41729E+06        -0.18212E+07         0.00000E+00
    0.00000E+00         0.00000E+00         0.00000E+00
 
    0.29603E+06        -0.36364E+06         0.00000E+00
   -0.36364E+06        -0.19025E+07         0.00000E+00
    0.00000E+00         0.00000E+00         0.00000E+00
 
    0.63487E+06        -0.19174E+06         0.00000E+00
   -0.19174E+06        -0.21804E+07         0.00000E+00
    0.00000E+00         0.00000E+00         0.00000E+00
 
    0.15422E+07         0.57309E+06         0.00000E+00
    0.57309E+06        -0.28771E+07         0.00000E+00
    0.00000E+00         0.00000E+00         0.00000E+00
 
    0.11022E+07         0.43228E+07         0.00000E+00
    0.43228E+07        -0.36672E+07         0.00000E+00
    0.00000E+00         0.00000E+00         0.00000E+00
 
   -0.19076E+08        -0.46246E+07         0.00000E+00
   -0.46246E+07        -0.10067E+08         0.00000E+00
    0.00000E+00         0.00000E+00         0.00000E+00
 
   -0.14248E+08        -0.20999E+07         0.00000E+00
   -0.20999E+07        -0.69162E+07         0.00000E+00
    0.00000E+00         0.00000E+00         0.00000E+00
 
   -0.14207E+08        -0.99296E+06         0.00000E+00
   -0.99296E+06        -0.49426E+07         0.00000E+00
    0.00000E+00         0.00000E+00         0.00000E+00
 
   -0.14386E+08        -0.58456E+06         0.00000E+00
   -0.58456E+06        -0.38641E+07         0.00000E+00
    0.00000E+00         0.00000E+00         0.00000E+00
 
   -0.14568E+08        -0.38005E+06         0.00000E+00
   -0.38005E+06        -0.32020E+07         0.00000E+00
    0.00000E+00         0.00000E+00         0.00000E+00
 
   -0.14712E+08        -0.26929E+06         0.00000E+00
   -0.26929E+06        -0.27469E+07         0.00000E+00
    0.00000E+00         0.00000E+00         0.00000E+00
 
   -0.14816E+08        -0.20282E+06         0.00000E+00
   -0.20282E+06        -0.24150E+07         0.00000E+00
    0.00000E+00         0.00000E+00         0.00000E+00
 
   -0.14882E+08        -0.16070E+06         0.00000E+00
   -0.16070E+06        -0.21640E+07         0.00000E+00
    0.00000E+00         0.00000E+00         0.00000E+00
 
   -0.14905E+08        -0.13286E+06         0.00000E+00
   -0.13286E+06        -0.19711E+07         0.00000E+00
    0.00000E+00         0.00000E+00         0.00000E+00
 
   -0.14872E+08        -0.11305E+06         0.00000E+00
   -0.11305E+06        -0.18270E+07         0.00000E+00
    0.00000E+00         0.00000E+00         0.00000E+00
 
   -0.14747E+08        -0.95089E+05         0.00000E+00
   -0.95089E+05        -0.17357E+07         0.00000E+00
    0.00000E+00         0.00000E+00         0.00000E+00
 
   -0.14449E+08        -0.68328E+05         0.00000E+00
   -0.68328E+05        -0.17258E+07         0.00000E+00
    0.00000E+00         0.00000E+00         0.00000E+00
 
   -0.13764E+08         0.75244E+04         0.00000E+00
    0.75244E+04        -0.18805E+07         0.00000E+00
    0.00000E+00         0.00000E+00         0.00000E+00
 
   -0.12053E+08         0.23419E+06         0.00000E+00
    0.23419E+06        -0.24885E+07         0.00000E+00
    0.00000E+00         0.00000E+00         0.00000E+00
 
   -0.54108E+07         0.24599E+07         0.00000E+00
    0.24599E+07        -0.52321E+07         0.00000E+00
    0.00000E+00         0.00000E+00         0.00000E+00
 
TENSORS stresstot double 
   -0.59283E+08         0.11623E+04         0.00000E+00
    0.11623E+04        -0.59999E+08         0.00000E+00
    0.00000E+00         0.00000E+00        -0.59642E+08
 
   -0.59298E+08         0.39650E+04         0.00000E+00
    0.39650E+04        -0.59994E+08         0.00000E+00
    0.00000E+00         0.00000E+00        -0.59646E+08
 
   -0.59324E+08         0.62313E+04         0.00000E+00
    0.62313E+04        -0.59983E+08         0.00000E+00
    0.00000E+00         0.00000E+00        -0.59654E+08
 
   -0.59357E+08         0.79330E+04         0.00000E+00
    0.79330E+04        -0.59969E+08         0.00000E+00
    0.00000E+00         0.00000E+00        -0.59664E+08
 
   -0.59396E+08         0.91049E+04         0.00000E+00
    0.91049E+04        -0.59952E+08         0.00000E+00
    0.00000E+00         0.00000E+00        -0.59674E+08
 
   -0.59438E+08         0.97840E+04         0.00000E+00
    0.97840E+04        -0.59933E+08         0.00000E+00
    0.00000E+00         0.00000E+00        -0.59686E+08
 
   -0.59483E+08         0.10015E+05         0.00000E+00
    0.10015E+05        -0.59913E+08         0.00000E+00
    0.00000E+00         0.00000E+00        -0.59699E+08
 
   -0.59529E+08         0.98516E+04         0.00000E+00
    0.98516E+04        -0.59893E+08         0.00000E+00
    0.00000E+00         0.00000E+00        -0.59712E+08
 
   -0.59573E+08         0.93526E+04         0.00000E+00
    0.93526E+04        -0.59874E+08         0.00000E+00
    0.00000E+00         0.00000E+00        -0.59724E+08
 
   -0.59615E+08         0.85880E+04         0.00000E+00
    0.85880E+04        -0.59856E+08         0.00000E+00
    0.00000E+00         0.00000E+00        -0.59737E+08
 
   -0.59654E+08         0.76382E+04         0.00000E+00
    0.76382E+04        -0.59840E+08         0.00000E+00
    0.00000E+00         0.00000E+00        -0.59748E+08
 
   -0.59690E+08         0.65976E+04         0.00000E+00
    0.65976E+04        -0.59826E+08         0.00000E+00
    0.00000E+00         0.00000E+00        -0.59759E+08
 
   -0.59722E+08         0.55801E+04         0.00000E+00
    0.55801E+04        -0.59814E+08         0.00000E+00
    0.00000E+00         0.00000E+00        -0.59769E+08
 
   -0.59751E+08         0.47340E+04         0.00000E+00
    0.47340E+04        -0.59803E+08         0.00000E+00
    0.00000E+00         0.00000E+00        -0.59778E+08
 
   -0.59777E+08         0.44348E+04         0.00000E+00
    0.44348E+04        -0.59794E+08         0.00000E+00
    0.00000E+00         0.00000E+00        -0.59786E+08
 
   -0.59277E+08         0.42548E+04         0.00000E+00
    0.42548E+04        -0.59998E+08         0.00000E+00
    0.00000E+00         0.00000E+00        -0.59638E+08
 
   -0.59293E+08         0.12190E+05         0.00000E+00
    0.12190E+05        -0.59993E+08         0.00000E+00
    0.00000E+00         0.00000E+00        -0.59643E+08
 
   -0.59320E+08         0.18830E+05         0.00000E+00
    0.18830E+05        -0.59982E+08         0.00000E+00
    0.00000E+00         0.00000E+00        -0.59651E+08
 
   -0.59354E+08         0.23881E+05         0.00000E+00
    0.23881E+05        -0.59968E+08         0.00000E+00
    0.00000E+00         0.00000E+00        -0.59661E+08
 
   -0.59394E+08         0.27370E+05         0.00000E+00
    0.27370E+05        -0.59950E+08         0.00000E+00
    0.00000E+00         0.00000E+00        -0.59672E+08
 
   -0.59438E+08         0.29392E+05         0.00000E+00
    0.29392E+05        -0.59931E+08         0.00000E+00
    0.00000E+00         0.00000E+00        -0.59684E+08
 
   -0.59483E+08         0.30077E+05         0.00000E+00
    0.30077E+05        -0.59911E+08         0.00000E+00
    0.00000E+00         0.00000E+00        -0.59697E+08
 
   -0.59529E+08         0.29578E+05         0.00000E+00
    0.29578E+05        -0.59892E+08         0.00000E+00
    0.00000E+00         0.00000E+00        -0.59711E+08
 
   -0.59574E+08         0.28075E+05         0.00000E+00
    0.28075E+05        -0.59872E+08         0.00000E+00
    0.00000E+00         0.00000E+00        -0.59723E+08
 
   -0.59617E+08         0.25774E+05         0.00000E+00
    0.25774E+05        -0.59854E+08         0.00000E+00
    0.00000E+00         0.00000E+00        -0.59736E+08
 
   -0.59656E+08         0.22915E+05         0.00000E+00
    0.22915E+05        -0.59838E+08         0.00000E+00
    0.00000E+00         0.00000E+00        -0.59748E+08
 
   -0.59692E+08         0.19781E+05         0.00000E+00
    0.19781E+05        -0.59824E+08         0.00000E+00
    0.00000E+00         0.00000E+00        -0.59758E+08
 
   -0.59724E+08         0.16714E+05         0.00000E+00
    0.16714E+05        -0.59812E+08         0.00000E+00
    0.00000E+00         0.00000E+00        -0.59768E+08
 
   -0.59753E+08         0.14169E+05         0.00000E+00
    0.14169E+05        -0.59801E+08         0.00000E+00
    0.00000E+00         0.00000E+00        -0.59777E+08
 
   -0.59777E+08         0.12857E+05         0.00000E+00
    0.12857E+05        -0.59793E+08         0.00000E+00
    0.00000E+00         0.00000E+00        -0.59785E+08
 
   -0.59266E+08         0.74693E+04         0.00000E+00
    0.74693E+04        -0.59999E+08         0.00000E+00
    0.00000E+00         0.00000E+00        -0.59632E+08
 
   -0.59284E+08         0.20798E+05         0.00000E+00
    0.20798E+05        -0.59993E+08         0.00000E+00
    0.00000E+00         0.00000E+00        -0.59638E+08
 
   -0.59312E+08         0.31705E+05         0.00000E+00
    0.31705E+05        -0.59982E+08         0.00000E+00
    0.00000E+00         0.00000E+00        -0.59647E+08
 
   -0.59348E+08         0.40021E+05         0.00000E+00
    0.40021E+05        -0.59967E+08         0.00000E+00
    0.00000E+00         0.00000E+00        -0.59657E+08
 
   -0.59390E+08         0.45774E+05         0.00000E+00
    0.45774E+05        -0.59950E+08         0.00000E+00
    0.00000E+00         0.00000E+00        -0.59670E+08
 
   -0.59436E+08         0.49104E+05         0.00000E+00
    0.49104E+05        -0.59931E+08         0.00000E+00
    0.00000E+00         0.00000E+00        -0.59683E+08
 
   -0.59483E+08         0.50216E+05         0.00000E+00
    0.50216E+05        -0.59911E+08         0.00000E+00
    0.00000E+00         0.00000E+00        -0.59697E+08
 
   -0.59531E+08         0.49363E+05         0.00000E+00
    0.49363E+05        -0.59891E+08         0.00000E+00
    0.00000E+00         0.00000E+00        -0.59711E+08
 
   -0.59577E+08         0.46838E+05         0.00000E+00
    0.46838E+05        -0.59871E+08         0.00000E+00
    0.00000E+00         0.00000E+00        -0.59724E+08
 
   -0.59620E+08         0.42979E+05         0.00000E+00
    0.42979E+05        -0.59853E+08         0.00000E+00
    0.00000E+00         0.00000E+00        -0.59737E+08
 
   -0.59661E+08         0.38181E+05         0.00000E+00
    0.38181E+05        -0.59837E+08         0.00000E+00
    0.00000E+00         0.00000E+00        -0.59749E+08
 
   -0.59697E+08         0.32909E+05         0.00000E+00
    0.32909E+05        -0.59823E+08         0.00000E+00
    0.00000E+00         0.00000E+00        -0.59760E+08
 
   -0.59728E+08         0.27726E+05         0.00000E+00
    0.27726E+05        -0.59811E+08         0.00000E+00
    0.00000E+00         0.00000E+00        -0.59770E+08
 
   -0.59756E+08         0.23340E+05         0.00000E+00
    0.23340E+05        -0.59801E+08         0.00000E+00
    0.00000E+00         0.00000E+00        -0.59778E+08
 
   -0.59778E+08         0.20491E+05         0.00000E+00
    0.20491E+05        -0.59793E+08         0.00000E+00
    0.00000E+00         0.00000E+00        -0.59785E+08
 
   -0.59249E+08         0.10596E+05         0.00000E+00
    0.10596E+05        -0.59999E+08         0.00000E+00
    0.00000E+00         0.00000E+00        -0.59624E+08
 
   -0.59269E+08         0.29516E+05         0.00000E+00
    0.29516E+05        -0.59993E+08         0.00000E+00
    0.00000E+00         0.00000E+00        -0.59630E+08
 
   -0.59301E+08         0.44800E+05         0.00000E+00
    0.44800E+05        -0.59982E+08         0.00000E+00
    0.00000E+00         0.00000E+00        -0.59641E+08
 
   -0.59340E+08         0.56367E+05         0.00000E+00
    0.56367E+05        -0.59967E+08         0.00000E+00
    0.00000E+00         0.00000E+00        -0.59653E+08
 
   -0.59385E+08         0.64342E+05         0.00000E+00
    0.64342E+05        -0.59949E+08         0.00000E+00
    0.00000E+00         0.00000E+00        -0.59667E+08
 
   -0.59433E+08         0.68938E+05         0.00000E+00
    0.68938E+05        -0.59930E+08         0.00000E+00
    0.00000E+00         0.00000E+00        -0.59681E+08
 
   -0.59483E+08         0.70445E+05         0.00000E+00
    0.70445E+05        -0.59910E+08         0.00000E+00
    0.00000E+00         0.00000E+00        -0.59696E+08
 
   -0.59533E+08         0.69212E+05         0.00000E+00
    0.69212E+05        -0.59890E+08         0.00000E+00
    0.00000E+00         0.00000E+00        -0.59711E+08
 
   -0.59581E+08         0.65642E+05         0.00000E+00
    0.65642E+05        -0.59870E+08         0.00000E+00
    0.00000E+00         0.00000E+00        -0.59726E+08
 
   -0.59626E+08         0.60193E+05         0.00000E+00
    0.60193E+05        -0.59852E+08         0.00000E+00
    0.00000E+00         0.00000E+00        -0.59739E+08
 
   -0.59667E+08         0.53403E+05         0.00000E+00
    0.53403E+05        -0.59836E+08         0.00000E+00
    0.00000E+00         0.00000E+00        -0.59752E+08
 
   -0.59703E+08         0.45904E+05         0.00000E+00
    0.45904E+05        -0.59822E+08         0.00000E+00
    0.00000E+00         0.00000E+00        -0.59763E+08
 
   -0.59734E+08         0.38455E+05         0.00000E+00
    0.38455E+05        -0.59810E+08         0.00000E+00
    0.00000E+00         0.00000E+00        -0.59773E+08
 
   -0.59760E+08         0.31960E+05         0.00000E+00
    0.31960E+05        -0.59801E+08         0.00000E+00
    0.00000E+00         0.00000E+00        -0.59781E+08
 
   -0.59781E+08         0.27360E+05         0.00000E+00
    0.27360E+05        -0.59794E+08         0.00000E+00
    0.00000E+00         0.00000E+00        -0.59787E+08
 
   -0.59225E+08         0.13765E+05         0.00000E+00
    0.13765E+05        -0.59999E+08         0.00000E+00
    0.00000E+00         0.00000E+00        -0.59612E+08
 
   -0.59249E+08         0.38314E+05         0.00000E+00
    0.38314E+05        -0.59992E+08         0.00000E+00
    0.00000E+00         0.00000E+00        -0.59620E+08
 
   -0.59285E+08         0.58043E+05         0.00000E+00
    0.58043E+05        -0.59981E+08         0.00000E+00
    0.00000E+00         0.00000E+00        -0.59633E+08
 
   -0.59329E+08         0.72870E+05         0.00000E+00
    0.72870E+05        -0.59966E+08         0.00000E+00
    0.00000E+00         0.00000E+00        -0.59647E+08
 
   -0.59378E+08         0.83035E+05         0.00000E+00
    0.83035E+05        -0.59949E+08         0.00000E+00
    0.00000E+00         0.00000E+00        -0.59663E+08
 
   -0.59430E+08         0.88856E+05         0.00000E+00
    0.88856E+05        -0.59929E+08         0.00000E+00
    0.00000E+00         0.00000E+00        -0.59680E+08
 
   -0.59483E+08         0.90723E+05         0.00000E+00
    0.90723E+05        -0.59909E+08         0.00000E+00
    0.00000E+00         0.00000E+00        -0.59696E+08
 
   -0.59536E+08         0.89085E+05         0.00000E+00
    0.89085E+05        -0.59889E+08         0.00000E+00
    0.00000E+00         0.00000E+00        -0.59712E+08
 
   -0.59586E+08         0.84446E+05         0.00000E+00
    0.84446E+05        -0.59870E+08         0.00000E+00
    0.00000E+00         0.00000E+00        -0.59728E+08
 
   -0.59633E+08         0.77373E+05         0.00000E+00
    0.77373E+05        -0.59852E+08         0.00000E+00
    0.00000E+00         0.00000E+00        -0.59743E+08
 
   -0.59675E+08         0.68524E+05         0.00000E+00
    0.68524E+05        -0.59836E+08         0.00000E+00
    0.00000E+00         0.00000E+00        -0.59756E+08
 
   -0.59712E+08         0.58674E+05         0.00000E+00
    0.58674E+05        -0.59822E+08         0.00000E+00
    0.00000E+00         0.00000E+00        -0.59767E+08
 
   -0.59743E+08         0.48751E+05         0.00000E+00
    0.48751E+05        -0.59811E+08         0.00000E+00
    0.00000E+00         0.00000E+00        -0.59777E+08
 
   -0.59767E+08         0.39866E+05         0.00000E+00
    0.39866E+05        -0.59802E+08         0.00000E+00
    0.00000E+00         0.00000E+00        -0.59785E+08
 
   -0.59785E+08         0.33235E+05         0.00000E+00
    0.33235E+05        -0.59795E+08         0.00000E+00
    0.00000E+00         0.00000E+00        -0.59790E+08
 
   -0.59195E+08         0.17010E+05         0.00000E+00
    0.17010E+05        -0.59998E+08         0.00000E+00
    0.00000E+00         0.00000E+00        -0.59597E+08
 
   -0.59225E+08         0.47236E+05         0.00000E+00
    0.47236E+05        -0.59992E+08         0.00000E+00
    0.00000E+00         0.00000E+00        -0.59608E+08
 
   -0.59266E+08         0.71398E+05         0.00000E+00
    0.71398E+05        -0.59981E+08         0.00000E+00
    0.00000E+00         0.00000E+00        -0.59623E+08
 
   -0.59315E+08         0.89449E+05         0.00000E+00
    0.89449E+05        -0.59966E+08         0.00000E+00
    0.00000E+00         0.00000E+00        -0.59640E+08
 
   -0.59369E+08         0.10175E+06         0.00000E+00
    0.10175E+06        -0.59948E+08         0.00000E+00
    0.00000E+00         0.00000E+00        -0.59659E+08
 
   -0.59426E+08         0.10875E+06         0.00000E+00
    0.10875E+06        -0.59929E+08         0.00000E+00
    0.00000E+00         0.00000E+00        -0.59677E+08
 
   -0.59483E+08         0.11094E+06         0.00000E+00
    0.11094E+06        -0.59909E+08         0.00000E+00
    0.00000E+00         0.00000E+00        -0.59696E+08
 
   -0.59539E+08         0.10888E+06         0.00000E+00
    0.10888E+06        -0.59889E+08         0.00000E+00
    0.00000E+00         0.00000E+00        -0.59714E+08
 
   -0.59593E+08         0.10316E+06         0.00000E+00
    0.10316E+06        -0.59870E+08         0.00000E+00
    0.00000E+00         0.00000E+00        -0.59731E+08
 
   -0.59642E+08         0.94443E+05         0.00000E+00
    0.94443E+05        -0.59852E+08         0.00000E+00
    0.00000E+00         0.00000E+00        -0.59747E+08
 
   -0.59686E+08         0.83476E+05         0.00000E+00
    0.83476E+05        -0.59836E+08         0.00000E+00
    0.00000E+00         0.00000E+00        -0.59761E+08
 
   -0.59723E+08         0.71146E+05         0.00000E+00
    0.71146E+05        -0.59823E+08         0.00000E+00
    0.00000E+00         0.00000E+00        -0.59773E+08
 
   -0.59753E+08         0.58525E+05         0.00000E+00
    0.58525E+05        -0.59812E+08         0.00000E+00
    0.00000E+00         0.00000E+00        -0.59783E+08
 
   -0.59776E+08         0.46928E+05         0.00000E+00
    0.46928E+05        -0.59804E+08         0.00000E+00
    0.00000E+00         0.00000E+00        -0.59790E+08
 
   -0.59791E+08         0.37849E+05         0.00000E+00
    0.37849E+05        -0.59799E+08         0.00000E+00
    0.00000E+00         0.00000E+00        -0.59795E+08
 
   -0.59159E+08         0.20313E+05         0.00000E+00
    0.20313E+05        -0.59998E+08         0.00000E+00
    0.00000E+00         0.00000E+00        -0.59580E+08
 
   -0.59195E+08         0.56248E+05         0.00000E+00
    0.56248E+05        -0.59992E+08         0.00000E+00
    0.00000E+00         0.00000E+00        -0.59593E+08
 
   -0.59243E+08         0.84784E+05         0.00000E+00
    0.84784E+05        -0.59981E+08         0.00000E+00
    0.00000E+00         0.00000E+00        -0.59612E+08
 
   -0.59299E+08         0.10596E+06         0.00000E+00
    0.10596E+06        -0.59966E+08         0.00000E+00
    0.00000E+00         0.00000E+00        -0.59632E+08
 
   -0.59359E+08         0.12031E+06         0.00000E+00
    0.12031E+06        -0.59949E+08         0.00000E+00
    0.00000E+00         0.00000E+00        -0.59654E+08
 
   -0.59421E+08         0.12841E+06         0.00000E+00
    0.12841E+06        -0.59930E+08         0.00000E+00
    0.00000E+00         0.00000E+00        -0.59675E+08
 
   -0.59483E+08         0.13089E+06         0.00000E+00
    0.13089E+06        -0.59910E+08         0.00000E+00
    0.00000E+00         0.00000E+00        -0.59697E+08
 
   -0.59543E+08         0.12840E+06         0.00000E+00
    0.12840E+06        -0.59891E+08         0.00000E+00
    0.00000E+00         0.00000E+00        -0.59717E+08
 
   -0.59601E+08         0.12163E+06         0.00000E+00
    0.12163E+06        -0.59872E+08         0.00000E+00
    0.00000E+00         0.00000E+00        -0.59736E+08
 
   -0.59653E+08         0.11128E+06         0.00000E+00
    0.11128E+06        -0.59854E+08         0.00000E+00
    0.00000E+00         0.00000E+00        -0.59754E+08
 
   -0.59699E+08         0.98174E+05         0.00000E+00
    0.98174E+05        -0.59839E+08         0.00000E+00
    0.00000E+00         0.00000E+00        -0.59769E+08
 
   -0.59737E+08         0.83260E+05         0.00000E+00
    0.83260E+05        -0.59826E+08         0.00000E+00
    0.00000E+00         0.00000E+00        -0.59782E+08
 
   -0.59767E+08         0.67719E+05         0.00000E+00
    0.67719E+05        -0.59815E+08         0.00000E+00
    0.00000E+00         0.00000E+00        -0.59791E+08
 
   -0.59788E+08         0.53043E+05         0.00000E+00
    0.53043E+05        -0.59808E+08         0.00000E+00
    0.00000E+00         0.00000E+00        -0.59798E+08
 
   -0.59800E+08         0.40983E+05         0.00000E+00
    0.40983E+05        -0.59804E+08         0.00000E+00
    0.00000E+00         0.00000E+00        -0.59802E+08
 
   -0.59117E+08         0.23643E+05         0.00000E+00
    0.23643E+05        -0.59998E+08         0.00000E+00
    0.00000E+00         0.00000E+00        -0.59559E+08
 
   -0.59160E+08         0.65250E+05         0.00000E+00
    0.65250E+05        -0.59992E+08         0.00000E+00
    0.00000E+00         0.00000E+00        -0.59576E+08
 
   -0.59217E+08         0.98031E+05         0.00000E+00
    0.98031E+05        -0.59981E+08         0.00000E+00
    0.00000E+00         0.00000E+00        -0.59599E+08
 
   -0.59280E+08         0.12218E+06         0.00000E+00
    0.12218E+06        -0.59967E+08         0.00000E+00
    0.00000E+00         0.00000E+00        -0.59623E+08
 
   -0.59347E+08         0.13842E+06         0.00000E+00
    0.13842E+06        -0.59950E+08         0.00000E+00
    0.00000E+00         0.00000E+00        -0.59648E+08
 
   -0.59415E+08         0.14752E+06         0.00000E+00
    0.14752E+06        -0.59932E+08         0.00000E+00
    0.00000E+00         0.00000E+00        -0.59673E+08
 
   -0.59483E+08         0.15026E+06         0.00000E+00
    0.15026E+06        -0.59913E+08         0.00000E+00
    0.00000E+00         0.00000E+00        -0.59698E+08
 
   -0.59549E+08         0.14738E+06         0.00000E+00
    0.14738E+06        -0.59894E+08         0.00000E+00
    0.00000E+00         0.00000E+00        -0.59721E+08
 
   -0.59610E+08         0.13961E+06         0.00000E+00
    0.13961E+06        -0.59876E+08         0.00000E+00
    0.00000E+00         0.00000E+00        -0.59743E+08
 
   -0.59666E+08         0.12772E+06         0.00000E+00
    0.12772E+06        -0.59859E+08         0.00000E+00
    0.00000E+00         0.00000E+00        -0.59762E+08
 
   -0.59714E+08         0.11251E+06         0.00000E+00
    0.11251E+06        -0.59844E+08         0.00000E+00
    0.00000E+00         0.00000E+00        -0.59779E+08
 
   -0.59754E+08         0.94959E+05         0.00000E+00
    0.94959E+05        -0.59831E+08         0.00000E+00
    0.00000E+00         0.00000E+00        -0.59793E+08
 
   -0.59784E+08         0.76301E+05         0.00000E+00
    0.76301E+05        -0.59821E+08         0.00000E+00
    0.00000E+00         0.00000E+00        -0.59803E+08
 
   -0.59804E+08         0.58150E+05         0.00000E+00
    0.58150E+05        -0.59815E+08         0.00000E+00
    0.00000E+00         0.00000E+00        -0.59810E+08
 
   -0.59812E+08         0.42477E+05         0.00000E+00
    0.42477E+05        -0.59812E+08         0.00000E+00
    0.00000E+00         0.00000E+00        -0.59812E+08
 
   -0.59068E+08         0.26946E+05         0.00000E+00
    0.26946E+05        -0.59998E+08         0.00000E+00
    0.00000E+00         0.00000E+00        -0.59535E+08
 
   -0.59120E+08         0.74080E+05         0.00000E+00
    0.74080E+05        -0.59992E+08         0.00000E+00
    0.00000E+00         0.00000E+00        -0.59556E+08
 
   -0.59187E+08         0.11087E+06         0.00000E+00
    0.11087E+06        -0.59982E+08         0.00000E+00
    0.00000E+00         0.00000E+00        -0.59584E+08
 
   -0.59259E+08         0.13774E+06         0.00000E+00
    0.13774E+06        -0.59968E+08         0.00000E+00
    0.00000E+00         0.00000E+00        -0.59613E+08
 
   -0.59334E+08         0.15567E+06         0.00000E+00
    0.15567E+06        -0.59952E+08         0.00000E+00
    0.00000E+00         0.00000E+00        -0.59643E+08
 
   -0.59409E+08         0.16564E+06         0.00000E+00
    0.16564E+06        -0.59935E+08         0.00000E+00
    0.00000E+00         0.00000E+00        -0.59672E+08
 
   -0.59483E+08         0.16859E+06         0.00000E+00
    0.16859E+06        -0.59918E+08         0.00000E+00
    0.00000E+00         0.00000E+00        -0.59700E+08
 
   -0.59554E+08         0.16538E+06         0.00000E+00
    0.16538E+06        -0.59900E+08         0.00000E+00
    0.00000E+00         0.00000E+00        -0.59727E+08
 
   -0.59620E+08         0.15677E+06         0.00000E+00
    0.15677E+06        -0.59883E+08         0.00000E+00
    0.00000E+00         0.00000E+00        -0.59752E+08
 
   -0.59680E+08         0.14350E+06         0.00000E+00
    0.14350E+06        -0.59867E+08         0.00000E+00
    0.00000E+00         0.00000E+00        -0.59774E+08
 
   -0.59732E+08         0.12633E+06         0.00000E+00
    0.12633E+06        -0.59853E+08         0.00000E+00
    0.00000E+00         0.00000E+00        -0.59792E+08
 
   -0.59774E+08         0.10619E+06         0.00000E+00
    0.10619E+06        -0.59841E+08         0.00000E+00
    0.00000E+00         0.00000E+00        -0.59807E+08
 
   -0.59805E+08         0.84276E+05         0.00000E+00
    0.84276E+05        -0.59831E+08         0.00000E+00
    0.00000E+00         0.00000E+00        -0.59818E+08
 
   -0.59823E+08         0.62250E+05         0.00000E+00
    0.62250E+05        -0.59826E+08         0.00000E+00
    0.00000E+00         0.00000E+00        -0.59825E+08
 
   -0.59828E+08         0.42258E+05         0.00000E+00
    0.42258E+05        -0.59824E+08         0.00000E+00
    0.00000E+00         0.00000E+00        -0.59827E+08
 
   -0.59013E+08         0.30143E+05         0.00000E+00
    0.30143E+05        -0.59999E+08         0.00000E+00
    0.00000E+00         0.00000E+00        -0.59508E+08
 
   -0.59076E+08         0.82503E+05         0.00000E+00
    0.82503E+05        -0.59993E+08         0.00000E+00
    0.00000E+00         0.00000E+00        -0.59534E+08
 
   -0.59153E+08         0.12294E+06         0.00000E+00
    0.12294E+06        -0.59983E+08         0.00000E+00
    0.00000E+00         0.00000E+00        -0.59568E+08
 
   -0.59235E+08         0.15215E+06         0.00000E+00
    0.15215E+06        -0.59970E+08         0.00000E+00
    0.00000E+00         0.00000E+00        -0.59603E+08
 
   -0.59319E+08         0.17146E+06         0.00000E+00
    0.17146E+06        -0.59956E+08         0.00000E+00
    0.00000E+00         0.00000E+00        -0.59638E+08
 
   -0.59403E+08         0.18213E+06         0.00000E+00
    0.18213E+06        -0.59941E+08         0.00000E+00
    0.00000E+00         0.00000E+00        -0.59672E+08
 
   -0.59484E+08         0.18526E+06         0.00000E+00
    0.18526E+06        -0.59926E+08         0.00000E+00
    0.00000E+00         0.00000E+00        -0.59705E+08
 
   -0.59561E+08         0.18183E+06         0.00000E+00
    0.18183E+06        -0.59910E+08         0.00000E+00
    0.00000E+00         0.00000E+00        -0.59735E+08
 
   -0.59632E+08         0.17261E+06         0.00000E+00
    0.17261E+06        -0.59895E+08         0.00000E+00
    0.00000E+00         0.00000E+00        -0.59763E+08
 
   -0.59696E+08         0.15827E+06         0.00000E+00
    0.15827E+06        -0.59880E+08         0.00000E+00
    0.00000E+00         0.00000E+00        -0.59788E+08
 
   -0.59752E+08         0.13945E+06         0.00000E+00
    0.13945E+06        -0.59867E+08         0.00000E+00
    0.00000E+00         0.00000E+00        -0.59809E+08
 
   -0.59797E+08         0.11690E+06         0.00000E+00
    0.11690E+06        -0.59855E+08         0.00000E+00
    0.00000E+00         0.00000E+00        -0.59826E+08
 
   -0.59829E+08         0.91697E+05         0.00000E+00
    0.91697E+05        -0.59847E+08         0.00000E+00
    0.00000E+00         0.00000E+00        -0.59838E+08
 
   -0.59847E+08         0.65438E+05         0.00000E+00
    0.65438E+05        -0.59842E+08         0.00000E+00
    0.00000E+00         0.00000E+00        -0.59844E+08
 
   -0.59848E+08         0.40361E+05         0.00000E+00
    0.40361E+05        -0.59842E+08         0.00000E+00
    0.00000E+00         0.00000E+00        -0.59846E+08
 
   -0.58952E+08         0.33126E+05         0.00000E+00
    0.33126E+05        -0.59999E+08         0.00000E+00
    0.00000E+00         0.00000E+00        -0.59479E+08
 
   -0.59027E+08         0.90208E+05         0.00000E+00
    0.90208E+05        -0.59994E+08         0.00000E+00
    0.00000E+00         0.00000E+00        -0.59510E+08
 
   -0.59118E+08         0.13373E+06         0.00000E+00
    0.13373E+06        -0.59985E+08         0.00000E+00
    0.00000E+00         0.00000E+00        -0.59551E+08
 
   -0.59211E+08         0.16476E+06         0.00000E+00
    0.16476E+06        -0.59974E+08         0.00000E+00
    0.00000E+00         0.00000E+00        -0.59592E+08
 
   -0.59304E+08         0.18504E+06         0.00000E+00
    0.18504E+06        -0.59963E+08         0.00000E+00
    0.00000E+00         0.00000E+00        -0.59633E+08
 
   -0.59396E+08         0.19614E+06         0.00000E+00
    0.19614E+06        -0.59950E+08         0.00000E+00
    0.00000E+00         0.00000E+00        -0.59673E+08
 
   -0.59484E+08         0.19942E+06         0.00000E+00
    0.19942E+06        -0.59938E+08         0.00000E+00
    0.00000E+00         0.00000E+00        -0.59711E+08
 
   -0.59567E+08         0.19594E+06         0.00000E+00
    0.19594E+06        -0.59925E+08         0.00000E+00
    0.00000E+00         0.00000E+00        -0.59746E+08
 
   -0.59644E+08         0.18649E+06         0.00000E+00
    0.18649E+06        -0.59913E+08         0.00000E+00
    0.00000E+00         0.00000E+00        -0.59778E+08
 
   -0.59713E+08         0.17157E+06         0.00000E+00
    0.17157E+06        -0.59900E+08         0.00000E+00
    0.00000E+00         0.00000E+00        -0.59807E+08
 
   -0.59773E+08         0.15160E+06         0.00000E+00
    0.15160E+06        -0.59888E+08         0.00000E+00
    0.00000E+00         0.00000E+00        -0.59831E+08
 
   -0.59822E+08         0.12705E+06         0.00000E+00
    0.12705E+06        -0.59877E+08         0.00000E+00
    0.00000E+00         0.00000E+00        -0.59850E+08
 
   -0.59857E+08         0.98687E+05         0.00000E+00
    0.98687E+05        -0.59869E+08         0.00000E+00
    0.00000E+00         0.00000E+00        -0.59863E+08
 
   -0.59875E+08         0.67926E+05         0.00000E+00
    0.67926E+05        -0.59864E+08         0.00000E+00
    0.00000E+00         0.00000E+00        -0.59870E+08
 
   -0.59875E+08         0.36975E+05         0.00000E+00
    0.36975E+05        -0.59865E+08         0.00000E+00
    0.00000E+00         0.00000E+00        -0.59871E+08
 
   -0.58886E+08         0.35759E+05         0.00000E+00
    0.35759E+05        -0.59999E+08         0.00000E+00
    0.00000E+00         0.00000E+00        -0.59447E+08
 
   -0.58976E+08         0.96800E+05         0.00000E+00
    0.96800E+05        -0.59995E+08         0.00000E+00
    0.00000E+00         0.00000E+00        -0.59485E+08
 
   -0.59080E+08         0.14261E+06         0.00000E+00
    0.14261E+06        -0.59988E+08         0.00000E+00
    0.00000E+00         0.00000E+00        -0.59534E+08
 
   -0.59185E+08         0.17473E+06         0.00000E+00
    0.17473E+06        -0.59980E+08         0.00000E+00
    0.00000E+00         0.00000E+00        -0.59582E+08
 
   -0.59289E+08         0.19540E+06         0.00000E+00
    0.19540E+06        -0.59972E+08         0.00000E+00
    0.00000E+00         0.00000E+00        -0.59630E+08
 
   -0.59389E+08         0.20660E+06         0.00000E+00
    0.20660E+06        -0.59963E+08         0.00000E+00
    0.00000E+00         0.00000E+00        -0.59676E+08
 
   -0.59484E+08         0.20996E+06         0.00000E+00
    0.20996E+06        -0.59955E+08         0.00000E+00
    0.00000E+00         0.00000E+00        -0.59720E+08
 
   -0.59573E+08         0.20670E+06         0.00000E+00
    0.20670E+06        -0.59947E+08         0.00000E+00
    0.00000E+00         0.00000E+00        -0.59760E+08
 
   -0.59656E+08         0.19752E+06         0.00000E+00
    0.19752E+06        -0.59938E+08         0.00000E+00
    0.00000E+00         0.00000E+00        -0.59797E+08
 
   -0.59731E+08         0.18276E+06         0.00000E+00
    0.18276E+06        -0.59928E+08         0.00000E+00
    0.00000E+00         0.00000E+00        -0.59829E+08
 
   -0.59796E+08         0.16243E+06         0.00000E+00
    0.16243E+06        -0.59918E+08         0.00000E+00
    0.00000E+00         0.00000E+00        -0.59857E+08
 
   -0.59849E+08         0.13656E+06         0.00000E+00
    0.13656E+06        -0.59909E+08         0.00000E+00
    0.00000E+00         0.00000E+00        -0.59879E+08
 
   -0.59888E+08         0.10545E+06         0.00000E+00
    0.10545E+06        -0.59901E+08         0.00000E+00
    0.00000E+00         0.00000E+00        -0.59895E+08
 
   -0.59909E+08         0.70084E+05         0.00000E+00
    0.70084E+05        -0.59896E+08         0.00000E+00
    0.00000E+00         0.00000E+00        -0.59903E+08
 
   -0.59909E+08         0.32490E+05         0.00000E+00
    0.32490E+05        -0.59897E+08         0.00000E+00
    0.00000E+00         0.00000E+00        -0.59904E+08
 
   -0.58816E+08         0.37879E+05         0.00000E+00
    0.37879E+05        -0.59999E+08         0.00000E+00
    0.00000E+00         0.00000E+00        -0.59413E+08
 
   -0.58921E+08         0.10181E+06         0.00000E+00
    0.10181E+06        -0.59996E+08         0.00000E+00
    0.00000E+00         0.00000E+00        -0.59458E+08
 
   -0.59041E+08         0.14883E+06         0.00000E+00
    0.14883E+06        -0.59992E+08         0.00000E+00
    0.00000E+00         0.00000E+00        -0.59516E+08
 
   -0.59159E+08         0.18105E+06         0.00000E+00
    0.18105E+06        -0.59988E+08         0.00000E+00
    0.00000E+00         0.00000E+00        -0.59573E+08
 
   -0.59273E+08         0.20132E+06         0.00000E+00
    0.20132E+06        -0.59984E+08         0.00000E+00
    0.00000E+00         0.00000E+00        -0.59629E+08
 
   -0.59382E+08         0.21213E+06         0.00000E+00
    0.21213E+06        -0.59981E+08         0.00000E+00
    0.00000E+00         0.00000E+00        -0.59681E+08
 
   -0.59484E+08         0.21549E+06         0.00000E+00
    0.21549E+06        -0.59979E+08         0.00000E+00
    0.00000E+00         0.00000E+00        -0.59731E+08
 
   -0.59579E+08         0.21276E+06         0.00000E+00
    0.21276E+06        -0.59976E+08         0.00000E+00
    0.00000E+00         0.00000E+00        -0.59778E+08
 
   -0.59667E+08         0.20460E+06         0.00000E+00
    0.20460E+06        -0.59972E+08         0.00000E+00
    0.00000E+00         0.00000E+00        -0.59820E+08
 
   -0.59748E+08         0.19100E+06         0.00000E+00
    0.19100E+06        -0.59966E+08         0.00000E+00
    0.00000E+00         0.00000E+00        -0.59857E+08
 
   -0.59819E+08         0.17149E+06         0.00000E+00
    0.17149E+06        -0.59959E+08         0.00000E+00
    0.00000E+00         0.00000E+00        -0.59889E+08
 
   -0.59879E+08         0.14540E+06         0.00000E+00
    0.14540E+06        -0.59951E+08         0.00000E+00
    0.00000E+00         0.00000E+00        -0.59915E+08
 
   -0.59924E+08         0.11229E+06         0.00000E+00
    0.11229E+06        -0.59943E+08         0.00000E+00
    0.00000E+00         0.00000E+00        -0.59934E+08
 
   -0.59949E+08         0.72480E+05         0.00000E+00
    0.72480E+05        -0.59938E+08         0.00000E+00
    0.00000E+00         0.00000E+00        -0.59944E+08
 
   -0.59951E+08         0.27559E+05         0.00000E+00
    0.27559E+05        -0.59939E+08         0.00000E+00
    0.00000E+00         0.00000E+00        -0.59947E+08
 
   -0.58742E+08         0.39300E+05         0.00000E+00
    0.39300E+05        -0.60000E+08         0.00000E+00
    0.00000E+00         0.00000E+00        -0.59377E+08
 
   -0.58865E+08         0.10468E+06         0.00000E+00
    0.10468E+06        -0.59998E+08         0.00000E+00
    0.00000E+00         0.00000E+00        -0.59432E+08
 
   -0.59002E+08         0.15149E+06         0.00000E+00
    0.15149E+06        -0.59997E+08         0.00000E+00
    0.00000E+00         0.00000E+00        -0.59500E+08
 
   -0.59134E+08         0.18250E+06         0.00000E+00
    0.18250E+06        -0.59998E+08         0.00000E+00
    0.00000E+00         0.00000E+00        -0.59566E+08
 
   -0.59259E+08         0.20130E+06         0.00000E+00
    0.20130E+06        -0.60000E+08         0.00000E+00
    0.00000E+00         0.00000E+00        -0.59629E+08
 
   -0.59375E+08         0.21106E+06         0.00000E+00
    0.21106E+06        -0.60004E+08         0.00000E+00
    0.00000E+00         0.00000E+00        -0.59690E+08
 
   -0.59484E+08         0.21424E+06         0.00000E+00
    0.21424E+06        -0.60010E+08         0.00000E+00
    0.00000E+00         0.00000E+00        -0.59747E+08
 
   -0.59584E+08         0.21245E+06         0.00000E+00
    0.21245E+06        -0.60015E+08         0.00000E+00
    0.00000E+00         0.00000E+00        -0.59799E+08
 
   -0.59677E+08         0.20624E+06         0.00000E+00
    0.20624E+06        -0.60018E+08         0.00000E+00
    0.00000E+00         0.00000E+00        -0.59847E+08
 
   -0.59763E+08         0.19522E+06         0.00000E+00
    0.19522E+06        -0.60018E+08         0.00000E+00
    0.00000E+00         0.00000E+00        -0.59890E+08
 
   -0.59841E+08         0.17817E+06         0.00000E+00
    0.17817E+06        -0.60014E+08         0.00000E+00
    0.00000E+00         0.00000E+00        -0.59927E+08
 
   -0.59908E+08         0.15348E+06         0.00000E+00
    0.15348E+06        -0.60008E+08         0.00000E+00
    0.00000E+00         0.00000E+00        -0.59958E+08
 
   -0.59961E+08         0.11966E+06         0.00000E+00
    0.11966E+06        -0.60000E+08         0.00000E+00
    0.00000E+00         0.00000E+00        -0.59981E+08
 
   -0.59995E+08         0.75939E+05         0.00000E+00
    0.75939E+05        -0.59994E+08         0.00000E+00
    0.00000E+00         0.00000E+00        -0.59995E+08
 
   -0.60002E+08         0.23186E+05         0.00000E+00
    0.23186E+05        -0.59993E+08         0.00000E+00
    0.00000E+00         0.00000E+00        -0.59999E+08
 
   -0.58667E+08         0.39824E+05         0.00000E+00
    0.39824E+05        -0.60000E+08         0.00000E+00
    0.00000E+00         0.00000E+00        -0.59342E+08
 
   -0.58810E+08         0.10484E+06         0.00000E+00
    0.10484E+06        -0.60001E+08         0.00000E+00
    0.00000E+00         0.00000E+00        -0.59405E+08
 
   -0.58965E+08         0.14959E+06         0.00000E+00
    0.14959E+06        -0.60004E+08         0.00000E+00
    0.00000E+00         0.00000E+00        -0.59484E+08
 
   -0.59111E+08         0.17765E+06         0.00000E+00
    0.17765E+06        -0.60010E+08         0.00000E+00
    0.00000E+00         0.00000E+00        -0.59561E+08
 
   -0.59246E+08         0.19355E+06         0.00000E+00
    0.19355E+06        -0.60021E+08         0.00000E+00
    0.00000E+00         0.00000E+00        -0.59634E+08
 
   -0.59370E+08         0.20130E+06         0.00000E+00
    0.20130E+06        -0.60034E+08         0.00000E+00
    0.00000E+00         0.00000E+00        -0.59702E+08
 
   -0.59483E+08         0.20404E+06         0.00000E+00
    0.20404E+06        -0.60050E+08         0.00000E+00
    0.00000E+00         0.00000E+00        -0.59766E+08
 
   -0.59587E+08         0.20365E+06         0.00000E+00
    0.20365E+06        -0.60064E+08         0.00000E+00
    0.00000E+00         0.00000E+00        -0.59825E+08
 
   -0.59684E+08         0.20062E+06         0.00000E+00
    0.20062E+06        -0.60076E+08         0.00000E+00
    0.00000E+00         0.00000E+00        -0.59880E+08
 
   -0.59774E+08         0.19402E+06         0.00000E+00
    0.19402E+06        -0.60084E+08         0.00000E+00
    0.00000E+00         0.00000E+00        -0.59929E+08
 
   -0.59859E+08         0.18169E+06         0.00000E+00
    0.18169E+06        -0.60085E+08         0.00000E+00
    0.00000E+00         0.00000E+00        -0.59972E+08
 
   -0.59936E+08         0.16073E+06         0.00000E+00
    0.16073E+06        -0.60081E+08         0.00000E+00
    0.00000E+00         0.00000E+00        -0.60008E+08
 
   -0.60000E+08         0.12812E+06         0.00000E+00
    0.12812E+06        -0.60073E+08         0.00000E+00
    0.00000E+00         0.00000E+00        -0.60037E+08
 
   -0.60046E+08         0.81605E+05         0.00000E+00
    0.81605E+05        -0.60064E+08         0.00000E+00
    0.00000E+00         0.00000E+00        -0.60056E+08
 
   -0.60064E+08         0.20822E+05         0.00000E+00
    0.20822E+05        -0.60061E+08         0.00000E+00
    0.00000E+00         0.00000E+00        -0.60064E+08
 
   -0.58593E+08         0.39260E+05         0.00000E+00
    0.39260E+05        -0.60001E+08         0.00000E+00
    0.00000E+00         0.00000E+00        -0.59306E+08
 
   -0.58757E+08         0.10166E+06         0.00000E+00
    0.10166E+06        -0.60004E+08         0.00000E+00
    0.00000E+00         0.00000E+00        -0.59380E+08
 
   -0.58931E+08         0.14203E+06         0.00000E+00
    0.14203E+06        -0.60011E+08         0.00000E+00
    0.00000E+00         0.00000E+00        -0.59472E+08
 
   -0.59092E+08         0.16488E+06         0.00000E+00
    0.16488E+06        -0.60026E+08         0.00000E+00
    0.00000E+00         0.00000E+00        -0.59559E+08
 
   -0.59237E+08         0.17595E+06         0.00000E+00
    0.17595E+06        -0.60046E+08         0.00000E+00
    0.00000E+00         0.00000E+00        -0.59642E+08
 
   -0.59366E+08         0.18040E+06         0.00000E+00
    0.18040E+06        -0.60071E+08         0.00000E+00
    0.00000E+00         0.00000E+00        -0.59719E+08
 
   -0.59482E+08         0.18222E+06         0.00000E+00
    0.18222E+06        -0.60100E+08         0.00000E+00
    0.00000E+00         0.00000E+00        -0.59791E+08
 
   -0.59587E+08         0.18377E+06         0.00000E+00
    0.18377E+06        -0.60127E+08         0.00000E+00
    0.00000E+00         0.00000E+00        -0.59857E+08
 
   -0.59685E+08         0.18545E+06         0.00000E+00
    0.18545E+06        -0.60151E+08         0.00000E+00
    0.00000E+00         0.00000E+00        -0.59918E+08
 
   -0.59780E+08         0.18567E+06         0.00000E+00
    0.18567E+06        -0.60168E+08         0.00000E+00
    0.00000E+00         0.00000E+00        -0.59973E+08
 
   -0.59871E+08         0.18106E+06         0.00000E+00
    0.18106E+06        -0.60176E+08         0.00000E+00
    0.00000E+00         0.00000E+00        -0.60023E+08
 
   -0.59959E+08         0.16701E+06         0.00000E+00
    0.16701E+06        -0.60174E+08         0.00000E+00
    0.00000E+00         0.00000E+00        -0.60066E+08
 
   -0.60039E+08         0.13848E+06         0.00000E+00
    0.13848E+06        -0.60166E+08         0.00000E+00
    0.00000E+00         0.00000E+00        -0.60102E+08
 
   -0.60102E+08         0.91022E+05         0.00000E+00
    0.91022E+05        -0.60154E+08         0.00000E+00
    0.00000E+00         0.00000E+00        -0.60128E+08
 
   -0.60137E+08         0.22490E+05         0.00000E+00
    0.22490E+05        -0.60145E+08         0.00000E+00
    0.00000E+00         0.00000E+00        -0.60142E+08
 
   -0.58521E+08         0.37443E+05         0.00000E+00
    0.37443E+05        -0.60001E+08         0.00000E+00
    0.00000E+00         0.00000E+00        -0.59273E+08
 
   -0.58709E+08         0.94560E+05         0.00000E+00
    0.94560E+05        -0.60007E+08         0.00000E+00
    0.00000E+00         0.00000E+00        -0.59358E+08
 
   -0.58905E+08         0.12765E+06         0.00000E+00
    0.12765E+06        -0.60021E+08         0.00000E+00
    0.00000E+00         0.00000E+00        -0.59463E+08
 
   -0.59080E+08         0.14237E+06         0.00000E+00
    0.14237E+06        -0.60044E+08         0.00000E+00
    0.00000E+00         0.00000E+00        -0.59563E+08
 
   -0.59233E+08         0.14606E+06         0.00000E+00
    0.14606E+06        -0.60076E+08         0.00000E+00
    0.00000E+00         0.00000E+00        -0.59655E+08
 
   -0.59365E+08         0.14542E+06         0.00000E+00
    0.14542E+06        -0.60117E+08         0.00000E+00
    0.00000E+00         0.00000E+00        -0.59741E+08
 
   -0.59480E+08         0.14563E+06         0.00000E+00
    0.14563E+06        -0.60161E+08         0.00000E+00
    0.00000E+00         0.00000E+00        -0.59820E+08
 
   -0.59583E+08         0.14968E+06         0.00000E+00
    0.14968E+06        -0.60205E+08         0.00000E+00
    0.00000E+00         0.00000E+00        -0.59893E+08
 
   -0.59680E+08         0.15793E+06         0.00000E+00
    0.15793E+06        -0.60244E+08         0.00000E+00
    0.00000E+00         0.00000E+00        -0.59961E+08
 
   -0.59776E+08         0.16800E+06         0.00000E+00
    0.16800E+06        -0.60273E+08         0.00000E+00
    0.00000E+00         0.00000E+00        -0.60023E+08
 
   -0.59874E+08         0.17500E+06         0.00000E+00
    0.17500E+06        -0.60289E+08         0.00000E+00
    0.00000E+00         0.00000E+00        -0.60080E+08
 
   -0.59975E+08         0.17215E+06         0.00000E+00
    0.17215E+06        -0.60291E+08         0.00000E+00
    0.00000E+00         0.00000E+00        -0.60132E+08
 
   -0.60074E+08         0.15170E+06         0.00000E+00
    0.15170E+06        -0.60281E+08         0.00000E+00
    0.00000E+00         0.00000E+00        -0.60177E+08
 
   -0.60161E+08         0.10622E+06         0.00000E+00
    0.10622E+06        -0.60264E+08         0.00000E+00
    0.00000E+00         0.00000E+00        -0.60213E+08
 
   -0.60221E+08         0.30941E+05         0.00000E+00
    0.30941E+05        -0.60248E+08         0.00000E+00
    0.00000E+00         0.00000E+00        -0.60235E+08
 
   -0.58455E+08         0.34270E+05         0.00000E+00
    0.34270E+05        -0.60002E+08         0.00000E+00
    0.00000E+00         0.00000E+00        -0.59242E+08
 
   -0.58669E+08         0.83048E+05         0.00000E+00
    0.83048E+05        -0.60011E+08         0.00000E+00
    0.00000E+00         0.00000E+00        -0.59340E+08
 
   -0.58888E+08         0.10525E+06         0.00000E+00
    0.10525E+06        -0.60031E+08         0.00000E+00
    0.00000E+00         0.00000E+00        -0.59460E+08
 
   -0.59077E+08         0.10807E+06         0.00000E+00
    0.10807E+06        -0.60065E+08         0.00000E+00
    0.00000E+00         0.00000E+00        -0.59572E+08
 
   -0.59237E+08         0.10102E+06         0.00000E+00
    0.10102E+06        -0.60112E+08         0.00000E+00
    0.00000E+00         0.00000E+00        -0.59675E+08
 
   -0.59368E+08         0.92913E+05         0.00000E+00
    0.92913E+05        -0.60171E+08         0.00000E+00
    0.00000E+00         0.00000E+00        -0.59770E+08
 
   -0.59478E+08         0.90544E+05         0.00000E+00
    0.90544E+05        -0.60235E+08         0.00000E+00
    0.00000E+00         0.00000E+00        -0.59856E+08
 
   -0.59574E+08         0.97724E+05         0.00000E+00
    0.97724E+05        -0.60299E+08         0.00000E+00
    0.00000E+00         0.00000E+00        -0.59936E+08
 
   -0.59665E+08         0.11478E+06         0.00000E+00
    0.11478E+06        -0.60356E+08         0.00000E+00
    0.00000E+00         0.00000E+00        -0.60009E+08
 
   -0.59759E+08         0.13842E+06         0.00000E+00
    0.13842E+06        -0.60401E+08         0.00000E+00
    0.00000E+00         0.00000E+00        -0.60079E+08
 
   -0.59863E+08         0.16196E+06         0.00000E+00
    0.16196E+06        -0.60428E+08         0.00000E+00
    0.00000E+00         0.00000E+00        -0.60144E+08
 
   -0.59978E+08         0.17591E+06         0.00000E+00
    0.17591E+06        -0.60435E+08         0.00000E+00
    0.00000E+00         0.00000E+00        -0.60205E+08
 
   -0.60100E+08         0.16902E+06         0.00000E+00
    0.16902E+06        -0.60424E+08         0.00000E+00
    0.00000E+00         0.00000E+00        -0.60261E+08
 
   -0.60221E+08         0.12983E+06         0.00000E+00
    0.12983E+06        -0.60399E+08         0.00000E+00
    0.00000E+00         0.00000E+00        -0.60310E+08
 
   -0.60317E+08         0.49836E+05         0.00000E+00
    0.49836E+05        -0.60371E+08         0.00000E+00
    0.00000E+00         0.00000E+00        -0.60344E+08
 
   -0.58397E+08         0.29755E+05         0.00000E+00
    0.29755E+05        -0.60002E+08         0.00000E+00
    0.00000E+00         0.00000E+00        -0.59216E+08
 
   -0.58641E+08         0.66735E+05         0.00000E+00
    0.66735E+05        -0.60014E+08         0.00000E+00
    0.00000E+00         0.00000E+00        -0.59328E+08
 
   -0.58884E+08         0.73571E+05         0.00000E+00
    0.73571E+05        -0.60042E+08         0.00000E+00
    0.00000E+00         0.00000E+00        -0.59465E+08
 
   -0.59089E+08         0.59605E+05         0.00000E+00
    0.59605E+05        -0.60089E+08         0.00000E+00
    0.00000E+00         0.00000E+00        -0.59590E+08
 
   -0.59252E+08         0.37492E+05         0.00000E+00
    0.37492E+05        -0.60154E+08         0.00000E+00
    0.00000E+00         0.00000E+00        -0.59704E+08
 
   -0.59378E+08         0.18942E+05         0.00000E+00
    0.18942E+05        -0.60234E+08         0.00000E+00
    0.00000E+00         0.00000E+00        -0.59807E+08
 
   -0.59476E+08         0.12782E+05         0.00000E+00
    0.12782E+05        -0.60323E+08         0.00000E+00
    0.00000E+00         0.00000E+00        -0.59899E+08
 
   -0.59558E+08         0.23797E+05         0.00000E+00
    0.23797E+05        -0.60412E+08         0.00000E+00
    0.00000E+00         0.00000E+00        -0.59984E+08
 
   -0.59636E+08         0.52270E+05         0.00000E+00
    0.52270E+05        -0.60492E+08         0.00000E+00
    0.00000E+00         0.00000E+00        -0.60063E+08
 
   -0.59724E+08         0.93916E+05         0.00000E+00
    0.93916E+05        -0.60555E+08         0.00000E+00
    0.00000E+00         0.00000E+00        -0.60138E+08
 
   -0.59831E+08         0.14003E+06         0.00000E+00
    0.14003E+06        -0.60596E+08         0.00000E+00
    0.00000E+00         0.00000E+00        -0.60211E+08
 
   -0.59961E+08         0.17791E+06         0.00000E+00
    0.17791E+06        -0.60609E+08         0.00000E+00
    0.00000E+00         0.00000E+00        -0.60283E+08
 
   -0.60113E+08         0.19191E+06         0.00000E+00
    0.19191E+06        -0.60595E+08         0.00000E+00
    0.00000E+00         0.00000E+00        -0.60352E+08
 
   -0.60277E+08         0.16517E+06         0.00000E+00
    0.16517E+06        -0.60560E+08         0.00000E+00
    0.00000E+00         0.00000E+00        -0.60418E+08
 
   -0.60423E+08         0.83967E+05         0.00000E+00
    0.83967E+05        -0.60517E+08         0.00000E+00
    0.00000E+00         0.00000E+00        -0.60468E+08
 
   -0.58351E+08         0.24006E+05         0.00000E+00
    0.24006E+05        -0.60003E+08         0.00000E+00
    0.00000E+00         0.00000E+00        -0.59195E+08
 
   -0.58629E+08         0.45376E+05         0.00000E+00
    0.45376E+05        -0.60018E+08         0.00000E+00
    0.00000E+00         0.00000E+00        -0.59324E+08
 
   -0.58901E+08         0.31161E+05         0.00000E+00
    0.31161E+05        -0.60054E+08         0.00000E+00
    0.00000E+00         0.00000E+00        -0.59479E+08
 
   -0.59120E+08        -0.58950E+04         0.00000E+00
   -0.58950E+04        -0.60116E+08         0.00000E+00
    0.00000E+00         0.00000E+00        -0.59620E+08
 
   -0.59283E+08        -0.48467E+05         0.00000E+00
   -0.48467E+05        -0.60203E+08         0.00000E+00
    0.00000E+00         0.00000E+00        -0.59744E+08
 
   -0.59396E+08        -0.80933E+05         0.00000E+00
   -0.80933E+05        -0.60310E+08         0.00000E+00
    0.00000E+00         0.00000E+00        -0.59854E+08
 
   -0.59474E+08        -0.92100E+05         0.00000E+00
   -0.92100E+05        -0.60427E+08         0.00000E+00
    0.00000E+00         0.00000E+00        -0.59950E+08
 
   -0.59533E+08        -0.76293E+05         0.00000E+00
   -0.76293E+05        -0.60545E+08         0.00000E+00
    0.00000E+00         0.00000E+00        -0.60038E+08
 
   -0.59591E+08        -0.33420E+05         0.00000E+00
   -0.33420E+05        -0.60651E+08         0.00000E+00
    0.00000E+00         0.00000E+00        -0.60119E+08
 
   -0.59665E+08         0.31222E+05         0.00000E+00
    0.31222E+05        -0.60737E+08         0.00000E+00
    0.00000E+00         0.00000E+00        -0.60199E+08
 
   -0.59771E+08         0.10692E+06         0.00000E+00
    0.10692E+06        -0.60794E+08         0.00000E+00
    0.00000E+00         0.00000E+00        -0.60279E+08
 
   -0.59917E+08         0.17750E+06         0.00000E+00
    0.17750E+06        -0.60815E+08         0.00000E+00
    0.00000E+00         0.00000E+00        -0.60362E+08
 
   -0.60104E+08         0.22198E+06         0.00000E+00
    0.22198E+06        -0.60798E+08         0.00000E+00
    0.00000E+00         0.00000E+00        -0.60449E+08
 
   -0.60323E+08         0.21636E+06         0.00000E+00
    0.21636E+06        -0.60751E+08         0.00000E+00
    0.00000E+00         0.00000E+00        -0.60536E+08
 
   -0.60536E+08         0.13952E+06         0.00000E+00
    0.13952E+06        -0.60685E+08         0.00000E+00
    0.00000E+00         0.00000E+00        -0.60607E+08
 
   -0.58318E+08         0.17405E+05         0.00000E+00
    0.17405E+05        -0.60003E+08         0.00000E+00
    0.00000E+00         0.00000E+00        -0.59182E+08
 
   -0.58638E+08         0.18797E+05         0.00000E+00
    0.18797E+05        -0.60021E+08         0.00000E+00
    0.00000E+00         0.00000E+00        -0.59331E+08
 
   -0.58944E+08        -0.24010E+05         0.00000E+00
   -0.24010E+05        -0.60067E+08         0.00000E+00
    0.00000E+00         0.00000E+00        -0.59508E+08
 
   -0.59177E+08        -0.92315E+05         0.00000E+00
   -0.92315E+05        -0.60148E+08         0.00000E+00
    0.00000E+00         0.00000E+00        -0.59665E+08
 
   -0.59333E+08        -0.16170E+06         0.00000E+00
   -0.16170E+06        -0.60262E+08         0.00000E+00
    0.00000E+00         0.00000E+00        -0.59799E+08
 
   -0.59425E+08        -0.21147E+06         0.00000E+00
   -0.21147E+06        -0.60400E+08         0.00000E+00
    0.00000E+00         0.00000E+00        -0.59914E+08
 
   -0.59472E+08        -0.22824E+06         0.00000E+00
   -0.22824E+06        -0.60551E+08         0.00000E+00
    0.00000E+00         0.00000E+00        -0.60011E+08
 
   -0.59497E+08        -0.20610E+06         0.00000E+00
   -0.20610E+06        -0.60700E+08         0.00000E+00
    0.00000E+00         0.00000E+00        -0.60097E+08
 
   -0.59524E+08        -0.14560E+06         0.00000E+00
   -0.14560E+06        -0.60836E+08         0.00000E+00
    0.00000E+00         0.00000E+00        -0.60178E+08
 
   -0.59577E+08        -0.52875E+05         0.00000E+00
   -0.52875E+05        -0.60947E+08         0.00000E+00
    0.00000E+00         0.00000E+00        -0.60259E+08
 
   -0.59675E+08         0.59918E+05         0.00000E+00
    0.59918E+05        -0.61023E+08         0.00000E+00
    0.00000E+00         0.00000E+00        -0.60345E+08
 
   -0.59834E+08         0.17349E+06         0.00000E+00
    0.17349E+06        -0.61054E+08         0.00000E+00
    0.00000E+00         0.00000E+00        -0.60440E+08
 
   -0.60062E+08         0.26076E+06         0.00000E+00
    0.26076E+06        -0.61035E+08         0.00000E+00
    0.00000E+00         0.00000E+00        -0.60545E+08
 
   -0.60350E+08         0.28830E+06         0.00000E+00
    0.28830E+06        -0.60971E+08         0.00000E+00
    0.00000E+00         0.00000E+00        -0.60659E+08
 
   -0.60653E+08         0.22443E+06         0.00000E+00
    0.22443E+06        -0.60877E+08         0.00000E+00
    0.00000E+00         0.00000E+00        -0.60758E+08
 
   -0.58302E+08         0.10436E+05         0.00000E+00
    0.10436E+05        -0.60003E+08         0.00000E+00
    0.00000E+00         0.00000E+00        -0.59178E+08
 
   -0.58677E+08        -0.13884E+05         0.00000E+00
   -0.13884E+05        -0.60024E+08         0.00000E+00
    0.00000E+00         0.00000E+00        -0.59353E+08
 
   -0.59024E+08        -0.95496E+05         0.00000E+00
   -0.95496E+05        -0.60083E+08         0.00000E+00
    0.00000E+00         0.00000E+00        -0.59557E+08
 
   -0.59269E+08        -0.20548E+06         0.00000E+00
   -0.20548E+06        -0.60189E+08         0.00000E+00
    0.00000E+00         0.00000E+00        -0.59732E+08
 
   -0.59409E+08        -0.30829E+06         0.00000E+00
   -0.30829E+06        -0.60337E+08         0.00000E+00
    0.00000E+00         0.00000E+00        -0.59875E+08
 
   -0.59465E+08        -0.37727E+06         0.00000E+00
   -0.37727E+06        -0.60512E+08         0.00000E+00
    0.00000E+00         0.00000E+00        -0.59990E+08
 
   -0.59468E+08        -0.39824E+06         0.00000E+00
   -0.39824E+06        -0.60699E+08         0.00000E+00
    0.00000E+00         0.00000E+00        -0.60083E+08
 
   -0.59448E+08        -0.36702E+06         0.00000E+00
   -0.36702E+06        -0.60880E+08         0.00000E+00
    0.00000E+00         0.00000E+00        -0.60163E+08
 
   -0.59433E+08        -0.28572E+06         0.00000E+00
   -0.28572E+06        -0.61045E+08         0.00000E+00
    0.00000E+00         0.00000E+00        -0.60237E+08
 
   -0.59453E+08        -0.16080E+06         0.00000E+00
   -0.16080E+06        -0.61182E+08         0.00000E+00
    0.00000E+00         0.00000E+00        -0.60314E+08
 
   -0.59534E+08        -0.41433E+04         0.00000E+00
   -0.41433E+04        -0.61280E+08         0.00000E+00
    0.00000E+00         0.00000E+00        -0.60402E+08
 
   -0.59701E+08         0.16353E+06         0.00000E+00
    0.16353E+06        -0.61324E+08         0.00000E+00
    0.00000E+00         0.00000E+00        -0.60507E+08
 
   -0.59971E+08         0.30908E+06         0.00000E+00
    0.30908E+06        -0.61305E+08         0.00000E+00
    0.00000E+00         0.00000E+00        -0.60633E+08
 
   -0.60345E+08         0.38669E+06         0.00000E+00
    0.38669E+06        -0.61221E+08         0.00000E+00
    0.00000E+00         0.00000E+00        -0.60780E+08
 
   -0.60764E+08         0.34886E+06         0.00000E+00
    0.34886E+06        -0.61089E+08         0.00000E+00
    0.00000E+00         0.00000E+00        -0.60916E+08
 
   -0.58305E+08         0.32082E+04         0.00000E+00
    0.32082E+04        -0.60004E+08         0.00000E+00
    0.00000E+00         0.00000E+00        -0.59184E+08
 
   -0.58754E+08        -0.54093E+05         0.00000E+00
   -0.54093E+05        -0.60029E+08         0.00000E+00
    0.00000E+00         0.00000E+00        -0.59394E+08
 
   -0.59154E+08        -0.19001E+06         0.00000E+00
   -0.19001E+06        -0.60106E+08         0.00000E+00
    0.00000E+00         0.00000E+00        -0.59634E+08
 
   -0.59404E+08        -0.35499E+06         0.00000E+00
   -0.35499E+06        -0.60248E+08         0.00000E+00
    0.00000E+00         0.00000E+00        -0.59830E+08
 
   -0.59511E+08        -0.49601E+06         0.00000E+00
   -0.49601E+06        -0.60441E+08         0.00000E+00
    0.00000E+00         0.00000E+00        -0.59978E+08
 
   -0.59515E+08        -0.58148E+06         0.00000E+00
   -0.58148E+06        -0.60659E+08         0.00000E+00
    0.00000E+00         0.00000E+00        -0.60087E+08
 
   -0.59459E+08        -0.60083E+06         0.00000E+00
   -0.60083E+06        -0.60879E+08         0.00000E+00
    0.00000E+00         0.00000E+00        -0.60168E+08
 
   -0.59382E+08        -0.55562E+06         0.00000E+00
   -0.55562E+06        -0.61087E+08         0.00000E+00
    0.00000E+00         0.00000E+00        -0.60232E+08
 
   -0.59315E+08        -0.45112E+06         0.00000E+00
   -0.45112E+06        -0.61274E+08         0.00000E+00
    0.00000E+00         0.00000E+00        -0.60292E+08
 
   -0.59290E+08        -0.29290E+06         0.00000E+00
   -0.29290E+06        -0.61434E+08         0.00000E+00
    0.00000E+00         0.00000E+00        -0.60358E+08
 
   -0.59340E+08        -0.88984E+05         0.00000E+00
   -0.88984E+05        -0.61554E+08         0.00000E+00
    0.00000E+00         0.00000E+00        -0.60442E+08
 
   -0.59502E+08         0.14281E+06         0.00000E+00
    0.14281E+06        -0.61617E+08         0.00000E+00
    0.00000E+00         0.00000E+00        -0.60553E+08
 
   -0.59813E+08         0.36549E+06         0.00000E+00
    0.36549E+06        -0.61603E+08         0.00000E+00
    0.00000E+00         0.00000E+00        -0.60700E+08
 
   -0.60289E+08         0.51732E+06         0.00000E+00
    0.51732E+06        -0.61499E+08         0.00000E+00
    0.00000E+00         0.00000E+00        -0.60889E+08
 
   -0.60859E+08         0.52583E+06         0.00000E+00
    0.52583E+06        -0.61319E+08         0.00000E+00
    0.00000E+00         0.00000E+00        -0.61072E+08
 
   -0.58329E+08        -0.25436E+04         0.00000E+00
   -0.25436E+04        -0.59999E+08         0.00000E+00
    0.00000E+00         0.00000E+00        -0.59199E+08
 
   -0.58889E+08        -0.10788E+06         0.00000E+00
   -0.10788E+06        -0.60034E+08         0.00000E+00
    0.00000E+00         0.00000E+00        -0.59466E+08
 
   -0.59352E+08        -0.32345E+06         0.00000E+00
   -0.32345E+06        -0.60150E+08         0.00000E+00
    0.00000E+00         0.00000E+00        -0.59757E+08
 
   -0.59590E+08        -0.55739E+06         0.00000E+00
   -0.55739E+06        -0.60351E+08         0.00000E+00
    0.00000E+00         0.00000E+00        -0.59975E+08
 
   -0.59637E+08        -0.73403E+06         0.00000E+00
   -0.73403E+06        -0.60604E+08         0.00000E+00
    0.00000E+00         0.00000E+00        -0.60121E+08
 
   -0.59564E+08        -0.82274E+06         0.00000E+00
   -0.82274E+06        -0.60866E+08         0.00000E+00
    0.00000E+00         0.00000E+00        -0.60213E+08
 
   -0.59436E+08        -0.82652E+06         0.00000E+00
   -0.82652E+06        -0.61109E+08         0.00000E+00
    0.00000E+00         0.00000E+00        -0.60270E+08
 
   -0.59295E+08        -0.75930E+06         0.00000E+00
   -0.75930E+06        -0.61325E+08         0.00000E+00
    0.00000E+00         0.00000E+00        -0.60308E+08
 
   -0.59170E+08        -0.63129E+06         0.00000E+00
   -0.63129E+06        -0.61517E+08         0.00000E+00
    0.00000E+00         0.00000E+00        -0.60342E+08
 
   -0.59090E+08        -0.44488E+06         0.00000E+00
   -0.44488E+06        -0.61686E+08         0.00000E+00
    0.00000E+00         0.00000E+00        -0.60386E+08
 
   -0.59091E+08        -0.19846E+06         0.00000E+00
   -0.19846E+06        -0.61827E+08         0.00000E+00
    0.00000E+00         0.00000E+00        -0.60455E+08
 
   -0.59226E+08         0.10203E+06         0.00000E+00
    0.10203E+06        -0.61918E+08         0.00000E+00
    0.00000E+00         0.00000E+00        -0.60564E+08
 
   -0.59562E+08         0.42307E+06         0.00000E+00
    0.42307E+06        -0.61920E+08         0.00000E+00
    0.00000E+00         0.00000E+00        -0.60731E+08
 
   -0.60150E+08         0.68443E+06         0.00000E+00
    0.68443E+06        -0.61800E+08         0.00000E+00
    0.00000E+00         0.00000E+00        -0.60968E+08
 
   -0.60917E+08         0.77276E+06         0.00000E+00
    0.77276E+06        -0.61561E+08         0.00000E+00
    0.00000E+00         0.00000E+00        -0.61214E+08
 
   -0.58384E+08        -0.82863E+04         0.00000E+00
   -0.82863E+04        -0.60009E+08         0.00000E+00
    0.00000E+00         0.00000E+00        -0.59261E+08
 
   -0.59112E+08        -0.19769E+06         0.00000E+00
   -0.19769E+06        -0.60076E+08         0.00000E+00
    0.00000E+00         0.00000E+00        -0.59607E+08
 
   -0.59642E+08        -0.52588E+06         0.00000E+00
   -0.52588E+06        -0.60258E+08         0.00000E+00
    0.00000E+00         0.00000E+00        -0.59963E+08
 
   -0.59827E+08        -0.83894E+06         0.00000E+00
   -0.83894E+06        -0.60553E+08         0.00000E+00
    0.00000E+00         0.00000E+00        -0.60197E+08
 
   -0.59765E+08        -0.10291E+07         0.00000E+00
   -0.10291E+07        -0.60883E+08         0.00000E+00
    0.00000E+00         0.00000E+00        -0.60325E+08
 
   -0.59590E+08        -0.10875E+07         0.00000E+00
   -0.10875E+07        -0.61177E+08         0.00000E+00
    0.00000E+00         0.00000E+00        -0.60383E+08
 
   -0.59383E+08        -0.10506E+07         0.00000E+00
   -0.10506E+07        -0.61414E+08         0.00000E+00
    0.00000E+00         0.00000E+00        -0.60399E+08
 
   -0.59183E+08        -0.95095E+06         0.00000E+00
   -0.95095E+06        -0.61603E+08         0.00000E+00
    0.00000E+00         0.00000E+00        -0.60395E+08
 
   -0.59005E+08        -0.80305E+06         0.00000E+00
   -0.80305E+06        -0.61765E+08         0.00000E+00
    0.00000E+00         0.00000E+00        -0.60388E+08
 
   -0.58866E+08        -0.60337E+06         0.00000E+00
   -0.60337E+06        -0.61919E+08         0.00000E+00
    0.00000E+00         0.00000E+00        -0.60396E+08
 
   -0.58796E+08        -0.33419E+06         0.00000E+00
   -0.33419E+06        -0.62069E+08         0.00000E+00
    0.00000E+00         0.00000E+00        -0.60435E+08
 
   -0.58864E+08         0.24715E+05         0.00000E+00
    0.24715E+05        -0.62196E+08         0.00000E+00
    0.00000E+00         0.00000E+00        -0.60527E+08
 
   -0.59183E+08         0.46369E+06         0.00000E+00
    0.46369E+06        -0.62241E+08         0.00000E+00
    0.00000E+00         0.00000E+00        -0.60702E+08
 
   -0.59880E+08         0.88840E+06         0.00000E+00
    0.88840E+06        -0.62121E+08         0.00000E+00
    0.00000E+00         0.00000E+00        -0.60991E+08
 
   -0.60902E+08         0.11153E+07         0.00000E+00
    0.11153E+07        -0.61808E+08         0.00000E+00
    0.00000E+00         0.00000E+00        -0.61316E+08
 
   -0.58494E+08        -0.36986E+05         0.00000E+00
   -0.36986E+05        -0.60017E+08         0.00000E+00
    0.00000E+00         0.00000E+00        -0.59317E+08
 
   -0.59473E+08        -0.34316E+06         0.00000E+00
   -0.34316E+06        -0.60107E+08         0.00000E+00
    0.00000E+00         0.00000E+00        -0.59788E+08
 
   -0.60056E+08        -0.86001E+06         0.00000E+00
   -0.86001E+06        -0.60431E+08         0.00000E+00
    0.00000E+00         0.00000E+00        -0.60235E+08
 
   -0.60085E+08        -0.12395E+07         0.00000E+00
   -0.12395E+07        -0.60903E+08         0.00000E+00
    0.00000E+00         0.00000E+00        -0.60470E+08
 
   -0.59844E+08        -0.13690E+07         0.00000E+00
   -0.13690E+07        -0.61313E+08         0.00000E+00
    0.00000E+00         0.00000E+00        -0.60550E+08
 
   -0.59553E+08        -0.13350E+07         0.00000E+00
   -0.13350E+07        -0.61590E+08         0.00000E+00
    0.00000E+00         0.00000E+00        -0.60546E+08
 
   -0.59283E+08        -0.12255E+07         0.00000E+00
   -0.12255E+07        -0.61758E+08         0.00000E+00
    0.00000E+00         0.00000E+00        -0.60500E+08
 
   -0.59046E+08        -0.10852E+07         0.00000E+00
   -0.10852E+07        -0.61862E+08         0.00000E+00
    0.00000E+00         0.00000E+00        -0.60437E+08
 
   -0.58834E+08        -0.92685E+06         0.00000E+00
   -0.92685E+06        -0.61945E+08         0.00000E+00
    0.00000E+00         0.00000E+00        -0.60374E+08
 
   -0.58643E+08        -0.73894E+06         0.00000E+00
   -0.73894E+06        -0.62039E+08         0.00000E+00
    0.00000E+00         0.00000E+00        -0.60328E+08
 
   -0.58487E+08        -0.48717E+06         0.00000E+00
   -0.48717E+06        -0.62168E+08         0.00000E+00
    0.00000E+00         0.00000E+00        -0.60315E+08
 
   -0.58430E+08        -0.11275E+06         0.00000E+00
   -0.11275E+06        -0.62332E+08         0.00000E+00
    0.00000E+00         0.00000E+00        -0.60363E+08
 
   -0.58637E+08         0.44034E+06         0.00000E+00
    0.44034E+06        -0.62467E+08         0.00000E+00
    0.00000E+00         0.00000E+00        -0.60523E+08
 
   -0.59393E+08         0.11101E+07         0.00000E+00
    0.11101E+07        -0.62414E+08         0.00000E+00
    0.00000E+00         0.00000E+00        -0.60870E+08
 
   -0.60750E+08         0.15876E+07         0.00000E+00
    0.15876E+07        -0.62034E+08         0.00000E+00
    0.00000E+00         0.00000E+00        -0.61326E+08
 
   -0.58694E+08        -0.13685E+05         0.00000E+00
   -0.13685E+05        -0.59901E+08         0.00000E+00
    0.00000E+00         0.00000E+00        -0.59361E+08
 
   -0.60137E+08        -0.70170E+06         0.00000E+00
   -0.70170E+06        -0.60229E+08         0.00000E+00
    0.00000E+00         0.00000E+00        -0.60212E+08
 
   -0.60585E+08        -0.15096E+07         0.00000E+00
   -0.15096E+07        -0.61062E+08         0.00000E+00
    0.00000E+00         0.00000E+00        -0.60809E+08
 
   -0.60234E+08        -0.17652E+07         0.00000E+00
   -0.17652E+07        -0.61776E+08         0.00000E+00
    0.00000E+00         0.00000E+00        -0.60985E+08
 
   -0.59779E+08        -0.16729E+07         0.00000E+00
   -0.16729E+07        -0.62146E+08         0.00000E+00
    0.00000E+00         0.00000E+00        -0.60952E+08
 
   -0.59410E+08        -0.14782E+07         0.00000E+00
   -0.14782E+07        -0.62275E+08         0.00000E+00
    0.00000E+00         0.00000E+00        -0.60841E+08
 
   -0.59124E+08        -0.12785E+07         0.00000E+00
   -0.12785E+07        -0.62277E+08         0.00000E+00
    0.00000E+00         0.00000E+00        -0.60705E+08
 
   -0.58889E+08        -0.11024E+07         0.00000E+00
   -0.11024E+07        -0.62225E+08         0.00000E+00
    0.00000E+00         0.00000E+00        -0.60565E+08
 
   -0.58675E+08        -0.94908E+06         0.00000E+00
   -0.94908E+06        -0.62167E+08         0.00000E+00
    0.00000E+00         0.00000E+00        -0.60432E+08
 
   -0.58457E+08        -0.80029E+06         0.00000E+00
   -0.80029E+06        -0.62142E+08         0.00000E+00
    0.00000E+00         0.00000E+00        -0.60313E+08
 
   -0.58221E+08        -0.61572E+06         0.00000E+00
   -0.61572E+06        -0.62184E+08         0.00000E+00
    0.00000E+00         0.00000E+00        -0.60219E+08
 
   -0.57990E+08        -0.31363E+06         0.00000E+00
   -0.31363E+06        -0.62329E+08         0.00000E+00
    0.00000E+00         0.00000E+00        -0.60175E+08
 
   -0.57922E+08         0.26480E+06         0.00000E+00
    0.26480E+06        -0.62574E+08         0.00000E+00
    0.00000E+00         0.00000E+00        -0.60249E+08
 
   -0.58530E+08         0.12438E+07         0.00000E+00
    0.12438E+07        -0.62715E+08         0.00000E+00
    0.00000E+00         0.00000E+00        -0.60598E+08
 
   -0.60325E+08         0.22519E+07         0.00000E+00
    0.22519E+07        -0.62314E+08         0.00000E+00
    0.00000E+00         0.00000E+00        -0.61211E+08
 
   -0.59349E+08        -0.16842E+06         0.00000E+00
   -0.16842E+06        -0.60351E+08         0.00000E+00
    0.00000E+00         0.00000E+00        -0.60869E+08
 
   -0.61282E+08        -0.20119E+07         0.00000E+00
   -0.20119E+07        -0.61966E+08         0.00000E+00
    0.00000E+00         0.00000E+00        -0.61889E+08
 
   -0.60836E+08        -0.24996E+07         0.00000E+00
   -0.24996E+07        -0.63374E+08         0.00000E+00
    0.00000E+00         0.00000E+00        -0.62293E+08
 
   -0.60032E+08        -0.21495E+07         0.00000E+00
   -0.21495E+07        -0.63807E+08         0.00000E+00
    0.00000E+00         0.00000E+00        -0.62143E+08
 
   -0.59498E+08        -0.17251E+07         0.00000E+00
   -0.17251E+07        -0.63754E+08         0.00000E+00
    0.00000E+00         0.00000E+00        -0.61858E+08
 
   -0.59156E+08        -0.13797E+07         0.00000E+00
   -0.13797E+07        -0.63524E+08         0.00000E+00
    0.00000E+00         0.00000E+00        -0.61577E+08
 
   -0.58921E+08        -0.11251E+07         0.00000E+00
   -0.11251E+07        -0.63247E+08         0.00000E+00
    0.00000E+00         0.00000E+00        -0.61321E+08
 
   -0.58731E+08        -0.94364E+06         0.00000E+00
   -0.94364E+06        -0.62976E+08         0.00000E+00
    0.00000E+00         0.00000E+00        -0.61090E+08
 
   -0.58547E+08        -0.81516E+06         0.00000E+00
   -0.81516E+06        -0.62733E+08         0.00000E+00
    0.00000E+00         0.00000E+00        -0.60875E+08
 
   -0.58333E+08        -0.71896E+06         0.00000E+00
   -0.71896E+06        -0.62533E+08         0.00000E+00
    0.00000E+00         0.00000E+00        -0.60667E+08
 
   -0.58052E+08        -0.62449E+06         0.00000E+00
   -0.62449E+06        -0.62397E+08         0.00000E+00
    0.00000E+00         0.00000E+00        -0.60459E+08
 
   -0.57666E+08        -0.46544E+06         0.00000E+00
   -0.46544E+06        -0.62371E+08         0.00000E+00
    0.00000E+00         0.00000E+00        -0.60252E+08
 
   -0.57180E+08        -0.64748E+05         0.00000E+00
   -0.64748E+05        -0.62533E+08         0.00000E+00
    0.00000E+00         0.00000E+00        -0.60087E+08
 
   -0.57096E+08         0.10949E+07         0.00000E+00
    0.10949E+07        -0.62879E+08         0.00000E+00
    0.00000E+00         0.00000E+00        -0.60131E+08
 
   -0.59021E+08         0.32612E+07         0.00000E+00
    0.32612E+07        -0.62483E+08         0.00000E+00
    0.00000E+00         0.00000E+00        -0.60503E+08
 
   -0.61792E+08        -0.25056E+07         0.00000E+00
   -0.25056E+07        -0.62930E+08         0.00000E+00
    0.00000E+00         0.00000E+00        -0.62511E+08
 
   -0.61797E+08        -0.38782E+07         0.00000E+00
   -0.38782E+07        -0.64791E+08         0.00000E+00
    0.00000E+00         0.00000E+00        -0.62075E+08
 
   -0.60164E+08        -0.26673E+07         0.00000E+00
   -0.26673E+07        -0.64478E+08         0.00000E+00
    0.00000E+00         0.00000E+00        -0.61394E+08
 
   -0.59468E+08        -0.17872E+07         0.00000E+00
   -0.17872E+07        -0.63604E+08         0.00000E+00
    0.00000E+00         0.00000E+00        -0.60675E+08
 
   -0.59088E+08        -0.12568E+07         0.00000E+00
   -0.12568E+07        -0.62783E+08         0.00000E+00
    0.00000E+00         0.00000E+00        -0.60092E+08
 
   -0.58875E+08        -0.92959E+06         0.00000E+00
   -0.92959E+06        -0.62101E+08         0.00000E+00
    0.00000E+00         0.00000E+00        -0.59651E+08
 
   -0.58729E+08        -0.72292E+06         0.00000E+00
   -0.72292E+06        -0.61542E+08         0.00000E+00
    0.00000E+00         0.00000E+00        -0.59302E+08
 
   -0.58602E+08        -0.59048E+06         0.00000E+00
   -0.59048E+06        -0.61075E+08         0.00000E+00
    0.00000E+00         0.00000E+00        -0.59007E+08
 
   -0.58459E+08        -0.50630E+06         0.00000E+00
   -0.50630E+06        -0.60672E+08         0.00000E+00
    0.00000E+00         0.00000E+00        -0.58738E+08
 
   -0.58268E+08        -0.45392E+06         0.00000E+00
   -0.45392E+06        -0.60313E+08         0.00000E+00
    0.00000E+00         0.00000E+00        -0.58467E+08
 
   -0.57979E+08        -0.41729E+06         0.00000E+00
   -0.41729E+06        -0.59987E+08         0.00000E+00
    0.00000E+00         0.00000E+00        -0.58166E+08
 
   -0.57504E+08        -0.36364E+06         0.00000E+00
   -0.36364E+06        -0.59703E+08         0.00000E+00
    0.00000E+00         0.00000E+00        -0.57800E+08
 
   -0.56701E+08        -0.19174E+06         0.00000E+00
   -0.19174E+06        -0.59517E+08         0.00000E+00
    0.00000E+00         0.00000E+00        -0.57336E+08
 
   -0.55235E+08         0.57309E+06         0.00000E+00
    0.57309E+06        -0.59655E+08         0.00000E+00
    0.00000E+00         0.00000E+00        -0.56778E+08
 
   -0.55098E+08         0.43228E+07         0.00000E+00
    0.43228E+07        -0.59868E+08         0.00000E+00
    0.00000E+00         0.00000E+00        -0.56200E+08
 
   -0.65802E+08        -0.46246E+07         0.00000E+00
   -0.46246E+07        -0.56793E+08         0.00000E+00
    0.00000E+00         0.00000E+00        -0.46726E+08
 
   -0.60093E+08        -0.20999E+07         0.00000E+00
   -0.20999E+07        -0.52760E+08         0.00000E+00
    0.00000E+00         0.00000E+00        -0.45844E+08
 
   -0.59313E+08        -0.99296E+06         0.00000E+00
   -0.99296E+06        -0.50048E+08         0.00000E+00
    0.00000E+00         0.00000E+00        -0.45106E+08
 
   -0.58981E+08        -0.58456E+06         0.00000E+00
   -0.58456E+06        -0.48460E+08         0.00000E+00
    0.00000E+00         0.00000E+00        -0.44596E+08
 
   -0.58809E+08        -0.38005E+06         0.00000E+00
   -0.38005E+06        -0.47443E+08         0.00000E+00
    0.00000E+00         0.00000E+00        -0.44241E+08
 
   -0.58704E+08        -0.26929E+06         0.00000E+00
   -0.26929E+06        -0.46739E+08         0.00000E+00
    0.00000E+00         0.00000E+00        -0.43992E+08
 
   -0.58621E+08        -0.20282E+06         0.00000E+00
   -0.20282E+06        -0.46220E+08         0.00000E+00
    0.00000E+00         0.00000E+00        -0.43805E+08
 
   -0.58532E+08        -0.16070E+06         0.00000E+00
   -0.16070E+06        -0.45814E+08         0.00000E+00
    0.00000E+00         0.00000E+00        -0.43650E+08
 
   -0.58415E+08        -0.13286E+06         0.00000E+00
   -0.13286E+06        -0.45480E+08         0.00000E+00
    0.00000E+00         0.00000E+00        -0.43509E+08
 
   -0.58238E+08        -0.11305E+06         0.00000E+00
   -0.11305E+06        -0.45193E+08         0.00000E+00
    0.00000E+00         0.00000E+00        -0.43366E+08
 
   -0.57949E+08        -0.95089E+05         0.00000E+00
   -0.95089E+05        -0.44938E+08         0.00000E+00
    0.00000E+00         0.00000E+00        -0.43202E+08
 
   -0.57440E+08        -0.68328E+05         0.00000E+00
   -0.68328E+05        -0.44716E+08         0.00000E+00
    0.00000E+00         0.00000E+00        -0.42990E+08
 
   -0.56457E+08         0.75244E+04         0.00000E+00
    0.75244E+04        -0.44574E+08         0.00000E+00
    0.00000E+00         0.00000E+00        -0.42694E+08
 
   -0.54302E+08         0.23419E+06         0.00000E+00
    0.23419E+06        -0.44738E+08         0.00000E+00
    0.00000E+00         0.00000E+00        -0.42250E+08
 
   -0.47054E+08         0.24599E+07         0.00000E+00
    0.24599E+07        -0.46875E+08         0.00000E+00
    0.00000E+00         0.00000E+00        -0.41643E+08
 
SCALARS stresss double 
LOOKUP_TABLE default
  -59641125.7792057     
  -59646092.0643745     
  -59653668.0201053     
  -59663131.7558246     
  -59674041.7314370     
  -59685968.0127756     
  -59698486.6690016     
  -59711210.6315329     
  -59723800.5202653     
  -59735974.7480141     
  -59747520.0213983     
  -59758292.2425610     
  -59768270.4442916     
  -59777587.2996600     
  -59785596.6748981     
  -59637868.8769844     
  -59642888.7063753     
  -59650837.4555331     
  -59660739.1672081     
  -59672094.0417064     
  -59684444.5066883     
  -59697351.2511120     
  -59710415.7638465     
  -59723288.6226597     
  -59735678.2888841     
  -59747360.6717232     
  -59758179.3741522     
  -59768090.5928542     
  -59777185.4061690     
  -59784708.8249598     
  -59632208.6017481     
  -59637969.4270069     
  -59646804.1123651     
  -59657636.8574618     
  -59669904.8102178     
  -59683118.3795332     
  -59696812.5399252     
  -59710568.0786237     
  -59724016.6640985     
  -59736847.8085486     
  -59748817.2083329     
  -59759746.3507529     
  -59769559.3778716     
  -59778291.4713966     
  -59785296.3637785     
  -59623533.9129264     
  -59630639.3868532     
  -59640987.7148262     
  -59653296.8442068     
  -59666980.0248791     
  -59681520.2074023     
  -59696421.5509281     
  -59711237.3823121     
  -59725573.1880286     
  -59739091.8366947     
  -59751520.9012204     
  -59762652.8996285     
  -59772376.4417950     
  -59780695.5309539     
  -59787078.7637875     
  -59611778.2877114     
  -59620726.9269353     
  -59633199.3841120     
  -59647563.6554795     
  -59663197.4584369     
  -59679557.6609729     
  -59696113.1639121     
  -59712384.6859244     
  -59727945.6718415     
  -59742425.7682452     
  -59755517.3180613     
  -59766977.0372860     
  -59776653.4511767     
  -59784508.8981493     
  -59790132.9974556     
  -59596946.0508587     
  -59608277.5367211     
  -59623502.2765512     
  -59640530.8234640     
  -59658685.8672380     
  -59677393.3111520     
  -59696082.3184777     
  -59714236.9584462     
  -59731394.1312988     
  -59747144.6828792     
  -59761138.7654677     
  -59773089.2479894     
  -59782792.1465181     
  -59790148.1657126     
  -59794876.2070292     
  -59578998.1986945     
  -59593329.6487685     
  -59611999.2112515     
  -59632348.0989218     
  -59653635.9496498     
  -59675255.7556716     
  -59696593.8819173     
  -59717095.6000064     
  -59736258.5441798     
  -59753630.4866737     
  -59768812.8682830     
  -59781465.3872319     
  -59791317.1199860     
  -59798186.1741080     
  -59801927.1886045     
  -59557911.0370273     
  -59575932.2164224     
  -59598810.0031412     
  -59623190.9080273     
  -59648268.6498483     
  -59673406.2389354     
  -59697947.3984596     
  -59721299.3692774     
  -59742920.4239298     
  -59762313.0501643     
  -59779024.6270186     
  -59792652.4063920     
  -59802843.7289869     
  -59809313.3956721     
  -59812047.6689468     
  -59533710.5749560     
  -59556186.0728728     
  -59584106.9021109     
  -59613288.1430820     
  -59642858.5589243     
  -59672158.8268247     
  -59700494.2965939     
  -59727238.9378367     
  -59751815.2793982     
  -59773681.4502188     
  -59792327.6296520     
  -59807280.1924319     
  -59818089.7752644     
  -59824345.6481818     
  -59826145.4666386     
  -59506489.1474271     
  -59534259.6364181     
  -59568129.1693198     
  -59602932.9353209     
  -59637740.3812055     
  -59671882.7325940     
  -59704636.2063573     
  -59735351.4593243     
  -59763424.0041760     
  -59788273.1272991     
  -59809332.2219659     
  -59826050.1519815     
  -59837866.1203244     
  -59844219.8072144     
  -59845278.6374822     
  -59476431.7590259     
  -59510409.1051429     
  -59551197.5108357     
  -59592492.3633266     
  -59633313.8559823     
  -59673002.2032310     
  -59710819.6268803     
  -59746110.0859415     
  -59778257.7489201     
  -59806655.1610886     
  -59830684.7954085     
  -59849714.6329272     
  -59863058.9589225     
  -59869982.3727387     
  -59870652.5865851     
  -59443843.3612428     
  -59485001.8484327     
  -59533732.9943274     
  -59582421.7245369     
  -59630052.8438158     
  -59675999.6066738     
  -59719532.3020254     
  -59760013.3313776     
  -59796840.6198220     
  -59829401.4481162     
  -59857041.4237696     
  -59879049.7695061     
  -59894605.3256778     
  -59902771.6066349     
  -59903611.3538205     
  -59409174.7456003     
  -59458538.7310358     
  -59516276.1089794     
  -59573279.8881369     
  -59628515.5288353     
  -59681418.6549711     
  -59731297.8523803     
  -59777570.1683876     
  -59819685.2798785     
  -59857060.0038406     
  -59889029.2756001     
  -59914814.5472667     
  -59933454.3843328     
  -59943786.4799213     
  -59945617.9153806     
  -59373046.0254248     
  -59431676.6193848     
  -59499508.5396526     
  -59565748.9108778     
  -59629359.0434341     
  -59689870.7298732     
  -59746670.9020291     
  -59799282.0879284     
  -59847261.5049537     
  -59890109.2233066     
  -59927193.4838394     
  -59957692.7531821     
  -59980510.3362160     
  -59994237.4948329     
  -59998217.8419564     
  -59336263.5470671     
  -59405247.8217523     
  -59484276.2172576     
  -59560658.0870304     
  -59633359.3595016     
  -59702044.9147930     
  -59766232.3367586     
  -59825620.3383648     
  -59879954.2677861     
  -59928897.9787856     
  -59971922.7812936     
  -60008209.9015763     
  -60036548.3815596     
  -60055270.9848626     
  -60062978.8225629     
  -59299822.1634386     
  -59380278.0623118     
  -59471622.8190747     
  -59559024.7662308     
  -59641449.3272117     
  -59718733.5111974     
  -59790594.5858379     
  -59857005.9988874     
  -59918016.6164637     
  -59973572.3667756     
  -60023354.2643078     
  -60066623.1326155     
  -60102099.5874314     
  -60127860.8152416     
  -60141398.4030806     
  -59264903.2677252     
  -59358008.7527347     
  -59462835.1189722     
  -59562111.8353959     
  -59654773.1808206     
  -59740869.3325273     
  -59820410.6100326     
  -59893783.6871706     
  -59961505.1914919     
  -60023974.0300650     
  -60081239.5854351     
  -60132764.5709634     
  -60177284.7228844     
  -60212648.5792937     
  -60234762.3091039     
  -59232815.3825909     
  -59339893.3521739     
  -59459497.5381010     
  -59571513.5063027     
  -59674772.7624813     
  -59769587.6949161     
  -59856395.3527253     
  -59936193.5175595     
  -60010199.0236215     
  -60079506.3883880     
  -60144763.9841372     
  -60205824.6672884     
  -60261580.3323042     
  -60309716.7885617     
  -60343944.9786566     
  -59204984.7534443     
  -59327714.4658027     
  -59463697.7585119     
  -59589390.2833834     
  -59703408.2536806     
  -59806402.3540947     
  -59899440.0144142     
  -59984415.8497292     
  -60063571.6860164     
  -60139034.0213290     
  -60212377.0963736     
  -60284126.1176336     
  -60353556.7260003     
  -60418316.0861418     
  -60469142.5555837     
  -59182834.9736124     
  -59323513.3174458     
  -59478038.8847290     
  -59618533.8900759     
  -59743202.7022210     
  -59853183.7624730     
  -59950503.3788781     
  -60038371.1271555     
  -60120498.4620430     
  -60200494.4849426     
  -60281310.5128818     
  -60364563.9083202     
  -60450284.9722516     
  -60536312.0060540     
  -60609420.9290857     
  -59167614.9971788     
  -59330012.8046493     
  -59506493.1286432     
  -59663304.8882639     
  -59798101.6802071     
  -59912876.9384868     
  -60011189.0199005     
  -60098174.6850884     
  -60179596.1527162     
  -60261111.2257840     
  -60347641.7154367     
  -60442511.2000565     
  -60547109.6920235     
  -60659888.7542439     
  -60762406.4658627     
  -59160884.2758337     
  -59351209.7157621     
  -59554812.8090240     
  -59729855.1058353     
  -59873430.8211479     
  -59989204.8606608     
  -60083257.1374705     
  -60163519.5252357     
  -60238498.6512009     
  -60316533.9594919     
  -60405245.9066937     
  -60510554.9815019     
  -60636243.0002476     
  -60782172.1299552     
  -60923110.0263364     
  -59164163.0301503     
  -59392323.5109105     
  -59631368.3150491     
  -59827182.4606773     
  -59976609.0988404     
  -60086983.7566600     
  -60168694.0041142     
  -60233649.7055275     
  -60293785.1378273     
  -60360642.4744486     
  -60445308.7828388     
  -60557582.6406542     
  -60705497.5669564     
  -60892125.5766314     
  -61083478.7808195     
  -59175662.0263203     
  -59463061.6704057     
  -59753013.3820430     
  -59971762.6865872     
  -60120302.6261993     
  -60214336.8580911     
  -60271563.0628815     
  -60309250.4631879     
  -60343007.2199391     
  -60387542.9310794     
  -60457892.1486422     
  -60569376.9749550     
  -60737561.4504189     
  -60972707.0235014     
  -61230522.8754738     
  -59217950.6503135     
  -59598022.4335154     
  -59954451.4787174     
  -60192230.2271512     
  -60324426.7506658     
  -60383359.3645415     
  -60398625.7413569     
  -60393555.9765824     
  -60386374.3231200     
  -60393584.9292379     
  -60433635.4626299     
  -60529011.9672498     
  -60708390.1870368     
  -60997572.8500227     
  -61342006.4283829     
  -59276095.3218664     
  -59789545.8860519     
  -60240360.2338848     
  -60485671.5547745     
  -60569075.1248466     
  -60562958.7062633     
  -60513616.3249203     
  -60448302.0555387     
  -60384373.7827521     
  -60336505.9826356     
  -60323469.8553845     
  -60374926.0128617     
  -60542226.8249883     
  -60892259.9527863     
  -61370271.1945431     
  -59318431.7030427     
  -60192641.6996330     
  -60818730.6277513     
  -60998275.9064236     
  -60958888.3374783     
  -60842255.0143703     
  -60701750.6899964     
  -60559567.6000839     
  -60424841.3768597     
  -60303824.3155818     
  -60208227.4953072     
  -60164509.7965267     
  -60248482.1197041     
  -60614102.3642969     
  -61283107.6420726     
  -60189986.7184783     
  -61712497.0521986     
  -62167380.4589433     
  -61993962.1382723     
  -61703309.7007942     
  -61418939.6212255     
  -61162895.2059399     
  -60932407.3774194     
  -60718387.9459514     
  -60510830.9818831     
  -60302850.8750570     
  -60096301.0851215     
  -59933101.8683112     
  -60035531.3039741     
  -60668746.8765495     
  -62410708.7509004     
  -62887628.9309722     
  -62012107.8564202     
  -61248914.7257352     
  -60654359.4922863     
  -60208784.5342111     
  -59857522.9560082     
  -59561159.7178971     
  -59289731.7915711     
  -59016042.1320555     
  -58710869.8451344     
  -58335477.8363329     
  -57851470.9558207     
  -57222557.0667206     
  -57055300.2940418     
  -56440089.5354505     
  -52898973.5886063     
  -51488918.4701409     
  -50679016.7466156     
  -50164154.9158602     
  -49811886.2020365     
  -49548414.3616883     
  -49331942.1980340     
  -49134690.8939628     
  -48932289.7432756     
  -48696137.0049603     
  -48381857.7531440     
  -47908591.1782758     
  -47096741.4266203     
  -45190490.1277084     
SCALARS 2waySource double 
LOOKUP_TABLE default
 -1.042747646884282E-003
 -1.032589671575529E-003
 -1.013246428898041E-003
 -9.874496826161583E-004
 -9.570257559157482E-004
 -9.232018565663819E-004
 -8.872261418663991E-004
 -8.502710675815066E-004
 -8.133760401936626E-004
 -7.774159195533941E-004
 -7.430947604662411E-004
 -7.109231843343128E-004
 -6.810469768668842E-004
 -6.533551613140242E-004
 -6.305210770328166E-004
 -1.052421509113470E-003
 -1.041605532688255E-003
 -1.020913593832958E-003
 -9.936612553840380E-004
 -9.617928115931973E-004
 -9.265856561957936E-004
 -8.893364731237339E-004
 -8.512516771246356E-004
 -8.134013765046831E-004
 -7.766901479333956E-004
 -7.418504515798422E-004
 -7.094217835724334E-004
 -6.795994171341222E-004
 -6.522995695064922E-004
 -6.300060586175347E-004
 -1.069973160180709E-003
 -1.057473342771411E-003
 -1.034115502304454E-003
 -1.003955760751857E-003
 -9.692582025056791E-004
 -9.313657973975359E-004
 -8.916485943120663E-004
 -8.513755626485827E-004
 -8.116722590420828E-004
 -7.734973879414363E-004
 -7.376375918910819E-004
 -7.046878854845050E-004
 -6.749253080078706E-004
 -6.483525502225231E-004
 -6.272058653930002E-004
 -1.096032381800849E-003
 -1.080465984076770E-003
 -1.052804114786277E-003
 -1.018133539250891E-003
 -9.791286606920624E-004
 -9.371756145374361E-004
 -8.937330571438261E-004
 -8.501555441250500E-004
 -8.076451748485816E-004
 -7.672363688739698E-004
 -7.297931513421383E-004
 -6.959896157761854E-004
 -6.662056287624640E-004
 -6.405583379634483E-004
 -6.209541677519237E-004
 -1.131045768537746E-003
 -1.111157865677845E-003
 -1.077441866901910E-003
 -1.036543802689004E-003
 -9.916471784980102E-004
 -9.441652131499537E-004
 -8.956570256655908E-004
 -8.475801421552571E-004
 -8.012305428974330E-004
 -7.577369498172744E-004
 -7.180612740751288E-004
 -6.829776138956722E-004
 -6.529911834192452E-004
 -6.283461734596094E-004
 -6.105173494419932E-004
 -1.174993781067353E-003
 -1.149562918877607E-003
 -1.108013161038011E-003
 -1.059064949165420E-003
 -1.006579910367596E-003
 -9.519950384363875E-004
 -8.969821413256172E-004
 -8.431153596460445E-004
 -7.917976854450130E-004
 -7.442673017171600E-004
 -7.016025802647993E-004
 -6.646991800265231E-004
 -6.342188397482564E-004
 -6.105672501938615E-004
 -5.947200828914434E-004
 -1.227962682619046E-003
 -1.195559835390394E-003
 -1.144218353113953E-003
 -1.085243883648277E-003
 -1.023343182341013E-003
 -9.599632978565375E-004
 -8.968961261646803E-004
 -8.358406008188632E-004
 -7.783142223039232E-004
 -7.256751522661878E-004
 -6.791342558292411E-004
 -6.397312884186791E-004
 -6.083206168484764E-004
 -5.855184354134598E-004
 -5.717721397223471E-004
 -1.290035718501855E-003
 -1.249040920834990E-003
 -1.185729285018115E-003
 -1.114571911107839E-003
 -1.041283136678559E-003
 -9.672901971945618E-004
 -8.945028031773672E-004
 -8.247443865184293E-004
 -7.596463957414777E-004
 -7.006905511083965E-004
 -6.492315194147634E-004
 -6.064739962139145E-004
 -5.735009352395056E-004
 -5.511900014951376E-004
 -5.394653614074897E-004
 -1.361125389818971E-003
 -1.309746205563574E-003
 -1.232075463591119E-003
 -1.146395861336640E-003
 -1.059601824728098E-003
 -9.730546041988803E-004
 -8.887679760218965E-004
 -8.086785650832510E-004
 -7.345202275566639E-004
 -6.678917718936004E-004
 -6.102952934713900E-004
 -5.631170353324872E-004
 -5.277026157238392E-004
 -5.052451353233752E-004
 -4.952011183472224E-004
 -1.440951843536709E-003
 -1.377209469719917E-003
 -1.282578694193319E-003
 -1.179860863724671E-003
 -1.077310264977417E-003
 -9.761583809157239E-004
 -8.784954219065280E-004
 -7.863456740098539E-004
 -7.015190770161009E-004
 -6.257108057383596E-004
 -5.605622867415241E-004
 -5.076504174694795E-004
 -4.686132358040696E-004
 -4.450165273835538E-004
 -4.359745538975104E-004
 -1.528966592363054E-003
 -1.450706525348325E-003
 -1.336317731023395E-003
 -1.213888771021604E-003
 -1.093219941006775E-003
 -9.753317589051440E-004
 -8.623472316978277E-004
 -7.563347253547417E-004
 -6.591340682409025E-004
 -5.724959812676658E-004
 -4.981755679435485E-004
 -4.379369428105644E-004
 -3.937315921231597E-004
 -3.675563531188613E-004
 -3.583992295998588E-004
 -1.624272376386320E-003
 -1.529187459917038E-003
 -1.392077326880216E-003
 -1.247141638649508E-003
 -1.105921125224539E-003
 -9.691281918787475E-004
 -8.388576470958473E-004
 -7.171557103021348E-004
 -6.058191779283986E-004
 -5.065851083040244E-004
 -4.212705607668832E-004
 -3.518033263822002E-004
 -3.004539126802712E-004
 -2.697059582249126E-004
 -2.587547247116873E-004
 -1.725558654459125E-003
 -1.611209122221500E-003
 -1.448278103823558E-003
 -1.277955057977187E-003
 -1.113725975531081E-003
 -9.558851746522102E-004
 -8.064180306417435E-004
 -6.672530096943070E-004
 -5.400343520406698E-004
 -4.263761331381005E-004
 -3.280675599941114E-004
 -2.471456130531116E-004
 -1.861800419587011E-004
 -1.481882100301801E-004
 -1.330553495190395E-004
 -1.831024199164426E-003
 -1.694873287283218E-003
 -1.502929112575202E-003
 -1.304303555904883E-003
 -1.114650515613211E-003
 -9.337296606278558E-004
 -7.633143935287039E-004
 -6.050816697766252E-004
 -4.603633059661424E-004
 -3.304841158728308E-004
 -2.170601425464538E-004
 -1.221361822270446E-004
 -4.852152535239859E-005
  2.042889293543578E-007
  2.279396890581770E-005
 -1.938369277389358E-003
 -1.777802857273759E-003
 -1.553573017475205E-003
 -1.323716863081544E-003
 -1.106323854068148E-003
 -9.005061198470556E-004
 -7.076951191910829E-004
 -5.291288909652413E-004
 -3.655950104419530E-004
 -2.178816090468699E-004
 -8.720624302953505E-005
  2.454951827646615E-005
  1.144582077869059E-004
  1.783840503901177E-004
  2.128103708894651E-004
 -2.044763507546254E-003
 -1.857022791884473E-003
 -1.597093682133437E-003
 -1.333074039390679E-003
 -1.085800382558285E-003
 -8.536317726781420E-004
 -6.374904690307573E-004
 -4.379123144958357E-004
 -2.548076052479016E-004
 -8.806588106980074E-005
  6.183181918242706E-005
  1.934376276606564E-004
  3.039151883894576E-004
  3.886309212913975E-004
  4.405988992063009E-004
 -2.146781073267927E-003
 -1.929054480946454E-003
 -1.629878659749552E-003
 -1.328718241354499E-003
 -1.049648481024290E-003
 -7.902099353693130E-004
 -5.505986983203796E-004
 -3.302711795584773E-004
 -1.277777547650941E-004
  5.841505519456401E-005
  2.290612230077611E-004
  3.835624751798898E-004
  5.195194915087476E-004
  6.319461098246847E-004
  7.088255117645916E-004
 -2.241245765519340E-003
 -1.989971136077344E-003
 -1.647184107986198E-003
 -1.305543589892553E-003
 -9.929931402596858E-004
 -7.061565298547099E-004
 -4.441578219779221E-004
 -2.048063394341438E-004
  1.540368269104646E-005
  2.201744552630684E-004
  4.122043566489845E-004
  5.923572815797555E-004
  7.592005262698086E-004
  9.076859340355771E-004
  1.018769715503081E-003
 -2.322753637845849E-003
 -2.033891079690531E-003
 -1.642425808260044E-003
 -1.256682407639345E-003
 -9.093930575080386E-004
 -5.962438641135522E-004
 -3.147818099119127E-004
 -6.033845248295262E-005
  1.736487189578217E-004
  3.940904240603364E-004
  6.066229999172250E-004
  8.144520235280217E-004
  1.017916660511015E-003
  1.212334564864988E-003
  1.369100445604583E-003
 -2.390949840271947E-003
 -2.058736793257657E-003
 -1.611122996176867E-003
 -1.175833013095710E-003
 -7.926385329332366E-004
 -4.559093096039579E-004
 -1.606320482520146E-004
  1.017223015012748E-004
  3.422095983474855E-004
  5.723568710890915E-004
  8.020695828430450E-004
  1.038173812027946E-003
  1.284062189470413E-003
  1.536455705869133E-003
  1.754002527232563E-003
 -2.436241608958414E-003
 -2.048234819381894E-003
 -1.530734305205040E-003
 -1.039117618705863E-003
 -6.200348539920948E-004
 -2.657101797558974E-004
  3.336666325674375E-005
  2.915968070145588E-004
  5.264581812941434E-004
  7.558281706230260E-004
  9.955219457849710E-004
  1.257598588168169E-003
  1.550254590398747E-003
  1.872678799116614E-003
  2.166981261755568E-003
 -2.460821341069403E-003
 -2.008540908690271E-003
 -1.409652101214208E-003
 -8.520512852697446E-004
 -3.985665116142413E-004
 -3.702683233616713E-005
  2.496705410959154E-004
  4.851667720885211E-004
  6.958453132672046E-004
  9.079374837713285E-004
  1.145103076017830E-003
  1.427108371787295E-003
  1.770232750731364E-003
  2.179733361068306E-003
  2.576449972346974E-003
 -2.458914789992259E-003
 -1.904006064952390E-003
 -1.176954788258343E-003
 -5.349197346458197E-004
 -5.163395152125771E-005
  2.972990484943223E-004
  5.452693090504040E-004
  7.299702361186093E-004
  8.893013952100199E-004
  1.059170751683882E-003
  1.272622966889597E-003
  1.559704549449615E-003
  1.949578328896520E-003
  2.458674489197337E-003
  2.982385390588924E-003
 -2.447862675389984E-003
 -1.722971971433841E-003
 -8.247167742415662E-004
 -8.800809124019479E-005
  4.022574421251168E-004
  7.014668685187922E-004
  8.695265934520507E-004
  9.643401100333910E-004
  1.035820906631302E-003
  1.128962067827156E-003
  1.286424059280441E-003
  1.551923272288039E-003
  1.974415553696764E-003
  2.593576793904540E-003
  3.276988973714956E-003
 -2.158528523203009E-003
 -1.275322415658755E-003
 -1.863922978185528E-004
  6.483303453628025E-004
  1.100148875572515E-003
  1.283022393726161E-003
  1.311721081876544E-003
  1.266325613638102E-003
  1.205306324903223E-003
  1.177123910630542E-003
  1.230683253566812E-003
  1.426187498969865E-003
  1.847882257680952E-003
  2.576522149038727E-003
  3.460802889813895E-003
 -2.627317706646235E-003
 -1.285912308398105E-003
  3.644061000421865E-004
  1.353440717582010E-003
  1.646552791118487E-003
  1.606413532852550E-003
  1.419460235388734E-003
  1.181753308181061E-003
  9.450352470237372E-004
  7.484408922463044E-004
  6.352134095336653E-004
  6.764946889143944E-004
  1.016702279326226E-003
  1.877912181299734E-003
  3.131822921371539E-003
 -1.403955564905404E-003
  1.759630890120251E-003
  4.158833668908749E-003
  4.741458186879013E-003
  4.497339617576299E-003
  4.025703492142428E-003
  3.519207789027195E-003
  3.028821931729784E-003
  2.570604570569249E-003
  2.150138016333126E-003
  1.777791423473888E-003
  1.490655329425620E-003
  1.429334061812418E-003
  1.911056325025263E-003
  2.889469538061188E-003
  3.401545143845827E-003
  6.196324579533772E-003
  6.141717358316767E-003
  5.233926281579605E-003
  4.049937492875745E-003
  3.029792099707376E-003
  2.170585230696143E-003
  1.429018031446054E-003
  7.566690434961637E-004
  1.131607209063858E-004
 -5.424964685478116E-004
 -1.243892296089414E-003
 -1.961683343809594E-003
 -2.514874906740045E-003
 -2.971705057286432E-003
 -4.025427593832987E-004
 -2.293500115893089E-003
 -5.641371288494185E-003
 -7.745818786342595E-003
 -9.368054687056628E-003
 -1.060104651062805E-002
 -1.153778989283306E-002
 -1.231217046702882E-002
 -1.300099965682953E-002
 -1.367082276018290E-002
 -1.438853080139146E-002
 -1.522760297292631E-002
 -1.625145963492685E-002
 -1.746712680244227E-002
 -1.868420619837191E-002
 -1.017348408094457E-002
 -1.928401175052332E-002
 -2.273279668251867E-002
 -2.443860309499221E-002
 -2.550215177354927E-002
 -2.624240403099060E-002
 -2.678266788158374E-002
 -2.722074032211808E-002
 -2.760962373087767E-002
 -2.799474918354858E-002
 -2.842433439155605E-002
 -2.896430803166151E-002
 -2.971945283130628E-002
 -3.090453985663374E-002
 -3.300265620480551E-002
SCALARS elementIsPlast double 
LOOKUP_TABLE default
  0.000000000000000E+000
  0.000000000000000E+000
  0.000000000000000E+000
  0.000000000000000E+000
  0.000000000000000E+000
  0.000000000000000E+000
  0.000000000000000E+000
  0.000000000000000E+000
  0.000000000000000E+000
  0.000000000000000E+000
  0.000000000000000E+000
  0.000000000000000E+000
  0.000000000000000E+000
  0.000000000000000E+000
  0.000000000000000E+000
  0.000000000000000E+000
  0.000000000000000E+000
  0.000000000000000E+000
  0.000000000000000E+000
  0.000000000000000E+000
  0.000000000000000E+000
  0.000000000000000E+000
  0.000000000000000E+000
  0.000000000000000E+000
  0.000000000000000E+000
  0.000000000000000E+000
  0.000000000000000E+000
  0.000000000000000E+000
  0.000000000000000E+000
  0.000000000000000E+000
  0.000000000000000E+000
  0.000000000000000E+000
  0.000000000000000E+000
  0.000000000000000E+000
  0.000000000000000E+000
  0.000000000000000E+000
  0.000000000000000E+000
  0.000000000000000E+000
  0.000000000000000E+000
  0.000000000000000E+000
  0.000000000000000E+000
  0.000000000000000E+000
  0.000000000000000E+000
  0.000000000000000E+000
  0.000000000000000E+000
  0.000000000000000E+000
  0.000000000000000E+000
  0.000000000000000E+000
  0.000000000000000E+000
  0.000000000000000E+000
  0.000000000000000E+000
  0.000000000000000E+000
  0.000000000000000E+000
  0.000000000000000E+000
  0.000000000000000E+000
  0.000000000000000E+000
  0.000000000000000E+000
  0.000000000000000E+000
  0.000000000000000E+000
  0.000000000000000E+000
  0.000000000000000E+000
  0.000000000000000E+000
  0.000000000000000E+000
  0.000000000000000E+000
  0.000000000000000E+000
  0.000000000000000E+000
  0.000000000000000E+000
  0.000000000000000E+000
  0.000000000000000E+000
  0.000000000000000E+000
  0.000000000000000E+000
  0.000000000000000E+000
  0.000000000000000E+000
  0.000000000000000E+000
  0.000000000000000E+000
  0.000000000000000E+000
  0.000000000000000E+000
  0.000000000000000E+000
  0.000000000000000E+000
  0.000000000000000E+000
  0.000000000000000E+000
  0.000000000000000E+000
  0.000000000000000E+000
  0.000000000000000E+000
  0.000000000000000E+000
  0.000000000000000E+000
  0.000000000000000E+000
  0.000000000000000E+000
  0.000000000000000E+000
  0.000000000000000E+000
  0.000000000000000E+000
  0.000000000000000E+000
  0.000000000000000E+000
  0.000000000000000E+000
  0.000000000000000E+000
  0.000000000000000E+000
  0.000000000000000E+000
  0.000000000000000E+000
  0.000000000000000E+000
  0.000000000000000E+000
  0.000000000000000E+000
  0.000000000000000E+000
  0.000000000000000E+000
  0.000000000000000E+000
  0.000000000000000E+000
  0.000000000000000E+000
  0.000000000000000E+000
  0.000000000000000E+000
  0.000000000000000E+000
  0.000000000000000E+000
  0.000000000000000E+000
  0.000000000000000E+000
  0.000000000000000E+000
  0.000000000000000E+000
  0.000000000000000E+000
  0.000000000000000E+000
  0.000000000000000E+000
  0.000000000000000E+000
  0.000000000000000E+000
  0.000000000000000E+000
  0.000000000000000E+000
  0.000000000000000E+000
  0.000000000000000E+000
  0.000000000000000E+000
  0.000000000000000E+000
  0.000000000000000E+000
  0.000000000000000E+000
  0.000000000000000E+000
  0.000000000000000E+000
  0.000000000000000E+000
  0.000000000000000E+000
  0.000000000000000E+000
  0.000000000000000E+000
  0.000000000000000E+000
  0.000000000000000E+000
  0.000000000000000E+000
  0.000000000000000E+000
  0.000000000000000E+000
  0.000000000000000E+000
  0.000000000000000E+000
  0.000000000000000E+000
  0.000000000000000E+000
  0.000000000000000E+000
  0.000000000000000E+000
  0.000000000000000E+000
  0.000000000000000E+000
  0.000000000000000E+000
  0.000000000000000E+000
  0.000000000000000E+000
  0.000000000000000E+000
  0.000000000000000E+000
  0.000000000000000E+000
  0.000000000000000E+000
  0.000000000000000E+000
  0.000000000000000E+000
  0.000000000000000E+000
  0.000000000000000E+000
  0.000000000000000E+000
  0.000000000000000E+000
  0.000000000000000E+000
  0.000000000000000E+000
  0.000000000000000E+000
  0.000000000000000E+000
  0.000000000000000E+000
  0.000000000000000E+000
  0.000000000000000E+000
  0.000000000000000E+000
  0.000000000000000E+000
  0.000000000000000E+000
  0.000000000000000E+000
  0.000000000000000E+000
  0.000000000000000E+000
  0.000000000000000E+000
  0.000000000000000E+000
  0.000000000000000E+000
  0.000000000000000E+000
  0.000000000000000E+000
  0.000000000000000E+000
  0.000000000000000E+000
  0.000000000000000E+000
  0.000000000000000E+000
  0.000000000000000E+000
  0.000000000000000E+000
  0.000000000000000E+000
  0.000000000000000E+000
  0.000000000000000E+000
  0.000000000000000E+000
  0.000000000000000E+000
  0.000000000000000E+000
  0.000000000000000E+000
  0.000000000000000E+000
  0.000000000000000E+000
  0.000000000000000E+000
  0.000000000000000E+000
  0.000000000000000E+000
  0.000000000000000E+000
  0.000000000000000E+000
  0.000000000000000E+000
  0.000000000000000E+000
  0.000000000000000E+000
  0.000000000000000E+000
  0.000000000000000E+000
  0.000000000000000E+000
  0.000000000000000E+000
  0.000000000000000E+000
  0.000000000000000E+000
  0.000000000000000E+000
  0.000000000000000E+000
  0.000000000000000E+000
  0.000000000000000E+000
  0.000000000000000E+000
  0.000000000000000E+000
  0.000000000000000E+000
  0.000000000000000E+000
  0.000000000000000E+000
  0.000000000000000E+000
  0.000000000000000E+000
  0.000000000000000E+000
  0.000000000000000E+000
  0.000000000000000E+000
  0.000000000000000E+000
  0.000000000000000E+000
  0.000000000000000E+000
  0.000000000000000E+000
  0.000000000000000E+000
  0.000000000000000E+000
  0.000000000000000E+000
  0.000000000000000E+000
  0.000000000000000E+000
  0.000000000000000E+000
  0.000000000000000E+000
  0.000000000000000E+000
  0.000000000000000E+000
  0.000000000000000E+000
  0.000000000000000E+000
  0.000000000000000E+000
  0.000000000000000E+000
  0.000000000000000E+000
  0.000000000000000E+000
  0.000000000000000E+000
  0.000000000000000E+000
  0.000000000000000E+000
  0.000000000000000E+000
  0.000000000000000E+000
  0.000000000000000E+000
  0.000000000000000E+000
  0.000000000000000E+000
  0.000000000000000E+000
  0.000000000000000E+000
  0.000000000000000E+000
  0.000000000000000E+000
  0.000000000000000E+000
  0.000000000000000E+000
  0.000000000000000E+000
  0.000000000000000E+000
  0.000000000000000E+000
  0.000000000000000E+000
  0.000000000000000E+000
  0.000000000000000E+000
  0.000000000000000E+000
  0.000000000000000E+000
  0.000000000000000E+000
  0.000000000000000E+000
  0.000000000000000E+000
  0.000000000000000E+000
  0.000000000000000E+000
  0.000000000000000E+000
  0.000000000000000E+000
  0.000000000000000E+000
  0.000000000000000E+000
  0.000000000000000E+000
  0.000000000000000E+000
  0.000000000000000E+000
  0.000000000000000E+000
  0.000000000000000E+000
  0.000000000000000E+000
  0.000000000000000E+000
  0.000000000000000E+000
  0.000000000000000E+000
  0.000000000000000E+000
  0.000000000000000E+000
  0.000000000000000E+000
  0.000000000000000E+000
  0.000000000000000E+000
  0.000000000000000E+000
  0.000000000000000E+000
  0.000000000000000E+000
  0.000000000000000E+000
  0.000000000000000E+000
  0.000000000000000E+000
  0.000000000000000E+000
  0.000000000000000E+000
  0.000000000000000E+000
  0.000000000000000E+000
  0.000000000000000E+000
  0.000000000000000E+000
  0.000000000000000E+000
  0.000000000000000E+000
  0.000000000000000E+000
  0.000000000000000E+000
  0.000000000000000E+000
  0.000000000000000E+000
  0.000000000000000E+000
  0.000000000000000E+000
  0.000000000000000E+000
  0.000000000000000E+000
  0.000000000000000E+000
  0.000000000000000E+000
  0.000000000000000E+000
  0.000000000000000E+000
  0.000000000000000E+000
  0.000000000000000E+000
  0.000000000000000E+000
  0.000000000000000E+000
  0.000000000000000E+000
  0.000000000000000E+000
  0.000000000000000E+000
  0.000000000000000E+000
  0.000000000000000E+000
  0.000000000000000E+000
  0.000000000000000E+000
  0.000000000000000E+000
  0.000000000000000E+000
  0.000000000000000E+000
  0.000000000000000E+000
  0.000000000000000E+000
  0.000000000000000E+000
  0.000000000000000E+000
  0.000000000000000E+000
  0.000000000000000E+000
  0.000000000000000E+000
  0.000000000000000E+000
  0.000000000000000E+000
  0.000000000000000E+000
  0.000000000000000E+000
  0.000000000000000E+000
  0.000000000000000E+000
  0.000000000000000E+000
  0.000000000000000E+000
  0.000000000000000E+000
  0.000000000000000E+000
  0.000000000000000E+000
  0.000000000000000E+000
  0.000000000000000E+000
  0.000000000000000E+000
  0.000000000000000E+000
  0.000000000000000E+000
  0.000000000000000E+000
  0.000000000000000E+000
  0.000000000000000E+000
  0.000000000000000E+000
  0.000000000000000E+000
  0.000000000000000E+000
  0.000000000000000E+000
  0.000000000000000E+000
  0.000000000000000E+000
  0.000000000000000E+000
  0.000000000000000E+000
  0.000000000000000E+000
  0.000000000000000E+000
  0.000000000000000E+000
  0.000000000000000E+000
  0.000000000000000E+000
  0.000000000000000E+000
  0.000000000000000E+000
  0.000000000000000E+000
  0.000000000000000E+000
  0.000000000000000E+000
  0.000000000000000E+000
  0.000000000000000E+000
  0.000000000000000E+000
  0.000000000000000E+000
  0.000000000000000E+000
  0.000000000000000E+000
  0.000000000000000E+000
  0.000000000000000E+000
  0.000000000000000E+000
  0.000000000000000E+000
  0.000000000000000E+000
  0.000000000000000E+000
  0.000000000000000E+000
  0.000000000000000E+000
  0.000000000000000E+000
  0.000000000000000E+000
  0.000000000000000E+000
  0.000000000000000E+000
  0.000000000000000E+000
  0.000000000000000E+000
  0.000000000000000E+000
  0.000000000000000E+000
  0.000000000000000E+000
  0.000000000000000E+000
  0.000000000000000E+000
  0.000000000000000E+000
  0.000000000000000E+000
  0.000000000000000E+000
  0.000000000000000E+000
  0.000000000000000E+000
  0.000000000000000E+000
  0.000000000000000E+000
  0.000000000000000E+000
  0.000000000000000E+000
  0.000000000000000E+000
  0.000000000000000E+000
  0.000000000000000E+000
  0.000000000000000E+000
  0.000000000000000E+000
  0.000000000000000E+000
  0.000000000000000E+000
  0.000000000000000E+000
  0.000000000000000E+000
  0.000000000000000E+000
  0.000000000000000E+000
  0.000000000000000E+000
  0.000000000000000E+000
  0.000000000000000E+000
  0.000000000000000E+000
  0.000000000000000E+000
  0.000000000000000E+000
  0.000000000000000E+000
  0.000000000000000E+000
  0.000000000000000E+000
  0.000000000000000E+000
  0.000000000000000E+000
  0.000000000000000E+000
  0.000000000000000E+000
  0.000000000000000E+000
  0.000000000000000E+000
  0.000000000000000E+000
  0.000000000000000E+000
  0.000000000000000E+000
  0.000000000000000E+000
  0.000000000000000E+000
  0.000000000000000E+000
  0.000000000000000E+000
  0.000000000000000E+000
  0.000000000000000E+000
  0.000000000000000E+000
  0.000000000000000E+000
  0.000000000000000E+000
  0.000000000000000E+000
  0.000000000000000E+000
  0.000000000000000E+000
  0.000000000000000E+000
  0.000000000000000E+000
  0.000000000000000E+000
  0.000000000000000E+000
  0.000000000000000E+000
  0.000000000000000E+000
  0.000000000000000E+000
