# vtk DataFile Version 3.0
vtk output
ASCII
DATASET UNSTRUCTURED_GRID
POINTS       496 double 
  0.00000000E+00  3.00000000E+02  0.00000000E+00
  0.00000000E+00  2.80000000E+02  0.00000000E+00
  0.00000000E+00  2.60000000E+02  0.00000000E+00
  0.00000000E+00  2.40000000E+02  0.00000000E+00
  0.00000000E+00  2.20000000E+02  0.00000000E+00
  0.00000000E+00  2.00000000E+02  0.00000000E+00
  0.00000000E+00  1.80000000E+02  0.00000000E+00
  0.00000000E+00  1.60000000E+02  0.00000000E+00
  0.00000000E+00  1.40000000E+02  0.00000000E+00
  0.00000000E+00  1.20000000E+02  0.00000000E+00
  0.00000000E+00  1.00000000E+02  0.00000000E+00
  0.00000000E+00  8.00000000E+01  0.00000000E+00
  0.00000000E+00  6.00000000E+01  0.00000000E+00
  0.00000000E+00  4.00000000E+01  0.00000000E+00
  0.00000000E+00  2.00000000E+01  0.00000000E+00
  0.00000000E+00  4.99600361E-14  0.00000000E+00
  2.00000000E+01  3.00000000E+02  0.00000000E+00
  2.00000000E+01  2.80000000E+02  0.00000000E+00
  2.00000000E+01  2.60000000E+02  0.00000000E+00
  2.00000000E+01  2.40000000E+02  0.00000000E+00
  2.00000000E+01  2.20000000E+02  0.00000000E+00
  2.00000000E+01  2.00000000E+02  0.00000000E+00
  2.00000000E+01  1.80000000E+02  0.00000000E+00
  2.00000000E+01  1.60000000E+02  0.00000000E+00
  2.00000000E+01  1.40000000E+02  0.00000000E+00
  2.00000000E+01  1.20000000E+02  0.00000000E+00
  2.00000000E+01  1.00000000E+02  0.00000000E+00
  2.00000000E+01  8.00000000E+01  0.00000000E+00
  2.00000000E+01  6.00000000E+01  0.00000000E+00
  2.00000000E+01  4.00000000E+01  0.00000000E+00
  2.00000000E+01  2.00000000E+01  0.00000000E+00
  2.00000000E+01  4.99600361E-14  0.00000000E+00
  4.00000000E+01  3.00000000E+02  0.00000000E+00
  4.00000000E+01  2.80000000E+02  0.00000000E+00
  4.00000000E+01  2.60000000E+02  0.00000000E+00
  4.00000000E+01  2.40000000E+02  0.00000000E+00
  4.00000000E+01  2.20000000E+02  0.00000000E+00
  4.00000000E+01  2.00000000E+02  0.00000000E+00
  4.00000000E+01  1.80000000E+02  0.00000000E+00
  4.00000000E+01  1.60000000E+02  0.00000000E+00
  4.00000000E+01  1.40000000E+02  0.00000000E+00
  4.00000000E+01  1.20000000E+02  0.00000000E+00
  4.00000000E+01  1.00000000E+02  0.00000000E+00
  4.00000000E+01  8.00000000E+01  0.00000000E+00
  4.00000000E+01  6.00000000E+01  0.00000000E+00
  4.00000000E+01  4.00000000E+01  0.00000000E+00
  4.00000000E+01  2.00000000E+01  0.00000000E+00
  4.00000000E+01  4.99600361E-14  0.00000000E+00
  6.00000000E+01  3.00000000E+02  0.00000000E+00
  6.00000000E+01  2.80000000E+02  0.00000000E+00
  6.00000000E+01  2.60000000E+02  0.00000000E+00
  6.00000000E+01  2.40000000E+02  0.00000000E+00
  6.00000000E+01  2.20000000E+02  0.00000000E+00
  6.00000000E+01  2.00000000E+02  0.00000000E+00
  6.00000000E+01  1.80000000E+02  0.00000000E+00
  6.00000000E+01  1.60000000E+02  0.00000000E+00
  6.00000000E+01  1.40000000E+02  0.00000000E+00
  6.00000000E+01  1.20000000E+02  0.00000000E+00
  6.00000000E+01  1.00000000E+02  0.00000000E+00
  6.00000000E+01  8.00000000E+01  0.00000000E+00
  6.00000000E+01  6.00000000E+01  0.00000000E+00
  6.00000000E+01  4.00000000E+01  0.00000000E+00
  6.00000000E+01  2.00000000E+01  0.00000000E+00
  6.00000000E+01  4.99600361E-14  0.00000000E+00
  8.00000000E+01  3.00000000E+02  0.00000000E+00
  8.00000000E+01  2.80000000E+02  0.00000000E+00
  8.00000000E+01  2.60000000E+02  0.00000000E+00
  8.00000000E+01  2.40000000E+02  0.00000000E+00
  8.00000000E+01  2.20000000E+02  0.00000000E+00
  8.00000000E+01  2.00000000E+02  0.00000000E+00
  8.00000000E+01  1.80000000E+02  0.00000000E+00
  8.00000000E+01  1.60000000E+02  0.00000000E+00
  8.00000000E+01  1.40000000E+02  0.00000000E+00
  8.00000000E+01  1.20000000E+02  0.00000000E+00
  8.00000000E+01  1.00000000E+02  0.00000000E+00
  8.00000000E+01  8.00000000E+01  0.00000000E+00
  8.00000000E+01  6.00000000E+01  0.00000000E+00
  8.00000000E+01  4.00000000E+01  0.00000000E+00
  8.00000000E+01  2.00000000E+01  0.00000000E+00
  8.00000000E+01  4.99600361E-14  0.00000000E+00
  1.00000000E+02  3.00000000E+02  0.00000000E+00
  1.00000000E+02  2.80000000E+02  0.00000000E+00
  1.00000000E+02  2.60000000E+02  0.00000000E+00
  1.00000000E+02  2.40000000E+02  0.00000000E+00
  1.00000000E+02  2.20000000E+02  0.00000000E+00
  1.00000000E+02  2.00000000E+02  0.00000000E+00
  1.00000000E+02  1.80000000E+02  0.00000000E+00
  1.00000000E+02  1.60000000E+02  0.00000000E+00
  1.00000000E+02  1.40000000E+02  0.00000000E+00
  1.00000000E+02  1.20000000E+02  0.00000000E+00
  1.00000000E+02  1.00000000E+02  0.00000000E+00
  1.00000000E+02  8.00000000E+01  0.00000000E+00
  1.00000000E+02  6.00000000E+01  0.00000000E+00
  1.00000000E+02  4.00000000E+01  0.00000000E+00
  1.00000000E+02  2.00000000E+01  0.00000000E+00
  1.00000000E+02  4.99600361E-14  0.00000000E+00
  1.20000000E+02  3.00000000E+02  0.00000000E+00
  1.20000000E+02  2.80000000E+02  0.00000000E+00
  1.20000000E+02  2.60000000E+02  0.00000000E+00
  1.20000000E+02  2.40000000E+02  0.00000000E+00
  1.20000000E+02  2.20000000E+02  0.00000000E+00
  1.20000000E+02  2.00000000E+02  0.00000000E+00
  1.20000000E+02  1.80000000E+02  0.00000000E+00
  1.20000000E+02  1.60000000E+02  0.00000000E+00
  1.20000000E+02  1.40000000E+02  0.00000000E+00
  1.20000000E+02  1.20000000E+02  0.00000000E+00
  1.20000000E+02  1.00000000E+02  0.00000000E+00
  1.20000000E+02  8.00000000E+01  0.00000000E+00
  1.20000000E+02  6.00000000E+01  0.00000000E+00
  1.20000000E+02  4.00000000E+01  0.00000000E+00
  1.20000000E+02  2.00000000E+01  0.00000000E+00
  1.20000000E+02  4.99600361E-14  0.00000000E+00
  1.40000000E+02  3.00000000E+02  0.00000000E+00
  1.40000000E+02  2.80000000E+02  0.00000000E+00
  1.40000000E+02  2.60000000E+02  0.00000000E+00
  1.40000000E+02  2.40000000E+02  0.00000000E+00
  1.40000000E+02  2.20000000E+02  0.00000000E+00
  1.40000000E+02  2.00000000E+02  0.00000000E+00
  1.40000000E+02  1.80000000E+02  0.00000000E+00
  1.40000000E+02  1.60000000E+02  0.00000000E+00
  1.40000000E+02  1.40000000E+02  0.00000000E+00
  1.40000000E+02  1.20000000E+02  0.00000000E+00
  1.40000000E+02  1.00000000E+02  0.00000000E+00
  1.40000000E+02  8.00000000E+01  0.00000000E+00
  1.40000000E+02  6.00000000E+01  0.00000000E+00
  1.40000000E+02  4.00000000E+01  0.00000000E+00
  1.40000000E+02  2.00000000E+01  0.00000000E+00
  1.40000000E+02  4.99600361E-14  0.00000000E+00
  1.60000000E+02  3.00000000E+02  0.00000000E+00
  1.60000000E+02  2.80000000E+02  0.00000000E+00
  1.60000000E+02  2.60000000E+02  0.00000000E+00
  1.60000000E+02  2.40000000E+02  0.00000000E+00
  1.60000000E+02  2.20000000E+02  0.00000000E+00
  1.60000000E+02  2.00000000E+02  0.00000000E+00
  1.60000000E+02  1.80000000E+02  0.00000000E+00
  1.60000000E+02  1.60000000E+02  0.00000000E+00
  1.60000000E+02  1.40000000E+02  0.00000000E+00
  1.60000000E+02  1.20000000E+02  0.00000000E+00
  1.60000000E+02  1.00000000E+02  0.00000000E+00
  1.60000000E+02  8.00000000E+01  0.00000000E+00
  1.60000000E+02  6.00000000E+01  0.00000000E+00
  1.60000000E+02  4.00000000E+01  0.00000000E+00
  1.60000000E+02  2.00000000E+01  0.00000000E+00
  1.60000000E+02  4.99600361E-14  0.00000000E+00
  1.80000000E+02  3.00000000E+02  0.00000000E+00
  1.80000000E+02  2.80000000E+02  0.00000000E+00
  1.80000000E+02  2.60000000E+02  0.00000000E+00
  1.80000000E+02  2.40000000E+02  0.00000000E+00
  1.80000000E+02  2.20000000E+02  0.00000000E+00
  1.80000000E+02  2.00000000E+02  0.00000000E+00
  1.80000000E+02  1.80000000E+02  0.00000000E+00
  1.80000000E+02  1.60000000E+02  0.00000000E+00
  1.80000000E+02  1.40000000E+02  0.00000000E+00
  1.80000000E+02  1.20000000E+02  0.00000000E+00
  1.80000000E+02  1.00000000E+02  0.00000000E+00
  1.80000000E+02  8.00000000E+01  0.00000000E+00
  1.80000000E+02  6.00000000E+01  0.00000000E+00
  1.80000000E+02  4.00000000E+01  0.00000000E+00
  1.80000000E+02  2.00000000E+01  0.00000000E+00
  1.80000000E+02  4.99600361E-14  0.00000000E+00
  2.00000000E+02  3.00000000E+02  0.00000000E+00
  2.00000000E+02  2.80000000E+02  0.00000000E+00
  2.00000000E+02  2.60000000E+02  0.00000000E+00
  2.00000000E+02  2.40000000E+02  0.00000000E+00
  2.00000000E+02  2.20000000E+02  0.00000000E+00
  2.00000000E+02  2.00000000E+02  0.00000000E+00
  2.00000000E+02  1.80000000E+02  0.00000000E+00
  2.00000000E+02  1.60000000E+02  0.00000000E+00
  2.00000000E+02  1.40000000E+02  0.00000000E+00
  2.00000000E+02  1.20000000E+02  0.00000000E+00
  2.00000000E+02  1.00000000E+02  0.00000000E+00
  2.00000000E+02  8.00000000E+01  0.00000000E+00
  2.00000000E+02  6.00000000E+01  0.00000000E+00
  2.00000000E+02  4.00000000E+01  0.00000000E+00
  2.00000000E+02  2.00000000E+01  0.00000000E+00
  2.00000000E+02  4.99600361E-14  0.00000000E+00
  2.20000000E+02  3.00000000E+02  0.00000000E+00
  2.20000000E+02  2.80000000E+02  0.00000000E+00
  2.20000000E+02  2.60000000E+02  0.00000000E+00
  2.20000000E+02  2.40000000E+02  0.00000000E+00
  2.20000000E+02  2.20000000E+02  0.00000000E+00
  2.20000000E+02  2.00000000E+02  0.00000000E+00
  2.20000000E+02  1.80000000E+02  0.00000000E+00
  2.20000000E+02  1.60000000E+02  0.00000000E+00
  2.20000000E+02  1.40000000E+02  0.00000000E+00
  2.20000000E+02  1.20000000E+02  0.00000000E+00
  2.20000000E+02  1.00000000E+02  0.00000000E+00
  2.20000000E+02  8.00000000E+01  0.00000000E+00
  2.20000000E+02  6.00000000E+01  0.00000000E+00
  2.20000000E+02  4.00000000E+01  0.00000000E+00
  2.20000000E+02  2.00000000E+01  0.00000000E+00
  2.20000000E+02  4.99600361E-14  0.00000000E+00
  2.40000000E+02  3.00000000E+02  0.00000000E+00
  2.40000000E+02  2.80000000E+02  0.00000000E+00
  2.40000000E+02  2.60000000E+02  0.00000000E+00
  2.40000000E+02  2.40000000E+02  0.00000000E+00
  2.40000000E+02  2.20000000E+02  0.00000000E+00
  2.40000000E+02  2.00000000E+02  0.00000000E+00
  2.40000000E+02  1.80000000E+02  0.00000000E+00
  2.40000000E+02  1.60000000E+02  0.00000000E+00
  2.40000000E+02  1.40000000E+02  0.00000000E+00
  2.40000000E+02  1.20000000E+02  0.00000000E+00
  2.40000000E+02  1.00000000E+02  0.00000000E+00
  2.40000000E+02  8.00000000E+01  0.00000000E+00
  2.40000000E+02  6.00000000E+01  0.00000000E+00
  2.40000000E+02  4.00000000E+01  0.00000000E+00
  2.40000000E+02  2.00000000E+01  0.00000000E+00
  2.40000000E+02  4.99600361E-14  0.00000000E+00
  2.60000000E+02  3.00000000E+02  0.00000000E+00
  2.60000000E+02  2.80000000E+02  0.00000000E+00
  2.60000000E+02  2.60000000E+02  0.00000000E+00
  2.60000000E+02  2.40000000E+02  0.00000000E+00
  2.60000000E+02  2.20000000E+02  0.00000000E+00
  2.60000000E+02  2.00000000E+02  0.00000000E+00
  2.60000000E+02  1.80000000E+02  0.00000000E+00
  2.60000000E+02  1.60000000E+02  0.00000000E+00
  2.60000000E+02  1.40000000E+02  0.00000000E+00
  2.60000000E+02  1.20000000E+02  0.00000000E+00
  2.60000000E+02  1.00000000E+02  0.00000000E+00
  2.60000000E+02  8.00000000E+01  0.00000000E+00
  2.60000000E+02  6.00000000E+01  0.00000000E+00
  2.60000000E+02  4.00000000E+01  0.00000000E+00
  2.60000000E+02  2.00000000E+01  0.00000000E+00
  2.60000000E+02  4.99600361E-14  0.00000000E+00
  2.80000000E+02  3.00000000E+02  0.00000000E+00
  2.80000000E+02  2.80000000E+02  0.00000000E+00
  2.80000000E+02  2.60000000E+02  0.00000000E+00
  2.80000000E+02  2.40000000E+02  0.00000000E+00
  2.80000000E+02  2.20000000E+02  0.00000000E+00
  2.80000000E+02  2.00000000E+02  0.00000000E+00
  2.80000000E+02  1.80000000E+02  0.00000000E+00
  2.80000000E+02  1.60000000E+02  0.00000000E+00
  2.80000000E+02  1.40000000E+02  0.00000000E+00
  2.80000000E+02  1.20000000E+02  0.00000000E+00
  2.80000000E+02  1.00000000E+02  0.00000000E+00
  2.80000000E+02  8.00000000E+01  0.00000000E+00
  2.80000000E+02  6.00000000E+01  0.00000000E+00
  2.80000000E+02  4.00000000E+01  0.00000000E+00
  2.80000000E+02  2.00000000E+01  0.00000000E+00
  2.80000000E+02  4.99600361E-14  0.00000000E+00
  3.00000000E+02  3.00000000E+02  0.00000000E+00
  3.00000000E+02  2.80000000E+02  0.00000000E+00
  3.00000000E+02  2.60000000E+02  0.00000000E+00
  3.00000000E+02  2.40000000E+02  0.00000000E+00
  3.00000000E+02  2.20000000E+02  0.00000000E+00
  3.00000000E+02  2.00000000E+02  0.00000000E+00
  3.00000000E+02  1.80000000E+02  0.00000000E+00
  3.00000000E+02  1.60000000E+02  0.00000000E+00
  3.00000000E+02  1.40000000E+02  0.00000000E+00
  3.00000000E+02  1.20000000E+02  0.00000000E+00
  3.00000000E+02  1.00000000E+02  0.00000000E+00
  3.00000000E+02  8.00000000E+01  0.00000000E+00
  3.00000000E+02  6.00000000E+01  0.00000000E+00
  3.00000000E+02  4.00000000E+01  0.00000000E+00
  3.00000000E+02  2.00000000E+01  0.00000000E+00
  3.00000000E+02  4.99600361E-14  0.00000000E+00
  3.20000000E+02  3.00000000E+02  0.00000000E+00
  3.20000000E+02  2.80000000E+02  0.00000000E+00
  3.20000000E+02  2.60000000E+02  0.00000000E+00
  3.20000000E+02  2.40000000E+02  0.00000000E+00
  3.20000000E+02  2.20000000E+02  0.00000000E+00
  3.20000000E+02  2.00000000E+02  0.00000000E+00
  3.20000000E+02  1.80000000E+02  0.00000000E+00
  3.20000000E+02  1.60000000E+02  0.00000000E+00
  3.20000000E+02  1.40000000E+02  0.00000000E+00
  3.20000000E+02  1.20000000E+02  0.00000000E+00
  3.20000000E+02  1.00000000E+02  0.00000000E+00
  3.20000000E+02  8.00000000E+01  0.00000000E+00
  3.20000000E+02  6.00000000E+01  0.00000000E+00
  3.20000000E+02  4.00000000E+01  0.00000000E+00
  3.20000000E+02  2.00000000E+01  0.00000000E+00
  3.20000000E+02  4.99600361E-14  0.00000000E+00
  3.40000000E+02  3.00000000E+02  0.00000000E+00
  3.40000000E+02  2.80000000E+02  0.00000000E+00
  3.40000000E+02  2.60000000E+02  0.00000000E+00
  3.40000000E+02  2.40000000E+02  0.00000000E+00
  3.40000000E+02  2.20000000E+02  0.00000000E+00
  3.40000000E+02  2.00000000E+02  0.00000000E+00
  3.40000000E+02  1.80000000E+02  0.00000000E+00
  3.40000000E+02  1.60000000E+02  0.00000000E+00
  3.40000000E+02  1.40000000E+02  0.00000000E+00
  3.40000000E+02  1.20000000E+02  0.00000000E+00
  3.40000000E+02  1.00000000E+02  0.00000000E+00
  3.40000000E+02  8.00000000E+01  0.00000000E+00
  3.40000000E+02  6.00000000E+01  0.00000000E+00
  3.40000000E+02  4.00000000E+01  0.00000000E+00
  3.40000000E+02  2.00000000E+01  0.00000000E+00
  3.40000000E+02  4.99600361E-14  0.00000000E+00
  3.60000000E+02  3.00000000E+02  0.00000000E+00
  3.60000000E+02  2.80000000E+02  0.00000000E+00
  3.60000000E+02  2.60000000E+02  0.00000000E+00
  3.60000000E+02  2.40000000E+02  0.00000000E+00
  3.60000000E+02  2.20000000E+02  0.00000000E+00
  3.60000000E+02  2.00000000E+02  0.00000000E+00
  3.60000000E+02  1.80000000E+02  0.00000000E+00
  3.60000000E+02  1.60000000E+02  0.00000000E+00
  3.60000000E+02  1.40000000E+02  0.00000000E+00
  3.60000000E+02  1.20000000E+02  0.00000000E+00
  3.60000000E+02  1.00000000E+02  0.00000000E+00
  3.60000000E+02  8.00000000E+01  0.00000000E+00
  3.60000000E+02  6.00000000E+01  0.00000000E+00
  3.60000000E+02  4.00000000E+01  0.00000000E+00
  3.60000000E+02  2.00000000E+01  0.00000000E+00
  3.60000000E+02  4.99600361E-14  0.00000000E+00
  3.80000000E+02  3.00000000E+02  0.00000000E+00
  3.80000000E+02  2.80000000E+02  0.00000000E+00
  3.80000000E+02  2.60000000E+02  0.00000000E+00
  3.80000000E+02  2.40000000E+02  0.00000000E+00
  3.80000000E+02  2.20000000E+02  0.00000000E+00
  3.80000000E+02  2.00000000E+02  0.00000000E+00
  3.80000000E+02  1.80000000E+02  0.00000000E+00
  3.80000000E+02  1.60000000E+02  0.00000000E+00
  3.80000000E+02  1.40000000E+02  0.00000000E+00
  3.80000000E+02  1.20000000E+02  0.00000000E+00
  3.80000000E+02  1.00000000E+02  0.00000000E+00
  3.80000000E+02  8.00000000E+01  0.00000000E+00
  3.80000000E+02  6.00000000E+01  0.00000000E+00
  3.80000000E+02  4.00000000E+01  0.00000000E+00
  3.80000000E+02  2.00000000E+01  0.00000000E+00
  3.80000000E+02  4.99600361E-14  0.00000000E+00
  4.00000000E+02  3.00000000E+02  0.00000000E+00
  4.00000000E+02  2.80000000E+02  0.00000000E+00
  4.00000000E+02  2.60000000E+02  0.00000000E+00
  4.00000000E+02  2.40000000E+02  0.00000000E+00
  4.00000000E+02  2.20000000E+02  0.00000000E+00
  4.00000000E+02  2.00000000E+02  0.00000000E+00
  4.00000000E+02  1.80000000E+02  0.00000000E+00
  4.00000000E+02  1.60000000E+02  0.00000000E+00
  4.00000000E+02  1.40000000E+02  0.00000000E+00
  4.00000000E+02  1.20000000E+02  0.00000000E+00
  4.00000000E+02  1.00000000E+02  0.00000000E+00
  4.00000000E+02  8.00000000E+01  0.00000000E+00
  4.00000000E+02  6.00000000E+01  0.00000000E+00
  4.00000000E+02  4.00000000E+01  0.00000000E+00
  4.00000000E+02  2.00000000E+01  0.00000000E+00
  4.00000000E+02  4.99600361E-14  0.00000000E+00
  4.20000000E+02  3.00000000E+02  0.00000000E+00
  4.20000000E+02  2.80000000E+02  0.00000000E+00
  4.20000000E+02  2.60000000E+02  0.00000000E+00
  4.20000000E+02  2.40000000E+02  0.00000000E+00
  4.20000000E+02  2.20000000E+02  0.00000000E+00
  4.20000000E+02  2.00000000E+02  0.00000000E+00
  4.20000000E+02  1.80000000E+02  0.00000000E+00
  4.20000000E+02  1.60000000E+02  0.00000000E+00
  4.20000000E+02  1.40000000E+02  0.00000000E+00
  4.20000000E+02  1.20000000E+02  0.00000000E+00
  4.20000000E+02  1.00000000E+02  0.00000000E+00
  4.20000000E+02  8.00000000E+01  0.00000000E+00
  4.20000000E+02  6.00000000E+01  0.00000000E+00
  4.20000000E+02  4.00000000E+01  0.00000000E+00
  4.20000000E+02  2.00000000E+01  0.00000000E+00
  4.20000000E+02  4.99600361E-14  0.00000000E+00
  4.40000000E+02  3.00000000E+02  0.00000000E+00
  4.40000000E+02  2.80000000E+02  0.00000000E+00
  4.40000000E+02  2.60000000E+02  0.00000000E+00
  4.40000000E+02  2.40000000E+02  0.00000000E+00
  4.40000000E+02  2.20000000E+02  0.00000000E+00
  4.40000000E+02  2.00000000E+02  0.00000000E+00
  4.40000000E+02  1.80000000E+02  0.00000000E+00
  4.40000000E+02  1.60000000E+02  0.00000000E+00
  4.40000000E+02  1.40000000E+02  0.00000000E+00
  4.40000000E+02  1.20000000E+02  0.00000000E+00
  4.40000000E+02  1.00000000E+02  0.00000000E+00
  4.40000000E+02  8.00000000E+01  0.00000000E+00
  4.40000000E+02  6.00000000E+01  0.00000000E+00
  4.40000000E+02  4.00000000E+01  0.00000000E+00
  4.40000000E+02  2.00000000E+01  0.00000000E+00
  4.40000000E+02  4.99600361E-14  0.00000000E+00
  4.60000000E+02  3.00000000E+02  0.00000000E+00
  4.60000000E+02  2.80000000E+02  0.00000000E+00
  4.60000000E+02  2.60000000E+02  0.00000000E+00
  4.60000000E+02  2.40000000E+02  0.00000000E+00
  4.60000000E+02  2.20000000E+02  0.00000000E+00
  4.60000000E+02  2.00000000E+02  0.00000000E+00
  4.60000000E+02  1.80000000E+02  0.00000000E+00
  4.60000000E+02  1.60000000E+02  0.00000000E+00
  4.60000000E+02  1.40000000E+02  0.00000000E+00
  4.60000000E+02  1.20000000E+02  0.00000000E+00
  4.60000000E+02  1.00000000E+02  0.00000000E+00
  4.60000000E+02  8.00000000E+01  0.00000000E+00
  4.60000000E+02  6.00000000E+01  0.00000000E+00
  4.60000000E+02  4.00000000E+01  0.00000000E+00
  4.60000000E+02  2.00000000E+01  0.00000000E+00
  4.60000000E+02  4.99600361E-14  0.00000000E+00
  4.80000000E+02  3.00000000E+02  0.00000000E+00
  4.80000000E+02  2.80000000E+02  0.00000000E+00
  4.80000000E+02  2.60000000E+02  0.00000000E+00
  4.80000000E+02  2.40000000E+02  0.00000000E+00
  4.80000000E+02  2.20000000E+02  0.00000000E+00
  4.80000000E+02  2.00000000E+02  0.00000000E+00
  4.80000000E+02  1.80000000E+02  0.00000000E+00
  4.80000000E+02  1.60000000E+02  0.00000000E+00
  4.80000000E+02  1.40000000E+02  0.00000000E+00
  4.80000000E+02  1.20000000E+02  0.00000000E+00
  4.80000000E+02  1.00000000E+02  0.00000000E+00
  4.80000000E+02  8.00000000E+01  0.00000000E+00
  4.80000000E+02  6.00000000E+01  0.00000000E+00
  4.80000000E+02  4.00000000E+01  0.00000000E+00
  4.80000000E+02  2.00000000E+01  0.00000000E+00
  4.80000000E+02  4.99600361E-14  0.00000000E+00
  5.00000000E+02  3.00000000E+02  0.00000000E+00
  5.00000000E+02  2.80000000E+02  0.00000000E+00
  5.00000000E+02  2.60000000E+02  0.00000000E+00
  5.00000000E+02  2.40000000E+02  0.00000000E+00
  5.00000000E+02  2.20000000E+02  0.00000000E+00
  5.00000000E+02  2.00000000E+02  0.00000000E+00
  5.00000000E+02  1.80000000E+02  0.00000000E+00
  5.00000000E+02  1.60000000E+02  0.00000000E+00
  5.00000000E+02  1.40000000E+02  0.00000000E+00
  5.00000000E+02  1.20000000E+02  0.00000000E+00
  5.00000000E+02  1.00000000E+02  0.00000000E+00
  5.00000000E+02  8.00000000E+01  0.00000000E+00
  5.00000000E+02  6.00000000E+01  0.00000000E+00
  5.00000000E+02  4.00000000E+01  0.00000000E+00
  5.00000000E+02  2.00000000E+01  0.00000000E+00
  5.00000000E+02  4.99600361E-14  0.00000000E+00
  5.20000000E+02  3.00000000E+02  0.00000000E+00
  5.20000000E+02  2.80000000E+02  0.00000000E+00
  5.20000000E+02  2.60000000E+02  0.00000000E+00
  5.20000000E+02  2.40000000E+02  0.00000000E+00
  5.20000000E+02  2.20000000E+02  0.00000000E+00
  5.20000000E+02  2.00000000E+02  0.00000000E+00
  5.20000000E+02  1.80000000E+02  0.00000000E+00
  5.20000000E+02  1.60000000E+02  0.00000000E+00
  5.20000000E+02  1.40000000E+02  0.00000000E+00
  5.20000000E+02  1.20000000E+02  0.00000000E+00
  5.20000000E+02  1.00000000E+02  0.00000000E+00
  5.20000000E+02  8.00000000E+01  0.00000000E+00
  5.20000000E+02  6.00000000E+01  0.00000000E+00
  5.20000000E+02  4.00000000E+01  0.00000000E+00
  5.20000000E+02  2.00000000E+01  0.00000000E+00
  5.20000000E+02  4.99600361E-14  0.00000000E+00
  5.40000000E+02  3.00000000E+02  0.00000000E+00
  5.40000000E+02  2.80000000E+02  0.00000000E+00
  5.40000000E+02  2.60000000E+02  0.00000000E+00
  5.40000000E+02  2.40000000E+02  0.00000000E+00
  5.40000000E+02  2.20000000E+02  0.00000000E+00
  5.40000000E+02  2.00000000E+02  0.00000000E+00
  5.40000000E+02  1.80000000E+02  0.00000000E+00
  5.40000000E+02  1.60000000E+02  0.00000000E+00
  5.40000000E+02  1.40000000E+02  0.00000000E+00
  5.40000000E+02  1.20000000E+02  0.00000000E+00
  5.40000000E+02  1.00000000E+02  0.00000000E+00
  5.40000000E+02  8.00000000E+01  0.00000000E+00
  5.40000000E+02  6.00000000E+01  0.00000000E+00
  5.40000000E+02  4.00000000E+01  0.00000000E+00
  5.40000000E+02  2.00000000E+01  0.00000000E+00
  5.40000000E+02  4.99600361E-14  0.00000000E+00
  5.60000000E+02  3.00000000E+02  0.00000000E+00
  5.60000000E+02  2.80000000E+02  0.00000000E+00
  5.60000000E+02  2.60000000E+02  0.00000000E+00
  5.60000000E+02  2.40000000E+02  0.00000000E+00
  5.60000000E+02  2.20000000E+02  0.00000000E+00
  5.60000000E+02  2.00000000E+02  0.00000000E+00
  5.60000000E+02  1.80000000E+02  0.00000000E+00
  5.60000000E+02  1.60000000E+02  0.00000000E+00
  5.60000000E+02  1.40000000E+02  0.00000000E+00
  5.60000000E+02  1.20000000E+02  0.00000000E+00
  5.60000000E+02  1.00000000E+02  0.00000000E+00
  5.60000000E+02  8.00000000E+01  0.00000000E+00
  5.60000000E+02  6.00000000E+01  0.00000000E+00
  5.60000000E+02  4.00000000E+01  0.00000000E+00
  5.60000000E+02  2.00000000E+01  0.00000000E+00
  5.60000000E+02  4.99600361E-14  0.00000000E+00
  5.80000000E+02  3.00000000E+02  0.00000000E+00
  5.80000000E+02  2.80000000E+02  0.00000000E+00
  5.80000000E+02  2.60000000E+02  0.00000000E+00
  5.80000000E+02  2.40000000E+02  0.00000000E+00
  5.80000000E+02  2.20000000E+02  0.00000000E+00
  5.80000000E+02  2.00000000E+02  0.00000000E+00
  5.80000000E+02  1.80000000E+02  0.00000000E+00
  5.80000000E+02  1.60000000E+02  0.00000000E+00
  5.80000000E+02  1.40000000E+02  0.00000000E+00
  5.80000000E+02  1.20000000E+02  0.00000000E+00
  5.80000000E+02  1.00000000E+02  0.00000000E+00
  5.80000000E+02  8.00000000E+01  0.00000000E+00
  5.80000000E+02  6.00000000E+01  0.00000000E+00
  5.80000000E+02  4.00000000E+01  0.00000000E+00
  5.80000000E+02  2.00000000E+01  0.00000000E+00
  5.80000000E+02  4.99600361E-14  0.00000000E+00
  6.00000000E+02  3.00000000E+02  0.00000000E+00
  6.00000000E+02  2.80000000E+02  0.00000000E+00
  6.00000000E+02  2.60000000E+02  0.00000000E+00
  6.00000000E+02  2.40000000E+02  0.00000000E+00
  6.00000000E+02  2.20000000E+02  0.00000000E+00
  6.00000000E+02  2.00000000E+02  0.00000000E+00
  6.00000000E+02  1.80000000E+02  0.00000000E+00
  6.00000000E+02  1.60000000E+02  0.00000000E+00
  6.00000000E+02  1.40000000E+02  0.00000000E+00
  6.00000000E+02  1.20000000E+02  0.00000000E+00
  6.00000000E+02  1.00000000E+02  0.00000000E+00
  6.00000000E+02  8.00000000E+01  0.00000000E+00
  6.00000000E+02  6.00000000E+01  0.00000000E+00
  6.00000000E+02  4.00000000E+01  0.00000000E+00
  6.00000000E+02  2.00000000E+01  0.00000000E+00
  6.00000000E+02  4.99600361E-14  0.00000000E+00
CELLS       450      2250
         4           0           1          17          16
         4           1           2          18          17
         4           2           3          19          18
         4           3           4          20          19
         4           4           5          21          20
         4           5           6          22          21
         4           6           7          23          22
         4           7           8          24          23
         4           8           9          25          24
         4           9          10          26          25
         4          10          11          27          26
         4          11          12          28          27
         4          12          13          29          28
         4          13          14          30          29
         4          14          15          31          30
         4          16          17          33          32
         4          17          18          34          33
         4          18          19          35          34
         4          19          20          36          35
         4          20          21          37          36
         4          21          22          38          37
         4          22          23          39          38
         4          23          24          40          39
         4          24          25          41          40
         4          25          26          42          41
         4          26          27          43          42
         4          27          28          44          43
         4          28          29          45          44
         4          29          30          46          45
         4          30          31          47          46
         4          32          33          49          48
         4          33          34          50          49
         4          34          35          51          50
         4          35          36          52          51
         4          36          37          53          52
         4          37          38          54          53
         4          38          39          55          54
         4          39          40          56          55
         4          40          41          57          56
         4          41          42          58          57
         4          42          43          59          58
         4          43          44          60          59
         4          44          45          61          60
         4          45          46          62          61
         4          46          47          63          62
         4          48          49          65          64
         4          49          50          66          65
         4          50          51          67          66
         4          51          52          68          67
         4          52          53          69          68
         4          53          54          70          69
         4          54          55          71          70
         4          55          56          72          71
         4          56          57          73          72
         4          57          58          74          73
         4          58          59          75          74
         4          59          60          76          75
         4          60          61          77          76
         4          61          62          78          77
         4          62          63          79          78
         4          64          65          81          80
         4          65          66          82          81
         4          66          67          83          82
         4          67          68          84          83
         4          68          69          85          84
         4          69          70          86          85
         4          70          71          87          86
         4          71          72          88          87
         4          72          73          89          88
         4          73          74          90          89
         4          74          75          91          90
         4          75          76          92          91
         4          76          77          93          92
         4          77          78          94          93
         4          78          79          95          94
         4          80          81          97          96
         4          81          82          98          97
         4          82          83          99          98
         4          83          84         100          99
         4          84          85         101         100
         4          85          86         102         101
         4          86          87         103         102
         4          87          88         104         103
         4          88          89         105         104
         4          89          90         106         105
         4          90          91         107         106
         4          91          92         108         107
         4          92          93         109         108
         4          93          94         110         109
         4          94          95         111         110
         4          96          97         113         112
         4          97          98         114         113
         4          98          99         115         114
         4          99         100         116         115
         4         100         101         117         116
         4         101         102         118         117
         4         102         103         119         118
         4         103         104         120         119
         4         104         105         121         120
         4         105         106         122         121
         4         106         107         123         122
         4         107         108         124         123
         4         108         109         125         124
         4         109         110         126         125
         4         110         111         127         126
         4         112         113         129         128
         4         113         114         130         129
         4         114         115         131         130
         4         115         116         132         131
         4         116         117         133         132
         4         117         118         134         133
         4         118         119         135         134
         4         119         120         136         135
         4         120         121         137         136
         4         121         122         138         137
         4         122         123         139         138
         4         123         124         140         139
         4         124         125         141         140
         4         125         126         142         141
         4         126         127         143         142
         4         128         129         145         144
         4         129         130         146         145
         4         130         131         147         146
         4         131         132         148         147
         4         132         133         149         148
         4         133         134         150         149
         4         134         135         151         150
         4         135         136         152         151
         4         136         137         153         152
         4         137         138         154         153
         4         138         139         155         154
         4         139         140         156         155
         4         140         141         157         156
         4         141         142         158         157
         4         142         143         159         158
         4         144         145         161         160
         4         145         146         162         161
         4         146         147         163         162
         4         147         148         164         163
         4         148         149         165         164
         4         149         150         166         165
         4         150         151         167         166
         4         151         152         168         167
         4         152         153         169         168
         4         153         154         170         169
         4         154         155         171         170
         4         155         156         172         171
         4         156         157         173         172
         4         157         158         174         173
         4         158         159         175         174
         4         160         161         177         176
         4         161         162         178         177
         4         162         163         179         178
         4         163         164         180         179
         4         164         165         181         180
         4         165         166         182         181
         4         166         167         183         182
         4         167         168         184         183
         4         168         169         185         184
         4         169         170         186         185
         4         170         171         187         186
         4         171         172         188         187
         4         172         173         189         188
         4         173         174         190         189
         4         174         175         191         190
         4         176         177         193         192
         4         177         178         194         193
         4         178         179         195         194
         4         179         180         196         195
         4         180         181         197         196
         4         181         182         198         197
         4         182         183         199         198
         4         183         184         200         199
         4         184         185         201         200
         4         185         186         202         201
         4         186         187         203         202
         4         187         188         204         203
         4         188         189         205         204
         4         189         190         206         205
         4         190         191         207         206
         4         192         193         209         208
         4         193         194         210         209
         4         194         195         211         210
         4         195         196         212         211
         4         196         197         213         212
         4         197         198         214         213
         4         198         199         215         214
         4         199         200         216         215
         4         200         201         217         216
         4         201         202         218         217
         4         202         203         219         218
         4         203         204         220         219
         4         204         205         221         220
         4         205         206         222         221
         4         206         207         223         222
         4         208         209         225         224
         4         209         210         226         225
         4         210         211         227         226
         4         211         212         228         227
         4         212         213         229         228
         4         213         214         230         229
         4         214         215         231         230
         4         215         216         232         231
         4         216         217         233         232
         4         217         218         234         233
         4         218         219         235         234
         4         219         220         236         235
         4         220         221         237         236
         4         221         222         238         237
         4         222         223         239         238
         4         224         225         241         240
         4         225         226         242         241
         4         226         227         243         242
         4         227         228         244         243
         4         228         229         245         244
         4         229         230         246         245
         4         230         231         247         246
         4         231         232         248         247
         4         232         233         249         248
         4         233         234         250         249
         4         234         235         251         250
         4         235         236         252         251
         4         236         237         253         252
         4         237         238         254         253
         4         238         239         255         254
         4         240         241         257         256
         4         241         242         258         257
         4         242         243         259         258
         4         243         244         260         259
         4         244         245         261         260
         4         245         246         262         261
         4         246         247         263         262
         4         247         248         264         263
         4         248         249         265         264
         4         249         250         266         265
         4         250         251         267         266
         4         251         252         268         267
         4         252         253         269         268
         4         253         254         270         269
         4         254         255         271         270
         4         256         257         273         272
         4         257         258         274         273
         4         258         259         275         274
         4         259         260         276         275
         4         260         261         277         276
         4         261         262         278         277
         4         262         263         279         278
         4         263         264         280         279
         4         264         265         281         280
         4         265         266         282         281
         4         266         267         283         282
         4         267         268         284         283
         4         268         269         285         284
         4         269         270         286         285
         4         270         271         287         286
         4         272         273         289         288
         4         273         274         290         289
         4         274         275         291         290
         4         275         276         292         291
         4         276         277         293         292
         4         277         278         294         293
         4         278         279         295         294
         4         279         280         296         295
         4         280         281         297         296
         4         281         282         298         297
         4         282         283         299         298
         4         283         284         300         299
         4         284         285         301         300
         4         285         286         302         301
         4         286         287         303         302
         4         288         289         305         304
         4         289         290         306         305
         4         290         291         307         306
         4         291         292         308         307
         4         292         293         309         308
         4         293         294         310         309
         4         294         295         311         310
         4         295         296         312         311
         4         296         297         313         312
         4         297         298         314         313
         4         298         299         315         314
         4         299         300         316         315
         4         300         301         317         316
         4         301         302         318         317
         4         302         303         319         318
         4         304         305         321         320
         4         305         306         322         321
         4         306         307         323         322
         4         307         308         324         323
         4         308         309         325         324
         4         309         310         326         325
         4         310         311         327         326
         4         311         312         328         327
         4         312         313         329         328
         4         313         314         330         329
         4         314         315         331         330
         4         315         316         332         331
         4         316         317         333         332
         4         317         318         334         333
         4         318         319         335         334
         4         320         321         337         336
         4         321         322         338         337
         4         322         323         339         338
         4         323         324         340         339
         4         324         325         341         340
         4         325         326         342         341
         4         326         327         343         342
         4         327         328         344         343
         4         328         329         345         344
         4         329         330         346         345
         4         330         331         347         346
         4         331         332         348         347
         4         332         333         349         348
         4         333         334         350         349
         4         334         335         351         350
         4         336         337         353         352
         4         337         338         354         353
         4         338         339         355         354
         4         339         340         356         355
         4         340         341         357         356
         4         341         342         358         357
         4         342         343         359         358
         4         343         344         360         359
         4         344         345         361         360
         4         345         346         362         361
         4         346         347         363         362
         4         347         348         364         363
         4         348         349         365         364
         4         349         350         366         365
         4         350         351         367         366
         4         352         353         369         368
         4         353         354         370         369
         4         354         355         371         370
         4         355         356         372         371
         4         356         357         373         372
         4         357         358         374         373
         4         358         359         375         374
         4         359         360         376         375
         4         360         361         377         376
         4         361         362         378         377
         4         362         363         379         378
         4         363         364         380         379
         4         364         365         381         380
         4         365         366         382         381
         4         366         367         383         382
         4         368         369         385         384
         4         369         370         386         385
         4         370         371         387         386
         4         371         372         388         387
         4         372         373         389         388
         4         373         374         390         389
         4         374         375         391         390
         4         375         376         392         391
         4         376         377         393         392
         4         377         378         394         393
         4         378         379         395         394
         4         379         380         396         395
         4         380         381         397         396
         4         381         382         398         397
         4         382         383         399         398
         4         384         385         401         400
         4         385         386         402         401
         4         386         387         403         402
         4         387         388         404         403
         4         388         389         405         404
         4         389         390         406         405
         4         390         391         407         406
         4         391         392         408         407
         4         392         393         409         408
         4         393         394         410         409
         4         394         395         411         410
         4         395         396         412         411
         4         396         397         413         412
         4         397         398         414         413
         4         398         399         415         414
         4         400         401         417         416
         4         401         402         418         417
         4         402         403         419         418
         4         403         404         420         419
         4         404         405         421         420
         4         405         406         422         421
         4         406         407         423         422
         4         407         408         424         423
         4         408         409         425         424
         4         409         410         426         425
         4         410         411         427         426
         4         411         412         428         427
         4         412         413         429         428
         4         413         414         430         429
         4         414         415         431         430
         4         416         417         433         432
         4         417         418         434         433
         4         418         419         435         434
         4         419         420         436         435
         4         420         421         437         436
         4         421         422         438         437
         4         422         423         439         438
         4         423         424         440         439
         4         424         425         441         440
         4         425         426         442         441
         4         426         427         443         442
         4         427         428         444         443
         4         428         429         445         444
         4         429         430         446         445
         4         430         431         447         446
         4         432         433         449         448
         4         433         434         450         449
         4         434         435         451         450
         4         435         436         452         451
         4         436         437         453         452
         4         437         438         454         453
         4         438         439         455         454
         4         439         440         456         455
         4         440         441         457         456
         4         441         442         458         457
         4         442         443         459         458
         4         443         444         460         459
         4         444         445         461         460
         4         445         446         462         461
         4         446         447         463         462
         4         448         449         465         464
         4         449         450         466         465
         4         450         451         467         466
         4         451         452         468         467
         4         452         453         469         468
         4         453         454         470         469
         4         454         455         471         470
         4         455         456         472         471
         4         456         457         473         472
         4         457         458         474         473
         4         458         459         475         474
         4         459         460         476         475
         4         460         461         477         476
         4         461         462         478         477
         4         462         463         479         478
         4         464         465         481         480
         4         465         466         482         481
         4         466         467         483         482
         4         467         468         484         483
         4         468         469         485         484
         4         469         470         486         485
         4         470         471         487         486
         4         471         472         488         487
         4         472         473         489         488
         4         473         474         490         489
         4         474         475         491         490
         4         475         476         492         491
         4         476         477         493         492
         4         477         478         494         493
         4         478         479         495         494
CELL_TYPES        450
9
9
9
9
9
9
9
9
9
9
9
9
9
9
9
9
9
9
9
9
9
9
9
9
9
9
9
9
9
9
9
9
9
9
9
9
9
9
9
9
9
9
9
9
9
9
9
9
9
9
9
9
9
9
9
9
9
9
9
9
9
9
9
9
9
9
9
9
9
9
9
9
9
9
9
9
9
9
9
9
9
9
9
9
9
9
9
9
9
9
9
9
9
9
9
9
9
9
9
9
9
9
9
9
9
9
9
9
9
9
9
9
9
9
9
9
9
9
9
9
9
9
9
9
9
9
9
9
9
9
9
9
9
9
9
9
9
9
9
9
9
9
9
9
9
9
9
9
9
9
9
9
9
9
9
9
9
9
9
9
9
9
9
9
9
9
9
9
9
9
9
9
9
9
9
9
9
9
9
9
9
9
9
9
9
9
9
9
9
9
9
9
9
9
9
9
9
9
9
9
9
9
9
9
9
9
9
9
9
9
9
9
9
9
9
9
9
9
9
9
9
9
9
9
9
9
9
9
9
9
9
9
9
9
9
9
9
9
9
9
9
9
9
9
9
9
9
9
9
9
9
9
9
9
9
9
9
9
9
9
9
9
9
9
9
9
9
9
9
9
9
9
9
9
9
9
9
9
9
9
9
9
9
9
9
9
9
9
9
9
9
9
9
9
9
9
9
9
9
9
9
9
9
9
9
9
9
9
9
9
9
9
9
9
9
9
9
9
9
9
9
9
9
9
9
9
9
9
9
9
9
9
9
9
9
9
9
9
9
9
9
9
9
9
9
9
9
9
9
9
9
9
9
9
9
9
9
9
9
9
9
9
9
9
9
9
9
9
9
9
9
9
9
9
9
9
9
9
9
9
9
9
9
9
9
9
9
9
9
9
9
9
9
9
9
9
9
9
9
9
9
9
9
9
9
9
9
9
9
9
9
9
9
9
9
9
9
9
9
9
9
9
9
9
9
9
9
9
9
9
9
9
9
9
9
9
9
9
9
9
9
9
9
9
9
9
9
9
9
9
POINT_DATA       496
SCALARS p double 
LOOKUP_TABLE default
   59996252.7341321     
   59996253.3314069     
   59996255.0382548     
   59996257.6687863     
   59996261.0156807     
   59996264.8678101     
   59996269.0231944     
   59996273.2970392     
   59996277.5252330     
   59996281.5640809     
   59996285.2872384     
   59996288.5808150     
   59996291.3374894     
   59996293.4502592     
   59996294.8061930     
   59996295.2803037     
   59995955.7193635     
   59995956.3745225     
   59995958.2430206     
   59995961.1143535     
   59995964.7566664     
   59995968.9363920     
   59995973.4323729     
   59995978.0443209     
   59995982.5961508     
   59995986.9351434     
   59995990.9280776     
   59995994.4554555     
   59995997.4047794     
   59995999.6635785     
   59996001.1125793     
   59996001.6191220     
   59995022.1978392     
   59995023.0372378     
   59995025.4190262     
   59995029.0523652     
   59995033.6262448     
   59995038.8354485     
   59995044.3982326     
   59995050.0659405     
   59995055.6256208     
   59995060.8971973     
   59995065.7269061     
   59995069.9786214     
   59995073.5244094     
   59995076.2352447     
   59995077.9723698     
   59995078.5793363     
   59993319.5262093     
   59993320.7094154     
   59993324.0447040     
   59993329.0842965     
   59993335.3657532     
   59993342.4494123     
   59993349.9421354     
   59993357.5083949     
   59993364.8708624     
   59993371.8032314     
   59993378.1181158     
   59993383.6526043     
   59993388.2535341     
   59993391.7638667     
   59993394.0108042     
   59993394.7955518     
   59990608.7706828     
   59990610.5175010     
   59990615.4059473     
   59990622.7149747     
   59990631.7255966     
   59990641.7762909     
   59990652.2953204     
   59990662.8126231     
   59990672.9554628     
   59990682.4326849     
   59990691.0123724     
   59990698.4971182     
   59990704.7001883     
   59990709.4247100     
   59990712.4467742     
   59990713.5021216     
   59986516.1803188     
   59986518.8052468     
   59986526.0944169     
   59986536.8704897     
   59986549.9993292     
   59986564.4715478     
   59986579.4453694     
   59986594.2565642     
   59986608.4032532     
   59986621.5140381     
   59986633.3074838     
   59986643.5498043     
   59986652.0159651     
   59986658.4575097     
   59986662.5784049     
   59986664.0181841     
   59980489.7037490     
   59980493.6608575     
   59980504.5583519     
   59980520.4730240     
   59980539.6146523     
   59980560.4434450     
   59980581.7235365     
   59980602.5240326     
   59980622.1816823     
   59980640.2396257     
   59980656.3754283     
   59980670.3293700     
   59980681.8411569     
   59980690.6001722     
   59980696.2112003     
   59980698.1743361     
   59971736.8330254     
   59971742.7737405     
   59971758.9864931     
   59971782.3470949     
   59971810.0458083     
   59971839.7508856     
   59971869.6680469     
   59971898.5177787     
   59971925.4552299     
   59971949.9568943     
   59971971.6953745     
   59971990.4193890     
   59972005.8515623     
   59972017.6117900     
   59972025.1691645     
   59972027.8204809     
   59959138.7789684     
   59959147.6236448     
   59959171.5217826     
   59959205.4415178     
   59959245.0130703     
   59959286.7457035     
   59959328.0781689     
   59959367.3029310     
   59959403.4068322     
   59959435.8678546     
   59959464.4414887     
   59959488.9628221     
   59959509.1830276     
   59959524.6518817     
   59959534.6510523     
   59959538.1756343     
   59941134.5895246     
   59941147.6099776     
   59941182.3999836     
   59941230.9391142     
   59941286.5086639     
   59941343.9588616     
   59941399.7144528     
   59941451.5909704     
   59941498.4937044     
   59941540.0629689     
   59941576.3169211     
   59941607.3302539     
   59941632.9754864     
   59941652.7436823     
   59941665.6523213     
   59941670.2381785     
   59915567.3538463     
   59915586.2564790     
   59915636.1245203     
   59915704.3247754     
   59915780.6651297     
   59915857.6826534     
   59915930.5289538     
   59915996.5798412     
   59916054.8885444     
   59916105.5820278     
   59916149.2761102     
   59916186.5629085     
   59916217.6066522     
   59916241.8711451     
   59916257.9916818     
   59916263.7923534     
   59879483.1745473     
   59879510.1597148     
   59879580.3037839     
   59879673.9701409     
   59879775.9373776     
   59879875.6224174     
   59879966.6982705     
   59880046.3255448     
   59880114.1913353     
   59880171.5069973     
   59880220.0715628     
   59880261.4702407     
   59880296.4521717     
   59880324.5173954     
   59880343.7343750     
   59880350.7985238     
   59828872.2838615     
   59828910.0327102     
   59829006.4314515     
   59829131.4070344     
   59829262.6382516     
   59829385.5155370     
   59829492.2170441     
   59829580.2724075     
   59829650.9221164     
   59829707.4952482     
   59829753.9464176     
   59829793.6312084     
   59829828.3647888     
   59829857.7975173     
   59829879.1428609     
   59829887.2911516     
   59758340.7437112     
   59758392.2432229     
   59758520.8959800     
   59758681.4106639     
   59758841.7572471     
   59758982.4529300     
   59759094.6060477     
   59759177.3368758     
   59759235.0537023     
   59759274.8970520     
   59759304.5185207     
   59759330.2612330     
   59759355.7654560     
   59759381.0269268     
   59759401.9651482     
   59759410.5847131     
   59660700.9010179     
   59660768.9536653     
   59660934.1525097     
   59661129.5859381     
   59661310.4948079     
   59661452.0894700     
   59661545.7116276     
   59661594.3546485     
   59661608.2648271     
   59661601.0348748     
   59661586.3452752     
   59661575.3528848     
   59661574.6792637     
   59661584.9946838     
   59661600.2874557     
   59661607.9993601     
   59526469.5377121     
   59526555.7040964     
   59526756.6437274     
   59526975.7136355     
   59527152.4396379     
   59527257.3949890     
   59527285.0502902     
   59527246.2232828     
   59527161.1805809     
   59527053.8747453     
   59526947.3656609     
   59526860.2387667     
   59526803.7994653     
   59526779.9532982     
   59526779.9050674     
   59526784.0378097     
   59343264.8814596     
   59343367.4610892     
   59343592.1366928     
   59343803.1007761     
   59343922.2644117     
   59343918.5788144     
   59343795.2361477     
   59343577.3079790     
   59343301.2752555     
   59343006.8937039     
   59342731.1247399     
   59342503.5243638     
   59342342.5040601     
   59342252.1795308     
   59342219.9896403     
   59342215.7581150     
   59095097.7598148     
   59095208.2155090     
   59095423.0913025     
   59095558.0633571     
   59095518.7434943     
   59095279.9195195     
   59094863.4035460     
   59094318.3919134     
   59093706.1806184     
   59093089.3416092     
   59092524.3458009     
   59092056.1828769     
   59091713.6913420     
   59091504.9255947     
   59091412.7755330     
   59091392.0151853     
   58761558.5692947     
   58761655.5376856     
   58761788.9058022     
   58761719.9277785     
   58761346.3853040     
   58760664.1515029     
   58759730.0300660     
   58758631.5810357     
   58757465.8960070     
   58756326.4068945     
   58755295.1794311     
   58754437.6922629     
   58753797.5760877     
   58753389.9190082     
   58753193.3099518     
   58753142.5452439     
   58316910.6602650     
   58316950.3708725     
   58316866.7375839     
   58316371.0400668     
   58315375.6724362     
   58313925.6453696     
   58312138.1882180     
   58310158.2504129     
   58308131.0475839     
   58306188.2887223     
   58304442.6363991     
   58302984.7820140     
   58301878.5965477     
   58301151.7163344     
   58300781.4630641     
   58300678.9968734     
   57729112.3245465     
   57729013.9103002     
   57728476.3472520     
   57727188.7374457     
   57725125.6425029     
   57722428.9848352     
   57719313.3159113     
   57716003.7337042     
   57712704.2794364     
   57709588.2094219     
   57706799.6488723     
   57704457.0192676     
   57702650.7589182     
   57701430.6686499     
   57700781.9135178     
   57700593.5216634     
   56958803.8066118     
   56958427.7349215     
   56957045.3805687     
   56954397.8488739     
   56950611.6308888     
   56946001.3925466     
   56940927.9452676     
   56935718.7632196     
   56930639.6021071     
   56925898.2590918     
   56921662.0480959     
   56918074.2316869     
   56915258.3059437     
   56913302.3494706     
   56912220.1377530     
   56911892.8845499     
   55958312.6397910     
   55957430.5778894     
   55954590.3755877     
   55949744.6331688     
   55943327.8936357     
   55935938.7128264     
   55928140.2755141     
   55920373.9149312     
   55912951.5933625     
   55906089.5265197     
   55899953.9860000     
   55894700.0364220     
   55890489.0766215     
   55887472.7979280     
   55885734.4943635     
   55885188.2635897     
   54670750.3445061     
   54669005.7888701     
   54663793.2816558     
   54655584.6166954     
   54645374.4227695     
   54634190.4772290     
   54622844.2613166     
   54611872.1680161     
   54601583.7786305     
   54592148.9799445     
   54583685.9294912     
   54576332.2759775     
   54570286.3280950     
   54565799.2954389     
   54563096.1331988     
   54562212.9386052     
   53029296.6228680     
   53026158.9211957     
   53017287.3691261     
   53004225.0730509     
   52988899.0044252     
   52972918.4605143     
   52957337.4615992     
   52942708.1621704     
   52929242.4968177     
   52916977.1333512     
   52905910.1157408     
   52896110.2723377     
   52887796.8399853     
   52881362.2173366     
   52877286.9818524     
   52875899.5011868     
   50956793.1438167     
   50951516.9990630     
   50937318.6653281     
   50917743.6192643     
   50896126.4886216     
   50874726.1502709     
   50854704.3412512     
   50836458.0151245     
   50819963.0389381     
   50805019.4143757     
   50791419.7329377     
   50779088.6399066     
   50768217.2816863     
   50759364.8728555     
   50753423.1698848     
   50751307.1296079     
   48365794.5206068     
   48357420.3871671     
   48336038.9544519     
   48308651.5628715     
   48280412.4569555     
   48253997.5762171     
   48230312.8827396     
   48209351.5034495     
   48190721.0006386     
   48173911.5120439     
   48158449.8568379     
   48144030.3260326     
   48130708.5603635     
   48119159.9914206     
   48110844.6685797     
   48107728.1256832     
   45159207.5725426     
   45146729.9006151     
   45116872.7199590     
   45082053.4488105     
   45049007.6646957     
   45019908.0905973     
   44994860.8387515     
   44973281.7610234     
   44954387.4919286     
   44937389.1561830     
   44921573.8440562     
   44906379.5043888     
   44891547.3401382     
   44877626.8847060     
   44866651.5684755     
   44862264.9233387     
   41231637.7895542     
   41214646.6201755     
   41177892.0165374     
   41140559.4949826     
   41108365.4671082     
   41081522.0920424     
   41059211.6122715     
   41040408.3351243     
   41024139.1489563     
   41009530.0271858     
   40995797.9652214     
   40982242.5183643     
   40968309.1101766     
   40953784.1469800     
   40940681.4807474     
   40934989.6474291     
   36470538.5439500     
   36452779.6801679     
   36420363.5792480     
   36393472.0428842     
   36371835.7063397     
   36354518.4229334     
   36340469.5372713     
   36328802.8054607     
   36318786.5741323     
   36309802.4334426     
   36301297.7101134     
   36292742.8341751     
   36283591.7237853     
   36273350.3009322     
   36261303.0191524     
   36254725.6708601     
   30766666.6666667     
   30766666.6666667     
   30766666.6666667     
   30766666.6666667     
   30766666.6666667     
   30766666.6666667     
   30766666.6666667     
   30766666.6666667     
   30766666.6666667     
   30766666.6666667     
   30766666.6666667     
   30766666.6666667     
   30766666.6666667     
   30766666.6666667     
   30766666.6666667     
   30766666.6666667     
VECTORS u double 
    0.00000E+00         0.49663E-01         0.00000E+00
    0.00000E+00         0.49640E-01         0.00000E+00
    0.00000E+00         0.49458E-01         0.00000E+00
    0.00000E+00         0.48988E-01         0.00000E+00
    0.00000E+00         0.48125E-01         0.00000E+00
    0.00000E+00         0.46790E-01         0.00000E+00
    0.00000E+00         0.44925E-01         0.00000E+00
    0.00000E+00         0.42484E-01         0.00000E+00
    0.00000E+00         0.39436E-01         0.00000E+00
    0.00000E+00         0.35761E-01         0.00000E+00
    0.00000E+00         0.31443E-01         0.00000E+00
    0.00000E+00         0.26474E-01         0.00000E+00
    0.00000E+00         0.20847E-01         0.00000E+00
    0.00000E+00         0.14560E-01         0.00000E+00
    0.00000E+00         0.76112E-02         0.00000E+00
    0.00000E+00         0.00000E+00         0.00000E+00
    0.22072E-01         0.49365E-01         0.00000E+00
    0.21308E-01         0.49343E-01         0.00000E+00
    0.20257E-01         0.49164E-01         0.00000E+00
    0.18979E-01         0.48697E-01         0.00000E+00
    0.17530E-01         0.47840E-01         0.00000E+00
    0.15959E-01         0.46514E-01         0.00000E+00
    0.14307E-01         0.44660E-01         0.00000E+00
    0.12609E-01         0.42235E-01         0.00000E+00
    0.10897E-01         0.39208E-01         0.00000E+00
    0.91924E-02         0.35557E-01         0.00000E+00
    0.75168E-02         0.31267E-01         0.00000E+00
    0.58856E-02         0.26328E-01         0.00000E+00
    0.43110E-02         0.20735E-01         0.00000E+00
    0.28020E-02         0.14484E-01         0.00000E+00
    0.13643E-02         0.75727E-02         0.00000E+00
    0.00000E+00         0.00000E+00         0.00000E+00
    0.44319E-01         0.48455E-01         0.00000E+00
    0.42758E-01         0.48438E-01         0.00000E+00
    0.40625E-01         0.48265E-01         0.00000E+00
    0.38044E-01         0.47809E-01         0.00000E+00
    0.35125E-01         0.46970E-01         0.00000E+00
    0.31964E-01         0.45671E-01         0.00000E+00
    0.28646E-01         0.43854E-01         0.00000E+00
    0.25241E-01         0.41478E-01         0.00000E+00
    0.21807E-01         0.38512E-01         0.00000E+00
    0.18393E-01         0.34934E-01         0.00000E+00
    0.15038E-01         0.30729E-01         0.00000E+00
    0.11772E-01         0.25885E-01         0.00000E+00
    0.86211E-02         0.20395E-01         0.00000E+00
    0.56021E-02         0.14253E-01         0.00000E+00
    0.27269E-02         0.74556E-02         0.00000E+00
    0.00000E+00         0.00000E+00         0.00000E+00
    0.66914E-01         0.46879E-01         0.00000E+00
    0.64489E-01         0.46871E-01         0.00000E+00
    0.61216E-01         0.46712E-01         0.00000E+00
    0.57279E-01         0.46276E-01         0.00000E+00
    0.52846E-01         0.45467E-01         0.00000E+00
    0.48062E-01         0.44215E-01         0.00000E+00
    0.43051E-01         0.42463E-01         0.00000E+00
    0.37917E-01         0.40172E-01         0.00000E+00
    0.32747E-01         0.37313E-01         0.00000E+00
    0.27612E-01         0.33862E-01         0.00000E+00
    0.22568E-01         0.29804E-01         0.00000E+00
    0.17662E-01         0.25123E-01         0.00000E+00
    0.12930E-01         0.19811E-01         0.00000E+00
    0.83991E-02         0.13857E-01         0.00000E+00
    0.40863E-02         0.72552E-02         0.00000E+00
    0.00000E+00         0.00000E+00         0.00000E+00
    0.90028E-01         0.44551E-01         0.00000E+00
    0.86638E-01         0.44558E-01         0.00000E+00
    0.82134E-01         0.44418E-01         0.00000E+00
    0.76765E-01         0.44013E-01         0.00000E+00
    0.70754E-01         0.43253E-01         0.00000E+00
    0.64295E-01         0.42071E-01         0.00000E+00
    0.57550E-01         0.40417E-01         0.00000E+00
    0.50658E-01         0.38253E-01         0.00000E+00
    0.43729E-01         0.35552E-01         0.00000E+00
    0.36857E-01         0.32291E-01         0.00000E+00
    0.30114E-01         0.28449E-01         0.00000E+00
    0.23559E-01         0.24009E-01         0.00000E+00
    0.17241E-01         0.18957E-01         0.00000E+00
    0.11193E-01         0.13279E-01         0.00000E+00
    0.54421E-02         0.69633E-02         0.00000E+00
    0.00000E+00         0.00000E+00         0.00000E+00
    0.11383E+00         0.41347E-01         0.00000E+00
    0.10933E+00         0.41376E-01         0.00000E+00
    0.10348E+00         0.41266E-01         0.00000E+00
    0.96573E-01         0.40905E-01         0.00000E+00
    0.88901E-01         0.40214E-01         0.00000E+00
    0.80700E-01         0.39132E-01         0.00000E+00
    0.72171E-01         0.37615E-01         0.00000E+00
    0.63482E-01         0.35630E-01         0.00000E+00
    0.54769E-01         0.33149E-01         0.00000E+00
    0.46140E-01         0.30148E-01         0.00000E+00
    0.37683E-01         0.26604E-01         0.00000E+00
    0.29470E-01         0.22495E-01         0.00000E+00
    0.21556E-01         0.17800E-01         0.00000E+00
    0.13987E-01         0.12497E-01         0.00000E+00
    0.67953E-02         0.65688E-02         0.00000E+00
    0.00000E+00         0.00000E+00         0.00000E+00
    0.13847E+00         0.37101E-01         0.00000E+00
    0.13270E+00         0.37163E-01         0.00000E+00
    0.12534E+00         0.37095E-01         0.00000E+00
    0.11677E+00         0.36799E-01         0.00000E+00
    0.10733E+00         0.36203E-01         0.00000E+00
    0.97308E-01         0.35259E-01         0.00000E+00
    0.86936E-01         0.33928E-01         0.00000E+00
    0.76408E-01         0.32183E-01         0.00000E+00
    0.65878E-01         0.29996E-01         0.00000E+00
    0.55472E-01         0.27342E-01         0.00000E+00
    0.45287E-01         0.24193E-01         0.00000E+00
    0.35403E-01         0.20520E-01         0.00000E+00
    0.25886E-01         0.16292E-01         0.00000E+00
    0.16787E-01         0.11480E-01         0.00000E+00
    0.81488E-02         0.60572E-02         0.00000E+00
    0.00000E+00         0.00000E+00         0.00000E+00
    0.16410E+00         0.31608E-01         0.00000E+00
    0.15684E+00         0.31718E-01         0.00000E+00
    0.14779E+00         0.31710E-01         0.00000E+00
    0.13740E+00         0.31502E-01         0.00000E+00
    0.12608E+00         0.31038E-01         0.00000E+00
    0.11414E+00         0.30278E-01         0.00000E+00
    0.10186E+00         0.29195E-01         0.00000E+00
    0.89447E-01         0.27764E-01         0.00000E+00
    0.77072E-01         0.25962E-01         0.00000E+00
    0.64868E-01         0.23758E-01         0.00000E+00
    0.52941E-01         0.21119E-01         0.00000E+00
    0.41375E-01         0.18006E-01         0.00000E+00
    0.30242E-01         0.14378E-01         0.00000E+00
    0.19602E-01         0.10192E-01         0.00000E+00
    0.95081E-02         0.54109E-02         0.00000E+00
    0.00000E+00         0.00000E+00         0.00000E+00
    0.19085E+00         0.24616E-01         0.00000E+00
    0.18184E+00         0.24793E-01         0.00000E+00
    0.17088E+00         0.24871E-01         0.00000E+00
    0.15851E+00         0.24785E-01         0.00000E+00
    0.14516E+00         0.24496E-01         0.00000E+00
    0.13121E+00         0.23981E-01         0.00000E+00
    0.11695E+00         0.23221E-01         0.00000E+00
    0.10261E+00         0.22199E-01         0.00000E+00
    0.88362E-01         0.20890E-01         0.00000E+00
    0.74345E-01         0.19261E-01         0.00000E+00
    0.60664E-01         0.17269E-01         0.00000E+00
    0.47406E-01         0.14864E-01         0.00000E+00
    0.34645E-01         0.11991E-01         0.00000E+00
    0.22449E-01         0.85906E-02         0.00000E+00
    0.10882E-01         0.46091E-02         0.00000E+00
    0.00000E+00         0.00000E+00         0.00000E+00
    0.21884E+00         0.15823E-01         0.00000E+00
    0.20777E+00         0.16096E-01         0.00000E+00
    0.19466E+00         0.16293E-01         0.00000E+00
    0.18010E+00         0.16374E-01         0.00000E+00
    0.16458E+00         0.16319E-01         0.00000E+00
    0.14852E+00         0.16124E-01         0.00000E+00
    0.13221E+00         0.15782E-01         0.00000E+00
    0.11590E+00         0.15282E-01         0.00000E+00
    0.99761E-01         0.14599E-01         0.00000E+00
    0.83921E-01         0.13694E-01         0.00000E+00
    0.68481E-01         0.12514E-01         0.00000E+00
    0.53524E-01         0.10992E-01         0.00000E+00
    0.39122E-01         0.90552E-02         0.00000E+00
    0.25350E-01         0.66253E-02         0.00000E+00
    0.12284E-01         0.36282E-02         0.00000E+00
    0.00000E+00         0.00000E+00         0.00000E+00
    0.24814E+00         0.48745E-02         0.00000E+00
    0.23467E+00         0.52831E-02         0.00000E+00
    0.21912E+00         0.56466E-02         0.00000E+00
    0.20215E+00         0.59519E-02         0.00000E+00
    0.18432E+00         0.62075E-02         0.00000E+00
    0.16603E+00         0.64279E-02         0.00000E+00
    0.14762E+00         0.66214E-02         0.00000E+00
    0.12932E+00         0.67820E-02         0.00000E+00
    0.11128E+00         0.68842E-02         0.00000E+00
    0.93619E-01         0.68813E-02         0.00000E+00
    0.76425E-01         0.67058E-02         0.00000E+00
    0.59765E-01         0.62729E-02         0.00000E+00
    0.43710E-01         0.54855E-02         0.00000E+00
    0.28335E-01         0.42415E-02         0.00000E+00
    0.13731E-01         0.24418E-02         0.00000E+00
    0.00000E+00         0.00000E+00         0.00000E+00
    0.27880E+00        -0.86402E-02         0.00000E+00
    0.26253E+00        -0.80408E-02         0.00000E+00
    0.24423E+00        -0.74487E-02         0.00000E+00
    0.22463E+00        -0.68410E-02         0.00000E+00
    0.20431E+00        -0.61783E-02         0.00000E+00
    0.18372E+00        -0.54224E-02         0.00000E+00
    0.16316E+00        -0.45499E-02         0.00000E+00
    0.14285E+00        -0.35606E-02         0.00000E+00
    0.12292E+00        -0.24825E-02         0.00000E+00
    0.10346E+00        -0.13727E-02         0.00000E+00
    0.84532E-01        -0.31605E-03         0.00000E+00
    0.66177E-01         0.57918E-03         0.00000E+00
    0.48455E-01         0.11883E-02         0.00000E+00
    0.31444E-01         0.13789E-02         0.00000E+00
    0.15248E-01         0.10211E-02         0.00000E+00
    0.00000E+00         0.00000E+00         0.00000E+00
    0.31080E+00        -0.25193E-01         0.00000E+00
    0.29129E+00        -0.24327E-01         0.00000E+00
    0.26990E+00        -0.23422E-01         0.00000E+00
    0.24742E+00        -0.22410E-01         0.00000E+00
    0.22448E+00        -0.21216E-01         0.00000E+00
    0.20150E+00        -0.19774E-01         0.00000E+00
    0.17877E+00        -0.18047E-01         0.00000E+00
    0.15647E+00        -0.16027E-01         0.00000E+00
    0.13469E+00        -0.13747E-01         0.00000E+00
    0.11348E+00        -0.11277E-01         0.00000E+00
    0.92847E-01        -0.87249E-02         0.00000E+00
    0.72813E-01        -0.62252E-02         0.00000E+00
    0.53416E-01        -0.39363E-02         0.00000E+00
    0.34728E-01        -0.20271E-02         0.00000E+00
    0.16866E-01        -0.66474E-03         0.00000E+00
    0.00000E+00         0.00000E+00         0.00000E+00
    0.34409E+00        -0.45318E-01         0.00000E+00
    0.32083E+00        -0.44084E-01         0.00000E+00
    0.29599E+00        -0.42751E-01         0.00000E+00
    0.27040E+00        -0.41201E-01         0.00000E+00
    0.24469E+00        -0.39317E-01         0.00000E+00
    0.21927E+00        -0.37004E-01         0.00000E+00
    0.19438E+00        -0.34207E-01         0.00000E+00
    0.17015E+00        -0.30915E-01         0.00000E+00
    0.14659E+00        -0.27168E-01         0.00000E+00
    0.12369E+00        -0.23053E-01         0.00000E+00
    0.10142E+00        -0.18701E-01         0.00000E+00
    0.79740E-01        -0.14282E-01         0.00000E+00
    0.58661E-01        -0.99924E-02         0.00000E+00
    0.38245E-01        -0.60434E-02         0.00000E+00
    0.18623E-01        -0.26476E-02         0.00000E+00
    0.00000E+00         0.00000E+00         0.00000E+00
    0.37849E+00        -0.69616E-01         0.00000E+00
    0.35094E+00        -0.67872E-01         0.00000E+00
    0.32227E+00        -0.65959E-01         0.00000E+00
    0.29334E+00        -0.63697E-01         0.00000E+00
    0.26476E+00        -0.60922E-01         0.00000E+00
    0.23689E+00        -0.57507E-01         0.00000E+00
    0.20990E+00        -0.53381E-01         0.00000E+00
    0.18382E+00        -0.48532E-01         0.00000E+00
    0.15859E+00        -0.43009E-01         0.00000E+00
    0.13413E+00        -0.36920E-01         0.00000E+00
    0.11030E+00        -0.30426E-01         0.00000E+00
    0.87026E-01        -0.23735E-01         0.00000E+00
    0.64269E-01        -0.17084E-01         0.00000E+00
    0.42068E-01        -0.10738E-01         0.00000E+00
    0.20563E-01        -0.49599E-02         0.00000E+00
    0.00000E+00         0.00000E+00         0.00000E+00
    0.41372E+00        -0.98746E-01         0.00000E+00
    0.38131E+00        -0.96306E-01         0.00000E+00
    0.34843E+00        -0.93612E-01         0.00000E+00
    0.31595E+00        -0.90412E-01         0.00000E+00
    0.28444E+00        -0.86490E-01         0.00000E+00
    0.25415E+00        -0.81689E-01         0.00000E+00
    0.22516E+00        -0.75923E-01         0.00000E+00
    0.19739E+00        -0.69181E-01         0.00000E+00
    0.17067E+00        -0.61527E-01         0.00000E+00
    0.14479E+00        -0.53093E-01         0.00000E+00
    0.11954E+00        -0.44075E-01         0.00000E+00
    0.94747E-01        -0.34719E-01         0.00000E+00
    0.70324E-01        -0.25313E-01         0.00000E+00
    0.46275E-01        -0.16176E-01         0.00000E+00
    0.22739E-01        -0.76332E-02         0.00000E+00
    0.00000E+00         0.00000E+00         0.00000E+00
    0.44939E+00        -0.13343E+00         0.00000E+00
    0.41150E+00        -0.13004E+00         0.00000E+00
    0.37404E+00        -0.12630E+00         0.00000E+00
    0.33785E+00        -0.12187E+00         0.00000E+00
    0.30339E+00        -0.11648E+00         0.00000E+00
    0.27080E+00        -0.10995E+00         0.00000E+00
    0.24000E+00        -0.10217E+00         0.00000E+00
    0.21075E+00        -0.93144E-01         0.00000E+00
    0.18276E+00        -0.82956E-01         0.00000E+00
    0.15567E+00        -0.71765E-01         0.00000E+00
    0.12916E+00        -0.59801E-01         0.00000E+00
    0.10297E+00        -0.47356E-01         0.00000E+00
    0.76910E-01        -0.34769E-01         0.00000E+00
    0.50949E-01        -0.22417E-01         0.00000E+00
    0.25207E-01        -0.10697E-01         0.00000E+00
    0.00000E+00         0.00000E+00         0.00000E+00
    0.48490E+00        -0.17443E+00         0.00000E+00
    0.44090E+00        -0.16977E+00         0.00000E+00
    0.39853E+00        -0.16463E+00         0.00000E+00
    0.35854E+00        -0.15860E+00         0.00000E+00
    0.32120E+00        -0.15134E+00         0.00000E+00
    0.28650E+00        -0.14264E+00         0.00000E+00
    0.25414E+00        -0.13241E+00         0.00000E+00
    0.22372E+00        -0.12066E+00         0.00000E+00
    0.19475E+00        -0.10748E+00         0.00000E+00
    0.16673E+00        -0.93085E-01         0.00000E+00
    0.13919E+00        -0.77727E-01         0.00000E+00
    0.11173E+00        -0.61743E-01         0.00000E+00
    0.84100E-01        -0.45526E-01         0.00000E+00
    0.56168E-01        -0.29513E-01         0.00000E+00
    0.28024E-01        -0.14178E-01         0.00000E+00
    0.00000E+00         0.00000E+00         0.00000E+00
    0.51943E+00        -0.22255E+00         0.00000E+00
    0.46873E+00        -0.21618E+00         0.00000E+00
    0.42119E+00        -0.20919E+00         0.00000E+00
    0.37738E+00        -0.20107E+00         0.00000E+00
    0.33736E+00        -0.19145E+00         0.00000E+00
    0.30083E+00        -0.18008E+00         0.00000E+00
    0.26728E+00        -0.16688E+00         0.00000E+00
    0.23607E+00        -0.15189E+00         0.00000E+00
    0.20649E+00        -0.13523E+00         0.00000E+00
    0.17786E+00        -0.11714E+00         0.00000E+00
    0.14956E+00        -0.97919E-01         0.00000E+00
    0.12106E+00        -0.77936E-01         0.00000E+00
    0.91940E-01        -0.57630E-01         0.00000E+00
    0.61995E-01        -0.37499E-01         0.00000E+00
    0.31243E-01        -0.18095E-01         0.00000E+00
    0.00000E+00         0.00000E+00         0.00000E+00
    0.55193E+00        -0.27859E+00         0.00000E+00
    0.49396E+00        -0.26993E+00         0.00000E+00
    0.44109E+00        -0.26052E+00         0.00000E+00
    0.39359E+00        -0.24972E+00         0.00000E+00
    0.35120E+00        -0.23711E+00         0.00000E+00
    0.31327E+00        -0.22245E+00         0.00000E+00
    0.27900E+00        -0.20568E+00         0.00000E+00
    0.24745E+00        -0.18688E+00         0.00000E+00
    0.21771E+00        -0.16620E+00         0.00000E+00
    0.18889E+00        -0.14393E+00         0.00000E+00
    0.16018E+00        -0.12037E+00         0.00000E+00
    0.13087E+00        -0.95935E-01         0.00000E+00
    0.10042E+00        -0.71092E-01         0.00000E+00
    0.68459E-01        -0.46391E-01         0.00000E+00
    0.34901E-01        -0.22462E-01         0.00000E+00
    0.00000E+00         0.00000E+00         0.00000E+00
    0.58098E+00        -0.34329E+00         0.00000E+00
    0.51531E+00        -0.33164E+00         0.00000E+00
    0.45711E+00        -0.31905E+00         0.00000E+00
    0.40624E+00        -0.30481E+00         0.00000E+00
    0.36194E+00        -0.28845E+00         0.00000E+00
    0.32318E+00        -0.26978E+00         0.00000E+00
    0.28876E+00        -0.24876E+00         0.00000E+00
    0.25744E+00        -0.22552E+00         0.00000E+00
    0.22806E+00        -0.20027E+00         0.00000E+00
    0.19951E+00        -0.17331E+00         0.00000E+00
    0.17079E+00        -0.14497E+00         0.00000E+00
    0.14102E+00        -0.11566E+00         0.00000E+00
    0.10945E+00        -0.85871E-01         0.00000E+00
    0.75529E-01        -0.56178E-01         0.00000E+00
    0.39006E-01        -0.27283E-01         0.00000E+00
    0.00000E+00         0.00000E+00         0.00000E+00
    0.60480E+00        -0.41731E+00         0.00000E+00
    0.53117E+00        -0.40174E+00         0.00000E+00
    0.46790E+00        -0.38505E+00         0.00000E+00
    0.41417E+00        -0.36642E+00         0.00000E+00
    0.36867E+00        -0.34541E+00         0.00000E+00
    0.32978E+00        -0.32186E+00         0.00000E+00
    0.29590E+00        -0.29582E+00         0.00000E+00
    0.26545E+00        -0.26748E+00         0.00000E+00
    0.23701E+00        -0.23711E+00         0.00000E+00
    0.20926E+00        -0.20500E+00         0.00000E+00
    0.18100E+00        -0.17148E+00         0.00000E+00
    0.15117E+00        -0.13695E+00         0.00000E+00
    0.11879E+00        -0.10187E+00         0.00000E+00
    0.83077E-01        -0.66816E-01         0.00000E+00
    0.43517E-01        -0.32549E-01         0.00000E+00
    0.00000E+00         0.00000E+00         0.00000E+00
    0.62114E+00        -0.50111E+00         0.00000E+00
    0.53960E+00        -0.48046E+00         0.00000E+00
    0.47181E+00        -0.45849E+00         0.00000E+00
    0.41608E+00        -0.43432E+00         0.00000E+00
    0.37027E+00        -0.40757E+00         0.00000E+00
    0.33214E+00        -0.37816E+00         0.00000E+00
    0.29958E+00        -0.34627E+00         0.00000E+00
    0.27069E+00        -0.31216E+00         0.00000E+00
    0.24380E+00        -0.27614E+00         0.00000E+00
    0.21741E+00        -0.23849E+00         0.00000E+00
    0.19016E+00        -0.19950E+00         0.00000E+00
    0.16077E+00        -0.15951E+00         0.00000E+00
    0.12802E+00        -0.11890E+00         0.00000E+00
    0.90832E-01        -0.78221E-01         0.00000E+00
    0.48319E-01        -0.38241E-01         0.00000E+00
    0.00000E+00         0.00000E+00         0.00000E+00
    0.62720E+00        -0.59481E+00         0.00000E+00
    0.53825E+00        -0.56764E+00         0.00000E+00
    0.46697E+00        -0.53895E+00         0.00000E+00
    0.41045E+00        -0.50786E+00         0.00000E+00
    0.36551E+00        -0.47409E+00         0.00000E+00
    0.32915E+00        -0.43774E+00         0.00000E+00
    0.29876E+00        -0.39914E+00         0.00000E+00
    0.27214E+00        -0.35862E+00         0.00000E+00
    0.24742E+00        -0.31650E+00         0.00000E+00
    0.22298E+00        -0.27304E+00         0.00000E+00
    0.19731E+00        -0.22844E+00         0.00000E+00
    0.16895E+00        -0.18290E+00         0.00000E+00
    0.13645E+00        -0.13670E+00         0.00000E+00
    0.98313E-01        -0.90263E-01         0.00000E+00
    0.53181E-01        -0.44323E-01         0.00000E+00
    0.00000E+00         0.00000E+00         0.00000E+00
    0.61957E+00        -0.69802E+00         0.00000E+00
    0.52435E+00        -0.66255E+00         0.00000E+00
    0.45123E+00        -0.62539E+00         0.00000E+00
    0.39558E+00        -0.58574E+00         0.00000E+00
    0.35295E+00        -0.54353E+00         0.00000E+00
    0.31949E+00        -0.49912E+00         0.00000E+00
    0.29213E+00        -0.45298E+00         0.00000E+00
    0.26844E+00        -0.40551E+00         0.00000E+00
    0.24647E+00        -0.35701E+00         0.00000E+00
    0.22453E+00        -0.30765E+00         0.00000E+00
    0.20105E+00        -0.25749E+00         0.00000E+00
    0.17445E+00        -0.20655E+00         0.00000E+00
    0.14298E+00        -0.15489E+00         0.00000E+00
    0.10474E+00        -0.10275E+00         0.00000E+00
    0.57710E-01        -0.50744E-01         0.00000E+00
    0.00000E+00         0.00000E+00         0.00000E+00
    0.59409E+00        -0.80958E+00         0.00000E+00
    0.49476E+00        -0.76365E+00         0.00000E+00
    0.42226E+00        -0.71593E+00         0.00000E+00
    0.36968E+00        -0.66584E+00         0.00000E+00
    0.33100E+00        -0.61370E+00         0.00000E+00
    0.30159E+00        -0.56016E+00         0.00000E+00
    0.27804E+00        -0.50582E+00         0.00000E+00
    0.25785E+00        -0.45109E+00         0.00000E+00
    0.23910E+00        -0.39616E+00         0.00000E+00
    0.22015E+00        -0.34105E+00         0.00000E+00
    0.19948E+00        -0.28562E+00         0.00000E+00
    0.17543E+00        -0.22967E+00         0.00000E+00
    0.14605E+00        -0.17296E+00         0.00000E+00
    0.10894E+00        -0.11544E+00         0.00000E+00
    0.61277E-01        -0.57435E-01         0.00000E+00
    0.00000E+00         0.00000E+00         0.00000E+00
    0.54582E+00        -0.92708E+00         0.00000E+00
    0.44597E+00        -0.86812E+00         0.00000E+00
    0.37765E+00        -0.80741E+00         0.00000E+00
    0.33083E+00        -0.74489E+00         0.00000E+00
    0.29786E+00        -0.68145E+00         0.00000E+00
    0.27353E+00        -0.61801E+00         0.00000E+00
    0.25440E+00        -0.55518E+00         0.00000E+00
    0.23811E+00        -0.49323E+00         0.00000E+00
    0.22291E+00        -0.43214E+00         0.00000E+00
    0.20738E+00        -0.37172E+00         0.00000E+00
    0.19008E+00        -0.31160E+00         0.00000E+00
    0.16944E+00        -0.25130E+00         0.00000E+00
    0.14341E+00        -0.19026E+00         0.00000E+00
    0.10917E+00        -0.12797E+00         0.00000E+00
    0.62918E-01        -0.64298E-01         0.00000E+00
    0.00000E+00         0.00000E+00         0.00000E+00
    0.46890E+00        -0.10463E+01         0.00000E+00
    0.37437E+00        -0.97123E+00         0.00000E+00
    0.31509E+00        -0.89488E+00         0.00000E+00
    0.27709E+00        -0.81815E+00         0.00000E+00
    0.25141E+00        -0.74258E+00         0.00000E+00
    0.23291E+00        -0.66915E+00         0.00000E+00
    0.21855E+00        -0.59817E+00         0.00000E+00
    0.20635E+00        -0.52955E+00         0.00000E+00
    0.19491E+00        -0.46299E+00         0.00000E+00
    0.18306E+00        -0.39801E+00         0.00000E+00
    0.16964E+00        -0.33402E+00         0.00000E+00
    0.15326E+00        -0.27029E+00         0.00000E+00
    0.13200E+00        -0.20591E+00         0.00000E+00
    0.10288E+00        -0.13985E+00         0.00000E+00
    0.61151E-01        -0.71188E-01         0.00000E+00
    0.00000E+00         0.00000E+00         0.00000E+00
    0.35656E+00        -0.11597E+01         0.00000E+00
    0.27674E+00        -0.10652E+01         0.00000E+00
    0.23273E+00        -0.97072E+00         0.00000E+00
    0.20630E+00        -0.87911E+00         0.00000E+00
    0.18893E+00        -0.79200E+00         0.00000E+00
    0.17661E+00        -0.70966E+00         0.00000E+00
    0.16710E+00        -0.63174E+00         0.00000E+00
    0.15902E+00        -0.55766E+00         0.00000E+00
    0.15139E+00        -0.48674E+00         0.00000E+00
    0.14341E+00        -0.41827E+00         0.00000E+00
    0.13424E+00        -0.35142E+00         0.00000E+00
    0.12286E+00        -0.28529E+00         0.00000E+00
    0.10776E+00        -0.21875E+00         0.00000E+00
    0.86391E-01        -0.15029E+00         0.00000E+00
    0.53640E-01        -0.77843E-01         0.00000E+00
    0.00000E+00         0.00000E+00         0.00000E+00
    0.20127E+00        -0.12541E+01         0.00000E+00
    0.15171E+00        -0.11365E+01         0.00000E+00
    0.12885E+00        -0.10240E+01         0.00000E+00
    0.11544E+00        -0.92016E+00         0.00000E+00
    0.10675E+00        -0.82443E+00         0.00000E+00
    0.10062E+00        -0.73580E+00         0.00000E+00
    0.95891E-01        -0.65316E+00         0.00000E+00
    0.91868E-01        -0.57547E+00         0.00000E+00
    0.88053E-01        -0.50174E+00         0.00000E+00
    0.84030E-01        -0.43106E+00         0.00000E+00
    0.79372E-01        -0.36248E+00         0.00000E+00
    0.73532E-01        -0.29497E+00         0.00000E+00
    0.65681E-01        -0.22733E+00         0.00000E+00
    0.54317E-01        -0.15785E+00         0.00000E+00
    0.36281E-01        -0.83748E-01         0.00000E+00
    0.00000E+00         0.00000E+00         0.00000E+00
    0.00000E+00        -0.12995E+01         0.00000E+00
    0.00000E+00        -0.11644E+01         0.00000E+00
    0.00000E+00        -0.10435E+01         0.00000E+00
    0.00000E+00        -0.93471E+00         0.00000E+00
    0.00000E+00        -0.83574E+00         0.00000E+00
    0.00000E+00        -0.74483E+00         0.00000E+00
    0.00000E+00        -0.66052E+00         0.00000E+00
    0.00000E+00        -0.58156E+00         0.00000E+00
    0.00000E+00        -0.50687E+00         0.00000E+00
    0.00000E+00        -0.43543E+00         0.00000E+00
    0.00000E+00        -0.36627E+00         0.00000E+00
    0.00000E+00        -0.29833E+00         0.00000E+00
    0.00000E+00        -0.23036E+00         0.00000E+00
    0.00000E+00        -0.16065E+00         0.00000E+00
    0.00000E+00        -0.86421E-01         0.00000E+00
    0.00000E+00         0.00000E+00         0.00000E+00
CELL_DATA        450
VECTORS vDarcy double 
    0.17117E-09         0.36092E-12         0.00000E+00
    0.17106E-09         0.10300E-11         0.00000E+00
    0.17088E-09         0.15845E-11         0.00000E+00
    0.17067E-09         0.20121E-11         0.00000E+00
    0.17042E-09         0.23114E-11         0.00000E+00
    0.17016E-09         0.24886E-11         0.00000E+00
    0.16989E-09         0.25550E-11         0.00000E+00
    0.16962E-09         0.25235E-11         0.00000E+00
    0.16937E-09         0.24069E-11         0.00000E+00
    0.16914E-09         0.22158E-11         0.00000E+00
    0.16893E-09         0.19580E-11         0.00000E+00
    0.16874E-09         0.16373E-11         0.00000E+00
    0.16859E-09         0.12540E-11         0.00000E+00
    0.16847E-09         0.80434E-12         0.00000E+00
    0.16838E-09         0.28113E-12         0.00000E+00
    0.53801E-09         0.43072E-12         0.00000E+00
    0.53765E-09         0.12245E-11         0.00000E+00
    0.53710E-09         0.18734E-11         0.00000E+00
    0.53641E-09         0.23654E-11         0.00000E+00
    0.53563E-09         0.27020E-11         0.00000E+00
    0.53480E-09         0.28935E-11         0.00000E+00
    0.53395E-09         0.29557E-11         0.00000E+00
    0.53313E-09         0.29061E-11         0.00000E+00
    0.53234E-09         0.27610E-11         0.00000E+00
    0.53161E-09         0.25336E-11         0.00000E+00
    0.53095E-09         0.22330E-11         0.00000E+00
    0.53038E-09         0.18637E-11         0.00000E+00
    0.52989E-09         0.14255E-11         0.00000E+00
    0.52951E-09         0.91362E-12         0.00000E+00
    0.52924E-09         0.31921E-12         0.00000E+00
    0.98141E-09         0.58297E-12         0.00000E+00
    0.98073E-09         0.16473E-11         0.00000E+00
    0.97969E-09         0.24981E-11         0.00000E+00
    0.97840E-09         0.31254E-11         0.00000E+00
    0.97695E-09         0.35378E-11         0.00000E+00
    0.97542E-09         0.37556E-11         0.00000E+00
    0.97388E-09         0.38052E-11         0.00000E+00
    0.97238E-09         0.37139E-11         0.00000E+00
    0.97096E-09         0.35059E-11         0.00000E+00
    0.96964E-09         0.32002E-11         0.00000E+00
    0.96845E-09         0.28090E-11         0.00000E+00
    0.96741E-09         0.23375E-11         0.00000E+00
    0.96653E-09         0.17844E-11         0.00000E+00
    0.96584E-09         0.11424E-11         0.00000E+00
    0.96536E-09         0.39893E-12         0.00000E+00
    0.15628E-08         0.84467E-12         0.00000E+00
    0.15616E-08         0.23699E-11         0.00000E+00
    0.15599E-08         0.35572E-11         0.00000E+00
    0.15577E-08         0.44032E-11         0.00000E+00
    0.15554E-08         0.49314E-11         0.00000E+00
    0.15529E-08         0.51814E-11         0.00000E+00
    0.15505E-08         0.51996E-11         0.00000E+00
    0.15481E-08         0.50310E-11         0.00000E+00
    0.15459E-08         0.47139E-11         0.00000E+00
    0.15438E-08         0.42768E-11         0.00000E+00
    0.15419E-08         0.37368E-11         0.00000E+00
    0.15403E-08         0.30997E-11         0.00000E+00
    0.15389E-08         0.23618E-11         0.00000E+00
    0.15379E-08         0.15107E-11         0.00000E+00
    0.15371E-08         0.52741E-12         0.00000E+00
    0.23600E-08         0.12606E-11         0.00000E+00
    0.23581E-08         0.35100E-11         0.00000E+00
    0.23553E-08         0.52104E-11         0.00000E+00
    0.23520E-08         0.63754E-11         0.00000E+00
    0.23483E-08         0.70582E-11         0.00000E+00
    0.23446E-08         0.73337E-11         0.00000E+00
    0.23409E-08         0.72827E-11         0.00000E+00
    0.23373E-08         0.69805E-11         0.00000E+00
    0.23340E-08         0.64883E-11         0.00000E+00
    0.23310E-08         0.58494E-11         0.00000E+00
    0.23282E-08         0.50875E-11         0.00000E+00
    0.23259E-08         0.42082E-11         0.00000E+00
    0.23239E-08         0.32021E-11         0.00000E+00
    0.23223E-08         0.20477E-11         0.00000E+00
    0.23212E-08         0.71507E-12         0.00000E+00
    0.34762E-08         0.18985E-11         0.00000E+00
    0.34731E-08         0.52433E-11         0.00000E+00
    0.34688E-08         0.76911E-11         0.00000E+00
    0.34637E-08         0.92939E-11         0.00000E+00
    0.34582E-08         0.10161E-10         0.00000E+00
    0.34527E-08         0.10430E-10         0.00000E+00
    0.34472E-08         0.10239E-10         0.00000E+00
    0.34421E-08         0.97143E-11         0.00000E+00
    0.34373E-08         0.89523E-11         0.00000E+00
    0.34330E-08         0.80180E-11         0.00000E+00
    0.34291E-08         0.69432E-11         0.00000E+00
    0.34257E-08         0.57303E-11         0.00000E+00
    0.34229E-08         0.43583E-11         0.00000E+00
    0.34206E-08         0.27894E-11         0.00000E+00
    0.34190E-08         0.97506E-12         0.00000E+00
    0.50506E-08         0.28559E-11         0.00000E+00
    0.50456E-08         0.78181E-11         0.00000E+00
    0.50390E-08         0.11320E-10         0.00000E+00
    0.50313E-08         0.13492E-10         0.00000E+00
    0.50232E-08         0.14547E-10         0.00000E+00
    0.50151E-08         0.14729E-10         0.00000E+00
    0.50073E-08         0.14275E-10         0.00000E+00
    0.50000E-08         0.13389E-10         0.00000E+00
    0.49933E-08         0.12223E-10         0.00000E+00
    0.49873E-08         0.10871E-10         0.00000E+00
    0.49819E-08         0.93754E-11         0.00000E+00
    0.49773E-08         0.77269E-11         0.00000E+00
    0.49733E-08         0.58821E-11         0.00000E+00
    0.49701E-08         0.37735E-11         0.00000E+00
    0.49678E-08         0.13219E-11         0.00000E+00
    0.72722E-08         0.42679E-11         0.00000E+00
    0.72643E-08         0.11571E-10         0.00000E+00
    0.72541E-08         0.16512E-10         0.00000E+00
    0.72427E-08         0.19379E-10         0.00000E+00
    0.72308E-08         0.20565E-10         0.00000E+00
    0.72192E-08         0.20497E-10         0.00000E+00
    0.72082E-08         0.19571E-10         0.00000E+00
    0.71981E-08         0.18113E-10         0.00000E+00
    0.71890E-08         0.16357E-10         0.00000E+00
    0.71808E-08         0.14439E-10         0.00000E+00
    0.71735E-08         0.12405E-10         0.00000E+00
    0.71672E-08         0.10222E-10         0.00000E+00
    0.71617E-08         0.78035E-11         0.00000E+00
    0.71574E-08         0.50297E-11         0.00000E+00
    0.71542E-08         0.17687E-11         0.00000E+00
    0.10397E-07         0.63142E-11         0.00000E+00
    0.10385E-07         0.16935E-10         0.00000E+00
    0.10369E-07         0.23775E-10         0.00000E+00
    0.10352E-07         0.27410E-10         0.00000E+00
    0.10335E-07         0.28553E-10         0.00000E+00
    0.10319E-07         0.27929E-10         0.00000E+00
    0.10304E-07         0.26188E-10         0.00000E+00
    0.10290E-07         0.23845E-10         0.00000E+00
    0.10278E-07         0.21253E-10         0.00000E+00
    0.10267E-07         0.18600E-10         0.00000E+00
    0.10257E-07         0.15925E-10         0.00000E+00
    0.10249E-07         0.13146E-10         0.00000E+00
    0.10242E-07         0.10095E-10         0.00000E+00
    0.10236E-07         0.65606E-11         0.00000E+00
    0.10231E-07         0.23220E-11         0.00000E+00
    0.14772E-07         0.92229E-11         0.00000E+00
    0.14752E-07         0.24436E-10         0.00000E+00
    0.14729E-07         0.33666E-10         0.00000E+00
    0.14704E-07         0.38007E-10         0.00000E+00
    0.14680E-07         0.38710E-10         0.00000E+00
    0.14657E-07         0.36991E-10         0.00000E+00
    0.14637E-07         0.33894E-10         0.00000E+00
    0.14619E-07         0.30218E-10         0.00000E+00
    0.14603E-07         0.26481E-10         0.00000E+00
    0.14589E-07         0.22932E-10         0.00000E+00
    0.14577E-07         0.19580E-10         0.00000E+00
    0.14566E-07         0.16243E-10         0.00000E+00
    0.14556E-07         0.12611E-10         0.00000E+00
    0.14548E-07         0.83104E-11         0.00000E+00
    0.14542E-07         0.29724E-11         0.00000E+00
    0.20857E-07         0.13264E-10         0.00000E+00
    0.20827E-07         0.34651E-10         0.00000E+00
    0.20792E-07         0.46687E-10         0.00000E+00
    0.20756E-07         0.51377E-10         0.00000E+00
    0.20722E-07         0.50866E-10         0.00000E+00
    0.20692E-07         0.47144E-10         0.00000E+00
    0.20665E-07         0.41862E-10         0.00000E+00
    0.20642E-07         0.36228E-10         0.00000E+00
    0.20622E-07         0.30990E-10         0.00000E+00
    0.20605E-07         0.26453E-10         0.00000E+00
    0.20590E-07         0.22548E-10         0.00000E+00
    0.20577E-07         0.18910E-10         0.00000E+00
    0.20565E-07         0.14980E-10         0.00000E+00
    0.20554E-07         0.10112E-10         0.00000E+00
    0.20545E-07         0.36799E-11         0.00000E+00
    0.29267E-07         0.18719E-10         0.00000E+00
    0.29220E-07         0.48099E-10         0.00000E+00
    0.29168E-07         0.63069E-10         0.00000E+00
    0.29117E-07         0.67192E-10         0.00000E+00
    0.29071E-07         0.64058E-10         0.00000E+00
    0.29031E-07         0.56868E-10         0.00000E+00
    0.28997E-07         0.48170E-10         0.00000E+00
    0.28970E-07         0.39758E-10         0.00000E+00
    0.28946E-07         0.32664E-10         0.00000E+00
    0.28927E-07         0.27232E-10         0.00000E+00
    0.28909E-07         0.23224E-10         0.00000E+00
    0.28893E-07         0.19956E-10         0.00000E+00
    0.28878E-07         0.16451E-10         0.00000E+00
    0.28864E-07         0.11600E-10         0.00000E+00
    0.28853E-07         0.43488E-11         0.00000E+00
    0.40802E-07         0.25817E-10         0.00000E+00
    0.40730E-07         0.65008E-10         0.00000E+00
    0.40654E-07         0.82353E-10         0.00000E+00
    0.40584E-07         0.84001E-10         0.00000E+00
    0.40522E-07         0.75844E-10         0.00000E+00
    0.40472E-07         0.62908E-10         0.00000E+00
    0.40432E-07         0.49042E-10         0.00000E+00
    0.40400E-07         0.36828E-10         0.00000E+00
    0.40376E-07         0.27639E-10         0.00000E+00
    0.40356E-07         0.21791E-10         0.00000E+00
    0.40337E-07         0.18729E-10         0.00000E+00
    0.40319E-07         0.17233E-10         0.00000E+00
    0.40302E-07         0.15639E-10         0.00000E+00
    0.40284E-07         0.12084E-10         0.00000E+00
    0.40267E-07         0.47902E-11         0.00000E+00
    0.56500E-07         0.34593E-10         0.00000E+00
    0.56391E-07         0.84886E-10         0.00000E+00
    0.56283E-07         0.10266E-09         0.00000E+00
    0.56187E-07         0.98287E-10         0.00000E+00
    0.56108E-07         0.81199E-10         0.00000E+00
    0.56047E-07         0.59120E-10         0.00000E+00
    0.56003E-07         0.37705E-10         0.00000E+00
    0.55973E-07         0.20538E-10         0.00000E+00
    0.55951E-07         0.93433E-11         0.00000E+00
    0.55934E-07         0.42745E-11         0.00000E+00
    0.55918E-07         0.42195E-11         0.00000E+00
    0.55900E-07         0.70987E-11         0.00000E+00
    0.55880E-07         0.10165E-10         0.00000E+00
    0.55858E-07         0.10347E-10         0.00000E+00
    0.55835E-07         0.46618E-11         0.00000E+00
    0.77685E-07         0.44629E-10         0.00000E+00
    0.77522E-07         0.10575E-09         0.00000E+00
    0.77370E-07         0.11952E-09         0.00000E+00
    0.77243E-07         0.10296E-09         0.00000E+00
    0.77146E-07         0.70879E-10         0.00000E+00
    0.77080E-07         0.34821E-10         0.00000E+00
    0.77038E-07         0.28153E-11         0.00000E+00
    0.77016E-07        -0.20381E-10         0.00000E+00
    0.77005E-07        -0.32788E-10         0.00000E+00
    0.76999E-07        -0.34668E-10         0.00000E+00
    0.76991E-07        -0.28046E-10         0.00000E+00
    0.76979E-07        -0.16314E-10         0.00000E+00
    0.76958E-07        -0.38627E-11         0.00000E+00
    0.76930E-07         0.43496E-11         0.00000E+00
    0.76897E-07         0.33779E-11         0.00000E+00
    0.10602E-06         0.54615E-10         0.00000E+00
    0.10578E-06         0.12289E-09         0.00000E+00
    0.10557E-06         0.12393E-09         0.00000E+00
    0.10541E-06         0.85123E-10         0.00000E+00
    0.10530E-06         0.29090E-10         0.00000E+00
    0.10523E-06        -0.27450E-10         0.00000E+00
    0.10521E-06        -0.73573E-10         0.00000E+00
    0.10521E-06        -0.10336E-09         0.00000E+00
    0.10522E-06        -0.11488E-09         0.00000E+00
    0.10524E-06        -0.10925E-09         0.00000E+00
    0.10525E-06        -0.89877E-10         0.00000E+00
    0.10525E-06        -0.62058E-10         0.00000E+00
    0.10524E-06        -0.32562E-10         0.00000E+00
    0.10520E-06        -0.91889E-11         0.00000E+00
    0.10516E-06        -0.28141E-13         0.00000E+00
    0.14355E-06         0.61616E-10         0.00000E+00
    0.14321E-06         0.12682E-09         0.00000E+00
    0.14293E-06         0.99603E-10         0.00000E+00
    0.14273E-06         0.22947E-10         0.00000E+00
    0.14262E-06        -0.69586E-10         0.00000E+00
    0.14258E-06        -0.15470E-09         0.00000E+00
    0.14259E-06        -0.21837E-09         0.00000E+00
    0.14264E-06        -0.25398E-09         0.00000E+00
    0.14270E-06        -0.26032E-09         0.00000E+00
    0.14277E-06        -0.24001E-09         0.00000E+00
    0.14282E-06        -0.19847E-09         0.00000E+00
    0.14284E-06        -0.14353E-09         0.00000E+00
    0.14283E-06        -0.85206E-10         0.00000E+00
    0.14279E-06        -0.35400E-10         0.00000E+00
    0.14273E-06        -0.71109E-11         0.00000E+00
    0.19277E-06         0.59941E-10         0.00000E+00
    0.19229E-06         0.10037E-09         0.00000E+00
    0.19193E-06         0.18976E-10         0.00000E+00
    0.19171E-06        -0.11849E-09         0.00000E+00
    0.19162E-06        -0.26390E-09         0.00000E+00
    0.19164E-06        -0.38646E-09         0.00000E+00
    0.19173E-06        -0.46972E-09         0.00000E+00
    0.19186E-06        -0.50766E-09         0.00000E+00
    0.19201E-06        -0.50108E-09         0.00000E+00
    0.19215E-06        -0.45507E-09         0.00000E+00
    0.19226E-06        -0.37767E-09         0.00000E+00
    0.19233E-06        -0.27976E-09         0.00000E+00
    0.19235E-06        -0.17539E-09         0.00000E+00
    0.19230E-06        -0.82103E-10         0.00000E+00
    0.19221E-06        -0.20323E-10         0.00000E+00
    0.25662E-06         0.39439E-10         0.00000E+00
    0.25595E-06         0.14309E-10         0.00000E+00
    0.25551E-06        -0.16207E-09         0.00000E+00
    0.25531E-06        -0.39210E-09         0.00000E+00
    0.25529E-06        -0.60977E-09         0.00000E+00
    0.25542E-06        -0.77728E-09         0.00000E+00
    0.25564E-06        -0.87825E-09         0.00000E+00
    0.25592E-06        -0.91013E-09         0.00000E+00
    0.25620E-06        -0.87794E-09         0.00000E+00
    0.25647E-06        -0.79044E-09         0.00000E+00
    0.25668E-06        -0.65865E-09         0.00000E+00
    0.25683E-06        -0.49647E-09         0.00000E+00
    0.25688E-06        -0.32233E-09         0.00000E+00
    0.25684E-06        -0.16094E-09         0.00000E+00
    0.25670E-06        -0.43470E-10         0.00000E+00
    0.33849E-06        -0.16901E-10         0.00000E+00
    0.33760E-06        -0.17828E-09         0.00000E+00
    0.33711E-06        -0.51051E-09         0.00000E+00
    0.33697E-06        -0.87382E-09         0.00000E+00
    0.33711E-06        -0.11829E-08         0.00000E+00
    0.33744E-06        -0.13970E-08         0.00000E+00
    0.33788E-06        -0.15057E-08         0.00000E+00
    0.33838E-06        -0.15152E-08         0.00000E+00
    0.33887E-06        -0.14381E-08         0.00000E+00
    0.33932E-06        -0.12883E-08         0.00000E+00
    0.33969E-06        -0.10793E-08         0.00000E+00
    0.33995E-06        -0.82662E-09         0.00000E+00
    0.34008E-06        -0.55225E-09         0.00000E+00
    0.34005E-06        -0.28883E-09         0.00000E+00
    0.33986E-06        -0.82370E-10         0.00000E+00
    0.44217E-06        -0.13616E-09         0.00000E+00
    0.44104E-06        -0.54913E-09         0.00000E+00
    0.44056E-06        -0.11227E-08         0.00000E+00
    0.44060E-06        -0.16656E-08         0.00000E+00
    0.44102E-06        -0.20778E-08         0.00000E+00
    0.44168E-06        -0.23263E-08         0.00000E+00
    0.44246E-06        -0.24182E-08         0.00000E+00
    0.44327E-06        -0.23772E-08         0.00000E+00
    0.44406E-06        -0.22284E-08         0.00000E+00
    0.44477E-06        -0.19915E-08         0.00000E+00
    0.44537E-06        -0.16807E-08         0.00000E+00
    0.44581E-06        -0.13093E-08         0.00000E+00
    0.44605E-06        -0.89919E-09         0.00000E+00
    0.44606E-06        -0.48971E-09         0.00000E+00
    0.44581E-06        -0.14575E-09         0.00000E+00
    0.57171E-06        -0.35937E-09         0.00000E+00
    0.57037E-06        -0.12021E-08         0.00000E+00
    0.57004E-06        -0.21282E-08         0.00000E+00
    0.57046E-06        -0.28929E-08         0.00000E+00
    0.57136E-06        -0.33985E-08         0.00000E+00
    0.57252E-06        -0.36431E-08         0.00000E+00
    0.57377E-06        -0.36709E-08         0.00000E+00
    0.57502E-06        -0.35359E-08         0.00000E+00
    0.57620E-06        -0.32814E-08         0.00000E+00
    0.57726E-06        -0.29327E-08         0.00000E+00
    0.57817E-06        -0.24997E-08         0.00000E+00
    0.57888E-06        -0.19860E-08         0.00000E+00
    0.57931E-06        -0.14047E-08         0.00000E+00
    0.57940E-06        -0.79627E-09         0.00000E+00
    0.57909E-06        -0.24636E-09         0.00000E+00
    0.73121E-06        -0.74559E-09         0.00000E+00
    0.72981E-06        -0.22786E-08         0.00000E+00
    0.72991E-06        -0.36861E-08         0.00000E+00
    0.73100E-06        -0.46889E-08         0.00000E+00
    0.73264E-06        -0.52342E-08         0.00000E+00
    0.73451E-06        -0.53939E-08         0.00000E+00
    0.73641E-06        -0.52793E-08         0.00000E+00
    0.73821E-06        -0.49904E-08         0.00000E+00
    0.73989E-06        -0.45929E-08         0.00000E+00
    0.74139E-06        -0.41150E-08         0.00000E+00
    0.74271E-06        -0.35541E-08         0.00000E+00
    0.74377E-06        -0.28913E-08         0.00000E+00
    0.74450E-06        -0.21145E-08         0.00000E+00
    0.74475E-06        -0.12509E-08         0.00000E+00
    0.74440E-06        -0.40220E-09         0.00000E+00
    0.92452E-06        -0.13743E-08         0.00000E+00
    0.92340E-06        -0.39537E-08         0.00000E+00
    0.92439E-06        -0.59622E-08         0.00000E+00
    0.92660E-06        -0.71533E-08         0.00000E+00
    0.92933E-06        -0.76090E-08         0.00000E+00
    0.93214E-06        -0.75448E-08         0.00000E+00
    0.93482E-06        -0.71769E-08         0.00000E+00
    0.93728E-06        -0.66629E-08         0.00000E+00
    0.93952E-06        -0.60904E-08         0.00000E+00
    0.94155E-06        -0.54843E-08         0.00000E+00
    0.94336E-06        -0.48189E-08         0.00000E+00
    0.94491E-06        -0.40349E-08         0.00000E+00
    0.94607E-06        -0.30689E-08         0.00000E+00
    0.94663E-06        -0.19039E-08         0.00000E+00
    0.94633E-06        -0.63723E-09         0.00000E+00
    0.11547E-05        -0.23427E-08         0.00000E+00
    0.11546E-05        -0.64111E-08         0.00000E+00
    0.11572E-05        -0.90650E-08         0.00000E+00
    0.11612E-05        -0.10264E-07         0.00000E+00
    0.11653E-05        -0.10394E-07         0.00000E+00
    0.11693E-05        -0.99100E-08         0.00000E+00
    0.11728E-05        -0.91611E-08         0.00000E+00
    0.11760E-05        -0.83581E-08         0.00000E+00
    0.11788E-05        -0.75985E-08         0.00000E+00
    0.11814E-05        -0.68951E-08         0.00000E+00
    0.11838E-05        -0.61912E-08         0.00000E+00
    0.11859E-05        -0.53703E-08         0.00000E+00
    0.11877E-05        -0.42807E-08         0.00000E+00
    0.11888E-05        -0.28047E-08         0.00000E+00
    0.11888E-05        -0.98033E-09         0.00000E+00
    0.14235E-05        -0.37475E-08         0.00000E+00
    0.14257E-05        -0.97636E-08         0.00000E+00
    0.14312E-05        -0.12899E-07         0.00000E+00
    0.14375E-05        -0.13717E-07         0.00000E+00
    0.14434E-05        -0.13180E-07         0.00000E+00
    0.14486E-05        -0.12071E-07         0.00000E+00
    0.14530E-05        -0.10848E-07         0.00000E+00
    0.14568E-05        -0.97352E-08         0.00000E+00
    0.14602E-05        -0.88142E-08         0.00000E+00
    0.14633E-05        -0.80783E-08         0.00000E+00
    0.14662E-05        -0.74453E-08         0.00000E+00
    0.14691E-05        -0.67408E-08         0.00000E+00
    0.14717E-05        -0.56888E-08         0.00000E+00
    0.14737E-05        -0.39772E-08         0.00000E+00
    0.14743E-05        -0.14594E-08         0.00000E+00
    0.17306E-05        -0.56231E-08         0.00000E+00
    0.17375E-05        -0.13846E-07         0.00000E+00
    0.17473E-05        -0.16863E-07         0.00000E+00
    0.17567E-05        -0.16670E-07         0.00000E+00
    0.17644E-05        -0.15149E-07         0.00000E+00
    0.17706E-05        -0.13337E-07         0.00000E+00
    0.17757E-05        -0.11672E-07         0.00000E+00
    0.17800E-05        -0.10320E-07         0.00000E+00
    0.17838E-05        -0.93166E-08         0.00000E+00
    0.17872E-05        -0.86353E-08         0.00000E+00
    0.17906E-05        -0.81902E-08         0.00000E+00
    0.17942E-05        -0.77990E-08         0.00000E+00
    0.17978E-05        -0.70654E-08         0.00000E+00
    0.18012E-05        -0.53575E-08         0.00000E+00
    0.18033E-05        -0.20849E-08         0.00000E+00
    0.20730E-05        -0.77724E-08         0.00000E+00
    0.20887E-05        -0.17676E-07         0.00000E+00
    0.21045E-05        -0.19269E-07         0.00000E+00
    0.21167E-05        -0.17520E-07         0.00000E+00
    0.21257E-05        -0.15093E-07         0.00000E+00
    0.21326E-05        -0.12826E-07         0.00000E+00
    0.21381E-05        -0.10973E-07         0.00000E+00
    0.21427E-05        -0.95819E-08         0.00000E+00
    0.21467E-05        -0.86345E-08         0.00000E+00
    0.21504E-05        -0.80902E-08         0.00000E+00
    0.21541E-05        -0.78891E-08         0.00000E+00
    0.21580E-05        -0.79105E-08         0.00000E+00
    0.21627E-05        -0.78397E-08         0.00000E+00
    0.21681E-05        -0.66503E-08         0.00000E+00
    0.21728E-05        -0.27885E-08         0.00000E+00
    0.24456E-05        -0.89243E-08         0.00000E+00
    0.24763E-05        -0.17994E-07         0.00000E+00
    0.24980E-05        -0.16879E-07         0.00000E+00
    0.25116E-05        -0.14256E-07         0.00000E+00
    0.25212E-05        -0.11765E-07         0.00000E+00
    0.25283E-05        -0.97320E-08         0.00000E+00
    0.25338E-05        -0.81870E-08         0.00000E+00
    0.25385E-05        -0.70857E-08         0.00000E+00
    0.25426E-05        -0.63782E-08         0.00000E+00
    0.25463E-05        -0.60273E-08         0.00000E+00
    0.25501E-05        -0.60084E-08         0.00000E+00
    0.25542E-05        -0.62898E-08         0.00000E+00
    0.25593E-05        -0.67680E-08         0.00000E+00
    0.25669E-05        -0.68972E-08         0.00000E+00
    0.25764E-05        -0.33773E-08         0.00000E+00
    0.28458E-05        -0.44371E-08         0.00000E+00
    0.28952E-05        -0.82761E-08         0.00000E+00
    0.29180E-05        -0.69561E-08         0.00000E+00
    0.29319E-05        -0.56477E-08         0.00000E+00
    0.29413E-05        -0.45507E-08         0.00000E+00
    0.29484E-05        -0.37110E-08         0.00000E+00
    0.29539E-05        -0.30947E-08         0.00000E+00
    0.29585E-05        -0.26663E-08         0.00000E+00
    0.29626E-05        -0.23989E-08         0.00000E+00
    0.29663E-05        -0.22773E-08         0.00000E+00
    0.29701E-05        -0.22972E-08         0.00000E+00
    0.29741E-05        -0.24646E-08         0.00000E+00
    0.29792E-05        -0.27678E-08         0.00000E+00
    0.29867E-05        -0.32706E-08         0.00000E+00
    0.30038E-05        -0.17989E-08         0.00000E+00
POINT_DATA        496
VECTORS vDarcyNodal double 
    0.17118E-09         0.34424E-12         0.00000E+00
    0.17113E-09         0.66385E-12         0.00000E+00
    0.17098E-09         0.12493E-11         0.00000E+00
    0.17078E-09         0.17211E-11         0.00000E+00
    0.17055E-09         0.20721E-11         0.00000E+00
    0.17029E-09         0.23039E-11         0.00000E+00
    0.17002E-09         0.24242E-11         0.00000E+00
    0.16975E-09         0.24441E-11         0.00000E+00
    0.16950E-09         0.23755E-11         0.00000E+00
    0.16925E-09         0.22295E-11         0.00000E+00
    0.16903E-09         0.20146E-11         0.00000E+00
    0.16883E-09         0.17365E-11         0.00000E+00
    0.16866E-09         0.13971E-11         0.00000E+00
    0.16852E-09         0.99488E-12         0.00000E+00
    0.16841E-09         0.52474E-12         0.00000E+00
    0.16837E-09         0.27183E-12         0.00000E+00
    0.35462E-09         0.37761E-12         0.00000E+00
    0.35450E-09         0.72712E-12         0.00000E+00
    0.35420E-09         0.13653E-11         0.00000E+00
    0.35378E-09         0.18756E-11         0.00000E+00
    0.35329E-09         0.22514E-11         0.00000E+00
    0.35275E-09         0.24961E-11         0.00000E+00
    0.35220E-09         0.26194E-11         0.00000E+00
    0.35164E-09         0.26343E-11         0.00000E+00
    0.35111E-09         0.25548E-11         0.00000E+00
    0.35061E-09         0.23932E-11         0.00000E+00
    0.35015E-09         0.21592E-11         0.00000E+00
    0.34974E-09         0.18589E-11         0.00000E+00
    0.34939E-09         0.14942E-11         0.00000E+00
    0.34910E-09         0.10634E-11         0.00000E+00
    0.34888E-09         0.56072E-12         0.00000E+00
    0.34879E-09         0.29042E-12         0.00000E+00
    0.75979E-09         0.48384E-12         0.00000E+00
    0.75952E-09         0.92817E-12         0.00000E+00
    0.75884E-09         0.17327E-11         0.00000E+00
    0.75793E-09         0.23633E-11         0.00000E+00
    0.75687E-09         0.28160E-11         0.00000E+00
    0.75571E-09         0.30993E-11         0.00000E+00
    0.75451E-09         0.32299E-11         0.00000E+00
    0.75332E-09         0.32275E-11         0.00000E+00
    0.75219E-09         0.31123E-11         0.00000E+00
    0.75112E-09         0.29013E-11         0.00000E+00
    0.75014E-09         0.26073E-11         0.00000E+00
    0.74927E-09         0.22379E-11         0.00000E+00
    0.74852E-09         0.17950E-11         0.00000E+00
    0.74791E-09         0.12757E-11         0.00000E+00
    0.74745E-09         0.67210E-12         0.00000E+00
    0.74726E-09         0.34798E-12         0.00000E+00
    0.12722E-08         0.68213E-12         0.00000E+00
    0.12717E-08         0.13022E-11         0.00000E+00
    0.12706E-08         0.24127E-11         0.00000E+00
    0.12690E-08         0.32602E-11         0.00000E+00
    0.12671E-08         0.38473E-11         0.00000E+00
    0.12652E-08         0.41941E-11         0.00000E+00
    0.12632E-08         0.43310E-11         0.00000E+00
    0.12612E-08         0.42915E-11         0.00000E+00
    0.12593E-08         0.41075E-11         0.00000E+00
    0.12575E-08         0.38048E-11         0.00000E+00
    0.12559E-08         0.34019E-11         0.00000E+00
    0.12545E-08         0.29086E-11         0.00000E+00
    0.12533E-08         0.23269E-11         0.00000E+00
    0.12522E-08         0.16511E-11         0.00000E+00
    0.12515E-08         0.86918E-12         0.00000E+00
    0.12512E-08         0.44987E-12         0.00000E+00
    0.19616E-08         0.10073E-11         0.00000E+00
    0.19608E-08         0.19125E-11         0.00000E+00
    0.19588E-08         0.35145E-11         0.00000E+00
    0.19563E-08         0.47002E-11         0.00000E+00
    0.19534E-08         0.54873E-11         0.00000E+00
    0.19503E-08         0.59188E-11         0.00000E+00
    0.19472E-08         0.60501E-11         0.00000E+00
    0.19442E-08         0.59390E-11         0.00000E+00
    0.19413E-08         0.56374E-11         0.00000E+00
    0.19386E-08         0.51858E-11         0.00000E+00
    0.19362E-08         0.46116E-11         0.00000E+00
    0.19340E-08         0.39277E-11         0.00000E+00
    0.19322E-08         0.31345E-11         0.00000E+00
    0.19307E-08         0.22213E-11         0.00000E+00
    0.19295E-08         0.11689E-11         0.00000E+00
    0.19290E-08         0.60493E-12         0.00000E+00
    0.29184E-08         0.15140E-11         0.00000E+00
    0.29171E-08         0.28583E-11         0.00000E+00
    0.29140E-08         0.52061E-11         0.00000E+00
    0.29101E-08         0.68858E-11         0.00000E+00
    0.29056E-08         0.79464E-11         0.00000E+00
    0.29010E-08         0.84732E-11         0.00000E+00
    0.28963E-08         0.85662E-11         0.00000E+00
    0.28918E-08         0.83240E-11         0.00000E+00
    0.28876E-08         0.78313E-11         0.00000E+00
    0.28838E-08         0.71518E-11         0.00000E+00
    0.28803E-08         0.63251E-11         0.00000E+00
    0.28772E-08         0.53678E-11         0.00000E+00
    0.28745E-08         0.42756E-11         0.00000E+00
    0.28723E-08         0.30283E-11         0.00000E+00
    0.28706E-08         0.15938E-11         0.00000E+00
    0.28700E-08         0.82517E-12         0.00000E+00
    0.42638E-08         0.22832E-11         0.00000E+00
    0.42618E-08         0.42838E-11         0.00000E+00
    0.42569E-08         0.77285E-11         0.00000E+00
    0.42508E-08         0.10099E-10         0.00000E+00
    0.42442E-08         0.11509E-10         0.00000E+00
    0.42373E-08         0.12117E-10         0.00000E+00
    0.42305E-08         0.12102E-10         0.00000E+00
    0.42241E-08         0.11629E-10         0.00000E+00
    0.42181E-08         0.10835E-10         0.00000E+00
    0.42126E-08         0.98183E-11         0.00000E+00
    0.42077E-08         0.86357E-11         0.00000E+00
    0.42034E-08         0.73054E-11         0.00000E+00
    0.41997E-08         0.58128E-11         0.00000E+00
    0.41966E-08         0.41192E-11         0.00000E+00
    0.41942E-08         0.21705E-11         0.00000E+00
    0.41933E-08         0.11249E-11         0.00000E+00
    0.61621E-08         0.34290E-11         0.00000E+00
    0.61588E-08         0.63906E-11         0.00000E+00
    0.61511E-08         0.11410E-10         0.00000E+00
    0.61419E-08         0.14712E-10         0.00000E+00
    0.61320E-08         0.16530E-10         0.00000E+00
    0.61220E-08         0.17158E-10         0.00000E+00
    0.61123E-08         0.16901E-10         0.00000E+00
    0.61033E-08         0.16034E-10         0.00000E+00
    0.60950E-08         0.14776E-10         0.00000E+00
    0.60875E-08         0.13275E-10         0.00000E+00
    0.60808E-08         0.11611E-10         0.00000E+00
    0.60748E-08         0.97964E-11         0.00000E+00
    0.60697E-08         0.77958E-11         0.00000E+00
    0.60655E-08         0.55361E-11         0.00000E+00
    0.60622E-08         0.29248E-11         0.00000E+00
    0.60608E-08         0.15189E-11         0.00000E+00
    0.88358E-08         0.51072E-11         0.00000E+00
    0.88305E-08         0.94485E-11         0.00000E+00
    0.88187E-08         0.16674E-10         0.00000E+00
    0.88048E-08         0.21179E-10         0.00000E+00
    0.87903E-08         0.23414E-10         0.00000E+00
    0.87759E-08         0.23904E-10         0.00000E+00
    0.87623E-08         0.23166E-10         0.00000E+00
    0.87499E-08         0.21649E-10         0.00000E+00
    0.87386E-08         0.19692E-10         0.00000E+00
    0.87285E-08         0.17519E-10         0.00000E+00
    0.87196E-08         0.15232E-10         0.00000E+00
    0.87117E-08         0.12829E-10         0.00000E+00
    0.87048E-08         0.10229E-10         0.00000E+00
    0.86990E-08         0.72966E-11         0.00000E+00
    0.86945E-08         0.38734E-11         0.00000E+00
    0.86925E-08         0.20185E-11         0.00000E+00
    0.12586E-07         0.75218E-11         0.00000E+00
    0.12578E-07         0.13801E-10         0.00000E+00
    0.12559E-07         0.24037E-10         0.00000E+00
    0.12539E-07         0.30007E-10         0.00000E+00
    0.12518E-07         0.32549E-10         0.00000E+00
    0.12497E-07         0.32577E-10         0.00000E+00
    0.12479E-07         0.30950E-10         0.00000E+00
    0.12462E-07         0.28384E-10         0.00000E+00
    0.12447E-07         0.25405E-10         0.00000E+00
    0.12434E-07         0.22333E-10         0.00000E+00
    0.12422E-07         0.19292E-10         0.00000E+00
    0.12412E-07         0.16241E-10         0.00000E+00
    0.12403E-07         0.13012E-10         0.00000E+00
    0.12395E-07         0.93587E-11         0.00000E+00
    0.12389E-07         0.50088E-11         0.00000E+00
    0.12386E-07         0.26253E-11         0.00000E+00
    0.17817E-07         0.10925E-10         0.00000E+00
    0.17804E-07         0.19859E-10         0.00000E+00
    0.17776E-07         0.34066E-10         0.00000E+00
    0.17745E-07         0.41666E-10         0.00000E+00
    0.17715E-07         0.44167E-10         0.00000E+00
    0.17687E-07         0.43123E-10         0.00000E+00
    0.17662E-07         0.39934E-10         0.00000E+00
    0.17640E-07         0.35727E-10         0.00000E+00
    0.17621E-07         0.31292E-10         0.00000E+00
    0.17605E-07         0.27078E-10         0.00000E+00
    0.17590E-07         0.23218E-10         0.00000E+00
    0.17577E-07         0.19580E-10         0.00000E+00
    0.17566E-07         0.15840E-10         0.00000E+00
    0.17556E-07         0.11561E-10         0.00000E+00
    0.17547E-07         0.62735E-11         0.00000E+00
    0.17543E-07         0.33193E-11         0.00000E+00
    0.25065E-07         0.15603E-10         0.00000E+00
    0.25045E-07         0.28057E-10         0.00000E+00
    0.25002E-07         0.47273E-10         0.00000E+00
    0.24958E-07         0.56398E-10         0.00000E+00
    0.24916E-07         0.58074E-10         0.00000E+00
    0.24878E-07         0.54884E-10         0.00000E+00
    0.24845E-07         0.49068E-10         0.00000E+00
    0.24818E-07         0.42361E-10         0.00000E+00
    0.24795E-07         0.35925E-10         0.00000E+00
    0.24775E-07         0.30364E-10         0.00000E+00
    0.24758E-07         0.25782E-10         0.00000E+00
    0.24743E-07         0.21877E-10         0.00000E+00
    0.24728E-07         0.18048E-10         0.00000E+00
    0.24715E-07         0.13529E-10         0.00000E+00
    0.24704E-07         0.75173E-11         0.00000E+00
    0.24699E-07         0.40401E-11         0.00000E+00
    0.35038E-07         0.21835E-10         0.00000E+00
    0.35007E-07         0.38761E-10         0.00000E+00
    0.34944E-07         0.63893E-10         0.00000E+00
    0.34880E-07         0.73860E-10         0.00000E+00
    0.34822E-07         0.73172E-10         0.00000E+00
    0.34773E-07         0.66038E-10         0.00000E+00
    0.34732E-07         0.55966E-10         0.00000E+00
    0.34699E-07         0.45564E-10         0.00000E+00
    0.34673E-07         0.36495E-10         0.00000E+00
    0.34651E-07         0.29531E-10         0.00000E+00
    0.34633E-07         0.24673E-10         0.00000E+00
    0.34615E-07         0.21303E-10         0.00000E+00
    0.34599E-07         0.18358E-10         0.00000E+00
    0.34582E-07         0.14521E-10         0.00000E+00
    0.34567E-07         0.84309E-11         0.00000E+00
    0.34560E-07         0.46572E-11         0.00000E+00
    0.48655E-07         0.29799E-10         0.00000E+00
    0.48608E-07         0.52063E-10         0.00000E+00
    0.48515E-07         0.83463E-10         0.00000E+00
    0.48426E-07         0.92488E-10         0.00000E+00
    0.48348E-07         0.86666E-10         0.00000E+00
    0.48285E-07         0.72708E-10         0.00000E+00
    0.48237E-07         0.55980E-10         0.00000E+00
    0.48201E-07         0.40304E-10         0.00000E+00
    0.48174E-07         0.27972E-10         0.00000E+00
    0.48154E-07         0.19900E-10         0.00000E+00
    0.48137E-07         0.15849E-10         0.00000E+00
    0.48120E-07         0.14660E-10         0.00000E+00
    0.48102E-07         0.14514E-10         0.00000E+00
    0.48082E-07         0.13202E-10         0.00000E+00
    0.48061E-07         0.84431E-11         0.00000E+00
    0.48051E-07         0.49228E-11         0.00000E+00
    0.67097E-07         0.39385E-10         0.00000E+00
    0.67027E-07         0.67411E-10         0.00000E+00
    0.66890E-07         0.10408E-09         0.00000E+00
    0.66768E-07         0.10845E-09         0.00000E+00
    0.66667E-07         0.92810E-10         0.00000E+00
    0.66592E-07         0.67607E-10         0.00000E+00
    0.66539E-07         0.40845E-10         0.00000E+00
    0.66506E-07         0.17943E-10         0.00000E+00
    0.66486E-07         0.19165E-11         0.00000E+00
    0.66473E-07        -0.62740E-11         0.00000E+00
    0.66462E-07        -0.73468E-11         0.00000E+00
    0.66449E-07        -0.33358E-11         0.00000E+00
    0.66432E-07         0.27536E-11         0.00000E+00
    0.66408E-07         0.73114E-11         0.00000E+00
    0.66381E-07         0.65656E-11         0.00000E+00
    0.66367E-07         0.44006E-11         0.00000E+00
    0.91856E-07         0.49868E-10         0.00000E+00
    0.91752E-07         0.82963E-10         0.00000E+00
    0.91557E-07         0.12118E-09         0.00000E+00
    0.91392E-07         0.11401E-09         0.00000E+00
    0.91268E-07         0.81020E-10         0.00000E+00
    0.91185E-07         0.38098E-10         0.00000E+00
    0.91137E-07        -0.31937E-11         0.00000E+00
    0.91116E-07        -0.35486E-10         0.00000E+00
    0.91113E-07        -0.55060E-10         0.00000E+00
    0.91119E-07        -0.61156E-10         0.00000E+00
    0.91124E-07        -0.55345E-10         0.00000E+00
    0.91123E-07        -0.41007E-10         0.00000E+00
    0.91111E-07        -0.22918E-10         0.00000E+00
    0.91085E-07        -0.68180E-11         0.00000E+00
    0.91049E-07         0.11642E-11         0.00000E+00
    0.91028E-07         0.23559E-11         0.00000E+00
    0.12479E-06         0.59351E-10         0.00000E+00
    0.12464E-06         0.94524E-10         0.00000E+00
    0.12436E-06         0.12562E-09         0.00000E+00
    0.12415E-06         0.95032E-10         0.00000E+00
    0.12401E-06         0.33206E-10         0.00000E+00
    0.12393E-06        -0.36422E-10         0.00000E+00
    0.12390E-06        -0.97776E-10         0.00000E+00
    0.12391E-06        -0.14138E-09         0.00000E+00
    0.12395E-06        -0.16312E-09         0.00000E+00
    0.12399E-06        -0.16291E-09         0.00000E+00
    0.12403E-06        -0.14373E-09         0.00000E+00
    0.12405E-06        -0.11089E-09         0.00000E+00
    0.12405E-06        -0.71673E-10         0.00000E+00
    0.12402E-06        -0.34916E-10         0.00000E+00
    0.12397E-06        -0.10375E-10         0.00000E+00
    0.12395E-06        -0.24094E-11         0.00000E+00
    0.16816E-06         0.63866E-10         0.00000E+00
    0.16795E-06         0.93896E-10         0.00000E+00
    0.16757E-06         0.10080E-09         0.00000E+00
    0.16731E-06         0.27544E-10         0.00000E+00
    0.16716E-06        -0.79771E-10         0.00000E+00
    0.16711E-06        -0.18775E-09         0.00000E+00
    0.16713E-06        -0.27515E-09         0.00000E+00
    0.16720E-06        -0.33081E-09         0.00000E+00
    0.16731E-06        -0.35104E-09         0.00000E+00
    0.16741E-06        -0.33728E-09         0.00000E+00
    0.16751E-06        -0.29464E-09         0.00000E+00
    0.16757E-06        -0.23103E-09         0.00000E+00
    0.16760E-06        -0.15701E-09         0.00000E+00
    0.16758E-06        -0.85654E-10         0.00000E+00
    0.16752E-06        -0.32121E-10         0.00000E+00
    0.16747E-06        -0.11806E-10         0.00000E+00
    0.22469E-06         0.56002E-10         0.00000E+00
    0.22439E-06         0.66405E-10         0.00000E+00
    0.22390E-06         0.18588E-10         0.00000E+00
    0.22359E-06        -0.12691E-09         0.00000E+00
    0.22346E-06        -0.30239E-09         0.00000E+00
    0.22348E-06        -0.46232E-09         0.00000E+00
    0.22360E-06        -0.58070E-09         0.00000E+00
    0.22379E-06        -0.64623E-09         0.00000E+00
    0.22400E-06        -0.65739E-09         0.00000E+00
    0.22422E-06        -0.61860E-09         0.00000E+00
    0.22440E-06        -0.53788E-09         0.00000E+00
    0.22454E-06        -0.42623E-09         0.00000E+00
    0.22461E-06        -0.29802E-09         0.00000E+00
    0.22461E-06        -0.17176E-09         0.00000E+00
    0.22453E-06        -0.70273E-10         0.00000E+00
    0.22447E-06        -0.28825E-10         0.00000E+00
    0.29753E-06         0.22891E-10         0.00000E+00
    0.29713E-06        -0.12587E-10         0.00000E+00
    0.29651E-06        -0.16612E-09         0.00000E+00
    0.29619E-06        -0.42683E-09         0.00000E+00
    0.29614E-06        -0.69890E-09         0.00000E+00
    0.29630E-06        -0.92404E-09         0.00000E+00
    0.29659E-06        -0.10741E-08         0.00000E+00
    0.29696E-06        -0.11415E-08         0.00000E+00
    0.29735E-06        -0.11301E-08         0.00000E+00
    0.29773E-06        -0.10493E-08         0.00000E+00
    0.29806E-06        -0.91080E-09         0.00000E+00
    0.29831E-06        -0.72858E-09         0.00000E+00
    0.29846E-06        -0.52057E-09         0.00000E+00
    0.29849E-06        -0.31138E-09         0.00000E+00
    0.29839E-06        -0.13407E-09         0.00000E+00
    0.29830E-06        -0.58087E-10         0.00000E+00
    0.39027E-06        -0.56574E-10         0.00000E+00
    0.38976E-06        -0.18230E-09         0.00000E+00
    0.38902E-06        -0.52199E-09         0.00000E+00
    0.38876E-06        -0.95643E-09         0.00000E+00
    0.38890E-06        -0.13565E-08         0.00000E+00
    0.38930E-06        -0.16544E-08         0.00000E+00
    0.38987E-06        -0.18272E-08         0.00000E+00
    0.39051E-06        -0.18781E-08         0.00000E+00
    0.39116E-06        -0.18221E-08         0.00000E+00
    0.39177E-06        -0.16762E-08         0.00000E+00
    0.39231E-06        -0.14560E-08         0.00000E+00
    0.39273E-06        -0.11767E-08         0.00000E+00
    0.39301E-06        -0.85791E-09         0.00000E+00
    0.39310E-06        -0.52946E-09         0.00000E+00
    0.39298E-06        -0.23701E-09         0.00000E+00
    0.39287E-06        -0.10660E-09         0.00000E+00
    0.50683E-06        -0.21534E-09         0.00000E+00
    0.50621E-06        -0.50213E-09         0.00000E+00
    0.50541E-06        -0.11481E-08         0.00000E+00
    0.50536E-06        -0.18295E-08         0.00000E+00
    0.50584E-06        -0.23842E-08         0.00000E+00
    0.50664E-06        -0.27469E-08         0.00000E+00
    0.50762E-06        -0.29148E-08         0.00000E+00
    0.50866E-06        -0.29150E-08         0.00000E+00
    0.50966E-06        -0.27816E-08         0.00000E+00
    0.51060E-06        -0.25422E-08         0.00000E+00
    0.51142E-06        -0.22150E-08         0.00000E+00
    0.51209E-06        -0.18123E-08         0.00000E+00
    0.51255E-06        -0.13499E-08         0.00000E+00
    0.51276E-06        -0.85901E-09         0.00000E+00
    0.51264E-06        -0.39824E-09         0.00000E+00
    0.51250E-06        -0.18480E-09         0.00000E+00
    0.65127E-06        -0.50233E-09         0.00000E+00
    0.65060E-06        -0.10573E-08         0.00000E+00
    0.64991E-06        -0.21784E-08         0.00000E+00
    0.65029E-06        -0.31867E-08         0.00000E+00
    0.65135E-06        -0.39021E-08         0.00000E+00
    0.65278E-06        -0.42897E-08         0.00000E+00
    0.65434E-06        -0.43948E-08         0.00000E+00
    0.65589E-06        -0.42880E-08         0.00000E+00
    0.65737E-06        -0.40326E-08         0.00000E+00
    0.65872E-06        -0.36694E-08         0.00000E+00
    0.65992E-06        -0.32154E-08         0.00000E+00
    0.66092E-06        -0.26718E-08         0.00000E+00
    0.66166E-06        -0.20397E-08         0.00000E+00
    0.66205E-06        -0.13412E-08         0.00000E+00
    0.66199E-06        -0.64404E-09         0.00000E+00
    0.66182E-06        -0.30775E-09         0.00000E+00
    0.82755E-06        -0.98629E-09         0.00000E+00
    0.82697E-06        -0.19622E-08         0.00000E+00
    0.82672E-06        -0.37785E-08         0.00000E+00
    0.82792E-06        -0.51791E-08         0.00000E+00
    0.82991E-06        -0.60120E-08         0.00000E+00
    0.83221E-06        -0.63302E-08         0.00000E+00
    0.83454E-06        -0.62715E-08         0.00000E+00
    0.83674E-06        -0.59760E-08         0.00000E+00
    0.83877E-06        -0.55459E-08         0.00000E+00
    0.84062E-06        -0.50345E-08         0.00000E+00
    0.84228E-06        -0.44505E-08         0.00000E+00
    0.84372E-06        -0.37710E-08         0.00000E+00
    0.84486E-06        -0.29642E-08         0.00000E+00
    0.84556E-06        -0.20229E-08         0.00000E+00
    0.84563E-06        -0.10085E-08         0.00000E+00
    0.84548E-06        -0.49636E-09         0.00000E+00
    0.10391E-05        -0.17569E-08         0.00000E+00
    0.10389E-05        -0.33564E-08         0.00000E+00
    0.10397E-05        -0.61226E-08         0.00000E+00
    0.10423E-05        -0.79203E-08         0.00000E+00
    0.10457E-05        -0.87356E-08         0.00000E+00
    0.10491E-05        -0.88112E-08         0.00000E+00
    0.10524E-05        -0.84402E-08         0.00000E+00
    0.10553E-05        -0.78556E-08         0.00000E+00
    0.10580E-05        -0.72007E-08         0.00000E+00
    0.10604E-05        -0.65345E-08         0.00000E+00
    0.10625E-05        -0.58480E-08         0.00000E+00
    0.10645E-05        -0.50789E-08         0.00000E+00
    0.10662E-05        -0.41365E-08         0.00000E+00
    0.10674E-05        -0.29478E-08         0.00000E+00
    0.10678E-05        -0.15317E-08         0.00000E+00
    0.10677E-05        -0.77761E-09         0.00000E+00
    0.12884E-05        -0.29175E-08         0.00000E+00
    0.12891E-05        -0.53798E-08         0.00000E+00
    0.12920E-05        -0.93279E-08         0.00000E+00
    0.12969E-05        -0.11384E-07         0.00000E+00
    0.13020E-05        -0.11902E-07         0.00000E+00
    0.13068E-05        -0.11476E-07         0.00000E+00
    0.13111E-05        -0.10618E-07         0.00000E+00
    0.13148E-05        -0.96532E-08         0.00000E+00
    0.13180E-05        -0.87473E-08         0.00000E+00
    0.13209E-05        -0.79516E-08         0.00000E+00
    0.13237E-05        -0.72318E-08         0.00000E+00
    0.13262E-05        -0.64770E-08         0.00000E+00
    0.13286E-05        -0.55098E-08         0.00000E+00
    0.13305E-05        -0.41342E-08         0.00000E+00
    0.13316E-05        -0.22517E-08         0.00000E+00
    0.13318E-05        -0.11823E-08         0.00000E+00
    0.15760E-05        -0.45573E-08         0.00000E+00
    0.15787E-05        -0.81012E-08         0.00000E+00
    0.15854E-05        -0.13296E-07         0.00000E+00
    0.15934E-05        -0.15199E-07         0.00000E+00
    0.16008E-05        -0.14970E-07         0.00000E+00
    0.16069E-05        -0.13757E-07         0.00000E+00
    0.16121E-05        -0.12287E-07         0.00000E+00
    0.16164E-05        -0.10919E-07         0.00000E+00
    0.16202E-05        -0.97928E-08         0.00000E+00
    0.16236E-05        -0.89326E-08         0.00000E+00
    0.16268E-05        -0.82840E-08         0.00000E+00
    0.16299E-05        -0.77017E-08         0.00000E+00
    0.16331E-05        -0.69130E-08         0.00000E+00
    0.16361E-05        -0.55265E-08         0.00000E+00
    0.16383E-05        -0.31821E-08         0.00000E+00
    0.16391E-05        -0.17352E-08         0.00000E+00
    0.19006E-05        -0.66558E-08         0.00000E+00
    0.19070E-05        -0.11323E-07         0.00000E+00
    0.19199E-05        -0.17364E-07         0.00000E+00
    0.19317E-05        -0.18300E-07         0.00000E+00
    0.19411E-05        -0.16828E-07         0.00000E+00
    0.19485E-05        -0.14715E-07         0.00000E+00
    0.19543E-05        -0.12712E-07         0.00000E+00
    0.19591E-05        -0.11065E-07         0.00000E+00
    0.19633E-05        -0.98363E-08         0.00000E+00
    0.19670E-05        -0.90123E-08         0.00000E+00
    0.19705E-05        -0.85342E-08         0.00000E+00
    0.19741E-05        -0.82796E-08         0.00000E+00
    0.19780E-05        -0.79429E-08         0.00000E+00
    0.19823E-05        -0.68888E-08         0.00000E+00
    0.19865E-05        -0.42560E-08         0.00000E+00
    0.19884E-05        -0.24326E-08         0.00000E+00
    0.22586E-05        -0.88450E-08         0.00000E+00
    0.22711E-05        -0.14080E-07         0.00000E+00
    0.22926E-05        -0.19548E-07         0.00000E+00
    0.23080E-05        -0.18477E-07         0.00000E+00
    0.23188E-05        -0.15783E-07         0.00000E+00
    0.23269E-05        -0.13204E-07         0.00000E+00
    0.23331E-05        -0.11088E-07         0.00000E+00
    0.23382E-05        -0.94903E-08         0.00000E+00
    0.23425E-05        -0.83796E-08         0.00000E+00
    0.23464E-05        -0.77112E-08         0.00000E+00
    0.23502E-05        -0.74427E-08         0.00000E+00
    0.23540E-05        -0.75157E-08         0.00000E+00
    0.23584E-05        -0.78003E-08         0.00000E+00
    0.23639E-05        -0.75923E-08         0.00000E+00
    0.23710E-05        -0.51769E-08         0.00000E+00
    0.23749E-05        -0.31416E-08         0.00000E+00
    0.26478E-05        -0.89978E-08         0.00000E+00
    0.26670E-05        -0.12853E-07         0.00000E+00
    0.26969E-05        -0.15366E-07         0.00000E+00
    0.27146E-05        -0.12701E-07         0.00000E+00
    0.27262E-05        -0.10271E-07         0.00000E+00
    0.27345E-05        -0.83178E-08         0.00000E+00
    0.27409E-05        -0.68504E-08         0.00000E+00
    0.27460E-05        -0.57979E-08         0.00000E+00
    0.27504E-05        -0.50970E-08         0.00000E+00
    0.27544E-05        -0.47051E-08         0.00000E+00
    0.27582E-05        -0.46023E-08         0.00000E+00
    0.27621E-05        -0.47900E-08         0.00000E+00
    0.27667E-05        -0.52622E-08         0.00000E+00
    0.27729E-05        -0.60705E-08         0.00000E+00
    0.27829E-05        -0.50920E-08         0.00000E+00
    0.27893E-05        -0.36094E-08         0.00000E+00
    0.28503E-05         0.00000E+00         0.00000E+00
    0.28724E-05         0.00000E+00         0.00000E+00
    0.29059E-05        -0.72272E-20         0.00000E+00
    0.29243E-05        -0.11387E-20         0.00000E+00
    0.29361E-05         0.85086E-20         0.00000E+00
    0.29444E-05         0.00000E+00         0.00000E+00
    0.29508E-05         0.00000E+00         0.00000E+00
    0.29560E-05        -0.74374E-20         0.00000E+00
    0.29604E-05        -0.86769E-20         0.00000E+00
    0.29644E-05         0.74815E-20         0.00000E+00
    0.29682E-05         0.87285E-20         0.00000E+00
    0.29722E-05        -0.75247E-20         0.00000E+00
    0.29768E-05        -0.12324E-20         0.00000E+00
    0.29832E-05         0.75623E-20         0.00000E+00
    0.29945E-05         0.25284E-20         0.00000E+00
    0.30020E-05         0.00000E+00         0.00000E+00
CELL_DATA        450
TENSORS stressef double 
    0.43380E+07         0.84956E+04         0.00000E+00
    0.84956E+04         0.45685E+04         0.00000E+00
    0.00000E+00         0.00000E+00         0.00000E+00
 
    0.41564E+07         0.23058E+05         0.00000E+00
    0.23058E+05         0.36093E+05         0.00000E+00
    0.00000E+00         0.00000E+00         0.00000E+00
 
    0.39235E+07         0.34657E+05         0.00000E+00
    0.34657E+05         0.93744E+05         0.00000E+00
    0.00000E+00         0.00000E+00         0.00000E+00
 
    0.36509E+07         0.43675E+05         0.00000E+00
    0.43675E+05         0.17197E+06         0.00000E+00
    0.00000E+00         0.00000E+00         0.00000E+00
 
    0.33489E+07         0.50517E+05         0.00000E+00
    0.50517E+05         0.26602E+06         0.00000E+00
    0.00000E+00         0.00000E+00         0.00000E+00
 
    0.30265E+07         0.55583E+05         0.00000E+00
    0.55583E+05         0.37195E+06         0.00000E+00
    0.00000E+00         0.00000E+00         0.00000E+00
 
    0.26916E+07         0.59242E+05         0.00000E+00
    0.59242E+05         0.48659E+06         0.00000E+00
    0.00000E+00         0.00000E+00         0.00000E+00
 
    0.23506E+07         0.61818E+05         0.00000E+00
    0.61818E+05         0.60745E+06         0.00000E+00
    0.00000E+00         0.00000E+00         0.00000E+00
 
    0.20089E+07         0.63579E+05         0.00000E+00
    0.63579E+05         0.73265E+06         0.00000E+00
    0.00000E+00         0.00000E+00         0.00000E+00
 
    0.16709E+07         0.64737E+05         0.00000E+00
    0.64737E+05         0.86079E+06         0.00000E+00
    0.00000E+00         0.00000E+00         0.00000E+00
 
    0.13402E+07         0.65457E+05         0.00000E+00
    0.65457E+05         0.99082E+06         0.00000E+00
    0.00000E+00         0.00000E+00         0.00000E+00
 
    0.10197E+07         0.65864E+05         0.00000E+00
    0.65864E+05         0.11220E+07         0.00000E+00
    0.00000E+00         0.00000E+00         0.00000E+00
 
    0.71130E+06         0.66065E+05         0.00000E+00
    0.66065E+05         0.12538E+07         0.00000E+00
    0.00000E+00         0.00000E+00         0.00000E+00
 
    0.41663E+06         0.66165E+05         0.00000E+00
    0.66165E+05         0.13860E+07         0.00000E+00
    0.00000E+00         0.00000E+00         0.00000E+00
 
    0.13643E+06         0.66291E+05         0.00000E+00
    0.66291E+05         0.15184E+07         0.00000E+00
    0.00000E+00         0.00000E+00         0.00000E+00
 
    0.43697E+07         0.25435E+05         0.00000E+00
    0.25435E+05         0.38970E+04         0.00000E+00
    0.00000E+00         0.00000E+00         0.00000E+00
 
    0.41818E+07         0.68983E+05         0.00000E+00
    0.68983E+05         0.35177E+05         0.00000E+00
    0.00000E+00         0.00000E+00         0.00000E+00
 
    0.39434E+07         0.10362E+06         0.00000E+00
    0.10362E+06         0.92280E+05         0.00000E+00
    0.00000E+00         0.00000E+00         0.00000E+00
 
    0.36660E+07         0.13051E+06         0.00000E+00
    0.13051E+06         0.16964E+06         0.00000E+00
    0.00000E+00         0.00000E+00         0.00000E+00
 
    0.33600E+07         0.15090E+06         0.00000E+00
    0.15090E+06         0.26252E+06         0.00000E+00
    0.00000E+00         0.00000E+00         0.00000E+00
 
    0.30345E+07         0.16600E+06         0.00000E+00
    0.16600E+06         0.36704E+06         0.00000E+00
    0.00000E+00         0.00000E+00         0.00000E+00
 
    0.26971E+07         0.17692E+06         0.00000E+00
    0.17692E+06         0.48011E+06         0.00000E+00
    0.00000E+00         0.00000E+00         0.00000E+00
 
    0.23543E+07         0.18463E+06         0.00000E+00
    0.18463E+06         0.59933E+06         0.00000E+00
    0.00000E+00         0.00000E+00         0.00000E+00
 
    0.20112E+07         0.18995E+06         0.00000E+00
    0.18995E+06         0.72291E+06         0.00000E+00
    0.00000E+00         0.00000E+00         0.00000E+00
 
    0.16722E+07         0.19350E+06         0.00000E+00
    0.19350E+06         0.84954E+06         0.00000E+00
    0.00000E+00         0.00000E+00         0.00000E+00
 
    0.13408E+07         0.19576E+06         0.00000E+00
    0.19576E+06         0.97824E+06         0.00000E+00
    0.00000E+00         0.00000E+00         0.00000E+00
 
    0.10197E+07         0.19710E+06         0.00000E+00
    0.19710E+06         0.11083E+07         0.00000E+00
    0.00000E+00         0.00000E+00         0.00000E+00
 
    0.71102E+06         0.19783E+06         0.00000E+00
    0.19783E+06         0.12393E+07         0.00000E+00
    0.00000E+00         0.00000E+00         0.00000E+00
 
    0.41626E+06         0.19824E+06         0.00000E+00
    0.19824E+06         0.13708E+07         0.00000E+00
    0.00000E+00         0.00000E+00         0.00000E+00
 
    0.13625E+06         0.19871E+06         0.00000E+00
    0.19871E+06         0.15028E+07         0.00000E+00
    0.00000E+00         0.00000E+00         0.00000E+00
 
    0.44327E+07         0.42212E+05         0.00000E+00
    0.42212E+05         0.24595E+04         0.00000E+00
    0.00000E+00         0.00000E+00         0.00000E+00
 
    0.42322E+07         0.11432E+06         0.00000E+00
    0.11432E+06         0.33224E+05         0.00000E+00
    0.00000E+00         0.00000E+00         0.00000E+00
 
    0.39826E+07         0.17150E+06         0.00000E+00
    0.17150E+06         0.89188E+05         0.00000E+00
    0.00000E+00         0.00000E+00         0.00000E+00
 
    0.36957E+07         0.21579E+06         0.00000E+00
    0.21579E+06         0.16475E+06         0.00000E+00
    0.00000E+00         0.00000E+00         0.00000E+00
 
    0.33820E+07         0.24930E+06         0.00000E+00
    0.24930E+06         0.25522E+06         0.00000E+00
    0.00000E+00         0.00000E+00         0.00000E+00
 
    0.30503E+07         0.27411E+06         0.00000E+00
    0.27411E+06         0.35684E+06         0.00000E+00
    0.00000E+00         0.00000E+00         0.00000E+00
 
    0.27081E+07         0.29212E+06         0.00000E+00
    0.29212E+06         0.46668E+06         0.00000E+00
    0.00000E+00         0.00000E+00         0.00000E+00
 
    0.23615E+07         0.30495E+06         0.00000E+00
    0.30495E+06         0.58255E+06         0.00000E+00
    0.00000E+00         0.00000E+00         0.00000E+00
 
    0.20158E+07         0.31393E+06         0.00000E+00
    0.31393E+06         0.70283E+06         0.00000E+00
    0.00000E+00         0.00000E+00         0.00000E+00
 
    0.16749E+07         0.32010E+06         0.00000E+00
    0.32010E+06         0.82639E+06         0.00000E+00
    0.00000E+00         0.00000E+00         0.00000E+00
 
    0.13420E+07         0.32422E+06         0.00000E+00
    0.32422E+06         0.95241E+06         0.00000E+00
    0.00000E+00         0.00000E+00         0.00000E+00
 
    0.10199E+07         0.32688E+06         0.00000E+00
    0.32688E+06         0.10803E+07         0.00000E+00
    0.00000E+00         0.00000E+00         0.00000E+00
 
    0.71063E+06         0.32851E+06         0.00000E+00
    0.32851E+06         0.12096E+07         0.00000E+00
    0.00000E+00         0.00000E+00         0.00000E+00
 
    0.41564E+06         0.32958E+06         0.00000E+00
    0.32958E+06         0.13399E+07         0.00000E+00
    0.00000E+00         0.00000E+00         0.00000E+00
 
    0.13594E+06         0.33063E+06         0.00000E+00
    0.33063E+06         0.14711E+07         0.00000E+00
    0.00000E+00         0.00000E+00         0.00000E+00
 
    0.45263E+07         0.58697E+05         0.00000E+00
    0.58697E+05         0.56242E+02         0.00000E+00
    0.00000E+00         0.00000E+00         0.00000E+00
 
    0.43067E+07         0.15861E+06         0.00000E+00
    0.15861E+06         0.29987E+05         0.00000E+00
    0.00000E+00         0.00000E+00         0.00000E+00
 
    0.40404E+07         0.23749E+06         0.00000E+00
    0.23749E+06         0.84126E+05         0.00000E+00
    0.00000E+00         0.00000E+00         0.00000E+00
 
    0.37393E+07         0.29833E+06         0.00000E+00
    0.29833E+06         0.15683E+06         0.00000E+00
    0.00000E+00         0.00000E+00         0.00000E+00
 
    0.34140E+07         0.34426E+06         0.00000E+00
    0.34426E+06         0.24350E+06         0.00000E+00
    0.00000E+00         0.00000E+00         0.00000E+00
 
    0.30732E+07         0.37827E+06         0.00000E+00
    0.37827E+06         0.34058E+06         0.00000E+00
    0.00000E+00         0.00000E+00         0.00000E+00
 
    0.27240E+07         0.40308E+06         0.00000E+00
    0.40308E+06         0.44540E+06         0.00000E+00
    0.00000E+00         0.00000E+00         0.00000E+00
 
    0.23723E+07         0.42097E+06         0.00000E+00
    0.42097E+06         0.55605E+06         0.00000E+00
    0.00000E+00         0.00000E+00         0.00000E+00
 
    0.20228E+07         0.43382E+06         0.00000E+00
    0.43382E+06         0.67123E+06         0.00000E+00
    0.00000E+00         0.00000E+00         0.00000E+00
 
    0.16791E+07         0.44301E+06         0.00000E+00
    0.44301E+06         0.79006E+06         0.00000E+00
    0.00000E+00         0.00000E+00         0.00000E+00
 
    0.13443E+07         0.44957E+06         0.00000E+00
    0.44957E+06         0.91196E+06         0.00000E+00
    0.00000E+00         0.00000E+00         0.00000E+00
 
    0.10207E+07         0.45419E+06         0.00000E+00
    0.45419E+06         0.10365E+07         0.00000E+00
    0.00000E+00         0.00000E+00         0.00000E+00
 
    0.71044E+06         0.45740E+06         0.00000E+00
    0.45740E+06         0.11632E+07         0.00000E+00
    0.00000E+00         0.00000E+00         0.00000E+00
 
    0.41500E+06         0.45973E+06         0.00000E+00
    0.45973E+06         0.12918E+07         0.00000E+00
    0.00000E+00         0.00000E+00         0.00000E+00
 
    0.13558E+06         0.46183E+06         0.00000E+00
    0.46183E+06         0.14219E+07         0.00000E+00
    0.00000E+00         0.00000E+00         0.00000E+00
 
    0.46495E+07         0.74727E+05         0.00000E+00
    0.74727E+05        -0.36404E+04         0.00000E+00
    0.00000E+00         0.00000E+00         0.00000E+00
 
    0.44041E+07         0.20132E+06         0.00000E+00
    0.20132E+06         0.25062E+05         0.00000E+00
    0.00000E+00         0.00000E+00         0.00000E+00
 
    0.41153E+07         0.30063E+06         0.00000E+00
    0.30063E+06         0.76552E+05         0.00000E+00
    0.00000E+00         0.00000E+00         0.00000E+00
 
    0.37955E+07         0.37682E+06         0.00000E+00
    0.37682E+06         0.14515E+06         0.00000E+00
    0.00000E+00         0.00000E+00         0.00000E+00
 
    0.34552E+07         0.43414E+06         0.00000E+00
    0.43414E+06         0.22643E+06         0.00000E+00
    0.00000E+00         0.00000E+00         0.00000E+00
 
    0.31026E+07         0.47662E+06         0.00000E+00
    0.47662E+06         0.31709E+06         0.00000E+00
    0.00000E+00         0.00000E+00         0.00000E+00
 
    0.27445E+07         0.50783E+06         0.00000E+00
    0.50783E+06         0.41484E+06         0.00000E+00
    0.00000E+00         0.00000E+00         0.00000E+00
 
    0.23864E+07         0.53076E+06         0.00000E+00
    0.53076E+06         0.51820E+06         0.00000E+00
    0.00000E+00         0.00000E+00         0.00000E+00
 
    0.20322E+07         0.54779E+06         0.00000E+00
    0.54779E+06         0.62628E+06         0.00000E+00
    0.00000E+00         0.00000E+00         0.00000E+00
 
    0.16852E+07         0.56063E+06         0.00000E+00
    0.56063E+06         0.73858E+06         0.00000E+00
    0.00000E+00         0.00000E+00         0.00000E+00
 
    0.13480E+07         0.57046E+06         0.00000E+00
    0.57046E+06         0.85481E+06         0.00000E+00
    0.00000E+00         0.00000E+00         0.00000E+00
 
    0.10226E+07         0.57803E+06         0.00000E+00
    0.57803E+06         0.97475E+06         0.00000E+00
    0.00000E+00         0.00000E+00         0.00000E+00
 
    0.71096E+06         0.58383E+06         0.00000E+00
    0.58383E+06         0.10981E+07         0.00000E+00
    0.00000E+00         0.00000E+00         0.00000E+00
 
    0.41472E+06         0.58832E+06         0.00000E+00
    0.58832E+06         0.12244E+07         0.00000E+00
    0.00000E+00         0.00000E+00         0.00000E+00
 
    0.13532E+06         0.59215E+06         0.00000E+00
    0.59215E+06         0.13532E+07         0.00000E+00
    0.00000E+00         0.00000E+00         0.00000E+00
 
    0.48005E+07         0.90093E+05         0.00000E+00
    0.90093E+05        -0.91227E+04         0.00000E+00
    0.00000E+00         0.00000E+00         0.00000E+00
 
    0.45223E+07         0.24176E+06         0.00000E+00
    0.24176E+06         0.17854E+05         0.00000E+00
    0.00000E+00         0.00000E+00         0.00000E+00
 
    0.42055E+07         0.35976E+06         0.00000E+00
    0.35976E+06         0.65683E+05         0.00000E+00
    0.00000E+00         0.00000E+00         0.00000E+00
 
    0.38626E+07         0.44967E+06         0.00000E+00
    0.44967E+06         0.12869E+06         0.00000E+00
    0.00000E+00         0.00000E+00         0.00000E+00
 
    0.35039E+07         0.51703E+06         0.00000E+00
    0.51703E+06         0.20266E+06         0.00000E+00
    0.00000E+00         0.00000E+00         0.00000E+00
 
    0.31373E+07         0.56701E+06         0.00000E+00
    0.56701E+06         0.28472E+06         0.00000E+00
    0.00000E+00         0.00000E+00         0.00000E+00
 
    0.27690E+07         0.60414E+06         0.00000E+00
    0.60414E+06         0.37307E+06         0.00000E+00
    0.00000E+00         0.00000E+00         0.00000E+00
 
    0.24035E+07         0.63212E+06         0.00000E+00
    0.63212E+06         0.46678E+06         0.00000E+00
    0.00000E+00         0.00000E+00         0.00000E+00
 
    0.20442E+07         0.65381E+06         0.00000E+00
    0.65381E+06         0.56552E+06         0.00000E+00
    0.00000E+00         0.00000E+00         0.00000E+00
 
    0.16937E+07         0.67118E+06         0.00000E+00
    0.67118E+06         0.66928E+06         0.00000E+00
    0.00000E+00         0.00000E+00         0.00000E+00
 
    0.13538E+07         0.68548E+06         0.00000E+00
    0.68548E+06         0.77820E+06         0.00000E+00
    0.00000E+00         0.00000E+00         0.00000E+00
 
    0.10263E+07         0.69737E+06         0.00000E+00
    0.69737E+06         0.89231E+06         0.00000E+00
    0.00000E+00         0.00000E+00         0.00000E+00
 
    0.71290E+06         0.70715E+06         0.00000E+00
    0.70715E+06         0.10114E+07         0.00000E+00
    0.00000E+00         0.00000E+00         0.00000E+00
 
    0.41531E+06         0.71508E+06         0.00000E+00
    0.71508E+06         0.11351E+07         0.00000E+00
    0.00000E+00         0.00000E+00         0.00000E+00
 
    0.13535E+06         0.72163E+06         0.00000E+00
    0.72163E+06         0.12626E+07         0.00000E+00
    0.00000E+00         0.00000E+00         0.00000E+00
 
    0.49770E+07         0.10452E+06         0.00000E+00
    0.10452E+06        -0.17101E+05         0.00000E+00
    0.00000E+00         0.00000E+00         0.00000E+00
 
    0.46588E+07         0.27909E+06         0.00000E+00
    0.27909E+06         0.75225E+04         0.00000E+00
    0.00000E+00         0.00000E+00         0.00000E+00
 
    0.43083E+07         0.41350E+06         0.00000E+00
    0.41350E+06         0.50440E+05         0.00000E+00
    0.00000E+00         0.00000E+00         0.00000E+00
 
    0.39381E+07         0.51500E+06         0.00000E+00
    0.51500E+06         0.10604E+06         0.00000E+00
    0.00000E+00         0.00000E+00         0.00000E+00
 
    0.35581E+07         0.59066E+06         0.00000E+00
    0.59066E+06         0.17045E+06         0.00000E+00
    0.00000E+00         0.00000E+00         0.00000E+00
 
    0.31758E+07         0.64696E+06         0.00000E+00
    0.64696E+06         0.24134E+06         0.00000E+00
    0.00000E+00         0.00000E+00         0.00000E+00
 
    0.27963E+07         0.68945E+06         0.00000E+00
    0.68945E+06         0.31757E+06         0.00000E+00
    0.00000E+00         0.00000E+00         0.00000E+00
 
    0.24233E+07         0.72257E+06         0.00000E+00
    0.72257E+06         0.39894E+06         0.00000E+00
    0.00000E+00         0.00000E+00         0.00000E+00
 
    0.20590E+07         0.74960E+06         0.00000E+00
    0.74960E+06         0.48581E+06         0.00000E+00
    0.00000E+00         0.00000E+00         0.00000E+00
 
    0.17050E+07         0.77272E+06         0.00000E+00
    0.77272E+06         0.57882E+06         0.00000E+00
    0.00000E+00         0.00000E+00         0.00000E+00
 
    0.13626E+07         0.79309E+06         0.00000E+00
    0.79309E+06         0.67860E+06         0.00000E+00
    0.00000E+00         0.00000E+00         0.00000E+00
 
    0.10328E+07         0.81114E+06         0.00000E+00
    0.81114E+06         0.78557E+06         0.00000E+00
    0.00000E+00         0.00000E+00         0.00000E+00
 
    0.71718E+06         0.82681E+06         0.00000E+00
    0.82681E+06         0.89969E+06         0.00000E+00
    0.00000E+00         0.00000E+00         0.00000E+00
 
    0.41747E+06         0.83991E+06         0.00000E+00
    0.83991E+06         0.10205E+07         0.00000E+00
    0.00000E+00         0.00000E+00         0.00000E+00
 
    0.13593E+06         0.85053E+06         0.00000E+00
    0.85053E+06         0.11468E+07         0.00000E+00
    0.00000E+00         0.00000E+00         0.00000E+00
 
    0.51756E+07         0.11767E+06         0.00000E+00
    0.11767E+06        -0.28578E+05         0.00000E+00
    0.00000E+00         0.00000E+00         0.00000E+00
 
    0.48100E+07         0.31225E+06         0.00000E+00
    0.31225E+06        -0.70957E+04         0.00000E+00
    0.00000E+00         0.00000E+00         0.00000E+00
 
    0.44201E+07         0.46011E+06         0.00000E+00
    0.46011E+06         0.29371E+05         0.00000E+00
    0.00000E+00         0.00000E+00         0.00000E+00
 
    0.40188E+07         0.57053E+06         0.00000E+00
    0.57053E+06         0.75373E+05         0.00000E+00
    0.00000E+00         0.00000E+00         0.00000E+00
 
    0.36154E+07         0.65238E+06         0.00000E+00
    0.65238E+06         0.12754E+06         0.00000E+00
    0.00000E+00         0.00000E+00         0.00000E+00
 
    0.32163E+07         0.71359E+06         0.00000E+00
    0.71359E+06         0.18425E+06         0.00000E+00
    0.00000E+00         0.00000E+00         0.00000E+00
 
    0.28255E+07         0.76082E+06         0.00000E+00
    0.76082E+06         0.24523E+06         0.00000E+00
    0.00000E+00         0.00000E+00         0.00000E+00
 
    0.24453E+07         0.79927E+06         0.00000E+00
    0.79927E+06         0.31117E+06         0.00000E+00
    0.00000E+00         0.00000E+00         0.00000E+00
 
    0.20767E+07         0.83262E+06         0.00000E+00
    0.83262E+06         0.38331E+06         0.00000E+00
    0.00000E+00         0.00000E+00         0.00000E+00
 
    0.17200E+07         0.86309E+06         0.00000E+00
    0.86309E+06         0.46308E+06         0.00000E+00
    0.00000E+00         0.00000E+00         0.00000E+00
 
    0.13754E+07         0.89165E+06         0.00000E+00
    0.89165E+06         0.55175E+06         0.00000E+00
    0.00000E+00         0.00000E+00         0.00000E+00
 
    0.10434E+07         0.91828E+06         0.00000E+00
    0.91828E+06         0.65017E+06         0.00000E+00
    0.00000E+00         0.00000E+00         0.00000E+00
 
    0.72500E+06         0.94233E+06         0.00000E+00
    0.94233E+06         0.75855E+06         0.00000E+00
    0.00000E+00         0.00000E+00         0.00000E+00
 
    0.42209E+06         0.96290E+06         0.00000E+00
    0.96290E+06         0.87630E+06         0.00000E+00
    0.00000E+00         0.00000E+00         0.00000E+00
 
    0.13739E+06         0.97941E+06         0.00000E+00
    0.97941E+06         0.10020E+07         0.00000E+00
    0.00000E+00         0.00000E+00         0.00000E+00
 
    0.53919E+07         0.12908E+06         0.00000E+00
    0.12908E+06        -0.44951E+05         0.00000E+00
    0.00000E+00         0.00000E+00         0.00000E+00
 
    0.49711E+07         0.33992E+06         0.00000E+00
    0.33992E+06        -0.27589E+05         0.00000E+00
    0.00000E+00         0.00000E+00         0.00000E+00
 
    0.45365E+07         0.49750E+06         0.00000E+00
    0.49750E+06         0.54790E+03         0.00000E+00
    0.00000E+00         0.00000E+00         0.00000E+00
 
    0.41008E+07         0.61356E+06         0.00000E+00
    0.61356E+06         0.34327E+05         0.00000E+00
    0.00000E+00         0.00000E+00         0.00000E+00
 
    0.36724E+07         0.69904E+06         0.00000E+00
    0.69904E+06         0.71072E+05         0.00000E+00
    0.00000E+00         0.00000E+00         0.00000E+00
 
    0.32563E+07         0.76352E+06         0.00000E+00
    0.76352E+06         0.11010E+06         0.00000E+00
    0.00000E+00         0.00000E+00         0.00000E+00
 
    0.28550E+07         0.81487E+06         0.00000E+00
    0.81487E+06         0.15222E+06         0.00000E+00
    0.00000E+00         0.00000E+00         0.00000E+00
 
    0.24689E+07         0.85903E+06         0.00000E+00
    0.85903E+06         0.19922E+06         0.00000E+00
    0.00000E+00         0.00000E+00         0.00000E+00
 
    0.20974E+07         0.89999E+06         0.00000E+00
    0.89999E+06         0.25343E+06         0.00000E+00
    0.00000E+00         0.00000E+00         0.00000E+00
 
    0.17393E+07         0.93992E+06         0.00000E+00
    0.93992E+06         0.31721E+06         0.00000E+00
    0.00000E+00         0.00000E+00         0.00000E+00
 
    0.13935E+07         0.97940E+06         0.00000E+00
    0.97940E+06         0.39262E+06         0.00000E+00
    0.00000E+00         0.00000E+00         0.00000E+00
 
    0.10595E+07         0.10177E+07         0.00000E+00
    0.10177E+07         0.48106E+06         0.00000E+00
    0.00000E+00         0.00000E+00         0.00000E+00
 
    0.73780E+06         0.10533E+07         0.00000E+00
    0.10533E+07         0.58302E+06         0.00000E+00
    0.00000E+00         0.00000E+00         0.00000E+00
 
    0.43024E+06         0.10844E+07         0.00000E+00
    0.10844E+07         0.69785E+06         0.00000E+00
    0.00000E+00         0.00000E+00         0.00000E+00
 
    0.14016E+06         0.11092E+07         0.00000E+00
    0.11092E+07         0.82373E+06         0.00000E+00
    0.00000E+00         0.00000E+00         0.00000E+00
 
    0.56200E+07         0.13820E+06         0.00000E+00
    0.13820E+06        -0.68149E+05         0.00000E+00
    0.00000E+00         0.00000E+00         0.00000E+00
 
    0.51360E+07         0.36048E+06         0.00000E+00
    0.36048E+06        -0.56109E+05         0.00000E+00
    0.00000E+00         0.00000E+00         0.00000E+00
 
    0.46517E+07         0.52315E+06         0.00000E+00
    0.52315E+06        -0.38568E+05         0.00000E+00
    0.00000E+00         0.00000E+00         0.00000E+00
 
    0.41790E+07         0.64087E+06         0.00000E+00
    0.64087E+06        -0.20127E+05         0.00000E+00
    0.00000E+00         0.00000E+00         0.00000E+00
 
    0.37250E+07         0.72697E+06         0.00000E+00
    0.72697E+06        -0.25140E+04         0.00000E+00
    0.00000E+00         0.00000E+00         0.00000E+00
 
    0.32928E+07         0.79289E+06         0.00000E+00
    0.79289E+06         0.14798E+05         0.00000E+00
    0.00000E+00         0.00000E+00         0.00000E+00
 
    0.28829E+07         0.84776E+06         0.00000E+00
    0.84776E+06         0.33952E+05         0.00000E+00
    0.00000E+00         0.00000E+00         0.00000E+00
 
    0.24933E+07         0.89823E+06         0.00000E+00
    0.89823E+06         0.58093E+05         0.00000E+00
    0.00000E+00         0.00000E+00         0.00000E+00
 
    0.21215E+07         0.94854E+06         0.00000E+00
    0.94854E+06         0.90804E+05         0.00000E+00
    0.00000E+00         0.00000E+00         0.00000E+00
 
    0.17641E+07         0.10006E+07         0.00000E+00
    0.10006E+07         0.13559E+06         0.00000E+00
    0.00000E+00         0.00000E+00         0.00000E+00
 
    0.14185E+07         0.10545E+07         0.00000E+00
    0.10545E+07         0.19544E+06         0.00000E+00
    0.00000E+00         0.00000E+00         0.00000E+00
 
    0.10830E+07         0.11084E+07         0.00000E+00
    0.11084E+07         0.27243E+06         0.00000E+00
    0.00000E+00         0.00000E+00         0.00000E+00
 
    0.75730E+06         0.11597E+07         0.00000E+00
    0.11597E+07         0.36739E+06         0.00000E+00
    0.00000E+00         0.00000E+00         0.00000E+00
 
    0.44326E+06         0.12050E+07         0.00000E+00
    0.12050E+07         0.47968E+06         0.00000E+00
    0.00000E+00         0.00000E+00         0.00000E+00
 
    0.14474E+06         0.12414E+07         0.00000E+00
    0.12414E+07         0.60701E+06         0.00000E+00
    0.00000E+00         0.00000E+00         0.00000E+00
 
    0.58518E+07         0.14434E+06         0.00000E+00
    0.14434E+06        -0.10081E+06         0.00000E+00
    0.00000E+00         0.00000E+00         0.00000E+00
 
    0.52967E+07         0.37197E+06         0.00000E+00
    0.37197E+06        -0.95544E+05         0.00000E+00
    0.00000E+00         0.00000E+00         0.00000E+00
 
    0.47582E+07         0.53406E+06         0.00000E+00
    0.53406E+06        -0.91300E+05         0.00000E+00
    0.00000E+00         0.00000E+00         0.00000E+00
 
    0.42470E+07         0.64869E+06         0.00000E+00
    0.64869E+06        -0.91844E+05         0.00000E+00
    0.00000E+00         0.00000E+00         0.00000E+00
 
    0.37680E+07         0.73196E+06         0.00000E+00
    0.73196E+06        -0.97628E+05         0.00000E+00
    0.00000E+00         0.00000E+00         0.00000E+00
 
    0.33221E+07         0.79730E+06         0.00000E+00
    0.79730E+06        -0.10660E+06         0.00000E+00
    0.00000E+00         0.00000E+00         0.00000E+00
 
    0.29067E+07         0.85517E+06         0.00000E+00
    0.85517E+06        -0.11498E+06         0.00000E+00
    0.00000E+00         0.00000E+00         0.00000E+00
 
    0.25174E+07         0.91290E+06         0.00000E+00
    0.91290E+06        -0.11804E+06         0.00000E+00
    0.00000E+00         0.00000E+00         0.00000E+00
 
    0.21487E+07         0.97482E+06         0.00000E+00
    0.97482E+06        -0.11069E+06         0.00000E+00
    0.00000E+00         0.00000E+00         0.00000E+00
 
    0.17951E+07         0.10425E+07         0.00000E+00
    0.10425E+07        -0.88110E+05         0.00000E+00
    0.00000E+00         0.00000E+00         0.00000E+00
 
    0.14518E+07         0.11149E+07         0.00000E+00
    0.11149E+07        -0.46233E+05         0.00000E+00
    0.00000E+00         0.00000E+00         0.00000E+00
 
    0.11157E+07         0.11893E+07         0.00000E+00
    0.11893E+07         0.17819E+05         0.00000E+00
    0.00000E+00         0.00000E+00         0.00000E+00
 
    0.78545E+06         0.12613E+07         0.00000E+00
    0.12613E+07         0.10535E+06         0.00000E+00
    0.00000E+00         0.00000E+00         0.00000E+00
 
    0.46264E+06         0.13258E+07         0.00000E+00
    0.13258E+07         0.21575E+06         0.00000E+00
    0.00000E+00         0.00000E+00         0.00000E+00
 
    0.15173E+06         0.13779E+07         0.00000E+00
    0.13779E+07         0.34629E+06         0.00000E+00
    0.00000E+00         0.00000E+00         0.00000E+00
 
    0.60770E+07         0.14666E+06         0.00000E+00
    0.14666E+06        -0.14650E+06         0.00000E+00
    0.00000E+00         0.00000E+00         0.00000E+00
 
    0.54432E+07         0.37204E+06         0.00000E+00
    0.37204E+06        -0.14975E+06         0.00000E+00
    0.00000E+00         0.00000E+00         0.00000E+00
 
    0.48469E+07         0.52670E+06         0.00000E+00
    0.52670E+06        -0.16197E+06         0.00000E+00
    0.00000E+00         0.00000E+00         0.00000E+00
 
    0.42968E+07         0.63271E+06         0.00000E+00
    0.63271E+06        -0.18570E+06         0.00000E+00
    0.00000E+00         0.00000E+00         0.00000E+00
 
    0.37951E+07         0.70923E+06         0.00000E+00
    0.70923E+06        -0.21970E+06         0.00000E+00
    0.00000E+00         0.00000E+00         0.00000E+00
 
    0.33393E+07         0.77188E+06         0.00000E+00
    0.77188E+06        -0.26001E+06         0.00000E+00
    0.00000E+00         0.00000E+00         0.00000E+00
 
    0.29234E+07         0.83242E+06         0.00000E+00
    0.83242E+06        -0.30092E+06         0.00000E+00
    0.00000E+00         0.00000E+00         0.00000E+00
 
    0.25394E+07         0.89876E+06         0.00000E+00
    0.89876E+06        -0.33582E+06         0.00000E+00
    0.00000E+00         0.00000E+00         0.00000E+00
 
    0.21788E+07         0.97514E+06         0.00000E+00
    0.97514E+06        -0.35792E+06         0.00000E+00
    0.00000E+00         0.00000E+00         0.00000E+00
 
    0.18331E+07         0.10625E+07         0.00000E+00
    0.10625E+07        -0.36091E+06         0.00000E+00
    0.00000E+00         0.00000E+00         0.00000E+00
 
    0.14952E+07         0.11587E+07         0.00000E+00
    0.11587E+07        -0.33949E+06         0.00000E+00
    0.00000E+00         0.00000E+00         0.00000E+00
 
    0.11597E+07         0.12595E+07         0.00000E+00
    0.12595E+07        -0.28981E+06         0.00000E+00
    0.00000E+00         0.00000E+00         0.00000E+00
 
    0.82438E+06         0.13584E+07         0.00000E+00
    0.13584E+07        -0.20998E+06         0.00000E+00
    0.00000E+00         0.00000E+00         0.00000E+00
 
    0.49010E+06         0.14483E+07         0.00000E+00
    0.14483E+07        -0.10045E+06         0.00000E+00
    0.00000E+00         0.00000E+00         0.00000E+00
 
    0.16179E+06         0.15214E+07         0.00000E+00
    0.15214E+07         0.35633E+05         0.00000E+00
    0.00000E+00         0.00000E+00         0.00000E+00
 
    0.62824E+07         0.14412E+06         0.00000E+00
    0.14412E+06        -0.21004E+06         0.00000E+00
    0.00000E+00         0.00000E+00         0.00000E+00
 
    0.55627E+07         0.35793E+06         0.00000E+00
    0.35793E+06        -0.22385E+06         0.00000E+00
    0.00000E+00         0.00000E+00         0.00000E+00
 
    0.49062E+07         0.49700E+06         0.00000E+00
    0.49700E+06        -0.25619E+06         0.00000E+00
    0.00000E+00         0.00000E+00         0.00000E+00
 
    0.43187E+07         0.58802E+06         0.00000E+00
    0.58802E+06        -0.30783E+06         0.00000E+00
    0.00000E+00         0.00000E+00         0.00000E+00
 
    0.37984E+07         0.65352E+06         0.00000E+00
    0.65352E+06        -0.37536E+06         0.00000E+00
    0.00000E+00         0.00000E+00         0.00000E+00
 
    0.33386E+07         0.71134E+06         0.00000E+00
    0.71134E+06        -0.45248E+06         0.00000E+00
    0.00000E+00         0.00000E+00         0.00000E+00
 
    0.29289E+07         0.77449E+06         0.00000E+00
    0.77449E+06        -0.53118E+06         0.00000E+00
    0.00000E+00         0.00000E+00         0.00000E+00
 
    0.25572E+07         0.85129E+06         0.00000E+00
    0.85129E+06        -0.60273E+06         0.00000E+00
    0.00000E+00         0.00000E+00         0.00000E+00
 
    0.22111E+07         0.94569E+06         0.00000E+00
    0.94569E+06        -0.65846E+06         0.00000E+00
    0.00000E+00         0.00000E+00         0.00000E+00
 
    0.18787E+07         0.10577E+07         0.00000E+00
    0.10577E+07        -0.69039E+06         0.00000E+00
    0.00000E+00         0.00000E+00         0.00000E+00
 
    0.15499E+07         0.11840E+07         0.00000E+00
    0.11840E+07        -0.69185E+06         0.00000E+00
    0.00000E+00         0.00000E+00         0.00000E+00
 
    0.12171E+07         0.13181E+07         0.00000E+00
    0.13181E+07        -0.65788E+06         0.00000E+00
    0.00000E+00         0.00000E+00         0.00000E+00
 
    0.87627E+06         0.14516E+07         0.00000E+00
    0.14516E+07        -0.58583E+06         0.00000E+00
    0.00000E+00         0.00000E+00         0.00000E+00
 
    0.52742E+06         0.15742E+07         0.00000E+00
    0.15742E+07        -0.47581E+06         0.00000E+00
    0.00000E+00         0.00000E+00         0.00000E+00
 
    0.17565E+06         0.16753E+07         0.00000E+00
    0.16753E+07        -0.33124E+06         0.00000E+00
    0.00000E+00         0.00000E+00         0.00000E+00
 
    0.64508E+07         0.13553E+06         0.00000E+00
    0.13553E+06        -0.29783E+06         0.00000E+00
    0.00000E+00         0.00000E+00         0.00000E+00
 
    0.56391E+07         0.32642E+06         0.00000E+00
    0.32642E+06        -0.32458E+06         0.00000E+00
    0.00000E+00         0.00000E+00         0.00000E+00
 
    0.49221E+07         0.44039E+06         0.00000E+00
    0.44039E+06        -0.38117E+06         0.00000E+00
    0.00000E+00         0.00000E+00         0.00000E+00
 
    0.43008E+07         0.50926E+06         0.00000E+00
    0.50926E+06        -0.46596E+06         0.00000E+00
    0.00000E+00         0.00000E+00         0.00000E+00
 
    0.37685E+07         0.55916E+06         0.00000E+00
    0.55916E+06        -0.57271E+06         0.00000E+00
    0.00000E+00         0.00000E+00         0.00000E+00
 
    0.33128E+07         0.61016E+06         0.00000E+00
    0.61016E+06        -0.69231E+06         0.00000E+00
    0.00000E+00         0.00000E+00         0.00000E+00
 
    0.29181E+07         0.67630E+06         0.00000E+00
    0.67630E+06        -0.81412E+06         0.00000E+00
    0.00000E+00         0.00000E+00         0.00000E+00
 
    0.25674E+07         0.76603E+06         0.00000E+00
    0.76603E+06        -0.92705E+06         0.00000E+00
    0.00000E+00         0.00000E+00         0.00000E+00
 
    0.22438E+07         0.88275E+06         0.00000E+00
    0.88275E+06        -0.10204E+07         0.00000E+00
    0.00000E+00         0.00000E+00         0.00000E+00
 
    0.19314E+07         0.10254E+07         0.00000E+00
    0.10254E+07        -0.10845E+07         0.00000E+00
    0.00000E+00         0.00000E+00         0.00000E+00
 
    0.16168E+07         0.11888E+07         0.00000E+00
    0.11888E+07        -0.11111E+07         0.00000E+00
    0.00000E+00         0.00000E+00         0.00000E+00
 
    0.12895E+07         0.13646E+07         0.00000E+00
    0.13646E+07        -0.10940E+07         0.00000E+00
    0.00000E+00         0.00000E+00         0.00000E+00
 
    0.94307E+06         0.15415E+07         0.00000E+00
    0.15415E+07        -0.10296E+07         0.00000E+00
    0.00000E+00         0.00000E+00         0.00000E+00
 
    0.57633E+06         0.17061E+07         0.00000E+00
    0.17061E+07        -0.91736E+06         0.00000E+00
    0.00000E+00         0.00000E+00         0.00000E+00
 
    0.19403E+06         0.18437E+07         0.00000E+00
    0.18437E+07        -0.76075E+06         0.00000E+00
    0.00000E+00         0.00000E+00         0.00000E+00
 
    0.65607E+07         0.11945E+06         0.00000E+00
    0.11945E+06        -0.41835E+06         0.00000E+00
    0.00000E+00         0.00000E+00         0.00000E+00
 
    0.56528E+07         0.27385E+06         0.00000E+00
    0.27385E+06        -0.46073E+06         0.00000E+00
    0.00000E+00         0.00000E+00         0.00000E+00
 
    0.48772E+07         0.35176E+06         0.00000E+00
    0.35176E+06        -0.54617E+06         0.00000E+00
    0.00000E+00         0.00000E+00         0.00000E+00
 
    0.42288E+07         0.39065E+06         0.00000E+00
    0.39065E+06        -0.66969E+06         0.00000E+00
    0.00000E+00         0.00000E+00         0.00000E+00
 
    0.36937E+07         0.42034E+06         0.00000E+00
    0.42034E+06        -0.82153E+06         0.00000E+00
    0.00000E+00         0.00000E+00         0.00000E+00
 
    0.32529E+07         0.46285E+06         0.00000E+00
    0.46285E+06        -0.98921E+06         0.00000E+00
    0.00000E+00         0.00000E+00         0.00000E+00
 
    0.28844E+07         0.53294E+06         0.00000E+00
    0.53294E+06        -0.11591E+07         0.00000E+00
    0.00000E+00         0.00000E+00         0.00000E+00
 
    0.25655E+07         0.63880E+06         0.00000E+00
    0.63880E+06        -0.13177E+07         0.00000E+00
    0.00000E+00         0.00000E+00         0.00000E+00
 
    0.22740E+07         0.78292E+06         0.00000E+00
    0.78292E+06        -0.14522E+07         0.00000E+00
    0.00000E+00         0.00000E+00         0.00000E+00
 
    0.19899E+07         0.96280E+06         0.00000E+00
    0.96280E+06        -0.15512E+07         0.00000E+00
    0.00000E+00         0.00000E+00         0.00000E+00
 
    0.16957E+07         0.11716E+07         0.00000E+00
    0.11716E+07        -0.16048E+07         0.00000E+00
    0.00000E+00         0.00000E+00         0.00000E+00
 
    0.13775E+07         0.13984E+07         0.00000E+00
    0.13984E+07        -0.16055E+07         0.00000E+00
    0.00000E+00         0.00000E+00         0.00000E+00
 
    0.10262E+07         0.16291E+07         0.00000E+00
    0.16291E+07        -0.15484E+07         0.00000E+00
    0.00000E+00         0.00000E+00         0.00000E+00
 
    0.63830E+06         0.18465E+07         0.00000E+00
    0.18465E+07        -0.14320E+07         0.00000E+00
    0.00000E+00         0.00000E+00         0.00000E+00
 
    0.21759E+06         0.20314E+07         0.00000E+00
    0.20314E+07        -0.12593E+07         0.00000E+00
    0.00000E+00         0.00000E+00         0.00000E+00
 
    0.65852E+07         0.94261E+05         0.00000E+00
    0.94261E+05        -0.58266E+06         0.00000E+00
    0.00000E+00         0.00000E+00         0.00000E+00
 
    0.55795E+07         0.19613E+06         0.00000E+00
    0.19613E+06        -0.64371E+06         0.00000E+00
    0.00000E+00         0.00000E+00         0.00000E+00
 
    0.47508E+07         0.22565E+06         0.00000E+00
    0.22565E+06        -0.76296E+06         0.00000E+00
    0.00000E+00         0.00000E+00         0.00000E+00
 
    0.40853E+07         0.22630E+06         0.00000E+00
    0.22630E+06        -0.93097E+06         0.00000E+00
    0.00000E+00         0.00000E+00         0.00000E+00
 
    0.35602E+07         0.23136E+06         0.00000E+00
    0.23136E+06        -0.11336E+07         0.00000E+00
    0.00000E+00         0.00000E+00         0.00000E+00
 
    0.31481E+07         0.26437E+06         0.00000E+00
    0.26437E+06        -0.13544E+07         0.00000E+00
    0.00000E+00         0.00000E+00         0.00000E+00
 
    0.28193E+07         0.34018E+06         0.00000E+00
    0.34018E+06        -0.15767E+07         0.00000E+00
    0.00000E+00         0.00000E+00         0.00000E+00
 
    0.25448E+07         0.46618E+06         0.00000E+00
    0.46618E+06        -0.17843E+07         0.00000E+00
    0.00000E+00         0.00000E+00         0.00000E+00
 
    0.22970E+07         0.64354E+06         0.00000E+00
    0.64354E+06        -0.19625E+07         0.00000E+00
    0.00000E+00         0.00000E+00         0.00000E+00
 
    0.20509E+07         0.86810E+06         0.00000E+00
    0.86810E+06        -0.20982E+07         0.00000E+00
    0.00000E+00         0.00000E+00         0.00000E+00
 
    0.17847E+07         0.11311E+07         0.00000E+00
    0.11311E+07        -0.21802E+07         0.00000E+00
    0.00000E+00         0.00000E+00         0.00000E+00
 
    0.14807E+07         0.14193E+07         0.00000E+00
    0.14193E+07        -0.21993E+07         0.00000E+00
    0.00000E+00         0.00000E+00         0.00000E+00
 
    0.11260E+07         0.17156E+07         0.00000E+00
    0.17156E+07        -0.21489E+07         0.00000E+00
    0.00000E+00         0.00000E+00         0.00000E+00
 
    0.71417E+06         0.19987E+07         0.00000E+00
    0.19987E+07        -0.20262E+07         0.00000E+00
    0.00000E+00         0.00000E+00         0.00000E+00
 
    0.24679E+06         0.22441E+07         0.00000E+00
    0.22441E+07        -0.18330E+07         0.00000E+00
    0.00000E+00         0.00000E+00         0.00000E+00
 
    0.64907E+07         0.58077E+05         0.00000E+00
    0.58077E+05        -0.80510E+06         0.00000E+00
    0.00000E+00         0.00000E+00         0.00000E+00
 
    0.53897E+07         0.88776E+05         0.00000E+00
    0.88776E+05        -0.88813E+06         0.00000E+00
    0.00000E+00         0.00000E+00         0.00000E+00
 
    0.45180E+07         0.56398E+05         0.00000E+00
    0.56398E+05        -0.10464E+07         0.00000E+00
    0.00000E+00         0.00000E+00         0.00000E+00
 
    0.38500E+07         0.10466E+05         0.00000E+00
    0.10466E+05        -0.12645E+07         0.00000E+00
    0.00000E+00         0.00000E+00         0.00000E+00
 
    0.33515E+07        -0.12804E+05         0.00000E+00
   -0.12804E+05        -0.15229E+07         0.00000E+00
    0.00000E+00         0.00000E+00         0.00000E+00
 
    0.29849E+07         0.10750E+05         0.00000E+00
    0.10750E+05        -0.18008E+07         0.00000E+00
    0.00000E+00         0.00000E+00         0.00000E+00
 
    0.27119E+07         0.95126E+05         0.00000E+00
    0.95126E+05        -0.20781E+07         0.00000E+00
    0.00000E+00         0.00000E+00         0.00000E+00
 
    0.24964E+07         0.24615E+06         0.00000E+00
    0.24615E+06        -0.23363E+07         0.00000E+00
    0.00000E+00         0.00000E+00         0.00000E+00
 
    0.23051E+07         0.46317E+06         0.00000E+00
    0.46317E+06        -0.25591E+07         0.00000E+00
    0.00000E+00         0.00000E+00         0.00000E+00
 
    0.21080E+07         0.74025E+06         0.00000E+00
    0.74025E+06        -0.27321E+07         0.00000E+00
    0.00000E+00         0.00000E+00         0.00000E+00
 
    0.18790E+07         0.10667E+07         0.00000E+00
    0.10667E+07        -0.28429E+07         0.00000E+00
    0.00000E+00         0.00000E+00         0.00000E+00
 
    0.15958E+07         0.14274E+07         0.00000E+00
    0.14274E+07        -0.28805E+07         0.00000E+00
    0.00000E+00         0.00000E+00         0.00000E+00
 
    0.12409E+07         0.18020E+07         0.00000E+00
    0.18020E+07        -0.28365E+07         0.00000E+00
    0.00000E+00         0.00000E+00         0.00000E+00
 
    0.80364E+06         0.21655E+07         0.00000E+00
    0.21655E+07        -0.27056E+07         0.00000E+00
    0.00000E+00         0.00000E+00         0.00000E+00
 
    0.28174E+06         0.24875E+07         0.00000E+00
    0.24875E+07        -0.24875E+07         0.00000E+00
    0.00000E+00         0.00000E+00         0.00000E+00
 
    0.62364E+07         0.88091E+04         0.00000E+00
    0.88091E+04        -0.11040E+07         0.00000E+00
    0.00000E+00         0.00000E+00         0.00000E+00
 
    0.50483E+07        -0.52947E+05         0.00000E+00
   -0.52947E+05        -0.12126E+07         0.00000E+00
    0.00000E+00         0.00000E+00         0.00000E+00
 
    0.41496E+07        -0.16156E+06         0.00000E+00
   -0.16156E+06        -0.14150E+07         0.00000E+00
    0.00000E+00         0.00000E+00         0.00000E+00
 
    0.34992E+07        -0.26184E+06         0.00000E+00
   -0.26184E+06        -0.16882E+07         0.00000E+00
    0.00000E+00         0.00000E+00         0.00000E+00
 
    0.30483E+07        -0.31580E+06         0.00000E+00
   -0.31580E+06        -0.20061E+07         0.00000E+00
    0.00000E+00         0.00000E+00         0.00000E+00
 
    0.27472E+07        -0.30010E+06         0.00000E+00
   -0.30010E+06        -0.23429E+07         0.00000E+00
    0.00000E+00         0.00000E+00         0.00000E+00
 
    0.25481E+07        -0.20295E+06         0.00000E+00
   -0.20295E+06        -0.26753E+07         0.00000E+00
    0.00000E+00         0.00000E+00         0.00000E+00
 
    0.24076E+07        -0.21148E+05         0.00000E+00
   -0.21148E+05        -0.29830E+07         0.00000E+00
    0.00000E+00         0.00000E+00         0.00000E+00
 
    0.22868E+07         0.24232E+06         0.00000E+00
    0.24232E+06        -0.32489E+07         0.00000E+00
    0.00000E+00         0.00000E+00         0.00000E+00
 
    0.21512E+07         0.57964E+06         0.00000E+00
    0.57964E+06        -0.34579E+07         0.00000E+00
    0.00000E+00         0.00000E+00         0.00000E+00
 
    0.19700E+07         0.97869E+06         0.00000E+00
    0.97869E+06        -0.35966E+07         0.00000E+00
    0.00000E+00         0.00000E+00         0.00000E+00
 
    0.17161E+07         0.14227E+07         0.00000E+00
    0.14227E+07        -0.36524E+07         0.00000E+00
    0.00000E+00         0.00000E+00         0.00000E+00
 
    0.13666E+07         0.18893E+07         0.00000E+00
    0.18893E+07        -0.36144E+07         0.00000E+00
    0.00000E+00         0.00000E+00         0.00000E+00
 
    0.90461E+06         0.23496E+07         0.00000E+00
    0.23496E+07        -0.34740E+07         0.00000E+00
    0.00000E+00         0.00000E+00         0.00000E+00
 
    0.32189E+06         0.27675E+07         0.00000E+00
    0.27675E+07        -0.32272E+07         0.00000E+00
    0.00000E+00         0.00000E+00         0.00000E+00
 
    0.57727E+07        -0.55846E+05         0.00000E+00
   -0.55846E+05        -0.15026E+07         0.00000E+00
    0.00000E+00         0.00000E+00         0.00000E+00
 
    0.45136E+07        -0.23388E+06         0.00000E+00
   -0.23388E+06        -0.16404E+07         0.00000E+00
    0.00000E+00         0.00000E+00         0.00000E+00
 
    0.36120E+07        -0.43322E+06         0.00000E+00
   -0.43322E+06        -0.18917E+07         0.00000E+00
    0.00000E+00         0.00000E+00         0.00000E+00
 
    0.30057E+07        -0.59415E+06         0.00000E+00
   -0.59415E+06        -0.22237E+07         0.00000E+00
    0.00000E+00         0.00000E+00         0.00000E+00
 
    0.26282E+07        -0.67889E+06         0.00000E+00
   -0.67889E+06        -0.26022E+07         0.00000E+00
    0.00000E+00         0.00000E+00         0.00000E+00
 
    0.24156E+07        -0.66719E+06         0.00000E+00
   -0.66719E+06        -0.29965E+07         0.00000E+00
    0.00000E+00         0.00000E+00         0.00000E+00
 
    0.23101E+07        -0.55142E+06         0.00000E+00
   -0.55142E+06        -0.33803E+07         0.00000E+00
    0.00000E+00         0.00000E+00         0.00000E+00
 
    0.22612E+07        -0.33231E+06         0.00000E+00
   -0.33231E+06        -0.37328E+07         0.00000E+00
    0.00000E+00         0.00000E+00         0.00000E+00
 
    0.22254E+07        -0.15785E+05         0.00000E+00
   -0.15785E+05        -0.40368E+07         0.00000E+00
    0.00000E+00         0.00000E+00         0.00000E+00
 
    0.21644E+07         0.38864E+06         0.00000E+00
    0.38864E+06        -0.42777E+07         0.00000E+00
    0.00000E+00         0.00000E+00         0.00000E+00
 
    0.20432E+07         0.86813E+06         0.00000E+00
    0.86813E+06        -0.44418E+07         0.00000E+00
    0.00000E+00         0.00000E+00         0.00000E+00
 
    0.18297E+07         0.14055E+07         0.00000E+00
    0.14055E+07        -0.45150E+07         0.00000E+00
    0.00000E+00         0.00000E+00         0.00000E+00
 
    0.14944E+07         0.19776E+07         0.00000E+00
    0.19776E+07        -0.44832E+07         0.00000E+00
    0.00000E+00         0.00000E+00         0.00000E+00
 
    0.10122E+07         0.25526E+07         0.00000E+00
    0.25526E+07        -0.43333E+07         0.00000E+00
    0.00000E+00         0.00000E+00         0.00000E+00
 
    0.36577E+06         0.30888E+07         0.00000E+00
    0.30888E+07        -0.40557E+07         0.00000E+00
    0.00000E+00         0.00000E+00         0.00000E+00
 
    0.50402E+07        -0.13837E+06         0.00000E+00
   -0.13837E+06        -0.20300E+07         0.00000E+00
    0.00000E+00         0.00000E+00         0.00000E+00
 
    0.37374E+07        -0.45867E+06         0.00000E+00
   -0.45867E+06        -0.22005E+07         0.00000E+00
    0.00000E+00         0.00000E+00         0.00000E+00
 
    0.28668E+07        -0.76233E+06         0.00000E+00
   -0.76233E+06        -0.25046E+07         0.00000E+00
    0.00000E+00         0.00000E+00         0.00000E+00
 
    0.23390E+07        -0.98739E+06         0.00000E+00
   -0.98739E+06        -0.28965E+07         0.00000E+00
    0.00000E+00         0.00000E+00         0.00000E+00
 
    0.20657E+07        -0.10996E+07         0.00000E+00
   -0.10996E+07        -0.33332E+07         0.00000E+00
    0.00000E+00         0.00000E+00         0.00000E+00
 
    0.19670E+07        -0.10850E+07         0.00000E+00
   -0.10850E+07        -0.37785E+07         0.00000E+00
    0.00000E+00         0.00000E+00         0.00000E+00
 
    0.19751E+07        -0.94284E+06         0.00000E+00
   -0.94284E+06        -0.42047E+07         0.00000E+00
    0.00000E+00         0.00000E+00         0.00000E+00
 
    0.20341E+07        -0.67943E+06         0.00000E+00
   -0.67943E+06        -0.45916E+07         0.00000E+00
    0.00000E+00         0.00000E+00         0.00000E+00
 
    0.20971E+07        -0.30417E+06         0.00000E+00
   -0.30417E+06        -0.49241E+07         0.00000E+00
    0.00000E+00         0.00000E+00         0.00000E+00
 
    0.21237E+07         0.17223E+06         0.00000E+00
    0.17223E+06        -0.51894E+07         0.00000E+00
    0.00000E+00         0.00000E+00         0.00000E+00
 
    0.20761E+07         0.73748E+06         0.00000E+00
    0.73748E+06        -0.53743E+07         0.00000E+00
    0.00000E+00         0.00000E+00         0.00000E+00
 
    0.19172E+07         0.13760E+07         0.00000E+00
    0.13760E+07        -0.54636E+07         0.00000E+00
    0.00000E+00         0.00000E+00         0.00000E+00
 
    0.16096E+07         0.20655E+07         0.00000E+00
    0.20655E+07        -0.54395E+07         0.00000E+00
    0.00000E+00         0.00000E+00         0.00000E+00
 
    0.11175E+07         0.27737E+07         0.00000E+00
    0.27737E+07        -0.52824E+07         0.00000E+00
    0.00000E+00         0.00000E+00         0.00000E+00
 
    0.41049E+06         0.34543E+07         0.00000E+00
    0.34543E+07        -0.49745E+07         0.00000E+00
    0.00000E+00         0.00000E+00         0.00000E+00
 
    0.39687E+07        -0.24134E+06         0.00000E+00
   -0.24134E+06        -0.27218E+07         0.00000E+00
    0.00000E+00         0.00000E+00         0.00000E+00
 
    0.26646E+07        -0.73132E+06         0.00000E+00
   -0.73132E+06        -0.29284E+07         0.00000E+00
    0.00000E+00         0.00000E+00         0.00000E+00
 
    0.18718E+07        -0.11504E+07         0.00000E+00
   -0.11504E+07        -0.32872E+07         0.00000E+00
    0.00000E+00         0.00000E+00         0.00000E+00
 
    0.14660E+07        -0.14383E+07         0.00000E+00
   -0.14383E+07        -0.37365E+07         0.00000E+00
    0.00000E+00         0.00000E+00         0.00000E+00
 
    0.13322E+07        -0.15696E+07         0.00000E+00
   -0.15696E+07        -0.42228E+07         0.00000E+00
    0.00000E+00         0.00000E+00         0.00000E+00
 
    0.13740E+07        -0.15414E+07         0.00000E+00
   -0.15414E+07        -0.47056E+07         0.00000E+00
    0.00000E+00         0.00000E+00         0.00000E+00
 
    0.15147E+07        -0.13632E+07         0.00000E+00
   -0.13632E+07        -0.51576E+07         0.00000E+00
    0.00000E+00         0.00000E+00         0.00000E+00
 
    0.16952E+07        -0.10487E+07         0.00000E+00
   -0.10487E+07        -0.55618E+07         0.00000E+00
    0.00000E+00         0.00000E+00         0.00000E+00
 
    0.18688E+07        -0.61109E+06         0.00000E+00
   -0.61109E+06        -0.59074E+07         0.00000E+00
    0.00000E+00         0.00000E+00         0.00000E+00
 
    0.19953E+07        -0.61421E+05         0.00000E+00
   -0.61421E+05        -0.61851E+07         0.00000E+00
    0.00000E+00         0.00000E+00         0.00000E+00
 
    0.20359E+07         0.59058E+06         0.00000E+00
    0.59058E+06        -0.63840E+07         0.00000E+00
    0.00000E+00         0.00000E+00         0.00000E+00
 
    0.19492E+07         0.13335E+07         0.00000E+00
    0.13335E+07        -0.64878E+07         0.00000E+00
    0.00000E+00         0.00000E+00         0.00000E+00
 
    0.16891E+07         0.21497E+07         0.00000E+00
    0.21497E+07        -0.64745E+07         0.00000E+00
    0.00000E+00         0.00000E+00         0.00000E+00
 
    0.12060E+07         0.30090E+07         0.00000E+00
    0.30090E+07        -0.63161E+07         0.00000E+00
    0.00000E+00         0.00000E+00         0.00000E+00
 
    0.45117E+06         0.38628E+07         0.00000E+00
    0.38628E+07        -0.59832E+07         0.00000E+00
    0.00000E+00         0.00000E+00         0.00000E+00
 
    0.24766E+07        -0.36738E+06         0.00000E+00
   -0.36738E+06        -0.36217E+07         0.00000E+00
    0.00000E+00         0.00000E+00         0.00000E+00
 
    0.12341E+07        -0.10545E+07         0.00000E+00
   -0.10545E+07        -0.38667E+07         0.00000E+00
    0.00000E+00         0.00000E+00         0.00000E+00
 
    0.58217E+06        -0.15949E+07         0.00000E+00
   -0.15949E+07        -0.42791E+07         0.00000E+00
    0.00000E+00         0.00000E+00         0.00000E+00
 
    0.35144E+06        -0.19374E+07         0.00000E+00
   -0.19374E+07        -0.47769E+07         0.00000E+00
    0.00000E+00         0.00000E+00         0.00000E+00
 
    0.39645E+06        -0.20726E+07         0.00000E+00
   -0.20726E+07        -0.52957E+07         0.00000E+00
    0.00000E+00         0.00000E+00         0.00000E+00
 
    0.60411E+06        -0.20156E+07         0.00000E+00
   -0.20156E+07        -0.57928E+07         0.00000E+00
    0.00000E+00         0.00000E+00         0.00000E+00
 
    0.89245E+06        -0.17900E+07         0.00000E+00
   -0.17900E+07        -0.62444E+07         0.00000E+00
    0.00000E+00         0.00000E+00         0.00000E+00
 
    0.12037E+07        -0.14189E+07         0.00000E+00
   -0.14189E+07        -0.66401E+07         0.00000E+00
    0.00000E+00         0.00000E+00         0.00000E+00
 
    0.14955E+07        -0.91907E+06         0.00000E+00
   -0.91907E+06        -0.69762E+07         0.00000E+00
    0.00000E+00         0.00000E+00         0.00000E+00
 
    0.17319E+07        -0.30035E+06         0.00000E+00
   -0.30035E+06        -0.72496E+07         0.00000E+00
    0.00000E+00         0.00000E+00         0.00000E+00
 
    0.18760E+07         0.43275E+06         0.00000E+00
    0.43275E+06        -0.74527E+07         0.00000E+00
    0.00000E+00         0.00000E+00         0.00000E+00
 
    0.18834E+07         0.12768E+07         0.00000E+00
    0.12768E+07        -0.75695E+07         0.00000E+00
    0.00000E+00         0.00000E+00         0.00000E+00
 
    0.16989E+07         0.22231E+07         0.00000E+00
    0.22231E+07        -0.75729E+07         0.00000E+00
    0.00000E+00         0.00000E+00         0.00000E+00
 
    0.12557E+07         0.32488E+07         0.00000E+00
    0.32488E+07        -0.74247E+07         0.00000E+00
    0.00000E+00         0.00000E+00         0.00000E+00
 
    0.48018E+06         0.43072E+07         0.00000E+00
    0.43072E+07        -0.70790E+07         0.00000E+00
    0.00000E+00         0.00000E+00         0.00000E+00
 
    0.47077E+06        -0.51895E+06         0.00000E+00
   -0.51895E+06        -0.47820E+07         0.00000E+00
    0.00000E+00         0.00000E+00         0.00000E+00
 
   -0.61970E+06        -0.14282E+07         0.00000E+00
   -0.14282E+07        -0.50661E+07         0.00000E+00
    0.00000E+00         0.00000E+00         0.00000E+00
 
   -0.10477E+07        -0.20872E+07         0.00000E+00
   -0.20872E+07        -0.55253E+07         0.00000E+00
    0.00000E+00         0.00000E+00         0.00000E+00
 
   -0.10400E+07        -0.24650E+07         0.00000E+00
   -0.24650E+07        -0.60529E+07         0.00000E+00
    0.00000E+00         0.00000E+00         0.00000E+00
 
   -0.77582E+06        -0.25806E+07         0.00000E+00
   -0.25806E+07        -0.65747E+07         0.00000E+00
    0.00000E+00         0.00000E+00         0.00000E+00
 
   -0.38126E+06        -0.24750E+07         0.00000E+00
   -0.24750E+07        -0.70496E+07         0.00000E+00
    0.00000E+00         0.00000E+00         0.00000E+00
 
    0.62686E+05        -0.21906E+07         0.00000E+00
   -0.21906E+07        -0.74627E+07         0.00000E+00
    0.00000E+00         0.00000E+00         0.00000E+00
 
    0.50643E+06        -0.17605E+07         0.00000E+00
   -0.17605E+07        -0.78144E+07         0.00000E+00
    0.00000E+00         0.00000E+00         0.00000E+00
 
    0.91789E+06        -0.12043E+07         0.00000E+00
   -0.12043E+07        -0.81112E+07         0.00000E+00
    0.00000E+00         0.00000E+00         0.00000E+00
 
    0.12705E+07        -0.52851E+06         0.00000E+00
   -0.52851E+06        -0.83582E+07         0.00000E+00
    0.00000E+00         0.00000E+00         0.00000E+00
 
    0.15330E+07         0.27084E+06         0.00000E+00
    0.27084E+06        -0.85532E+07         0.00000E+00
    0.00000E+00         0.00000E+00         0.00000E+00
 
    0.16611E+07         0.12029E+07         0.00000E+00
    0.12029E+07        -0.86815E+07         0.00000E+00
    0.00000E+00         0.00000E+00         0.00000E+00
 
    0.15905E+07         0.22741E+07         0.00000E+00
    0.22741E+07        -0.87114E+07         0.00000E+00
    0.00000E+00         0.00000E+00         0.00000E+00
 
    0.12343E+07         0.34761E+07         0.00000E+00
    0.34761E+07        -0.85920E+07         0.00000E+00
    0.00000E+00         0.00000E+00         0.00000E+00
 
    0.48621E+06         0.47709E+07         0.00000E+00
    0.47709E+07        -0.82564E+07         0.00000E+00
    0.00000E+00         0.00000E+00         0.00000E+00
 
   -0.21530E+07        -0.69803E+06         0.00000E+00
   -0.69803E+06        -0.62642E+07         0.00000E+00
    0.00000E+00         0.00000E+00         0.00000E+00
 
   -0.29629E+07        -0.18480E+07         0.00000E+00
   -0.18480E+07        -0.65850E+07         0.00000E+00
    0.00000E+00         0.00000E+00         0.00000E+00
 
   -0.30599E+07        -0.26079E+07         0.00000E+00
   -0.26079E+07        -0.70746E+07         0.00000E+00
    0.00000E+00         0.00000E+00         0.00000E+00
 
   -0.27421E+07        -0.29872E+07         0.00000E+00
   -0.29872E+07        -0.75979E+07         0.00000E+00
    0.00000E+00         0.00000E+00         0.00000E+00
 
   -0.22219E+07        -0.30500E+07         0.00000E+00
   -0.30500E+07        -0.80750E+07         0.00000E+00
    0.00000E+00         0.00000E+00         0.00000E+00
 
   -0.16291E+07        -0.28732E+07         0.00000E+00
   -0.28732E+07        -0.84750E+07         0.00000E+00
    0.00000E+00         0.00000E+00         0.00000E+00
 
   -0.10328E+07        -0.25210E+07         0.00000E+00
   -0.25210E+07        -0.87986E+07         0.00000E+00
    0.00000E+00         0.00000E+00         0.00000E+00
 
   -0.46491E+06        -0.20355E+07         0.00000E+00
   -0.20355E+07        -0.90614E+07         0.00000E+00
    0.00000E+00         0.00000E+00         0.00000E+00
 
    0.59654E+05        -0.14370E+07         0.00000E+00
   -0.14370E+07        -0.92823E+07         0.00000E+00
    0.00000E+00         0.00000E+00         0.00000E+00
 
    0.52919E+06        -0.72588E+06         0.00000E+00
   -0.72588E+06        -0.94762E+07         0.00000E+00
    0.00000E+00         0.00000E+00         0.00000E+00
 
    0.92350E+06         0.11322E+06         0.00000E+00
    0.11322E+06        -0.96479E+07         0.00000E+00
    0.00000E+00         0.00000E+00         0.00000E+00
 
    0.12028E+07         0.11070E+07         0.00000E+00
    0.11070E+07        -0.97864E+07         0.00000E+00
    0.00000E+00         0.00000E+00         0.00000E+00
 
    0.12967E+07         0.22846E+07         0.00000E+00
    0.22846E+07        -0.98569E+07         0.00000E+00
    0.00000E+00         0.00000E+00         0.00000E+00
 
    0.10960E+07         0.36627E+07         0.00000E+00
    0.36627E+07        -0.97951E+07         0.00000E+00
    0.00000E+00         0.00000E+00         0.00000E+00
 
    0.45286E+06         0.52235E+07         0.00000E+00
    0.52235E+07        -0.95067E+07         0.00000E+00
    0.00000E+00         0.00000E+00         0.00000E+00
 
   -0.55071E+07        -0.90562E+06         0.00000E+00
   -0.90562E+06        -0.81396E+07         0.00000E+00
    0.00000E+00         0.00000E+00         0.00000E+00
 
   -0.58559E+07        -0.23006E+07         0.00000E+00
   -0.23006E+07        -0.84882E+07         0.00000E+00
    0.00000E+00         0.00000E+00         0.00000E+00
 
   -0.54875E+07        -0.31203E+07         0.00000E+00
   -0.31203E+07        -0.89748E+07         0.00000E+00
    0.00000E+00         0.00000E+00         0.00000E+00
 
   -0.47855E+07        -0.34478E+07         0.00000E+00
   -0.34478E+07        -0.94347E+07         0.00000E+00
    0.00000E+00         0.00000E+00         0.00000E+00
 
   -0.39847E+07        -0.34168E+07         0.00000E+00
   -0.34168E+07        -0.97949E+07         0.00000E+00
    0.00000E+00         0.00000E+00         0.00000E+00
 
   -0.31990E+07        -0.31485E+07         0.00000E+00
   -0.31485E+07        -0.10048E+08         0.00000E+00
    0.00000E+00         0.00000E+00         0.00000E+00
 
   -0.24682E+07        -0.27273E+07         0.00000E+00
   -0.27273E+07        -0.10220E+08         0.00000E+00
    0.00000E+00         0.00000E+00         0.00000E+00
 
   -0.17962E+07        -0.21999E+07         0.00000E+00
   -0.21999E+07        -0.10342E+08         0.00000E+00
    0.00000E+00         0.00000E+00         0.00000E+00
 
   -0.11741E+07        -0.15831E+07         0.00000E+00
   -0.15831E+07        -0.10447E+08         0.00000E+00
    0.00000E+00         0.00000E+00         0.00000E+00
 
   -0.59359E+06        -0.86930E+06         0.00000E+00
   -0.86930E+06        -0.10559E+08         0.00000E+00
    0.00000E+00         0.00000E+00         0.00000E+00
 
   -0.58000E+05        -0.29959E+05         0.00000E+00
   -0.29959E+05        -0.10690E+08         0.00000E+00
    0.00000E+00         0.00000E+00         0.00000E+00
 
    0.40513E+06         0.98260E+06         0.00000E+00
    0.98260E+06        -0.10836E+08         0.00000E+00
    0.00000E+00         0.00000E+00         0.00000E+00
 
    0.72656E+06         0.22291E+07         0.00000E+00
    0.22291E+07        -0.10966E+08         0.00000E+00
    0.00000E+00         0.00000E+00         0.00000E+00
 
    0.77673E+06         0.37662E+07         0.00000E+00
    0.37662E+07        -0.11002E+08         0.00000E+00
    0.00000E+00         0.00000E+00         0.00000E+00
 
    0.35675E+06         0.56148E+07         0.00000E+00
    0.56148E+07        -0.10818E+08         0.00000E+00
    0.00000E+00         0.00000E+00         0.00000E+00
 
   -0.97059E+07        -0.11405E+07         0.00000E+00
   -0.11405E+07        -0.10489E+08         0.00000E+00
    0.00000E+00         0.00000E+00         0.00000E+00
 
   -0.93404E+07        -0.27562E+07         0.00000E+00
   -0.27562E+07        -0.10843E+08         0.00000E+00
    0.00000E+00         0.00000E+00         0.00000E+00
 
   -0.83467E+07        -0.35566E+07         0.00000E+00
   -0.35566E+07        -0.11261E+08         0.00000E+00
    0.00000E+00         0.00000E+00         0.00000E+00
 
   -0.71988E+07        -0.37584E+07         0.00000E+00
   -0.37584E+07        -0.11558E+08         0.00000E+00
    0.00000E+00         0.00000E+00         0.00000E+00
 
   -0.61192E+07        -0.35932E+07         0.00000E+00
   -0.35932E+07        -0.11698E+08         0.00000E+00
    0.00000E+00         0.00000E+00         0.00000E+00
 
   -0.51694E+07        -0.32264E+07         0.00000E+00
   -0.32264E+07        -0.11717E+08         0.00000E+00
    0.00000E+00         0.00000E+00         0.00000E+00
 
   -0.43383E+07        -0.27510E+07         0.00000E+00
   -0.27510E+07        -0.11668E+08         0.00000E+00
    0.00000E+00         0.00000E+00         0.00000E+00
 
   -0.35926E+07        -0.22089E+07         0.00000E+00
   -0.22089E+07        -0.11601E+08         0.00000E+00
    0.00000E+00         0.00000E+00         0.00000E+00
 
   -0.28961E+07        -0.16087E+07         0.00000E+00
   -0.16087E+07        -0.11553E+08         0.00000E+00
    0.00000E+00         0.00000E+00         0.00000E+00
 
   -0.22180E+07        -0.93443E+06         0.00000E+00
   -0.93443E+06        -0.11555E+08         0.00000E+00
    0.00000E+00         0.00000E+00         0.00000E+00
 
   -0.15390E+07        -0.14610E+06         0.00000E+00
   -0.14610E+06        -0.11626E+08         0.00000E+00
    0.00000E+00         0.00000E+00         0.00000E+00
 
   -0.86279E+06         0.82426E+06         0.00000E+00
    0.82426E+06        -0.11775E+08         0.00000E+00
    0.00000E+00         0.00000E+00         0.00000E+00
 
   -0.24160E+06         0.20758E+07         0.00000E+00
    0.20758E+07        -0.11981E+08         0.00000E+00
    0.00000E+00         0.00000E+00         0.00000E+00
 
    0.18638E+06         0.37262E+07         0.00000E+00
    0.37262E+07        -0.12168E+08         0.00000E+00
    0.00000E+00         0.00000E+00         0.00000E+00
 
    0.16403E+06         0.58666E+07         0.00000E+00
    0.58666E+07        -0.12173E+08         0.00000E+00
    0.00000E+00         0.00000E+00         0.00000E+00
 
   -0.14852E+08        -0.13963E+07         0.00000E+00
   -0.13963E+07        -0.13401E+08         0.00000E+00
    0.00000E+00         0.00000E+00         0.00000E+00
 
   -0.13416E+08        -0.31487E+07         0.00000E+00
   -0.31487E+07        -0.13706E+08         0.00000E+00
    0.00000E+00         0.00000E+00         0.00000E+00
 
   -0.11629E+08        -0.37949E+07         0.00000E+00
   -0.37949E+07        -0.13925E+08         0.00000E+00
    0.00000E+00         0.00000E+00         0.00000E+00
 
   -0.10019E+08        -0.37873E+07         0.00000E+00
   -0.37873E+07        -0.13901E+08         0.00000E+00
    0.00000E+00         0.00000E+00         0.00000E+00
 
   -0.87071E+07        -0.34726E+07         0.00000E+00
   -0.34726E+07        -0.13687E+08         0.00000E+00
    0.00000E+00         0.00000E+00         0.00000E+00
 
   -0.76475E+07        -0.30313E+07         0.00000E+00
   -0.30313E+07        -0.13381E+08         0.00000E+00
    0.00000E+00         0.00000E+00         0.00000E+00
 
   -0.67614E+07        -0.25407E+07         0.00000E+00
   -0.25407E+07        -0.13057E+08         0.00000E+00
    0.00000E+00         0.00000E+00         0.00000E+00
 
   -0.59769E+07        -0.20268E+07         0.00000E+00
   -0.20268E+07        -0.12765E+08         0.00000E+00
    0.00000E+00         0.00000E+00         0.00000E+00
 
   -0.52328E+07        -0.14873E+07         0.00000E+00
   -0.14873E+07        -0.12540E+08         0.00000E+00
    0.00000E+00         0.00000E+00         0.00000E+00
 
   -0.44768E+07        -0.89970E+06         0.00000E+00
   -0.89970E+06        -0.12411E+08         0.00000E+00
    0.00000E+00         0.00000E+00         0.00000E+00
 
   -0.36635E+07        -0.21917E+06         0.00000E+00
   -0.21917E+06        -0.12403E+08         0.00000E+00
    0.00000E+00         0.00000E+00         0.00000E+00
 
   -0.27596E+07         0.63288E+06         0.00000E+00
    0.63288E+06        -0.12541E+08         0.00000E+00
    0.00000E+00         0.00000E+00         0.00000E+00
 
   -0.17698E+07         0.17918E+07         0.00000E+00
    0.17918E+07        -0.12836E+08         0.00000E+00
    0.00000E+00         0.00000E+00         0.00000E+00
 
   -0.80549E+06         0.34606E+07         0.00000E+00
    0.34606E+07        -0.13233E+08         0.00000E+00
    0.00000E+00         0.00000E+00         0.00000E+00
 
   -0.17662E+06         0.58589E+07         0.00000E+00
    0.58589E+07        -0.13549E+08         0.00000E+00
    0.00000E+00         0.00000E+00         0.00000E+00
 
   -0.20997E+08        -0.16514E+07         0.00000E+00
   -0.16514E+07        -0.16959E+08         0.00000E+00
    0.00000E+00         0.00000E+00         0.00000E+00
 
   -0.18000E+08        -0.33250E+07         0.00000E+00
   -0.33250E+07        -0.17080E+08         0.00000E+00
    0.00000E+00         0.00000E+00         0.00000E+00
 
   -0.15316E+08        -0.36185E+07         0.00000E+00
   -0.36185E+07        -0.16835E+08         0.00000E+00
    0.00000E+00         0.00000E+00         0.00000E+00
 
   -0.13327E+08        -0.33670E+07         0.00000E+00
   -0.33670E+07        -0.16266E+08         0.00000E+00
    0.00000E+00         0.00000E+00         0.00000E+00
 
   -0.11878E+08        -0.29555E+07         0.00000E+00
   -0.29555E+07        -0.15577E+08         0.00000E+00
    0.00000E+00         0.00000E+00         0.00000E+00
 
   -0.10775E+08        -0.25102E+07         0.00000E+00
   -0.25102E+07        -0.14891E+08         0.00000E+00
    0.00000E+00         0.00000E+00         0.00000E+00
 
   -0.98773E+07        -0.20700E+07         0.00000E+00
   -0.20700E+07        -0.14270E+08         0.00000E+00
    0.00000E+00         0.00000E+00         0.00000E+00
 
   -0.90840E+07        -0.16399E+07         0.00000E+00
   -0.16399E+07        -0.13748E+08         0.00000E+00
    0.00000E+00         0.00000E+00         0.00000E+00
 
   -0.83161E+07        -0.12089E+07         0.00000E+00
   -0.12089E+07        -0.13346E+08         0.00000E+00
    0.00000E+00         0.00000E+00         0.00000E+00
 
   -0.75044E+07        -0.75316E+06         0.00000E+00
   -0.75316E+06        -0.13084E+08         0.00000E+00
    0.00000E+00         0.00000E+00         0.00000E+00
 
   -0.65793E+07        -0.23214E+06         0.00000E+00
   -0.23214E+06        -0.12987E+08         0.00000E+00
    0.00000E+00         0.00000E+00         0.00000E+00
 
   -0.54636E+07         0.42612E+06         0.00000E+00
    0.42612E+06        -0.13091E+08         0.00000E+00
    0.00000E+00         0.00000E+00         0.00000E+00
 
   -0.40727E+07         0.13606E+07         0.00000E+00
    0.13606E+07        -0.13452E+08         0.00000E+00
    0.00000E+00         0.00000E+00         0.00000E+00
 
   -0.24000E+07         0.28690E+07         0.00000E+00
    0.28690E+07        -0.14111E+08         0.00000E+00
    0.00000E+00         0.00000E+00         0.00000E+00
 
   -0.75118E+06         0.54068E+07         0.00000E+00
    0.54068E+07        -0.14903E+08         0.00000E+00
    0.00000E+00         0.00000E+00         0.00000E+00
 
   -0.28032E+08        -0.18156E+07         0.00000E+00
   -0.18156E+07        -0.21212E+08         0.00000E+00
    0.00000E+00         0.00000E+00         0.00000E+00
 
   -0.22890E+08        -0.28891E+07         0.00000E+00
   -0.28891E+07        -0.20690E+08         0.00000E+00
    0.00000E+00         0.00000E+00         0.00000E+00
 
   -0.19473E+08        -0.27265E+07         0.00000E+00
   -0.27265E+07        -0.19551E+08         0.00000E+00
    0.00000E+00         0.00000E+00         0.00000E+00
 
   -0.17305E+08        -0.23712E+07         0.00000E+00
   -0.23712E+07        -0.18283E+08         0.00000E+00
    0.00000E+00         0.00000E+00         0.00000E+00
 
   -0.15818E+08        -0.20054E+07         0.00000E+00
   -0.20054E+07        -0.17097E+08         0.00000E+00
    0.00000E+00         0.00000E+00         0.00000E+00
 
   -0.14720E+08        -0.16660E+07         0.00000E+00
   -0.16660E+07        -0.16056E+08         0.00000E+00
    0.00000E+00         0.00000E+00         0.00000E+00
 
   -0.13836E+08        -0.13563E+07         0.00000E+00
   -0.13563E+07        -0.15177E+08         0.00000E+00
    0.00000E+00         0.00000E+00         0.00000E+00
 
   -0.13049E+08        -0.10684E+07         0.00000E+00
   -0.10684E+07        -0.14464E+08         0.00000E+00
    0.00000E+00         0.00000E+00         0.00000E+00
 
   -0.12272E+08        -0.78937E+06         0.00000E+00
   -0.78937E+06        -0.13916E+08         0.00000E+00
    0.00000E+00         0.00000E+00         0.00000E+00
 
   -0.11425E+08        -0.50127E+06         0.00000E+00
   -0.50127E+06        -0.13543E+08         0.00000E+00
    0.00000E+00         0.00000E+00         0.00000E+00
 
   -0.10420E+08        -0.17634E+06         0.00000E+00
   -0.17634E+06        -0.13363E+08         0.00000E+00
    0.00000E+00         0.00000E+00         0.00000E+00
 
   -0.91408E+07         0.23418E+06         0.00000E+00
    0.23418E+06        -0.13419E+08         0.00000E+00
    0.00000E+00         0.00000E+00         0.00000E+00
 
   -0.74154E+07         0.82992E+06         0.00000E+00
    0.82992E+06        -0.13793E+08         0.00000E+00
    0.00000E+00         0.00000E+00         0.00000E+00
 
   -0.49433E+07         0.18664E+07         0.00000E+00
    0.18664E+07        -0.14655E+08         0.00000E+00
    0.00000E+00         0.00000E+00         0.00000E+00
 
   -0.17359E+07         0.42007E+07         0.00000E+00
    0.42007E+07        -0.16159E+08         0.00000E+00
    0.00000E+00         0.00000E+00         0.00000E+00
 
   -0.35298E+08        -0.11852E+07         0.00000E+00
   -0.11852E+07        -0.25272E+08         0.00000E+00
    0.00000E+00         0.00000E+00         0.00000E+00
 
   -0.28056E+08        -0.12213E+07         0.00000E+00
   -0.12213E+07        -0.23331E+08         0.00000E+00
    0.00000E+00         0.00000E+00         0.00000E+00
 
   -0.24429E+08        -0.10289E+07         0.00000E+00
   -0.10289E+07        -0.21267E+08         0.00000E+00
    0.00000E+00         0.00000E+00         0.00000E+00
 
   -0.22218E+08        -0.85909E+06         0.00000E+00
   -0.85909E+06        -0.19470E+08         0.00000E+00
    0.00000E+00         0.00000E+00         0.00000E+00
 
   -0.20736E+08        -0.71093E+06         0.00000E+00
   -0.71093E+06        -0.17954E+08         0.00000E+00
    0.00000E+00         0.00000E+00         0.00000E+00
 
   -0.19651E+08        -0.58339E+06         0.00000E+00
   -0.58339E+06        -0.16695E+08         0.00000E+00
    0.00000E+00         0.00000E+00         0.00000E+00
 
   -0.18776E+08        -0.47153E+06         0.00000E+00
   -0.47153E+06        -0.15665E+08         0.00000E+00
    0.00000E+00         0.00000E+00         0.00000E+00
 
   -0.17992E+08        -0.37014E+06         0.00000E+00
   -0.37014E+06        -0.14842E+08         0.00000E+00
    0.00000E+00         0.00000E+00         0.00000E+00
 
   -0.17208E+08        -0.27361E+06         0.00000E+00
   -0.27361E+06        -0.14212E+08         0.00000E+00
    0.00000E+00         0.00000E+00         0.00000E+00
 
   -0.16340E+08        -0.17519E+06         0.00000E+00
   -0.17519E+06        -0.13775E+08         0.00000E+00
    0.00000E+00         0.00000E+00         0.00000E+00
 
   -0.15290E+08        -0.65109E+05         0.00000E+00
   -0.65109E+05        -0.13544E+08         0.00000E+00
    0.00000E+00         0.00000E+00         0.00000E+00
 
   -0.13921E+08         0.73377E+05         0.00000E+00
    0.73377E+05        -0.13562E+08         0.00000E+00
    0.00000E+00         0.00000E+00         0.00000E+00
 
   -0.12000E+08         0.27647E+06         0.00000E+00
    0.27647E+06        -0.13919E+08         0.00000E+00
    0.00000E+00         0.00000E+00         0.00000E+00
 
   -0.90598E+07         0.62812E+06         0.00000E+00
    0.62812E+06        -0.14833E+08         0.00000E+00
    0.00000E+00         0.00000E+00         0.00000E+00
 
   -0.36281E+07         0.16804E+07         0.00000E+00
    0.16804E+07        -0.17017E+08         0.00000E+00
    0.00000E+00         0.00000E+00         0.00000E+00
 
TENSORS stresstot double 
   -0.55658E+08         0.84956E+04         0.00000E+00
    0.84956E+04        -0.59992E+08         0.00000E+00
    0.00000E+00         0.00000E+00        -0.59996E+08
 
   -0.55840E+08         0.23058E+05         0.00000E+00
    0.23058E+05        -0.59960E+08         0.00000E+00
    0.00000E+00         0.00000E+00        -0.59996E+08
 
   -0.56073E+08         0.34657E+05         0.00000E+00
    0.34657E+05        -0.59902E+08         0.00000E+00
    0.00000E+00         0.00000E+00        -0.59996E+08
 
   -0.56345E+08         0.43675E+05         0.00000E+00
    0.43675E+05        -0.59824E+08         0.00000E+00
    0.00000E+00         0.00000E+00        -0.59996E+08
 
   -0.56647E+08         0.50517E+05         0.00000E+00
    0.50517E+05        -0.59730E+08         0.00000E+00
    0.00000E+00         0.00000E+00        -0.59996E+08
 
   -0.56970E+08         0.55583E+05         0.00000E+00
    0.55583E+05        -0.59624E+08         0.00000E+00
    0.00000E+00         0.00000E+00        -0.59996E+08
 
   -0.57305E+08         0.59242E+05         0.00000E+00
    0.59242E+05        -0.59510E+08         0.00000E+00
    0.00000E+00         0.00000E+00        -0.59996E+08
 
   -0.57646E+08         0.61818E+05         0.00000E+00
    0.61818E+05        -0.59389E+08         0.00000E+00
    0.00000E+00         0.00000E+00        -0.59996E+08
 
   -0.57987E+08         0.63579E+05         0.00000E+00
    0.63579E+05        -0.59263E+08         0.00000E+00
    0.00000E+00         0.00000E+00        -0.59996E+08
 
   -0.58325E+08         0.64737E+05         0.00000E+00
    0.64737E+05        -0.59135E+08         0.00000E+00
    0.00000E+00         0.00000E+00        -0.59996E+08
 
   -0.58656E+08         0.65457E+05         0.00000E+00
    0.65457E+05        -0.59005E+08         0.00000E+00
    0.00000E+00         0.00000E+00        -0.59996E+08
 
   -0.58976E+08         0.65864E+05         0.00000E+00
    0.65864E+05        -0.58874E+08         0.00000E+00
    0.00000E+00         0.00000E+00        -0.59996E+08
 
   -0.59285E+08         0.66065E+05         0.00000E+00
    0.66065E+05        -0.58742E+08         0.00000E+00
    0.00000E+00         0.00000E+00        -0.59996E+08
 
   -0.59580E+08         0.66165E+05         0.00000E+00
    0.66165E+05        -0.58610E+08         0.00000E+00
    0.00000E+00         0.00000E+00        -0.59996E+08
 
   -0.59860E+08         0.66291E+05         0.00000E+00
    0.66291E+05        -0.58478E+08         0.00000E+00
    0.00000E+00         0.00000E+00        -0.59996E+08
 
   -0.55626E+08         0.25435E+05         0.00000E+00
    0.25435E+05        -0.59992E+08         0.00000E+00
    0.00000E+00         0.00000E+00        -0.59995E+08
 
   -0.55814E+08         0.68983E+05         0.00000E+00
    0.68983E+05        -0.59960E+08         0.00000E+00
    0.00000E+00         0.00000E+00        -0.59995E+08
 
   -0.56052E+08         0.10362E+06         0.00000E+00
    0.10362E+06        -0.59903E+08         0.00000E+00
    0.00000E+00         0.00000E+00        -0.59995E+08
 
   -0.56330E+08         0.13051E+06         0.00000E+00
    0.13051E+06        -0.59826E+08         0.00000E+00
    0.00000E+00         0.00000E+00        -0.59995E+08
 
   -0.56635E+08         0.15090E+06         0.00000E+00
    0.15090E+06        -0.59733E+08         0.00000E+00
    0.00000E+00         0.00000E+00        -0.59996E+08
 
   -0.56961E+08         0.16600E+06         0.00000E+00
    0.16600E+06        -0.59628E+08         0.00000E+00
    0.00000E+00         0.00000E+00        -0.59996E+08
 
   -0.57298E+08         0.17692E+06         0.00000E+00
    0.17692E+06        -0.59515E+08         0.00000E+00
    0.00000E+00         0.00000E+00        -0.59996E+08
 
   -0.57641E+08         0.18463E+06         0.00000E+00
    0.18463E+06        -0.59396E+08         0.00000E+00
    0.00000E+00         0.00000E+00        -0.59996E+08
 
   -0.57984E+08         0.18995E+06         0.00000E+00
    0.18995E+06        -0.59273E+08         0.00000E+00
    0.00000E+00         0.00000E+00        -0.59996E+08
 
   -0.58323E+08         0.19350E+06         0.00000E+00
    0.19350E+06        -0.59146E+08         0.00000E+00
    0.00000E+00         0.00000E+00        -0.59996E+08
 
   -0.58655E+08         0.19576E+06         0.00000E+00
    0.19576E+06        -0.59017E+08         0.00000E+00
    0.00000E+00         0.00000E+00        -0.59996E+08
 
   -0.58976E+08         0.19710E+06         0.00000E+00
    0.19710E+06        -0.58887E+08         0.00000E+00
    0.00000E+00         0.00000E+00        -0.59996E+08
 
   -0.59285E+08         0.19783E+06         0.00000E+00
    0.19783E+06        -0.58756E+08         0.00000E+00
    0.00000E+00         0.00000E+00        -0.59996E+08
 
   -0.59579E+08         0.19824E+06         0.00000E+00
    0.19824E+06        -0.58625E+08         0.00000E+00
    0.00000E+00         0.00000E+00        -0.59996E+08
 
   -0.59859E+08         0.19871E+06         0.00000E+00
    0.19871E+06        -0.58493E+08         0.00000E+00
    0.00000E+00         0.00000E+00        -0.59996E+08
 
   -0.55562E+08         0.42212E+05         0.00000E+00
    0.42212E+05        -0.59992E+08         0.00000E+00
    0.00000E+00         0.00000E+00        -0.59994E+08
 
   -0.55762E+08         0.11432E+06         0.00000E+00
    0.11432E+06        -0.59961E+08         0.00000E+00
    0.00000E+00         0.00000E+00        -0.59994E+08
 
   -0.56012E+08         0.17150E+06         0.00000E+00
    0.17150E+06        -0.59905E+08         0.00000E+00
    0.00000E+00         0.00000E+00        -0.59994E+08
 
   -0.56298E+08         0.21579E+06         0.00000E+00
    0.21579E+06        -0.59829E+08         0.00000E+00
    0.00000E+00         0.00000E+00        -0.59994E+08
 
   -0.56612E+08         0.24930E+06         0.00000E+00
    0.24930E+06        -0.59739E+08         0.00000E+00
    0.00000E+00         0.00000E+00        -0.59994E+08
 
   -0.56944E+08         0.27411E+06         0.00000E+00
    0.27411E+06        -0.59637E+08         0.00000E+00
    0.00000E+00         0.00000E+00        -0.59994E+08
 
   -0.57286E+08         0.29212E+06         0.00000E+00
    0.29212E+06        -0.59528E+08         0.00000E+00
    0.00000E+00         0.00000E+00        -0.59994E+08
 
   -0.57633E+08         0.30495E+06         0.00000E+00
    0.30495E+06        -0.59412E+08         0.00000E+00
    0.00000E+00         0.00000E+00        -0.59994E+08
 
   -0.57978E+08         0.31393E+06         0.00000E+00
    0.31393E+06        -0.59291E+08         0.00000E+00
    0.00000E+00         0.00000E+00        -0.59994E+08
 
   -0.58319E+08         0.32010E+06         0.00000E+00
    0.32010E+06        -0.59168E+08         0.00000E+00
    0.00000E+00         0.00000E+00        -0.59994E+08
 
   -0.58652E+08         0.32422E+06         0.00000E+00
    0.32422E+06        -0.59042E+08         0.00000E+00
    0.00000E+00         0.00000E+00        -0.59994E+08
 
   -0.58974E+08         0.32688E+06         0.00000E+00
    0.32688E+06        -0.58914E+08         0.00000E+00
    0.00000E+00         0.00000E+00        -0.59994E+08
 
   -0.59284E+08         0.32851E+06         0.00000E+00
    0.32851E+06        -0.58785E+08         0.00000E+00
    0.00000E+00         0.00000E+00        -0.59994E+08
 
   -0.59579E+08         0.32958E+06         0.00000E+00
    0.32958E+06        -0.58654E+08         0.00000E+00
    0.00000E+00         0.00000E+00        -0.59994E+08
 
   -0.59858E+08         0.33063E+06         0.00000E+00
    0.33063E+06        -0.58523E+08         0.00000E+00
    0.00000E+00         0.00000E+00        -0.59994E+08
 
   -0.55466E+08         0.58697E+05         0.00000E+00
    0.58697E+05        -0.59992E+08         0.00000E+00
    0.00000E+00         0.00000E+00        -0.59992E+08
 
   -0.55685E+08         0.15861E+06         0.00000E+00
    0.15861E+06        -0.59962E+08         0.00000E+00
    0.00000E+00         0.00000E+00        -0.59992E+08
 
   -0.55952E+08         0.23749E+06         0.00000E+00
    0.23749E+06        -0.59908E+08         0.00000E+00
    0.00000E+00         0.00000E+00        -0.59992E+08
 
   -0.56253E+08         0.29833E+06         0.00000E+00
    0.29833E+06        -0.59835E+08         0.00000E+00
    0.00000E+00         0.00000E+00        -0.59992E+08
 
   -0.56578E+08         0.34426E+06         0.00000E+00
    0.34426E+06        -0.59748E+08         0.00000E+00
    0.00000E+00         0.00000E+00        -0.59992E+08
 
   -0.56919E+08         0.37827E+06         0.00000E+00
    0.37827E+06        -0.59651E+08         0.00000E+00
    0.00000E+00         0.00000E+00        -0.59992E+08
 
   -0.57268E+08         0.40308E+06         0.00000E+00
    0.40308E+06        -0.59547E+08         0.00000E+00
    0.00000E+00         0.00000E+00        -0.59992E+08
 
   -0.57620E+08         0.42097E+06         0.00000E+00
    0.42097E+06        -0.59436E+08         0.00000E+00
    0.00000E+00         0.00000E+00        -0.59992E+08
 
   -0.57969E+08         0.43382E+06         0.00000E+00
    0.43382E+06        -0.59321E+08         0.00000E+00
    0.00000E+00         0.00000E+00        -0.59992E+08
 
   -0.58313E+08         0.44301E+06         0.00000E+00
    0.44301E+06        -0.59202E+08         0.00000E+00
    0.00000E+00         0.00000E+00        -0.59992E+08
 
   -0.58648E+08         0.44957E+06         0.00000E+00
    0.44957E+06        -0.59080E+08         0.00000E+00
    0.00000E+00         0.00000E+00        -0.59992E+08
 
   -0.58971E+08         0.45419E+06         0.00000E+00
    0.45419E+06        -0.58956E+08         0.00000E+00
    0.00000E+00         0.00000E+00        -0.59992E+08
 
   -0.59282E+08         0.45740E+06         0.00000E+00
    0.45740E+06        -0.58829E+08         0.00000E+00
    0.00000E+00         0.00000E+00        -0.59992E+08
 
   -0.59577E+08         0.45973E+06         0.00000E+00
    0.45973E+06        -0.58700E+08         0.00000E+00
    0.00000E+00         0.00000E+00        -0.59992E+08
 
   -0.59856E+08         0.46183E+06         0.00000E+00
    0.46183E+06        -0.58570E+08         0.00000E+00
    0.00000E+00         0.00000E+00        -0.59992E+08
 
   -0.55339E+08         0.74727E+05         0.00000E+00
    0.74727E+05        -0.59992E+08         0.00000E+00
    0.00000E+00         0.00000E+00        -0.59989E+08
 
   -0.55585E+08         0.20132E+06         0.00000E+00
    0.20132E+06        -0.59964E+08         0.00000E+00
    0.00000E+00         0.00000E+00        -0.59989E+08
 
   -0.55873E+08         0.30063E+06         0.00000E+00
    0.30063E+06        -0.59912E+08         0.00000E+00
    0.00000E+00         0.00000E+00        -0.59989E+08
 
   -0.56193E+08         0.37682E+06         0.00000E+00
    0.37682E+06        -0.59843E+08         0.00000E+00
    0.00000E+00         0.00000E+00        -0.59989E+08
 
   -0.56533E+08         0.43414E+06         0.00000E+00
    0.43414E+06        -0.59762E+08         0.00000E+00
    0.00000E+00         0.00000E+00        -0.59989E+08
 
   -0.56886E+08         0.47662E+06         0.00000E+00
    0.47662E+06        -0.59672E+08         0.00000E+00
    0.00000E+00         0.00000E+00        -0.59989E+08
 
   -0.57244E+08         0.50783E+06         0.00000E+00
    0.50783E+06        -0.59574E+08         0.00000E+00
    0.00000E+00         0.00000E+00        -0.59989E+08
 
   -0.57602E+08         0.53076E+06         0.00000E+00
    0.53076E+06        -0.59470E+08         0.00000E+00
    0.00000E+00         0.00000E+00        -0.59989E+08
 
   -0.57956E+08         0.54779E+06         0.00000E+00
    0.54779E+06        -0.59362E+08         0.00000E+00
    0.00000E+00         0.00000E+00        -0.59989E+08
 
   -0.58303E+08         0.56063E+06         0.00000E+00
    0.56063E+06        -0.59250E+08         0.00000E+00
    0.00000E+00         0.00000E+00        -0.59989E+08
 
   -0.58641E+08         0.57046E+06         0.00000E+00
    0.57046E+06        -0.59134E+08         0.00000E+00
    0.00000E+00         0.00000E+00        -0.59989E+08
 
   -0.58966E+08         0.57803E+06         0.00000E+00
    0.57803E+06        -0.59014E+08         0.00000E+00
    0.00000E+00         0.00000E+00        -0.59989E+08
 
   -0.59278E+08         0.58383E+06         0.00000E+00
    0.58383E+06        -0.58891E+08         0.00000E+00
    0.00000E+00         0.00000E+00        -0.59989E+08
 
   -0.59574E+08         0.58832E+06         0.00000E+00
    0.58832E+06        -0.58764E+08         0.00000E+00
    0.00000E+00         0.00000E+00        -0.59989E+08
 
   -0.59853E+08         0.59215E+06         0.00000E+00
    0.59215E+06        -0.58635E+08         0.00000E+00
    0.00000E+00         0.00000E+00        -0.59989E+08
 
   -0.55183E+08         0.90093E+05         0.00000E+00
    0.90093E+05        -0.59993E+08         0.00000E+00
    0.00000E+00         0.00000E+00        -0.59984E+08
 
   -0.55461E+08         0.24176E+06         0.00000E+00
    0.24176E+06        -0.59966E+08         0.00000E+00
    0.00000E+00         0.00000E+00        -0.59984E+08
 
   -0.55778E+08         0.35976E+06         0.00000E+00
    0.35976E+06        -0.59918E+08         0.00000E+00
    0.00000E+00         0.00000E+00        -0.59984E+08
 
   -0.56121E+08         0.44967E+06         0.00000E+00
    0.44967E+06        -0.59855E+08         0.00000E+00
    0.00000E+00         0.00000E+00        -0.59984E+08
 
   -0.56480E+08         0.51703E+06         0.00000E+00
    0.51703E+06        -0.59781E+08         0.00000E+00
    0.00000E+00         0.00000E+00        -0.59984E+08
 
   -0.56846E+08         0.56701E+06         0.00000E+00
    0.56701E+06        -0.59699E+08         0.00000E+00
    0.00000E+00         0.00000E+00        -0.59984E+08
 
   -0.57215E+08         0.60414E+06         0.00000E+00
    0.60414E+06        -0.59611E+08         0.00000E+00
    0.00000E+00         0.00000E+00        -0.59984E+08
 
   -0.57580E+08         0.63212E+06         0.00000E+00
    0.63212E+06        -0.59517E+08         0.00000E+00
    0.00000E+00         0.00000E+00        -0.59984E+08
 
   -0.57939E+08         0.65381E+06         0.00000E+00
    0.65381E+06        -0.59418E+08         0.00000E+00
    0.00000E+00         0.00000E+00        -0.59984E+08
 
   -0.58290E+08         0.67118E+06         0.00000E+00
    0.67118E+06        -0.59314E+08         0.00000E+00
    0.00000E+00         0.00000E+00        -0.59984E+08
 
   -0.58630E+08         0.68548E+06         0.00000E+00
    0.68548E+06        -0.59205E+08         0.00000E+00
    0.00000E+00         0.00000E+00        -0.59984E+08
 
   -0.58957E+08         0.69737E+06         0.00000E+00
    0.69737E+06        -0.59091E+08         0.00000E+00
    0.00000E+00         0.00000E+00        -0.59984E+08
 
   -0.59271E+08         0.70715E+06         0.00000E+00
    0.70715E+06        -0.58972E+08         0.00000E+00
    0.00000E+00         0.00000E+00        -0.59984E+08
 
   -0.59568E+08         0.71508E+06         0.00000E+00
    0.71508E+06        -0.58849E+08         0.00000E+00
    0.00000E+00         0.00000E+00        -0.59984E+08
 
   -0.59848E+08         0.72163E+06         0.00000E+00
    0.72163E+06        -0.58721E+08         0.00000E+00
    0.00000E+00         0.00000E+00        -0.59984E+08
 
   -0.54999E+08         0.10452E+06         0.00000E+00
    0.10452E+06        -0.59993E+08         0.00000E+00
    0.00000E+00         0.00000E+00        -0.59976E+08
 
   -0.55317E+08         0.27909E+06         0.00000E+00
    0.27909E+06        -0.59969E+08         0.00000E+00
    0.00000E+00         0.00000E+00        -0.59976E+08
 
   -0.55668E+08         0.41350E+06         0.00000E+00
    0.41350E+06        -0.59926E+08         0.00000E+00
    0.00000E+00         0.00000E+00        -0.59976E+08
 
   -0.56038E+08         0.51500E+06         0.00000E+00
    0.51500E+06        -0.59870E+08         0.00000E+00
    0.00000E+00         0.00000E+00        -0.59976E+08
 
   -0.56418E+08         0.59066E+06         0.00000E+00
    0.59066E+06        -0.59806E+08         0.00000E+00
    0.00000E+00         0.00000E+00        -0.59976E+08
 
   -0.56800E+08         0.64696E+06         0.00000E+00
    0.64696E+06        -0.59735E+08         0.00000E+00
    0.00000E+00         0.00000E+00        -0.59976E+08
 
   -0.57180E+08         0.68945E+06         0.00000E+00
    0.68945E+06        -0.59659E+08         0.00000E+00
    0.00000E+00         0.00000E+00        -0.59976E+08
 
   -0.57553E+08         0.72257E+06         0.00000E+00
    0.72257E+06        -0.59577E+08         0.00000E+00
    0.00000E+00         0.00000E+00        -0.59976E+08
 
   -0.57917E+08         0.74960E+06         0.00000E+00
    0.74960E+06        -0.59490E+08         0.00000E+00
    0.00000E+00         0.00000E+00        -0.59976E+08
 
   -0.58271E+08         0.77272E+06         0.00000E+00
    0.77272E+06        -0.59397E+08         0.00000E+00
    0.00000E+00         0.00000E+00        -0.59976E+08
 
   -0.58614E+08         0.79309E+06         0.00000E+00
    0.79309E+06        -0.59298E+08         0.00000E+00
    0.00000E+00         0.00000E+00        -0.59976E+08
 
   -0.58944E+08         0.81114E+06         0.00000E+00
    0.81114E+06        -0.59191E+08         0.00000E+00
    0.00000E+00         0.00000E+00        -0.59976E+08
 
   -0.59259E+08         0.82681E+06         0.00000E+00
    0.82681E+06        -0.59077E+08         0.00000E+00
    0.00000E+00         0.00000E+00        -0.59976E+08
 
   -0.59559E+08         0.83991E+06         0.00000E+00
    0.83991E+06        -0.58956E+08         0.00000E+00
    0.00000E+00         0.00000E+00        -0.59976E+08
 
   -0.59840E+08         0.85053E+06         0.00000E+00
    0.85053E+06        -0.58830E+08         0.00000E+00
    0.00000E+00         0.00000E+00        -0.59976E+08
 
   -0.54790E+08         0.11767E+06         0.00000E+00
    0.11767E+06        -0.59994E+08         0.00000E+00
    0.00000E+00         0.00000E+00        -0.59965E+08
 
   -0.55155E+08         0.31225E+06         0.00000E+00
    0.31225E+06        -0.59973E+08         0.00000E+00
    0.00000E+00         0.00000E+00        -0.59965E+08
 
   -0.55545E+08         0.46011E+06         0.00000E+00
    0.46011E+06        -0.59936E+08         0.00000E+00
    0.00000E+00         0.00000E+00        -0.59965E+08
 
   -0.55947E+08         0.57053E+06         0.00000E+00
    0.57053E+06        -0.59890E+08         0.00000E+00
    0.00000E+00         0.00000E+00        -0.59966E+08
 
   -0.56350E+08         0.65238E+06         0.00000E+00
    0.65238E+06        -0.59838E+08         0.00000E+00
    0.00000E+00         0.00000E+00        -0.59966E+08
 
   -0.56749E+08         0.71359E+06         0.00000E+00
    0.71359E+06        -0.59781E+08         0.00000E+00
    0.00000E+00         0.00000E+00        -0.59966E+08
 
   -0.57140E+08         0.76082E+06         0.00000E+00
    0.76082E+06        -0.59720E+08         0.00000E+00
    0.00000E+00         0.00000E+00        -0.59966E+08
 
   -0.57520E+08         0.79927E+06         0.00000E+00
    0.79927E+06        -0.59654E+08         0.00000E+00
    0.00000E+00         0.00000E+00        -0.59966E+08
 
   -0.57889E+08         0.83262E+06         0.00000E+00
    0.83262E+06        -0.59582E+08         0.00000E+00
    0.00000E+00         0.00000E+00        -0.59966E+08
 
   -0.58246E+08         0.86309E+06         0.00000E+00
    0.86309E+06        -0.59503E+08         0.00000E+00
    0.00000E+00         0.00000E+00        -0.59966E+08
 
   -0.58590E+08         0.89165E+06         0.00000E+00
    0.89165E+06        -0.59414E+08         0.00000E+00
    0.00000E+00         0.00000E+00        -0.59966E+08
 
   -0.58922E+08         0.91828E+06         0.00000E+00
    0.91828E+06        -0.59316E+08         0.00000E+00
    0.00000E+00         0.00000E+00        -0.59966E+08
 
   -0.59241E+08         0.94233E+06         0.00000E+00
    0.94233E+06        -0.59207E+08         0.00000E+00
    0.00000E+00         0.00000E+00        -0.59966E+08
 
   -0.59544E+08         0.96290E+06         0.00000E+00
    0.96290E+06        -0.59089E+08         0.00000E+00
    0.00000E+00         0.00000E+00        -0.59966E+08
 
   -0.59828E+08         0.97941E+06         0.00000E+00
    0.97941E+06        -0.58964E+08         0.00000E+00
    0.00000E+00         0.00000E+00        -0.59966E+08
 
   -0.54558E+08         0.12908E+06         0.00000E+00
    0.12908E+06        -0.59995E+08         0.00000E+00
    0.00000E+00         0.00000E+00        -0.59950E+08
 
   -0.54979E+08         0.33992E+06         0.00000E+00
    0.33992E+06        -0.59978E+08         0.00000E+00
    0.00000E+00         0.00000E+00        -0.59950E+08
 
   -0.55414E+08         0.49750E+06         0.00000E+00
    0.49750E+06        -0.59950E+08         0.00000E+00
    0.00000E+00         0.00000E+00        -0.59950E+08
 
   -0.55849E+08         0.61356E+06         0.00000E+00
    0.61356E+06        -0.59916E+08         0.00000E+00
    0.00000E+00         0.00000E+00        -0.59950E+08
 
   -0.56278E+08         0.69904E+06         0.00000E+00
    0.69904E+06        -0.59879E+08         0.00000E+00
    0.00000E+00         0.00000E+00        -0.59950E+08
 
   -0.56694E+08         0.76352E+06         0.00000E+00
    0.76352E+06        -0.59840E+08         0.00000E+00
    0.00000E+00         0.00000E+00        -0.59950E+08
 
   -0.57095E+08         0.81487E+06         0.00000E+00
    0.81487E+06        -0.59798E+08         0.00000E+00
    0.00000E+00         0.00000E+00        -0.59950E+08
 
   -0.57481E+08         0.85903E+06         0.00000E+00
    0.85903E+06        -0.59751E+08         0.00000E+00
    0.00000E+00         0.00000E+00        -0.59950E+08
 
   -0.57853E+08         0.89999E+06         0.00000E+00
    0.89999E+06        -0.59697E+08         0.00000E+00
    0.00000E+00         0.00000E+00        -0.59950E+08
 
   -0.58211E+08         0.93992E+06         0.00000E+00
    0.93992E+06        -0.59633E+08         0.00000E+00
    0.00000E+00         0.00000E+00        -0.59951E+08
 
   -0.58557E+08         0.97940E+06         0.00000E+00
    0.97940E+06        -0.59558E+08         0.00000E+00
    0.00000E+00         0.00000E+00        -0.59951E+08
 
   -0.58891E+08         0.10177E+07         0.00000E+00
    0.10177E+07        -0.59469E+08         0.00000E+00
    0.00000E+00         0.00000E+00        -0.59951E+08
 
   -0.59213E+08         0.10533E+07         0.00000E+00
    0.10533E+07        -0.59368E+08         0.00000E+00
    0.00000E+00         0.00000E+00        -0.59951E+08
 
   -0.59520E+08         0.10844E+07         0.00000E+00
    0.10844E+07        -0.59253E+08         0.00000E+00
    0.00000E+00         0.00000E+00        -0.59951E+08
 
   -0.59810E+08         0.11092E+07         0.00000E+00
    0.11092E+07        -0.59127E+08         0.00000E+00
    0.00000E+00         0.00000E+00        -0.59951E+08
 
   -0.54308E+08         0.13820E+06         0.00000E+00
    0.13820E+06        -0.59997E+08         0.00000E+00
    0.00000E+00         0.00000E+00        -0.59928E+08
 
   -0.54792E+08         0.36048E+06         0.00000E+00
    0.36048E+06        -0.59984E+08         0.00000E+00
    0.00000E+00         0.00000E+00        -0.59928E+08
 
   -0.55277E+08         0.52315E+06         0.00000E+00
    0.52315E+06        -0.59967E+08         0.00000E+00
    0.00000E+00         0.00000E+00        -0.59928E+08
 
   -0.55750E+08         0.64087E+06         0.00000E+00
    0.64087E+06        -0.59949E+08         0.00000E+00
    0.00000E+00         0.00000E+00        -0.59929E+08
 
   -0.56204E+08         0.72697E+06         0.00000E+00
    0.72697E+06        -0.59931E+08         0.00000E+00
    0.00000E+00         0.00000E+00        -0.59929E+08
 
   -0.56636E+08         0.79289E+06         0.00000E+00
    0.79289E+06        -0.59914E+08         0.00000E+00
    0.00000E+00         0.00000E+00        -0.59929E+08
 
   -0.57046E+08         0.84776E+06         0.00000E+00
    0.84776E+06        -0.59895E+08         0.00000E+00
    0.00000E+00         0.00000E+00        -0.59929E+08
 
   -0.57435E+08         0.89823E+06         0.00000E+00
    0.89823E+06        -0.59871E+08         0.00000E+00
    0.00000E+00         0.00000E+00        -0.59929E+08
 
   -0.57807E+08         0.94854E+06         0.00000E+00
    0.94854E+06        -0.59838E+08         0.00000E+00
    0.00000E+00         0.00000E+00        -0.59929E+08
 
   -0.58165E+08         0.10006E+07         0.00000E+00
    0.10006E+07        -0.59793E+08         0.00000E+00
    0.00000E+00         0.00000E+00        -0.59929E+08
 
   -0.58510E+08         0.10545E+07         0.00000E+00
    0.10545E+07        -0.59733E+08         0.00000E+00
    0.00000E+00         0.00000E+00        -0.59929E+08
 
   -0.58846E+08         0.11084E+07         0.00000E+00
    0.11084E+07        -0.59656E+08         0.00000E+00
    0.00000E+00         0.00000E+00        -0.59929E+08
 
   -0.59172E+08         0.11597E+07         0.00000E+00
    0.11597E+07        -0.59562E+08         0.00000E+00
    0.00000E+00         0.00000E+00        -0.59929E+08
 
   -0.59486E+08         0.12050E+07         0.00000E+00
    0.12050E+07        -0.59449E+08         0.00000E+00
    0.00000E+00         0.00000E+00        -0.59929E+08
 
   -0.59784E+08         0.12414E+07         0.00000E+00
    0.12414E+07        -0.59322E+08         0.00000E+00
    0.00000E+00         0.00000E+00        -0.59929E+08
 
   -0.54046E+08         0.14434E+06         0.00000E+00
    0.14434E+06        -0.59998E+08         0.00000E+00
    0.00000E+00         0.00000E+00        -0.59898E+08
 
   -0.54601E+08         0.37197E+06         0.00000E+00
    0.37197E+06        -0.59993E+08         0.00000E+00
    0.00000E+00         0.00000E+00        -0.59898E+08
 
   -0.55139E+08         0.53406E+06         0.00000E+00
    0.53406E+06        -0.59989E+08         0.00000E+00
    0.00000E+00         0.00000E+00        -0.59898E+08
 
   -0.55651E+08         0.64869E+06         0.00000E+00
    0.64869E+06        -0.59990E+08         0.00000E+00
    0.00000E+00         0.00000E+00        -0.59898E+08
 
   -0.56130E+08         0.73196E+06         0.00000E+00
    0.73196E+06        -0.59995E+08         0.00000E+00
    0.00000E+00         0.00000E+00        -0.59898E+08
 
   -0.56576E+08         0.79730E+06         0.00000E+00
    0.79730E+06        -0.60005E+08         0.00000E+00
    0.00000E+00         0.00000E+00        -0.59898E+08
 
   -0.56991E+08         0.85517E+06         0.00000E+00
    0.85517E+06        -0.60013E+08         0.00000E+00
    0.00000E+00         0.00000E+00        -0.59898E+08
 
   -0.57381E+08         0.91290E+06         0.00000E+00
    0.91290E+06        -0.60016E+08         0.00000E+00
    0.00000E+00         0.00000E+00        -0.59898E+08
 
   -0.57749E+08         0.97482E+06         0.00000E+00
    0.97482E+06        -0.60009E+08         0.00000E+00
    0.00000E+00         0.00000E+00        -0.59898E+08
 
   -0.58103E+08         0.10425E+07         0.00000E+00
    0.10425E+07        -0.59986E+08         0.00000E+00
    0.00000E+00         0.00000E+00        -0.59898E+08
 
   -0.58446E+08         0.11149E+07         0.00000E+00
    0.11149E+07        -0.59944E+08         0.00000E+00
    0.00000E+00         0.00000E+00        -0.59898E+08
 
   -0.58783E+08         0.11893E+07         0.00000E+00
    0.11893E+07        -0.59880E+08         0.00000E+00
    0.00000E+00         0.00000E+00        -0.59898E+08
 
   -0.59113E+08         0.12613E+07         0.00000E+00
    0.12613E+07        -0.59793E+08         0.00000E+00
    0.00000E+00         0.00000E+00        -0.59898E+08
 
   -0.59436E+08         0.13258E+07         0.00000E+00
    0.13258E+07        -0.59683E+08         0.00000E+00
    0.00000E+00         0.00000E+00        -0.59898E+08
 
   -0.59747E+08         0.13779E+07         0.00000E+00
    0.13779E+07        -0.59552E+08         0.00000E+00
    0.00000E+00         0.00000E+00        -0.59898E+08
 
   -0.53777E+08         0.14666E+06         0.00000E+00
    0.14666E+06        -0.60001E+08         0.00000E+00
    0.00000E+00         0.00000E+00        -0.59854E+08
 
   -0.54411E+08         0.37204E+06         0.00000E+00
    0.37204E+06        -0.60004E+08         0.00000E+00
    0.00000E+00         0.00000E+00        -0.59854E+08
 
   -0.55007E+08         0.52670E+06         0.00000E+00
    0.52670E+06        -0.60016E+08         0.00000E+00
    0.00000E+00         0.00000E+00        -0.59854E+08
 
   -0.55558E+08         0.63271E+06         0.00000E+00
    0.63271E+06        -0.60040E+08         0.00000E+00
    0.00000E+00         0.00000E+00        -0.59854E+08
 
   -0.56059E+08         0.70923E+06         0.00000E+00
    0.70923E+06        -0.60074E+08         0.00000E+00
    0.00000E+00         0.00000E+00        -0.59855E+08
 
   -0.56515E+08         0.77188E+06         0.00000E+00
    0.77188E+06        -0.60115E+08         0.00000E+00
    0.00000E+00         0.00000E+00        -0.59855E+08
 
   -0.56931E+08         0.83242E+06         0.00000E+00
    0.83242E+06        -0.60156E+08         0.00000E+00
    0.00000E+00         0.00000E+00        -0.59855E+08
 
   -0.57315E+08         0.89876E+06         0.00000E+00
    0.89876E+06        -0.60191E+08         0.00000E+00
    0.00000E+00         0.00000E+00        -0.59855E+08
 
   -0.57676E+08         0.97514E+06         0.00000E+00
    0.97514E+06        -0.60213E+08         0.00000E+00
    0.00000E+00         0.00000E+00        -0.59855E+08
 
   -0.58022E+08         0.10625E+07         0.00000E+00
    0.10625E+07        -0.60216E+08         0.00000E+00
    0.00000E+00         0.00000E+00        -0.59855E+08
 
   -0.58360E+08         0.11587E+07         0.00000E+00
    0.11587E+07        -0.60194E+08         0.00000E+00
    0.00000E+00         0.00000E+00        -0.59855E+08
 
   -0.58695E+08         0.12595E+07         0.00000E+00
    0.12595E+07        -0.60145E+08         0.00000E+00
    0.00000E+00         0.00000E+00        -0.59855E+08
 
   -0.59031E+08         0.13584E+07         0.00000E+00
    0.13584E+07        -0.60065E+08         0.00000E+00
    0.00000E+00         0.00000E+00        -0.59855E+08
 
   -0.59365E+08         0.14483E+07         0.00000E+00
    0.14483E+07        -0.59956E+08         0.00000E+00
    0.00000E+00         0.00000E+00        -0.59855E+08
 
   -0.59693E+08         0.15214E+07         0.00000E+00
    0.15214E+07        -0.59819E+08         0.00000E+00
    0.00000E+00         0.00000E+00        -0.59855E+08
 
   -0.53511E+08         0.14412E+06         0.00000E+00
    0.14412E+06        -0.60004E+08         0.00000E+00
    0.00000E+00         0.00000E+00        -0.59794E+08
 
   -0.54231E+08         0.35793E+06         0.00000E+00
    0.35793E+06        -0.60018E+08         0.00000E+00
    0.00000E+00         0.00000E+00        -0.59794E+08
 
   -0.54888E+08         0.49700E+06         0.00000E+00
    0.49700E+06        -0.60050E+08         0.00000E+00
    0.00000E+00         0.00000E+00        -0.59794E+08
 
   -0.55475E+08         0.58802E+06         0.00000E+00
    0.58802E+06        -0.60102E+08         0.00000E+00
    0.00000E+00         0.00000E+00        -0.59794E+08
 
   -0.55996E+08         0.65352E+06         0.00000E+00
    0.65352E+06        -0.60169E+08         0.00000E+00
    0.00000E+00         0.00000E+00        -0.59794E+08
 
   -0.56456E+08         0.71134E+06         0.00000E+00
    0.71134E+06        -0.60247E+08         0.00000E+00
    0.00000E+00         0.00000E+00        -0.59794E+08
 
   -0.56865E+08         0.77449E+06         0.00000E+00
    0.77449E+06        -0.60326E+08         0.00000E+00
    0.00000E+00         0.00000E+00        -0.59794E+08
 
   -0.57237E+08         0.85129E+06         0.00000E+00
    0.85129E+06        -0.60397E+08         0.00000E+00
    0.00000E+00         0.00000E+00        -0.59794E+08
 
   -0.57583E+08         0.94569E+06         0.00000E+00
    0.94569E+06        -0.60453E+08         0.00000E+00
    0.00000E+00         0.00000E+00        -0.59794E+08
 
   -0.57916E+08         0.10577E+07         0.00000E+00
    0.10577E+07        -0.60485E+08         0.00000E+00
    0.00000E+00         0.00000E+00        -0.59795E+08
 
   -0.58245E+08         0.11840E+07         0.00000E+00
    0.11840E+07        -0.60486E+08         0.00000E+00
    0.00000E+00         0.00000E+00        -0.59795E+08
 
   -0.58577E+08         0.13181E+07         0.00000E+00
    0.13181E+07        -0.60452E+08         0.00000E+00
    0.00000E+00         0.00000E+00        -0.59795E+08
 
   -0.58918E+08         0.14516E+07         0.00000E+00
    0.14516E+07        -0.60380E+08         0.00000E+00
    0.00000E+00         0.00000E+00        -0.59795E+08
 
   -0.59267E+08         0.15742E+07         0.00000E+00
    0.15742E+07        -0.60270E+08         0.00000E+00
    0.00000E+00         0.00000E+00        -0.59795E+08
 
   -0.59619E+08         0.16753E+07         0.00000E+00
    0.16753E+07        -0.60126E+08         0.00000E+00
    0.00000E+00         0.00000E+00        -0.59795E+08
 
   -0.53259E+08         0.13553E+06         0.00000E+00
    0.13553E+06        -0.60007E+08         0.00000E+00
    0.00000E+00         0.00000E+00        -0.59710E+08
 
   -0.54071E+08         0.32642E+06         0.00000E+00
    0.32642E+06        -0.60034E+08         0.00000E+00
    0.00000E+00         0.00000E+00        -0.59710E+08
 
   -0.54788E+08         0.44039E+06         0.00000E+00
    0.44039E+06        -0.60091E+08         0.00000E+00
    0.00000E+00         0.00000E+00        -0.59710E+08
 
   -0.55409E+08         0.50926E+06         0.00000E+00
    0.50926E+06        -0.60176E+08         0.00000E+00
    0.00000E+00         0.00000E+00        -0.59710E+08
 
   -0.55942E+08         0.55916E+06         0.00000E+00
    0.55916E+06        -0.60283E+08         0.00000E+00
    0.00000E+00         0.00000E+00        -0.59710E+08
 
   -0.56397E+08         0.61016E+06         0.00000E+00
    0.61016E+06        -0.60403E+08         0.00000E+00
    0.00000E+00         0.00000E+00        -0.59710E+08
 
   -0.56792E+08         0.67630E+06         0.00000E+00
    0.67630E+06        -0.60524E+08         0.00000E+00
    0.00000E+00         0.00000E+00        -0.59710E+08
 
   -0.57143E+08         0.76603E+06         0.00000E+00
    0.76603E+06        -0.60637E+08         0.00000E+00
    0.00000E+00         0.00000E+00        -0.59710E+08
 
   -0.57467E+08         0.88275E+06         0.00000E+00
    0.88275E+06        -0.60731E+08         0.00000E+00
    0.00000E+00         0.00000E+00        -0.59710E+08
 
   -0.57779E+08         0.10254E+07         0.00000E+00
    0.10254E+07        -0.60795E+08         0.00000E+00
    0.00000E+00         0.00000E+00        -0.59710E+08
 
   -0.58094E+08         0.11888E+07         0.00000E+00
    0.11888E+07        -0.60822E+08         0.00000E+00
    0.00000E+00         0.00000E+00        -0.59710E+08
 
   -0.58421E+08         0.13646E+07         0.00000E+00
    0.13646E+07        -0.60804E+08         0.00000E+00
    0.00000E+00         0.00000E+00        -0.59710E+08
 
   -0.58767E+08         0.15415E+07         0.00000E+00
    0.15415E+07        -0.60740E+08         0.00000E+00
    0.00000E+00         0.00000E+00        -0.59710E+08
 
   -0.59134E+08         0.17061E+07         0.00000E+00
    0.17061E+07        -0.60628E+08         0.00000E+00
    0.00000E+00         0.00000E+00        -0.59710E+08
 
   -0.59516E+08         0.18437E+07         0.00000E+00
    0.18437E+07        -0.60471E+08         0.00000E+00
    0.00000E+00         0.00000E+00        -0.59711E+08
 
   -0.53033E+08         0.11945E+06         0.00000E+00
    0.11945E+06        -0.60012E+08         0.00000E+00
    0.00000E+00         0.00000E+00        -0.59594E+08
 
   -0.53941E+08         0.27385E+06         0.00000E+00
    0.27385E+06        -0.60054E+08         0.00000E+00
    0.00000E+00         0.00000E+00        -0.59594E+08
 
   -0.54717E+08         0.35176E+06         0.00000E+00
    0.35176E+06        -0.60140E+08         0.00000E+00
    0.00000E+00         0.00000E+00        -0.59594E+08
 
   -0.55365E+08         0.39065E+06         0.00000E+00
    0.39065E+06        -0.60264E+08         0.00000E+00
    0.00000E+00         0.00000E+00        -0.59594E+08
 
   -0.55901E+08         0.42034E+06         0.00000E+00
    0.42034E+06        -0.60416E+08         0.00000E+00
    0.00000E+00         0.00000E+00        -0.59594E+08
 
   -0.56341E+08         0.46285E+06         0.00000E+00
    0.46285E+06        -0.60584E+08         0.00000E+00
    0.00000E+00         0.00000E+00        -0.59594E+08
 
   -0.56710E+08         0.53294E+06         0.00000E+00
    0.53294E+06        -0.60754E+08         0.00000E+00
    0.00000E+00         0.00000E+00        -0.59594E+08
 
   -0.57029E+08         0.63880E+06         0.00000E+00
    0.63880E+06        -0.60912E+08         0.00000E+00
    0.00000E+00         0.00000E+00        -0.59594E+08
 
   -0.57320E+08         0.78292E+06         0.00000E+00
    0.78292E+06        -0.61047E+08         0.00000E+00
    0.00000E+00         0.00000E+00        -0.59594E+08
 
   -0.57604E+08         0.96280E+06         0.00000E+00
    0.96280E+06        -0.61145E+08         0.00000E+00
    0.00000E+00         0.00000E+00        -0.59594E+08
 
   -0.57899E+08         0.11716E+07         0.00000E+00
    0.11716E+07        -0.61199E+08         0.00000E+00
    0.00000E+00         0.00000E+00        -0.59594E+08
 
   -0.58217E+08         0.13984E+07         0.00000E+00
    0.13984E+07        -0.61200E+08         0.00000E+00
    0.00000E+00         0.00000E+00        -0.59594E+08
 
   -0.58568E+08         0.16291E+07         0.00000E+00
    0.16291E+07        -0.61143E+08         0.00000E+00
    0.00000E+00         0.00000E+00        -0.59594E+08
 
   -0.58956E+08         0.18465E+07         0.00000E+00
    0.18465E+07        -0.61026E+08         0.00000E+00
    0.00000E+00         0.00000E+00        -0.59594E+08
 
   -0.59377E+08         0.20314E+07         0.00000E+00
    0.20314E+07        -0.60854E+08         0.00000E+00
    0.00000E+00         0.00000E+00        -0.59594E+08
 
   -0.52850E+08         0.94261E+05         0.00000E+00
    0.94261E+05        -0.60018E+08         0.00000E+00
    0.00000E+00         0.00000E+00        -0.59435E+08
 
   -0.53856E+08         0.19613E+06         0.00000E+00
    0.19613E+06        -0.60079E+08         0.00000E+00
    0.00000E+00         0.00000E+00        -0.59435E+08
 
   -0.54684E+08         0.22565E+06         0.00000E+00
    0.22565E+06        -0.60198E+08         0.00000E+00
    0.00000E+00         0.00000E+00        -0.59435E+08
 
   -0.55350E+08         0.22630E+06         0.00000E+00
    0.22630E+06        -0.60366E+08         0.00000E+00
    0.00000E+00         0.00000E+00        -0.59435E+08
 
   -0.55875E+08         0.23136E+06         0.00000E+00
    0.23136E+06        -0.60569E+08         0.00000E+00
    0.00000E+00         0.00000E+00        -0.59436E+08
 
   -0.56288E+08         0.26437E+06         0.00000E+00
    0.26437E+06        -0.60790E+08         0.00000E+00
    0.00000E+00         0.00000E+00        -0.59436E+08
 
   -0.56616E+08         0.34018E+06         0.00000E+00
    0.34018E+06        -0.61012E+08         0.00000E+00
    0.00000E+00         0.00000E+00        -0.59435E+08
 
   -0.56890E+08         0.46618E+06         0.00000E+00
    0.46618E+06        -0.61220E+08         0.00000E+00
    0.00000E+00         0.00000E+00        -0.59435E+08
 
   -0.57138E+08         0.64354E+06         0.00000E+00
    0.64354E+06        -0.61398E+08         0.00000E+00
    0.00000E+00         0.00000E+00        -0.59435E+08
 
   -0.57384E+08         0.86810E+06         0.00000E+00
    0.86810E+06        -0.61533E+08         0.00000E+00
    0.00000E+00         0.00000E+00        -0.59435E+08
 
   -0.57650E+08         0.11311E+07         0.00000E+00
    0.11311E+07        -0.61615E+08         0.00000E+00
    0.00000E+00         0.00000E+00        -0.59435E+08
 
   -0.57954E+08         0.14193E+07         0.00000E+00
    0.14193E+07        -0.61634E+08         0.00000E+00
    0.00000E+00         0.00000E+00        -0.59435E+08
 
   -0.58309E+08         0.17156E+07         0.00000E+00
    0.17156E+07        -0.61583E+08         0.00000E+00
    0.00000E+00         0.00000E+00        -0.59435E+08
 
   -0.58720E+08         0.19987E+07         0.00000E+00
    0.19987E+07        -0.61461E+08         0.00000E+00
    0.00000E+00         0.00000E+00        -0.59435E+08
 
   -0.59188E+08         0.22441E+07         0.00000E+00
    0.22441E+07        -0.61268E+08         0.00000E+00
    0.00000E+00         0.00000E+00        -0.59434E+08
 
   -0.52729E+08         0.58077E+05         0.00000E+00
    0.58077E+05        -0.60024E+08         0.00000E+00
    0.00000E+00         0.00000E+00        -0.59219E+08
 
   -0.53830E+08         0.88776E+05         0.00000E+00
    0.88776E+05        -0.60108E+08         0.00000E+00
    0.00000E+00         0.00000E+00        -0.59219E+08
 
   -0.54702E+08         0.56398E+05         0.00000E+00
    0.56398E+05        -0.60266E+08         0.00000E+00
    0.00000E+00         0.00000E+00        -0.59220E+08
 
   -0.55370E+08         0.10466E+05         0.00000E+00
    0.10466E+05        -0.60484E+08         0.00000E+00
    0.00000E+00         0.00000E+00        -0.59220E+08
 
   -0.55868E+08        -0.12804E+05         0.00000E+00
   -0.12804E+05        -0.60743E+08         0.00000E+00
    0.00000E+00         0.00000E+00        -0.59220E+08
 
   -0.56235E+08         0.10750E+05         0.00000E+00
    0.10750E+05        -0.61020E+08         0.00000E+00
    0.00000E+00         0.00000E+00        -0.59219E+08
 
   -0.56507E+08         0.95126E+05         0.00000E+00
    0.95126E+05        -0.61297E+08         0.00000E+00
    0.00000E+00         0.00000E+00        -0.59219E+08
 
   -0.56722E+08         0.24615E+06         0.00000E+00
    0.24615E+06        -0.61555E+08         0.00000E+00
    0.00000E+00         0.00000E+00        -0.59219E+08
 
   -0.56913E+08         0.46317E+06         0.00000E+00
    0.46317E+06        -0.61777E+08         0.00000E+00
    0.00000E+00         0.00000E+00        -0.59218E+08
 
   -0.57110E+08         0.74025E+06         0.00000E+00
    0.74025E+06        -0.61950E+08         0.00000E+00
    0.00000E+00         0.00000E+00        -0.59218E+08
 
   -0.57338E+08         0.10667E+07         0.00000E+00
    0.10667E+07        -0.62060E+08         0.00000E+00
    0.00000E+00         0.00000E+00        -0.59217E+08
 
   -0.57621E+08         0.14274E+07         0.00000E+00
    0.14274E+07        -0.62098E+08         0.00000E+00
    0.00000E+00         0.00000E+00        -0.59217E+08
 
   -0.57976E+08         0.18020E+07         0.00000E+00
    0.18020E+07        -0.62053E+08         0.00000E+00
    0.00000E+00         0.00000E+00        -0.59217E+08
 
   -0.58413E+08         0.21655E+07         0.00000E+00
    0.21655E+07        -0.61922E+08         0.00000E+00
    0.00000E+00         0.00000E+00        -0.59217E+08
 
   -0.58935E+08         0.24875E+07         0.00000E+00
    0.24875E+07        -0.61704E+08         0.00000E+00
    0.00000E+00         0.00000E+00        -0.59217E+08
 
   -0.52692E+08         0.88091E+04         0.00000E+00
    0.88091E+04        -0.60032E+08         0.00000E+00
    0.00000E+00         0.00000E+00        -0.58928E+08
 
   -0.53880E+08        -0.52947E+05         0.00000E+00
   -0.52947E+05        -0.60141E+08         0.00000E+00
    0.00000E+00         0.00000E+00        -0.58929E+08
 
   -0.54779E+08        -0.16156E+06         0.00000E+00
   -0.16156E+06        -0.60344E+08         0.00000E+00
    0.00000E+00         0.00000E+00        -0.58929E+08
 
   -0.55429E+08        -0.26184E+06         0.00000E+00
   -0.26184E+06        -0.60617E+08         0.00000E+00
    0.00000E+00         0.00000E+00        -0.58929E+08
 
   -0.55880E+08        -0.31580E+06         0.00000E+00
   -0.31580E+06        -0.60934E+08         0.00000E+00
    0.00000E+00         0.00000E+00        -0.58928E+08
 
   -0.56180E+08        -0.30010E+06         0.00000E+00
   -0.30010E+06        -0.61271E+08         0.00000E+00
    0.00000E+00         0.00000E+00        -0.58928E+08
 
   -0.56379E+08        -0.20295E+06         0.00000E+00
   -0.20295E+06        -0.61602E+08         0.00000E+00
    0.00000E+00         0.00000E+00        -0.58927E+08
 
   -0.56518E+08        -0.21148E+05         0.00000E+00
   -0.21148E+05        -0.61909E+08         0.00000E+00
    0.00000E+00         0.00000E+00        -0.58926E+08
 
   -0.56638E+08         0.24232E+06         0.00000E+00
    0.24232E+06        -0.62174E+08         0.00000E+00
    0.00000E+00         0.00000E+00        -0.58925E+08
 
   -0.56773E+08         0.57964E+06         0.00000E+00
    0.57964E+06        -0.62382E+08         0.00000E+00
    0.00000E+00         0.00000E+00        -0.58924E+08
 
   -0.56954E+08         0.97869E+06         0.00000E+00
    0.97869E+06        -0.62520E+08         0.00000E+00
    0.00000E+00         0.00000E+00        -0.58924E+08
 
   -0.57207E+08         0.14227E+07         0.00000E+00
    0.14227E+07        -0.62575E+08         0.00000E+00
    0.00000E+00         0.00000E+00        -0.58923E+08
 
   -0.57556E+08         0.18893E+07         0.00000E+00
    0.18893E+07        -0.62537E+08         0.00000E+00
    0.00000E+00         0.00000E+00        -0.58923E+08
 
   -0.58018E+08         0.23496E+07         0.00000E+00
    0.23496E+07        -0.62396E+08         0.00000E+00
    0.00000E+00         0.00000E+00        -0.58922E+08
 
   -0.58600E+08         0.27675E+07         0.00000E+00
    0.27675E+07        -0.62150E+08         0.00000E+00
    0.00000E+00         0.00000E+00        -0.58922E+08
 
   -0.52767E+08        -0.55846E+05         0.00000E+00
   -0.55846E+05        -0.60042E+08         0.00000E+00
    0.00000E+00         0.00000E+00        -0.58539E+08
 
   -0.54026E+08        -0.23388E+06         0.00000E+00
   -0.23388E+06        -0.60180E+08         0.00000E+00
    0.00000E+00         0.00000E+00        -0.58539E+08
 
   -0.54927E+08        -0.43322E+06         0.00000E+00
   -0.43322E+06        -0.60431E+08         0.00000E+00
    0.00000E+00         0.00000E+00        -0.58539E+08
 
   -0.55533E+08        -0.59415E+06         0.00000E+00
   -0.59415E+06        -0.60762E+08         0.00000E+00
    0.00000E+00         0.00000E+00        -0.58539E+08
 
   -0.55910E+08        -0.67889E+06         0.00000E+00
   -0.67889E+06        -0.61140E+08         0.00000E+00
    0.00000E+00         0.00000E+00        -0.58538E+08
 
   -0.56121E+08        -0.66719E+06         0.00000E+00
   -0.66719E+06        -0.61533E+08         0.00000E+00
    0.00000E+00         0.00000E+00        -0.58537E+08
 
   -0.56225E+08        -0.55142E+06         0.00000E+00
   -0.55142E+06        -0.61916E+08         0.00000E+00
    0.00000E+00         0.00000E+00        -0.58535E+08
 
   -0.56272E+08        -0.33231E+06         0.00000E+00
   -0.33231E+06        -0.62266E+08         0.00000E+00
    0.00000E+00         0.00000E+00        -0.58534E+08
 
   -0.56307E+08        -0.15785E+05         0.00000E+00
   -0.15785E+05        -0.62569E+08         0.00000E+00
    0.00000E+00         0.00000E+00        -0.58532E+08
 
   -0.56366E+08         0.38864E+06         0.00000E+00
    0.38864E+06        -0.62808E+08         0.00000E+00
    0.00000E+00         0.00000E+00        -0.58531E+08
 
   -0.56486E+08         0.86813E+06         0.00000E+00
    0.86813E+06        -0.62971E+08         0.00000E+00
    0.00000E+00         0.00000E+00        -0.58529E+08
 
   -0.56699E+08         0.14055E+07         0.00000E+00
    0.14055E+07        -0.63043E+08         0.00000E+00
    0.00000E+00         0.00000E+00        -0.58528E+08
 
   -0.57033E+08         0.19776E+07         0.00000E+00
    0.19776E+07        -0.63011E+08         0.00000E+00
    0.00000E+00         0.00000E+00        -0.58528E+08
 
   -0.57515E+08         0.25526E+07         0.00000E+00
    0.25526E+07        -0.62860E+08         0.00000E+00
    0.00000E+00         0.00000E+00        -0.58527E+08
 
   -0.58161E+08         0.30888E+07         0.00000E+00
    0.30888E+07        -0.62583E+08         0.00000E+00
    0.00000E+00         0.00000E+00        -0.58527E+08
 
   -0.52983E+08        -0.13837E+06         0.00000E+00
   -0.13837E+06        -0.60053E+08         0.00000E+00
    0.00000E+00         0.00000E+00        -0.58023E+08
 
   -0.54285E+08        -0.45867E+06         0.00000E+00
   -0.45867E+06        -0.60223E+08         0.00000E+00
    0.00000E+00         0.00000E+00        -0.58023E+08
 
   -0.55155E+08        -0.76233E+06         0.00000E+00
   -0.76233E+06        -0.60527E+08         0.00000E+00
    0.00000E+00         0.00000E+00        -0.58022E+08
 
   -0.55682E+08        -0.98739E+06         0.00000E+00
   -0.98739E+06        -0.60918E+08         0.00000E+00
    0.00000E+00         0.00000E+00        -0.58021E+08
 
   -0.55954E+08        -0.10996E+07         0.00000E+00
   -0.10996E+07        -0.61352E+08         0.00000E+00
    0.00000E+00         0.00000E+00        -0.58019E+08
 
   -0.56050E+08        -0.10850E+07         0.00000E+00
   -0.10850E+07        -0.61795E+08         0.00000E+00
    0.00000E+00         0.00000E+00        -0.58017E+08
 
   -0.56039E+08        -0.94284E+06         0.00000E+00
   -0.94284E+06        -0.62219E+08         0.00000E+00
    0.00000E+00         0.00000E+00        -0.58014E+08
 
   -0.55978E+08        -0.67943E+06         0.00000E+00
   -0.67943E+06        -0.62603E+08         0.00000E+00
    0.00000E+00         0.00000E+00        -0.58012E+08
 
   -0.55912E+08        -0.30417E+06         0.00000E+00
   -0.30417E+06        -0.62933E+08         0.00000E+00
    0.00000E+00         0.00000E+00        -0.58009E+08
 
   -0.55883E+08         0.17223E+06         0.00000E+00
    0.17223E+06        -0.63196E+08         0.00000E+00
    0.00000E+00         0.00000E+00        -0.58007E+08
 
   -0.55929E+08         0.73748E+06         0.00000E+00
    0.73748E+06        -0.63379E+08         0.00000E+00
    0.00000E+00         0.00000E+00        -0.58005E+08
 
   -0.56086E+08         0.13760E+07         0.00000E+00
    0.13760E+07        -0.63467E+08         0.00000E+00
    0.00000E+00         0.00000E+00        -0.58003E+08
 
   -0.56392E+08         0.20655E+07         0.00000E+00
    0.20655E+07        -0.63441E+08         0.00000E+00
    0.00000E+00         0.00000E+00        -0.58002E+08
 
   -0.56884E+08         0.27737E+07         0.00000E+00
    0.27737E+07        -0.63283E+08         0.00000E+00
    0.00000E+00         0.00000E+00        -0.58001E+08
 
   -0.57590E+08         0.34543E+07         0.00000E+00
    0.34543E+07        -0.62975E+08         0.00000E+00
    0.00000E+00         0.00000E+00        -0.58001E+08
 
   -0.53375E+08        -0.24134E+06         0.00000E+00
   -0.24134E+06        -0.60066E+08         0.00000E+00
    0.00000E+00         0.00000E+00        -0.57344E+08
 
   -0.54679E+08        -0.73132E+06         0.00000E+00
   -0.73132E+06        -0.60272E+08         0.00000E+00
    0.00000E+00         0.00000E+00        -0.57343E+08
 
   -0.55470E+08        -0.11504E+07         0.00000E+00
   -0.11504E+07        -0.60629E+08         0.00000E+00
    0.00000E+00         0.00000E+00        -0.57342E+08
 
   -0.55873E+08        -0.14383E+07         0.00000E+00
   -0.14383E+07        -0.61076E+08         0.00000E+00
    0.00000E+00         0.00000E+00        -0.57339E+08
 
   -0.56004E+08        -0.15696E+07         0.00000E+00
   -0.15696E+07        -0.61559E+08         0.00000E+00
    0.00000E+00         0.00000E+00        -0.57336E+08
 
   -0.55958E+08        -0.15414E+07         0.00000E+00
   -0.15414E+07        -0.62038E+08         0.00000E+00
    0.00000E+00         0.00000E+00        -0.57332E+08
 
   -0.55813E+08        -0.13632E+07         0.00000E+00
   -0.13632E+07        -0.62486E+08         0.00000E+00
    0.00000E+00         0.00000E+00        -0.57328E+08
 
   -0.55629E+08        -0.10487E+07         0.00000E+00
   -0.10487E+07        -0.62886E+08         0.00000E+00
    0.00000E+00         0.00000E+00        -0.57324E+08
 
   -0.55451E+08        -0.61109E+06         0.00000E+00
   -0.61109E+06        -0.63227E+08         0.00000E+00
    0.00000E+00         0.00000E+00        -0.57320E+08
 
   -0.55321E+08        -0.61421E+05         0.00000E+00
   -0.61421E+05        -0.63501E+08         0.00000E+00
    0.00000E+00         0.00000E+00        -0.57316E+08
 
   -0.55277E+08         0.59058E+06         0.00000E+00
    0.59058E+06        -0.63697E+08         0.00000E+00
    0.00000E+00         0.00000E+00        -0.57313E+08
 
   -0.55361E+08         0.13335E+07         0.00000E+00
    0.13335E+07        -0.63798E+08         0.00000E+00
    0.00000E+00         0.00000E+00        -0.57310E+08
 
   -0.55619E+08         0.21497E+07         0.00000E+00
    0.21497E+07        -0.63783E+08         0.00000E+00
    0.00000E+00         0.00000E+00        -0.57308E+08
 
   -0.56101E+08         0.30090E+07         0.00000E+00
    0.30090E+07        -0.63623E+08         0.00000E+00
    0.00000E+00         0.00000E+00        -0.57307E+08
 
   -0.56855E+08         0.38628E+07         0.00000E+00
    0.38628E+07        -0.63290E+08         0.00000E+00
    0.00000E+00         0.00000E+00        -0.57306E+08
 
   -0.53982E+08        -0.36738E+06         0.00000E+00
   -0.36738E+06        -0.60080E+08         0.00000E+00
    0.00000E+00         0.00000E+00        -0.56458E+08
 
   -0.55223E+08        -0.10545E+07         0.00000E+00
   -0.10545E+07        -0.60324E+08         0.00000E+00
    0.00000E+00         0.00000E+00        -0.56457E+08
 
   -0.55872E+08        -0.15949E+07         0.00000E+00
   -0.15949E+07        -0.60733E+08         0.00000E+00
    0.00000E+00         0.00000E+00        -0.56454E+08
 
   -0.56098E+08        -0.19374E+07         0.00000E+00
   -0.19374E+07        -0.61226E+08         0.00000E+00
    0.00000E+00         0.00000E+00        -0.56450E+08
 
   -0.56048E+08        -0.20726E+07         0.00000E+00
   -0.20726E+07        -0.61740E+08         0.00000E+00
    0.00000E+00         0.00000E+00        -0.56444E+08
 
   -0.55834E+08        -0.20156E+07         0.00000E+00
   -0.20156E+07        -0.62231E+08         0.00000E+00
    0.00000E+00         0.00000E+00        -0.56438E+08
 
   -0.55539E+08        -0.17900E+07         0.00000E+00
   -0.17900E+07        -0.62676E+08         0.00000E+00
    0.00000E+00         0.00000E+00        -0.56431E+08
 
   -0.55221E+08        -0.14189E+07         0.00000E+00
   -0.14189E+07        -0.63065E+08         0.00000E+00
    0.00000E+00         0.00000E+00        -0.56425E+08
 
   -0.54923E+08        -0.91907E+06         0.00000E+00
   -0.91907E+06        -0.63395E+08         0.00000E+00
    0.00000E+00         0.00000E+00        -0.56419E+08
 
   -0.54682E+08        -0.30035E+06         0.00000E+00
   -0.30035E+06        -0.63663E+08         0.00000E+00
    0.00000E+00         0.00000E+00        -0.56413E+08
 
   -0.54533E+08         0.43275E+06         0.00000E+00
    0.43275E+06        -0.63861E+08         0.00000E+00
    0.00000E+00         0.00000E+00        -0.56409E+08
 
   -0.54521E+08         0.12768E+07         0.00000E+00
    0.12768E+07        -0.63974E+08         0.00000E+00
    0.00000E+00         0.00000E+00        -0.56405E+08
 
   -0.54703E+08         0.22231E+07         0.00000E+00
    0.22231E+07        -0.63975E+08         0.00000E+00
    0.00000E+00         0.00000E+00        -0.56402E+08
 
   -0.55144E+08         0.32488E+07         0.00000E+00
    0.32488E+07        -0.63824E+08         0.00000E+00
    0.00000E+00         0.00000E+00        -0.56400E+08
 
   -0.55919E+08         0.43072E+07         0.00000E+00
    0.43072E+07        -0.63478E+08         0.00000E+00
    0.00000E+00         0.00000E+00        -0.56399E+08
 
   -0.54843E+08        -0.51895E+06         0.00000E+00
   -0.51895E+06        -0.60096E+08         0.00000E+00
    0.00000E+00         0.00000E+00        -0.55314E+08
 
   -0.55931E+08        -0.14282E+07         0.00000E+00
   -0.14282E+07        -0.60377E+08         0.00000E+00
    0.00000E+00         0.00000E+00        -0.55311E+08
 
   -0.56354E+08        -0.20872E+07         0.00000E+00
   -0.20872E+07        -0.60831E+08         0.00000E+00
    0.00000E+00         0.00000E+00        -0.55306E+08
 
   -0.56339E+08        -0.24650E+07         0.00000E+00
   -0.24650E+07        -0.61351E+08         0.00000E+00
    0.00000E+00         0.00000E+00        -0.55299E+08
 
   -0.56066E+08        -0.25806E+07         0.00000E+00
   -0.25806E+07        -0.61864E+08         0.00000E+00
    0.00000E+00         0.00000E+00        -0.55290E+08
 
   -0.55662E+08        -0.24750E+07         0.00000E+00
   -0.24750E+07        -0.62330E+08         0.00000E+00
    0.00000E+00         0.00000E+00        -0.55280E+08
 
   -0.55208E+08        -0.21906E+07         0.00000E+00
   -0.21906E+07        -0.62734E+08         0.00000E+00
    0.00000E+00         0.00000E+00        -0.55271E+08
 
   -0.54755E+08        -0.17605E+07         0.00000E+00
   -0.17605E+07        -0.63076E+08         0.00000E+00
    0.00000E+00         0.00000E+00        -0.55262E+08
 
   -0.54335E+08        -0.12043E+07         0.00000E+00
   -0.12043E+07        -0.63364E+08         0.00000E+00
    0.00000E+00         0.00000E+00        -0.55253E+08
 
   -0.53975E+08        -0.52851E+06         0.00000E+00
   -0.52851E+06        -0.63604E+08         0.00000E+00
    0.00000E+00         0.00000E+00        -0.55245E+08
 
   -0.53706E+08         0.27084E+06         0.00000E+00
    0.27084E+06        -0.63792E+08         0.00000E+00
    0.00000E+00         0.00000E+00        -0.55239E+08
 
   -0.53572E+08         0.12029E+07         0.00000E+00
    0.12029E+07        -0.63914E+08         0.00000E+00
    0.00000E+00         0.00000E+00        -0.55233E+08
 
   -0.53638E+08         0.22741E+07         0.00000E+00
    0.22741E+07        -0.63940E+08         0.00000E+00
    0.00000E+00         0.00000E+00        -0.55229E+08
 
   -0.53991E+08         0.34761E+07         0.00000E+00
    0.34761E+07        -0.63818E+08         0.00000E+00
    0.00000E+00         0.00000E+00        -0.55226E+08
 
   -0.54738E+08         0.47709E+07         0.00000E+00
    0.47709E+07        -0.63480E+08         0.00000E+00
    0.00000E+00         0.00000E+00        -0.55224E+08
 
   -0.56002E+08        -0.69803E+06         0.00000E+00
   -0.69803E+06        -0.60113E+08         0.00000E+00
    0.00000E+00         0.00000E+00        -0.53849E+08
 
   -0.56807E+08        -0.18480E+07         0.00000E+00
   -0.18480E+07        -0.60429E+08         0.00000E+00
    0.00000E+00         0.00000E+00        -0.53844E+08
 
   -0.56895E+08        -0.26079E+07         0.00000E+00
   -0.26079E+07        -0.60910E+08         0.00000E+00
    0.00000E+00         0.00000E+00        -0.53835E+08
 
   -0.56566E+08        -0.29872E+07         0.00000E+00
   -0.29872E+07        -0.61421E+08         0.00000E+00
    0.00000E+00         0.00000E+00        -0.53824E+08
 
   -0.56032E+08        -0.30500E+07         0.00000E+00
   -0.30500E+07        -0.61885E+08         0.00000E+00
    0.00000E+00         0.00000E+00        -0.53810E+08
 
   -0.55426E+08        -0.28732E+07         0.00000E+00
   -0.28732E+07        -0.62272E+08         0.00000E+00
    0.00000E+00         0.00000E+00        -0.53797E+08
 
   -0.54816E+08        -0.25210E+07         0.00000E+00
   -0.25210E+07        -0.62582E+08         0.00000E+00
    0.00000E+00         0.00000E+00        -0.53784E+08
 
   -0.54236E+08        -0.20355E+07         0.00000E+00
   -0.20355E+07        -0.62833E+08         0.00000E+00
    0.00000E+00         0.00000E+00        -0.53771E+08
 
   -0.53700E+08        -0.14370E+07         0.00000E+00
   -0.14370E+07        -0.63042E+08         0.00000E+00
    0.00000E+00         0.00000E+00        -0.53760E+08
 
   -0.53220E+08        -0.72588E+06         0.00000E+00
   -0.72588E+06        -0.63226E+08         0.00000E+00
    0.00000E+00         0.00000E+00        -0.53750E+08
 
   -0.52817E+08         0.11322E+06         0.00000E+00
    0.11322E+06        -0.63388E+08         0.00000E+00
    0.00000E+00         0.00000E+00        -0.53741E+08
 
   -0.52530E+08         0.11070E+07         0.00000E+00
    0.11070E+07        -0.63519E+08         0.00000E+00
    0.00000E+00         0.00000E+00        -0.53733E+08
 
   -0.52430E+08         0.22846E+07         0.00000E+00
    0.22846E+07        -0.63583E+08         0.00000E+00
    0.00000E+00         0.00000E+00        -0.53726E+08
 
   -0.52626E+08         0.36627E+07         0.00000E+00
    0.36627E+07        -0.63517E+08         0.00000E+00
    0.00000E+00         0.00000E+00        -0.53722E+08
 
   -0.53267E+08         0.52235E+07         0.00000E+00
    0.52235E+07        -0.63226E+08         0.00000E+00
    0.00000E+00         0.00000E+00        -0.53720E+08
 
   -0.57498E+08        -0.90562E+06         0.00000E+00
   -0.90562E+06        -0.60131E+08         0.00000E+00
    0.00000E+00         0.00000E+00        -0.51991E+08
 
   -0.57839E+08        -0.23006E+07         0.00000E+00
   -0.23006E+07        -0.60471E+08         0.00000E+00
    0.00000E+00         0.00000E+00        -0.51983E+08
 
   -0.57457E+08        -0.31203E+07         0.00000E+00
   -0.31203E+07        -0.60944E+08         0.00000E+00
    0.00000E+00         0.00000E+00        -0.51969E+08
 
   -0.56737E+08        -0.34478E+07         0.00000E+00
   -0.34478E+07        -0.61386E+08         0.00000E+00
    0.00000E+00         0.00000E+00        -0.51952E+08
 
   -0.55918E+08        -0.34168E+07         0.00000E+00
   -0.34168E+07        -0.61728E+08         0.00000E+00
    0.00000E+00         0.00000E+00        -0.51933E+08
 
   -0.55114E+08        -0.31485E+07         0.00000E+00
   -0.31485E+07        -0.61963E+08         0.00000E+00
    0.00000E+00         0.00000E+00        -0.51915E+08
 
   -0.54366E+08        -0.27273E+07         0.00000E+00
   -0.27273E+07        -0.62117E+08         0.00000E+00
    0.00000E+00         0.00000E+00        -0.51898E+08
 
   -0.53678E+08        -0.21999E+07         0.00000E+00
   -0.21999E+07        -0.62224E+08         0.00000E+00
    0.00000E+00         0.00000E+00        -0.51882E+08
 
   -0.53042E+08        -0.15831E+07         0.00000E+00
   -0.15831E+07        -0.62315E+08         0.00000E+00
    0.00000E+00         0.00000E+00        -0.51868E+08
 
   -0.52448E+08        -0.86930E+06         0.00000E+00
   -0.86930E+06        -0.62414E+08         0.00000E+00
    0.00000E+00         0.00000E+00        -0.51855E+08
 
   -0.51901E+08        -0.29959E+05         0.00000E+00
   -0.29959E+05        -0.62533E+08         0.00000E+00
    0.00000E+00         0.00000E+00        -0.51843E+08
 
   -0.51428E+08         0.98260E+06         0.00000E+00
    0.98260E+06        -0.62669E+08         0.00000E+00
    0.00000E+00         0.00000E+00        -0.51833E+08
 
   -0.51098E+08         0.22291E+07         0.00000E+00
    0.22291E+07        -0.62790E+08         0.00000E+00
    0.00000E+00         0.00000E+00        -0.51824E+08
 
   -0.51041E+08         0.37662E+07         0.00000E+00
    0.37662E+07        -0.62820E+08         0.00000E+00
    0.00000E+00         0.00000E+00        -0.51818E+08
 
   -0.51458E+08         0.56148E+07         0.00000E+00
    0.56148E+07        -0.62632E+08         0.00000E+00
    0.00000E+00         0.00000E+00        -0.51814E+08
 
   -0.59364E+08        -0.11405E+07         0.00000E+00
   -0.11405E+07        -0.60147E+08         0.00000E+00
    0.00000E+00         0.00000E+00        -0.49658E+08
 
   -0.58986E+08        -0.27562E+07         0.00000E+00
   -0.27562E+07        -0.60489E+08         0.00000E+00
    0.00000E+00         0.00000E+00        -0.49646E+08
 
   -0.57972E+08        -0.35566E+07         0.00000E+00
   -0.35566E+07        -0.60886E+08         0.00000E+00
    0.00000E+00         0.00000E+00        -0.49625E+08
 
   -0.56800E+08        -0.37584E+07         0.00000E+00
   -0.37584E+07        -0.61159E+08         0.00000E+00
    0.00000E+00         0.00000E+00        -0.49601E+08
 
   -0.55696E+08        -0.35932E+07         0.00000E+00
   -0.35932E+07        -0.61274E+08         0.00000E+00
    0.00000E+00         0.00000E+00        -0.49576E+08
 
   -0.54723E+08        -0.32264E+07         0.00000E+00
   -0.32264E+07        -0.61270E+08         0.00000E+00
    0.00000E+00         0.00000E+00        -0.49553E+08
 
   -0.53871E+08        -0.27510E+07         0.00000E+00
   -0.27510E+07        -0.61201E+08         0.00000E+00
    0.00000E+00         0.00000E+00        -0.49533E+08
 
   -0.53107E+08        -0.22089E+07         0.00000E+00
   -0.22089E+07        -0.61115E+08         0.00000E+00
    0.00000E+00         0.00000E+00        -0.49514E+08
 
   -0.52394E+08        -0.16087E+07         0.00000E+00
   -0.16087E+07        -0.61051E+08         0.00000E+00
    0.00000E+00         0.00000E+00        -0.49497E+08
 
   -0.51700E+08        -0.93443E+06         0.00000E+00
   -0.93443E+06        -0.61037E+08         0.00000E+00
    0.00000E+00         0.00000E+00        -0.49482E+08
 
   -0.51007E+08        -0.14610E+06         0.00000E+00
   -0.14610E+06        -0.61094E+08         0.00000E+00
    0.00000E+00         0.00000E+00        -0.49468E+08
 
   -0.50318E+08         0.82426E+06         0.00000E+00
    0.82426E+06        -0.61230E+08         0.00000E+00
    0.00000E+00         0.00000E+00        -0.49456E+08
 
   -0.49686E+08         0.20758E+07         0.00000E+00
    0.20758E+07        -0.61426E+08         0.00000E+00
    0.00000E+00         0.00000E+00        -0.49444E+08
 
   -0.49249E+08         0.37262E+07         0.00000E+00
    0.37262E+07        -0.61604E+08         0.00000E+00
    0.00000E+00         0.00000E+00        -0.49436E+08
 
   -0.49267E+08         0.58666E+07         0.00000E+00
    0.58666E+07        -0.61604E+08         0.00000E+00
    0.00000E+00         0.00000E+00        -0.49431E+08
 
   -0.61609E+08        -0.13963E+07         0.00000E+00
   -0.13963E+07        -0.60158E+08         0.00000E+00
    0.00000E+00         0.00000E+00        -0.46757E+08
 
   -0.60155E+08        -0.31487E+07         0.00000E+00
   -0.31487E+07        -0.60445E+08         0.00000E+00
    0.00000E+00         0.00000E+00        -0.46739E+08
 
   -0.58340E+08        -0.37949E+07         0.00000E+00
   -0.37949E+07        -0.60636E+08         0.00000E+00
    0.00000E+00         0.00000E+00        -0.46711E+08
 
   -0.56699E+08        -0.37873E+07         0.00000E+00
   -0.37873E+07        -0.60581E+08         0.00000E+00
    0.00000E+00         0.00000E+00        -0.46680E+08
 
   -0.55358E+08        -0.34726E+07         0.00000E+00
   -0.34726E+07        -0.60338E+08         0.00000E+00
    0.00000E+00         0.00000E+00        -0.46651E+08
 
   -0.54272E+08        -0.30313E+07         0.00000E+00
   -0.30313E+07        -0.60006E+08         0.00000E+00
    0.00000E+00         0.00000E+00        -0.46625E+08
 
   -0.53363E+08        -0.25407E+07         0.00000E+00
   -0.25407E+07        -0.59659E+08         0.00000E+00
    0.00000E+00         0.00000E+00        -0.46602E+08
 
   -0.52559E+08        -0.20268E+07         0.00000E+00
   -0.20268E+07        -0.59347E+08         0.00000E+00
    0.00000E+00         0.00000E+00        -0.46582E+08
 
   -0.51797E+08        -0.14873E+07         0.00000E+00
   -0.14873E+07        -0.59104E+08         0.00000E+00
    0.00000E+00         0.00000E+00        -0.46564E+08
 
   -0.51025E+08        -0.89970E+06         0.00000E+00
   -0.89970E+06        -0.58959E+08         0.00000E+00
    0.00000E+00         0.00000E+00        -0.46548E+08
 
   -0.50196E+08        -0.21917E+06         0.00000E+00
   -0.21917E+06        -0.58936E+08         0.00000E+00
    0.00000E+00         0.00000E+00        -0.46533E+08
 
   -0.49278E+08         0.63288E+06         0.00000E+00
    0.63288E+06        -0.59060E+08         0.00000E+00
    0.00000E+00         0.00000E+00        -0.46518E+08
 
   -0.48275E+08         0.17918E+07         0.00000E+00
    0.17918E+07        -0.59340E+08         0.00000E+00
    0.00000E+00         0.00000E+00        -0.46505E+08
 
   -0.47299E+08         0.34606E+07         0.00000E+00
    0.34606E+07        -0.59727E+08         0.00000E+00
    0.00000E+00         0.00000E+00        -0.46494E+08
 
   -0.46663E+08         0.58589E+07         0.00000E+00
    0.58589E+07        -0.60035E+08         0.00000E+00
    0.00000E+00         0.00000E+00        -0.46487E+08
 
   -0.64186E+08        -0.16514E+07         0.00000E+00
   -0.16514E+07        -0.60147E+08         0.00000E+00
    0.00000E+00         0.00000E+00        -0.43188E+08
 
   -0.61164E+08        -0.33250E+07         0.00000E+00
   -0.33250E+07        -0.60244E+08         0.00000E+00
    0.00000E+00         0.00000E+00        -0.43164E+08
 
   -0.58445E+08        -0.36185E+07         0.00000E+00
   -0.36185E+07        -0.59965E+08         0.00000E+00
    0.00000E+00         0.00000E+00        -0.43129E+08
 
   -0.56422E+08        -0.33670E+07         0.00000E+00
   -0.33670E+07        -0.59361E+08         0.00000E+00
    0.00000E+00         0.00000E+00        -0.43095E+08
 
   -0.54943E+08        -0.29555E+07         0.00000E+00
   -0.29555E+07        -0.58642E+08         0.00000E+00
    0.00000E+00         0.00000E+00        -0.43065E+08
 
   -0.53814E+08        -0.25102E+07         0.00000E+00
   -0.25102E+07        -0.57930E+08         0.00000E+00
    0.00000E+00         0.00000E+00        -0.43039E+08
 
   -0.52894E+08        -0.20700E+07         0.00000E+00
   -0.20700E+07        -0.57287E+08         0.00000E+00
    0.00000E+00         0.00000E+00        -0.43017E+08
 
   -0.52082E+08        -0.16399E+07         0.00000E+00
   -0.16399E+07        -0.56746E+08         0.00000E+00
    0.00000E+00         0.00000E+00        -0.42998E+08
 
   -0.51297E+08        -0.12089E+07         0.00000E+00
   -0.12089E+07        -0.56327E+08         0.00000E+00
    0.00000E+00         0.00000E+00        -0.42981E+08
 
   -0.50470E+08        -0.75316E+06         0.00000E+00
   -0.75316E+06        -0.56050E+08         0.00000E+00
    0.00000E+00         0.00000E+00        -0.42966E+08
 
   -0.49531E+08        -0.23214E+06         0.00000E+00
   -0.23214E+06        -0.55938E+08         0.00000E+00
    0.00000E+00         0.00000E+00        -0.42951E+08
 
   -0.48401E+08         0.42612E+06         0.00000E+00
    0.42612E+06        -0.56029E+08         0.00000E+00
    0.00000E+00         0.00000E+00        -0.42937E+08
 
   -0.46996E+08         0.13606E+07         0.00000E+00
    0.13606E+07        -0.56375E+08         0.00000E+00
    0.00000E+00         0.00000E+00        -0.42923E+08
 
   -0.45310E+08         0.28690E+07         0.00000E+00
    0.28690E+07        -0.57021E+08         0.00000E+00
    0.00000E+00         0.00000E+00        -0.42910E+08
 
   -0.43652E+08         0.54068E+07         0.00000E+00
    0.54068E+07        -0.57804E+08         0.00000E+00
    0.00000E+00         0.00000E+00        -0.42901E+08
 
   -0.66874E+08        -0.18156E+07         0.00000E+00
   -0.18156E+07        -0.60055E+08         0.00000E+00
    0.00000E+00         0.00000E+00        -0.38842E+08
 
   -0.61706E+08        -0.28891E+07         0.00000E+00
   -0.28891E+07        -0.59507E+08         0.00000E+00
    0.00000E+00         0.00000E+00        -0.38816E+08
 
   -0.58257E+08        -0.27265E+07         0.00000E+00
   -0.27265E+07        -0.58334E+08         0.00000E+00
    0.00000E+00         0.00000E+00        -0.38783E+08
 
   -0.56058E+08        -0.23712E+07         0.00000E+00
   -0.23712E+07        -0.57037E+08         0.00000E+00
    0.00000E+00         0.00000E+00        -0.38754E+08
 
   -0.54547E+08        -0.20054E+07         0.00000E+00
   -0.20054E+07        -0.55826E+08         0.00000E+00
    0.00000E+00         0.00000E+00        -0.38729E+08
 
   -0.53429E+08        -0.16660E+07         0.00000E+00
   -0.16660E+07        -0.54765E+08         0.00000E+00
    0.00000E+00         0.00000E+00        -0.38709E+08
 
   -0.52528E+08        -0.13563E+07         0.00000E+00
   -0.13563E+07        -0.53870E+08         0.00000E+00
    0.00000E+00         0.00000E+00        -0.38692E+08
 
   -0.51727E+08        -0.10684E+07         0.00000E+00
   -0.10684E+07        -0.53142E+08         0.00000E+00
    0.00000E+00         0.00000E+00        -0.38678E+08
 
   -0.50937E+08        -0.78937E+06         0.00000E+00
   -0.78937E+06        -0.52582E+08         0.00000E+00
    0.00000E+00         0.00000E+00        -0.38666E+08
 
   -0.50079E+08        -0.50127E+06         0.00000E+00
   -0.50127E+06        -0.52197E+08         0.00000E+00
    0.00000E+00         0.00000E+00        -0.38654E+08
 
   -0.49063E+08        -0.17634E+06         0.00000E+00
   -0.17634E+06        -0.52006E+08         0.00000E+00
    0.00000E+00         0.00000E+00        -0.38643E+08
 
   -0.47772E+08         0.23418E+06         0.00000E+00
    0.23418E+06        -0.52051E+08         0.00000E+00
    0.00000E+00         0.00000E+00        -0.38632E+08
 
   -0.46035E+08         0.82992E+06         0.00000E+00
    0.82992E+06        -0.52413E+08         0.00000E+00
    0.00000E+00         0.00000E+00        -0.38620E+08
 
   -0.43551E+08         0.18664E+07         0.00000E+00
    0.18664E+07        -0.53262E+08         0.00000E+00
    0.00000E+00         0.00000E+00        -0.38607E+08
 
   -0.40334E+08         0.42007E+07         0.00000E+00
    0.42007E+07        -0.54757E+08         0.00000E+00
    0.00000E+00         0.00000E+00        -0.38598E+08
 
   -0.68912E+08        -0.11852E+07         0.00000E+00
   -0.11852E+07        -0.58886E+08         0.00000E+00
    0.00000E+00         0.00000E+00        -0.33614E+08
 
   -0.61658E+08        -0.12213E+07         0.00000E+00
   -0.12213E+07        -0.56933E+08         0.00000E+00
    0.00000E+00         0.00000E+00        -0.33602E+08
 
   -0.58015E+08        -0.10289E+07         0.00000E+00
   -0.10289E+07        -0.54854E+08         0.00000E+00
    0.00000E+00         0.00000E+00        -0.33587E+08
 
   -0.55793E+08        -0.85909E+06         0.00000E+00
   -0.85909E+06        -0.53044E+08         0.00000E+00
    0.00000E+00         0.00000E+00        -0.33575E+08
 
   -0.54301E+08        -0.71093E+06         0.00000E+00
   -0.71093E+06        -0.51519E+08         0.00000E+00
    0.00000E+00         0.00000E+00        -0.33565E+08
 
   -0.53208E+08        -0.58339E+06         0.00000E+00
   -0.58339E+06        -0.50252E+08         0.00000E+00
    0.00000E+00         0.00000E+00        -0.33557E+08
 
   -0.52327E+08        -0.47153E+06         0.00000E+00
   -0.47153E+06        -0.49216E+08         0.00000E+00
    0.00000E+00         0.00000E+00        -0.33551E+08
 
   -0.51537E+08        -0.37014E+06         0.00000E+00
   -0.37014E+06        -0.48387E+08         0.00000E+00
    0.00000E+00         0.00000E+00        -0.33545E+08
 
   -0.50749E+08        -0.27361E+06         0.00000E+00
   -0.27361E+06        -0.47753E+08         0.00000E+00
    0.00000E+00         0.00000E+00        -0.33540E+08
 
   -0.49876E+08        -0.17519E+06         0.00000E+00
   -0.17519E+06        -0.47311E+08         0.00000E+00
    0.00000E+00         0.00000E+00        -0.33536E+08
 
   -0.48822E+08        -0.65109E+05         0.00000E+00
   -0.65109E+05        -0.47076E+08         0.00000E+00
    0.00000E+00         0.00000E+00        -0.33532E+08
 
   -0.47449E+08         0.73377E+05         0.00000E+00
    0.73377E+05        -0.47089E+08         0.00000E+00
    0.00000E+00         0.00000E+00        -0.33527E+08
 
   -0.45522E+08         0.27647E+06         0.00000E+00
    0.27647E+06        -0.47442E+08         0.00000E+00
    0.00000E+00         0.00000E+00        -0.33523E+08
 
   -0.42577E+08         0.62812E+06         0.00000E+00
    0.62812E+06        -0.48350E+08         0.00000E+00
    0.00000E+00         0.00000E+00        -0.33517E+08
 
   -0.37140E+08         0.16804E+07         0.00000E+00
    0.16804E+07        -0.50529E+08         0.00000E+00
    0.00000E+00         0.00000E+00        -0.33512E+08
 
SCALARS stresss double 
LOOKUP_TABLE default
  -58548582.6789944     
  -58598592.1357739     
  -58657014.6836286     
  -58721822.5301364     
  -58791145.8897467     
  -58863286.3953480     
  -58936722.9715267     
  -59010111.9103023     
  -59082282.9415109     
  -59152233.0590933     
  -59219119.7629265     
  -59282255.2130083     
  -59341102.5753128     
  -59395275.5699340     
  -59444541.9131899     
  -58537637.0896523     
  -58589822.0686226     
  -58650280.8024876     
  -58716963.4535200     
  -58787987.4156312     
  -58861649.0928543     
  -58936427.9973992     
  -59010985.0030888     
  -59084156.6284280     
  -59154947.1804918     
  -59222520.4793887     
  -59286192.7136293     
  -59345427.7559812     
  -59399836.0001883     
  -59449177.4609266     
  -58515798.8183130     
  -58572367.0880300     
  -58636919.7140230     
  -58707364.1911015     
  -58781793.9409938     
  -58858496.7169288     
  -58935955.0559842     
  -59012840.8062351     
  -59088005.7661370     
  -59160470.4046379     
  -59229412.4985586     
  -59294157.3409986     
  -59354170.9478860     
  -59409057.4209051     
  -59458561.3108558     
  -58483178.5662779     
  -58546401.2747493     
  -58617147.0679578     
  -58693263.1151433     
  -58772811.1602011     
  -58854070.5924641     
  -58935533.1912152     
  -59015891.8603292     
  -59094025.6322501     
  -59168983.1086865     
  -59239966.3403393     
  -59306316.9447713     
  -59367506.0276119     
  -59423129.2073143     
  -59472907.7402752     
  -58439954.4269811     
  -58512194.8815542     
  -58591291.6703276     
  -58675018.7255693     
  -58761403.8506246     
  -58848724.1595466     
  -58935492.7620471     
  -59020439.3995171     
  -59102487.6264574     
  -59180730.9546972     
  -59254410.1640303     
  -59322893.7516523     
  -59385663.2522154     
  -59442304.9072161     
  -59492508.8832331     
  -58386385.8205141     
  -58470124.4116866     
  -58559800.6531404     
  -58653109.2363045     
  -58748049.5391760     
  -58842910.6716746     
  -58936247.3603053     
  -59026849.8676521     
  -59113710.9197294     
  -59195992.3422852     
  -59272993.8247673     
  -59344125.9629777     
  -59408889.4876774     
  -59466862.3594800     
  -59517696.1781762     
  -58322831.1392682     
  -58420684.4866843     
  -58523244.1960275     
  -58628129.3155252     
  -58733326.8914931     
  -58837163.2500168     
  -58938265.8522901     
  -59035519.5064849     
  -59128020.3344010     
  -59215030.4838395     
  -59295936.2005656     
  -59370211.5600278     
  -59437389.9193885     
  -59497044.9726386     
  -59548783.1420757     
  -58249768.1559524     
  -58364499.9502178     
  -58482317.6908498     
  -58600781.3885542     
  -58717895.8349975     
  -58832063.9911634     
  -58942031.0001024     
  -59046823.2833380     
  -59145686.5631077     
  -59238026.0550661     
  -59323351.5698474     
  -59401229.8909802     
  -59471246.5737317     
  -59532979.2153871     
  -59585984.2335933     
  -58167815.8269126     
  -58302336.0098171     
  -58437838.4060271     
  -58571857.9312716     
  -58702465.3434268     
  -58828197.6798419     
  -58947979.9430618     
  -59061043.2424048     
  -59166843.6527386     
  -59264985.1893513     
  -59355149.6165858     
  -59437035.3664547     
  -59510307.6568189     
  -59574561.9382860     
  -59629302.9961954     
  -58077755.5936144     
  -58235103.4098913     
  -58390732.6756980     
  -58542209.9883367     
  -58687743.5164924     
  -58826084.3195155     
  -58956420.4808931     
  -59078270.0538505     
  -59191377.4091138     
  -59295616.3456981     
  -59390902.4081862     
  -59477116.3261910     
  -59554040.3707120     
  -59621309.6657234     
  -59678381.0062948     
  -57980549.6339389     
  -58163854.6356059     
  -58342008.3809411     
  -58512695.7145205     
  -58674363.0599916     
  -58826083.1503683     
  -58967415.6026928     
  -59098270.1214841     
  -59218777.0618501     
  -59329168.3477245     
  -59429670.5057595     
  -59520410.9435757     
  -59601338.5896158     
  -59672160.5576468     
  -59732297.4700636     
  -57877352.7447278     
  -58089765.9560022     
  -58292705.9858759     
  -58484101.0387508     
  -58662773.4981679     
  -58828259.0831966     
  -58980627.0809773     
  -59120309.1529638     
  -59247941.2552931     
  -59364220.7798907     
  -59469779.3634897     
  -59565071.0590298     
  -59650275.7286906     
  -59725218.5026416     
  -59789307.7682047     
  -57769513.6661146     
  -58014098.7257056     
  -58243819.6284362     
  -58457022.5778063     
  -58653089.4352672     
  -58832200.5711707     
  -58995107.2675504     
  -59142921.7068884     
  -59276928.3520574     
  -59398417.1251217     
  -59508536.5719789     
  -59608164.3186804     
  -59697792.5712662     
  -59777428.0276405     
  -59846508.0959831     
  -57658560.7249318     
  -57938131.7861957     
  -58196177.7337026     
  -58431700.6712056     
  -58644881.9427818     
  -58836775.9291331     
  -59009026.6040723     
  -59163615.0864611     
  -59302640.3868864     
  -59428130.8226618     
  -59541880.6281683     
  -59645305.3000750     
  -59739310.1153701     
  -59824168.7847567     
  -59899412.9774129     
  -57546165.7376370     
  -57863055.0450770     
  -58150270.2890862     
  -58407787.8456473     
  -58636897.6985834     
  -58839813.0786944     
  -59019322.9690247     
  -59178495.3137411     
  -59320430.1367785     
  -59448055.2318413     
  -59563953.2407429     
  -59670207.9399287     
  -59768259.1922466     
  -59858759.8544015     
  -59941433.4098799     
  -57434079.2437207     
  -57789812.3351052     
  -58106007.2070779     
  -58384035.0652992     
  -58626687.8343077     
  -58837685.7535506     
  -59021258.0663833     
  -59181803.1655332     
  -59323622.1655864     
  -59450710.8828110     
  -59566590.3471835     
  -59674155.2285914     
  -59775522.4179975     
  -59871867.7289675     
  -59963246.4825589     
  -57324029.3955755     
  -57718879.3308524     
  -58062388.8701333     
  -58357874.5733409     
  -58610125.4788919     
  -58824787.4596553     
  -59007865.9465006     
  -59165349.8962925     
  -59302942.0204233     
  -59425868.1500896     
  -59538732.8726687     
  -59645388.6978059     
  -59748790.8926513     
  -59850818.5651905     
  -59952053.4904284     
  -57217576.1940483     
  -57649959.2624177     
  -58017065.4748956     
  -58324873.5200835     
  -58580787.5086572     
  -58792873.0735550     
  -58969279.8851383     
  -59117846.0199598     
  -59245853.8843921     
  -59359891.5938752     
  -59465767.8708009     
  -59568430.8194802     
  -59671849.1035397     
  -59778826.2761527     
  -59890734.0219417     
  -57115912.0203257     
  -57581574.5645430     
  -57965755.0775955     
  -58278026.0023509     
  -58529171.6202223     
  -58730247.0544246     
  -58891926.8979395     
  -59024123.3547835     
  -59135817.0743612     
  -59235024.9078884     
  -59328825.3370275     
  -59423369.3839012     
  -59523818.0737948     
  -59634164.6182026     
  -59756919.5648566     
  -57019597.9367736     
  -57510524.6451700     
  -57901479.1580233     
  -58206840.9807155     
  -58441713.9058510     
  -58620777.2453251     
  -58757585.2498842     
  -58864261.8778902     
  -58951487.2744942     
  -59028654.1133392     
  -59104077.1118328     
  -59185155.7369592     
  -59278410.4614836     
  -59389335.0977750     
  -59522033.2135444     
  -56928221.5045467     
  -57431164.9882713     
  -57813555.0172365     
  -58096167.0197093     
  -58299563.9545365     
  -58442715.2983433     
  -58542311.5297218     
  -58612650.9358491     
  -58665911.0731841     
  -58712612.7601957     
  -58762113.2748299     
  -58823000.0048636     
  -58903283.8005167     
  -59010314.8984634     
  -59150373.3015309     
  -56839952.5278659     
  -57334433.3575846     
  -57686248.6102986     
  -57924667.4383368     
  -58077064.0832371     
  -58167312.1321618     
  -58215264.3782900     
  -58237042.3063926     
  -58245793.9939590     
  -58252627.2589867     
  -58267509.0826459     
  -58299987.6345360     
  -58359621.4699819     
  -58456012.0660885     
  -58598359.1650283     
  -56750951.1348962     
  -57206488.6262000     
  -57496924.3418434     
  -57662814.2105334     
  -57739869.6536112     
  -57757237.9523102     
  -57737490.2524588     
  -57697695.2278910     
  -57650963.5828505     
  -57608041.6604880     
  -57578740.9669971     
  -57573093.8240184     
  -57602128.4294222     
  -57678111.8899226     
  -57814107.4979628     
  -56654529.2888458     
  -57026701.0475962     
  -57213396.7836691     
  -57270197.6425513     
  -57242650.6400966     
  -57164872.5186342     
  -57060808.4018135     
  -56946776.5791829     
  -56834196.7564464     
  -56732002.4194967     
  -56648657.5748793     
  -56593836.4599927     
  -56579705.6105933     
  -56621575.7690461     
  -56737568.7908717     
  -56539847.2594472     
  -56764435.9698483     
  -56789930.8286917     
  -56691841.8856833     
  -56526376.9151430     
  -56330668.4312042     
  -56127064.0651697     
  -55928263.9141286     
  -55741621.8579627     
  -55572302.8725416     
  -55425747.4207607     
  -55309878.2010602     
  -55237179.2704493     
  -55226166.6949243     
  -55301530.8482667     
  -56389538.3120010     
  -56373392.3288923     
  -56160752.9436031     
  -55853149.0720233     
  -55515429.3302844     
  -55182107.9037839     
  -54868230.5654033     
  -54578689.6619994     
  -54313903.2833735     
  -54073049.6089087     
  -53856406.3010505     
  -53667968.9828357     
  -53518619.5166483     
  -53429592.4765459     
  -53433896.8039329     
  -56174869.2486595     
  -55779951.9905906     
  -55229006.8333771     
  -54653245.2351685     
  -54115652.8611735     
  -53634360.4543265     
  -53208053.4427409     
  -52829109.2425893     
  -52488355.5348893     
  -52177073.9878289     
  -51888264.7658000     
  -51618502.2116864     
  -51373202.8108194     
  -51173216.1645271     
  -51061913.3785169     
  -55840328.4582532     
  -54857244.3126746     
  -53846325.2279370     
  -52959496.7353175     
  -52216542.6593118     
  -51594121.2215736     
  -51065956.5283196     
  -50608570.1712876     
  -50201956.5895774     
  -49828773.1732320     
  -49473455.1671692     
  -49122127.0827315     
  -48764353.2024012     
  -48413321.7763671     
  -48119212.5426785     
  -55257108.2411190     
  -53343100.2935708     
  -51791299.3943079     
  -50616074.6402534     
  -49700717.6590763     
  -48967754.3071809     
  -48363349.2512791     
  -47848929.4304211     
  -47394942.5914501     
  -46976624.2383507     
  -46570635.1503920     
  -46151674.0781319     
  -45689309.2476693     
  -45139970.7258883     
  -44562906.2626766     
  -53804059.1904233     
  -50730894.4830189     
  -48818748.4752433     
  -47470629.4886308     
  -46461695.6851711     
  -45672371.5897585     
  -45030962.4252301     
  -44489799.3616721     
  -44013916.9132159     
  -43574419.3891655     
  -43143420.8149286     
  -42688390.7781700     
  -42162189.1781027     
  -41481097.7049305     
  -40393989.7140706     
SCALARS 2waySource double 
LOOKUP_TABLE default
  0.000000000000000E+000
  0.000000000000000E+000
  0.000000000000000E+000
  0.000000000000000E+000
  0.000000000000000E+000
  0.000000000000000E+000
  0.000000000000000E+000
  0.000000000000000E+000
  0.000000000000000E+000
  0.000000000000000E+000
  0.000000000000000E+000
  0.000000000000000E+000
  0.000000000000000E+000
  0.000000000000000E+000
  0.000000000000000E+000
  0.000000000000000E+000
  0.000000000000000E+000
  0.000000000000000E+000
  0.000000000000000E+000
  0.000000000000000E+000
  0.000000000000000E+000
  0.000000000000000E+000
  0.000000000000000E+000
  0.000000000000000E+000
  0.000000000000000E+000
  0.000000000000000E+000
  0.000000000000000E+000
  0.000000000000000E+000
  0.000000000000000E+000
  0.000000000000000E+000
  0.000000000000000E+000
  0.000000000000000E+000
  0.000000000000000E+000
  0.000000000000000E+000
  0.000000000000000E+000
  0.000000000000000E+000
  0.000000000000000E+000
  0.000000000000000E+000
  0.000000000000000E+000
  0.000000000000000E+000
  0.000000000000000E+000
  0.000000000000000E+000
  0.000000000000000E+000
  0.000000000000000E+000
  0.000000000000000E+000
  0.000000000000000E+000
  0.000000000000000E+000
  0.000000000000000E+000
  0.000000000000000E+000
  0.000000000000000E+000
  0.000000000000000E+000
  0.000000000000000E+000
  0.000000000000000E+000
  0.000000000000000E+000
  0.000000000000000E+000
  0.000000000000000E+000
  0.000000000000000E+000
  0.000000000000000E+000
  0.000000000000000E+000
  0.000000000000000E+000
  0.000000000000000E+000
  0.000000000000000E+000
  0.000000000000000E+000
  0.000000000000000E+000
  0.000000000000000E+000
  0.000000000000000E+000
  0.000000000000000E+000
  0.000000000000000E+000
  0.000000000000000E+000
  0.000000000000000E+000
  0.000000000000000E+000
  0.000000000000000E+000
  0.000000000000000E+000
  0.000000000000000E+000
  0.000000000000000E+000
  0.000000000000000E+000
  0.000000000000000E+000
  0.000000000000000E+000
  0.000000000000000E+000
  0.000000000000000E+000
  0.000000000000000E+000
  0.000000000000000E+000
  0.000000000000000E+000
  0.000000000000000E+000
  0.000000000000000E+000
  0.000000000000000E+000
  0.000000000000000E+000
  0.000000000000000E+000
  0.000000000000000E+000
  0.000000000000000E+000
  0.000000000000000E+000
  0.000000000000000E+000
  0.000000000000000E+000
  0.000000000000000E+000
  0.000000000000000E+000
  0.000000000000000E+000
  0.000000000000000E+000
  0.000000000000000E+000
  0.000000000000000E+000
  0.000000000000000E+000
  0.000000000000000E+000
  0.000000000000000E+000
  0.000000000000000E+000
  0.000000000000000E+000
  0.000000000000000E+000
  0.000000000000000E+000
  0.000000000000000E+000
  0.000000000000000E+000
  0.000000000000000E+000
  0.000000000000000E+000
  0.000000000000000E+000
  0.000000000000000E+000
  0.000000000000000E+000
  0.000000000000000E+000
  0.000000000000000E+000
  0.000000000000000E+000
  0.000000000000000E+000
  0.000000000000000E+000
  0.000000000000000E+000
  0.000000000000000E+000
  0.000000000000000E+000
  0.000000000000000E+000
  0.000000000000000E+000
  0.000000000000000E+000
  0.000000000000000E+000
  0.000000000000000E+000
  0.000000000000000E+000
  0.000000000000000E+000
  0.000000000000000E+000
  0.000000000000000E+000
  0.000000000000000E+000
  0.000000000000000E+000
  0.000000000000000E+000
  0.000000000000000E+000
  0.000000000000000E+000
  0.000000000000000E+000
  0.000000000000000E+000
  0.000000000000000E+000
  0.000000000000000E+000
  0.000000000000000E+000
  0.000000000000000E+000
  0.000000000000000E+000
  0.000000000000000E+000
  0.000000000000000E+000
  0.000000000000000E+000
  0.000000000000000E+000
  0.000000000000000E+000
  0.000000000000000E+000
  0.000000000000000E+000
  0.000000000000000E+000
  0.000000000000000E+000
  0.000000000000000E+000
  0.000000000000000E+000
  0.000000000000000E+000
  0.000000000000000E+000
  0.000000000000000E+000
  0.000000000000000E+000
  0.000000000000000E+000
  0.000000000000000E+000
  0.000000000000000E+000
  0.000000000000000E+000
  0.000000000000000E+000
  0.000000000000000E+000
  0.000000000000000E+000
  0.000000000000000E+000
  0.000000000000000E+000
  0.000000000000000E+000
  0.000000000000000E+000
  0.000000000000000E+000
  0.000000000000000E+000
  0.000000000000000E+000
  0.000000000000000E+000
  0.000000000000000E+000
  0.000000000000000E+000
  0.000000000000000E+000
  0.000000000000000E+000
  0.000000000000000E+000
  0.000000000000000E+000
  0.000000000000000E+000
  0.000000000000000E+000
  0.000000000000000E+000
  0.000000000000000E+000
  0.000000000000000E+000
  0.000000000000000E+000
  0.000000000000000E+000
  0.000000000000000E+000
  0.000000000000000E+000
  0.000000000000000E+000
  0.000000000000000E+000
  0.000000000000000E+000
  0.000000000000000E+000
  0.000000000000000E+000
  0.000000000000000E+000
  0.000000000000000E+000
  0.000000000000000E+000
  0.000000000000000E+000
  0.000000000000000E+000
  0.000000000000000E+000
  0.000000000000000E+000
  0.000000000000000E+000
  0.000000000000000E+000
  0.000000000000000E+000
  0.000000000000000E+000
  0.000000000000000E+000
  0.000000000000000E+000
  0.000000000000000E+000
  0.000000000000000E+000
  0.000000000000000E+000
  0.000000000000000E+000
  0.000000000000000E+000
  0.000000000000000E+000
  0.000000000000000E+000
  0.000000000000000E+000
  0.000000000000000E+000
  0.000000000000000E+000
  0.000000000000000E+000
  0.000000000000000E+000
  0.000000000000000E+000
  0.000000000000000E+000
  0.000000000000000E+000
  0.000000000000000E+000
  0.000000000000000E+000
  0.000000000000000E+000
  0.000000000000000E+000
  0.000000000000000E+000
  0.000000000000000E+000
  0.000000000000000E+000
  0.000000000000000E+000
  0.000000000000000E+000
  0.000000000000000E+000
  0.000000000000000E+000
  0.000000000000000E+000
  0.000000000000000E+000
  0.000000000000000E+000
  0.000000000000000E+000
  0.000000000000000E+000
  0.000000000000000E+000
  0.000000000000000E+000
  0.000000000000000E+000
  0.000000000000000E+000
  0.000000000000000E+000
  0.000000000000000E+000
  0.000000000000000E+000
  0.000000000000000E+000
  0.000000000000000E+000
  0.000000000000000E+000
  0.000000000000000E+000
  0.000000000000000E+000
  0.000000000000000E+000
  0.000000000000000E+000
  0.000000000000000E+000
  0.000000000000000E+000
  0.000000000000000E+000
  0.000000000000000E+000
  0.000000000000000E+000
  0.000000000000000E+000
  0.000000000000000E+000
  0.000000000000000E+000
  0.000000000000000E+000
  0.000000000000000E+000
  0.000000000000000E+000
  0.000000000000000E+000
  0.000000000000000E+000
  0.000000000000000E+000
  0.000000000000000E+000
  0.000000000000000E+000
  0.000000000000000E+000
  0.000000000000000E+000
  0.000000000000000E+000
  0.000000000000000E+000
  0.000000000000000E+000
  0.000000000000000E+000
  0.000000000000000E+000
  0.000000000000000E+000
  0.000000000000000E+000
  0.000000000000000E+000
  0.000000000000000E+000
  0.000000000000000E+000
  0.000000000000000E+000
  0.000000000000000E+000
  0.000000000000000E+000
  0.000000000000000E+000
  0.000000000000000E+000
  0.000000000000000E+000
  0.000000000000000E+000
  0.000000000000000E+000
  0.000000000000000E+000
  0.000000000000000E+000
  0.000000000000000E+000
  0.000000000000000E+000
  0.000000000000000E+000
  0.000000000000000E+000
  0.000000000000000E+000
  0.000000000000000E+000
  0.000000000000000E+000
  0.000000000000000E+000
  0.000000000000000E+000
  0.000000000000000E+000
  0.000000000000000E+000
  0.000000000000000E+000
  0.000000000000000E+000
  0.000000000000000E+000
  0.000000000000000E+000
  0.000000000000000E+000
  0.000000000000000E+000
  0.000000000000000E+000
  0.000000000000000E+000
  0.000000000000000E+000
  0.000000000000000E+000
  0.000000000000000E+000
  0.000000000000000E+000
  0.000000000000000E+000
  0.000000000000000E+000
  0.000000000000000E+000
  0.000000000000000E+000
  0.000000000000000E+000
  0.000000000000000E+000
  0.000000000000000E+000
  0.000000000000000E+000
  0.000000000000000E+000
  0.000000000000000E+000
  0.000000000000000E+000
  0.000000000000000E+000
  0.000000000000000E+000
  0.000000000000000E+000
  0.000000000000000E+000
  0.000000000000000E+000
  0.000000000000000E+000
  0.000000000000000E+000
  0.000000000000000E+000
  0.000000000000000E+000
  0.000000000000000E+000
  0.000000000000000E+000
  0.000000000000000E+000
  0.000000000000000E+000
  0.000000000000000E+000
  0.000000000000000E+000
  0.000000000000000E+000
  0.000000000000000E+000
  0.000000000000000E+000
  0.000000000000000E+000
  0.000000000000000E+000
  0.000000000000000E+000
  0.000000000000000E+000
  0.000000000000000E+000
  0.000000000000000E+000
  0.000000000000000E+000
  0.000000000000000E+000
  0.000000000000000E+000
  0.000000000000000E+000
  0.000000000000000E+000
  0.000000000000000E+000
  0.000000000000000E+000
  0.000000000000000E+000
  0.000000000000000E+000
  0.000000000000000E+000
  0.000000000000000E+000
  0.000000000000000E+000
  0.000000000000000E+000
  0.000000000000000E+000
  0.000000000000000E+000
  0.000000000000000E+000
  0.000000000000000E+000
  0.000000000000000E+000
  0.000000000000000E+000
  0.000000000000000E+000
  0.000000000000000E+000
  0.000000000000000E+000
  0.000000000000000E+000
  0.000000000000000E+000
  0.000000000000000E+000
  0.000000000000000E+000
  0.000000000000000E+000
  0.000000000000000E+000
  0.000000000000000E+000
  0.000000000000000E+000
  0.000000000000000E+000
  0.000000000000000E+000
  0.000000000000000E+000
  0.000000000000000E+000
  0.000000000000000E+000
  0.000000000000000E+000
  0.000000000000000E+000
  0.000000000000000E+000
  0.000000000000000E+000
  0.000000000000000E+000
  0.000000000000000E+000
  0.000000000000000E+000
  0.000000000000000E+000
  0.000000000000000E+000
  0.000000000000000E+000
  0.000000000000000E+000
  0.000000000000000E+000
  0.000000000000000E+000
  0.000000000000000E+000
  0.000000000000000E+000
  0.000000000000000E+000
  0.000000000000000E+000
  0.000000000000000E+000
  0.000000000000000E+000
  0.000000000000000E+000
  0.000000000000000E+000
  0.000000000000000E+000
  0.000000000000000E+000
  0.000000000000000E+000
  0.000000000000000E+000
  0.000000000000000E+000
  0.000000000000000E+000
  0.000000000000000E+000
  0.000000000000000E+000
  0.000000000000000E+000
  0.000000000000000E+000
  0.000000000000000E+000
  0.000000000000000E+000
  0.000000000000000E+000
  0.000000000000000E+000
  0.000000000000000E+000
  0.000000000000000E+000
  0.000000000000000E+000
  0.000000000000000E+000
  0.000000000000000E+000
  0.000000000000000E+000
  0.000000000000000E+000
  0.000000000000000E+000
  0.000000000000000E+000
  0.000000000000000E+000
  0.000000000000000E+000
  0.000000000000000E+000
  0.000000000000000E+000
  0.000000000000000E+000
  0.000000000000000E+000
  0.000000000000000E+000
  0.000000000000000E+000
  0.000000000000000E+000
  0.000000000000000E+000
  0.000000000000000E+000
  0.000000000000000E+000
  0.000000000000000E+000
  0.000000000000000E+000
  0.000000000000000E+000
  0.000000000000000E+000
  0.000000000000000E+000
  0.000000000000000E+000
  0.000000000000000E+000
  0.000000000000000E+000
  0.000000000000000E+000
  0.000000000000000E+000
  0.000000000000000E+000
  0.000000000000000E+000
  0.000000000000000E+000
SCALARS elementIsPlast double 
LOOKUP_TABLE default
  0.000000000000000E+000
  0.000000000000000E+000
  0.000000000000000E+000
  0.000000000000000E+000
  0.000000000000000E+000
  0.000000000000000E+000
  0.000000000000000E+000
  0.000000000000000E+000
  0.000000000000000E+000
  0.000000000000000E+000
  0.000000000000000E+000
  0.000000000000000E+000
  0.000000000000000E+000
  0.000000000000000E+000
  0.000000000000000E+000
  0.000000000000000E+000
  0.000000000000000E+000
  0.000000000000000E+000
  0.000000000000000E+000
  0.000000000000000E+000
  0.000000000000000E+000
  0.000000000000000E+000
  0.000000000000000E+000
  0.000000000000000E+000
  0.000000000000000E+000
  0.000000000000000E+000
  0.000000000000000E+000
  0.000000000000000E+000
  0.000000000000000E+000
  0.000000000000000E+000
  0.000000000000000E+000
  0.000000000000000E+000
  0.000000000000000E+000
  0.000000000000000E+000
  0.000000000000000E+000
  0.000000000000000E+000
  0.000000000000000E+000
  0.000000000000000E+000
  0.000000000000000E+000
  0.000000000000000E+000
  0.000000000000000E+000
  0.000000000000000E+000
  0.000000000000000E+000
  0.000000000000000E+000
  0.000000000000000E+000
  0.000000000000000E+000
  0.000000000000000E+000
  0.000000000000000E+000
  0.000000000000000E+000
  0.000000000000000E+000
  0.000000000000000E+000
  0.000000000000000E+000
  0.000000000000000E+000
  0.000000000000000E+000
  0.000000000000000E+000
  0.000000000000000E+000
  0.000000000000000E+000
  0.000000000000000E+000
  0.000000000000000E+000
  0.000000000000000E+000
  0.000000000000000E+000
  0.000000000000000E+000
  0.000000000000000E+000
  0.000000000000000E+000
  0.000000000000000E+000
  0.000000000000000E+000
  0.000000000000000E+000
  0.000000000000000E+000
  0.000000000000000E+000
  0.000000000000000E+000
  0.000000000000000E+000
  0.000000000000000E+000
  0.000000000000000E+000
  0.000000000000000E+000
  0.000000000000000E+000
  0.000000000000000E+000
  0.000000000000000E+000
  0.000000000000000E+000
  0.000000000000000E+000
  0.000000000000000E+000
  0.000000000000000E+000
  0.000000000000000E+000
  0.000000000000000E+000
  0.000000000000000E+000
  0.000000000000000E+000
  0.000000000000000E+000
  0.000000000000000E+000
  0.000000000000000E+000
  0.000000000000000E+000
  0.000000000000000E+000
  0.000000000000000E+000
  0.000000000000000E+000
  0.000000000000000E+000
  0.000000000000000E+000
  0.000000000000000E+000
  0.000000000000000E+000
  0.000000000000000E+000
  0.000000000000000E+000
  0.000000000000000E+000
  0.000000000000000E+000
  0.000000000000000E+000
  0.000000000000000E+000
  0.000000000000000E+000
  0.000000000000000E+000
  0.000000000000000E+000
  0.000000000000000E+000
  0.000000000000000E+000
  0.000000000000000E+000
  0.000000000000000E+000
  0.000000000000000E+000
  0.000000000000000E+000
  0.000000000000000E+000
  0.000000000000000E+000
  0.000000000000000E+000
  0.000000000000000E+000
  0.000000000000000E+000
  0.000000000000000E+000
  0.000000000000000E+000
  0.000000000000000E+000
  0.000000000000000E+000
  0.000000000000000E+000
  0.000000000000000E+000
  0.000000000000000E+000
  0.000000000000000E+000
  0.000000000000000E+000
  0.000000000000000E+000
  0.000000000000000E+000
  0.000000000000000E+000
  0.000000000000000E+000
  0.000000000000000E+000
  0.000000000000000E+000
  0.000000000000000E+000
  0.000000000000000E+000
  0.000000000000000E+000
  0.000000000000000E+000
  0.000000000000000E+000
  0.000000000000000E+000
  0.000000000000000E+000
  0.000000000000000E+000
  0.000000000000000E+000
  0.000000000000000E+000
  0.000000000000000E+000
  0.000000000000000E+000
  0.000000000000000E+000
  0.000000000000000E+000
  0.000000000000000E+000
  0.000000000000000E+000
  0.000000000000000E+000
  0.000000000000000E+000
  0.000000000000000E+000
  0.000000000000000E+000
  0.000000000000000E+000
  0.000000000000000E+000
  0.000000000000000E+000
  0.000000000000000E+000
  0.000000000000000E+000
  0.000000000000000E+000
  0.000000000000000E+000
  0.000000000000000E+000
  0.000000000000000E+000
  0.000000000000000E+000
  0.000000000000000E+000
  0.000000000000000E+000
  0.000000000000000E+000
  0.000000000000000E+000
  0.000000000000000E+000
  0.000000000000000E+000
  0.000000000000000E+000
  0.000000000000000E+000
  0.000000000000000E+000
  0.000000000000000E+000
  0.000000000000000E+000
  0.000000000000000E+000
  0.000000000000000E+000
  0.000000000000000E+000
  0.000000000000000E+000
  0.000000000000000E+000
  0.000000000000000E+000
  0.000000000000000E+000
  0.000000000000000E+000
  0.000000000000000E+000
  0.000000000000000E+000
  0.000000000000000E+000
  0.000000000000000E+000
  0.000000000000000E+000
  0.000000000000000E+000
  0.000000000000000E+000
  0.000000000000000E+000
  0.000000000000000E+000
  0.000000000000000E+000
  0.000000000000000E+000
  0.000000000000000E+000
  0.000000000000000E+000
  0.000000000000000E+000
  0.000000000000000E+000
  0.000000000000000E+000
  0.000000000000000E+000
  0.000000000000000E+000
  0.000000000000000E+000
  0.000000000000000E+000
  0.000000000000000E+000
  0.000000000000000E+000
  0.000000000000000E+000
  0.000000000000000E+000
  0.000000000000000E+000
  0.000000000000000E+000
  0.000000000000000E+000
  0.000000000000000E+000
  0.000000000000000E+000
  0.000000000000000E+000
  0.000000000000000E+000
  0.000000000000000E+000
  0.000000000000000E+000
  0.000000000000000E+000
  0.000000000000000E+000
  0.000000000000000E+000
  0.000000000000000E+000
  0.000000000000000E+000
  0.000000000000000E+000
  0.000000000000000E+000
  0.000000000000000E+000
  0.000000000000000E+000
  0.000000000000000E+000
  0.000000000000000E+000
  0.000000000000000E+000
  0.000000000000000E+000
  0.000000000000000E+000
  0.000000000000000E+000
  0.000000000000000E+000
  0.000000000000000E+000
  0.000000000000000E+000
  0.000000000000000E+000
  0.000000000000000E+000
  0.000000000000000E+000
  0.000000000000000E+000
  0.000000000000000E+000
  0.000000000000000E+000
  0.000000000000000E+000
  0.000000000000000E+000
  0.000000000000000E+000
  0.000000000000000E+000
  0.000000000000000E+000
  0.000000000000000E+000
  0.000000000000000E+000
  0.000000000000000E+000
  0.000000000000000E+000
  0.000000000000000E+000
  0.000000000000000E+000
  0.000000000000000E+000
  0.000000000000000E+000
  0.000000000000000E+000
  0.000000000000000E+000
  0.000000000000000E+000
  0.000000000000000E+000
  0.000000000000000E+000
  0.000000000000000E+000
  0.000000000000000E+000
  0.000000000000000E+000
  0.000000000000000E+000
  0.000000000000000E+000
  0.000000000000000E+000
  0.000000000000000E+000
  0.000000000000000E+000
  0.000000000000000E+000
  0.000000000000000E+000
  0.000000000000000E+000
  0.000000000000000E+000
  0.000000000000000E+000
  0.000000000000000E+000
  0.000000000000000E+000
  0.000000000000000E+000
  0.000000000000000E+000
  0.000000000000000E+000
  0.000000000000000E+000
  0.000000000000000E+000
  0.000000000000000E+000
  0.000000000000000E+000
  0.000000000000000E+000
  0.000000000000000E+000
  0.000000000000000E+000
  0.000000000000000E+000
  0.000000000000000E+000
  0.000000000000000E+000
  0.000000000000000E+000
  0.000000000000000E+000
  0.000000000000000E+000
  0.000000000000000E+000
  0.000000000000000E+000
  0.000000000000000E+000
  0.000000000000000E+000
  0.000000000000000E+000
  0.000000000000000E+000
  0.000000000000000E+000
  0.000000000000000E+000
  0.000000000000000E+000
  0.000000000000000E+000
  0.000000000000000E+000
  0.000000000000000E+000
  0.000000000000000E+000
  0.000000000000000E+000
  0.000000000000000E+000
  0.000000000000000E+000
  0.000000000000000E+000
  0.000000000000000E+000
  0.000000000000000E+000
  0.000000000000000E+000
  0.000000000000000E+000
  0.000000000000000E+000
  0.000000000000000E+000
  0.000000000000000E+000
  0.000000000000000E+000
  0.000000000000000E+000
  0.000000000000000E+000
  0.000000000000000E+000
  0.000000000000000E+000
  0.000000000000000E+000
  0.000000000000000E+000
  0.000000000000000E+000
  0.000000000000000E+000
  0.000000000000000E+000
  0.000000000000000E+000
  0.000000000000000E+000
  0.000000000000000E+000
  0.000000000000000E+000
  0.000000000000000E+000
  0.000000000000000E+000
  0.000000000000000E+000
  0.000000000000000E+000
  0.000000000000000E+000
  0.000000000000000E+000
  0.000000000000000E+000
  0.000000000000000E+000
  0.000000000000000E+000
  0.000000000000000E+000
  0.000000000000000E+000
  0.000000000000000E+000
  0.000000000000000E+000
  0.000000000000000E+000
  0.000000000000000E+000
  0.000000000000000E+000
  0.000000000000000E+000
  0.000000000000000E+000
  0.000000000000000E+000
  0.000000000000000E+000
  0.000000000000000E+000
  0.000000000000000E+000
  0.000000000000000E+000
  0.000000000000000E+000
  0.000000000000000E+000
  0.000000000000000E+000
  0.000000000000000E+000
  0.000000000000000E+000
  0.000000000000000E+000
  0.000000000000000E+000
  0.000000000000000E+000
  0.000000000000000E+000
  0.000000000000000E+000
  0.000000000000000E+000
  0.000000000000000E+000
  0.000000000000000E+000
  0.000000000000000E+000
  0.000000000000000E+000
  0.000000000000000E+000
  0.000000000000000E+000
  0.000000000000000E+000
  0.000000000000000E+000
  0.000000000000000E+000
  0.000000000000000E+000
  0.000000000000000E+000
  0.000000000000000E+000
  0.000000000000000E+000
  0.000000000000000E+000
  0.000000000000000E+000
  0.000000000000000E+000
  0.000000000000000E+000
  0.000000000000000E+000
  0.000000000000000E+000
  0.000000000000000E+000
  0.000000000000000E+000
  0.000000000000000E+000
  0.000000000000000E+000
  0.000000000000000E+000
  0.000000000000000E+000
  0.000000000000000E+000
  0.000000000000000E+000
  0.000000000000000E+000
  0.000000000000000E+000
  0.000000000000000E+000
  0.000000000000000E+000
  0.000000000000000E+000
  0.000000000000000E+000
  0.000000000000000E+000
  0.000000000000000E+000
  0.000000000000000E+000
  0.000000000000000E+000
  0.000000000000000E+000
  0.000000000000000E+000
  0.000000000000000E+000
  0.000000000000000E+000
  0.000000000000000E+000
  0.000000000000000E+000
  0.000000000000000E+000
  0.000000000000000E+000
  0.000000000000000E+000
  0.000000000000000E+000
  0.000000000000000E+000
  0.000000000000000E+000
  0.000000000000000E+000
  0.000000000000000E+000
  0.000000000000000E+000
  0.000000000000000E+000
  0.000000000000000E+000
  0.000000000000000E+000
  0.000000000000000E+000
  0.000000000000000E+000
  0.000000000000000E+000
  0.000000000000000E+000
  0.000000000000000E+000
  0.000000000000000E+000
  0.000000000000000E+000
  0.000000000000000E+000
  0.000000000000000E+000
  0.000000000000000E+000
  0.000000000000000E+000
  0.000000000000000E+000
  0.000000000000000E+000
  0.000000000000000E+000
  0.000000000000000E+000
  0.000000000000000E+000
  0.000000000000000E+000
  0.000000000000000E+000
  0.000000000000000E+000
  0.000000000000000E+000
  0.000000000000000E+000
  0.000000000000000E+000
  0.000000000000000E+000
  0.000000000000000E+000
  0.000000000000000E+000
  0.000000000000000E+000
  0.000000000000000E+000
  0.000000000000000E+000
  0.000000000000000E+000
  0.000000000000000E+000
  0.000000000000000E+000
  0.000000000000000E+000
  0.000000000000000E+000
  0.000000000000000E+000
  0.000000000000000E+000
  0.000000000000000E+000
  0.000000000000000E+000
SCALARS poroL double 
LOOKUP_TABLE default
  0.251085641395646     
  0.251048135208270     
  0.251004319999356     
  0.250955716456552     
  0.250903726753293     
  0.250849624502196     
  0.250794550358279     
  0.250739511966538     
  0.250685386910231     
  0.250632927339656     
  0.250582765037478     
  0.250535415798720     
  0.250491282166535     
  0.250450653766164     
  0.250413704718520     
  0.251093389181941     
  0.251054251524872     
  0.251008909491028     
  0.250958900262916     
  0.250905635592293     
  0.250850392980818     
  0.250794312615863     
  0.250738398684940     
  0.250683523663825     
  0.250630434206005     
  0.250579757344657     
  0.250532005845390     
  0.250487581713266     
  0.250446777059316     
  0.250409771769944     
  0.251108779412022     
  0.251066354660924     
  0.251017942889556     
  0.250965113193298     
  0.250909295221166     
  0.250851772892034     
  0.250793684067019     
  0.250736024658602     
  0.250679655649818     
  0.250625311548794     
  0.250573608902877     
  0.250525053633470     
  0.250480046122283     
  0.250438883181000     
  0.250401756271495     
  0.251131589736006     
  0.251084174795982     
  0.251031119308392     
  0.250974037455634     
  0.250914382501797     
  0.250853444517494     
  0.250792354336302     
  0.250732092007380     
  0.250673498037483     
  0.250617285799686     
  0.250564053609785     
  0.250514295123317     
  0.250468406880972     
  0.250426692028168     
  0.250389359461403     
  0.251161456856092     
  0.251107279618168     
  0.251047962700847     
  0.250985174951521     
  0.250920394856925     
  0.250854914003189     
  0.250789847080317     
  0.250726146405594     
  0.250664619024927     
  0.250605944583961     
  0.250550692320748     
  0.250499335704338     
  0.250452263423033     
  0.250409785614725     
  0.250372134439854     
  0.251197839075272     
  0.251135039776024     
  0.251067791009448     
  0.250997820627302     
  0.250926628069801     
  0.250855495636975     
  0.250785506595303     
  0.250717567730298     
  0.250652434123690     
  0.250590734137644     
  0.250532992799316     
  0.250479651978322     
  0.250431085930768     
  0.250387610951756     
  0.250349488050516     
  0.251239963452681     
  0.251166580381132     
  0.251089673046410     
  0.251011025353465     
  0.250932145429153     
  0.250854287234846     
  0.250778479192044     
  0.250705556997397     
  0.250636198092968     
  0.250570955562243     
  0.250510289503244     
  0.250454594162756     
  0.250404219292586     
  0.250359484319082     
  0.250320684026290     
  0.251286755009794     
  0.251200716457148     
  0.251112371412529     
  0.251023546992489     
  0.250935737165402     
  0.250850137802153     
  0.250767688668722     
  0.250689119040516     
  0.250614994081446     
  0.250545759576503     
  0.250481782982441     
  0.250423389034915     
  0.250370888313125     
  0.250324597229189     
  0.250284847915367     
  0.251336744742712     
  0.251235869709273     
  0.251134269377179     
  0.251033788033240     
  0.250935868909861     
  0.250841606458341     
  0.250751805046427     
  0.250667040217154     
  0.250587719353826     
  0.250514139237218     
  0.250446538484714     
  0.250385143184832     
  0.250330204173775     
  0.250282024364836     
  0.250240974387326     
  0.251387952519132     
  0.251269963515887     
  0.251153279328550     
  0.251039717965813     
  0.250930617765501     
  0.250826911488786     
  0.250729205591996     
  0.250637860250811     
  0.250553066760773     
  0.250474919847857     
  0.250403483097522     
  0.250338846094476     
  0.250281171946397     
  0.250230733674238     
  0.250187937559254     
  0.251437740326656     
  0.251300292681639     
  0.251166730224898     
  0.251038778507376     
  0.250917594562677     
  0.250803868362029     
  0.250697927072845     
  0.250599837156124     
  0.250509500860282     
  0.250426744946088     
  0.250351400379585     
  0.250283372184563     
  0.250222698641669     
  0.250169598603252     
  0.250124504956877     
  0.251482630875985     
  0.251323364331935     
  0.251171231531670     
  0.251027769962088     
  0.250893851072671     
  0.250769815697590     
  0.250655608223005     
  0.250550904081165     
  0.250455227330223     
  0.250368056856374     
  0.250288920937276     
  0.250217480440429     
  0.250153600790708     
  0.250097412096547     
  0.250049355605142     
  0.251518086369821     
  0.251334706506352     
  0.251162511555885     
  0.251002717544120     
  0.250855771491793     
  0.250721528595039     
  0.250599421630407     
  0.250488616892040     
  0.250388154054979     
  0.250297069816891     
  0.250214506763025     
  0.250139809515243     
  0.250072609875554     
  0.250012901466605     
  0.249961102487489     
  0.251538242489104     
  0.251328641706362     
  0.251135229083178     
  0.250958717605719     
  0.250798948566874     
  0.250655119589414     
  0.250525994798671     
  0.250410091499539     
  0.250305842069296     
  0.250211733157202     
  0.250126426368483     
  0.250048865285976     
  0.249978373000909     
  0.249914742462848     
  0.249858319173817     
  0.251535593527364     
  0.251298024113817     
  0.251082759051150     
  0.250889765659643     
  0.250718046554607     
  0.250565928987175     
  0.250431321149453     
  0.250311930394070     
  0.250205444463984     
  0.250109681442473     
  0.250022716813678     
  0.249942996683250     
  0.249869444998323     
  0.249801569823044     
  0.249739569735657     
  0.251500626364276     
  0.251233941738472     
  0.250996956018723     
  0.250788571235737     
  0.250606656126367     
  0.250448408733632     
  0.250310663416031     
  0.250190138748431     
  0.250083631480364     
  0.249988167948926     
  0.249901127662150     
  0.249820354216054     
  0.249744266643318     
  0.249671980208438     
  0.249603440080074     
  0.251421403887920     
  0.251125388796472     
  0.250867903920924     
  0.250646369477252     
  0.250457150798251     
  0.250296007618639     
  0.250158454478797     
  0.250040031919487     
  0.249936500426780     
  0.249843977332280     
  0.249759040691333     
  0.249678823958391     
  0.249601121824360     
  0.249524521676788     
  0.249448567483143     
  0.251283102869896     
  0.250958919756368     
  0.250683667766623     
  0.250452746694925     
  0.250260561093473     
  0.250101070976953     
  0.249968204474876     
  0.249856138369325     
  0.249759469803918     
  0.249673312918419     
  0.249593357859469     
  0.249515927849622     
  0.249438064318351     
  0.249357661717277     
  0.249273663354653     
  0.251067517573153     
  0.250718305617582     
  0.250430073681409     
  0.250195507940534     
  0.250006492257573     
  0.249854775587023     
  0.249732428210870     
  0.249632105004232     
  0.249547158126581     
  0.249471653664980     
  0.249400348551624     
  0.249328678958370     
  0.249252802283650     
  0.249169723362915     
  0.249077522135445     
  0.250752549159792     
  0.250384226647249     
  0.250090559918173     
  0.249860630719298     
  0.249683125060326     
  0.249547130716194     
  0.249442613591633     
  0.249360615587421     
  0.249293249261348     
  0.249233575436886     
  0.249175445432354     
  0.249113377789171     
  0.249042525605222     
  0.248958776006962     
  0.248859006820176     
  0.250311713454661     
  0.249934056891242     
  0.249646166545974     
  0.249432372958914     
  0.249277358468618     
  0.249167089458473     
  0.249089259557353     
  0.249033336744076     
  0.248990347385748     
  0.248952530710881     
  0.248912976221613     
  0.248865332555568     
  0.248803657540172     
  0.248722464151663     
  0.248616999109630     
  0.249713718371453     
  0.249341830119743     
  0.249075771961938     
  0.248893639797479     
  0.248775179368178     
  0.248702829962033     
  0.248662019384832     
  0.248640908996509     
  0.248629825563483     
  0.248620580271955     
  0.248605816369679     
  0.248578482083599     
  0.248531506871882     
  0.248457752784093     
  0.248350299835027     
  0.248922192777151     
  0.248578537284851     
  0.248356752913700     
  0.248226770260775     
  0.248162378667253     
  0.248142280359559     
  0.248149988051864     
  0.248173000101883     
  0.248201672415073     
  0.248228070958751     
  0.248244945317482     
  0.248244893578945     
  0.248219787583824     
  0.248160560342732     
  0.248057462844607     
  0.247895705222886     
  0.247613020219462     
  0.247466369351097     
  0.247414992352513     
  0.247425771213353     
  0.247473962609898     
  0.247542161583597     
  0.247618431304169     
  0.247694343505555     
  0.247763258590101     
  0.247818889055131     
  0.247854096226830     
  0.247859954169715     
  0.247825232790933     
  0.247736541323379     
  0.246588320621717     
  0.246413975889122     
  0.246384409639751     
  0.246444929995493     
  0.246555092958111     
  0.246688189879154     
  0.246828053447400     
  0.246965371760601     
  0.247094633997181     
  0.247211896544920     
  0.247313038577103     
  0.247392193793064     
  0.247440254524387     
  0.247443769461669     
  0.247384711260525     
  0.244951257212997     
  0.244954136066958     
  0.245098138942657     
  0.245310688344929     
  0.245545664753299     
  0.245778495500377     
  0.245998357090178     
  0.246201575295654     
  0.246387625343594     
  0.246556862890105     
  0.246708880628409     
  0.246840656664371     
  0.246944307369950     
  0.247004579274354     
  0.246997696727129     
  0.242936814134930     
  0.243219485124968     
  0.243611423003610     
  0.244020089536124     
  0.244401383939457     
  0.244742807044562     
  0.245045423727813     
  0.245314619647503     
  0.245556810066482     
  0.245778067828339     
  0.245983257712772     
  0.246174748165783     
  0.246348668412503     
  0.246490265960326     
  0.246568719207252     
  0.240510795259352     
  0.241230093251235     
  0.241962264394102     
  0.242601624837686     
  0.243136118626974     
  0.243583565827632     
  0.243963238081355     
  0.244292113009728     
  0.244584553649865     
  0.244852974681197     
  0.245108532468129     
  0.245361244401652     
  0.245618847751074     
  0.245872273182895     
  0.246086450771739     
  0.237688969313007     
  0.239104990135346     
  0.240243829291829     
  0.241103112653181     
  0.241771257072272     
  0.242305882081712     
  0.242746655365940     
  0.243121828589123     
  0.243452966465859     
  0.243758112096730     
  0.244054288829932     
  0.244360035601370     
  0.244697837179599     
  0.245100481758299     
  0.245526264018903     
  0.234857577774205     
  0.237153043498876     
  0.238576032822717     
  0.239578023086506     
  0.240327419635360     
  0.240913531550219     
  0.241389766745340     
  0.241791573487420     
  0.242144922754008     
  0.242471266735043     
  0.242791316990858     
  0.243129269645990     
  0.243520284746058     
  0.244026924218818     
  0.244838763093824     
