# vtk DataFile Version 3.0
vtk output
ASCII
DATASET UNSTRUCTURED_GRID
POINTS       496 double 
  0.00000000E+00  3.00000000E+02  0.00000000E+00
  0.00000000E+00  2.80000000E+02  0.00000000E+00
  0.00000000E+00  2.60000000E+02  0.00000000E+00
  0.00000000E+00  2.40000000E+02  0.00000000E+00
  0.00000000E+00  2.20000000E+02  0.00000000E+00
  0.00000000E+00  2.00000000E+02  0.00000000E+00
  0.00000000E+00  1.80000000E+02  0.00000000E+00
  0.00000000E+00  1.60000000E+02  0.00000000E+00
  0.00000000E+00  1.40000000E+02  0.00000000E+00
  0.00000000E+00  1.20000000E+02  0.00000000E+00
  0.00000000E+00  1.00000000E+02  0.00000000E+00
  0.00000000E+00  8.00000000E+01  0.00000000E+00
  0.00000000E+00  6.00000000E+01  0.00000000E+00
  0.00000000E+00  4.00000000E+01  0.00000000E+00
  0.00000000E+00  2.00000000E+01  0.00000000E+00
  0.00000000E+00  4.99600361E-14  0.00000000E+00
  2.00000000E+01  3.00000000E+02  0.00000000E+00
  2.00000000E+01  2.80000000E+02  0.00000000E+00
  2.00000000E+01  2.60000000E+02  0.00000000E+00
  2.00000000E+01  2.40000000E+02  0.00000000E+00
  2.00000000E+01  2.20000000E+02  0.00000000E+00
  2.00000000E+01  2.00000000E+02  0.00000000E+00
  2.00000000E+01  1.80000000E+02  0.00000000E+00
  2.00000000E+01  1.60000000E+02  0.00000000E+00
  2.00000000E+01  1.40000000E+02  0.00000000E+00
  2.00000000E+01  1.20000000E+02  0.00000000E+00
  2.00000000E+01  1.00000000E+02  0.00000000E+00
  2.00000000E+01  8.00000000E+01  0.00000000E+00
  2.00000000E+01  6.00000000E+01  0.00000000E+00
  2.00000000E+01  4.00000000E+01  0.00000000E+00
  2.00000000E+01  2.00000000E+01  0.00000000E+00
  2.00000000E+01  4.99600361E-14  0.00000000E+00
  4.00000000E+01  3.00000000E+02  0.00000000E+00
  4.00000000E+01  2.80000000E+02  0.00000000E+00
  4.00000000E+01  2.60000000E+02  0.00000000E+00
  4.00000000E+01  2.40000000E+02  0.00000000E+00
  4.00000000E+01  2.20000000E+02  0.00000000E+00
  4.00000000E+01  2.00000000E+02  0.00000000E+00
  4.00000000E+01  1.80000000E+02  0.00000000E+00
  4.00000000E+01  1.60000000E+02  0.00000000E+00
  4.00000000E+01  1.40000000E+02  0.00000000E+00
  4.00000000E+01  1.20000000E+02  0.00000000E+00
  4.00000000E+01  1.00000000E+02  0.00000000E+00
  4.00000000E+01  8.00000000E+01  0.00000000E+00
  4.00000000E+01  6.00000000E+01  0.00000000E+00
  4.00000000E+01  4.00000000E+01  0.00000000E+00
  4.00000000E+01  2.00000000E+01  0.00000000E+00
  4.00000000E+01  4.99600361E-14  0.00000000E+00
  6.00000000E+01  3.00000000E+02  0.00000000E+00
  6.00000000E+01  2.80000000E+02  0.00000000E+00
  6.00000000E+01  2.60000000E+02  0.00000000E+00
  6.00000000E+01  2.40000000E+02  0.00000000E+00
  6.00000000E+01  2.20000000E+02  0.00000000E+00
  6.00000000E+01  2.00000000E+02  0.00000000E+00
  6.00000000E+01  1.80000000E+02  0.00000000E+00
  6.00000000E+01  1.60000000E+02  0.00000000E+00
  6.00000000E+01  1.40000000E+02  0.00000000E+00
  6.00000000E+01  1.20000000E+02  0.00000000E+00
  6.00000000E+01  1.00000000E+02  0.00000000E+00
  6.00000000E+01  8.00000000E+01  0.00000000E+00
  6.00000000E+01  6.00000000E+01  0.00000000E+00
  6.00000000E+01  4.00000000E+01  0.00000000E+00
  6.00000000E+01  2.00000000E+01  0.00000000E+00
  6.00000000E+01  4.99600361E-14  0.00000000E+00
  8.00000000E+01  3.00000000E+02  0.00000000E+00
  8.00000000E+01  2.80000000E+02  0.00000000E+00
  8.00000000E+01  2.60000000E+02  0.00000000E+00
  8.00000000E+01  2.40000000E+02  0.00000000E+00
  8.00000000E+01  2.20000000E+02  0.00000000E+00
  8.00000000E+01  2.00000000E+02  0.00000000E+00
  8.00000000E+01  1.80000000E+02  0.00000000E+00
  8.00000000E+01  1.60000000E+02  0.00000000E+00
  8.00000000E+01  1.40000000E+02  0.00000000E+00
  8.00000000E+01  1.20000000E+02  0.00000000E+00
  8.00000000E+01  1.00000000E+02  0.00000000E+00
  8.00000000E+01  8.00000000E+01  0.00000000E+00
  8.00000000E+01  6.00000000E+01  0.00000000E+00
  8.00000000E+01  4.00000000E+01  0.00000000E+00
  8.00000000E+01  2.00000000E+01  0.00000000E+00
  8.00000000E+01  4.99600361E-14  0.00000000E+00
  1.00000000E+02  3.00000000E+02  0.00000000E+00
  1.00000000E+02  2.80000000E+02  0.00000000E+00
  1.00000000E+02  2.60000000E+02  0.00000000E+00
  1.00000000E+02  2.40000000E+02  0.00000000E+00
  1.00000000E+02  2.20000000E+02  0.00000000E+00
  1.00000000E+02  2.00000000E+02  0.00000000E+00
  1.00000000E+02  1.80000000E+02  0.00000000E+00
  1.00000000E+02  1.60000000E+02  0.00000000E+00
  1.00000000E+02  1.40000000E+02  0.00000000E+00
  1.00000000E+02  1.20000000E+02  0.00000000E+00
  1.00000000E+02  1.00000000E+02  0.00000000E+00
  1.00000000E+02  8.00000000E+01  0.00000000E+00
  1.00000000E+02  6.00000000E+01  0.00000000E+00
  1.00000000E+02  4.00000000E+01  0.00000000E+00
  1.00000000E+02  2.00000000E+01  0.00000000E+00
  1.00000000E+02  4.99600361E-14  0.00000000E+00
  1.20000000E+02  3.00000000E+02  0.00000000E+00
  1.20000000E+02  2.80000000E+02  0.00000000E+00
  1.20000000E+02  2.60000000E+02  0.00000000E+00
  1.20000000E+02  2.40000000E+02  0.00000000E+00
  1.20000000E+02  2.20000000E+02  0.00000000E+00
  1.20000000E+02  2.00000000E+02  0.00000000E+00
  1.20000000E+02  1.80000000E+02  0.00000000E+00
  1.20000000E+02  1.60000000E+02  0.00000000E+00
  1.20000000E+02  1.40000000E+02  0.00000000E+00
  1.20000000E+02  1.20000000E+02  0.00000000E+00
  1.20000000E+02  1.00000000E+02  0.00000000E+00
  1.20000000E+02  8.00000000E+01  0.00000000E+00
  1.20000000E+02  6.00000000E+01  0.00000000E+00
  1.20000000E+02  4.00000000E+01  0.00000000E+00
  1.20000000E+02  2.00000000E+01  0.00000000E+00
  1.20000000E+02  4.99600361E-14  0.00000000E+00
  1.40000000E+02  3.00000000E+02  0.00000000E+00
  1.40000000E+02  2.80000000E+02  0.00000000E+00
  1.40000000E+02  2.60000000E+02  0.00000000E+00
  1.40000000E+02  2.40000000E+02  0.00000000E+00
  1.40000000E+02  2.20000000E+02  0.00000000E+00
  1.40000000E+02  2.00000000E+02  0.00000000E+00
  1.40000000E+02  1.80000000E+02  0.00000000E+00
  1.40000000E+02  1.60000000E+02  0.00000000E+00
  1.40000000E+02  1.40000000E+02  0.00000000E+00
  1.40000000E+02  1.20000000E+02  0.00000000E+00
  1.40000000E+02  1.00000000E+02  0.00000000E+00
  1.40000000E+02  8.00000000E+01  0.00000000E+00
  1.40000000E+02  6.00000000E+01  0.00000000E+00
  1.40000000E+02  4.00000000E+01  0.00000000E+00
  1.40000000E+02  2.00000000E+01  0.00000000E+00
  1.40000000E+02  4.99600361E-14  0.00000000E+00
  1.60000000E+02  3.00000000E+02  0.00000000E+00
  1.60000000E+02  2.80000000E+02  0.00000000E+00
  1.60000000E+02  2.60000000E+02  0.00000000E+00
  1.60000000E+02  2.40000000E+02  0.00000000E+00
  1.60000000E+02  2.20000000E+02  0.00000000E+00
  1.60000000E+02  2.00000000E+02  0.00000000E+00
  1.60000000E+02  1.80000000E+02  0.00000000E+00
  1.60000000E+02  1.60000000E+02  0.00000000E+00
  1.60000000E+02  1.40000000E+02  0.00000000E+00
  1.60000000E+02  1.20000000E+02  0.00000000E+00
  1.60000000E+02  1.00000000E+02  0.00000000E+00
  1.60000000E+02  8.00000000E+01  0.00000000E+00
  1.60000000E+02  6.00000000E+01  0.00000000E+00
  1.60000000E+02  4.00000000E+01  0.00000000E+00
  1.60000000E+02  2.00000000E+01  0.00000000E+00
  1.60000000E+02  4.99600361E-14  0.00000000E+00
  1.80000000E+02  3.00000000E+02  0.00000000E+00
  1.80000000E+02  2.80000000E+02  0.00000000E+00
  1.80000000E+02  2.60000000E+02  0.00000000E+00
  1.80000000E+02  2.40000000E+02  0.00000000E+00
  1.80000000E+02  2.20000000E+02  0.00000000E+00
  1.80000000E+02  2.00000000E+02  0.00000000E+00
  1.80000000E+02  1.80000000E+02  0.00000000E+00
  1.80000000E+02  1.60000000E+02  0.00000000E+00
  1.80000000E+02  1.40000000E+02  0.00000000E+00
  1.80000000E+02  1.20000000E+02  0.00000000E+00
  1.80000000E+02  1.00000000E+02  0.00000000E+00
  1.80000000E+02  8.00000000E+01  0.00000000E+00
  1.80000000E+02  6.00000000E+01  0.00000000E+00
  1.80000000E+02  4.00000000E+01  0.00000000E+00
  1.80000000E+02  2.00000000E+01  0.00000000E+00
  1.80000000E+02  4.99600361E-14  0.00000000E+00
  2.00000000E+02  3.00000000E+02  0.00000000E+00
  2.00000000E+02  2.80000000E+02  0.00000000E+00
  2.00000000E+02  2.60000000E+02  0.00000000E+00
  2.00000000E+02  2.40000000E+02  0.00000000E+00
  2.00000000E+02  2.20000000E+02  0.00000000E+00
  2.00000000E+02  2.00000000E+02  0.00000000E+00
  2.00000000E+02  1.80000000E+02  0.00000000E+00
  2.00000000E+02  1.60000000E+02  0.00000000E+00
  2.00000000E+02  1.40000000E+02  0.00000000E+00
  2.00000000E+02  1.20000000E+02  0.00000000E+00
  2.00000000E+02  1.00000000E+02  0.00000000E+00
  2.00000000E+02  8.00000000E+01  0.00000000E+00
  2.00000000E+02  6.00000000E+01  0.00000000E+00
  2.00000000E+02  4.00000000E+01  0.00000000E+00
  2.00000000E+02  2.00000000E+01  0.00000000E+00
  2.00000000E+02  4.99600361E-14  0.00000000E+00
  2.20000000E+02  3.00000000E+02  0.00000000E+00
  2.20000000E+02  2.80000000E+02  0.00000000E+00
  2.20000000E+02  2.60000000E+02  0.00000000E+00
  2.20000000E+02  2.40000000E+02  0.00000000E+00
  2.20000000E+02  2.20000000E+02  0.00000000E+00
  2.20000000E+02  2.00000000E+02  0.00000000E+00
  2.20000000E+02  1.80000000E+02  0.00000000E+00
  2.20000000E+02  1.60000000E+02  0.00000000E+00
  2.20000000E+02  1.40000000E+02  0.00000000E+00
  2.20000000E+02  1.20000000E+02  0.00000000E+00
  2.20000000E+02  1.00000000E+02  0.00000000E+00
  2.20000000E+02  8.00000000E+01  0.00000000E+00
  2.20000000E+02  6.00000000E+01  0.00000000E+00
  2.20000000E+02  4.00000000E+01  0.00000000E+00
  2.20000000E+02  2.00000000E+01  0.00000000E+00
  2.20000000E+02  4.99600361E-14  0.00000000E+00
  2.40000000E+02  3.00000000E+02  0.00000000E+00
  2.40000000E+02  2.80000000E+02  0.00000000E+00
  2.40000000E+02  2.60000000E+02  0.00000000E+00
  2.40000000E+02  2.40000000E+02  0.00000000E+00
  2.40000000E+02  2.20000000E+02  0.00000000E+00
  2.40000000E+02  2.00000000E+02  0.00000000E+00
  2.40000000E+02  1.80000000E+02  0.00000000E+00
  2.40000000E+02  1.60000000E+02  0.00000000E+00
  2.40000000E+02  1.40000000E+02  0.00000000E+00
  2.40000000E+02  1.20000000E+02  0.00000000E+00
  2.40000000E+02  1.00000000E+02  0.00000000E+00
  2.40000000E+02  8.00000000E+01  0.00000000E+00
  2.40000000E+02  6.00000000E+01  0.00000000E+00
  2.40000000E+02  4.00000000E+01  0.00000000E+00
  2.40000000E+02  2.00000000E+01  0.00000000E+00
  2.40000000E+02  4.99600361E-14  0.00000000E+00
  2.60000000E+02  3.00000000E+02  0.00000000E+00
  2.60000000E+02  2.80000000E+02  0.00000000E+00
  2.60000000E+02  2.60000000E+02  0.00000000E+00
  2.60000000E+02  2.40000000E+02  0.00000000E+00
  2.60000000E+02  2.20000000E+02  0.00000000E+00
  2.60000000E+02  2.00000000E+02  0.00000000E+00
  2.60000000E+02  1.80000000E+02  0.00000000E+00
  2.60000000E+02  1.60000000E+02  0.00000000E+00
  2.60000000E+02  1.40000000E+02  0.00000000E+00
  2.60000000E+02  1.20000000E+02  0.00000000E+00
  2.60000000E+02  1.00000000E+02  0.00000000E+00
  2.60000000E+02  8.00000000E+01  0.00000000E+00
  2.60000000E+02  6.00000000E+01  0.00000000E+00
  2.60000000E+02  4.00000000E+01  0.00000000E+00
  2.60000000E+02  2.00000000E+01  0.00000000E+00
  2.60000000E+02  4.99600361E-14  0.00000000E+00
  2.80000000E+02  3.00000000E+02  0.00000000E+00
  2.80000000E+02  2.80000000E+02  0.00000000E+00
  2.80000000E+02  2.60000000E+02  0.00000000E+00
  2.80000000E+02  2.40000000E+02  0.00000000E+00
  2.80000000E+02  2.20000000E+02  0.00000000E+00
  2.80000000E+02  2.00000000E+02  0.00000000E+00
  2.80000000E+02  1.80000000E+02  0.00000000E+00
  2.80000000E+02  1.60000000E+02  0.00000000E+00
  2.80000000E+02  1.40000000E+02  0.00000000E+00
  2.80000000E+02  1.20000000E+02  0.00000000E+00
  2.80000000E+02  1.00000000E+02  0.00000000E+00
  2.80000000E+02  8.00000000E+01  0.00000000E+00
  2.80000000E+02  6.00000000E+01  0.00000000E+00
  2.80000000E+02  4.00000000E+01  0.00000000E+00
  2.80000000E+02  2.00000000E+01  0.00000000E+00
  2.80000000E+02  4.99600361E-14  0.00000000E+00
  3.00000000E+02  3.00000000E+02  0.00000000E+00
  3.00000000E+02  2.80000000E+02  0.00000000E+00
  3.00000000E+02  2.60000000E+02  0.00000000E+00
  3.00000000E+02  2.40000000E+02  0.00000000E+00
  3.00000000E+02  2.20000000E+02  0.00000000E+00
  3.00000000E+02  2.00000000E+02  0.00000000E+00
  3.00000000E+02  1.80000000E+02  0.00000000E+00
  3.00000000E+02  1.60000000E+02  0.00000000E+00
  3.00000000E+02  1.40000000E+02  0.00000000E+00
  3.00000000E+02  1.20000000E+02  0.00000000E+00
  3.00000000E+02  1.00000000E+02  0.00000000E+00
  3.00000000E+02  8.00000000E+01  0.00000000E+00
  3.00000000E+02  6.00000000E+01  0.00000000E+00
  3.00000000E+02  4.00000000E+01  0.00000000E+00
  3.00000000E+02  2.00000000E+01  0.00000000E+00
  3.00000000E+02  4.99600361E-14  0.00000000E+00
  3.20000000E+02  3.00000000E+02  0.00000000E+00
  3.20000000E+02  2.80000000E+02  0.00000000E+00
  3.20000000E+02  2.60000000E+02  0.00000000E+00
  3.20000000E+02  2.40000000E+02  0.00000000E+00
  3.20000000E+02  2.20000000E+02  0.00000000E+00
  3.20000000E+02  2.00000000E+02  0.00000000E+00
  3.20000000E+02  1.80000000E+02  0.00000000E+00
  3.20000000E+02  1.60000000E+02  0.00000000E+00
  3.20000000E+02  1.40000000E+02  0.00000000E+00
  3.20000000E+02  1.20000000E+02  0.00000000E+00
  3.20000000E+02  1.00000000E+02  0.00000000E+00
  3.20000000E+02  8.00000000E+01  0.00000000E+00
  3.20000000E+02  6.00000000E+01  0.00000000E+00
  3.20000000E+02  4.00000000E+01  0.00000000E+00
  3.20000000E+02  2.00000000E+01  0.00000000E+00
  3.20000000E+02  4.99600361E-14  0.00000000E+00
  3.40000000E+02  3.00000000E+02  0.00000000E+00
  3.40000000E+02  2.80000000E+02  0.00000000E+00
  3.40000000E+02  2.60000000E+02  0.00000000E+00
  3.40000000E+02  2.40000000E+02  0.00000000E+00
  3.40000000E+02  2.20000000E+02  0.00000000E+00
  3.40000000E+02  2.00000000E+02  0.00000000E+00
  3.40000000E+02  1.80000000E+02  0.00000000E+00
  3.40000000E+02  1.60000000E+02  0.00000000E+00
  3.40000000E+02  1.40000000E+02  0.00000000E+00
  3.40000000E+02  1.20000000E+02  0.00000000E+00
  3.40000000E+02  1.00000000E+02  0.00000000E+00
  3.40000000E+02  8.00000000E+01  0.00000000E+00
  3.40000000E+02  6.00000000E+01  0.00000000E+00
  3.40000000E+02  4.00000000E+01  0.00000000E+00
  3.40000000E+02  2.00000000E+01  0.00000000E+00
  3.40000000E+02  4.99600361E-14  0.00000000E+00
  3.60000000E+02  3.00000000E+02  0.00000000E+00
  3.60000000E+02  2.80000000E+02  0.00000000E+00
  3.60000000E+02  2.60000000E+02  0.00000000E+00
  3.60000000E+02  2.40000000E+02  0.00000000E+00
  3.60000000E+02  2.20000000E+02  0.00000000E+00
  3.60000000E+02  2.00000000E+02  0.00000000E+00
  3.60000000E+02  1.80000000E+02  0.00000000E+00
  3.60000000E+02  1.60000000E+02  0.00000000E+00
  3.60000000E+02  1.40000000E+02  0.00000000E+00
  3.60000000E+02  1.20000000E+02  0.00000000E+00
  3.60000000E+02  1.00000000E+02  0.00000000E+00
  3.60000000E+02  8.00000000E+01  0.00000000E+00
  3.60000000E+02  6.00000000E+01  0.00000000E+00
  3.60000000E+02  4.00000000E+01  0.00000000E+00
  3.60000000E+02  2.00000000E+01  0.00000000E+00
  3.60000000E+02  4.99600361E-14  0.00000000E+00
  3.80000000E+02  3.00000000E+02  0.00000000E+00
  3.80000000E+02  2.80000000E+02  0.00000000E+00
  3.80000000E+02  2.60000000E+02  0.00000000E+00
  3.80000000E+02  2.40000000E+02  0.00000000E+00
  3.80000000E+02  2.20000000E+02  0.00000000E+00
  3.80000000E+02  2.00000000E+02  0.00000000E+00
  3.80000000E+02  1.80000000E+02  0.00000000E+00
  3.80000000E+02  1.60000000E+02  0.00000000E+00
  3.80000000E+02  1.40000000E+02  0.00000000E+00
  3.80000000E+02  1.20000000E+02  0.00000000E+00
  3.80000000E+02  1.00000000E+02  0.00000000E+00
  3.80000000E+02  8.00000000E+01  0.00000000E+00
  3.80000000E+02  6.00000000E+01  0.00000000E+00
  3.80000000E+02  4.00000000E+01  0.00000000E+00
  3.80000000E+02  2.00000000E+01  0.00000000E+00
  3.80000000E+02  4.99600361E-14  0.00000000E+00
  4.00000000E+02  3.00000000E+02  0.00000000E+00
  4.00000000E+02  2.80000000E+02  0.00000000E+00
  4.00000000E+02  2.60000000E+02  0.00000000E+00
  4.00000000E+02  2.40000000E+02  0.00000000E+00
  4.00000000E+02  2.20000000E+02  0.00000000E+00
  4.00000000E+02  2.00000000E+02  0.00000000E+00
  4.00000000E+02  1.80000000E+02  0.00000000E+00
  4.00000000E+02  1.60000000E+02  0.00000000E+00
  4.00000000E+02  1.40000000E+02  0.00000000E+00
  4.00000000E+02  1.20000000E+02  0.00000000E+00
  4.00000000E+02  1.00000000E+02  0.00000000E+00
  4.00000000E+02  8.00000000E+01  0.00000000E+00
  4.00000000E+02  6.00000000E+01  0.00000000E+00
  4.00000000E+02  4.00000000E+01  0.00000000E+00
  4.00000000E+02  2.00000000E+01  0.00000000E+00
  4.00000000E+02  4.99600361E-14  0.00000000E+00
  4.20000000E+02  3.00000000E+02  0.00000000E+00
  4.20000000E+02  2.80000000E+02  0.00000000E+00
  4.20000000E+02  2.60000000E+02  0.00000000E+00
  4.20000000E+02  2.40000000E+02  0.00000000E+00
  4.20000000E+02  2.20000000E+02  0.00000000E+00
  4.20000000E+02  2.00000000E+02  0.00000000E+00
  4.20000000E+02  1.80000000E+02  0.00000000E+00
  4.20000000E+02  1.60000000E+02  0.00000000E+00
  4.20000000E+02  1.40000000E+02  0.00000000E+00
  4.20000000E+02  1.20000000E+02  0.00000000E+00
  4.20000000E+02  1.00000000E+02  0.00000000E+00
  4.20000000E+02  8.00000000E+01  0.00000000E+00
  4.20000000E+02  6.00000000E+01  0.00000000E+00
  4.20000000E+02  4.00000000E+01  0.00000000E+00
  4.20000000E+02  2.00000000E+01  0.00000000E+00
  4.20000000E+02  4.99600361E-14  0.00000000E+00
  4.40000000E+02  3.00000000E+02  0.00000000E+00
  4.40000000E+02  2.80000000E+02  0.00000000E+00
  4.40000000E+02  2.60000000E+02  0.00000000E+00
  4.40000000E+02  2.40000000E+02  0.00000000E+00
  4.40000000E+02  2.20000000E+02  0.00000000E+00
  4.40000000E+02  2.00000000E+02  0.00000000E+00
  4.40000000E+02  1.80000000E+02  0.00000000E+00
  4.40000000E+02  1.60000000E+02  0.00000000E+00
  4.40000000E+02  1.40000000E+02  0.00000000E+00
  4.40000000E+02  1.20000000E+02  0.00000000E+00
  4.40000000E+02  1.00000000E+02  0.00000000E+00
  4.40000000E+02  8.00000000E+01  0.00000000E+00
  4.40000000E+02  6.00000000E+01  0.00000000E+00
  4.40000000E+02  4.00000000E+01  0.00000000E+00
  4.40000000E+02  2.00000000E+01  0.00000000E+00
  4.40000000E+02  4.99600361E-14  0.00000000E+00
  4.60000000E+02  3.00000000E+02  0.00000000E+00
  4.60000000E+02  2.80000000E+02  0.00000000E+00
  4.60000000E+02  2.60000000E+02  0.00000000E+00
  4.60000000E+02  2.40000000E+02  0.00000000E+00
  4.60000000E+02  2.20000000E+02  0.00000000E+00
  4.60000000E+02  2.00000000E+02  0.00000000E+00
  4.60000000E+02  1.80000000E+02  0.00000000E+00
  4.60000000E+02  1.60000000E+02  0.00000000E+00
  4.60000000E+02  1.40000000E+02  0.00000000E+00
  4.60000000E+02  1.20000000E+02  0.00000000E+00
  4.60000000E+02  1.00000000E+02  0.00000000E+00
  4.60000000E+02  8.00000000E+01  0.00000000E+00
  4.60000000E+02  6.00000000E+01  0.00000000E+00
  4.60000000E+02  4.00000000E+01  0.00000000E+00
  4.60000000E+02  2.00000000E+01  0.00000000E+00
  4.60000000E+02  4.99600361E-14  0.00000000E+00
  4.80000000E+02  3.00000000E+02  0.00000000E+00
  4.80000000E+02  2.80000000E+02  0.00000000E+00
  4.80000000E+02  2.60000000E+02  0.00000000E+00
  4.80000000E+02  2.40000000E+02  0.00000000E+00
  4.80000000E+02  2.20000000E+02  0.00000000E+00
  4.80000000E+02  2.00000000E+02  0.00000000E+00
  4.80000000E+02  1.80000000E+02  0.00000000E+00
  4.80000000E+02  1.60000000E+02  0.00000000E+00
  4.80000000E+02  1.40000000E+02  0.00000000E+00
  4.80000000E+02  1.20000000E+02  0.00000000E+00
  4.80000000E+02  1.00000000E+02  0.00000000E+00
  4.80000000E+02  8.00000000E+01  0.00000000E+00
  4.80000000E+02  6.00000000E+01  0.00000000E+00
  4.80000000E+02  4.00000000E+01  0.00000000E+00
  4.80000000E+02  2.00000000E+01  0.00000000E+00
  4.80000000E+02  4.99600361E-14  0.00000000E+00
  5.00000000E+02  3.00000000E+02  0.00000000E+00
  5.00000000E+02  2.80000000E+02  0.00000000E+00
  5.00000000E+02  2.60000000E+02  0.00000000E+00
  5.00000000E+02  2.40000000E+02  0.00000000E+00
  5.00000000E+02  2.20000000E+02  0.00000000E+00
  5.00000000E+02  2.00000000E+02  0.00000000E+00
  5.00000000E+02  1.80000000E+02  0.00000000E+00
  5.00000000E+02  1.60000000E+02  0.00000000E+00
  5.00000000E+02  1.40000000E+02  0.00000000E+00
  5.00000000E+02  1.20000000E+02  0.00000000E+00
  5.00000000E+02  1.00000000E+02  0.00000000E+00
  5.00000000E+02  8.00000000E+01  0.00000000E+00
  5.00000000E+02  6.00000000E+01  0.00000000E+00
  5.00000000E+02  4.00000000E+01  0.00000000E+00
  5.00000000E+02  2.00000000E+01  0.00000000E+00
  5.00000000E+02  4.99600361E-14  0.00000000E+00
  5.20000000E+02  3.00000000E+02  0.00000000E+00
  5.20000000E+02  2.80000000E+02  0.00000000E+00
  5.20000000E+02  2.60000000E+02  0.00000000E+00
  5.20000000E+02  2.40000000E+02  0.00000000E+00
  5.20000000E+02  2.20000000E+02  0.00000000E+00
  5.20000000E+02  2.00000000E+02  0.00000000E+00
  5.20000000E+02  1.80000000E+02  0.00000000E+00
  5.20000000E+02  1.60000000E+02  0.00000000E+00
  5.20000000E+02  1.40000000E+02  0.00000000E+00
  5.20000000E+02  1.20000000E+02  0.00000000E+00
  5.20000000E+02  1.00000000E+02  0.00000000E+00
  5.20000000E+02  8.00000000E+01  0.00000000E+00
  5.20000000E+02  6.00000000E+01  0.00000000E+00
  5.20000000E+02  4.00000000E+01  0.00000000E+00
  5.20000000E+02  2.00000000E+01  0.00000000E+00
  5.20000000E+02  4.99600361E-14  0.00000000E+00
  5.40000000E+02  3.00000000E+02  0.00000000E+00
  5.40000000E+02  2.80000000E+02  0.00000000E+00
  5.40000000E+02  2.60000000E+02  0.00000000E+00
  5.40000000E+02  2.40000000E+02  0.00000000E+00
  5.40000000E+02  2.20000000E+02  0.00000000E+00
  5.40000000E+02  2.00000000E+02  0.00000000E+00
  5.40000000E+02  1.80000000E+02  0.00000000E+00
  5.40000000E+02  1.60000000E+02  0.00000000E+00
  5.40000000E+02  1.40000000E+02  0.00000000E+00
  5.40000000E+02  1.20000000E+02  0.00000000E+00
  5.40000000E+02  1.00000000E+02  0.00000000E+00
  5.40000000E+02  8.00000000E+01  0.00000000E+00
  5.40000000E+02  6.00000000E+01  0.00000000E+00
  5.40000000E+02  4.00000000E+01  0.00000000E+00
  5.40000000E+02  2.00000000E+01  0.00000000E+00
  5.40000000E+02  4.99600361E-14  0.00000000E+00
  5.60000000E+02  3.00000000E+02  0.00000000E+00
  5.60000000E+02  2.80000000E+02  0.00000000E+00
  5.60000000E+02  2.60000000E+02  0.00000000E+00
  5.60000000E+02  2.40000000E+02  0.00000000E+00
  5.60000000E+02  2.20000000E+02  0.00000000E+00
  5.60000000E+02  2.00000000E+02  0.00000000E+00
  5.60000000E+02  1.80000000E+02  0.00000000E+00
  5.60000000E+02  1.60000000E+02  0.00000000E+00
  5.60000000E+02  1.40000000E+02  0.00000000E+00
  5.60000000E+02  1.20000000E+02  0.00000000E+00
  5.60000000E+02  1.00000000E+02  0.00000000E+00
  5.60000000E+02  8.00000000E+01  0.00000000E+00
  5.60000000E+02  6.00000000E+01  0.00000000E+00
  5.60000000E+02  4.00000000E+01  0.00000000E+00
  5.60000000E+02  2.00000000E+01  0.00000000E+00
  5.60000000E+02  4.99600361E-14  0.00000000E+00
  5.80000000E+02  3.00000000E+02  0.00000000E+00
  5.80000000E+02  2.80000000E+02  0.00000000E+00
  5.80000000E+02  2.60000000E+02  0.00000000E+00
  5.80000000E+02  2.40000000E+02  0.00000000E+00
  5.80000000E+02  2.20000000E+02  0.00000000E+00
  5.80000000E+02  2.00000000E+02  0.00000000E+00
  5.80000000E+02  1.80000000E+02  0.00000000E+00
  5.80000000E+02  1.60000000E+02  0.00000000E+00
  5.80000000E+02  1.40000000E+02  0.00000000E+00
  5.80000000E+02  1.20000000E+02  0.00000000E+00
  5.80000000E+02  1.00000000E+02  0.00000000E+00
  5.80000000E+02  8.00000000E+01  0.00000000E+00
  5.80000000E+02  6.00000000E+01  0.00000000E+00
  5.80000000E+02  4.00000000E+01  0.00000000E+00
  5.80000000E+02  2.00000000E+01  0.00000000E+00
  5.80000000E+02  4.99600361E-14  0.00000000E+00
  6.00000000E+02  3.00000000E+02  0.00000000E+00
  6.00000000E+02  2.80000000E+02  0.00000000E+00
  6.00000000E+02  2.60000000E+02  0.00000000E+00
  6.00000000E+02  2.40000000E+02  0.00000000E+00
  6.00000000E+02  2.20000000E+02  0.00000000E+00
  6.00000000E+02  2.00000000E+02  0.00000000E+00
  6.00000000E+02  1.80000000E+02  0.00000000E+00
  6.00000000E+02  1.60000000E+02  0.00000000E+00
  6.00000000E+02  1.40000000E+02  0.00000000E+00
  6.00000000E+02  1.20000000E+02  0.00000000E+00
  6.00000000E+02  1.00000000E+02  0.00000000E+00
  6.00000000E+02  8.00000000E+01  0.00000000E+00
  6.00000000E+02  6.00000000E+01  0.00000000E+00
  6.00000000E+02  4.00000000E+01  0.00000000E+00
  6.00000000E+02  2.00000000E+01  0.00000000E+00
  6.00000000E+02  4.99600361E-14  0.00000000E+00
CELLS       450      2250
         4           0           1          17          16
         4           1           2          18          17
         4           2           3          19          18
         4           3           4          20          19
         4           4           5          21          20
         4           5           6          22          21
         4           6           7          23          22
         4           7           8          24          23
         4           8           9          25          24
         4           9          10          26          25
         4          10          11          27          26
         4          11          12          28          27
         4          12          13          29          28
         4          13          14          30          29
         4          14          15          31          30
         4          16          17          33          32
         4          17          18          34          33
         4          18          19          35          34
         4          19          20          36          35
         4          20          21          37          36
         4          21          22          38          37
         4          22          23          39          38
         4          23          24          40          39
         4          24          25          41          40
         4          25          26          42          41
         4          26          27          43          42
         4          27          28          44          43
         4          28          29          45          44
         4          29          30          46          45
         4          30          31          47          46
         4          32          33          49          48
         4          33          34          50          49
         4          34          35          51          50
         4          35          36          52          51
         4          36          37          53          52
         4          37          38          54          53
         4          38          39          55          54
         4          39          40          56          55
         4          40          41          57          56
         4          41          42          58          57
         4          42          43          59          58
         4          43          44          60          59
         4          44          45          61          60
         4          45          46          62          61
         4          46          47          63          62
         4          48          49          65          64
         4          49          50          66          65
         4          50          51          67          66
         4          51          52          68          67
         4          52          53          69          68
         4          53          54          70          69
         4          54          55          71          70
         4          55          56          72          71
         4          56          57          73          72
         4          57          58          74          73
         4          58          59          75          74
         4          59          60          76          75
         4          60          61          77          76
         4          61          62          78          77
         4          62          63          79          78
         4          64          65          81          80
         4          65          66          82          81
         4          66          67          83          82
         4          67          68          84          83
         4          68          69          85          84
         4          69          70          86          85
         4          70          71          87          86
         4          71          72          88          87
         4          72          73          89          88
         4          73          74          90          89
         4          74          75          91          90
         4          75          76          92          91
         4          76          77          93          92
         4          77          78          94          93
         4          78          79          95          94
         4          80          81          97          96
         4          81          82          98          97
         4          82          83          99          98
         4          83          84         100          99
         4          84          85         101         100
         4          85          86         102         101
         4          86          87         103         102
         4          87          88         104         103
         4          88          89         105         104
         4          89          90         106         105
         4          90          91         107         106
         4          91          92         108         107
         4          92          93         109         108
         4          93          94         110         109
         4          94          95         111         110
         4          96          97         113         112
         4          97          98         114         113
         4          98          99         115         114
         4          99         100         116         115
         4         100         101         117         116
         4         101         102         118         117
         4         102         103         119         118
         4         103         104         120         119
         4         104         105         121         120
         4         105         106         122         121
         4         106         107         123         122
         4         107         108         124         123
         4         108         109         125         124
         4         109         110         126         125
         4         110         111         127         126
         4         112         113         129         128
         4         113         114         130         129
         4         114         115         131         130
         4         115         116         132         131
         4         116         117         133         132
         4         117         118         134         133
         4         118         119         135         134
         4         119         120         136         135
         4         120         121         137         136
         4         121         122         138         137
         4         122         123         139         138
         4         123         124         140         139
         4         124         125         141         140
         4         125         126         142         141
         4         126         127         143         142
         4         128         129         145         144
         4         129         130         146         145
         4         130         131         147         146
         4         131         132         148         147
         4         132         133         149         148
         4         133         134         150         149
         4         134         135         151         150
         4         135         136         152         151
         4         136         137         153         152
         4         137         138         154         153
         4         138         139         155         154
         4         139         140         156         155
         4         140         141         157         156
         4         141         142         158         157
         4         142         143         159         158
         4         144         145         161         160
         4         145         146         162         161
         4         146         147         163         162
         4         147         148         164         163
         4         148         149         165         164
         4         149         150         166         165
         4         150         151         167         166
         4         151         152         168         167
         4         152         153         169         168
         4         153         154         170         169
         4         154         155         171         170
         4         155         156         172         171
         4         156         157         173         172
         4         157         158         174         173
         4         158         159         175         174
         4         160         161         177         176
         4         161         162         178         177
         4         162         163         179         178
         4         163         164         180         179
         4         164         165         181         180
         4         165         166         182         181
         4         166         167         183         182
         4         167         168         184         183
         4         168         169         185         184
         4         169         170         186         185
         4         170         171         187         186
         4         171         172         188         187
         4         172         173         189         188
         4         173         174         190         189
         4         174         175         191         190
         4         176         177         193         192
         4         177         178         194         193
         4         178         179         195         194
         4         179         180         196         195
         4         180         181         197         196
         4         181         182         198         197
         4         182         183         199         198
         4         183         184         200         199
         4         184         185         201         200
         4         185         186         202         201
         4         186         187         203         202
         4         187         188         204         203
         4         188         189         205         204
         4         189         190         206         205
         4         190         191         207         206
         4         192         193         209         208
         4         193         194         210         209
         4         194         195         211         210
         4         195         196         212         211
         4         196         197         213         212
         4         197         198         214         213
         4         198         199         215         214
         4         199         200         216         215
         4         200         201         217         216
         4         201         202         218         217
         4         202         203         219         218
         4         203         204         220         219
         4         204         205         221         220
         4         205         206         222         221
         4         206         207         223         222
         4         208         209         225         224
         4         209         210         226         225
         4         210         211         227         226
         4         211         212         228         227
         4         212         213         229         228
         4         213         214         230         229
         4         214         215         231         230
         4         215         216         232         231
         4         216         217         233         232
         4         217         218         234         233
         4         218         219         235         234
         4         219         220         236         235
         4         220         221         237         236
         4         221         222         238         237
         4         222         223         239         238
         4         224         225         241         240
         4         225         226         242         241
         4         226         227         243         242
         4         227         228         244         243
         4         228         229         245         244
         4         229         230         246         245
         4         230         231         247         246
         4         231         232         248         247
         4         232         233         249         248
         4         233         234         250         249
         4         234         235         251         250
         4         235         236         252         251
         4         236         237         253         252
         4         237         238         254         253
         4         238         239         255         254
         4         240         241         257         256
         4         241         242         258         257
         4         242         243         259         258
         4         243         244         260         259
         4         244         245         261         260
         4         245         246         262         261
         4         246         247         263         262
         4         247         248         264         263
         4         248         249         265         264
         4         249         250         266         265
         4         250         251         267         266
         4         251         252         268         267
         4         252         253         269         268
         4         253         254         270         269
         4         254         255         271         270
         4         256         257         273         272
         4         257         258         274         273
         4         258         259         275         274
         4         259         260         276         275
         4         260         261         277         276
         4         261         262         278         277
         4         262         263         279         278
         4         263         264         280         279
         4         264         265         281         280
         4         265         266         282         281
         4         266         267         283         282
         4         267         268         284         283
         4         268         269         285         284
         4         269         270         286         285
         4         270         271         287         286
         4         272         273         289         288
         4         273         274         290         289
         4         274         275         291         290
         4         275         276         292         291
         4         276         277         293         292
         4         277         278         294         293
         4         278         279         295         294
         4         279         280         296         295
         4         280         281         297         296
         4         281         282         298         297
         4         282         283         299         298
         4         283         284         300         299
         4         284         285         301         300
         4         285         286         302         301
         4         286         287         303         302
         4         288         289         305         304
         4         289         290         306         305
         4         290         291         307         306
         4         291         292         308         307
         4         292         293         309         308
         4         293         294         310         309
         4         294         295         311         310
         4         295         296         312         311
         4         296         297         313         312
         4         297         298         314         313
         4         298         299         315         314
         4         299         300         316         315
         4         300         301         317         316
         4         301         302         318         317
         4         302         303         319         318
         4         304         305         321         320
         4         305         306         322         321
         4         306         307         323         322
         4         307         308         324         323
         4         308         309         325         324
         4         309         310         326         325
         4         310         311         327         326
         4         311         312         328         327
         4         312         313         329         328
         4         313         314         330         329
         4         314         315         331         330
         4         315         316         332         331
         4         316         317         333         332
         4         317         318         334         333
         4         318         319         335         334
         4         320         321         337         336
         4         321         322         338         337
         4         322         323         339         338
         4         323         324         340         339
         4         324         325         341         340
         4         325         326         342         341
         4         326         327         343         342
         4         327         328         344         343
         4         328         329         345         344
         4         329         330         346         345
         4         330         331         347         346
         4         331         332         348         347
         4         332         333         349         348
         4         333         334         350         349
         4         334         335         351         350
         4         336         337         353         352
         4         337         338         354         353
         4         338         339         355         354
         4         339         340         356         355
         4         340         341         357         356
         4         341         342         358         357
         4         342         343         359         358
         4         343         344         360         359
         4         344         345         361         360
         4         345         346         362         361
         4         346         347         363         362
         4         347         348         364         363
         4         348         349         365         364
         4         349         350         366         365
         4         350         351         367         366
         4         352         353         369         368
         4         353         354         370         369
         4         354         355         371         370
         4         355         356         372         371
         4         356         357         373         372
         4         357         358         374         373
         4         358         359         375         374
         4         359         360         376         375
         4         360         361         377         376
         4         361         362         378         377
         4         362         363         379         378
         4         363         364         380         379
         4         364         365         381         380
         4         365         366         382         381
         4         366         367         383         382
         4         368         369         385         384
         4         369         370         386         385
         4         370         371         387         386
         4         371         372         388         387
         4         372         373         389         388
         4         373         374         390         389
         4         374         375         391         390
         4         375         376         392         391
         4         376         377         393         392
         4         377         378         394         393
         4         378         379         395         394
         4         379         380         396         395
         4         380         381         397         396
         4         381         382         398         397
         4         382         383         399         398
         4         384         385         401         400
         4         385         386         402         401
         4         386         387         403         402
         4         387         388         404         403
         4         388         389         405         404
         4         389         390         406         405
         4         390         391         407         406
         4         391         392         408         407
         4         392         393         409         408
         4         393         394         410         409
         4         394         395         411         410
         4         395         396         412         411
         4         396         397         413         412
         4         397         398         414         413
         4         398         399         415         414
         4         400         401         417         416
         4         401         402         418         417
         4         402         403         419         418
         4         403         404         420         419
         4         404         405         421         420
         4         405         406         422         421
         4         406         407         423         422
         4         407         408         424         423
         4         408         409         425         424
         4         409         410         426         425
         4         410         411         427         426
         4         411         412         428         427
         4         412         413         429         428
         4         413         414         430         429
         4         414         415         431         430
         4         416         417         433         432
         4         417         418         434         433
         4         418         419         435         434
         4         419         420         436         435
         4         420         421         437         436
         4         421         422         438         437
         4         422         423         439         438
         4         423         424         440         439
         4         424         425         441         440
         4         425         426         442         441
         4         426         427         443         442
         4         427         428         444         443
         4         428         429         445         444
         4         429         430         446         445
         4         430         431         447         446
         4         432         433         449         448
         4         433         434         450         449
         4         434         435         451         450
         4         435         436         452         451
         4         436         437         453         452
         4         437         438         454         453
         4         438         439         455         454
         4         439         440         456         455
         4         440         441         457         456
         4         441         442         458         457
         4         442         443         459         458
         4         443         444         460         459
         4         444         445         461         460
         4         445         446         462         461
         4         446         447         463         462
         4         448         449         465         464
         4         449         450         466         465
         4         450         451         467         466
         4         451         452         468         467
         4         452         453         469         468
         4         453         454         470         469
         4         454         455         471         470
         4         455         456         472         471
         4         456         457         473         472
         4         457         458         474         473
         4         458         459         475         474
         4         459         460         476         475
         4         460         461         477         476
         4         461         462         478         477
         4         462         463         479         478
         4         464         465         481         480
         4         465         466         482         481
         4         466         467         483         482
         4         467         468         484         483
         4         468         469         485         484
         4         469         470         486         485
         4         470         471         487         486
         4         471         472         488         487
         4         472         473         489         488
         4         473         474         490         489
         4         474         475         491         490
         4         475         476         492         491
         4         476         477         493         492
         4         477         478         494         493
         4         478         479         495         494
CELL_TYPES        450
9
9
9
9
9
9
9
9
9
9
9
9
9
9
9
9
9
9
9
9
9
9
9
9
9
9
9
9
9
9
9
9
9
9
9
9
9
9
9
9
9
9
9
9
9
9
9
9
9
9
9
9
9
9
9
9
9
9
9
9
9
9
9
9
9
9
9
9
9
9
9
9
9
9
9
9
9
9
9
9
9
9
9
9
9
9
9
9
9
9
9
9
9
9
9
9
9
9
9
9
9
9
9
9
9
9
9
9
9
9
9
9
9
9
9
9
9
9
9
9
9
9
9
9
9
9
9
9
9
9
9
9
9
9
9
9
9
9
9
9
9
9
9
9
9
9
9
9
9
9
9
9
9
9
9
9
9
9
9
9
9
9
9
9
9
9
9
9
9
9
9
9
9
9
9
9
9
9
9
9
9
9
9
9
9
9
9
9
9
9
9
9
9
9
9
9
9
9
9
9
9
9
9
9
9
9
9
9
9
9
9
9
9
9
9
9
9
9
9
9
9
9
9
9
9
9
9
9
9
9
9
9
9
9
9
9
9
9
9
9
9
9
9
9
9
9
9
9
9
9
9
9
9
9
9
9
9
9
9
9
9
9
9
9
9
9
9
9
9
9
9
9
9
9
9
9
9
9
9
9
9
9
9
9
9
9
9
9
9
9
9
9
9
9
9
9
9
9
9
9
9
9
9
9
9
9
9
9
9
9
9
9
9
9
9
9
9
9
9
9
9
9
9
9
9
9
9
9
9
9
9
9
9
9
9
9
9
9
9
9
9
9
9
9
9
9
9
9
9
9
9
9
9
9
9
9
9
9
9
9
9
9
9
9
9
9
9
9
9
9
9
9
9
9
9
9
9
9
9
9
9
9
9
9
9
9
9
9
9
9
9
9
9
9
9
9
9
9
9
9
9
9
9
9
9
9
9
9
9
9
9
9
9
9
9
9
9
9
9
9
9
9
9
9
9
9
9
9
9
9
9
9
9
9
9
9
9
9
9
9
9
9
9
9
9
9
9
9
9
9
POINT_DATA       496
SCALARS p double 
LOOKUP_TABLE default
   73112031.1132293     
   73120186.7001458     
   73148691.6914805     
   73195367.9014626     
   73250985.2900488     
   73311235.8281187     
   73373221.6071517     
   73434726.9605185     
   73493460.8898395     
   73545322.7541490     
   73588700.8658331     
   73625955.4696487     
   73658101.1777705     
   73684743.5647148     
   73704910.4401538     
   73713240.7461342     
   71491523.3458212     
   71504379.2002240     
   71528714.4769793     
   71550267.3127286     
   71569394.3201107     
   71586929.1517452     
   71604467.6632771     
   71623216.6188377     
   71643831.5677633     
   71667449.5994646     
   71693062.2045428     
   71717541.8787999     
   71739007.7735384     
   71756261.3256819     
   71767461.6888480     
   71771253.0764535     
   69747715.5059859     
   69746079.4927947     
   69742491.6631672     
   69738921.9683910     
   69737215.2371368     
   69738758.3070389     
   69743518.3098224     
   69751451.6909203     
   69762372.8943031     
   69775261.8339934     
   69789092.2323492     
   69802923.5566540     
   69815416.7079795     
   69825191.4698646     
   69831230.7809982     
   69833224.4519326     
   67860548.1283880     
   67855173.4191338     
   67846942.5601276     
   67843564.8086870     
   67843537.8581669     
   67845538.7277599     
   67849212.5826501     
   67854091.1319268     
   67859725.4309218     
   67865914.2309406     
   67872465.0416941     
   67878986.6320001     
   67884865.2732987     
   67889397.0826819     
   67892094.7430879     
   67892950.1686061     
   65942636.9100973     
   65940547.9875529     
   65936405.3096740     
   65933423.3927362     
   65932597.8109038     
   65933360.3765285     
   65934934.4082956     
   65936803.9956889     
   65938665.2001965     
   65940432.9123230     
   65942141.4806783     
   65943770.4804040     
   65945169.7611950     
   65946140.7434395     
   65946597.8394243     
   65946700.7858139     
   64012250.3286606     
   64011323.9982923     
   64009019.3610553     
   64006549.8534761     
   64004810.7891823     
   64003784.9928876     
   64003055.8130185     
   64002217.1064339     
   64001062.9314220     
   63999589.0857341     
   63997922.3236739     
   63996219.9020812     
   63994607.5470533     
   63993195.5593978     
   63992148.2071893     
   63991742.8791521     
   62068256.1763036     
   62067523.7923879     
   62065602.9137367     
   62063052.2526298     
   62060333.0241836     
   62057594.7522849     
   62054703.7446714     
   62051474.8948136     
   62047825.7615246     
   62043826.5708871     
   62039669.6676773     
   62035611.1514199     
   62031925.2708574     
   62028894.1080045     
   62026825.6945686     
   62026073.7330001     
   60109236.0067873     
   60108483.9523467     
   60106389.4691075     
   60103296.1932685     
   60099505.6603445     
   60095183.7520984     
   60090369.4434152     
   60085058.8806036     
   60079302.8569594     
   60073253.8297160     
   60067163.0883168     
   60061350.0232706     
   60056169.8448461     
   60051994.9469294     
   60049210.5920615     
   60048215.5414912     
   58134666.2262815     
   58133790.6009610     
   58131297.8428368     
   58127465.1732802     
   58122551.3494925     
   58116757.5239367     
   58110229.4718357     
   58103098.1710146     
   58095529.7080577     
   58087758.4084814     
   58080091.9707764     
   58072896.3491349     
   58066573.6211411     
   58061543.1584914     
   58058229.5233568     
   58057055.4556294     
   56144233.3505033     
   56143194.7059112     
   56140213.6420085     
   56135569.1614337     
   56129534.1696997     
   56122360.1181222     
   56114279.5824419     
   56105526.3488118     
   56096361.9032094     
   56087094.6839848     
   56078085.0809402     
   56069737.2005129     
   56062483.5722738     
   56056769.0404568     
   56053037.5415570     
   56051723.0064232     
   54137713.0989114     
   54136496.4212594     
   54132995.7952851     
   54127521.8680566     
   54120388.9549683     
   54111908.8195519     
   54102392.1687714     
   54092158.5603961     
   54081549.6914245     
   54070939.4567695     
   54060736.3593658     
   54051377.8654774     
   54043319.3273094     
   54037021.0929034     
   54032936.7459942     
   54031504.3244527     
   52114898.6808275     
   52113498.8684007     
   52109469.2919092     
   52103166.3327012     
   52094959.4417539     
   52085226.2922783     
   52074351.8896205     
   52062732.0474968     
   52050778.8481052     
   52038924.6172281     
   52027621.8256135     
   52017338.2498647     
   52008548.5311220     
   52001724.1690241     
   51997323.9737297     
   51995786.5093582     
   50075570.8313726     
   50073984.7007782     
   50069420.4124656     
   50062288.3288092     
   50053020.9473911     
   50042065.5045450     
   50029879.6833827     
   50016930.3347824     
   50003693.8048265     
   49990655.8780452     
   49978309.7324180     
   49967151.3356030     
   49957672.7902788     
   49950354.7835135     
   49945659.3669207     
   49944023.9783478     
   48019481.0768513     
   48017703.7232746     
   48012593.9456990     
   48004623.4992677     
   47994294.1374238     
   47982125.9193693     
   47968649.0398828     
   47954398.6713649     
   47939911.7053439     
   47925723.9961842     
   47912366.9622520     
   47900363.0782904     
   47890220.5525642     
   47882427.9259448     
   47877449.2480731     
   47875720.0140244     
   45946341.9708535     
   45944365.3279140     
   45938690.9992157     
   45929861.0227190     
   45918453.0477419     
   45905063.7621731     
   45890296.8163846     
   45874754.4680194     
   45859031.8273905     
   45843712.4122504     
   45829363.9290602     
   45816533.8132821     
   45805744.8559131     
   45797491.7170299     
   45792238.7820958     
   45790418.7499912     
   43855820.6735344     
   43853633.3061913     
   43847366.8753200     
   43837645.0922578     
   43825129.6072325     
   43810498.5276039     
   43794430.7258378     
   43777595.0201741     
   43760642.9506218     
   43744203.6552110     
   43728879.4372500     
   43715241.2613369     
   43703824.6526673     
   43695127.5877761     
   43689611.5770198     
   43687704.6053200     
   41747534.2296527     
   41745121.8116682     
   41738228.8486526     
   41727575.0523912     
   41713916.0877462     
   41698017.3433601     
   41680635.1111786     
   41662504.1996494     
   41644330.4418507     
   41626786.1529385     
   41610506.5165380     
   41596085.1118692     
   41584068.6479374     
   41574954.3549766     
   41569194.5119972     
   41567207.4894468     
   39621045.6372188     
   39618391.8275398     
   39610833.7829617     
   39599204.7244585     
   39584366.4158647     
   39567178.3090989     
   39548476.1974719     
   39529059.3799163     
   39509684.4372717     
   39491062.9910117     
   39473860.4802517     
   39458693.2347212     
   39446120.3558158     
   39436634.4269203     
   39430666.5983600     
   39428613.0806842     
   37475860.1964381     
   37472947.7627464     
   37464685.5393402     
   37452041.2373409     
   37435996.9422386     
   37417513.5614821     
   37397507.6422294     
   37376839.4932288     
   37356310.1784631     
   37336663.9404096     
   37318591.6905301     
   37302731.3522140     
   37289662.2518087     
   37279878.5222342     
   37273770.2663161     
   37271677.7673782     
   35311421.8381931     
   35308233.9467718     
   35299232.1373488     
   35285543.5701304     
   35268287.0854153     
   35248532.5924317     
   35227276.9101421     
   35205434.6887501     
   35183841.0758758     
   35163261.6001911     
   35144404.0999251     
   35127924.6919442     
   35114423.9334828     
   35104435.8119125     
   35098316.4965307     
   35096251.3099567     
   33127109.2527007     
   33123630.8867909     
   33113862.6774330     
   33099121.0421780     
   33080680.2997670     
   33059726.3534179     
   33037332.8759584     
   33014457.6560088     
   32991954.0869948     
   32970591.6703526     
   32951079.4021537     
   32934086.4061132     
   32920235.2944881     
   32910088.4684749     
   32904128.6394486     
   32902249.4042973     
   30922231.7122424     
   30918451.2291818     
   30907904.1576749     
   30892132.2202098     
   30872586.1728506     
   30850573.0745463     
   30827235.3156999     
   30803556.5420918     
   30780386.1455282     
   30758473.9503006     
   30738507.5504946     
   30721147.5581824     
   30707061.9811788     
   30696833.7387897     
   30691071.5951144     
   30689396.7784118     
   28696024.5267841     
   28691935.4554792     
   28680618.5788160     
   28663885.2742802     
   28643385.3216330     
   28620547.7351681     
   28596567.8595464     
   28572429.8936185     
   28548950.2498403     
   28526829.6595068     
   28506707.7726096     
   28489211.0818289     
   28475006.6522171     
   28464874.3805935     
   28459183.0538065     
   28457430.3693570     
   26447644.0897369     
   26443247.4706287     
   26431201.2471550     
   26413641.9494546     
   26392440.4379465     
   26369139.0125796     
   26344957.7099757     
   26320845.5476773     
   26297550.6464870     
   26275692.6409452     
   26255831.8385650     
   26238544.4951401     
   26224462.7546948     
   26214495.7500546     
   26208719.0720252     
   26206752.0626437     
   24176162.4776302     
   24171470.4655132     
   24158782.2566639     
   24140629.5998495     
   24119119.9058713     
   24095880.5670393     
   24072107.9035529     
   24048667.2860853     
   24026199.3525392     
   24005212.0285269     
   23986160.2467183     
   23969525.5458368     
   23955950.2878681     
   23946201.6820161     
   23940315.8101032     
   23938254.1248425     
   21880561.4040824     
   21875604.0027356     
   21862435.6415603     
   21844070.5909675     
   21822846.0617411     
   21800407.7790394     
   21777850.1597393     
   21755894.5632595     
   21735037.1870731     
   21715653.4244264     
   21698074.0113987     
   21682660.7316460     
   21669941.5612359     
   21660505.9443357     
   21654631.7502433     
   21652592.2362098     
   19559725.8169212     
   19554564.6838645     
   19541207.4333078     
   19523249.9432715     
   19503190.2388710     
   19482555.6128394     
   19462225.8016668     
   19442718.5736864     
   19424363.6351060     
   19407400.1939926     
   19392036.6861220     
   19378496.1743420     
   19367075.0290415     
   19358240.0137834     
   19352546.2279455     
   19350553.4597780     
   17212433.1002185     
   17207200.0206068     
   17194195.8354369     
   17177669.4289088     
   17160053.5795578     
   17142510.7486672     
   17125593.1278339     
   17109590.7081425     
   17094674.1916153     
   17080965.2838685     
   17068572.2114676     
   17057596.1025992     
   17048077.8358783     
   17040277.4620486     
   17035013.8123695     
   17033156.3460567     
   14837364.7565536     
   14832350.4483647     
   14820789.7287245     
   14807412.1687118     
   14793967.6080581     
   14781000.6541568     
   14768739.8335845     
   14757286.5758260     
   14746696.1307070     
   14737010.5670517     
   14728271.0477992     
   14720511.7556871     
   14713669.1873875     
   14707559.5925760     
   14703117.5413979     
   14701572.5809199     
   12433047.6769435     
   12429224.5092721     
   12421539.1524652     
   12413827.9542264     
   12406420.5805595     
   12399451.4159257     
   12392954.0287905     
   12386937.3621498     
   12381404.6000775     
   12376361.5434097     
   12371818.1254038     
   12367777.0684436     
   12364244.3988568     
   12360933.9173760     
   12358053.4161058     
   12356841.7343767     
   10000000.0000000     
   10000000.0000000     
   10000000.0000000     
   10000000.0000000     
   10000000.0000000     
   10000000.0000000     
   10000000.0000000     
   10000000.0000000     
   10000000.0000000     
   10000000.0000000     
   10000000.0000000     
   10000000.0000000     
   10000000.0000000     
  10000000.00000000     
   10000000.0000000     
   10000000.0000000     
VECTORS u double 
    0.00000E+00         0.68859E+00         0.00000E+00
    0.00000E+00         0.73629E+00         0.00000E+00
    0.00000E+00         0.77055E+00         0.00000E+00
    0.00000E+00         0.77639E+00         0.00000E+00
    0.00000E+00         0.75255E+00         0.00000E+00
    0.00000E+00         0.70361E+00         0.00000E+00
    0.00000E+00         0.63644E+00         0.00000E+00
    0.00000E+00         0.55937E+00         0.00000E+00
    0.00000E+00         0.48091E+00         0.00000E+00
    0.00000E+00         0.40948E+00         0.00000E+00
    0.00000E+00         0.34288E+00         0.00000E+00
    0.00000E+00         0.27875E+00         0.00000E+00
    0.00000E+00         0.21481E+00         0.00000E+00
    0.00000E+00         0.14888E+00         0.00000E+00
    0.00000E+00         0.78583E-01         0.00000E+00
    0.00000E+00         0.00000E+00         0.00000E+00
    0.55522E+00         0.72624E+00         0.00000E+00
    0.56673E+00         0.75350E+00         0.00000E+00
    0.52368E+00         0.75882E+00         0.00000E+00
    0.45588E+00         0.74157E+00         0.00000E+00
    0.37944E+00         0.70537E+00         0.00000E+00
    0.30271E+00         0.65501E+00         0.00000E+00
    0.23177E+00         0.59447E+00         0.00000E+00
    0.17263E+00         0.52789E+00         0.00000E+00
    0.12643E+00         0.46043E+00         0.00000E+00
    0.98151E-01         0.39587E+00         0.00000E+00
    0.81692E-01         0.33344E+00         0.00000E+00
    0.67802E-01         0.27190E+00         0.00000E+00
    0.54249E-01         0.20984E+00         0.00000E+00
    0.39796E-01         0.14543E+00         0.00000E+00
    0.23040E-01         0.76474E-01         0.00000E+00
    0.00000E+00         0.00000E+00         0.00000E+00
    0.96641E+00         0.74861E+00         0.00000E+00
    0.89351E+00         0.72477E+00         0.00000E+00
    0.78771E+00         0.69163E+00         0.00000E+00
    0.66991E+00         0.65380E+00         0.00000E+00
    0.55626E+00         0.61166E+00         0.00000E+00
    0.45232E+00         0.56533E+00         0.00000E+00
    0.36138E+00         0.51579E+00         0.00000E+00
    0.28594E+00         0.46463E+00         0.00000E+00
    0.22921E+00         0.41307E+00         0.00000E+00
    0.18762E+00         0.36082E+00         0.00000E+00
    0.15563E+00         0.30745E+00         0.00000E+00
    0.12791E+00         0.25256E+00         0.00000E+00
    0.10090E+00         0.19568E+00         0.00000E+00
    0.72370E-01         0.13570E+00         0.00000E+00
    0.39908E-01         0.70989E-01         0.00000E+00
    0.00000E+00         0.00000E+00         0.00000E+00
    0.11547E+01         0.65709E+00         0.00000E+00
    0.10265E+01         0.61877E+00         0.00000E+00
    0.90040E+00         0.57943E+00         0.00000E+00
    0.78039E+00         0.54234E+00         0.00000E+00
    0.66591E+00         0.50618E+00         0.00000E+00
    0.56051E+00         0.46958E+00         0.00000E+00
    0.46692E+00         0.43216E+00         0.00000E+00
    0.38706E+00         0.39396E+00         0.00000E+00
    0.32138E+00         0.35459E+00         0.00000E+00
    0.26782E+00         0.31336E+00         0.00000E+00
    0.22255E+00         0.26977E+00         0.00000E+00
    0.18160E+00         0.22347E+00         0.00000E+00
    0.14158E+00         0.17410E+00         0.00000E+00
    0.99775E-01         0.12100E+00         0.00000E+00
    0.53541E-01         0.63251E-01         0.00000E+00
    0.00000E+00         0.00000E+00         0.00000E+00
    0.12741E+01         0.51823E+00         0.00000E+00
    0.11346E+01         0.48877E+00         0.00000E+00
    0.10044E+01         0.45893E+00         0.00000E+00
    0.88133E+00         0.42981E+00         0.00000E+00
    0.76551E+00         0.40155E+00         0.00000E+00
    0.65840E+00         0.37396E+00         0.00000E+00
    0.56183E+00         0.34651E+00         0.00000E+00
    0.47683E+00         0.31860E+00         0.00000E+00
    0.40322E+00         0.28947E+00         0.00000E+00
    0.33936E+00         0.25832E+00         0.00000E+00
    0.28251E+00         0.22450E+00         0.00000E+00
    0.22954E+00         0.18756E+00         0.00000E+00
    0.17744E+00         0.14711E+00         0.00000E+00
    0.12349E+00         0.10270E+00         0.00000E+00
    0.65155E-01         0.53818E-01         0.00000E+00
    0.00000E+00         0.00000E+00         0.00000E+00
    0.13775E+01         0.37268E+00         0.00000E+00
    0.12343E+01         0.35267E+00         0.00000E+00
    0.10998E+01         0.33284E+00         0.00000E+00
    0.97360E+00         0.31325E+00         0.00000E+00
    0.85549E+00         0.29424E+00         0.00000E+00
    0.74606E+00         0.27585E+00         0.00000E+00
    0.64611E+00         0.25773E+00         0.00000E+00
    0.55603E+00         0.23927E+00         0.00000E+00
    0.47533E+00         0.21970E+00         0.00000E+00
    0.40261E+00         0.19822E+00         0.00000E+00
    0.33573E+00         0.17416E+00         0.00000E+00
    0.27211E+00         0.14701E+00         0.00000E+00
    0.20914E+00         0.11636E+00         0.00000E+00
    0.14432E+00         0.81853E-01         0.00000E+00
    0.75319E-01         0.43153E-01         0.00000E+00
    0.00000E+00         0.00000E+00         0.00000E+00
    0.14717E+01         0.22289E+00         0.00000E+00
    0.13246E+01         0.21260E+00         0.00000E+00
    0.11864E+01         0.20246E+00         0.00000E+00
    0.10570E+01         0.19264E+00         0.00000E+00
    0.93615E+00         0.18323E+00         0.00000E+00
    0.82387E+00         0.17427E+00         0.00000E+00
    0.72033E+00         0.16548E+00         0.00000E+00
    0.62540E+00         0.15635E+00         0.00000E+00
    0.53840E+00         0.14623E+00         0.00000E+00
    0.45805E+00         0.13441E+00         0.00000E+00
    0.38250E+00         0.12026E+00         0.00000E+00
    0.30961E+00         0.10327E+00         0.00000E+00
    0.23709E+00         0.83027E-01         0.00000E+00
    0.16270E+00         0.59226E-01         0.00000E+00
    0.84302E-01         0.31609E-01         0.00000E+00
    0.00000E+00         0.00000E+00         0.00000E+00
    0.15564E+01         0.69031E-01         0.00000E+00
    0.14054E+01         0.68531E-01         0.00000E+00
    0.12639E+01         0.68193E-01         0.00000E+00
    0.11313E+01         0.68147E-01         0.00000E+00
    0.10075E+01         0.68461E-01         0.00000E+00
    0.89222E+00         0.69084E-01         0.00000E+00
    0.78508E+00         0.69788E-01         0.00000E+00
    0.68565E+00         0.70159E-01         0.00000E+00
    0.59310E+00         0.69656E-01         0.00000E+00
    0.50616E+00         0.67690E-01         0.00000E+00
    0.42321E+00         0.63705E-01         0.00000E+00
    0.34235E+00         0.57226E-01         0.00000E+00
    0.26156E+00         0.47870E-01         0.00000E+00
    0.17883E+00         0.35347E-01         0.00000E+00
    0.92224E-01         0.19440E-01         0.00000E+00
    0.00000E+00         0.00000E+00         0.00000E+00
    0.16312E+01        -0.88718E-01         0.00000E+00
    0.14766E+01        -0.79344E-01         0.00000E+00
    0.13319E+01        -0.69810E-01         0.00000E+00
    0.11964E+01        -0.60002E-01         0.00000E+00
    0.10697E+01        -0.49879E-01         0.00000E+00
    0.95140E+00        -0.39510E-01         0.00000E+00
    0.84085E+00        -0.29097E-01         0.00000E+00
    0.73737E+00        -0.18975E-01         0.00000E+00
    0.63998E+00        -0.95837E-02         0.00000E+00
    0.54743E+00        -0.14078E-02         0.00000E+00
    0.45820E+00         0.50790E-02         0.00000E+00
    0.37058E+00         0.94550E-02         0.00000E+00
    0.28274E+00         0.11372E-01         0.00000E+00
    0.19285E+00         0.10559E-01         0.00000E+00
    0.99148E-01         0.68149E-02         0.00000E+00
    0.00000E+00         0.00000E+00         0.00000E+00
    0.16958E+01        -0.25011E+00         0.00000E+00
    0.15380E+01        -0.23079E+00         0.00000E+00
    0.13903E+01        -0.21130E+00         0.00000E+00
    0.12520E+01        -0.19155E+00         0.00000E+00
    0.11227E+01        -0.17150E+00         0.00000E+00
    0.10016E+01        -0.15122E+00         0.00000E+00
    0.88804E+00        -0.13087E+00         0.00000E+00
    0.78102E+00        -0.11072E+00         0.00000E+00
    0.67952E+00        -0.91137E-01         0.00000E+00
    0.58227E+00        -0.72508E-01         0.00000E+00
    0.48781E+00        -0.55233E-01         0.00000E+00
    0.39455E+00        -0.39678E-01         0.00000E+00
    0.30079E+00        -0.26156E-01         0.00000E+00
    0.20486E+00        -0.14916E-01         0.00000E+00
    0.10511E+00        -0.61506E-02         0.00000E+00
    0.00000E+00         0.00000E+00         0.00000E+00
    0.17502E+01        -0.41488E+00         0.00000E+00
    0.15893E+01        -0.38552E+00         0.00000E+00
    0.14389E+01        -0.35599E+00         0.00000E+00
    0.12983E+01        -0.32620E+00         0.00000E+00
    0.11666E+01        -0.29609E+00         0.00000E+00
    0.10431E+01        -0.26571E+00         0.00000E+00
    0.92693E+00        -0.23520E+00         0.00000E+00
    0.81697E+00        -0.20476E+00         0.00000E+00
    0.71210E+00        -0.17469E+00         0.00000E+00
    0.61103E+00        -0.14531E+00         0.00000E+00
    0.51233E+00        -0.11694E+00         0.00000E+00
    0.41447E+00        -0.89916E-01         0.00000E+00
    0.31587E+00        -0.64500E-01         0.00000E+00
    0.21494E+00        -0.40926E-01         0.00000E+00
    0.11014E+00        -0.19379E-01         0.00000E+00
    0.00000E+00         0.00000E+00         0.00000E+00
    0.17938E+01        -0.58268E+00         0.00000E+00
    0.16303E+01        -0.54321E+00         0.00000E+00
    0.14776E+01        -0.50356E+00         0.00000E+00
    0.13349E+01        -0.46360E+00         0.00000E+00
    0.12014E+01        -0.42329E+00         0.00000E+00
    0.10760E+01        -0.38264E+00         0.00000E+00
    0.95774E+00        -0.34175E+00         0.00000E+00
    0.84550E+00        -0.30077E+00         0.00000E+00
    0.73803E+00        -0.25995E+00         0.00000E+00
    0.63400E+00        -0.21954E+00         0.00000E+00
    0.53200E+00        -0.17982E+00         0.00000E+00
    0.43054E+00        -0.14106E+00         0.00000E+00
    0.32810E+00        -0.10350E+00         0.00000E+00
    0.22316E+00        -0.67361E-01         0.00000E+00
    0.11426E+00        -0.32814E-01         0.00000E+00
    0.00000E+00         0.00000E+00         0.00000E+00
    0.18266E+01        -0.75318E+00         0.00000E+00
    0.16608E+01        -0.70350E+00         0.00000E+00
    0.15063E+01        -0.65363E+00         0.00000E+00
    0.13620E+01        -0.60340E+00         0.00000E+00
    0.12270E+01        -0.55275E+00         0.00000E+00
    0.11003E+01        -0.50166E+00         0.00000E+00
    0.98063E+00        -0.45018E+00         0.00000E+00
    0.86681E+00        -0.39845E+00         0.00000E+00
    0.75752E+00        -0.34664E+00         0.00000E+00
    0.65140E+00        -0.29496E+00         0.00000E+00
    0.54702E+00        -0.24365E+00         0.00000E+00
    0.44290E+00        -0.19293E+00         0.00000E+00
    0.33758E+00        -0.14303E+00         0.00000E+00
    0.22959E+00        -0.94131E-01         0.00000E+00
    0.11752E+00        -0.46409E-01         0.00000E+00
    0.00000E+00         0.00000E+00         0.00000E+00
    0.18482E+01        -0.92598E+00         0.00000E+00
    0.16806E+01        -0.86601E+00         0.00000E+00
    0.15246E+01        -0.80581E+00         0.00000E+00
    0.13793E+01        -0.74521E+00         0.00000E+00
    0.12436E+01        -0.68407E+00         0.00000E+00
    0.11161E+01        -0.62238E+00         0.00000E+00
    0.99571E+00        -0.56015E+00         0.00000E+00
    0.88105E+00        -0.49746E+00         0.00000E+00
    0.77075E+00        -0.43446E+00         0.00000E+00
    0.66340E+00        -0.37132E+00         0.00000E+00
    0.55753E+00        -0.30822E+00         0.00000E+00
    0.45170E+00        -0.24537E+00         0.00000E+00
    0.34443E+00        -0.18295E+00         0.00000E+00
    0.23430E+00        -0.12115E+00         0.00000E+00
    0.11993E+00        -0.60121E-01         0.00000E+00
    0.00000E+00         0.00000E+00         0.00000E+00
    0.18584E+01        -0.11007E+01         0.00000E+00
    0.16894E+01        -0.10303E+01         0.00000E+00
    0.15326E+01        -0.95969E+00         0.00000E+00
    0.13868E+01        -0.88859E+00         0.00000E+00
    0.12509E+01        -0.81686E+00         0.00000E+00
    0.11234E+01        -0.74442E+00         0.00000E+00
    0.10030E+01        -0.67128E+00         0.00000E+00
    0.88832E+00        -0.59748E+00         0.00000E+00
    0.77785E+00        -0.52312E+00         0.00000E+00
    0.67013E+00        -0.44835E+00         0.00000E+00
    0.56368E+00        -0.37332E+00         0.00000E+00
    0.45702E+00        -0.29819E+00         0.00000E+00
    0.34871E+00        -0.22315E+00         0.00000E+00
    0.23732E+00        -0.14834E+00         0.00000E+00
    0.12152E+00        -0.73911E-01         0.00000E+00
    0.00000E+00         0.00000E+00         0.00000E+00
    0.18567E+01        -0.12767E+01         0.00000E+00
    0.16868E+01        -0.11959E+01         0.00000E+00
    0.15298E+01        -0.11148E+01         0.00000E+00
    0.13843E+01        -0.10331E+01         0.00000E+00
    0.12489E+01        -0.95065E+00         0.00000E+00
    0.11221E+01        -0.86735E+00         0.00000E+00
    0.10026E+01        -0.78317E+00         0.00000E+00
    0.88868E+00        -0.69813E+00         0.00000E+00
    0.77889E+00        -0.61230E+00         0.00000E+00
    0.67169E+00        -0.52578E+00         0.00000E+00
    0.56554E+00        -0.43871E+00         0.00000E+00
    0.45896E+00        -0.35123E+00         0.00000E+00
    0.35049E+00        -0.26348E+00         0.00000E+00
    0.23872E+00        -0.17560E+00         0.00000E+00
    0.12231E+00        -0.87734E-01         0.00000E+00
    0.00000E+00         0.00000E+00         0.00000E+00
    0.18427E+01        -0.14537E+01         0.00000E+00
    0.16726E+01        -0.13624E+01         0.00000E+00
    0.15161E+01        -0.12706E+01         0.00000E+00
    0.13715E+01        -0.11782E+01         0.00000E+00
    0.12374E+01        -0.10850E+01         0.00000E+00
    0.11123E+01        -0.99069E+00         0.00000E+00
    0.99438E+00        -0.89537E+00         0.00000E+00
    0.88214E+00        -0.79900E+00         0.00000E+00
    0.77392E+00        -0.70162E+00         0.00000E+00
    0.66813E+00        -0.60330E+00         0.00000E+00
    0.56319E+00        -0.50415E+00         0.00000E+00
    0.45758E+00        -0.40427E+00         0.00000E+00
    0.34982E+00        -0.30380E+00         0.00000E+00
    0.23851E+00        -0.20285E+00         0.00000E+00
    0.12232E+00        -0.10154E+00         0.00000E+00
    0.00000E+00         0.00000E+00         0.00000E+00
    0.18160E+01        -0.16310E+01         0.00000E+00
    0.16464E+01        -0.15290E+01         0.00000E+00
    0.14910E+01        -0.14266E+01         0.00000E+00
    0.13483E+01        -0.13234E+01         0.00000E+00
    0.12164E+01        -0.12192E+01         0.00000E+00
    0.10937E+01        -0.11139E+01         0.00000E+00
    0.97837E+00        -0.10074E+01         0.00000E+00
    0.86869E+00        -0.89964E+00         0.00000E+00
    0.76296E+00        -0.79068E+00         0.00000E+00
    0.65949E+00        -0.68056E+00         0.00000E+00
    0.55666E+00        -0.56933E+00         0.00000E+00
    0.45290E+00        -0.45710E+00         0.00000E+00
    0.34672E+00        -0.34394E+00         0.00000E+00
    0.23671E+00        -0.22997E+00         0.00000E+00
    0.12155E+00        -0.11529E+00         0.00000E+00
    0.00000E+00         0.00000E+00         0.00000E+00
    0.17761E+01        -0.18080E+01         0.00000E+00
    0.16077E+01        -0.16952E+01         0.00000E+00
    0.14544E+01        -0.15820E+01         0.00000E+00
    0.13144E+01        -0.14679E+01         0.00000E+00
    0.11856E+01        -0.13528E+01         0.00000E+00
    0.10663E+01        -0.12364E+01         0.00000E+00
    0.95448E+00        -0.11186E+01         0.00000E+00
    0.84830E+00        -0.99950E+00         0.00000E+00
    0.74597E+00        -0.87900E+00         0.00000E+00
    0.64575E+00        -0.75714E+00         0.00000E+00
    0.54594E+00        -0.63394E+00         0.00000E+00
    0.44494E+00        -0.50946E+00         0.00000E+00
    0.34121E+00        -0.38374E+00         0.00000E+00
    0.23332E+00        -0.25687E+00         0.00000E+00
    0.11999E+00        -0.12893E+00         0.00000E+00
    0.00000E+00         0.00000E+00         0.00000E+00
    0.17224E+01        -0.19838E+01         0.00000E+00
    0.15561E+01        -0.18602E+01         0.00000E+00
    0.14058E+01        -0.17361E+01         0.00000E+00
    0.12695E+01        -0.16111E+01         0.00000E+00
    0.11449E+01        -0.14849E+01         0.00000E+00
    0.10299E+01        -0.13573E+01         0.00000E+00
    0.92260E+00        -0.12284E+01         0.00000E+00
    0.82088E+00        -0.10980E+01         0.00000E+00
    0.72291E+00        -0.96602E+00         0.00000E+00
    0.62687E+00        -0.83258E+00         0.00000E+00
    0.53101E+00        -0.69760E+00         0.00000E+00
    0.43367E+00        -0.56109E+00         0.00000E+00
    0.33327E+00        -0.42304E+00         0.00000E+00
    0.22833E+00        -0.28346E+00         0.00000E+00
    0.11760E+00        -0.14243E+00         0.00000E+00
    0.00000E+00         0.00000E+00         0.00000E+00
    0.16542E+01        -0.21576E+01         0.00000E+00
    0.14911E+01        -0.20231E+01         0.00000E+00
    0.13449E+01        -0.18880E+01         0.00000E+00
    0.12134E+01        -0.17519E+01         0.00000E+00
    0.10940E+01        -0.16146E+01         0.00000E+00
    0.98447E+00        -0.14760E+01         0.00000E+00
    0.88262E+00        -0.13359E+01         0.00000E+00
    0.78635E+00        -0.11943E+01         0.00000E+00
    0.69368E+00        -0.10511E+01         0.00000E+00
    0.60275E+00        -0.90632E+00         0.00000E+00
    0.51177E+00        -0.75987E+00         0.00000E+00
    0.41902E+00        -0.61168E+00         0.00000E+00
    0.32285E+00        -0.46167E+00         0.00000E+00
    0.22173E+00        -0.30979E+00         0.00000E+00
    0.11427E+00        -0.15595E+00         0.00000E+00
    0.00000E+00         0.00000E+00         0.00000E+00
    0.15708E+01        -0.23283E+01         0.00000E+00
    0.14120E+01        -0.21827E+01         0.00000E+00
    0.12712E+01        -0.20366E+01         0.00000E+00
    0.11457E+01        -0.18894E+01         0.00000E+00
    0.10327E+01        -0.17411E+01         0.00000E+00
    0.92975E+00        -0.15913E+01         0.00000E+00
    0.83442E+00        -0.14402E+01         0.00000E+00
    0.74456E+00        -0.12876E+01         0.00000E+00
    0.65813E+00        -0.11334E+01         0.00000E+00
    0.57324E+00        -0.97769E+00         0.00000E+00
    0.48807E+00        -0.82022E+00         0.00000E+00
    0.40085E+00        -0.66085E+00         0.00000E+00
    0.30982E+00        -0.49944E+00         0.00000E+00
    0.21338E+00        -0.33586E+00         0.00000E+00
    0.10999E+00        -0.17008E+00         0.00000E+00
    0.00000E+00         0.00000E+00         0.00000E+00
    0.14715E+01        -0.24946E+01         0.00000E+00
    0.13184E+01        -0.23379E+01         0.00000E+00
    0.11844E+01        -0.21806E+01         0.00000E+00
    0.10662E+01        -0.20223E+01         0.00000E+00
    0.96092E+00        -0.18629E+01         0.00000E+00
    0.86562E+00        -0.17021E+01         0.00000E+00
    0.77785E+00        -0.15401E+01         0.00000E+00
    0.69535E+00        -0.13768E+01         0.00000E+00
    0.61608E+00        -0.12121E+01         0.00000E+00
    0.53813E+00        -0.10459E+01         0.00000E+00
    0.45967E+00        -0.87799E+00         0.00000E+00
    0.37892E+00        -0.70812E+00         0.00000E+00
    0.29403E+00        -0.53604E+00         0.00000E+00
    0.20305E+00        -0.36152E+00         0.00000E+00
    0.10495E+00        -0.18425E+00         0.00000E+00
    0.00000E+00         0.00000E+00         0.00000E+00
    0.13554E+01        -0.26551E+01         0.00000E+00
    0.12097E+01        -0.24872E+01         0.00000E+00
    0.10841E+01        -0.23186E+01         0.00000E+00
    0.97480E+00        -0.21492E+01         0.00000E+00
    0.87844E+00        -0.19786E+01         0.00000E+00
    0.79198E+00        -0.18071E+01         0.00000E+00
    0.71278E+00        -0.16345E+01         0.00000E+00
    0.63856E+00        -0.14608E+01         0.00000E+00
    0.56728E+00        -0.12861E+01         0.00000E+00
    0.49711E+00        -0.11100E+01         0.00000E+00
    0.42625E+00        -0.93237E+00         0.00000E+00
    0.35291E+00        -0.75281E+00         0.00000E+00
    0.27520E+00        -0.57097E+00         0.00000E+00
    0.19086E+00        -0.38655E+00         0.00000E+00
    0.99241E-01        -0.19725E+00         0.00000E+00
    0.00000E+00         0.00000E+00         0.00000E+00
    0.12217E+01        -0.28080E+01         0.00000E+00
    0.10853E+01        -0.26287E+01         0.00000E+00
    0.96996E+00        -0.24488E+01         0.00000E+00
    0.87119E+00        -0.22681E+01         0.00000E+00
    0.78520E+00        -0.20867E+01         0.00000E+00
    0.70871E+00        -0.19045E+01         0.00000E+00
    0.63904E+00        -0.17217E+01         0.00000E+00
    0.57393E+00        -0.15383E+01         0.00000E+00
    0.51144E+00        -0.13541E+01         0.00000E+00
    0.44981E+00        -0.11690E+01         0.00000E+00
    0.38737E+00        -0.98243E+00         0.00000E+00
    0.32239E+00        -0.79408E+00         0.00000E+00
    0.25293E+00        -0.60340E+00         0.00000E+00
    0.17690E+00        -0.40986E+00         0.00000E+00
    0.92992E-01        -0.20910E+00         0.00000E+00
    0.00000E+00         0.00000E+00         0.00000E+00
    0.10695E+01        -0.29511E+01         0.00000E+00
    0.94481E+00        -0.27603E+01         0.00000E+00
    0.84183E+00        -0.25690E+01         0.00000E+00
    0.75539E+00        -0.23772E+01         0.00000E+00
    0.68117E+00        -0.21850E+01         0.00000E+00
    0.61576E+00        -0.19926E+01         0.00000E+00
    0.55648E+00        -0.18002E+01         0.00000E+00
    0.50121E+00        -0.16077E+01         0.00000E+00
    0.44816E+00        -0.14149E+01         0.00000E+00
    0.39576E+00        -0.12216E+01         0.00000E+00
    0.34248E+00        -0.10271E+01         0.00000E+00
    0.28678E+00        -0.83101E+00         0.00000E+00
    0.22683E+00        -0.63256E+00         0.00000E+00
    0.16058E+00        -0.43056E+00         0.00000E+00
    0.85778E-01        -0.21985E+00         0.00000E+00
    0.00000E+00         0.00000E+00         0.00000E+00
    0.89780E+00        -0.30818E+01         0.00000E+00
    0.78773E+00        -0.28794E+01         0.00000E+00
    0.69967E+00        -0.26767E+01         0.00000E+00
    0.62747E+00        -0.24738E+01         0.00000E+00
    0.56641E+00        -0.22712E+01         0.00000E+00
    0.51304E+00        -0.20693E+01         0.00000E+00
    0.46489E+00        -0.18681E+01         0.00000E+00
    0.42005E+00        -0.16674E+01         0.00000E+00
    0.37700E+00        -0.14671E+01         0.00000E+00
    0.33438E+00        -0.12666E+01         0.00000E+00
    0.29093E+00        -0.10653E+01         0.00000E+00
    0.24532E+00        -0.86259E+00         0.00000E+00
    0.19606E+00        -0.65750E+00         0.00000E+00
    0.14117E+00        -0.44834E+00         0.00000E+00
    0.76967E-01        -0.22937E+00         0.00000E+00
    0.00000E+00         0.00000E+00         0.00000E+00
    0.70574E+00        -0.31967E+01         0.00000E+00
    0.61392E+00        -0.29826E+01         0.00000E+00
    0.54371E+00        -0.27685E+01         0.00000E+00
    0.48772E+00        -0.25550E+01         0.00000E+00
    0.44101E+00        -0.23428E+01         0.00000E+00
    0.40045E+00        -0.21323E+01         0.00000E+00
    0.36396E+00        -0.19235E+01         0.00000E+00
    0.33000E+00        -0.17160E+01         0.00000E+00
    0.29736E+00        -0.15093E+01         0.00000E+00
    0.26500E+00        -0.13029E+01         0.00000E+00
    0.23190E+00        -0.10961E+01         0.00000E+00
    0.19708E+00        -0.88793E+00         0.00000E+00
    0.15945E+00        -0.67743E+00         0.00000E+00
    0.11736E+00        -0.46281E+00         0.00000E+00
    0.65791E-01        -0.23757E+00         0.00000E+00
    0.00000E+00         0.00000E+00         0.00000E+00
    0.49230E+00        -0.32913E+01         0.00000E+00
    0.42367E+00        -0.30655E+01         0.00000E+00
    0.37459E+00        -0.28403E+01         0.00000E+00
    0.33648E+00        -0.26172E+01         0.00000E+00
    0.30499E+00        -0.23969E+01         0.00000E+00
    0.27774E+00        -0.21795E+01         0.00000E+00
    0.25326E+00        -0.19646E+01         0.00000E+00
    0.23048E+00        -0.17518E+01         0.00000E+00
    0.20856E+00        -0.15404E+01         0.00000E+00
    0.18678E+00        -0.13296E+01         0.00000E+00
    0.16447E+00        -0.11186E+01         0.00000E+00
    0.14094E+00        -0.90637E+00         0.00000E+00
    0.11554E+00        -0.69179E+00         0.00000E+00
    0.87370E-01        -0.47338E+00         0.00000E+00
    0.51091E-01        -0.24425E+00         0.00000E+00
    0.00000E+00         0.00000E+00         0.00000E+00
    0.25662E+00        -0.33592E+01         0.00000E+00
    0.21824E+00        -0.31217E+01         0.00000E+00
    0.19321E+00        -0.28869E+01         0.00000E+00
    0.17398E+00        -0.26566E+01         0.00000E+00
    0.15815E+00        -0.24307E+01         0.00000E+00
    0.14448E+00        -0.22087E+01         0.00000E+00
    0.13220E+00        -0.19900E+01         0.00000E+00
    0.12076E+00        -0.17739E+01         0.00000E+00
    0.10975E+00        -0.15595E+01         0.00000E+00
    0.98798E-01        -0.13460E+01         0.00000E+00
    0.87560E-01        -0.11323E+01         0.00000E+00
    0.75697E-01        -0.91752E+00         0.00000E+00
    0.62856E-01        -0.70028E+00         0.00000E+00
    0.49016E-01        -0.47924E+00         0.00000E+00
    0.30741E-01        -0.24925E+00         0.00000E+00
    0.00000E+00         0.00000E+00         0.00000E+00
    0.00000E+00        -0.33874E+01         0.00000E+00
    0.00000E+00        -0.31421E+01         0.00000E+00
    0.00000E+00        -0.29031E+01         0.00000E+00
    0.00000E+00        -0.26701E+01         0.00000E+00
    0.00000E+00        -0.24422E+01         0.00000E+00
    0.00000E+00        -0.22186E+01         0.00000E+00
    0.00000E+00        -0.19986E+01         0.00000E+00
    0.00000E+00        -0.17813E+01         0.00000E+00
    0.00000E+00        -0.15659E+01         0.00000E+00
    0.00000E+00        -0.13514E+01         0.00000E+00
    0.00000E+00        -0.11369E+01         0.00000E+00
    0.00000E+00        -0.92125E+00         0.00000E+00
    0.00000E+00        -0.70306E+00         0.00000E+00
    0.00000E+00        -0.48089E+00         0.00000E+00
    0.00000E+00        -0.25137E+00         0.00000E+00
    0.00000E+00         0.00000E+00         0.00000E+00
CELL_DATA        450
VECTORS vDarcy double 
    0.11659E-05         0.75697E-08         0.00000E+00
    0.11667E-05         0.19052E-07         0.00000E+00
    0.11626E-05         0.24294E-07         0.00000E+00
    0.11608E-05         0.26082E-07         0.00000E+00
    0.11599E-05         0.26491E-07         0.00000E+00
    0.11593E-05         0.26393E-07         0.00000E+00
    0.11589E-05         0.25977E-07         0.00000E+00
    0.11583E-05         0.25103E-07         0.00000E+00
    0.11571E-05         0.23431E-07         0.00000E+00
    0.11578E-05         0.21168E-07         0.00000E+00
    0.11583E-05         0.18797E-07         0.00000E+00
    0.11582E-05         0.16223E-07         0.00000E+00
    0.11580E-05         0.13212E-07         0.00000E+00
    0.11576E-05         0.93927E-08         0.00000E+00
    0.11553E-05         0.36098E-08         0.00000E+00
    0.11807E-05         0.37826E-08         0.00000E+00
    0.11652E-05         0.68206E-08         0.00000E+00
    0.11606E-05         0.58017E-08         0.00000E+00
    0.11589E-05         0.55410E-08         0.00000E+00
    0.11587E-05         0.60062E-08         0.00000E+00
    0.11589E-05         0.69670E-08         0.00000E+00
    0.11588E-05         0.82832E-08         0.00000E+00
    0.11584E-05         0.97337E-08         0.00000E+00
    0.11579E-05         0.11202E-07         0.00000E+00
    0.11569E-05         0.12021E-07         0.00000E+00
    0.11562E-05         0.11600E-07         0.00000E+00
    0.11556E-05         0.10224E-07         0.00000E+00
    0.11547E-05         0.80963E-08         0.00000E+00
    0.11530E-05         0.51398E-08         0.00000E+00
    0.11501E-05         0.17173E-08         0.00000E+00
    0.11789E-05        -0.21875E-08         0.00000E+00
    0.11642E-05        -0.36339E-08         0.00000E+00
    0.11603E-05        -0.21264E-08         0.00000E+00
    0.11598E-05        -0.53068E-09         0.00000E+00
    0.11598E-05         0.10854E-08         0.00000E+00
    0.11600E-05         0.25829E-08         0.00000E+00
    0.11600E-05         0.39196E-08         0.00000E+00
    0.11594E-05         0.50513E-08         0.00000E+00
    0.11582E-05         0.57966E-08         0.00000E+00
    0.11567E-05         0.61620E-08         0.00000E+00
    0.11552E-05         0.61221E-08         0.00000E+00
    0.11538E-05         0.54994E-08         0.00000E+00
    0.11522E-05         0.42635E-08         0.00000E+00
    0.11501E-05         0.25931E-08         0.00000E+00
    0.11473E-05         0.84256E-09         0.00000E+00
    0.11723E-05        -0.22830E-08         0.00000E+00
    0.11663E-05        -0.37728E-08         0.00000E+00
    0.11623E-05        -0.19346E-08         0.00000E+00
    0.11608E-05        -0.25898E-09         0.00000E+00
    0.11605E-05         0.83885E-09         0.00000E+00
    0.11605E-05         0.15916E-08         0.00000E+00
    0.11602E-05         0.20433E-08         0.00000E+00
    0.11594E-05         0.22641E-08         0.00000E+00
    0.11581E-05         0.23955E-08         0.00000E+00
    0.11564E-05         0.24771E-08         0.00000E+00
    0.11546E-05         0.24345E-08         0.00000E+00
    0.11527E-05         0.21651E-08         0.00000E+00
    0.11507E-05         0.16308E-08         0.00000E+00
    0.11484E-05         0.93168E-09         0.00000E+00
    0.11458E-05         0.28216E-09         0.00000E+00
    0.11692E-05        -0.91339E-09         0.00000E+00
    0.11662E-05        -0.19496E-08         0.00000E+00
    0.11632E-05        -0.16453E-08         0.00000E+00
    0.11615E-05        -0.77281E-09         0.00000E+00
    0.11608E-05        -0.79213E-10         0.00000E+00
    0.11604E-05         0.25388E-09         0.00000E+00
    0.11598E-05         0.30924E-09         0.00000E+00
    0.11589E-05         0.21161E-09         0.00000E+00
    0.11576E-05         0.87712E-10         0.00000E+00
    0.11560E-05         0.12439E-10         0.00000E+00
    0.11541E-05        -0.21773E-10         0.00000E+00
    0.11521E-05        -0.62976E-10         0.00000E+00
    0.11500E-05        -0.12992E-09         0.00000E+00
    0.11477E-05        -0.17338E-09         0.00000E+00
    0.11453E-05        -0.88584E-10         0.00000E+00
    0.11676E-05        -0.49814E-09         0.00000E+00
    0.11653E-05        -0.12667E-08         0.00000E+00
    0.11632E-05        -0.15024E-08         0.00000E+00
    0.11617E-05        -0.13321E-08         0.00000E+00
    0.11607E-05        -0.11229E-08         0.00000E+00
    0.11600E-05        -0.10783E-08         0.00000E+00
    0.11593E-05        -0.12094E-08         0.00000E+00
    0.11583E-05        -0.14252E-08         0.00000E+00
    0.11571E-05        -0.16200E-08         0.00000E+00
    0.11555E-05        -0.17193E-08         0.00000E+00
    0.11537E-05        -0.16960E-08         0.00000E+00
    0.11518E-05        -0.15555E-08         0.00000E+00
    0.11498E-05        -0.13009E-08         0.00000E+00
    0.11476E-05        -0.90992E-09         0.00000E+00
    0.11454E-05        -0.33719E-09         0.00000E+00
    0.11663E-05        -0.44187E-09         0.00000E+00
    0.11643E-05        -0.11932E-08         0.00000E+00
    0.11626E-05        -0.16744E-08         0.00000E+00
    0.11613E-05        -0.19282E-08         0.00000E+00
    0.11603E-05        -0.20880E-08         0.00000E+00
    0.11595E-05        -0.22752E-08         0.00000E+00
    0.11586E-05        -0.25171E-08         0.00000E+00
    0.11577E-05        -0.27671E-08         0.00000E+00
    0.11565E-05        -0.29501E-08         0.00000E+00
    0.11551E-05        -0.30019E-08         0.00000E+00
    0.11535E-05        -0.28850E-08         0.00000E+00
    0.11517E-05        -0.25851E-08         0.00000E+00
    0.11498E-05        -0.20963E-08         0.00000E+00
    0.11479E-05        -0.14086E-08         0.00000E+00
    0.11459E-05        -0.50609E-09         0.00000E+00
    0.11650E-05        -0.48016E-09         0.00000E+00
    0.11633E-05        -0.13510E-08         0.00000E+00
    0.11618E-05        -0.20366E-08         0.00000E+00
    0.11606E-05        -0.25557E-08         0.00000E+00
    0.11596E-05        -0.29657E-08         0.00000E+00
    0.11588E-05        -0.33202E-08         0.00000E+00
    0.11580E-05        -0.36363E-08         0.00000E+00
    0.11571E-05        -0.38877E-08         0.00000E+00
    0.11560E-05        -0.40251E-08         0.00000E+00
    0.11548E-05        -0.39990E-08         0.00000E+00
    0.11534E-05        -0.37740E-08         0.00000E+00
    0.11518E-05        -0.33306E-08         0.00000E+00
    0.11502E-05        -0.26602E-08         0.00000E+00
    0.11484E-05        -0.17589E-08         0.00000E+00
    0.11466E-05        -0.62459E-09         0.00000E+00
    0.11636E-05        -0.55952E-09         0.00000E+00
    0.11620E-05        -0.15975E-08         0.00000E+00
    0.11607E-05        -0.24704E-08         0.00000E+00
    0.11596E-05        -0.31862E-08         0.00000E+00
    0.11588E-05        -0.37686E-08         0.00000E+00
    0.11580E-05        -0.42395E-08         0.00000E+00
    0.11573E-05        -0.46033E-08         0.00000E+00
    0.11565E-05        -0.48419E-08         0.00000E+00
    0.11556E-05        -0.49227E-08         0.00000E+00
    0.11546E-05        -0.48103E-08         0.00000E+00
    0.11534E-05        -0.44762E-08         0.00000E+00
    0.11521E-05        -0.39032E-08         0.00000E+00
    0.11507E-05        -0.30842E-08         0.00000E+00
    0.11492E-05        -0.20190E-08         0.00000E+00
    0.11476E-05        -0.71214E-09         0.00000E+00
    0.11620E-05        -0.65303E-09         0.00000E+00
    0.11606E-05        -0.18741E-08         0.00000E+00
    0.11595E-05        -0.29218E-08         0.00000E+00
    0.11586E-05        -0.37976E-08         0.00000E+00
    0.11578E-05        -0.45092E-08         0.00000E+00
    0.11572E-05        -0.50627E-08         0.00000E+00
    0.11566E-05        -0.54558E-08         0.00000E+00
    0.11560E-05        -0.56746E-08         0.00000E+00
    0.11553E-05        -0.56971E-08         0.00000E+00
    0.11545E-05        -0.54992E-08         0.00000E+00
    0.11536E-05        -0.50612E-08         0.00000E+00
    0.11525E-05        -0.43709E-08         0.00000E+00
    0.11514E-05        -0.34244E-08         0.00000E+00
    0.11501E-05        -0.22251E-08         0.00000E+00
    0.11488E-05        -0.78107E-09         0.00000E+00
    0.11603E-05        -0.75036E-09         0.00000E+00
    0.11590E-05        -0.21568E-08         0.00000E+00
    0.11581E-05        -0.33693E-08         0.00000E+00
    0.11574E-05        -0.43839E-08         0.00000E+00
    0.11568E-05        -0.51996E-08         0.00000E+00
    0.11564E-05        -0.58154E-08         0.00000E+00
    0.11560E-05        -0.62261E-08         0.00000E+00
    0.11556E-05        -0.64214E-08         0.00000E+00
    0.11551E-05        -0.63869E-08         0.00000E+00
    0.11545E-05        -0.61078E-08         0.00000E+00
    0.11539E-05        -0.55725E-08         0.00000E+00
    0.11531E-05        -0.47746E-08         0.00000E+00
    0.11522E-05        -0.37148E-08         0.00000E+00
    0.11512E-05        -0.23993E-08         0.00000E+00
    0.11501E-05        -0.83898E-09         0.00000E+00
    0.11583E-05        -0.84795E-09         0.00000E+00
    0.11573E-05        -0.24379E-08         0.00000E+00
    0.11566E-05        -0.38076E-08         0.00000E+00
    0.11561E-05        -0.49479E-08         0.00000E+00
    0.11557E-05        -0.58531E-08         0.00000E+00
    0.11555E-05        -0.65189E-08         0.00000E+00
    0.11554E-05        -0.69400E-08         0.00000E+00
    0.11552E-05        -0.71097E-08         0.00000E+00
    0.11550E-05        -0.70201E-08         0.00000E+00
    0.11547E-05        -0.66641E-08         0.00000E+00
    0.11543E-05        -0.60372E-08         0.00000E+00
    0.11537E-05        -0.51393E-08         0.00000E+00
    0.11531E-05        -0.39753E-08         0.00000E+00
    0.11524E-05        -0.25546E-08         0.00000E+00
    0.11516E-05        -0.89042E-09         0.00000E+00
    0.11562E-05        -0.94564E-09         0.00000E+00
    0.11554E-05        -0.27175E-08         0.00000E+00
    0.11549E-05        -0.42392E-08         0.00000E+00
    0.11547E-05        -0.54970E-08         0.00000E+00
    0.11546E-05        -0.64824E-08         0.00000E+00
    0.11547E-05        -0.71902E-08         0.00000E+00
    0.11548E-05        -0.76167E-08         0.00000E+00
    0.11549E-05        -0.77593E-08         0.00000E+00
    0.11549E-05        -0.76158E-08         0.00000E+00
    0.11549E-05        -0.71860E-08         0.00000E+00
    0.11548E-05        -0.64720E-08         0.00000E+00
    0.11545E-05        -0.54794E-08         0.00000E+00
    0.11542E-05        -0.42173E-08         0.00000E+00
    0.11537E-05        -0.26984E-08         0.00000E+00
    0.11531E-05        -0.93794E-09         0.00000E+00
    0.11539E-05        -0.10447E-08         0.00000E+00
    0.11534E-05        -0.29991E-08         0.00000E+00
    0.11532E-05        -0.46698E-08         0.00000E+00
    0.11532E-05        -0.60395E-08         0.00000E+00
    0.11534E-05        -0.70985E-08         0.00000E+00
    0.11538E-05        -0.78422E-08         0.00000E+00
    0.11542E-05        -0.82701E-08         0.00000E+00
    0.11546E-05        -0.83836E-08         0.00000E+00
    0.11550E-05        -0.81865E-08         0.00000E+00
    0.11552E-05        -0.76846E-08         0.00000E+00
    0.11554E-05        -0.68861E-08         0.00000E+00
    0.11554E-05        -0.58021E-08         0.00000E+00
    0.11553E-05        -0.44463E-08         0.00000E+00
    0.11551E-05        -0.28341E-08         0.00000E+00
    0.11548E-05        -0.98276E-09         0.00000E+00
    0.11514E-05        -0.11467E-08         0.00000E+00
    0.11512E-05        -0.32869E-08         0.00000E+00
    0.11513E-05        -0.51054E-08         0.00000E+00
    0.11517E-05        -0.65827E-08         0.00000E+00
    0.11523E-05        -0.77095E-08         0.00000E+00
    0.11529E-05        -0.84838E-08         0.00000E+00
    0.11537E-05        -0.89086E-08         0.00000E+00
    0.11544E-05        -0.89905E-08         0.00000E+00
    0.11551E-05        -0.87387E-08         0.00000E+00
    0.11557E-05        -0.81647E-08         0.00000E+00
    0.11561E-05        -0.72828E-08         0.00000E+00
    0.11564E-05        -0.61095E-08         0.00000E+00
    0.11566E-05        -0.46631E-08         0.00000E+00
    0.11566E-05        -0.29622E-08         0.00000E+00
    0.11565E-05        -0.10250E-08         0.00000E+00
    0.11487E-05        -0.12531E-08         0.00000E+00
    0.11488E-05        -0.35845E-08         0.00000E+00
    0.11493E-05        -0.55504E-08         0.00000E+00
    0.11501E-05        -0.71312E-08         0.00000E+00
    0.11510E-05        -0.83199E-08         0.00000E+00
    0.11521E-05        -0.91186E-08         0.00000E+00
    0.11532E-05        -0.95352E-08         0.00000E+00
    0.11543E-05        -0.95820E-08         0.00000E+00
    0.11553E-05        -0.92734E-08         0.00000E+00
    0.11562E-05        -0.86266E-08         0.00000E+00
    0.11570E-05        -0.76610E-08         0.00000E+00
    0.11576E-05        -0.63991E-08         0.00000E+00
    0.11580E-05        -0.48646E-08         0.00000E+00
    0.11583E-05        -0.30799E-08         0.00000E+00
    0.11584E-05        -0.10636E-08         0.00000E+00
    0.11459E-05        -0.13649E-08         0.00000E+00
    0.11464E-05        -0.38942E-08         0.00000E+00
    0.11473E-05        -0.60070E-08         0.00000E+00
    0.11484E-05        -0.76862E-08         0.00000E+00
    0.11498E-05        -0.89295E-08         0.00000E+00
    0.11513E-05        -0.97450E-08         0.00000E+00
    0.11528E-05        -0.10147E-07         0.00000E+00
    0.11542E-05        -0.10154E-07         0.00000E+00
    0.11556E-05        -0.97867E-08         0.00000E+00
    0.11568E-05        -0.90660E-08         0.00000E+00
    0.11579E-05        -0.80160E-08         0.00000E+00
    0.11588E-05        -0.66647E-08         0.00000E+00
    0.11595E-05        -0.50434E-08         0.00000E+00
    0.11600E-05        -0.31809E-08         0.00000E+00
    0.11603E-05        -0.10962E-08         0.00000E+00
    0.11428E-05        -0.14826E-08         0.00000E+00
    0.11438E-05        -0.42163E-08         0.00000E+00
    0.11451E-05        -0.64741E-08         0.00000E+00
    0.11467E-05        -0.82444E-08         0.00000E+00
    0.11486E-05        -0.95325E-08         0.00000E+00
    0.11505E-05        -0.10355E-07         0.00000E+00
    0.11524E-05        -0.10735E-07         0.00000E+00
    0.11542E-05        -0.10697E-07         0.00000E+00
    0.11560E-05        -0.10269E-07         0.00000E+00
    0.11576E-05        -0.94747E-08         0.00000E+00
    0.11590E-05        -0.83409E-08         0.00000E+00
    0.11601E-05        -0.68982E-08         0.00000E+00
    0.11611E-05        -0.51872E-08         0.00000E+00
    0.11618E-05        -0.32525E-08         0.00000E+00
    0.11624E-05        -0.11171E-08         0.00000E+00
    0.11396E-05        -0.16058E-08         0.00000E+00
    0.11410E-05        -0.45491E-08         0.00000E+00
    0.11429E-05        -0.69472E-08         0.00000E+00
    0.11450E-05        -0.87974E-08         0.00000E+00
    0.11473E-05        -0.10116E-07         0.00000E+00
    0.11497E-05        -0.10933E-07         0.00000E+00
    0.11521E-05        -0.11280E-07         0.00000E+00
    0.11543E-05        -0.11194E-07         0.00000E+00
    0.11565E-05        -0.10704E-07         0.00000E+00
    0.11584E-05        -0.98398E-08         0.00000E+00
    0.11601E-05        -0.86268E-08         0.00000E+00
    0.11616E-05        -0.70949E-08         0.00000E+00
    0.11628E-05        -0.52843E-08         0.00000E+00
    0.11637E-05        -0.32704E-08         0.00000E+00
    0.11644E-05        -0.11127E-08         0.00000E+00
    0.11361E-05        -0.17335E-08         0.00000E+00
    0.11381E-05        -0.48884E-08         0.00000E+00
    0.11405E-05        -0.74171E-08         0.00000E+00
    0.11433E-05        -0.93305E-08         0.00000E+00
    0.11461E-05        -0.10661E-07         0.00000E+00
    0.11490E-05        -0.11454E-07         0.00000E+00
    0.11518E-05        -0.11757E-07         0.00000E+00
    0.11545E-05        -0.11616E-07         0.00000E+00
    0.11570E-05        -0.11068E-07         0.00000E+00
    0.11593E-05        -0.10142E-07         0.00000E+00
    0.11614E-05        -0.88609E-08         0.00000E+00
    0.11632E-05        -0.72503E-08         0.00000E+00
    0.11646E-05        -0.53433E-08         0.00000E+00
    0.11657E-05        -0.32084E-08         0.00000E+00
    0.11664E-05        -0.10485E-08         0.00000E+00
    0.11324E-05        -0.18639E-08         0.00000E+00
    0.11351E-05        -0.52275E-08         0.00000E+00
    0.11382E-05        -0.78700E-08         0.00000E+00
    0.11415E-05        -0.98217E-08         0.00000E+00
    0.11450E-05        -0.11137E-07         0.00000E+00
    0.11484E-05        -0.11884E-07         0.00000E+00
    0.11517E-05        -0.12127E-07         0.00000E+00
    0.11548E-05        -0.11926E-07         0.00000E+00
    0.11577E-05        -0.11325E-07         0.00000E+00
    0.11603E-05        -0.10353E-07         0.00000E+00
    0.11627E-05        -0.90257E-08         0.00000E+00
    0.11648E-05        -0.73521E-08         0.00000E+00
    0.11666E-05        -0.53697E-08         0.00000E+00
    0.11678E-05        -0.30927E-08         0.00000E+00
    0.11683E-05        -0.93815E-09         0.00000E+00
    0.11285E-05        -0.19944E-08         0.00000E+00
    0.11319E-05        -0.55567E-08         0.00000E+00
    0.11358E-05        -0.82862E-08         0.00000E+00
    0.11399E-05        -0.10241E-07         0.00000E+00
    0.11439E-05        -0.11505E-07         0.00000E+00
    0.11479E-05        -0.12176E-07         0.00000E+00
    0.11516E-05        -0.12342E-07         0.00000E+00
    0.11551E-05        -0.12075E-07         0.00000E+00
    0.11584E-05        -0.11428E-07         0.00000E+00
    0.11614E-05        -0.10431E-07         0.00000E+00
    0.11641E-05        -0.90905E-08         0.00000E+00
    0.11666E-05        -0.73931E-08         0.00000E+00
    0.11686E-05        -0.53300E-08         0.00000E+00
    0.11702E-05        -0.30026E-08         0.00000E+00
    0.11699E-05        -0.89832E-09         0.00000E+00
    0.11243E-05        -0.21215E-08         0.00000E+00
    0.11287E-05        -0.58625E-08         0.00000E+00
    0.11334E-05        -0.86381E-08         0.00000E+00
    0.11383E-05        -0.10545E-07         0.00000E+00
    0.11430E-05        -0.11713E-07         0.00000E+00
    0.11474E-05        -0.12272E-07         0.00000E+00
    0.11516E-05        -0.12339E-07         0.00000E+00
    0.11555E-05        -0.12003E-07         0.00000E+00
    0.11591E-05        -0.11322E-07         0.00000E+00
    0.11625E-05        -0.10324E-07         0.00000E+00
    0.11655E-05        -0.90063E-08         0.00000E+00
    0.11684E-05        -0.73421E-08         0.00000E+00
    0.11708E-05        -0.52284E-08         0.00000E+00
    0.11724E-05        -0.29872E-08         0.00000E+00
    0.11717E-05        -0.96826E-09         0.00000E+00
    0.11200E-05        -0.22405E-08         0.00000E+00
    0.11254E-05        -0.61259E-08         0.00000E+00
    0.11312E-05        -0.88871E-08         0.00000E+00
    0.11368E-05        -0.10680E-07         0.00000E+00
    0.11422E-05        -0.11692E-07         0.00000E+00
    0.11472E-05        -0.12101E-07         0.00000E+00
    0.11518E-05        -0.12051E-07         0.00000E+00
    0.11560E-05        -0.11644E-07         0.00000E+00
    0.11599E-05        -0.10942E-07         0.00000E+00
    0.11635E-05        -0.99723E-08         0.00000E+00
    0.11669E-05        -0.87215E-08         0.00000E+00
    0.11701E-05        -0.71319E-08         0.00000E+00
    0.11731E-05        -0.50981E-08         0.00000E+00
    0.11742E-05        -0.30186E-08         0.00000E+00
    0.11736E-05        -0.10421E-08         0.00000E+00
    0.11155E-05        -0.23443E-08         0.00000E+00
    0.11222E-05        -0.63186E-08         0.00000E+00
    0.11290E-05        -0.89769E-08         0.00000E+00
    0.11356E-05        -0.10566E-07         0.00000E+00
    0.11416E-05        -0.11357E-07         0.00000E+00
    0.11471E-05        -0.11579E-07         0.00000E+00
    0.11521E-05        -0.11402E-07         0.00000E+00
    0.11566E-05        -0.10931E-07         0.00000E+00
    0.11607E-05        -0.10230E-07         0.00000E+00
    0.11645E-05        -0.93189E-08         0.00000E+00
    0.11682E-05        -0.81834E-08         0.00000E+00
    0.11718E-05        -0.67378E-08         0.00000E+00
    0.11752E-05        -0.49315E-08         0.00000E+00
    0.11760E-05        -0.30253E-08         0.00000E+00
    0.11756E-05        -0.10547E-08         0.00000E+00
    0.11108E-05        -0.24214E-08         0.00000E+00
    0.11191E-05        -0.63944E-08         0.00000E+00
    0.11272E-05        -0.88199E-08         0.00000E+00
    0.11347E-05        -0.10095E-07         0.00000E+00
    0.11413E-05        -0.10601E-07         0.00000E+00
    0.11472E-05        -0.10619E-07         0.00000E+00
    0.11525E-05        -0.10323E-07         0.00000E+00
    0.11572E-05        -0.98135E-08         0.00000E+00
    0.11615E-05        -0.91399E-08         0.00000E+00
    0.11655E-05        -0.83208E-08         0.00000E+00
    0.11693E-05        -0.73439E-08         0.00000E+00
    0.11732E-05        -0.61476E-08         0.00000E+00
    0.11770E-05        -0.46696E-08         0.00000E+00
    0.11778E-05        -0.29590E-08         0.00000E+00
    0.11777E-05        -0.10314E-08         0.00000E+00
    0.11061E-05        -0.24489E-08         0.00000E+00
    0.11163E-05        -0.62684E-08         0.00000E+00
    0.11258E-05        -0.82728E-08         0.00000E+00
    0.11341E-05        -0.91133E-08         0.00000E+00
    0.11413E-05        -0.93043E-08         0.00000E+00
    0.11476E-05        -0.91397E-08         0.00000E+00
    0.11530E-05        -0.87674E-08         0.00000E+00
    0.11578E-05        -0.82615E-08         0.00000E+00
    0.11622E-05        -0.76560E-08         0.00000E+00
    0.11663E-05        -0.69620E-08         0.00000E+00
    0.11703E-05        -0.61777E-08         0.00000E+00
    0.11744E-05        -0.52997E-08         0.00000E+00
    0.11784E-05        -0.42275E-08         0.00000E+00
    0.11795E-05        -0.27880E-08         0.00000E+00
    0.11796E-05        -0.97993E-09         0.00000E+00
    0.11014E-05        -0.23762E-08         0.00000E+00
    0.11140E-05        -0.57631E-08         0.00000E+00
    0.11250E-05        -0.70917E-08         0.00000E+00
    0.11341E-05        -0.74370E-08         0.00000E+00
    0.11416E-05        -0.73673E-08         0.00000E+00
    0.11480E-05        -0.70991E-08         0.00000E+00
    0.11535E-05        -0.67252E-08         0.00000E+00
    0.11584E-05        -0.62862E-08         0.00000E+00
    0.11628E-05        -0.57980E-08         0.00000E+00
    0.11670E-05        -0.52648E-08         0.00000E+00
    0.11710E-05        -0.46905E-08         0.00000E+00
    0.11751E-05        -0.41154E-08         0.00000E+00
    0.11793E-05        -0.35149E-08         0.00000E+00
    0.11810E-05        -0.24574E-08         0.00000E+00
    0.11815E-05        -0.86200E-09         0.00000E+00
    0.10972E-05        -0.20169E-08         0.00000E+00
    0.11127E-05        -0.44592E-08         0.00000E+00
    0.11248E-05        -0.49493E-08         0.00000E+00
    0.11343E-05        -0.49469E-08         0.00000E+00
    0.11420E-05        -0.47737E-08         0.00000E+00
    0.11484E-05        -0.45282E-08         0.00000E+00
    0.11540E-05        -0.42476E-08         0.00000E+00
    0.11589E-05        -0.39455E-08         0.00000E+00
    0.11633E-05        -0.36255E-08         0.00000E+00
    0.11675E-05        -0.32875E-08         0.00000E+00
    0.11715E-05        -0.29356E-08         0.00000E+00
    0.11755E-05        -0.25937E-08         0.00000E+00
    0.11797E-05        -0.23664E-08         0.00000E+00
    0.11823E-05        -0.18453E-08         0.00000E+00
    0.11830E-05        -0.69537E-09         0.00000E+00
    0.10942E-05        -0.86036E-09         0.00000E+00
    0.11127E-05        -0.17629E-08         0.00000E+00
    0.11251E-05        -0.17942E-08         0.00000E+00
    0.11346E-05        -0.17436E-08         0.00000E+00
    0.11423E-05        -0.16565E-08         0.00000E+00
    0.11487E-05        -0.15574E-08         0.00000E+00
    0.11543E-05        -0.14529E-08         0.00000E+00
    0.11592E-05        -0.13450E-08         0.00000E+00
    0.11636E-05        -0.12334E-08         0.00000E+00
    0.11678E-05        -0.11174E-08         0.00000E+00
    0.11718E-05        -0.99910E-09         0.00000E+00
    0.11758E-05        -0.87778E-09         0.00000E+00
    0.11797E-05        -0.82649E-09         0.00000E+00
    0.11828E-05        -0.72200E-09         0.00000E+00
    0.11841E-05        -0.30431E-09         0.00000E+00
POINT_DATA        496
VECTORS vDarcyNodal double 
    0.11676E-05         0.58764E-08         0.00000E+00
    0.11647E-05         0.13216E-07         0.00000E+00
    0.11609E-05         0.26897E-07         0.00000E+00
    0.11598E-05         0.36027E-07         0.00000E+00
    0.11595E-05         0.39927E-07         0.00000E+00
    0.11595E-05         0.41091E-07         0.00000E+00
    0.11595E-05         0.40480E-07         0.00000E+00
    0.11595E-05         0.38490E-07         0.00000E+00
    0.11593E-05         0.34681E-07         0.00000E+00
    0.11591E-05         0.29409E-07         0.00000E+00
    0.11588E-05         0.24653E-07         0.00000E+00
    0.11586E-05         0.21071E-07         0.00000E+00
    0.11583E-05         0.17746E-07         0.00000E+00
    0.11579E-05         0.14058E-07         0.00000E+00
    0.11571E-05         0.85196E-08         0.00000E+00
    0.11566E-05         0.49615E-08         0.00000E+00
    0.11717E-05         0.89657E-08         0.00000E+00
    0.11678E-05         0.12870E-07         0.00000E+00
    0.11622E-05         0.15701E-07         0.00000E+00
    0.11602E-05         0.13693E-07         0.00000E+00
    0.11595E-05         0.12125E-07         0.00000E+00
    0.11594E-05         0.11396E-07         0.00000E+00
    0.11593E-05         0.11595E-07         0.00000E+00
    0.11591E-05         0.12387E-07         0.00000E+00
    0.11587E-05         0.13732E-07         0.00000E+00
    0.11582E-05         0.15122E-07         0.00000E+00
    0.11578E-05         0.15265E-07         0.00000E+00
    0.11574E-05         0.13912E-07         0.00000E+00
    0.11568E-05         0.11660E-07         0.00000E+00
    0.11560E-05         0.85272E-08         0.00000E+00
    0.11546E-05         0.44739E-08         0.00000E+00
    0.11536E-05         0.22545E-08         0.00000E+00
    0.11767E-05        -0.10620E-08         0.00000E+00
    0.11711E-05        -0.16723E-08         0.00000E+00
    0.11632E-05        -0.22634E-08         0.00000E+00
    0.11604E-05        -0.16548E-08         0.00000E+00
    0.11596E-05        -0.53463E-10         0.00000E+00
    0.11595E-05         0.19517E-08         0.00000E+00
    0.11594E-05         0.39175E-08         0.00000E+00
    0.11591E-05         0.57965E-08         0.00000E+00
    0.11583E-05         0.72870E-08         0.00000E+00
    0.11573E-05         0.81337E-08         0.00000E+00
    0.11564E-05         0.83724E-08         0.00000E+00
    0.11554E-05         0.79246E-08         0.00000E+00
    0.11543E-05         0.66710E-08         0.00000E+00
    0.11528E-05         0.47170E-08         0.00000E+00
    0.11505E-05         0.23872E-08         0.00000E+00
    0.11491E-05         0.11814E-08         0.00000E+00
    0.11755E-05        -0.33211E-08         0.00000E+00
    0.11704E-05        -0.41808E-08         0.00000E+00
    0.11634E-05        -0.35509E-08         0.00000E+00
    0.11608E-05        -0.10389E-08         0.00000E+00
    0.11601E-05         0.60186E-09         0.00000E+00
    0.11600E-05         0.17297E-08         0.00000E+00
    0.11599E-05         0.26045E-08         0.00000E+00
    0.11595E-05         0.31954E-08         0.00000E+00
    0.11586E-05         0.35823E-08         0.00000E+00
    0.11573E-05         0.38445E-08         0.00000E+00
    0.11557E-05         0.39274E-08         0.00000E+00
    0.11542E-05         0.37091E-08         0.00000E+00
    0.11525E-05         0.31011E-08         0.00000E+00
    0.11506E-05         0.21454E-08         0.00000E+00
    0.11482E-05         0.10511E-08         0.00000E+00
    0.11468E-05         0.50483E-09         0.00000E+00
    0.11714E-05        -0.12718E-08         0.00000E+00
    0.11686E-05        -0.18938E-08         0.00000E+00
    0.11641E-05        -0.21614E-08         0.00000E+00
    0.11618E-05        -0.11533E-08         0.00000E+00
    0.11608E-05        -0.19307E-10         0.00000E+00
    0.11604E-05         0.70566E-09         0.00000E+00
    0.11601E-05         0.10387E-08         0.00000E+00
    0.11595E-05         0.11231E-08         0.00000E+00
    0.11585E-05         0.10895E-08         0.00000E+00
    0.11570E-05         0.10403E-08         0.00000E+00
    0.11553E-05         0.99522E-09         0.00000E+00
    0.11534E-05         0.89974E-09         0.00000E+00
    0.11515E-05         0.70183E-09         0.00000E+00
    0.11494E-05         0.42154E-09         0.00000E+00
    0.11470E-05         0.16486E-09         0.00000E+00
    0.11457E-05         0.60468E-10         0.00000E+00
    0.11686E-05        -0.55880E-09         0.00000E+00
    0.11671E-05        -0.97328E-09         0.00000E+00
    0.11643E-05        -0.14360E-08         0.00000E+00
    0.11622E-05        -0.12640E-08         0.00000E+00
    0.11610E-05        -0.82917E-09         0.00000E+00
    0.11604E-05        -0.52551E-09         0.00000E+00
    0.11598E-05        -0.46863E-09         0.00000E+00
    0.11591E-05        -0.59443E-09         0.00000E+00
    0.11580E-05        -0.78203E-09         0.00000E+00
    0.11565E-05        -0.93207E-09         0.00000E+00
    0.11548E-05        -0.99702E-09         0.00000E+00
    0.11530E-05        -0.97797E-09         0.00000E+00
    0.11510E-05        -0.88964E-09         0.00000E+00
    0.11489E-05        -0.72145E-09         0.00000E+00
    0.11466E-05        -0.42517E-09         0.00000E+00
    0.11454E-05        -0.23684E-09         0.00000E+00
    0.11670E-05        -0.43796E-09         0.00000E+00
    0.11659E-05        -0.79229E-09         0.00000E+00
    0.11638E-05        -0.13333E-08         0.00000E+00
    0.11621E-05        -0.15690E-08         0.00000E+00
    0.11609E-05        -0.16223E-08         0.00000E+00
    0.11600E-05        -0.16707E-08         0.00000E+00
    0.11593E-05        -0.18132E-08         0.00000E+00
    0.11585E-05        -0.20340E-08         0.00000E+00
    0.11574E-05        -0.22571E-08         0.00000E+00
    0.11560E-05        -0.24014E-08         0.00000E+00
    0.11545E-05        -0.24129E-08         0.00000E+00
    0.11527E-05        -0.22689E-08         0.00000E+00
    0.11508E-05        -0.19630E-08         0.00000E+00
    0.11488E-05        -0.14868E-08         0.00000E+00
    0.11468E-05        -0.82069E-09         0.00000E+00
    0.11457E-05        -0.43693E-09         0.00000E+00
    0.11656E-05        -0.44572E-09         0.00000E+00
    0.11647E-05        -0.84248E-09         0.00000E+00
    0.11629E-05        -0.15332E-08         0.00000E+00
    0.11615E-05        -0.20315E-08         0.00000E+00
    0.11604E-05        -0.23905E-08         0.00000E+00
    0.11595E-05        -0.26880E-08         0.00000E+00
    0.11587E-05        -0.29741E-08         0.00000E+00
    0.11578E-05        -0.32452E-08         0.00000E+00
    0.11568E-05        -0.34553E-08         0.00000E+00
    0.11556E-05        -0.35462E-08         0.00000E+00
    0.11542E-05        -0.34701E-08         0.00000E+00
    0.11526E-05        -0.31978E-08         0.00000E+00
    0.11509E-05        -0.27156E-08         0.00000E+00
    0.11491E-05        -0.20162E-08         0.00000E+00
    0.11473E-05        -0.10931E-08         0.00000E+00
    0.11463E-05        -0.57477E-09         0.00000E+00
    0.11643E-05        -0.51424E-09         0.00000E+00
    0.11634E-05        -0.98793E-09         0.00000E+00
    0.11619E-05        -0.18528E-08         0.00000E+00
    0.11606E-05        -0.25583E-08         0.00000E+00
    0.11596E-05        -0.31275E-08         0.00000E+00
    0.11588E-05        -0.35939E-08         0.00000E+00
    0.11580E-05        -0.39781E-08         0.00000E+00
    0.11572E-05        -0.42746E-08         0.00000E+00
    0.11563E-05        -0.44534E-08         0.00000E+00
    0.11553E-05        -0.44743E-08         0.00000E+00
    0.11541E-05        -0.42999E-08         0.00000E+00
    0.11527E-05        -0.39041E-08         0.00000E+00
    0.11512E-05        -0.32731E-08         0.00000E+00
    0.11497E-05        -0.24015E-08         0.00000E+00
    0.11480E-05        -0.12897E-08         0.00000E+00
    0.11472E-05        -0.67404E-09         0.00000E+00
    0.11628E-05        -0.60432E-09         0.00000E+00
    0.11620E-05        -0.11681E-08         0.00000E+00
    0.11606E-05        -0.22133E-08         0.00000E+00
    0.11596E-05        -0.30957E-08         0.00000E+00
    0.11587E-05        -0.38240E-08         0.00000E+00
    0.11579E-05        -0.44106E-08         0.00000E+00
    0.11573E-05        -0.48608E-08         0.00000E+00
    0.11566E-05        -0.51669E-08         0.00000E+00
    0.11559E-05        -0.53077E-08         0.00000E+00
    0.11550E-05        -0.52556E-08         0.00000E+00
    0.11540E-05        -0.49839E-08         0.00000E+00
    0.11529E-05        -0.44731E-08         0.00000E+00
    0.11517E-05        -0.37126E-08         0.00000E+00
    0.11504E-05        -0.27005E-08         0.00000E+00
    0.11490E-05        -0.14408E-08         0.00000E+00
    0.11483E-05        -0.74994E-09         0.00000E+00
    0.11611E-05        -0.70121E-09         0.00000E+00
    0.11604E-05        -0.13580E-08         0.00000E+00
    0.11592E-05        -0.25808E-08         0.00000E+00
    0.11583E-05        -0.36212E-08         0.00000E+00
    0.11576E-05        -0.44796E-08         0.00000E+00
    0.11571E-05        -0.51578E-08         0.00000E+00
    0.11566E-05        -0.56541E-08         0.00000E+00
    0.11561E-05        -0.59601E-08         0.00000E+00
    0.11555E-05        -0.60608E-08         0.00000E+00
    0.11549E-05        -0.59379E-08         0.00000E+00
    0.11541E-05        -0.55741E-08         0.00000E+00
    0.11533E-05        -0.49570E-08         0.00000E+00
    0.11523E-05        -0.40812E-08         0.00000E+00
    0.11512E-05        -0.29481E-08         0.00000E+00
    0.11501E-05        -0.15649E-08         0.00000E+00
    0.11495E-05        -0.81195E-09         0.00000E+00
    0.11592E-05        -0.79896E-09         0.00000E+00
    0.11587E-05        -0.15481E-08         0.00000E+00
    0.11577E-05        -0.29434E-08         0.00000E+00
    0.11570E-05        -0.41294E-08         0.00000E+00
    0.11565E-05        -0.51008E-08         0.00000E+00
    0.11561E-05        -0.58539E-08         0.00000E+00
    0.11558E-05        -0.63841E-08         0.00000E+00
    0.11555E-05        -0.66843E-08         0.00000E+00
    0.11552E-05        -0.67446E-08         0.00000E+00
    0.11548E-05        -0.65543E-08         0.00000E+00
    0.11543E-05        -0.61040E-08         0.00000E+00
    0.11538E-05        -0.53883E-08         0.00000E+00
    0.11530E-05        -0.44069E-08         0.00000E+00
    0.11522E-05        -0.31651E-08         0.00000E+00
    0.11513E-05        -0.16730E-08         0.00000E+00
    0.11509E-05        -0.86580E-09         0.00000E+00
    0.11572E-05        -0.89637E-09         0.00000E+00
    0.11567E-05        -0.17367E-08         0.00000E+00
    0.11560E-05        -0.33001E-08         0.00000E+00
    0.11555E-05        -0.46234E-08         0.00000E+00
    0.11552E-05        -0.56972E-08         0.00000E+00
    0.11551E-05        -0.65148E-08         0.00000E+00
    0.11551E-05        -0.70715E-08         0.00000E+00
    0.11551E-05        -0.73623E-08         0.00000E+00
    0.11550E-05        -0.73823E-08         0.00000E+00
    0.11549E-05        -0.71274E-08         0.00000E+00
    0.11547E-05        -0.65952E-08         0.00000E+00
    0.11543E-05        -0.57866E-08         0.00000E+00
    0.11539E-05        -0.47065E-08         0.00000E+00
    0.11534E-05        -0.33640E-08         0.00000E+00
    0.11527E-05        -0.17716E-08         0.00000E+00
    0.11524E-05        -0.91484E-09         0.00000E+00
    0.11550E-05        -0.99431E-09         0.00000E+00
    0.11547E-05        -0.19254E-08         0.00000E+00
    0.11542E-05        -0.36546E-08         0.00000E+00
    0.11540E-05        -0.51100E-08         0.00000E+00
    0.11540E-05        -0.62791E-08         0.00000E+00
    0.11541E-05        -0.71544E-08         0.00000E+00
    0.11544E-05        -0.77321E-08         0.00000E+00
    0.11546E-05        -0.80106E-08         0.00000E+00
    0.11549E-05        -0.79900E-08         0.00000E+00
    0.11550E-05        -0.76721E-08         0.00000E+00
    0.11551E-05        -0.70609E-08         0.00000E+00
    0.11551E-05        -0.61632E-08         0.00000E+00
    0.11549E-05        -0.49890E-08         0.00000E+00
    0.11546E-05        -0.35510E-08         0.00000E+00
    0.11542E-05        -0.18643E-08         0.00000E+00
    0.11540E-05        -0.96086E-09         0.00000E+00
    0.11526E-05        -0.10944E-08         0.00000E+00
    0.11524E-05        -0.21172E-08         0.00000E+00
    0.11522E-05        -0.40122E-08         0.00000E+00
    0.11523E-05        -0.55965E-08         0.00000E+00
    0.11526E-05        -0.68556E-08         0.00000E+00
    0.11531E-05        -0.77829E-08         0.00000E+00
    0.11537E-05        -0.83769E-08         0.00000E+00
    0.11542E-05        -0.86401E-08         0.00000E+00
    0.11548E-05        -0.85775E-08         0.00000E+00
    0.11553E-05        -0.81967E-08         0.00000E+00
    0.11556E-05        -0.75078E-08         0.00000E+00
    0.11559E-05        -0.65234E-08         0.00000E+00
    0.11560E-05        -0.52582E-08         0.00000E+00
    0.11560E-05        -0.37287E-08         0.00000E+00
    0.11558E-05        -0.19522E-08         0.00000E+00
    0.11557E-05        -0.10045E-08         0.00000E+00
    0.11500E-05        -0.11982E-08         0.00000E+00
    0.11500E-05        -0.23150E-08         0.00000E+00
    0.11501E-05        -0.43777E-08         0.00000E+00
    0.11506E-05        -0.60886E-08         0.00000E+00
    0.11512E-05        -0.74332E-08         0.00000E+00
    0.11521E-05        -0.84069E-08         0.00000E+00
    0.11530E-05        -0.90121E-08         0.00000E+00
    0.11539E-05        -0.92560E-08         0.00000E+00
    0.11548E-05        -0.91490E-08         0.00000E+00
    0.11556E-05        -0.87044E-08         0.00000E+00
    0.11563E-05        -0.79378E-08         0.00000E+00
    0.11568E-05        -0.68674E-08         0.00000E+00
    0.11572E-05        -0.55133E-08         0.00000E+00
    0.11574E-05        -0.38959E-08         0.00000E+00
    0.11575E-05        -0.20346E-08         0.00000E+00
    0.11575E-05        -0.10453E-08         0.00000E+00
    0.11473E-05        -0.13071E-08         0.00000E+00
    0.11474E-05        -0.25211E-08         0.00000E+00
    0.11479E-05        -0.47546E-08         0.00000E+00
    0.11487E-05        -0.65898E-08         0.00000E+00
    0.11498E-05        -0.80144E-08         0.00000E+00
    0.11510E-05        -0.90281E-08         0.00000E+00
    0.11523E-05        -0.96384E-08         0.00000E+00
    0.11536E-05        -0.98582E-08         0.00000E+00
    0.11549E-05        -0.97037E-08         0.00000E+00
    0.11560E-05        -0.91934E-08         0.00000E+00
    0.11570E-05        -0.83481E-08         0.00000E+00
    0.11578E-05        -0.71914E-08         0.00000E+00
    0.11585E-05        -0.57495E-08         0.00000E+00
    0.11590E-05        -0.40480E-08         0.00000E+00
    0.11593E-05        -0.21086E-08         0.00000E+00
    0.11594E-05        -0.10818E-08         0.00000E+00
    0.11443E-05        -0.14218E-08         0.00000E+00
    0.11447E-05        -0.27364E-08         0.00000E+00
    0.11456E-05        -0.51438E-08         0.00000E+00
    0.11469E-05        -0.71000E-08         0.00000E+00
    0.11484E-05        -0.85976E-08         0.00000E+00
    0.11500E-05        -0.96428E-08         0.00000E+00
    0.11517E-05        -0.10250E-07         0.00000E+00
    0.11534E-05        -0.10440E-07         0.00000E+00
    0.11550E-05        -0.10235E-07         0.00000E+00
    0.11565E-05        -0.96573E-08         0.00000E+00
    0.11578E-05        -0.87324E-08         0.00000E+00
    0.11590E-05        -0.74882E-08         0.00000E+00
    0.11599E-05        -0.59579E-08         0.00000E+00
    0.11606E-05        -0.41758E-08         0.00000E+00
    0.11611E-05        -0.21682E-08         0.00000E+00
    0.11614E-05        -0.11104E-08         0.00000E+00
    0.11411E-05        -0.15424E-08         0.00000E+00
    0.11417E-05        -0.29607E-08         0.00000E+00
    0.11431E-05        -0.55437E-08         0.00000E+00
    0.11449E-05        -0.76150E-08         0.00000E+00
    0.11469E-05        -0.91756E-08         0.00000E+00
    0.11490E-05        -0.10241E-07         0.00000E+00
    0.11512E-05        -0.10836E-07         0.00000E+00
    0.11533E-05        -0.10989E-07         0.00000E+00
    0.11553E-05        -0.10729E-07         0.00000E+00
    0.11571E-05        -0.10085E-07         0.00000E+00
    0.11588E-05        -0.90819E-08         0.00000E+00
    0.11602E-05        -0.77501E-08         0.00000E+00
    0.11614E-05        -0.61271E-08         0.00000E+00
    0.11624E-05        -0.42637E-08         0.00000E+00
    0.11631E-05        -0.22014E-08         0.00000E+00
    0.11634E-05        -0.11238E-08         0.00000E+00
    0.11378E-05        -0.16681E-08         0.00000E+00
    0.11386E-05        -0.31922E-08         0.00000E+00
    0.11406E-05        -0.59494E-08         0.00000E+00
    0.11429E-05        -0.81259E-08         0.00000E+00
    0.11454E-05        -0.97345E-08         0.00000E+00
    0.11481E-05        -0.10805E-07         0.00000E+00
    0.11507E-05        -0.11374E-07         0.00000E+00
    0.11532E-05        -0.11482E-07         0.00000E+00
    0.11556E-05        -0.11167E-07         0.00000E+00
    0.11578E-05        -0.10458E-07         0.00000E+00
    0.11598E-05        -0.93837E-08         0.00000E+00
    0.11616E-05        -0.79711E-08         0.00000E+00
    0.11631E-05        -0.62519E-08         0.00000E+00
    0.11642E-05        -0.42911E-08         0.00000E+00
    0.11651E-05        -0.21819E-08         0.00000E+00
    0.11654E-05        -0.11017E-08         0.00000E+00
    0.11342E-05        -0.17977E-08         0.00000E+00
    0.11353E-05        -0.34276E-08         0.00000E+00
    0.11379E-05        -0.63528E-08         0.00000E+00
    0.11409E-05        -0.86180E-08         0.00000E+00
    0.11440E-05        -0.10253E-07         0.00000E+00
    0.11471E-05        -0.11307E-07         0.00000E+00
    0.11502E-05        -0.11834E-07         0.00000E+00
    0.11532E-05        -0.11888E-07         0.00000E+00
    0.11560E-05        -0.11516E-07         0.00000E+00
    0.11586E-05        -0.10751E-07         0.00000E+00
    0.11610E-05        -0.96187E-08         0.00000E+00
    0.11630E-05        -0.81399E-08         0.00000E+00
    0.11648E-05        -0.63418E-08         0.00000E+00
    0.11662E-05        -0.42612E-08         0.00000E+00
    0.11671E-05        -0.20755E-08         0.00000E+00
    0.11673E-05        -0.99558E-09         0.00000E+00
    0.11303E-05        -0.19288E-08         0.00000E+00
    0.11319E-05        -0.36617E-08         0.00000E+00
    0.11352E-05        -0.67415E-08         0.00000E+00
    0.11388E-05        -0.90703E-08         0.00000E+00
    0.11426E-05        -0.10702E-07         0.00000E+00
    0.11463E-05        -0.11711E-07         0.00000E+00
    0.11499E-05        -0.12175E-07         0.00000E+00
    0.11533E-05        -0.12164E-07         0.00000E+00
    0.11565E-05        -0.11735E-07         0.00000E+00
    0.11594E-05        -0.10926E-07         0.00000E+00
    0.11621E-05        -0.97598E-08         0.00000E+00
    0.11646E-05        -0.82382E-08         0.00000E+00
    0.11667E-05        -0.63805E-08         0.00000E+00
    0.11683E-05        -0.42020E-08         0.00000E+00
    0.11691E-05        -0.19560E-08         0.00000E+00
    0.11691E-05        -0.88105E-09         0.00000E+00
    0.11263E-05        -0.20586E-08         0.00000E+00
    0.11283E-05        -0.38873E-08         0.00000E+00
    0.11325E-05        -0.70983E-08         0.00000E+00
    0.11368E-05        -0.94535E-08         0.00000E+00
    0.11413E-05        -0.11041E-07         0.00000E+00
    0.11456E-05        -0.11969E-07         0.00000E+00
    0.11497E-05        -0.12342E-07         0.00000E+00
    0.11535E-05        -0.12253E-07         0.00000E+00
    0.11570E-05        -0.11769E-07         0.00000E+00
    0.11603E-05        -0.10934E-07         0.00000E+00
    0.11634E-05        -0.97623E-08         0.00000E+00
    0.11661E-05        -0.82462E-08         0.00000E+00
    0.11686E-05        -0.63436E-08         0.00000E+00
    0.11705E-05        -0.41313E-08         0.00000E+00
    0.11710E-05        -0.19450E-08         0.00000E+00
    0.11708E-05        -0.91560E-09         0.00000E+00
    0.11221E-05        -0.21830E-08         0.00000E+00
    0.11246E-05        -0.40946E-08         0.00000E+00
    0.11297E-05        -0.73995E-08         0.00000E+00
    0.11349E-05        -0.97279E-08         0.00000E+00
    0.11401E-05        -0.11216E-07         0.00000E+00
    0.11450E-05        -0.12016E-07         0.00000E+00
    0.11495E-05        -0.12270E-07         0.00000E+00
    0.11538E-05        -0.12091E-07         0.00000E+00
    0.11576E-05        -0.11557E-07         0.00000E+00
    0.11612E-05        -0.10714E-07         0.00000E+00
    0.11646E-05        -0.95694E-08         0.00000E+00
    0.11677E-05        -0.81035E-08         0.00000E+00
    0.11706E-05        -0.62282E-08         0.00000E+00
    0.11726E-05        -0.40849E-08         0.00000E+00
    0.11730E-05        -0.20104E-08         0.00000E+00
    0.11727E-05        -0.10209E-08         0.00000E+00
    0.11177E-05        -0.22965E-08         0.00000E+00
    0.11207E-05        -0.42698E-08         0.00000E+00
    0.11270E-05        -0.76114E-08         0.00000E+00
    0.11332E-05        -0.98383E-08         0.00000E+00
    0.11391E-05        -0.11156E-07         0.00000E+00
    0.11446E-05        -0.11778E-07         0.00000E+00
    0.11496E-05        -0.11884E-07         0.00000E+00
    0.11541E-05        -0.11607E-07         0.00000E+00
    0.11583E-05        -0.11032E-07         0.00000E+00
    0.11622E-05        -0.10204E-07         0.00000E+00
    0.11658E-05        -0.91269E-08         0.00000E+00
    0.11692E-05        -0.77519E-08         0.00000E+00
    0.11725E-05        -0.60030E-08         0.00000E+00
    0.11746E-05        -0.40322E-08         0.00000E+00
    0.11749E-05        -0.20506E-08         0.00000E+00
    0.11746E-05        -0.10635E-08         0.00000E+00
    0.11131E-05        -0.23907E-08         0.00000E+00
    0.11169E-05        -0.43915E-08         0.00000E+00
    0.11244E-05        -0.76832E-08         0.00000E+00
    0.11317E-05        -0.97057E-08         0.00000E+00
    0.11384E-05        -0.10769E-07         0.00000E+00
    0.11444E-05        -0.11162E-07         0.00000E+00
    0.11498E-05        -0.11102E-07         0.00000E+00
    0.11546E-05        -0.10732E-07         0.00000E+00
    0.11590E-05        -0.10134E-07         0.00000E+00
    0.11630E-05        -0.93492E-08         0.00000E+00
    0.11669E-05        -0.83788E-08         0.00000E+00
    0.11706E-05        -0.71718E-08         0.00000E+00
    0.11742E-05        -0.56677E-08         0.00000E+00
    0.11764E-05        -0.39254E-08         0.00000E+00
    0.11768E-05        -0.20300E-08         0.00000E+00
    0.11767E-05        -0.10462E-08         0.00000E+00
    0.11084E-05        -0.24510E-08         0.00000E+00
    0.11131E-05        -0.44236E-08         0.00000E+00
    0.11222E-05        -0.75323E-08         0.00000E+00
    0.11306E-05        -0.92128E-08         0.00000E+00
    0.11380E-05        -0.99322E-08         0.00000E+00
    0.11444E-05        -0.10065E-07         0.00000E+00
    0.11501E-05        -0.98477E-08         0.00000E+00
    0.11551E-05        -0.94123E-08         0.00000E+00
    0.11597E-05        -0.88255E-08         0.00000E+00
    0.11638E-05        -0.81170E-08         0.00000E+00
    0.11678E-05        -0.72902E-08         0.00000E+00
    0.11717E-05        -0.63228E-08         0.00000E+00
    0.11756E-05        -0.51512E-08         0.00000E+00
    0.11781E-05        -0.37042E-08         0.00000E+00
    0.11786E-05        -0.19611E-08         0.00000E+00
    0.11786E-05        -0.10169E-08         0.00000E+00
    0.11038E-05        -0.24464E-08         0.00000E+00
    0.11095E-05        -0.42947E-08         0.00000E+00
    0.11204E-05        -0.70135E-08         0.00000E+00
    0.11299E-05        -0.81815E-08         0.00000E+00
    0.11378E-05        -0.84952E-08         0.00000E+00
    0.11446E-05        -0.83894E-08         0.00000E+00
    0.11505E-05        -0.80690E-08         0.00000E+00
    0.11557E-05        -0.76254E-08         0.00000E+00
    0.11603E-05        -0.70997E-08         0.00000E+00
    0.11645E-05        -0.65077E-08         0.00000E+00
    0.11686E-05        -0.58548E-08         0.00000E+00
    0.11726E-05        -0.51585E-08         0.00000E+00
    0.11767E-05        -0.43783E-08         0.00000E+00
    0.11795E-05        -0.33127E-08         0.00000E+00
    0.11804E-05        -0.18077E-08         0.00000E+00
    0.11805E-05        -0.94333E-09         0.00000E+00
    0.10995E-05        -0.23071E-08         0.00000E+00
    0.11065E-05        -0.38489E-08         0.00000E+00
    0.11193E-05        -0.58514E-08         0.00000E+00
    0.11296E-05        -0.63604E-08         0.00000E+00
    0.11380E-05        -0.63224E-08         0.00000E+00
    0.11450E-05        -0.60894E-08         0.00000E+00
    0.11509E-05        -0.57664E-08         0.00000E+00
    0.11561E-05        -0.53959E-08         0.00000E+00
    0.11608E-05        -0.49931E-08         0.00000E+00
    0.11651E-05        -0.45624E-08         0.00000E+00
    0.11692E-05        -0.41066E-08         0.00000E+00
    0.11732E-05        -0.36523E-08         0.00000E+00
    0.11773E-05        -0.32552E-08         0.00000E+00
    0.11805E-05        -0.26613E-08         0.00000E+00
    0.11818E-05        -0.15126E-08         0.00000E+00
    0.11822E-05        -0.78113E-09         0.00000E+00
    0.10962E-05        -0.17329E-08         0.00000E+00
    0.11046E-05        -0.26382E-08         0.00000E+00
    0.11189E-05        -0.35737E-08         0.00000E+00
    0.11297E-05        -0.35524E-08         0.00000E+00
    0.11383E-05        -0.34131E-08         0.00000E+00
    0.11453E-05        -0.32256E-08         0.00000E+00
    0.11513E-05        -0.30208E-08         0.00000E+00
    0.11565E-05        -0.28074E-08         0.00000E+00
    0.11612E-05        -0.25868E-08         0.00000E+00
    0.11655E-05        -0.23584E-08         0.00000E+00
    0.11696E-05        -0.21232E-08         0.00000E+00
    0.11736E-05        -0.18827E-08         0.00000E+00
    0.11776E-05        -0.17095E-08         0.00000E+00
    0.11810E-05        -0.15530E-08         0.00000E+00
    0.11829E-05        -0.10289E-08         0.00000E+00
    0.11834E-05        -0.60996E-09         0.00000E+00
    0.10951E-05         0.00000E+00         0.00000E+00
    0.11039E-05         0.00000E+00         0.00000E+00
    0.11189E-05        -0.32504E-20         0.00000E+00
    0.11298E-05         0.37835E-22         0.00000E+00
    0.11384E-05         0.35623E-20         0.00000E+00
    0.11455E-05         0.00000E+00         0.00000E+00
    0.11515E-05         0.00000E+00         0.00000E+00
    0.11567E-05        -0.31130E-20         0.00000E+00
    0.11613E-05        -0.31130E-20         0.00000E+00
    0.11656E-05         0.31495E-20         0.00000E+00
    0.11697E-05         0.34358E-20         0.00000E+00
    0.11737E-05        -0.34712E-20         0.00000E+00
    0.11777E-05        -0.27548E-21         0.00000E+00
    0.11812E-05         0.34900E-20         0.00000E+00
    0.11833E-05         0.58360E-21         0.00000E+00
    0.11838E-05         0.00000E+00         0.00000E+00
CELL_DATA        450
TENSORS stressef double 
    0.25832E+08         0.41327E+06         0.00000E+00
    0.41327E+06         0.13347E+08         0.00000E+00
    0.00000E+00         0.00000E+00         0.82927E+07
 
    0.26240E+08         0.57033E+06         0.00000E+00
    0.57033E+06         0.14535E+08         0.00000E+00
    0.00000E+00         0.00000E+00         0.95727E+07
 
    0.26393E+08         0.36484E+06         0.00000E+00
    0.36484E+06         0.15408E+08         0.00000E+00
    0.00000E+00         0.00000E+00         0.10067E+08
 
    0.26244E+08         0.96032E+05         0.00000E+00
    0.96032E+05         0.15753E+08         0.00000E+00
    0.00000E+00         0.00000E+00         0.97474E+07
 
    0.25847E+08        -0.16030E+06         0.00000E+00
   -0.16030E+06         0.15544E+08         0.00000E+00
    0.00000E+00         0.00000E+00         0.87706E+07
 
    0.25270E+08        -0.33004E+06         0.00000E+00
   -0.33004E+06         0.14925E+08         0.00000E+00
    0.00000E+00         0.00000E+00         0.73151E+07
 
    0.24475E+08        -0.32553E+06         0.00000E+00
   -0.32553E+06         0.14164E+08         0.00000E+00
    0.00000E+00         0.00000E+00         0.53801E+07
 
    0.23321E+08        -0.12040E+06         0.00000E+00
   -0.12040E+06         0.13621E+08         0.00000E+00
    0.00000E+00         0.00000E+00         0.29183E+07
 
    0.21613E+08        -0.25639E+06         0.00000E+00
   -0.25639E+06         0.13353E+08         0.00000E+00
    0.00000E+00         0.00000E+00         0.46002E+06
 
    0.17984E+08        -0.33002E+06         0.00000E+00
   -0.33002E+06         0.12903E+08         0.00000E+00
    0.00000E+00         0.00000E+00         0.00000E+00
 
    0.14949E+08        -0.12005E+06         0.00000E+00
   -0.12005E+06         0.12567E+08         0.00000E+00
    0.00000E+00         0.00000E+00         0.00000E+00
 
    0.12205E+08         0.86915E+05         0.00000E+00
    0.86915E+05         0.12600E+08         0.00000E+00
    0.00000E+00         0.00000E+00         0.00000E+00
 
    0.94045E+07         0.30212E+06         0.00000E+00
    0.30212E+06         0.13033E+08         0.00000E+00
    0.00000E+00         0.00000E+00         0.00000E+00
 
    0.62836E+07         0.56023E+06         0.00000E+00
    0.56023E+06         0.13926E+08         0.00000E+00
    0.00000E+00         0.00000E+00         0.00000E+00
 
    0.23040E+07         0.10466E+07         0.00000E+00
    0.10466E+07         0.15506E+08         0.00000E+00
    0.00000E+00         0.00000E+00         0.00000E+00
 
    0.24804E+08         0.76445E+06         0.00000E+00
    0.76445E+06         0.10673E+08         0.00000E+00
    0.00000E+00         0.00000E+00         0.53625E+07
 
    0.24512E+08         0.90082E+06         0.00000E+00
    0.90082E+06         0.98595E+07         0.00000E+00
    0.00000E+00         0.00000E+00         0.45162E+07
 
    0.24351E+08         0.72348E+06         0.00000E+00
    0.72348E+06         0.94732E+07         0.00000E+00
    0.00000E+00         0.00000E+00         0.39786E+07
 
    0.24181E+08         0.28837E+06         0.00000E+00
    0.28837E+06         0.95068E+07         0.00000E+00
    0.00000E+00         0.00000E+00         0.33979E+07
 
    0.23890E+08        -0.49033E+05         0.00000E+00
   -0.49033E+05         0.99207E+07         0.00000E+00
    0.00000E+00         0.00000E+00         0.26707E+07
 
    0.23419E+08        -0.22642E+06         0.00000E+00
   -0.22642E+06         0.10660E+08         0.00000E+00
    0.00000E+00         0.00000E+00         0.17714E+07
 
    0.22748E+08        -0.30832E+06         0.00000E+00
   -0.30832E+06         0.11489E+08         0.00000E+00
    0.00000E+00         0.00000E+00         0.73014E+06
 
    0.21559E+08        -0.37974E+06         0.00000E+00
   -0.37974E+06         0.11887E+08         0.00000E+00
    0.00000E+00         0.00000E+00         0.27956E+05
 
    0.19224E+08        -0.62692E+06         0.00000E+00
   -0.62692E+06         0.11680E+08         0.00000E+00
    0.00000E+00         0.00000E+00         0.00000E+00
 
    0.16340E+08        -0.62939E+06         0.00000E+00
   -0.62939E+06         0.11580E+08         0.00000E+00
    0.00000E+00         0.00000E+00         0.00000E+00
 
    0.13405E+08        -0.18647E+06         0.00000E+00
   -0.18647E+06         0.11643E+08         0.00000E+00
    0.00000E+00         0.00000E+00         0.00000E+00
 
    0.10676E+08         0.35327E+06         0.00000E+00
    0.35327E+06         0.11893E+08         0.00000E+00
    0.00000E+00         0.00000E+00         0.00000E+00
 
    0.79222E+07         0.95432E+06         0.00000E+00
    0.95432E+06         0.12439E+08         0.00000E+00
    0.00000E+00         0.00000E+00         0.00000E+00
 
    0.49442E+07         0.16999E+07         0.00000E+00
    0.16999E+07         0.13367E+08         0.00000E+00
    0.00000E+00         0.00000E+00         0.00000E+00
 
    0.16868E+07         0.28731E+07         0.00000E+00
    0.28731E+07         0.14746E+08         0.00000E+00
    0.00000E+00         0.00000E+00         0.00000E+00
 
    0.23489E+08         0.10975E+06         0.00000E+00
    0.10975E+06         0.76099E+07         0.00000E+00
    0.00000E+00         0.00000E+00         0.15030E+07
 
    0.23134E+08         0.63331E+06         0.00000E+00
    0.63331E+06         0.73697E+07         0.00000E+00
    0.00000E+00         0.00000E+00         0.35475E+06
 
    0.22303E+08         0.70728E+06         0.00000E+00
    0.70728E+06         0.74963E+07         0.00000E+00
    0.00000E+00         0.00000E+00         0.46669E+03
 
    0.22012E+08         0.56023E+06         0.00000E+00
    0.56023E+06         0.78305E+07         0.00000E+00
    0.00000E+00         0.00000E+00         0.00000E+00
 
    0.21783E+08         0.40511E+06         0.00000E+00
    0.40511E+06         0.82919E+07         0.00000E+00
    0.00000E+00         0.00000E+00         0.00000E+00
 
    0.21373E+08         0.25727E+06         0.00000E+00
    0.25727E+06         0.86958E+07         0.00000E+00
    0.00000E+00         0.00000E+00         0.00000E+00
 
    0.20666E+08         0.49568E+05         0.00000E+00
    0.49568E+05         0.89362E+07         0.00000E+00
    0.00000E+00         0.00000E+00         0.00000E+00
 
    0.19330E+08        -0.33718E+06         0.00000E+00
   -0.33718E+06         0.90935E+07         0.00000E+00
    0.00000E+00         0.00000E+00         0.00000E+00
 
    0.17238E+08        -0.53905E+06         0.00000E+00
   -0.53905E+06         0.93472E+07         0.00000E+00
    0.00000E+00         0.00000E+00         0.00000E+00
 
    0.14713E+08        -0.39444E+06         0.00000E+00
   -0.39444E+06         0.96971E+07         0.00000E+00
    0.00000E+00         0.00000E+00         0.00000E+00
 
    0.12061E+08         0.95399E+05         0.00000E+00
    0.95399E+05         0.10119E+08         0.00000E+00
    0.00000E+00         0.00000E+00         0.00000E+00
 
    0.94373E+07         0.81828E+06         0.00000E+00
    0.81828E+06         0.10624E+08         0.00000E+00
    0.00000E+00         0.00000E+00         0.00000E+00
 
    0.68092E+07         0.17031E+07         0.00000E+00
    0.17031E+07         0.11308E+08         0.00000E+00
    0.00000E+00         0.00000E+00         0.00000E+00
 
    0.41038E+07         0.28132E+07         0.00000E+00
    0.28132E+07         0.12246E+08         0.00000E+00
    0.00000E+00         0.00000E+00         0.00000E+00
 
    0.13633E+07         0.42855E+07         0.00000E+00
    0.42855E+07         0.13424E+08         0.00000E+00
    0.00000E+00         0.00000E+00         0.00000E+00
 
    0.22142E+08        -0.44196E+05         0.00000E+00
   -0.44196E+05         0.69679E+07         0.00000E+00
    0.00000E+00         0.00000E+00         0.16973E+05
 
    0.21210E+08         0.28831E+06         0.00000E+00
    0.28831E+06         0.69180E+07         0.00000E+00
    0.00000E+00         0.00000E+00         0.00000E+00
 
    0.20491E+08         0.50118E+06         0.00000E+00
    0.50118E+06         0.66206E+07         0.00000E+00
    0.00000E+00         0.00000E+00         0.00000E+00
 
    0.20053E+08         0.65761E+06         0.00000E+00
    0.65761E+06         0.64428E+07         0.00000E+00
    0.00000E+00         0.00000E+00         0.00000E+00
 
    0.19750E+08         0.61239E+06         0.00000E+00
    0.61239E+06         0.64189E+07         0.00000E+00
    0.00000E+00         0.00000E+00         0.00000E+00
 
    0.19281E+08         0.44470E+06         0.00000E+00
    0.44470E+06         0.64863E+07         0.00000E+00
    0.00000E+00         0.00000E+00         0.00000E+00
 
    0.18469E+08         0.19252E+06         0.00000E+00
    0.19252E+06         0.66111E+07         0.00000E+00
    0.00000E+00         0.00000E+00         0.00000E+00
 
    0.17161E+08        -0.59278E+05         0.00000E+00
   -0.59278E+05         0.68497E+07         0.00000E+00
    0.00000E+00         0.00000E+00         0.00000E+00
 
    0.15338E+08        -0.13656E+06         0.00000E+00
   -0.13656E+06         0.72378E+07         0.00000E+00
    0.00000E+00         0.00000E+00         0.00000E+00
 
    0.13150E+08         0.90366E+05         0.00000E+00
    0.90366E+05         0.77420E+07         0.00000E+00
    0.00000E+00         0.00000E+00         0.00000E+00
 
    0.10790E+08         0.63743E+06         0.00000E+00
    0.63743E+06         0.83237E+07         0.00000E+00
    0.00000E+00         0.00000E+00         0.00000E+00
 
    0.83794E+07         0.14601E+07         0.00000E+00
    0.14601E+07         0.89817E+07         0.00000E+00
    0.00000E+00         0.00000E+00         0.00000E+00
 
    0.59568E+07         0.25230E+07         0.00000E+00
    0.25230E+07         0.97505E+07         0.00000E+00
    0.00000E+00         0.00000E+00         0.00000E+00
 
    0.35329E+07         0.38418E+07         0.00000E+00
    0.38418E+07         0.10664E+08         0.00000E+00
    0.00000E+00         0.00000E+00         0.00000E+00
 
    0.11614E+07         0.54632E+07         0.00000E+00
    0.54632E+07         0.11707E+08         0.00000E+00
    0.00000E+00         0.00000E+00         0.00000E+00
 
    0.20312E+08         0.56057E+05         0.00000E+00
    0.56057E+05         0.49482E+07         0.00000E+00
    0.00000E+00         0.00000E+00         0.00000E+00
 
    0.19511E+08         0.12588E+06         0.00000E+00
    0.12588E+06         0.49662E+07         0.00000E+00
    0.00000E+00         0.00000E+00         0.00000E+00
 
    0.18769E+08         0.32955E+06         0.00000E+00
    0.32955E+06         0.48705E+07         0.00000E+00
    0.00000E+00         0.00000E+00         0.00000E+00
 
    0.18225E+08         0.50312E+06         0.00000E+00
    0.50312E+06         0.47273E+07         0.00000E+00
    0.00000E+00         0.00000E+00         0.00000E+00
 
    0.17764E+08         0.55599E+06         0.00000E+00
    0.55599E+06         0.45989E+07         0.00000E+00
    0.00000E+00         0.00000E+00         0.00000E+00
 
    0.17194E+08         0.48136E+06         0.00000E+00
    0.48136E+06         0.45559E+07         0.00000E+00
    0.00000E+00         0.00000E+00         0.00000E+00
 
    0.16347E+08         0.34880E+06         0.00000E+00
    0.34880E+06         0.46369E+07         0.00000E+00
    0.00000E+00         0.00000E+00         0.00000E+00
 
    0.15130E+08         0.26025E+06         0.00000E+00
    0.26025E+06         0.48705E+07         0.00000E+00
    0.00000E+00         0.00000E+00         0.00000E+00
 
    0.13536E+08         0.33457E+06         0.00000E+00
    0.33457E+06         0.52630E+07         0.00000E+00
    0.00000E+00         0.00000E+00         0.00000E+00
 
    0.11647E+08         0.66450E+06         0.00000E+00
    0.66450E+06         0.57880E+07         0.00000E+00
    0.00000E+00         0.00000E+00         0.00000E+00
 
    0.95781E+07         0.12853E+07         0.00000E+00
    0.12853E+07         0.64095E+07         0.00000E+00
    0.00000E+00         0.00000E+00         0.00000E+00
 
    0.74272E+07         0.21886E+07         0.00000E+00
    0.21886E+07         0.71097E+07         0.00000E+00
    0.00000E+00         0.00000E+00         0.00000E+00
 
    0.52538E+07         0.33582E+07         0.00000E+00
    0.33582E+07         0.78912E+07         0.00000E+00
    0.00000E+00         0.00000E+00         0.00000E+00
 
    0.30999E+07         0.47912E+07         0.00000E+00
    0.47912E+07         0.87585E+07         0.00000E+00
    0.00000E+00         0.00000E+00         0.00000E+00
 
    0.10164E+07         0.64905E+07         0.00000E+00
    0.64905E+07         0.96971E+07         0.00000E+00
    0.00000E+00         0.00000E+00         0.00000E+00
 
    0.18450E+08         0.29818E+05         0.00000E+00
    0.29818E+05         0.30306E+07         0.00000E+00
    0.00000E+00         0.00000E+00         0.00000E+00
 
    0.17692E+08         0.10894E+06         0.00000E+00
    0.10894E+06         0.29963E+07         0.00000E+00
    0.00000E+00         0.00000E+00         0.00000E+00
 
    0.17006E+08         0.23022E+06         0.00000E+00
    0.23022E+06         0.29420E+07         0.00000E+00
    0.00000E+00         0.00000E+00         0.00000E+00
 
    0.16408E+08         0.36784E+06         0.00000E+00
    0.36784E+06         0.28409E+07         0.00000E+00
    0.00000E+00         0.00000E+00         0.00000E+00
 
    0.15847E+08         0.45579E+06         0.00000E+00
    0.45579E+06         0.27365E+07         0.00000E+00
    0.00000E+00         0.00000E+00         0.00000E+00
 
    0.15202E+08         0.48244E+06         0.00000E+00
    0.48244E+06         0.26907E+07         0.00000E+00
    0.00000E+00         0.00000E+00         0.00000E+00
 
    0.14359E+08         0.49205E+06         0.00000E+00
    0.49205E+06         0.27583E+07         0.00000E+00
    0.00000E+00         0.00000E+00         0.00000E+00
 
    0.13245E+08         0.56500E+06         0.00000E+00
    0.56500E+06         0.29700E+07         0.00000E+00
    0.00000E+00         0.00000E+00         0.00000E+00
 
    0.11851E+08         0.78936E+06         0.00000E+00
    0.78936E+06         0.33301E+07         0.00000E+00
    0.00000E+00         0.00000E+00         0.00000E+00
 
    0.10221E+08         0.12359E+07         0.00000E+00
    0.12359E+07         0.38207E+07         0.00000E+00
    0.00000E+00         0.00000E+00         0.00000E+00
 
    0.84286E+07         0.19432E+07         0.00000E+00
    0.19432E+07         0.44143E+07         0.00000E+00
    0.00000E+00         0.00000E+00         0.00000E+00
 
    0.65461E+07         0.29205E+07         0.00000E+00
    0.29205E+07         0.50886E+07         0.00000E+00
    0.00000E+00         0.00000E+00         0.00000E+00
 
    0.46325E+07         0.41627E+07         0.00000E+00
    0.41627E+07         0.58309E+07         0.00000E+00
    0.00000E+00         0.00000E+00         0.00000E+00
 
    0.27354E+07         0.56614E+07         0.00000E+00
    0.56614E+07         0.66316E+07         0.00000E+00
    0.00000E+00         0.00000E+00         0.00000E+00
 
    0.89822E+06         0.74039E+07         0.00000E+00
    0.74039E+07         0.74762E+07         0.00000E+00
    0.00000E+00         0.00000E+00         0.00000E+00
 
    0.16548E+08         0.12014E+05         0.00000E+00
    0.12014E+05         0.10791E+07         0.00000E+00
    0.00000E+00         0.00000E+00         0.00000E+00
 
    0.15827E+08         0.66500E+05         0.00000E+00
    0.66500E+05         0.10477E+07         0.00000E+00
    0.00000E+00         0.00000E+00         0.00000E+00
 
    0.15175E+08         0.15781E+06         0.00000E+00
    0.15781E+06         0.98750E+06         0.00000E+00
    0.00000E+00         0.00000E+00         0.00000E+00
 
    0.14572E+08         0.27034E+06         0.00000E+00
    0.27034E+06         0.90873E+06         0.00000E+00
    0.00000E+00         0.00000E+00         0.00000E+00
 
    0.13975E+08         0.38255E+06         0.00000E+00
    0.38255E+06         0.83446E+06         0.00000E+00
    0.00000E+00         0.00000E+00         0.00000E+00
 
    0.13310E+08         0.49032E+06         0.00000E+00
    0.49032E+06         0.80877E+06         0.00000E+00
    0.00000E+00         0.00000E+00         0.00000E+00
 
    0.12500E+08         0.62392E+06         0.00000E+00
    0.62392E+06         0.87530E+06         0.00000E+00
    0.00000E+00         0.00000E+00         0.00000E+00
 
    0.11494E+08         0.83924E+06         0.00000E+00
    0.83924E+06         0.10627E+07         0.00000E+00
    0.00000E+00         0.00000E+00         0.00000E+00
 
    0.10281E+08         0.12002E+07         0.00000E+00
    0.12002E+07         0.13787E+07         0.00000E+00
    0.00000E+00         0.00000E+00         0.00000E+00
 
    0.88818E+07         0.17613E+07         0.00000E+00
    0.17613E+07         0.18134E+07         0.00000E+00
    0.00000E+00         0.00000E+00         0.00000E+00
 
    0.73440E+07         0.25580E+07         0.00000E+00
    0.25580E+07         0.23471E+07         0.00000E+00
    0.00000E+00         0.00000E+00         0.00000E+00
 
    0.57201E+07         0.36056E+07         0.00000E+00
    0.36056E+07         0.29593E+07         0.00000E+00
    0.00000E+00         0.00000E+00         0.00000E+00
 
    0.40597E+07         0.49048E+07         0.00000E+00
    0.49048E+07         0.36326E+07         0.00000E+00
    0.00000E+00         0.00000E+00         0.00000E+00
 
    0.24053E+07         0.64474E+07         0.00000E+00
    0.64474E+07         0.43523E+07         0.00000E+00
    0.00000E+00         0.00000E+00         0.00000E+00
 
    0.79227E+06         0.82178E+07         0.00000E+00
    0.82178E+07         0.51049E+07         0.00000E+00
    0.00000E+00         0.00000E+00         0.00000E+00
 
    0.14600E+08        -0.45538E+04         0.00000E+00
   -0.45538E+04        -0.88739E+06         0.00000E+00
    0.00000E+00         0.00000E+00         0.00000E+00
 
    0.13922E+08         0.21534E+05         0.00000E+00
    0.21534E+05        -0.91968E+06         0.00000E+00
    0.00000E+00         0.00000E+00         0.00000E+00
 
    0.13304E+08         0.91477E+05         0.00000E+00
    0.91477E+05        -0.97618E+06         0.00000E+00
    0.00000E+00         0.00000E+00         0.00000E+00
 
    0.12722E+08         0.19829E+06         0.00000E+00
    0.19829E+06        -0.10437E+07         0.00000E+00
    0.00000E+00         0.00000E+00         0.00000E+00
 
    0.12136E+08         0.33614E+06         0.00000E+00
    0.33614E+06        -0.10992E+07         0.00000E+00
    0.00000E+00         0.00000E+00         0.00000E+00
 
    0.11496E+08         0.51046E+06         0.00000E+00
    0.51046E+06        -0.11118E+07         0.00000E+00
    0.00000E+00         0.00000E+00         0.00000E+00
 
    0.10749E+08         0.74471E+06         0.00000E+00
    0.74471E+06        -0.10494E+07         0.00000E+00
    0.00000E+00         0.00000E+00         0.00000E+00
 
    0.98598E+07         0.10784E+07         0.00000E+00
    0.10784E+07        -0.88880E+06         0.00000E+00
    0.00000E+00         0.00000E+00         0.00000E+00
 
    0.88150E+07         0.15573E+07         0.00000E+00
    0.15573E+07        -0.62097E+06         0.00000E+00
    0.00000E+00         0.00000E+00         0.00000E+00
 
    0.76262E+07         0.22227E+07         0.00000E+00
    0.22227E+07        -0.25018E+06         0.00000E+00
    0.00000E+00         0.00000E+00         0.00000E+00
 
    0.63223E+07         0.31044E+07         0.00000E+00
    0.31044E+07         0.21034E+06         0.00000E+00
    0.00000E+00         0.00000E+00         0.00000E+00
 
    0.49408E+07         0.42180E+07         0.00000E+00
    0.42180E+07         0.74383E+06         0.00000E+00
    0.00000E+00         0.00000E+00         0.00000E+00
 
    0.35200E+07         0.55668E+07         0.00000E+00
    0.55668E+07         0.13337E+07         0.00000E+00
    0.00000E+00         0.00000E+00         0.00000E+00
 
    0.20946E+07         0.71445E+07         0.00000E+00
    0.71445E+07         0.19651E+07         0.00000E+00
    0.00000E+00         0.00000E+00         0.00000E+00
 
    0.69233E+06         0.89374E+07         0.00000E+00
    0.89374E+07         0.26254E+07         0.00000E+00
    0.00000E+00         0.00000E+00         0.00000E+00
 
    0.12604E+08        -0.21329E+05         0.00000E+00
   -0.21329E+05        -0.28701E+07         0.00000E+00
    0.00000E+00         0.00000E+00         0.00000E+00
 
    0.11976E+08        -0.22322E+05         0.00000E+00
   -0.22322E+05        -0.29019E+07         0.00000E+00
    0.00000E+00         0.00000E+00         0.00000E+00
 
    0.11406E+08         0.31659E+05         0.00000E+00
    0.31659E+05        -0.29558E+07         0.00000E+00
    0.00000E+00         0.00000E+00         0.00000E+00
 
    0.10867E+08         0.13977E+06         0.00000E+00
    0.13977E+06        -0.30170E+07         0.00000E+00
    0.00000E+00         0.00000E+00         0.00000E+00
 
    0.10326E+08         0.30405E+06         0.00000E+00
    0.30405E+06        -0.30654E+07         0.00000E+00
    0.00000E+00         0.00000E+00         0.00000E+00
 
    0.97435E+07         0.53395E+06         0.00000E+00
    0.53395E+06        -0.30766E+07         0.00000E+00
    0.00000E+00         0.00000E+00         0.00000E+00
 
    0.90838E+07         0.84935E+06         0.00000E+00
    0.84935E+06        -0.30267E+07         0.00000E+00
    0.00000E+00         0.00000E+00         0.00000E+00
 
    0.83194E+07         0.12793E+07         0.00000E+00
    0.12793E+07        -0.28976E+07         0.00000E+00
    0.00000E+00         0.00000E+00         0.00000E+00
 
    0.74384E+07         0.18571E+07         0.00000E+00
    0.18571E+07        -0.26805E+07         0.00000E+00
    0.00000E+00         0.00000E+00         0.00000E+00
 
    0.64454E+07         0.26136E+07         0.00000E+00
    0.26136E+07        -0.23761E+07         0.00000E+00
    0.00000E+00         0.00000E+00         0.00000E+00
 
    0.53581E+07         0.35723E+07         0.00000E+00
    0.35723E+07        -0.19931E+07         0.00000E+00
    0.00000E+00         0.00000E+00         0.00000E+00
 
    0.42024E+07         0.47468E+07         0.00000E+00
    0.47468E+07        -0.15440E+07         0.00000E+00
    0.00000E+00         0.00000E+00         0.00000E+00
 
    0.30065E+07         0.61410E+07         0.00000E+00
    0.61410E+07        -0.10426E+07         0.00000E+00
    0.00000E+00         0.00000E+00         0.00000E+00
 
    0.17971E+07         0.77506E+07         0.00000E+00
    0.77506E+07        -0.50218E+06         0.00000E+00
    0.00000E+00         0.00000E+00         0.00000E+00
 
    0.59609E+06         0.95645E+07         0.00000E+00
    0.95645E+07         0.66428E+05         0.00000E+00
    0.00000E+00         0.00000E+00         0.00000E+00
 
    0.10561E+08        -0.38043E+05         0.00000E+00
   -0.38043E+05        -0.48686E+07         0.00000E+00
    0.00000E+00         0.00000E+00         0.00000E+00
 
    0.99939E+07        -0.65111E+05         0.00000E+00
   -0.65111E+05        -0.49006E+07         0.00000E+00
    0.00000E+00         0.00000E+00         0.00000E+00
 
    0.94845E+07        -0.24876E+05         0.00000E+00
   -0.24876E+05        -0.49545E+07         0.00000E+00
    0.00000E+00         0.00000E+00         0.00000E+00
 
    0.90084E+07         0.86131E+05         0.00000E+00
    0.86131E+05        -0.50157E+07         0.00000E+00
    0.00000E+00         0.00000E+00         0.00000E+00
 
    0.85365E+07         0.27407E+06         0.00000E+00
    0.27407E+06        -0.50664E+07         0.00000E+00
    0.00000E+00         0.00000E+00         0.00000E+00
 
    0.80380E+07         0.54992E+06         0.00000E+00
    0.54992E+06        -0.50868E+07         0.00000E+00
    0.00000E+00         0.00000E+00         0.00000E+00
 
    0.74842E+07         0.93071E+06         0.00000E+00
    0.93071E+06        -0.50581E+07         0.00000E+00
    0.00000E+00         0.00000E+00         0.00000E+00
 
    0.68535E+07         0.14387E+07         0.00000E+00
    0.14387E+07        -0.49656E+07         0.00000E+00
    0.00000E+00         0.00000E+00         0.00000E+00
 
    0.61347E+07         0.20983E+07         0.00000E+00
    0.20983E+07        -0.48011E+07         0.00000E+00
    0.00000E+00         0.00000E+00         0.00000E+00
 
    0.53282E+07         0.29324E+07         0.00000E+00
    0.29324E+07        -0.45637E+07         0.00000E+00
    0.00000E+00         0.00000E+00         0.00000E+00
 
    0.44443E+07         0.39589E+07         0.00000E+00
    0.39589E+07        -0.42583E+07         0.00000E+00
    0.00000E+00         0.00000E+00         0.00000E+00
 
    0.35001E+07         0.51888E+07         0.00000E+00
    0.51888E+07        -0.38939E+07         0.00000E+00
    0.00000E+00         0.00000E+00         0.00000E+00
 
    0.25156E+07         0.66255E+07         0.00000E+00
    0.66255E+07        -0.34813E+07         0.00000E+00
    0.00000E+00         0.00000E+00         0.00000E+00
 
    0.15109E+07         0.82657E+07         0.00000E+00
    0.82657E+07        -0.30312E+07         0.00000E+00
    0.00000E+00         0.00000E+00         0.00000E+00
 
    0.50290E+06         0.10101E+08         0.00000E+00
    0.10101E+08        -0.25530E+07         0.00000E+00
    0.00000E+00         0.00000E+00         0.00000E+00
 
    0.84708E+07        -0.54934E+05         0.00000E+00
   -0.54934E+05        -0.68837E+07         0.00000E+00
    0.00000E+00         0.00000E+00         0.00000E+00
 
    0.79746E+07        -0.10861E+06         0.00000E+00
   -0.10861E+06        -0.69173E+07         0.00000E+00
    0.00000E+00         0.00000E+00         0.00000E+00
 
    0.75403E+07        -0.82678E+05         0.00000E+00
   -0.82678E+05        -0.69746E+07         0.00000E+00
    0.00000E+00         0.00000E+00         0.00000E+00
 
    0.71450E+07         0.29479E+05         0.00000E+00
    0.29479E+05        -0.70419E+07         0.00000E+00
    0.00000E+00         0.00000E+00         0.00000E+00
 
    0.67627E+07         0.23628E+06         0.00000E+00
    0.23628E+06        -0.71031E+07         0.00000E+00
    0.00000E+00         0.00000E+00         0.00000E+00
 
    0.63671E+07         0.54897E+06         0.00000E+00
    0.54897E+06        -0.71413E+07         0.00000E+00
    0.00000E+00         0.00000E+00         0.00000E+00
 
    0.59341E+07         0.98214E+06         0.00000E+00
    0.98214E+06        -0.71408E+07         0.00000E+00
    0.00000E+00         0.00000E+00         0.00000E+00
 
    0.54451E+07         0.15531E+07         0.00000E+00
    0.15531E+07        -0.70893E+07         0.00000E+00
    0.00000E+00         0.00000E+00         0.00000E+00
 
    0.48891E+07         0.22800E+07         0.00000E+00
    0.22800E+07        -0.69792E+07         0.00000E+00
    0.00000E+00         0.00000E+00         0.00000E+00
 
    0.42635E+07         0.31797E+07         0.00000E+00
    0.31797E+07        -0.68082E+07         0.00000E+00
    0.00000E+00         0.00000E+00         0.00000E+00
 
    0.35733E+07         0.42654E+07         0.00000E+00
    0.42654E+07        -0.65789E+07         0.00000E+00
    0.00000E+00         0.00000E+00         0.00000E+00
 
    0.28292E+07         0.55451E+07         0.00000E+00
    0.55451E+07        -0.62973E+07         0.00000E+00
    0.00000E+00         0.00000E+00         0.00000E+00
 
    0.20449E+07         0.70214E+07         0.00000E+00
    0.70214E+07        -0.59714E+07         0.00000E+00
    0.00000E+00         0.00000E+00         0.00000E+00
 
    0.12349E+07         0.86914E+07         0.00000E+00
    0.86914E+07        -0.56095E+07         0.00000E+00
    0.00000E+00         0.00000E+00         0.00000E+00
 
    0.41269E+06         0.10548E+08         0.00000E+00
    0.10548E+08        -0.52193E+07         0.00000E+00
    0.00000E+00         0.00000E+00         0.00000E+00
 
    0.63314E+07        -0.72855E+05         0.00000E+00
   -0.72855E+05        -0.89156E+07         0.00000E+00
    0.00000E+00         0.00000E+00         0.00000E+00
 
    0.59167E+07        -0.15550E+06         0.00000E+00
   -0.15550E+06        -0.89528E+07         0.00000E+00
    0.00000E+00         0.00000E+00         0.00000E+00
 
    0.55712E+07        -0.14658E+06         0.00000E+00
   -0.14658E+06        -0.90175E+07         0.00000E+00
    0.00000E+00         0.00000E+00         0.00000E+00
 
    0.52727E+07        -0.37050E+05         0.00000E+00
   -0.37050E+05        -0.90964E+07         0.00000E+00
    0.00000E+00         0.00000E+00         0.00000E+00
 
    0.49969E+07         0.18275E+06         0.00000E+00
    0.18275E+06        -0.91747E+07         0.00000E+00
    0.00000E+00         0.00000E+00         0.00000E+00
 
    0.47200E+07         0.52373E+06         0.00000E+00
    0.52373E+06        -0.92373E+07         0.00000E+00
    0.00000E+00         0.00000E+00         0.00000E+00
 
    0.44202E+07         0.99826E+06         0.00000E+00
    0.99826E+06        -0.92705E+07         0.00000E+00
    0.00000E+00         0.00000E+00         0.00000E+00
 
    0.40803E+07         0.16199E+07         0.00000E+00
    0.16199E+07        -0.92634E+07         0.00000E+00
    0.00000E+00         0.00000E+00         0.00000E+00
 
    0.36889E+07         0.24020E+07         0.00000E+00
    0.24020E+07        -0.92086E+07         0.00000E+00
    0.00000E+00         0.00000E+00         0.00000E+00
 
    0.32410E+07         0.33569E+07         0.00000E+00
    0.33569E+07        -0.91032E+07         0.00000E+00
    0.00000E+00         0.00000E+00         0.00000E+00
 
    0.27378E+07         0.44938E+07         0.00000E+00
    0.44938E+07        -0.89477E+07         0.00000E+00
    0.00000E+00         0.00000E+00         0.00000E+00
 
    0.21852E+07         0.58182E+07         0.00000E+00
    0.58182E+07        -0.87460E+07         0.00000E+00
    0.00000E+00         0.00000E+00         0.00000E+00
 
    0.15920E+07         0.73314E+07         0.00000E+00
    0.73314E+07        -0.85036E+07         0.00000E+00
    0.00000E+00         0.00000E+00         0.00000E+00
 
    0.96870E+06         0.90305E+07         0.00000E+00
    0.90305E+07        -0.82270E+07         0.00000E+00
    0.00000E+00         0.00000E+00         0.00000E+00
 
    0.32541E+06         0.10909E+08         0.00000E+00
    0.10909E+08        -0.79222E+07         0.00000E+00
    0.00000E+00         0.00000E+00         0.00000E+00
 
    0.41396E+07        -0.92924E+05         0.00000E+00
   -0.92924E+05        -0.10965E+08         0.00000E+00
    0.00000E+00         0.00000E+00         0.00000E+00
 
    0.38168E+07        -0.20874E+06         0.00000E+00
   -0.20874E+06        -0.11008E+08         0.00000E+00
    0.00000E+00         0.00000E+00         0.00000E+00
 
    0.35731E+07        -0.22114E+06         0.00000E+00
   -0.22114E+06        -0.11083E+08         0.00000E+00
    0.00000E+00         0.00000E+00         0.00000E+00
 
    0.33860E+07        -0.11919E+06         0.00000E+00
   -0.11919E+06        -0.11178E+08         0.00000E+00
    0.00000E+00         0.00000E+00         0.00000E+00
 
    0.32318E+07         0.10736E+06         0.00000E+00
    0.10736E+06        -0.11279E+08         0.00000E+00
    0.00000E+00         0.00000E+00         0.00000E+00
 
    0.30872E+07         0.46870E+06         0.00000E+00
    0.46870E+06        -0.11371E+08         0.00000E+00
    0.00000E+00         0.00000E+00         0.00000E+00
 
    0.29314E+07         0.97519E+06         0.00000E+00
    0.97519E+06        -0.11442E+08         0.00000E+00
    0.00000E+00         0.00000E+00         0.00000E+00
 
    0.27474E+07         0.16372E+07         0.00000E+00
    0.16372E+07        -0.11481E+08         0.00000E+00
    0.00000E+00         0.00000E+00         0.00000E+00
 
    0.25232E+07         0.24647E+07         0.00000E+00
    0.24647E+07        -0.11482E+08         0.00000E+00
    0.00000E+00         0.00000E+00         0.00000E+00
 
    0.22517E+07         0.34660E+07         0.00000E+00
    0.34660E+07        -0.11441E+08         0.00000E+00
    0.00000E+00         0.00000E+00         0.00000E+00
 
    0.19311E+07         0.46472E+07         0.00000E+00
    0.46472E+07        -0.11357E+08         0.00000E+00
    0.00000E+00         0.00000E+00         0.00000E+00
 
    0.15638E+07         0.60114E+07         0.00000E+00
    0.60114E+07        -0.11232E+08         0.00000E+00
    0.00000E+00         0.00000E+00         0.00000E+00
 
    0.11548E+07         0.75586E+07         0.00000E+00
    0.75586E+07        -0.11070E+08         0.00000E+00
    0.00000E+00         0.00000E+00         0.00000E+00
 
    0.71131E+06         0.92857E+07         0.00000E+00
    0.92857E+07        -0.10875E+08         0.00000E+00
    0.00000E+00         0.00000E+00         0.00000E+00
 
    0.24093E+06         0.11187E+08         0.00000E+00
    0.11187E+08        -0.10653E+08         0.00000E+00
    0.00000E+00         0.00000E+00         0.00000E+00
 
    0.18897E+07        -0.11626E+06         0.00000E+00
   -0.11626E+06        -0.13031E+08         0.00000E+00
    0.00000E+00         0.00000E+00         0.00000E+00
 
    0.16696E+07        -0.27108E+06         0.00000E+00
   -0.27108E+06        -0.13082E+08         0.00000E+00
    0.00000E+00         0.00000E+00         0.00000E+00
 
    0.15407E+07        -0.31023E+06         0.00000E+00
   -0.31023E+06        -0.13171E+08         0.00000E+00
    0.00000E+00         0.00000E+00         0.00000E+00
 
    0.14791E+07        -0.22145E+06         0.00000E+00
   -0.22145E+06        -0.13286E+08         0.00000E+00
    0.00000E+00         0.00000E+00         0.00000E+00
 
    0.14601E+07         0.56111E+04         0.00000E+00
    0.56111E+04        -0.13413E+08         0.00000E+00
    0.00000E+00         0.00000E+00         0.00000E+00
 
    0.14601E+07         0.38012E+06         0.00000E+00
    0.38012E+06        -0.13538E+08         0.00000E+00
    0.00000E+00         0.00000E+00         0.00000E+00
 
    0.14581E+07         0.91048E+06         0.00000E+00
    0.91048E+06        -0.13648E+08         0.00000E+00
    0.00000E+00         0.00000E+00         0.00000E+00
 
    0.14367E+07         0.16044E+07         0.00000E+00
    0.16044E+07        -0.13735E+08         0.00000E+00
    0.00000E+00         0.00000E+00         0.00000E+00
 
    0.13828E+07         0.24688E+07         0.00000E+00
    0.24688E+07        -0.13792E+08         0.00000E+00
    0.00000E+00         0.00000E+00         0.00000E+00
 
    0.12878E+07         0.35089E+07         0.00000E+00
    0.35089E+07        -0.13813E+08         0.00000E+00
    0.00000E+00         0.00000E+00         0.00000E+00
 
    0.11473E+07         0.47283E+07         0.00000E+00
    0.47283E+07        -0.13798E+08         0.00000E+00
    0.00000E+00         0.00000E+00         0.00000E+00
 
    0.96081E+06         0.61279E+07         0.00000E+00
    0.61279E+07        -0.13746E+08         0.00000E+00
    0.00000E+00         0.00000E+00         0.00000E+00
 
    0.73080E+06         0.77065E+07         0.00000E+00
    0.77065E+07        -0.13661E+08         0.00000E+00
    0.00000E+00         0.00000E+00         0.00000E+00
 
    0.46169E+06         0.94601E+07         0.00000E+00
    0.94601E+07        -0.13546E+08         0.00000E+00
    0.00000E+00         0.00000E+00         0.00000E+00
 
    0.15900E+06         0.11383E+08         0.00000E+00
    0.11383E+08        -0.13403E+08         0.00000E+00
    0.00000E+00         0.00000E+00         0.00000E+00
 
   -0.42560E+06        -0.14381E+06         0.00000E+00
   -0.14381E+06        -0.15116E+08         0.00000E+00
    0.00000E+00         0.00000E+00         0.00000E+00
 
   -0.53132E+06        -0.34485E+06         0.00000E+00
   -0.34485E+06        -0.15175E+08         0.00000E+00
    0.00000E+00         0.00000E+00         0.00000E+00
 
   -0.53188E+06        -0.41690E+06         0.00000E+00
   -0.41690E+06        -0.15281E+08         0.00000E+00
    0.00000E+00         0.00000E+00         0.00000E+00
 
   -0.45425E+06        -0.34705E+06         0.00000E+00
   -0.34705E+06        -0.15418E+08         0.00000E+00
    0.00000E+00         0.00000E+00         0.00000E+00
 
   -0.32500E+06        -0.12542E+06         0.00000E+00
   -0.12542E+06        -0.15574E+08         0.00000E+00
    0.00000E+00         0.00000E+00         0.00000E+00
 
   -0.16892E+06         0.25582E+06         0.00000E+00
    0.25582E+06        -0.15733E+08         0.00000E+00
    0.00000E+00         0.00000E+00         0.00000E+00
 
   -0.78846E+04         0.80307E+06         0.00000E+00
    0.80307E+06        -0.15884E+08         0.00000E+00
    0.00000E+00         0.00000E+00         0.00000E+00
 
    0.13984E+06         0.15216E+07         0.00000E+00
    0.15216E+07        -0.16018E+08         0.00000E+00
    0.00000E+00         0.00000E+00         0.00000E+00
 
    0.25999E+06         0.24157E+07         0.00000E+00
    0.24157E+07        -0.16128E+08         0.00000E+00
    0.00000E+00         0.00000E+00         0.00000E+00
 
    0.34239E+06         0.34882E+07         0.00000E+00
    0.34882E+07        -0.16210E+08         0.00000E+00
    0.00000E+00         0.00000E+00         0.00000E+00
 
    0.38074E+06         0.47402E+07         0.00000E+00
    0.47402E+07        -0.16261E+08         0.00000E+00
    0.00000E+00         0.00000E+00         0.00000E+00
 
    0.37231E+06         0.61711E+07         0.00000E+00
    0.61711E+07        -0.16280E+08         0.00000E+00
    0.00000E+00         0.00000E+00         0.00000E+00
 
    0.31738E+06         0.77779E+07         0.00000E+00
    0.77779E+07        -0.16269E+08         0.00000E+00
    0.00000E+00         0.00000E+00         0.00000E+00
 
    0.21843E+06         0.95564E+07         0.00000E+00
    0.95564E+07        -0.16229E+08         0.00000E+00
    0.00000E+00         0.00000E+00         0.00000E+00
 
    0.79183E+05         0.11500E+08         0.00000E+00
    0.11500E+08        -0.16164E+08         0.00000E+00
    0.00000E+00         0.00000E+00         0.00000E+00
 
   -0.28153E+07        -0.17633E+06         0.00000E+00
   -0.17633E+06        -0.17218E+08         0.00000E+00
    0.00000E+00         0.00000E+00         0.00000E+00
 
   -0.27931E+07        -0.43169E+06         0.00000E+00
   -0.43169E+06        -0.17287E+08         0.00000E+00
    0.00000E+00         0.00000E+00         0.00000E+00
 
   -0.26510E+07        -0.54312E+06         0.00000E+00
   -0.54312E+06        -0.17410E+08         0.00000E+00
    0.00000E+00         0.00000E+00         0.00000E+00
 
   -0.24201E+07        -0.49784E+06         0.00000E+00
   -0.49784E+06        -0.17572E+08         0.00000E+00
    0.00000E+00         0.00000E+00         0.00000E+00
 
   -0.21296E+07        -0.28704E+06         0.00000E+00
   -0.28704E+06        -0.17756E+08         0.00000E+00
    0.00000E+00         0.00000E+00         0.00000E+00
 
   -0.18064E+07         0.95322E+05         0.00000E+00
    0.95322E+05        -0.17950E+08         0.00000E+00
    0.00000E+00         0.00000E+00         0.00000E+00
 
   -0.14736E+07         0.65343E+06         0.00000E+00
    0.65343E+06        -0.18141E+08         0.00000E+00
    0.00000E+00         0.00000E+00         0.00000E+00
 
   -0.11505E+07         0.13902E+07         0.00000E+00
    0.13902E+07        -0.18321E+08         0.00000E+00
    0.00000E+00         0.00000E+00         0.00000E+00
 
   -0.85238E+06         0.23076E+07         0.00000E+00
    0.23076E+07        -0.18483E+08         0.00000E+00
    0.00000E+00         0.00000E+00         0.00000E+00
 
   -0.59078E+06         0.34064E+07         0.00000E+00
    0.34064E+07        -0.18622E+08         0.00000E+00
    0.00000E+00         0.00000E+00         0.00000E+00
 
   -0.37369E+06         0.46859E+07         0.00000E+00
    0.46859E+07        -0.18736E+08         0.00000E+00
    0.00000E+00         0.00000E+00         0.00000E+00
 
   -0.20575E+06         0.61438E+07         0.00000E+00
    0.61438E+07        -0.18823E+08         0.00000E+00
    0.00000E+00         0.00000E+00         0.00000E+00
 
   -0.88350E+05         0.77759E+07         0.00000E+00
    0.77759E+07        -0.18883E+08         0.00000E+00
    0.00000E+00         0.00000E+00         0.00000E+00
 
   -0.20299E+05         0.95770E+07         0.00000E+00
    0.95770E+07        -0.18917E+08         0.00000E+00
    0.00000E+00         0.00000E+00         0.00000E+00
 
    0.83561E+03         0.11541E+08         0.00000E+00
    0.11541E+08        -0.18928E+08         0.00000E+00
    0.00000E+00         0.00000E+00         0.00000E+00
 
   -0.52896E+07        -0.21427E+06         0.00000E+00
   -0.21427E+06        -0.19338E+08         0.00000E+00
    0.00000E+00         0.00000E+00         0.00000E+00
 
   -0.51235E+07        -0.53255E+06         0.00000E+00
   -0.53255E+06        -0.19417E+08         0.00000E+00
    0.00000E+00         0.00000E+00         0.00000E+00
 
   -0.48230E+07        -0.68974E+06         0.00000E+00
   -0.68974E+06        -0.19559E+08         0.00000E+00
    0.00000E+00         0.00000E+00         0.00000E+00
 
   -0.44239E+07        -0.67413E+06         0.00000E+00
   -0.67413E+06        -0.19744E+08         0.00000E+00
    0.00000E+00         0.00000E+00         0.00000E+00
 
   -0.39593E+07        -0.47878E+06         0.00000E+00
   -0.47878E+06        -0.19957E+08         0.00000E+00
    0.00000E+00         0.00000E+00         0.00000E+00
 
   -0.34583E+07        -0.10004E+06         0.00000E+00
   -0.10004E+06        -0.20183E+08         0.00000E+00
    0.00000E+00         0.00000E+00         0.00000E+00
 
   -0.29454E+07         0.46371E+06         0.00000E+00
    0.46371E+06        -0.20412E+08         0.00000E+00
    0.00000E+00         0.00000E+00         0.00000E+00
 
   -0.24409E+07         0.12129E+07         0.00000E+00
    0.12129E+07        -0.20634E+08         0.00000E+00
    0.00000E+00         0.00000E+00         0.00000E+00
 
   -0.19609E+07         0.21475E+07         0.00000E+00
    0.21475E+07        -0.20844E+08         0.00000E+00
    0.00000E+00         0.00000E+00         0.00000E+00
 
   -0.15178E+07         0.32665E+07         0.00000E+00
    0.32665E+07        -0.21037E+08         0.00000E+00
    0.00000E+00         0.00000E+00         0.00000E+00
 
   -0.11212E+07         0.45681E+07         0.00000E+00
    0.45681E+07        -0.21211E+08         0.00000E+00
    0.00000E+00         0.00000E+00         0.00000E+00
 
   -0.77744E+06         0.60487E+07         0.00000E+00
    0.60487E+07        -0.21363E+08         0.00000E+00
    0.00000E+00         0.00000E+00         0.00000E+00
 
   -0.48959E+06         0.77028E+07         0.00000E+00
    0.77028E+07        -0.21492E+08         0.00000E+00
    0.00000E+00         0.00000E+00         0.00000E+00
 
   -0.25686E+06         0.95238E+07         0.00000E+00
    0.95238E+07        -0.21598E+08         0.00000E+00
    0.00000E+00         0.00000E+00         0.00000E+00
 
   -0.76989E+05         0.11506E+08         0.00000E+00
    0.11506E+08        -0.21684E+08         0.00000E+00
    0.00000E+00         0.00000E+00         0.00000E+00
 
   -0.78591E+07        -0.25783E+06         0.00000E+00
   -0.25783E+06        -0.21477E+08         0.00000E+00
    0.00000E+00         0.00000E+00         0.00000E+00
 
   -0.75302E+07        -0.64757E+06         0.00000E+00
   -0.64757E+06        -0.21566E+08         0.00000E+00
    0.00000E+00         0.00000E+00         0.00000E+00
 
   -0.70534E+07        -0.85636E+06         0.00000E+00
   -0.85636E+06        -0.21725E+08         0.00000E+00
    0.00000E+00         0.00000E+00         0.00000E+00
 
   -0.64705E+07        -0.87460E+06         0.00000E+00
   -0.87460E+06        -0.21933E+08         0.00000E+00
    0.00000E+00         0.00000E+00         0.00000E+00
 
   -0.58186E+07        -0.69823E+06         0.00000E+00
   -0.69823E+06        -0.22171E+08         0.00000E+00
    0.00000E+00         0.00000E+00         0.00000E+00
 
   -0.51294E+07        -0.32684E+06         0.00000E+00
   -0.32684E+06        -0.22426E+08         0.00000E+00
    0.00000E+00         0.00000E+00         0.00000E+00
 
   -0.44290E+07         0.23808E+06         0.00000E+00
    0.23808E+06        -0.22686E+08         0.00000E+00
    0.00000E+00         0.00000E+00         0.00000E+00
 
   -0.37379E+07         0.99430E+06         0.00000E+00
    0.99430E+06        -0.22946E+08         0.00000E+00
    0.00000E+00         0.00000E+00         0.00000E+00
 
   -0.30724E+07         0.19397E+07         0.00000E+00
    0.19397E+07        -0.23198E+08         0.00000E+00
    0.00000E+00         0.00000E+00         0.00000E+00
 
   -0.24454E+07         0.30722E+07         0.00000E+00
    0.30722E+07        -0.23441E+08         0.00000E+00
    0.00000E+00         0.00000E+00         0.00000E+00
 
   -0.18674E+07         0.43894E+07         0.00000E+00
    0.43894E+07        -0.23672E+08         0.00000E+00
    0.00000E+00         0.00000E+00         0.00000E+00
 
   -0.13471E+07         0.58877E+07         0.00000E+00
    0.58877E+07        -0.23887E+08         0.00000E+00
    0.00000E+00         0.00000E+00         0.00000E+00
 
   -0.88980E+06         0.75601E+07         0.00000E+00
    0.75601E+07        -0.24084E+08         0.00000E+00
    0.00000E+00         0.00000E+00         0.00000E+00
 
   -0.49450E+06         0.93977E+07         0.00000E+00
    0.93977E+07        -0.24262E+08         0.00000E+00
    0.00000E+00         0.00000E+00         0.00000E+00
 
   -0.15585E+06         0.11395E+08         0.00000E+00
    0.11395E+08        -0.24422E+08         0.00000E+00
    0.00000E+00         0.00000E+00         0.00000E+00
 
   -0.10534E+08        -0.30696E+06         0.00000E+00
   -0.30696E+06        -0.23635E+08         0.00000E+00
    0.00000E+00         0.00000E+00         0.00000E+00
 
   -0.10020E+08        -0.77610E+06         0.00000E+00
   -0.77610E+06        -0.23734E+08         0.00000E+00
    0.00000E+00         0.00000E+00         0.00000E+00
 
   -0.93470E+07        -0.10412E+07         0.00000E+00
   -0.10412E+07        -0.23908E+08         0.00000E+00
    0.00000E+00         0.00000E+00         0.00000E+00
 
   -0.85632E+07        -0.10960E+07         0.00000E+00
   -0.10960E+07        -0.24135E+08         0.00000E+00
    0.00000E+00         0.00000E+00         0.00000E+00
 
   -0.77108E+07        -0.94074E+06         0.00000E+00
   -0.94074E+06        -0.24393E+08         0.00000E+00
    0.00000E+00         0.00000E+00         0.00000E+00
 
   -0.68239E+07        -0.57918E+06         0.00000E+00
   -0.57918E+06        -0.24670E+08         0.00000E+00
    0.00000E+00         0.00000E+00         0.00000E+00
 
   -0.59294E+07        -0.16813E+05         0.00000E+00
   -0.16813E+05        -0.24955E+08         0.00000E+00
    0.00000E+00         0.00000E+00         0.00000E+00
 
   -0.50477E+07         0.74105E+06         0.00000E+00
    0.74105E+06        -0.25243E+08         0.00000E+00
    0.00000E+00         0.00000E+00         0.00000E+00
 
   -0.41942E+07         0.16903E+07         0.00000E+00
    0.16903E+07        -0.25531E+08         0.00000E+00
    0.00000E+00         0.00000E+00         0.00000E+00
 
   -0.33814E+07         0.28282E+07         0.00000E+00
    0.28282E+07        -0.25817E+08         0.00000E+00
    0.00000E+00         0.00000E+00         0.00000E+00
 
   -0.26200E+07         0.41525E+07         0.00000E+00
    0.41525E+07        -0.26100E+08         0.00000E+00
    0.00000E+00         0.00000E+00         0.00000E+00
 
   -0.19204E+07         0.56605E+07         0.00000E+00
    0.56605E+07        -0.26377E+08         0.00000E+00
    0.00000E+00         0.00000E+00         0.00000E+00
 
   -0.12924E+07         0.73468E+07         0.00000E+00
    0.73468E+07        -0.26645E+08         0.00000E+00
    0.00000E+00         0.00000E+00         0.00000E+00
 
   -0.73759E+06         0.91983E+07         0.00000E+00
    0.91983E+07        -0.26897E+08         0.00000E+00
    0.00000E+00         0.00000E+00         0.00000E+00
 
   -0.23880E+06         0.11204E+08         0.00000E+00
    0.11204E+08        -0.27136E+08         0.00000E+00
    0.00000E+00         0.00000E+00         0.00000E+00
 
   -0.13326E+08        -0.36132E+06         0.00000E+00
   -0.36132E+06        -0.25812E+08         0.00000E+00
    0.00000E+00         0.00000E+00         0.00000E+00
 
   -0.12600E+08        -0.91665E+06         0.00000E+00
   -0.91665E+06        -0.25919E+08         0.00000E+00
    0.00000E+00         0.00000E+00         0.00000E+00
 
   -0.11707E+08        -0.12410E+07         0.00000E+00
   -0.12410E+07        -0.26107E+08         0.00000E+00
    0.00000E+00         0.00000E+00         0.00000E+00
 
   -0.10704E+08        -0.13331E+07         0.00000E+00
   -0.13331E+07        -0.26347E+08         0.00000E+00
    0.00000E+00         0.00000E+00         0.00000E+00
 
   -0.96376E+07        -0.11990E+07         0.00000E+00
   -0.11990E+07        -0.26618E+08         0.00000E+00
    0.00000E+00         0.00000E+00         0.00000E+00
 
   -0.85445E+07        -0.84826E+06         0.00000E+00
   -0.84826E+06        -0.26907E+08         0.00000E+00
    0.00000E+00         0.00000E+00         0.00000E+00
 
   -0.74514E+07        -0.29131E+06         0.00000E+00
   -0.29131E+06        -0.27205E+08         0.00000E+00
    0.00000E+00         0.00000E+00         0.00000E+00
 
   -0.63773E+07         0.46286E+06         0.00000E+00
    0.46286E+06        -0.27510E+08         0.00000E+00
    0.00000E+00         0.00000E+00         0.00000E+00
 
   -0.53352E+07         0.14080E+07         0.00000E+00
    0.14080E+07        -0.27822E+08         0.00000E+00
    0.00000E+00         0.00000E+00         0.00000E+00
 
   -0.43357E+07         0.25412E+07         0.00000E+00
    0.25412E+07        -0.28142E+08         0.00000E+00
    0.00000E+00         0.00000E+00         0.00000E+00
 
   -0.33890E+07         0.38614E+07         0.00000E+00
    0.38614E+07        -0.28470E+08         0.00000E+00
    0.00000E+00         0.00000E+00         0.00000E+00
 
   -0.25071E+07         0.53674E+07         0.00000E+00
    0.53674E+07        -0.28806E+08         0.00000E+00
    0.00000E+00         0.00000E+00         0.00000E+00
 
   -0.17025E+07         0.70552E+07         0.00000E+00
    0.70552E+07        -0.29146E+08         0.00000E+00
    0.00000E+00         0.00000E+00         0.00000E+00
 
   -0.99327E+06         0.89173E+07         0.00000E+00
    0.89173E+07        -0.29487E+08         0.00000E+00
    0.00000E+00         0.00000E+00         0.00000E+00
 
   -0.33278E+06         0.10918E+08         0.00000E+00
    0.10918E+08        -0.29838E+08         0.00000E+00
    0.00000E+00         0.00000E+00         0.00000E+00
 
   -0.16242E+08        -0.42038E+06         0.00000E+00
   -0.42038E+06        -0.28009E+08         0.00000E+00
    0.00000E+00         0.00000E+00         0.00000E+00
 
   -0.15273E+08        -0.10668E+07         0.00000E+00
   -0.10668E+07        -0.28123E+08         0.00000E+00
    0.00000E+00         0.00000E+00         0.00000E+00
 
   -0.14134E+08        -0.14508E+07         0.00000E+00
   -0.14508E+07        -0.28319E+08         0.00000E+00
    0.00000E+00         0.00000E+00         0.00000E+00
 
   -0.12892E+08        -0.15781E+07         0.00000E+00
   -0.15781E+07        -0.28565E+08         0.00000E+00
    0.00000E+00         0.00000E+00         0.00000E+00
 
   -0.11599E+08        -0.14628E+07         0.00000E+00
   -0.14628E+07        -0.28838E+08         0.00000E+00
    0.00000E+00         0.00000E+00         0.00000E+00
 
   -0.10293E+08        -0.11219E+07         0.00000E+00
   -0.11219E+07        -0.29126E+08         0.00000E+00
    0.00000E+00         0.00000E+00         0.00000E+00
 
   -0.89993E+07        -0.57228E+06         0.00000E+00
   -0.57228E+06        -0.29423E+08         0.00000E+00
    0.00000E+00         0.00000E+00         0.00000E+00
 
   -0.77338E+07         0.17281E+06         0.00000E+00
    0.17281E+06        -0.29730E+08         0.00000E+00
    0.00000E+00         0.00000E+00         0.00000E+00
 
   -0.65055E+07         0.11050E+07         0.00000E+00
    0.11050E+07        -0.30051E+08         0.00000E+00
    0.00000E+00         0.00000E+00         0.00000E+00
 
   -0.53208E+07         0.22211E+07         0.00000E+00
    0.22211E+07        -0.30392E+08         0.00000E+00
    0.00000E+00         0.00000E+00         0.00000E+00
 
   -0.41875E+07         0.35226E+07         0.00000E+00
    0.35226E+07        -0.30756E+08         0.00000E+00
    0.00000E+00         0.00000E+00         0.00000E+00
 
   -0.31203E+07         0.50129E+07         0.00000E+00
    0.50129E+07        -0.31142E+08         0.00000E+00
    0.00000E+00         0.00000E+00         0.00000E+00
 
   -0.21373E+07         0.66865E+07         0.00000E+00
    0.66865E+07        -0.31546E+08         0.00000E+00
    0.00000E+00         0.00000E+00         0.00000E+00
 
   -0.12623E+07         0.85322E+07         0.00000E+00
    0.85322E+07        -0.31962E+08         0.00000E+00
    0.00000E+00         0.00000E+00         0.00000E+00
 
   -0.57578E+06         0.10448E+08         0.00000E+00
    0.10448E+08        -0.32471E+08         0.00000E+00
    0.00000E+00         0.00000E+00        -0.14946E+06
 
   -0.19292E+08        -0.48337E+06         0.00000E+00
   -0.48337E+06        -0.30226E+08         0.00000E+00
    0.00000E+00         0.00000E+00         0.00000E+00
 
   -0.18041E+08        -0.12233E+07         0.00000E+00
   -0.12233E+07        -0.30345E+08         0.00000E+00
    0.00000E+00         0.00000E+00         0.00000E+00
 
   -0.16627E+08        -0.16636E+07         0.00000E+00
   -0.16636E+07        -0.30543E+08         0.00000E+00
    0.00000E+00         0.00000E+00         0.00000E+00
 
   -0.15124E+08        -0.18203E+07         0.00000E+00
   -0.18203E+07        -0.30784E+08         0.00000E+00
    0.00000E+00         0.00000E+00         0.00000E+00
 
   -0.13592E+08        -0.17181E+07         0.00000E+00
   -0.17181E+07        -0.31045E+08         0.00000E+00
    0.00000E+00         0.00000E+00         0.00000E+00
 
   -0.12069E+08        -0.13841E+07         0.00000E+00
   -0.13841E+07        -0.31315E+08         0.00000E+00
    0.00000E+00         0.00000E+00         0.00000E+00
 
   -0.10577E+08        -0.84283E+06         0.00000E+00
   -0.84283E+06        -0.31593E+08         0.00000E+00
    0.00000E+00         0.00000E+00         0.00000E+00
 
   -0.91251E+07        -0.11233E+06         0.00000E+00
   -0.11233E+06        -0.31883E+08         0.00000E+00
    0.00000E+00         0.00000E+00         0.00000E+00
 
   -0.77166E+07         0.79678E+06         0.00000E+00
    0.79678E+06        -0.32195E+08         0.00000E+00
    0.00000E+00         0.00000E+00         0.00000E+00
 
   -0.63515E+07         0.18818E+07         0.00000E+00
    0.18818E+07        -0.32539E+08         0.00000E+00
    0.00000E+00         0.00000E+00         0.00000E+00
 
   -0.50326E+07         0.31470E+07         0.00000E+00
    0.31470E+07        -0.32923E+08         0.00000E+00
    0.00000E+00         0.00000E+00         0.00000E+00
 
   -0.37721E+07         0.46025E+07         0.00000E+00
    0.46025E+07        -0.33350E+08         0.00000E+00
    0.00000E+00         0.00000E+00         0.00000E+00
 
   -0.26123E+07         0.62577E+07         0.00000E+00
    0.62577E+07        -0.33810E+08         0.00000E+00
    0.00000E+00         0.00000E+00         0.00000E+00
 
   -0.15426E+07         0.80820E+07         0.00000E+00
    0.80820E+07        -0.34300E+08         0.00000E+00
    0.00000E+00         0.00000E+00        -0.51952E+04
 
   -0.11361E+07         0.98198E+07         0.00000E+00
    0.98198E+07        -0.34862E+08         0.00000E+00
    0.00000E+00         0.00000E+00        -0.64062E+06
 
   -0.22479E+08        -0.54931E+06         0.00000E+00
   -0.54931E+06        -0.32465E+08         0.00000E+00
    0.00000E+00         0.00000E+00         0.00000E+00
 
   -0.20903E+08        -0.13814E+07         0.00000E+00
   -0.13814E+07        -0.32585E+08         0.00000E+00
    0.00000E+00         0.00000E+00         0.00000E+00
 
   -0.19177E+08        -0.18699E+07         0.00000E+00
   -0.18699E+07        -0.32776E+08         0.00000E+00
    0.00000E+00         0.00000E+00         0.00000E+00
 
   -0.17393E+08        -0.20451E+07         0.00000E+00
   -0.20451E+07        -0.32999E+08         0.00000E+00
    0.00000E+00         0.00000E+00         0.00000E+00
 
   -0.15612E+08        -0.19468E+07         0.00000E+00
   -0.19468E+07        -0.33229E+08         0.00000E+00
    0.00000E+00         0.00000E+00         0.00000E+00
 
   -0.13872E+08        -0.16149E+07         0.00000E+00
   -0.16149E+07        -0.33459E+08         0.00000E+00
    0.00000E+00         0.00000E+00         0.00000E+00
 
   -0.12187E+08        -0.10824E+07         0.00000E+00
   -0.10824E+07        -0.33694E+08         0.00000E+00
    0.00000E+00         0.00000E+00         0.00000E+00
 
   -0.10560E+08        -0.37261E+06         0.00000E+00
   -0.37261E+06        -0.33946E+08         0.00000E+00
    0.00000E+00         0.00000E+00         0.00000E+00
 
   -0.89815E+07         0.50224E+06         0.00000E+00
    0.50224E+06        -0.34228E+08         0.00000E+00
    0.00000E+00         0.00000E+00         0.00000E+00
 
   -0.74444E+07         0.15405E+07         0.00000E+00
    0.15405E+07        -0.34557E+08         0.00000E+00
    0.00000E+00         0.00000E+00         0.00000E+00
 
   -0.59436E+07         0.27508E+07         0.00000E+00
    0.27508E+07        -0.34944E+08         0.00000E+00
    0.00000E+00         0.00000E+00         0.00000E+00
 
   -0.44843E+07         0.41495E+07         0.00000E+00
    0.41495E+07        -0.35392E+08         0.00000E+00
    0.00000E+00         0.00000E+00         0.00000E+00
 
   -0.31029E+07         0.57676E+07         0.00000E+00
    0.57676E+07        -0.35893E+08         0.00000E+00
    0.00000E+00         0.00000E+00         0.00000E+00
 
   -0.19962E+07         0.75287E+07         0.00000E+00
    0.75287E+07        -0.36465E+08         0.00000E+00
    0.00000E+00         0.00000E+00        -0.21713E+06
 
   -0.17418E+07         0.91976E+07         0.00000E+00
    0.91976E+07        -0.37084E+08         0.00000E+00
    0.00000E+00         0.00000E+00        -0.11881E+07
 
   -0.25808E+08        -0.61702E+06         0.00000E+00
   -0.61702E+06        -0.34725E+08         0.00000E+00
    0.00000E+00         0.00000E+00         0.00000E+00
 
   -0.23849E+08        -0.15347E+07         0.00000E+00
   -0.15347E+07        -0.34842E+08         0.00000E+00
    0.00000E+00         0.00000E+00         0.00000E+00
 
   -0.21773E+08        -0.20562E+07         0.00000E+00
   -0.20562E+07        -0.35016E+08         0.00000E+00
    0.00000E+00         0.00000E+00         0.00000E+00
 
   -0.19685E+08        -0.22330E+07         0.00000E+00
   -0.22330E+07        -0.35200E+08         0.00000E+00
    0.00000E+00         0.00000E+00         0.00000E+00
 
   -0.17651E+08        -0.21257E+07         0.00000E+00
   -0.21257E+07        -0.35374E+08         0.00000E+00
    0.00000E+00         0.00000E+00         0.00000E+00
 
   -0.15700E+08        -0.17898E+07         0.00000E+00
   -0.17898E+07        -0.35537E+08         0.00000E+00
    0.00000E+00         0.00000E+00         0.00000E+00
 
   -0.13836E+08        -0.12675E+07         0.00000E+00
   -0.12675E+07        -0.35704E+08         0.00000E+00
    0.00000E+00         0.00000E+00         0.00000E+00
 
   -0.12047E+08        -0.58616E+06         0.00000E+00
   -0.58616E+06        -0.35892E+08         0.00000E+00
    0.00000E+00         0.00000E+00         0.00000E+00
 
   -0.10315E+08         0.24140E+06         0.00000E+00
    0.24140E+06        -0.36124E+08         0.00000E+00
    0.00000E+00         0.00000E+00         0.00000E+00
 
   -0.86181E+07         0.12153E+07         0.00000E+00
    0.12153E+07        -0.36418E+08         0.00000E+00
    0.00000E+00         0.00000E+00         0.00000E+00
 
   -0.69401E+07         0.23491E+07         0.00000E+00
    0.23491E+07        -0.36792E+08         0.00000E+00
    0.00000E+00         0.00000E+00         0.00000E+00
 
   -0.52783E+07         0.36732E+07         0.00000E+00
    0.36732E+07        -0.37253E+08         0.00000E+00
    0.00000E+00         0.00000E+00         0.00000E+00
 
   -0.36219E+07         0.52315E+07         0.00000E+00
    0.52315E+07        -0.37795E+08         0.00000E+00
    0.00000E+00         0.00000E+00         0.00000E+00
 
   -0.26378E+07         0.68747E+07         0.00000E+00
    0.68747E+07        -0.38425E+08         0.00000E+00
    0.00000E+00         0.00000E+00        -0.65235E+06
 
   -0.22908E+07         0.85456E+07         0.00000E+00
    0.85456E+07        -0.39112E+08         0.00000E+00
    0.00000E+00         0.00000E+00        -0.16905E+07
 
   -0.29276E+08        -0.68496E+06         0.00000E+00
   -0.68496E+06        -0.37009E+08         0.00000E+00
    0.00000E+00         0.00000E+00         0.00000E+00
 
   -0.26866E+08        -0.16740E+07         0.00000E+00
   -0.16740E+07        -0.37115E+08         0.00000E+00
    0.00000E+00         0.00000E+00         0.00000E+00
 
   -0.24393E+08        -0.22032E+07         0.00000E+00
   -0.22032E+07        -0.37253E+08         0.00000E+00
    0.00000E+00         0.00000E+00         0.00000E+00
 
   -0.21984E+08        -0.23571E+07         0.00000E+00
   -0.23571E+07        -0.37370E+08         0.00000E+00
    0.00000E+00         0.00000E+00         0.00000E+00
 
   -0.19698E+08        -0.22252E+07         0.00000E+00
   -0.22252E+07        -0.37455E+08         0.00000E+00
    0.00000E+00         0.00000E+00         0.00000E+00
 
   -0.17552E+08        -0.18806E+07         0.00000E+00
   -0.18806E+07        -0.37520E+08         0.00000E+00
    0.00000E+00         0.00000E+00         0.00000E+00
 
   -0.15528E+08        -0.13732E+07         0.00000E+00
   -0.13732E+07        -0.37590E+08         0.00000E+00
    0.00000E+00         0.00000E+00         0.00000E+00
 
   -0.13599E+08        -0.73153E+06         0.00000E+00
   -0.73153E+06        -0.37693E+08         0.00000E+00
    0.00000E+00         0.00000E+00         0.00000E+00
 
   -0.11732E+08         0.32839E+05         0.00000E+00
    0.32839E+05        -0.37854E+08         0.00000E+00
    0.00000E+00         0.00000E+00         0.00000E+00
 
   -0.98933E+07         0.92243E+06         0.00000E+00
    0.92243E+06        -0.38098E+08         0.00000E+00
    0.00000E+00         0.00000E+00         0.00000E+00
 
   -0.80494E+07         0.19541E+07         0.00000E+00
    0.19541E+07        -0.38445E+08         0.00000E+00
    0.00000E+00         0.00000E+00         0.00000E+00
 
   -0.61720E+07         0.31659E+07         0.00000E+00
    0.31659E+07        -0.38913E+08         0.00000E+00
    0.00000E+00         0.00000E+00         0.00000E+00
 
   -0.42861E+07         0.46138E+07         0.00000E+00
    0.46138E+07        -0.39512E+08         0.00000E+00
    0.00000E+00         0.00000E+00        -0.47945E+05
 
   -0.33302E+07         0.61641E+07         0.00000E+00
    0.61641E+07        -0.40222E+08         0.00000E+00
    0.00000E+00         0.00000E+00        -0.10371E+07
 
   -0.28176E+07         0.78444E+07         0.00000E+00
    0.78444E+07        -0.40971E+08         0.00000E+00
    0.00000E+00         0.00000E+00        -0.21320E+07
 
   -0.32875E+08        -0.75094E+06         0.00000E+00
   -0.75094E+06        -0.39315E+08         0.00000E+00
    0.00000E+00         0.00000E+00         0.00000E+00
 
   -0.29924E+08        -0.17841E+07         0.00000E+00
   -0.17841E+07        -0.39400E+08         0.00000E+00
    0.00000E+00         0.00000E+00         0.00000E+00
 
   -0.27008E+08        -0.22807E+07         0.00000E+00
   -0.22807E+07        -0.39471E+08         0.00000E+00
    0.00000E+00         0.00000E+00         0.00000E+00
 
   -0.24267E+08        -0.23798E+07         0.00000E+00
   -0.23798E+07        -0.39480E+08         0.00000E+00
    0.00000E+00         0.00000E+00         0.00000E+00
 
   -0.21748E+08        -0.22089E+07         0.00000E+00
   -0.22089E+07        -0.39433E+08         0.00000E+00
    0.00000E+00         0.00000E+00         0.00000E+00
 
   -0.19431E+08        -0.18571E+07         0.00000E+00
   -0.18571E+07        -0.39364E+08         0.00000E+00
    0.00000E+00         0.00000E+00         0.00000E+00
 
   -0.17276E+08        -0.13760E+07         0.00000E+00
   -0.13760E+07        -0.39311E+08         0.00000E+00
    0.00000E+00         0.00000E+00         0.00000E+00
 
   -0.15233E+08        -0.79091E+06         0.00000E+00
   -0.79091E+06        -0.39309E+08         0.00000E+00
    0.00000E+00         0.00000E+00         0.00000E+00
 
   -0.13254E+08        -0.10966E+06         0.00000E+00
   -0.10966E+06        -0.39388E+08         0.00000E+00
    0.00000E+00         0.00000E+00         0.00000E+00
 
   -0.11293E+08         0.67319E+06         0.00000E+00
    0.67319E+06        -0.39571E+08         0.00000E+00
    0.00000E+00         0.00000E+00         0.00000E+00
 
   -0.93013E+07         0.15757E+07         0.00000E+00
    0.15757E+07        -0.39884E+08         0.00000E+00
    0.00000E+00         0.00000E+00         0.00000E+00
 
   -0.72221E+07         0.26348E+07         0.00000E+00
    0.26348E+07        -0.40353E+08         0.00000E+00
    0.00000E+00         0.00000E+00         0.00000E+00
 
   -0.51297E+07         0.39058E+07         0.00000E+00
    0.39058E+07        -0.41004E+08         0.00000E+00
    0.00000E+00         0.00000E+00        -0.12970E+06
 
   -0.40353E+07         0.53700E+07         0.00000E+00
    0.53700E+07        -0.41807E+08         0.00000E+00
    0.00000E+00         0.00000E+00        -0.13075E+07
 
   -0.33295E+07         0.70588E+07         0.00000E+00
    0.70588E+07        -0.42662E+08         0.00000E+00
    0.00000E+00         0.00000E+00        -0.25025E+07
 
   -0.36587E+08        -0.81105E+06         0.00000E+00
   -0.81105E+06        -0.41645E+08         0.00000E+00
    0.00000E+00         0.00000E+00         0.00000E+00
 
   -0.32976E+08        -0.18365E+07         0.00000E+00
   -0.18365E+07        -0.41684E+08         0.00000E+00
    0.00000E+00         0.00000E+00         0.00000E+00
 
   -0.29572E+08        -0.22391E+07         0.00000E+00
   -0.22391E+07        -0.41637E+08         0.00000E+00
    0.00000E+00         0.00000E+00         0.00000E+00
 
   -0.26516E+08        -0.22490E+07         0.00000E+00
   -0.22490E+07        -0.41474E+08         0.00000E+00
    0.00000E+00         0.00000E+00         0.00000E+00
 
   -0.23799E+08        -0.20359E+07         0.00000E+00
   -0.20359E+07        -0.41244E+08         0.00000E+00
    0.00000E+00         0.00000E+00         0.00000E+00
 
   -0.21352E+08        -0.16913E+07         0.00000E+00
   -0.16913E+07        -0.41008E+08         0.00000E+00
    0.00000E+00         0.00000E+00         0.00000E+00
 
   -0.19098E+08        -0.12583E+07         0.00000E+00
   -0.12583E+07        -0.40814E+08         0.00000E+00
    0.00000E+00         0.00000E+00         0.00000E+00
 
   -0.16969E+08        -0.75395E+06         0.00000E+00
   -0.75395E+06        -0.40697E+08         0.00000E+00
    0.00000E+00         0.00000E+00         0.00000E+00
 
   -0.14902E+08        -0.18032E+06         0.00000E+00
   -0.18032E+06        -0.40688E+08         0.00000E+00
    0.00000E+00         0.00000E+00         0.00000E+00
 
   -0.12841E+08         0.47071E+06         0.00000E+00
    0.47071E+06        -0.40811E+08         0.00000E+00
    0.00000E+00         0.00000E+00         0.00000E+00
 
   -0.10727E+08         0.12160E+07         0.00000E+00
    0.12160E+07        -0.41091E+08         0.00000E+00
    0.00000E+00         0.00000E+00         0.00000E+00
 
   -0.84856E+07         0.20802E+07         0.00000E+00
    0.20802E+07        -0.41560E+08         0.00000E+00
    0.00000E+00         0.00000E+00         0.00000E+00
 
   -0.61610E+07         0.31159E+07         0.00000E+00
    0.31159E+07        -0.42257E+08         0.00000E+00
    0.00000E+00         0.00000E+00        -0.14070E+06
 
   -0.47969E+07         0.44622E+07         0.00000E+00
    0.44622E+07        -0.43162E+08         0.00000E+00
    0.00000E+00         0.00000E+00        -0.14305E+07
 
   -0.38254E+07         0.61313E+07         0.00000E+00
    0.61313E+07        -0.44175E+08         0.00000E+00
    0.00000E+00         0.00000E+00        -0.27905E+07
 
   -0.40370E+08        -0.85579E+06         0.00000E+00
   -0.85579E+06        -0.43992E+08         0.00000E+00
    0.00000E+00         0.00000E+00         0.00000E+00
 
   -0.35938E+08        -0.17707E+07         0.00000E+00
   -0.17707E+07        -0.43932E+08         0.00000E+00
    0.00000E+00         0.00000E+00         0.00000E+00
 
   -0.32036E+08        -0.19946E+07         0.00000E+00
   -0.19946E+07        -0.43663E+08         0.00000E+00
    0.00000E+00         0.00000E+00         0.00000E+00
 
   -0.28726E+08        -0.19018E+07         0.00000E+00
   -0.19018E+07        -0.43244E+08         0.00000E+00
    0.00000E+00         0.00000E+00         0.00000E+00
 
   -0.25873E+08        -0.16709E+07         0.00000E+00
   -0.16709E+07        -0.42789E+08         0.00000E+00
    0.00000E+00         0.00000E+00         0.00000E+00
 
   -0.23340E+08        -0.13672E+07         0.00000E+00
   -0.13672E+07        -0.42369E+08         0.00000E+00
    0.00000E+00         0.00000E+00         0.00000E+00
 
   -0.21022E+08        -0.10152E+07         0.00000E+00
   -0.10152E+07        -0.42031E+08         0.00000E+00
    0.00000E+00         0.00000E+00         0.00000E+00
 
   -0.18833E+08        -0.62153E+06         0.00000E+00
   -0.62153E+06        -0.41805E+08         0.00000E+00
    0.00000E+00         0.00000E+00         0.00000E+00
 
   -0.16702E+08        -0.18321E+06         0.00000E+00
   -0.18321E+06        -0.41717E+08         0.00000E+00
    0.00000E+00         0.00000E+00         0.00000E+00
 
   -0.14565E+08         0.30910E+06         0.00000E+00
    0.30910E+06        -0.41787E+08         0.00000E+00
    0.00000E+00         0.00000E+00         0.00000E+00
 
   -0.12357E+08         0.86965E+06         0.00000E+00
    0.86965E+06        -0.42042E+08         0.00000E+00
    0.00000E+00         0.00000E+00         0.00000E+00
 
   -0.10005E+08         0.15111E+07         0.00000E+00
    0.15111E+07        -0.42509E+08         0.00000E+00
    0.00000E+00         0.00000E+00         0.00000E+00
 
   -0.74451E+07         0.22620E+07         0.00000E+00
    0.22620E+07        -0.43245E+08         0.00000E+00
    0.00000E+00         0.00000E+00        -0.67875E+05
 
   -0.56667E+07         0.33923E+07         0.00000E+00
    0.33923E+07        -0.44253E+08         0.00000E+00
    0.00000E+00         0.00000E+00        -0.13641E+07
 
   -0.43252E+07         0.49847E+07         0.00000E+00
    0.49847E+07        -0.45498E+08         0.00000E+00
    0.00000E+00         0.00000E+00        -0.29787E+07
 
   -0.44111E+08        -0.84927E+06         0.00000E+00
   -0.84927E+06        -0.46336E+08         0.00000E+00
    0.00000E+00         0.00000E+00         0.00000E+00
 
   -0.38680E+08        -0.14325E+07         0.00000E+00
   -0.14325E+07        -0.45997E+08         0.00000E+00
    0.00000E+00         0.00000E+00         0.00000E+00
 
   -0.34387E+08        -0.14333E+07         0.00000E+00
   -0.14333E+07        -0.45344E+08         0.00000E+00
    0.00000E+00         0.00000E+00         0.00000E+00
 
   -0.30933E+08        -0.12950E+07         0.00000E+00
   -0.12950E+07        -0.44617E+08         0.00000E+00
    0.00000E+00         0.00000E+00         0.00000E+00
 
   -0.28009E+08        -0.11068E+07         0.00000E+00
   -0.11068E+07        -0.43936E+08         0.00000E+00
    0.00000E+00         0.00000E+00         0.00000E+00
 
   -0.25432E+08        -0.89298E+06         0.00000E+00
   -0.89298E+06        -0.43353E+08         0.00000E+00
    0.00000E+00         0.00000E+00         0.00000E+00
 
   -0.23078E+08        -0.66030E+06         0.00000E+00
   -0.66030E+06        -0.42894E+08         0.00000E+00
    0.00000E+00         0.00000E+00         0.00000E+00
 
   -0.20852E+08        -0.40813E+06         0.00000E+00
   -0.40813E+06        -0.42581E+08         0.00000E+00
    0.00000E+00         0.00000E+00         0.00000E+00
 
   -0.18679E+08        -0.13188E+06         0.00000E+00
   -0.13188E+06        -0.42432E+08         0.00000E+00
    0.00000E+00         0.00000E+00         0.00000E+00
 
   -0.16489E+08         0.17618E+06         0.00000E+00
    0.17618E+06        -0.42465E+08         0.00000E+00
    0.00000E+00         0.00000E+00         0.00000E+00
 
   -0.14215E+08         0.52637E+06         0.00000E+00
    0.52637E+06        -0.42706E+08         0.00000E+00
    0.00000E+00         0.00000E+00         0.00000E+00
 
   -0.11793E+08         0.92986E+06         0.00000E+00
    0.92986E+06        -0.43182E+08         0.00000E+00
    0.00000E+00         0.00000E+00         0.00000E+00
 
   -0.91037E+07         0.13824E+07         0.00000E+00
    0.13824E+07        -0.43945E+08         0.00000E+00
    0.00000E+00         0.00000E+00         0.00000E+00
 
   -0.67459E+07         0.21203E+07         0.00000E+00
    0.21203E+07        -0.45022E+08         0.00000E+00
    0.00000E+00         0.00000E+00        -0.10455E+07
 
   -0.48924E+07         0.34689E+07         0.00000E+00
    0.34689E+07        -0.46626E+08         0.00000E+00
    0.00000E+00         0.00000E+00        -0.30359E+07
 
   -0.47486E+08        -0.51464E+06         0.00000E+00
   -0.51464E+06        -0.48284E+08         0.00000E+00
    0.00000E+00         0.00000E+00         0.00000E+00
 
   -0.41145E+08        -0.58329E+06         0.00000E+00
   -0.58329E+06        -0.47371E+08         0.00000E+00
    0.00000E+00         0.00000E+00         0.00000E+00
 
   -0.36720E+08        -0.52875E+06         0.00000E+00
   -0.52875E+06        -0.46333E+08         0.00000E+00
    0.00000E+00         0.00000E+00         0.00000E+00
 
   -0.33214E+08        -0.46176E+06         0.00000E+00
   -0.46176E+06        -0.45380E+08         0.00000E+00
    0.00000E+00         0.00000E+00         0.00000E+00
 
   -0.30264E+08        -0.38798E+06         0.00000E+00
   -0.38798E+06        -0.44554E+08         0.00000E+00
    0.00000E+00         0.00000E+00         0.00000E+00
 
   -0.27668E+08        -0.31035E+06         0.00000E+00
   -0.31035E+06        -0.43871E+08         0.00000E+00
    0.00000E+00         0.00000E+00         0.00000E+00
 
   -0.25296E+08        -0.22869E+06         0.00000E+00
   -0.22869E+06        -0.43344E+08         0.00000E+00
    0.00000E+00         0.00000E+00         0.00000E+00
 
   -0.23051E+08        -0.14171E+06         0.00000E+00
   -0.14171E+06        -0.42982E+08         0.00000E+00
    0.00000E+00         0.00000E+00         0.00000E+00
 
   -0.20855E+08        -0.47239E+05         0.00000E+00
   -0.47239E+05        -0.42799E+08         0.00000E+00
    0.00000E+00         0.00000E+00         0.00000E+00
 
   -0.18636E+08         0.57758E+05         0.00000E+00
    0.57758E+05        -0.42813E+08         0.00000E+00
    0.00000E+00         0.00000E+00         0.00000E+00
 
   -0.16326E+08         0.17709E+06         0.00000E+00
    0.17709E+06        -0.43050E+08         0.00000E+00
    0.00000E+00         0.00000E+00         0.00000E+00
 
   -0.13855E+08         0.31701E+06         0.00000E+00
    0.31701E+06        -0.43542E+08         0.00000E+00
    0.00000E+00         0.00000E+00         0.00000E+00
 
   -0.11187E+08         0.47065E+06         0.00000E+00
    0.47065E+06        -0.44321E+08         0.00000E+00
    0.00000E+00         0.00000E+00         0.00000E+00
 
   -0.83256E+07         0.71614E+06         0.00000E+00
    0.71614E+06        -0.45583E+08         0.00000E+00
    0.00000E+00         0.00000E+00        -0.44627E+06
 
   -0.57105E+07         0.13006E+07         0.00000E+00
    0.13006E+07        -0.47501E+08         0.00000E+00
    0.00000E+00         0.00000E+00        -0.28832E+07
 
TENSORS stresstot double 
   -0.46475E+08         0.41327E+06         0.00000E+00
    0.41327E+06        -0.58960E+08         0.00000E+00
    0.00000E+00         0.00000E+00        -0.64014E+08
 
   -0.46086E+08         0.57033E+06         0.00000E+00
    0.57033E+06        -0.57791E+08         0.00000E+00
    0.00000E+00         0.00000E+00        -0.62753E+08
 
   -0.45963E+08         0.36484E+06         0.00000E+00
    0.36484E+06        -0.56947E+08         0.00000E+00
    0.00000E+00         0.00000E+00        -0.62289E+08
 
   -0.46148E+08         0.96032E+05         0.00000E+00
    0.96032E+05        -0.56639E+08         0.00000E+00
    0.00000E+00         0.00000E+00        -0.62644E+08
 
   -0.46582E+08        -0.16030E+06         0.00000E+00
   -0.16030E+06        -0.56885E+08         0.00000E+00
    0.00000E+00         0.00000E+00        -0.63659E+08
 
   -0.47199E+08        -0.33004E+06         0.00000E+00
   -0.33004E+06        -0.57544E+08         0.00000E+00
    0.00000E+00         0.00000E+00        -0.65154E+08
 
   -0.48034E+08        -0.32553E+06         0.00000E+00
   -0.32553E+06        -0.58345E+08         0.00000E+00
    0.00000E+00         0.00000E+00        -0.67129E+08
 
   -0.49228E+08        -0.12040E+06         0.00000E+00
   -0.12040E+06        -0.58927E+08         0.00000E+00
    0.00000E+00         0.00000E+00        -0.69630E+08
 
   -0.50974E+08        -0.25639E+06         0.00000E+00
   -0.25639E+06        -0.59234E+08         0.00000E+00
    0.00000E+00         0.00000E+00        -0.72127E+08
 
   -0.54639E+08        -0.33002E+06         0.00000E+00
   -0.33002E+06        -0.59721E+08         0.00000E+00
    0.00000E+00         0.00000E+00        -0.72624E+08
 
   -0.57707E+08        -0.12005E+06         0.00000E+00
   -0.12005E+06        -0.60089E+08         0.00000E+00
    0.00000E+00         0.00000E+00        -0.72656E+08
 
   -0.60480E+08         0.86915E+05         0.00000E+00
    0.86915E+05        -0.60085E+08         0.00000E+00
    0.00000E+00         0.00000E+00        -0.72685E+08
 
   -0.63305E+08         0.30212E+06         0.00000E+00
    0.30212E+06        -0.59676E+08         0.00000E+00
    0.00000E+00         0.00000E+00        -0.72710E+08
 
   -0.66445E+08         0.56023E+06         0.00000E+00
    0.56023E+06        -0.58803E+08         0.00000E+00
    0.00000E+00         0.00000E+00        -0.72728E+08
 
   -0.70435E+08         0.10466E+07         0.00000E+00
    0.10466E+07        -0.57234E+08         0.00000E+00
    0.00000E+00         0.00000E+00        -0.72739E+08
 
   -0.45818E+08         0.76445E+06         0.00000E+00
    0.76445E+06        -0.59949E+08         0.00000E+00
    0.00000E+00         0.00000E+00        -0.65260E+08
 
   -0.46119E+08         0.90082E+06         0.00000E+00
    0.90082E+06        -0.60771E+08         0.00000E+00
    0.00000E+00         0.00000E+00        -0.66114E+08
 
   -0.46289E+08         0.72348E+06         0.00000E+00
    0.72348E+06        -0.61167E+08         0.00000E+00
    0.00000E+00         0.00000E+00        -0.66661E+08
 
   -0.46468E+08         0.28837E+06         0.00000E+00
    0.28837E+06        -0.61142E+08         0.00000E+00
    0.00000E+00         0.00000E+00        -0.67251E+08
 
   -0.46768E+08        -0.49033E+05         0.00000E+00
   -0.49033E+05        -0.60737E+08         0.00000E+00
    0.00000E+00         0.00000E+00        -0.67987E+08
 
   -0.47249E+08        -0.22642E+06         0.00000E+00
   -0.22642E+06        -0.60008E+08         0.00000E+00
    0.00000E+00         0.00000E+00        -0.68897E+08
 
   -0.47933E+08        -0.30832E+06         0.00000E+00
   -0.30832E+06        -0.59192E+08         0.00000E+00
    0.00000E+00         0.00000E+00        -0.69951E+08
 
   -0.49137E+08        -0.37974E+06         0.00000E+00
   -0.37974E+06        -0.58809E+08         0.00000E+00
    0.00000E+00         0.00000E+00        -0.70667E+08
 
   -0.51488E+08        -0.62692E+06         0.00000E+00
   -0.62692E+06        -0.59032E+08         0.00000E+00
    0.00000E+00         0.00000E+00        -0.70712E+08
 
   -0.54391E+08        -0.62939E+06         0.00000E+00
   -0.62939E+06        -0.59151E+08         0.00000E+00
    0.00000E+00         0.00000E+00        -0.70731E+08
 
   -0.57346E+08        -0.18647E+06         0.00000E+00
   -0.18647E+06        -0.59108E+08         0.00000E+00
    0.00000E+00         0.00000E+00        -0.70751E+08
 
   -0.60093E+08         0.35327E+06         0.00000E+00
    0.35327E+06        -0.58875E+08         0.00000E+00
    0.00000E+00         0.00000E+00        -0.70769E+08
 
   -0.62862E+08         0.95432E+06         0.00000E+00
    0.95432E+06        -0.58345E+08         0.00000E+00
    0.00000E+00         0.00000E+00        -0.70784E+08
 
   -0.65851E+08         0.16999E+07         0.00000E+00
    0.16999E+07        -0.57428E+08         0.00000E+00
    0.00000E+00         0.00000E+00        -0.70795E+08
 
   -0.69114E+08         0.28731E+07         0.00000E+00
    0.28731E+07        -0.56055E+08         0.00000E+00
    0.00000E+00         0.00000E+00        -0.70801E+08
 
   -0.45314E+08         0.10975E+06         0.00000E+00
    0.10975E+06        -0.61193E+08         0.00000E+00
    0.00000E+00         0.00000E+00        -0.67299E+08
 
   -0.45664E+08         0.63331E+06         0.00000E+00
    0.63331E+06        -0.61428E+08         0.00000E+00
    0.00000E+00         0.00000E+00        -0.68443E+08
 
   -0.46490E+08         0.70728E+06         0.00000E+00
    0.70728E+06        -0.61297E+08         0.00000E+00
    0.00000E+00         0.00000E+00        -0.68793E+08
 
   -0.46778E+08         0.56023E+06         0.00000E+00
    0.56023E+06        -0.60960E+08         0.00000E+00
    0.00000E+00         0.00000E+00        -0.68791E+08
 
   -0.47008E+08         0.40511E+06         0.00000E+00
    0.40511E+06        -0.60499E+08         0.00000E+00
    0.00000E+00         0.00000E+00        -0.68791E+08
 
   -0.47422E+08         0.25727E+06         0.00000E+00
    0.25727E+06        -0.60098E+08         0.00000E+00
    0.00000E+00         0.00000E+00        -0.68794E+08
 
   -0.48133E+08         0.49568E+05         0.00000E+00
    0.49568E+05        -0.59863E+08         0.00000E+00
    0.00000E+00         0.00000E+00        -0.68800E+08
 
   -0.49477E+08        -0.33718E+06         0.00000E+00
   -0.33718E+06        -0.59713E+08         0.00000E+00
    0.00000E+00         0.00000E+00        -0.68807E+08
 
   -0.51578E+08        -0.53905E+06         0.00000E+00
   -0.53905E+06        -0.59469E+08         0.00000E+00
    0.00000E+00         0.00000E+00        -0.68816E+08
 
   -0.54113E+08        -0.39444E+06         0.00000E+00
   -0.39444E+06        -0.59129E+08         0.00000E+00
    0.00000E+00         0.00000E+00        -0.68826E+08
 
   -0.56775E+08         0.95399E+05         0.00000E+00
    0.95399E+05        -0.58717E+08         0.00000E+00
    0.00000E+00         0.00000E+00        -0.68836E+08
 
   -0.59408E+08         0.81828E+06         0.00000E+00
    0.81828E+06        -0.58221E+08         0.00000E+00
    0.00000E+00         0.00000E+00        -0.68846E+08
 
   -0.62044E+08         0.17031E+07         0.00000E+00
    0.17031E+07        -0.57545E+08         0.00000E+00
    0.00000E+00         0.00000E+00        -0.68854E+08
 
   -0.64756E+08         0.28132E+07         0.00000E+00
    0.28132E+07        -0.56613E+08         0.00000E+00
    0.00000E+00         0.00000E+00        -0.68859E+08
 
   -0.67499E+08         0.42855E+07         0.00000E+00
    0.42855E+07        -0.55438E+08         0.00000E+00
    0.00000E+00         0.00000E+00        -0.68862E+08
 
   -0.44758E+08        -0.44196E+05         0.00000E+00
   -0.44196E+05        -0.59932E+08         0.00000E+00
    0.00000E+00         0.00000E+00        -0.66883E+08
 
   -0.45685E+08         0.28831E+06         0.00000E+00
    0.28831E+06        -0.59977E+08         0.00000E+00
    0.00000E+00         0.00000E+00        -0.66895E+08
 
   -0.46399E+08         0.50118E+06         0.00000E+00
    0.50118E+06        -0.60269E+08         0.00000E+00
    0.00000E+00         0.00000E+00        -0.66890E+08
 
   -0.46835E+08         0.65761E+06         0.00000E+00
    0.65761E+06        -0.60445E+08         0.00000E+00
    0.00000E+00         0.00000E+00        -0.66888E+08
 
   -0.47139E+08         0.61239E+06         0.00000E+00
    0.61239E+06        -0.60470E+08         0.00000E+00
    0.00000E+00         0.00000E+00        -0.66889E+08
 
   -0.47610E+08         0.44470E+06         0.00000E+00
    0.44470E+06        -0.60405E+08         0.00000E+00
    0.00000E+00         0.00000E+00        -0.66891E+08
 
   -0.48425E+08         0.19252E+06         0.00000E+00
    0.19252E+06        -0.60283E+08         0.00000E+00
    0.00000E+00         0.00000E+00        -0.66894E+08
 
   -0.49736E+08        -0.59278E+05         0.00000E+00
   -0.59278E+05        -0.60048E+08         0.00000E+00
    0.00000E+00         0.00000E+00        -0.66897E+08
 
   -0.51563E+08        -0.13656E+06         0.00000E+00
   -0.13656E+06        -0.59663E+08         0.00000E+00
    0.00000E+00         0.00000E+00        -0.66901E+08
 
   -0.53755E+08         0.90366E+05         0.00000E+00
    0.90366E+05        -0.59163E+08         0.00000E+00
    0.00000E+00         0.00000E+00        -0.66905E+08
 
   -0.56119E+08         0.63743E+06         0.00000E+00
    0.63743E+06        -0.58586E+08         0.00000E+00
    0.00000E+00         0.00000E+00        -0.66909E+08
 
   -0.58534E+08         0.14601E+07         0.00000E+00
    0.14601E+07        -0.57932E+08         0.00000E+00
    0.00000E+00         0.00000E+00        -0.66913E+08
 
   -0.60960E+08         0.25230E+07         0.00000E+00
    0.25230E+07        -0.57166E+08         0.00000E+00
    0.00000E+00         0.00000E+00        -0.66916E+08
 
   -0.63386E+08         0.38418E+07         0.00000E+00
    0.38418E+07        -0.56255E+08         0.00000E+00
    0.00000E+00         0.00000E+00        -0.66919E+08
 
   -0.65758E+08         0.54632E+07         0.00000E+00
    0.54632E+07        -0.55213E+08         0.00000E+00
    0.00000E+00         0.00000E+00        -0.66920E+08
 
   -0.44665E+08         0.56057E+05         0.00000E+00
    0.56057E+05        -0.60028E+08         0.00000E+00
    0.00000E+00         0.00000E+00        -0.64977E+08
 
   -0.45463E+08         0.12588E+06         0.00000E+00
    0.12588E+06        -0.60008E+08         0.00000E+00
    0.00000E+00         0.00000E+00        -0.64974E+08
 
   -0.46203E+08         0.32955E+06         0.00000E+00
    0.32955E+06        -0.60101E+08         0.00000E+00
    0.00000E+00         0.00000E+00        -0.64971E+08
 
   -0.46744E+08         0.50312E+06         0.00000E+00
    0.50312E+06        -0.60242E+08         0.00000E+00
    0.00000E+00         0.00000E+00        -0.64969E+08
 
   -0.47205E+08         0.55599E+06         0.00000E+00
    0.55599E+06        -0.60370E+08         0.00000E+00
    0.00000E+00         0.00000E+00        -0.64969E+08
 
   -0.47775E+08         0.48136E+06         0.00000E+00
    0.48136E+06        -0.60413E+08         0.00000E+00
    0.00000E+00         0.00000E+00        -0.64969E+08
 
   -0.48622E+08         0.34880E+06         0.00000E+00
    0.34880E+06        -0.60332E+08         0.00000E+00
    0.00000E+00         0.00000E+00        -0.64969E+08
 
   -0.49840E+08         0.26025E+06         0.00000E+00
    0.26025E+06        -0.60099E+08         0.00000E+00
    0.00000E+00         0.00000E+00        -0.64970E+08
 
   -0.51434E+08         0.33457E+06         0.00000E+00
    0.33457E+06        -0.59707E+08         0.00000E+00
    0.00000E+00         0.00000E+00        -0.64970E+08
 
   -0.53323E+08         0.66450E+06         0.00000E+00
    0.66450E+06        -0.59182E+08         0.00000E+00
    0.00000E+00         0.00000E+00        -0.64970E+08
 
   -0.55392E+08         0.12853E+07         0.00000E+00
    0.12853E+07        -0.58561E+08         0.00000E+00
    0.00000E+00         0.00000E+00        -0.64970E+08
 
   -0.57543E+08         0.21886E+07         0.00000E+00
    0.21886E+07        -0.57860E+08         0.00000E+00
    0.00000E+00         0.00000E+00        -0.64970E+08
 
   -0.59716E+08         0.33582E+07         0.00000E+00
    0.33582E+07        -0.57079E+08         0.00000E+00
    0.00000E+00         0.00000E+00        -0.64970E+08
 
   -0.61870E+08         0.47912E+07         0.00000E+00
    0.47912E+07        -0.56211E+08         0.00000E+00
    0.00000E+00         0.00000E+00        -0.64970E+08
 
   -0.63953E+08         0.64905E+07         0.00000E+00
    0.64905E+07        -0.55272E+08         0.00000E+00
    0.00000E+00         0.00000E+00        -0.64969E+08
 
   -0.44590E+08         0.29818E+05         0.00000E+00
    0.29818E+05        -0.60009E+08         0.00000E+00
    0.00000E+00         0.00000E+00        -0.63040E+08
 
   -0.45347E+08         0.10894E+06         0.00000E+00
    0.10894E+06        -0.60042E+08         0.00000E+00
    0.00000E+00         0.00000E+00        -0.63038E+08
 
   -0.46030E+08         0.23022E+06         0.00000E+00
    0.23022E+06        -0.60094E+08         0.00000E+00
    0.00000E+00         0.00000E+00        -0.63036E+08
 
   -0.46626E+08         0.36784E+06         0.00000E+00
    0.36784E+06        -0.60193E+08         0.00000E+00
    0.00000E+00         0.00000E+00        -0.63034E+08
 
   -0.47185E+08         0.45579E+06         0.00000E+00
    0.45579E+06        -0.60295E+08         0.00000E+00
    0.00000E+00         0.00000E+00        -0.63032E+08
 
   -0.47827E+08         0.48244E+06         0.00000E+00
    0.48244E+06        -0.60339E+08         0.00000E+00
    0.00000E+00         0.00000E+00        -0.63030E+08
 
   -0.48669E+08         0.49205E+06         0.00000E+00
    0.49205E+06        -0.60270E+08         0.00000E+00
    0.00000E+00         0.00000E+00        -0.63028E+08
 
   -0.49781E+08         0.56500E+06         0.00000E+00
    0.56500E+06        -0.60056E+08         0.00000E+00
    0.00000E+00         0.00000E+00        -0.63026E+08
 
   -0.51172E+08         0.78936E+06         0.00000E+00
    0.78936E+06        -0.59693E+08         0.00000E+00
    0.00000E+00         0.00000E+00        -0.63023E+08
 
   -0.52799E+08         0.12359E+07         0.00000E+00
    0.12359E+07        -0.59200E+08         0.00000E+00
    0.00000E+00         0.00000E+00        -0.63020E+08
 
   -0.54589E+08         0.19432E+07         0.00000E+00
    0.19432E+07        -0.58603E+08         0.00000E+00
    0.00000E+00         0.00000E+00        -0.63017E+08
 
   -0.56468E+08         0.29205E+07         0.00000E+00
    0.29205E+07        -0.57926E+08         0.00000E+00
    0.00000E+00         0.00000E+00        -0.63015E+08
 
   -0.58380E+08         0.41627E+07         0.00000E+00
    0.41627E+07        -0.57181E+08         0.00000E+00
    0.00000E+00         0.00000E+00        -0.63012E+08
 
   -0.60275E+08         0.56614E+07         0.00000E+00
    0.56614E+07        -0.56379E+08         0.00000E+00
    0.00000E+00         0.00000E+00        -0.63010E+08
 
   -0.62111E+08         0.74039E+07         0.00000E+00
    0.74039E+07        -0.55533E+08         0.00000E+00
    0.00000E+00         0.00000E+00        -0.63009E+08
 
   -0.44540E+08         0.12014E+05         0.00000E+00
    0.12014E+05        -0.60009E+08         0.00000E+00
    0.00000E+00         0.00000E+00        -0.61088E+08
 
   -0.45260E+08         0.66500E+05         0.00000E+00
    0.66500E+05        -0.60039E+08         0.00000E+00
    0.00000E+00         0.00000E+00        -0.61087E+08
 
   -0.45910E+08         0.15781E+06         0.00000E+00
    0.15781E+06        -0.60097E+08         0.00000E+00
    0.00000E+00         0.00000E+00        -0.61085E+08
 
   -0.46509E+08         0.27034E+06         0.00000E+00
    0.27034E+06        -0.60173E+08         0.00000E+00
    0.00000E+00         0.00000E+00        -0.61082E+08
 
   -0.47103E+08         0.38255E+06         0.00000E+00
    0.38255E+06        -0.60244E+08         0.00000E+00
    0.00000E+00         0.00000E+00        -0.61078E+08
 
   -0.47765E+08         0.49032E+06         0.00000E+00
    0.49032E+06        -0.60266E+08         0.00000E+00
    0.00000E+00         0.00000E+00        -0.61074E+08
 
   -0.48571E+08         0.62392E+06         0.00000E+00
    0.62392E+06        -0.60195E+08         0.00000E+00
    0.00000E+00         0.00000E+00        -0.61070E+08
 
   -0.49572E+08         0.83924E+06         0.00000E+00
    0.83924E+06        -0.60003E+08         0.00000E+00
    0.00000E+00         0.00000E+00        -0.61066E+08
 
   -0.50780E+08         0.12002E+07         0.00000E+00
    0.12002E+07        -0.59682E+08         0.00000E+00
    0.00000E+00         0.00000E+00        -0.61061E+08
 
   -0.52174E+08         0.17613E+07         0.00000E+00
    0.17613E+07        -0.59243E+08         0.00000E+00
    0.00000E+00         0.00000E+00        -0.61056E+08
 
   -0.53707E+08         0.25580E+07         0.00000E+00
    0.25580E+07        -0.58704E+08         0.00000E+00
    0.00000E+00         0.00000E+00        -0.61051E+08
 
   -0.55326E+08         0.36056E+07         0.00000E+00
    0.36056E+07        -0.58087E+08         0.00000E+00
    0.00000E+00         0.00000E+00        -0.61046E+08
 
   -0.56983E+08         0.49048E+07         0.00000E+00
    0.49048E+07        -0.57410E+08         0.00000E+00
    0.00000E+00         0.00000E+00        -0.61042E+08
 
   -0.58634E+08         0.64474E+07         0.00000E+00
    0.64474E+07        -0.56687E+08         0.00000E+00
    0.00000E+00         0.00000E+00        -0.61039E+08
 
   -0.60245E+08         0.82178E+07         0.00000E+00
    0.82178E+07        -0.55933E+08         0.00000E+00
    0.00000E+00         0.00000E+00        -0.61038E+08
 
   -0.44522E+08        -0.45538E+04         0.00000E+00
   -0.45538E+04        -0.60009E+08         0.00000E+00
    0.00000E+00         0.00000E+00        -0.59122E+08
 
   -0.45198E+08         0.21534E+05         0.00000E+00
    0.21534E+05        -0.60040E+08         0.00000E+00
    0.00000E+00         0.00000E+00        -0.59120E+08
 
   -0.45813E+08         0.91477E+05         0.00000E+00
    0.91477E+05        -0.60093E+08         0.00000E+00
    0.00000E+00         0.00000E+00        -0.59117E+08
 
   -0.46391E+08         0.19829E+06         0.00000E+00
    0.19829E+06        -0.60157E+08         0.00000E+00
    0.00000E+00         0.00000E+00        -0.59113E+08
 
   -0.46972E+08         0.33614E+06         0.00000E+00
    0.33614E+06        -0.60208E+08         0.00000E+00
    0.00000E+00         0.00000E+00        -0.59108E+08
 
   -0.47607E+08         0.51046E+06         0.00000E+00
    0.51046E+06        -0.60215E+08         0.00000E+00
    0.00000E+00         0.00000E+00        -0.59103E+08
 
   -0.48348E+08         0.74471E+06         0.00000E+00
    0.74471E+06        -0.60147E+08         0.00000E+00
    0.00000E+00         0.00000E+00        -0.59097E+08
 
   -0.49231E+08         0.10784E+07         0.00000E+00
    0.10784E+07        -0.59980E+08         0.00000E+00
    0.00000E+00         0.00000E+00        -0.59091E+08
 
   -0.50269E+08         0.15573E+07         0.00000E+00
    0.15573E+07        -0.59705E+08         0.00000E+00
    0.00000E+00         0.00000E+00        -0.59084E+08
 
   -0.51451E+08         0.22227E+07         0.00000E+00
    0.22227E+07        -0.59327E+08         0.00000E+00
    0.00000E+00         0.00000E+00        -0.59077E+08
 
   -0.52748E+08         0.31044E+07         0.00000E+00
    0.31044E+07        -0.58860E+08         0.00000E+00
    0.00000E+00         0.00000E+00        -0.59070E+08
 
   -0.54123E+08         0.42180E+07         0.00000E+00
    0.42180E+07        -0.58320E+08         0.00000E+00
    0.00000E+00         0.00000E+00        -0.59064E+08
 
   -0.55539E+08         0.55668E+07         0.00000E+00
    0.55668E+07        -0.57725E+08         0.00000E+00
    0.00000E+00         0.00000E+00        -0.59059E+08
 
   -0.56961E+08         0.71445E+07         0.00000E+00
    0.71445E+07        -0.57090E+08         0.00000E+00
    0.00000E+00         0.00000E+00        -0.59055E+08
 
   -0.58361E+08         0.89374E+07         0.00000E+00
    0.89374E+07        -0.56428E+08         0.00000E+00
    0.00000E+00         0.00000E+00        -0.59053E+08
 
   -0.44535E+08        -0.21329E+05         0.00000E+00
   -0.21329E+05        -0.60009E+08         0.00000E+00
    0.00000E+00         0.00000E+00        -0.57139E+08
 
   -0.45161E+08        -0.22322E+05         0.00000E+00
   -0.22322E+05        -0.60039E+08         0.00000E+00
    0.00000E+00         0.00000E+00        -0.57137E+08
 
   -0.45728E+08         0.31659E+05         0.00000E+00
    0.31659E+05        -0.60089E+08         0.00000E+00
    0.00000E+00         0.00000E+00        -0.57134E+08
 
   -0.46262E+08         0.13977E+06         0.00000E+00
    0.13977E+06        -0.60146E+08         0.00000E+00
    0.00000E+00         0.00000E+00        -0.57129E+08
 
   -0.46797E+08         0.30405E+06         0.00000E+00
    0.30405E+06        -0.60188E+08         0.00000E+00
    0.00000E+00         0.00000E+00        -0.57123E+08
 
   -0.47372E+08         0.53395E+06         0.00000E+00
    0.53395E+06        -0.60192E+08         0.00000E+00
    0.00000E+00         0.00000E+00        -0.57116E+08
 
   -0.48024E+08         0.84935E+06         0.00000E+00
    0.84935E+06        -0.60135E+08         0.00000E+00
    0.00000E+00         0.00000E+00        -0.57108E+08
 
   -0.48781E+08         0.12793E+07         0.00000E+00
    0.12793E+07        -0.59998E+08         0.00000E+00
    0.00000E+00         0.00000E+00        -0.57100E+08
 
   -0.49653E+08         0.18571E+07         0.00000E+00
    0.18571E+07        -0.59772E+08         0.00000E+00
    0.00000E+00         0.00000E+00        -0.57092E+08
 
   -0.50638E+08         0.26136E+07         0.00000E+00
    0.26136E+07        -0.59459E+08         0.00000E+00
    0.00000E+00         0.00000E+00        -0.57083E+08
 
   -0.51717E+08         0.35723E+07         0.00000E+00
    0.35723E+07        -0.59068E+08         0.00000E+00
    0.00000E+00         0.00000E+00        -0.57075E+08
 
   -0.52866E+08         0.47468E+07         0.00000E+00
    0.47468E+07        -0.58612E+08         0.00000E+00
    0.00000E+00         0.00000E+00        -0.57068E+08
 
   -0.54055E+08         0.61410E+07         0.00000E+00
    0.61410E+07        -0.58104E+08         0.00000E+00
    0.00000E+00         0.00000E+00        -0.57062E+08
 
   -0.55260E+08         0.77506E+07         0.00000E+00
    0.77506E+07        -0.57560E+08         0.00000E+00
    0.00000E+00         0.00000E+00        -0.57057E+08
 
   -0.56459E+08         0.95645E+07         0.00000E+00
    0.95645E+07        -0.56989E+08         0.00000E+00
    0.00000E+00         0.00000E+00        -0.57055E+08
 
   -0.44579E+08        -0.38043E+05         0.00000E+00
   -0.38043E+05        -0.60009E+08         0.00000E+00
    0.00000E+00         0.00000E+00        -0.55140E+08
 
   -0.45144E+08        -0.65111E+05         0.00000E+00
   -0.65111E+05        -0.60039E+08         0.00000E+00
    0.00000E+00         0.00000E+00        -0.55138E+08
 
   -0.45650E+08        -0.24876E+05         0.00000E+00
   -0.24876E+05        -0.60089E+08         0.00000E+00
    0.00000E+00         0.00000E+00        -0.55134E+08
 
   -0.46120E+08         0.86131E+05         0.00000E+00
    0.86131E+05        -0.60144E+08         0.00000E+00
    0.00000E+00         0.00000E+00        -0.55128E+08
 
   -0.46585E+08         0.27407E+06         0.00000E+00
    0.27407E+06        -0.60187E+08         0.00000E+00
    0.00000E+00         0.00000E+00        -0.55121E+08
 
   -0.47075E+08         0.54992E+06         0.00000E+00
    0.54992E+06        -0.60200E+08         0.00000E+00
    0.00000E+00         0.00000E+00        -0.55113E+08
 
   -0.47619E+08         0.93071E+06         0.00000E+00
    0.93071E+06        -0.60162E+08         0.00000E+00
    0.00000E+00         0.00000E+00        -0.55104E+08
 
   -0.48240E+08         0.14387E+07         0.00000E+00
    0.14387E+07        -0.60059E+08         0.00000E+00
    0.00000E+00         0.00000E+00        -0.55094E+08
 
   -0.48949E+08         0.20983E+07         0.00000E+00
    0.20983E+07        -0.59885E+08         0.00000E+00
    0.00000E+00         0.00000E+00        -0.55084E+08
 
   -0.49746E+08         0.29324E+07         0.00000E+00
    0.29324E+07        -0.59638E+08         0.00000E+00
    0.00000E+00         0.00000E+00        -0.55074E+08
 
   -0.50621E+08         0.39589E+07         0.00000E+00
    0.39589E+07        -0.59323E+08         0.00000E+00
    0.00000E+00         0.00000E+00        -0.55065E+08
 
   -0.51557E+08         0.51888E+07         0.00000E+00
    0.51888E+07        -0.58951E+08         0.00000E+00
    0.00000E+00         0.00000E+00        -0.55057E+08
 
   -0.52534E+08         0.66255E+07         0.00000E+00
    0.66255E+07        -0.58531E+08         0.00000E+00
    0.00000E+00         0.00000E+00        -0.55050E+08
 
   -0.53534E+08         0.82657E+07         0.00000E+00
    0.82657E+07        -0.58076E+08         0.00000E+00
    0.00000E+00         0.00000E+00        -0.55045E+08
 
   -0.54539E+08         0.10101E+08         0.00000E+00
    0.10101E+08        -0.57595E+08         0.00000E+00
    0.00000E+00         0.00000E+00        -0.55042E+08
 
   -0.44655E+08        -0.54934E+05         0.00000E+00
   -0.54934E+05        -0.60009E+08         0.00000E+00
    0.00000E+00         0.00000E+00        -0.53126E+08
 
   -0.45149E+08        -0.10861E+06         0.00000E+00
   -0.10861E+06        -0.60040E+08         0.00000E+00
    0.00000E+00         0.00000E+00        -0.53123E+08
 
   -0.45578E+08        -0.82678E+05         0.00000E+00
   -0.82678E+05        -0.60093E+08         0.00000E+00
    0.00000E+00         0.00000E+00        -0.53118E+08
 
   -0.45967E+08         0.29479E+05         0.00000E+00
    0.29479E+05        -0.60153E+08         0.00000E+00
    0.00000E+00         0.00000E+00        -0.53112E+08
 
   -0.46340E+08         0.23628E+06         0.00000E+00
    0.23628E+06        -0.60206E+08         0.00000E+00
    0.00000E+00         0.00000E+00        -0.53103E+08
 
   -0.46726E+08         0.54897E+06         0.00000E+00
    0.54897E+06        -0.60235E+08         0.00000E+00
    0.00000E+00         0.00000E+00        -0.53093E+08
 
   -0.47149E+08         0.98214E+06         0.00000E+00
    0.98214E+06        -0.60224E+08         0.00000E+00
    0.00000E+00         0.00000E+00        -0.53083E+08
 
   -0.47627E+08         0.15531E+07         0.00000E+00
    0.15531E+07        -0.60161E+08         0.00000E+00
    0.00000E+00         0.00000E+00        -0.53072E+08
 
   -0.48171E+08         0.22800E+07         0.00000E+00
    0.22800E+07        -0.60040E+08         0.00000E+00
    0.00000E+00         0.00000E+00        -0.53061E+08
 
   -0.48786E+08         0.31797E+07         0.00000E+00
    0.31797E+07        -0.59858E+08         0.00000E+00
    0.00000E+00         0.00000E+00        -0.53050E+08
 
   -0.49466E+08         0.42654E+07         0.00000E+00
    0.42654E+07        -0.59618E+08         0.00000E+00
    0.00000E+00         0.00000E+00        -0.53039E+08
 
   -0.50201E+08         0.55451E+07         0.00000E+00
    0.55451E+07        -0.59327E+08         0.00000E+00
    0.00000E+00         0.00000E+00        -0.53030E+08
 
   -0.50978E+08         0.70214E+07         0.00000E+00
    0.70214E+07        -0.58994E+08         0.00000E+00
    0.00000E+00         0.00000E+00        -0.53023E+08
 
   -0.51782E+08         0.86914E+07         0.00000E+00
    0.86914E+07        -0.58627E+08         0.00000E+00
    0.00000E+00         0.00000E+00        -0.53017E+08
 
   -0.52602E+08         0.10548E+08         0.00000E+00
    0.10548E+08        -0.58234E+08         0.00000E+00
    0.00000E+00         0.00000E+00        -0.53014E+08
 
   -0.44763E+08        -0.72855E+05         0.00000E+00
   -0.72855E+05        -0.60010E+08         0.00000E+00
    0.00000E+00         0.00000E+00        -0.51094E+08
 
   -0.45175E+08        -0.15550E+06         0.00000E+00
   -0.15550E+06        -0.60044E+08         0.00000E+00
    0.00000E+00         0.00000E+00        -0.51092E+08
 
   -0.45515E+08        -0.14658E+06         0.00000E+00
   -0.14658E+06        -0.60104E+08         0.00000E+00
    0.00000E+00         0.00000E+00        -0.51086E+08
 
   -0.45806E+08        -0.37050E+05         0.00000E+00
   -0.37050E+05        -0.60175E+08         0.00000E+00
    0.00000E+00         0.00000E+00        -0.51078E+08
 
   -0.46072E+08         0.18275E+06         0.00000E+00
    0.18275E+06        -0.60244E+08         0.00000E+00
    0.00000E+00         0.00000E+00        -0.51069E+08
 
   -0.46338E+08         0.52373E+06         0.00000E+00
    0.52373E+06        -0.60295E+08         0.00000E+00
    0.00000E+00         0.00000E+00        -0.51058E+08
 
   -0.46626E+08         0.99826E+06         0.00000E+00
    0.99826E+06        -0.60317E+08         0.00000E+00
    0.00000E+00         0.00000E+00        -0.51046E+08
 
   -0.46953E+08         0.16199E+07         0.00000E+00
    0.16199E+07        -0.60297E+08         0.00000E+00
    0.00000E+00         0.00000E+00        -0.51034E+08
 
   -0.47332E+08         0.24020E+07         0.00000E+00
    0.24020E+07        -0.60230E+08         0.00000E+00
    0.00000E+00         0.00000E+00        -0.51021E+08
 
   -0.47768E+08         0.33569E+07         0.00000E+00
    0.33569E+07        -0.60112E+08         0.00000E+00
    0.00000E+00         0.00000E+00        -0.51009E+08
 
   -0.48260E+08         0.44938E+07         0.00000E+00
    0.44938E+07        -0.59945E+08         0.00000E+00
    0.00000E+00         0.00000E+00        -0.50998E+08
 
   -0.48803E+08         0.58182E+07         0.00000E+00
    0.58182E+07        -0.59734E+08         0.00000E+00
    0.00000E+00         0.00000E+00        -0.50988E+08
 
   -0.49388E+08         0.73314E+07         0.00000E+00
    0.73314E+07        -0.59483E+08         0.00000E+00
    0.00000E+00         0.00000E+00        -0.50980E+08
 
   -0.50005E+08         0.90305E+07         0.00000E+00
    0.90305E+07        -0.59201E+08         0.00000E+00
    0.00000E+00         0.00000E+00        -0.50974E+08
 
   -0.50645E+08         0.10909E+08         0.00000E+00
    0.10909E+08        -0.58893E+08         0.00000E+00
    0.00000E+00         0.00000E+00        -0.50971E+08
 
   -0.44907E+08        -0.92924E+05         0.00000E+00
   -0.92924E+05        -0.60011E+08         0.00000E+00
    0.00000E+00         0.00000E+00        -0.49047E+08
 
   -0.45227E+08        -0.20874E+06         0.00000E+00
   -0.20874E+06        -0.60051E+08         0.00000E+00
    0.00000E+00         0.00000E+00        -0.49043E+08
 
   -0.45464E+08        -0.22114E+06         0.00000E+00
   -0.22114E+06        -0.60120E+08         0.00000E+00
    0.00000E+00         0.00000E+00        -0.49037E+08
 
   -0.45643E+08        -0.11919E+06         0.00000E+00
   -0.11919E+06        -0.60207E+08         0.00000E+00
    0.00000E+00         0.00000E+00        -0.49029E+08
 
   -0.45786E+08         0.10736E+06         0.00000E+00
    0.10736E+06        -0.60297E+08         0.00000E+00
    0.00000E+00         0.00000E+00        -0.49018E+08
 
   -0.45918E+08         0.46870E+06         0.00000E+00
    0.46870E+06        -0.60377E+08         0.00000E+00
    0.00000E+00         0.00000E+00        -0.49006E+08
 
   -0.46061E+08         0.97519E+06         0.00000E+00
    0.97519E+06        -0.60434E+08         0.00000E+00
    0.00000E+00         0.00000E+00        -0.48992E+08
 
   -0.46231E+08         0.16372E+07         0.00000E+00
    0.16372E+07        -0.60460E+08         0.00000E+00
    0.00000E+00         0.00000E+00        -0.48979E+08
 
   -0.46442E+08         0.24647E+07         0.00000E+00
    0.24647E+07        -0.60447E+08         0.00000E+00
    0.00000E+00         0.00000E+00        -0.48965E+08
 
   -0.46700E+08         0.34660E+07         0.00000E+00
    0.34660E+07        -0.60393E+08         0.00000E+00
    0.00000E+00         0.00000E+00        -0.48952E+08
 
   -0.47008E+08         0.46472E+07         0.00000E+00
    0.46472E+07        -0.60296E+08         0.00000E+00
    0.00000E+00         0.00000E+00        -0.48940E+08
 
   -0.47365E+08         0.60114E+07         0.00000E+00
    0.60114E+07        -0.60161E+08         0.00000E+00
    0.00000E+00         0.00000E+00        -0.48929E+08
 
   -0.47765E+08         0.75586E+07         0.00000E+00
    0.75586E+07        -0.59990E+08         0.00000E+00
    0.00000E+00         0.00000E+00        -0.48920E+08
 
   -0.48203E+08         0.92857E+07         0.00000E+00
    0.92857E+07        -0.59789E+08         0.00000E+00
    0.00000E+00         0.00000E+00        -0.48914E+08
 
   -0.48670E+08         0.11187E+08         0.00000E+00
    0.11187E+08        -0.59564E+08         0.00000E+00
    0.00000E+00         0.00000E+00        -0.48911E+08
 
   -0.45092E+08        -0.11626E+06         0.00000E+00
   -0.11626E+06        -0.60013E+08         0.00000E+00
    0.00000E+00         0.00000E+00        -0.46982E+08
 
   -0.45309E+08        -0.27108E+06         0.00000E+00
   -0.27108E+06        -0.60060E+08         0.00000E+00
    0.00000E+00         0.00000E+00        -0.46978E+08
 
   -0.45431E+08        -0.31023E+06         0.00000E+00
   -0.31023E+06        -0.60143E+08         0.00000E+00
    0.00000E+00         0.00000E+00        -0.46971E+08
 
   -0.45483E+08        -0.22145E+06         0.00000E+00
   -0.22145E+06        -0.60248E+08         0.00000E+00
    0.00000E+00         0.00000E+00        -0.46962E+08
 
   -0.45490E+08         0.56111E+04         0.00000E+00
    0.56111E+04        -0.60363E+08         0.00000E+00
    0.00000E+00         0.00000E+00        -0.46950E+08
 
   -0.45476E+08         0.38012E+06         0.00000E+00
    0.38012E+06        -0.60474E+08         0.00000E+00
    0.00000E+00         0.00000E+00        -0.46937E+08
 
   -0.45464E+08         0.91048E+06         0.00000E+00
    0.91048E+06        -0.60570E+08         0.00000E+00
    0.00000E+00         0.00000E+00        -0.46922E+08
 
   -0.45470E+08         0.16044E+07         0.00000E+00
    0.16044E+07        -0.60642E+08         0.00000E+00
    0.00000E+00         0.00000E+00        -0.46907E+08
 
   -0.45509E+08         0.24688E+07         0.00000E+00
    0.24688E+07        -0.60684E+08         0.00000E+00
    0.00000E+00         0.00000E+00        -0.46892E+08
 
   -0.45590E+08         0.35089E+07         0.00000E+00
    0.35089E+07        -0.60691E+08         0.00000E+00
    0.00000E+00         0.00000E+00        -0.46878E+08
 
   -0.45717E+08         0.47283E+07         0.00000E+00
    0.47283E+07        -0.60662E+08         0.00000E+00
    0.00000E+00         0.00000E+00        -0.46865E+08
 
   -0.45892E+08         0.61279E+07         0.00000E+00
    0.61279E+07        -0.60599E+08         0.00000E+00
    0.00000E+00         0.00000E+00        -0.46853E+08
 
   -0.46113E+08         0.77065E+07         0.00000E+00
    0.77065E+07        -0.60505E+08         0.00000E+00
    0.00000E+00         0.00000E+00        -0.46844E+08
 
   -0.46376E+08         0.94601E+07         0.00000E+00
    0.94601E+07        -0.60383E+08         0.00000E+00
    0.00000E+00         0.00000E+00        -0.46837E+08
 
   -0.46675E+08         0.11383E+08         0.00000E+00
    0.11383E+08        -0.60237E+08         0.00000E+00
    0.00000E+00         0.00000E+00        -0.46834E+08
 
   -0.45326E+08        -0.14381E+06         0.00000E+00
   -0.14381E+06        -0.60016E+08         0.00000E+00
    0.00000E+00         0.00000E+00        -0.44900E+08
 
   -0.45427E+08        -0.34485E+06         0.00000E+00
   -0.34485E+06        -0.60071E+08         0.00000E+00
    0.00000E+00         0.00000E+00        -0.44896E+08
 
   -0.45420E+08        -0.41690E+06         0.00000E+00
   -0.41690E+06        -0.60169E+08         0.00000E+00
    0.00000E+00         0.00000E+00        -0.44888E+08
 
   -0.45332E+08        -0.34705E+06         0.00000E+00
   -0.34705E+06        -0.60296E+08         0.00000E+00
    0.00000E+00         0.00000E+00        -0.44878E+08
 
   -0.45190E+08        -0.12542E+06         0.00000E+00
   -0.12542E+06        -0.60438E+08         0.00000E+00
    0.00000E+00         0.00000E+00        -0.44865E+08
 
   -0.45019E+08         0.25582E+06         0.00000E+00
    0.25582E+06        -0.60583E+08         0.00000E+00
    0.00000E+00         0.00000E+00        -0.44850E+08
 
   -0.44842E+08         0.80307E+06         0.00000E+00
    0.80307E+06        -0.60718E+08         0.00000E+00
    0.00000E+00         0.00000E+00        -0.44834E+08
 
   -0.44678E+08         0.15216E+07         0.00000E+00
    0.15216E+07        -0.60836E+08         0.00000E+00
    0.00000E+00         0.00000E+00        -0.44818E+08
 
   -0.44542E+08         0.24157E+07         0.00000E+00
    0.24157E+07        -0.60930E+08         0.00000E+00
    0.00000E+00         0.00000E+00        -0.44802E+08
 
   -0.44444E+08         0.34882E+07         0.00000E+00
    0.34882E+07        -0.60997E+08         0.00000E+00
    0.00000E+00         0.00000E+00        -0.44787E+08
 
   -0.44392E+08         0.47402E+07         0.00000E+00
    0.47402E+07        -0.61033E+08         0.00000E+00
    0.00000E+00         0.00000E+00        -0.44773E+08
 
   -0.44388E+08         0.61711E+07         0.00000E+00
    0.61711E+07        -0.61040E+08         0.00000E+00
    0.00000E+00         0.00000E+00        -0.44760E+08
 
   -0.44433E+08         0.77779E+07         0.00000E+00
    0.77779E+07        -0.61019E+08         0.00000E+00
    0.00000E+00         0.00000E+00        -0.44751E+08
 
   -0.44525E+08         0.95564E+07         0.00000E+00
    0.95564E+07        -0.60973E+08         0.00000E+00
    0.00000E+00         0.00000E+00        -0.44744E+08
 
   -0.44661E+08         0.11500E+08         0.00000E+00
    0.11500E+08        -0.60904E+08         0.00000E+00
    0.00000E+00         0.00000E+00        -0.44740E+08
 
   -0.45616E+08        -0.17633E+06         0.00000E+00
   -0.17633E+06        -0.60018E+08         0.00000E+00
    0.00000E+00         0.00000E+00        -0.42801E+08
 
   -0.45589E+08        -0.43169E+06         0.00000E+00
   -0.43169E+06        -0.60083E+08         0.00000E+00
    0.00000E+00         0.00000E+00        -0.42796E+08
 
   -0.45439E+08        -0.54312E+06         0.00000E+00
   -0.54312E+06        -0.60198E+08         0.00000E+00
    0.00000E+00         0.00000E+00        -0.42788E+08
 
   -0.45196E+08        -0.49784E+06         0.00000E+00
   -0.49784E+06        -0.60348E+08         0.00000E+00
    0.00000E+00         0.00000E+00        -0.42776E+08
 
   -0.44892E+08        -0.28704E+06         0.00000E+00
   -0.28704E+06        -0.60518E+08         0.00000E+00
    0.00000E+00         0.00000E+00        -0.42762E+08
 
   -0.44552E+08         0.95322E+05         0.00000E+00
    0.95322E+05        -0.60696E+08         0.00000E+00
    0.00000E+00         0.00000E+00        -0.42746E+08
 
   -0.44202E+08         0.65343E+06         0.00000E+00
    0.65343E+06        -0.60870E+08         0.00000E+00
    0.00000E+00         0.00000E+00        -0.42729E+08
 
   -0.43862E+08         0.13902E+07         0.00000E+00
    0.13902E+07        -0.61032E+08         0.00000E+00
    0.00000E+00         0.00000E+00        -0.42711E+08
 
   -0.43546E+08         0.23076E+07         0.00000E+00
    0.23076E+07        -0.61177E+08         0.00000E+00
    0.00000E+00         0.00000E+00        -0.42694E+08
 
   -0.43268E+08         0.34064E+07         0.00000E+00
    0.34064E+07        -0.61300E+08         0.00000E+00
    0.00000E+00         0.00000E+00        -0.42678E+08
 
   -0.43036E+08         0.46859E+07         0.00000E+00
    0.46859E+07        -0.61399E+08         0.00000E+00
    0.00000E+00         0.00000E+00        -0.42663E+08
 
   -0.42856E+08         0.61438E+07         0.00000E+00
    0.61438E+07        -0.61473E+08         0.00000E+00
    0.00000E+00         0.00000E+00        -0.42650E+08
 
   -0.42728E+08         0.77759E+07         0.00000E+00
    0.77759E+07        -0.61522E+08         0.00000E+00
    0.00000E+00         0.00000E+00        -0.42639E+08
 
   -0.42653E+08         0.95770E+07         0.00000E+00
    0.95770E+07        -0.61549E+08         0.00000E+00
    0.00000E+00         0.00000E+00        -0.42632E+08
 
   -0.42628E+08         0.11541E+08         0.00000E+00
    0.11541E+08        -0.61556E+08         0.00000E+00
    0.00000E+00         0.00000E+00        -0.42628E+08
 
   -0.45973E+08        -0.21427E+06         0.00000E+00
   -0.21427E+06        -0.60021E+08         0.00000E+00
    0.00000E+00         0.00000E+00        -0.40683E+08
 
   -0.45802E+08        -0.53255E+06         0.00000E+00
   -0.53255E+06        -0.60095E+08         0.00000E+00
    0.00000E+00         0.00000E+00        -0.40678E+08
 
   -0.45492E+08        -0.68974E+06         0.00000E+00
   -0.68974E+06        -0.60228E+08         0.00000E+00
    0.00000E+00         0.00000E+00        -0.40669E+08
 
   -0.45080E+08        -0.67413E+06         0.00000E+00
   -0.67413E+06        -0.60401E+08         0.00000E+00
    0.00000E+00         0.00000E+00        -0.40656E+08
 
   -0.44600E+08        -0.47878E+06         0.00000E+00
   -0.47878E+06        -0.60598E+08         0.00000E+00
    0.00000E+00         0.00000E+00        -0.40641E+08
 
   -0.44082E+08        -0.10004E+06         0.00000E+00
   -0.10004E+06        -0.60807E+08         0.00000E+00
    0.00000E+00         0.00000E+00        -0.40624E+08
 
   -0.43551E+08         0.46371E+06         0.00000E+00
    0.46371E+06        -0.61017E+08         0.00000E+00
    0.00000E+00         0.00000E+00        -0.40605E+08
 
   -0.43027E+08         0.12129E+07         0.00000E+00
    0.12129E+07        -0.61220E+08         0.00000E+00
    0.00000E+00         0.00000E+00        -0.40586E+08
 
   -0.42529E+08         0.21475E+07         0.00000E+00
    0.21475E+07        -0.61412E+08         0.00000E+00
    0.00000E+00         0.00000E+00        -0.40568E+08
 
   -0.42068E+08         0.32665E+07         0.00000E+00
    0.32665E+07        -0.61588E+08         0.00000E+00
    0.00000E+00         0.00000E+00        -0.40551E+08
 
   -0.41656E+08         0.45681E+07         0.00000E+00
    0.45681E+07        -0.61746E+08         0.00000E+00
    0.00000E+00         0.00000E+00        -0.40535E+08
 
   -0.41299E+08         0.60487E+07         0.00000E+00
    0.60487E+07        -0.61884E+08         0.00000E+00
    0.00000E+00         0.00000E+00        -0.40521E+08
 
   -0.41000E+08         0.77028E+07         0.00000E+00
    0.77028E+07        -0.62002E+08         0.00000E+00
    0.00000E+00         0.00000E+00        -0.40510E+08
 
   -0.40760E+08         0.95238E+07         0.00000E+00
    0.95238E+07        -0.62101E+08         0.00000E+00
    0.00000E+00         0.00000E+00        -0.40503E+08
 
   -0.40576E+08         0.11506E+08         0.00000E+00
    0.11506E+08        -0.62183E+08         0.00000E+00
    0.00000E+00         0.00000E+00        -0.40499E+08
 
   -0.46406E+08        -0.25783E+06         0.00000E+00
   -0.25783E+06        -0.60024E+08         0.00000E+00
    0.00000E+00         0.00000E+00        -0.38547E+08
 
   -0.46072E+08        -0.64757E+06         0.00000E+00
   -0.64757E+06        -0.60108E+08         0.00000E+00
    0.00000E+00         0.00000E+00        -0.38542E+08
 
   -0.45585E+08        -0.85636E+06         0.00000E+00
   -0.85636E+06        -0.60257E+08         0.00000E+00
    0.00000E+00         0.00000E+00        -0.38532E+08
 
   -0.44988E+08        -0.87460E+06         0.00000E+00
   -0.87460E+06        -0.60451E+08         0.00000E+00
    0.00000E+00         0.00000E+00        -0.38518E+08
 
   -0.44320E+08        -0.69823E+06         0.00000E+00
   -0.69823E+06        -0.60672E+08         0.00000E+00
    0.00000E+00         0.00000E+00        -0.38501E+08
 
   -0.43612E+08        -0.32684E+06         0.00000E+00
   -0.32684E+06        -0.60909E+08         0.00000E+00
    0.00000E+00         0.00000E+00        -0.38483E+08
 
   -0.42892E+08         0.23808E+06         0.00000E+00
    0.23808E+06        -0.61149E+08         0.00000E+00
    0.00000E+00         0.00000E+00        -0.38463E+08
 
   -0.42181E+08         0.99430E+06         0.00000E+00
    0.99430E+06        -0.61389E+08         0.00000E+00
    0.00000E+00         0.00000E+00        -0.38443E+08
 
   -0.41496E+08         0.19397E+07         0.00000E+00
    0.19397E+07        -0.61622E+08         0.00000E+00
    0.00000E+00         0.00000E+00        -0.38423E+08
 
   -0.40850E+08         0.30722E+07         0.00000E+00
    0.30722E+07        -0.61846E+08         0.00000E+00
    0.00000E+00         0.00000E+00        -0.38405E+08
 
   -0.40256E+08         0.43894E+07         0.00000E+00
    0.43894E+07        -0.62060E+08         0.00000E+00
    0.00000E+00         0.00000E+00        -0.38388E+08
 
   -0.39721E+08         0.58877E+07         0.00000E+00
    0.58877E+07        -0.62262E+08         0.00000E+00
    0.00000E+00         0.00000E+00        -0.38374E+08
 
   -0.39253E+08         0.75601E+07         0.00000E+00
    0.75601E+07        -0.62447E+08         0.00000E+00
    0.00000E+00         0.00000E+00        -0.38363E+08
 
   -0.38850E+08         0.93977E+07         0.00000E+00
    0.93977E+07        -0.62617E+08         0.00000E+00
    0.00000E+00         0.00000E+00        -0.38355E+08
 
   -0.38507E+08         0.11395E+08         0.00000E+00
    0.11395E+08        -0.62773E+08         0.00000E+00
    0.00000E+00         0.00000E+00        -0.38351E+08
 
   -0.46926E+08        -0.30696E+06         0.00000E+00
   -0.30696E+06        -0.60027E+08         0.00000E+00
    0.00000E+00         0.00000E+00        -0.36392E+08
 
   -0.46407E+08        -0.77610E+06         0.00000E+00
   -0.77610E+06        -0.60120E+08         0.00000E+00
    0.00000E+00         0.00000E+00        -0.36386E+08
 
   -0.45722E+08        -0.10412E+07         0.00000E+00
   -0.10412E+07        -0.60284E+08         0.00000E+00
    0.00000E+00         0.00000E+00        -0.36375E+08
 
   -0.44924E+08        -0.10960E+07         0.00000E+00
   -0.10960E+07        -0.60495E+08         0.00000E+00
    0.00000E+00         0.00000E+00        -0.36360E+08
 
   -0.44053E+08        -0.94074E+06         0.00000E+00
   -0.94074E+06        -0.60736E+08         0.00000E+00
    0.00000E+00         0.00000E+00        -0.36343E+08
 
   -0.43147E+08        -0.57918E+06         0.00000E+00
   -0.57918E+06        -0.60993E+08         0.00000E+00
    0.00000E+00         0.00000E+00        -0.36323E+08
 
   -0.42231E+08        -0.16813E+05         0.00000E+00
   -0.16813E+05        -0.61257E+08         0.00000E+00
    0.00000E+00         0.00000E+00        -0.36302E+08
 
   -0.41328E+08         0.74105E+06         0.00000E+00
    0.74105E+06        -0.61523E+08         0.00000E+00
    0.00000E+00         0.00000E+00        -0.36281E+08
 
   -0.40454E+08         0.16903E+07         0.00000E+00
    0.16903E+07        -0.61791E+08         0.00000E+00
    0.00000E+00         0.00000E+00        -0.36260E+08
 
   -0.39622E+08         0.28282E+07         0.00000E+00
    0.28282E+07        -0.62057E+08         0.00000E+00
    0.00000E+00         0.00000E+00        -0.36241E+08
 
   -0.38843E+08         0.41525E+07         0.00000E+00
    0.41525E+07        -0.62323E+08         0.00000E+00
    0.00000E+00         0.00000E+00        -0.36223E+08
 
   -0.38129E+08         0.56605E+07         0.00000E+00
    0.56605E+07        -0.62586E+08         0.00000E+00
    0.00000E+00         0.00000E+00        -0.36209E+08
 
   -0.37490E+08         0.73468E+07         0.00000E+00
    0.73468E+07        -0.62842E+08         0.00000E+00
    0.00000E+00         0.00000E+00        -0.36197E+08
 
   -0.36927E+08         0.91983E+07         0.00000E+00
    0.91983E+07        -0.63086E+08         0.00000E+00
    0.00000E+00         0.00000E+00        -0.36189E+08
 
   -0.36424E+08         0.11204E+08         0.00000E+00
    0.11204E+08        -0.63321E+08         0.00000E+00
    0.00000E+00         0.00000E+00        -0.36185E+08
 
   -0.47543E+08        -0.36132E+06         0.00000E+00
   -0.36132E+06        -0.60029E+08         0.00000E+00
    0.00000E+00         0.00000E+00        -0.34218E+08
 
   -0.46811E+08        -0.91665E+06         0.00000E+00
   -0.91665E+06        -0.60131E+08         0.00000E+00
    0.00000E+00         0.00000E+00        -0.34211E+08
 
   -0.45907E+08        -0.12410E+07         0.00000E+00
   -0.12410E+07        -0.60306E+08         0.00000E+00
    0.00000E+00         0.00000E+00        -0.34199E+08
 
   -0.44887E+08        -0.13331E+07         0.00000E+00
   -0.13331E+07        -0.60530E+08         0.00000E+00
    0.00000E+00         0.00000E+00        -0.34183E+08
 
   -0.43802E+08        -0.11990E+07         0.00000E+00
   -0.11990E+07        -0.60782E+08         0.00000E+00
    0.00000E+00         0.00000E+00        -0.34164E+08
 
   -0.42688E+08        -0.84826E+06         0.00000E+00
   -0.84826E+06        -0.61050E+08         0.00000E+00
    0.00000E+00         0.00000E+00        -0.34143E+08
 
   -0.41573E+08        -0.29131E+06         0.00000E+00
   -0.29131E+06        -0.61327E+08         0.00000E+00
    0.00000E+00         0.00000E+00        -0.34121E+08
 
   -0.40476E+08         0.46286E+06         0.00000E+00
    0.46286E+06        -0.61609E+08         0.00000E+00
    0.00000E+00         0.00000E+00        -0.34099E+08
 
   -0.39413E+08         0.14080E+07         0.00000E+00
    0.14080E+07        -0.61899E+08         0.00000E+00
    0.00000E+00         0.00000E+00        -0.34077E+08
 
   -0.38393E+08         0.25412E+07         0.00000E+00
    0.25412E+07        -0.62199E+08         0.00000E+00
    0.00000E+00         0.00000E+00        -0.34057E+08
 
   -0.37428E+08         0.38614E+07         0.00000E+00
    0.38614E+07        -0.62510E+08         0.00000E+00
    0.00000E+00         0.00000E+00        -0.34039E+08
 
   -0.36531E+08         0.53674E+07         0.00000E+00
    0.53674E+07        -0.62830E+08         0.00000E+00
    0.00000E+00         0.00000E+00        -0.34024E+08
 
   -0.35715E+08         0.70552E+07         0.00000E+00
    0.70552E+07        -0.63158E+08         0.00000E+00
    0.00000E+00         0.00000E+00        -0.34012E+08
 
   -0.34998E+08         0.89173E+07         0.00000E+00
    0.89173E+07        -0.63491E+08         0.00000E+00
    0.00000E+00         0.00000E+00        -0.34004E+08
 
   -0.34333E+08         0.10918E+08         0.00000E+00
    0.10918E+08        -0.63839E+08         0.00000E+00
    0.00000E+00         0.00000E+00        -0.34000E+08
 
   -0.48265E+08        -0.42038E+06         0.00000E+00
   -0.42038E+06        -0.60031E+08         0.00000E+00
    0.00000E+00         0.00000E+00        -0.32023E+08
 
   -0.47289E+08        -0.10668E+07         0.00000E+00
   -0.10668E+07        -0.60139E+08         0.00000E+00
    0.00000E+00         0.00000E+00        -0.32016E+08
 
   -0.46138E+08        -0.14508E+07         0.00000E+00
   -0.14508E+07        -0.60322E+08         0.00000E+00
    0.00000E+00         0.00000E+00        -0.32003E+08
 
   -0.44878E+08        -0.15781E+07         0.00000E+00
   -0.15781E+07        -0.60551E+08         0.00000E+00
    0.00000E+00         0.00000E+00        -0.31986E+08
 
   -0.43565E+08        -0.14628E+07         0.00000E+00
   -0.14628E+07        -0.60804E+08         0.00000E+00
    0.00000E+00         0.00000E+00        -0.31966E+08
 
   -0.42237E+08        -0.11219E+07         0.00000E+00
   -0.11219E+07        -0.61070E+08         0.00000E+00
    0.00000E+00         0.00000E+00        -0.31944E+08
 
   -0.40920E+08        -0.57228E+06         0.00000E+00
   -0.57228E+06        -0.61344E+08         0.00000E+00
    0.00000E+00         0.00000E+00        -0.31921E+08
 
   -0.39631E+08         0.17281E+06         0.00000E+00
    0.17281E+06        -0.61628E+08         0.00000E+00
    0.00000E+00         0.00000E+00        -0.31898E+08
 
   -0.38381E+08         0.11050E+07         0.00000E+00
    0.11050E+07        -0.61927E+08         0.00000E+00
    0.00000E+00         0.00000E+00        -0.31875E+08
 
   -0.37175E+08         0.22211E+07         0.00000E+00
    0.22211E+07        -0.62247E+08         0.00000E+00
    0.00000E+00         0.00000E+00        -0.31855E+08
 
   -0.36024E+08         0.35226E+07         0.00000E+00
    0.35226E+07        -0.62592E+08         0.00000E+00
    0.00000E+00         0.00000E+00        -0.31836E+08
 
   -0.34941E+08         0.50129E+07         0.00000E+00
    0.50129E+07        -0.62963E+08         0.00000E+00
    0.00000E+00         0.00000E+00        -0.31821E+08
 
   -0.33946E+08         0.66865E+07         0.00000E+00
    0.66865E+07        -0.63355E+08         0.00000E+00
    0.00000E+00         0.00000E+00        -0.31809E+08
 
   -0.33063E+08         0.85322E+07         0.00000E+00
    0.85322E+07        -0.63762E+08         0.00000E+00
    0.00000E+00         0.00000E+00        -0.31801E+08
 
   -0.32372E+08         0.10448E+08         0.00000E+00
    0.10448E+08        -0.64268E+08         0.00000E+00
    0.00000E+00         0.00000E+00        -0.31946E+08
 
   -0.49099E+08        -0.48337E+06         0.00000E+00
   -0.48337E+06        -0.60033E+08         0.00000E+00
    0.00000E+00         0.00000E+00        -0.29807E+08
 
   -0.47841E+08        -0.12233E+07         0.00000E+00
   -0.12233E+07        -0.60144E+08         0.00000E+00
    0.00000E+00         0.00000E+00        -0.29800E+08
 
   -0.46413E+08        -0.16636E+07         0.00000E+00
   -0.16636E+07        -0.60329E+08         0.00000E+00
    0.00000E+00         0.00000E+00        -0.29786E+08
 
   -0.44892E+08        -0.18203E+07         0.00000E+00
   -0.18203E+07        -0.60552E+08         0.00000E+00
    0.00000E+00         0.00000E+00        -0.29768E+08
 
   -0.43339E+08        -0.17181E+07         0.00000E+00
   -0.17181E+07        -0.60792E+08         0.00000E+00
    0.00000E+00         0.00000E+00        -0.29747E+08
 
   -0.41793E+08        -0.13841E+07         0.00000E+00
   -0.13841E+07        -0.61039E+08         0.00000E+00
    0.00000E+00         0.00000E+00        -0.29724E+08
 
   -0.40277E+08        -0.84283E+06         0.00000E+00
   -0.84283E+06        -0.61293E+08         0.00000E+00
    0.00000E+00         0.00000E+00        -0.29700E+08
 
   -0.38801E+08        -0.11233E+06         0.00000E+00
   -0.11233E+06        -0.61559E+08         0.00000E+00
    0.00000E+00         0.00000E+00        -0.29676E+08
 
   -0.37370E+08         0.79678E+06         0.00000E+00
    0.79678E+06        -0.61849E+08         0.00000E+00
    0.00000E+00         0.00000E+00        -0.29654E+08
 
   -0.35984E+08         0.18818E+07         0.00000E+00
    0.18818E+07        -0.62172E+08         0.00000E+00
    0.00000E+00         0.00000E+00        -0.29633E+08
 
   -0.34646E+08         0.31470E+07         0.00000E+00
    0.31470E+07        -0.62537E+08         0.00000E+00
    0.00000E+00         0.00000E+00        -0.29614E+08
 
   -0.33370E+08         0.46025E+07         0.00000E+00
    0.46025E+07        -0.62948E+08         0.00000E+00
    0.00000E+00         0.00000E+00        -0.29598E+08
 
   -0.32198E+08         0.62577E+07         0.00000E+00
    0.62577E+07        -0.63396E+08         0.00000E+00
    0.00000E+00         0.00000E+00        -0.29586E+08
 
   -0.31121E+08         0.80820E+07         0.00000E+00
    0.80820E+07        -0.63878E+08         0.00000E+00
    0.00000E+00         0.00000E+00        -0.29583E+08
 
   -0.30710E+08         0.98198E+07         0.00000E+00
    0.98198E+07        -0.64436E+08         0.00000E+00
    0.00000E+00         0.00000E+00        -0.30215E+08
 
   -0.50049E+08        -0.54931E+06         0.00000E+00
   -0.54931E+06        -0.60034E+08         0.00000E+00
    0.00000E+00         0.00000E+00        -0.27570E+08
 
   -0.48464E+08        -0.13814E+07         0.00000E+00
   -0.13814E+07        -0.60146E+08         0.00000E+00
    0.00000E+00         0.00000E+00        -0.27562E+08
 
   -0.46724E+08        -0.18699E+07         0.00000E+00
   -0.18699E+07        -0.60324E+08         0.00000E+00
    0.00000E+00         0.00000E+00        -0.27547E+08
 
   -0.44921E+08        -0.20451E+07         0.00000E+00
   -0.20451E+07        -0.60528E+08         0.00000E+00
    0.00000E+00         0.00000E+00        -0.27528E+08
 
   -0.43119E+08        -0.19468E+07         0.00000E+00
   -0.19468E+07        -0.60736E+08         0.00000E+00
    0.00000E+00         0.00000E+00        -0.27506E+08
 
   -0.41355E+08        -0.16149E+07         0.00000E+00
   -0.16149E+07        -0.60942E+08         0.00000E+00
    0.00000E+00         0.00000E+00        -0.27483E+08
 
   -0.39646E+08        -0.10824E+07         0.00000E+00
   -0.10824E+07        -0.61153E+08         0.00000E+00
    0.00000E+00         0.00000E+00        -0.27459E+08
 
   -0.37994E+08        -0.37261E+06         0.00000E+00
   -0.37261E+06        -0.61380E+08         0.00000E+00
    0.00000E+00         0.00000E+00        -0.27435E+08
 
   -0.36394E+08         0.50224E+06         0.00000E+00
    0.50224E+06        -0.61640E+08         0.00000E+00
    0.00000E+00         0.00000E+00        -0.27412E+08
 
   -0.34836E+08         0.15405E+07         0.00000E+00
    0.15405E+07        -0.61948E+08         0.00000E+00
    0.00000E+00         0.00000E+00        -0.27391E+08
 
   -0.33316E+08         0.27508E+07         0.00000E+00
    0.27508E+07        -0.62316E+08         0.00000E+00
    0.00000E+00         0.00000E+00        -0.27373E+08
 
   -0.31841E+08         0.41495E+07         0.00000E+00
    0.41495E+07        -0.62749E+08         0.00000E+00
    0.00000E+00         0.00000E+00        -0.27357E+08
 
   -0.30448E+08         0.57676E+07         0.00000E+00
    0.57676E+07        -0.63238E+08         0.00000E+00
    0.00000E+00         0.00000E+00        -0.27345E+08
 
   -0.29333E+08         0.75287E+07         0.00000E+00
    0.75287E+07        -0.63802E+08         0.00000E+00
    0.00000E+00         0.00000E+00        -0.27554E+08
 
   -0.29075E+08         0.91976E+07         0.00000E+00
    0.91976E+07        -0.64417E+08         0.00000E+00
    0.00000E+00         0.00000E+00        -0.28521E+08
 
   -0.51117E+08        -0.61702E+06         0.00000E+00
   -0.61702E+06        -0.60035E+08         0.00000E+00
    0.00000E+00         0.00000E+00        -0.25310E+08
 
   -0.49150E+08        -0.15347E+07         0.00000E+00
   -0.15347E+07        -0.60143E+08         0.00000E+00
    0.00000E+00         0.00000E+00        -0.25301E+08
 
   -0.47059E+08        -0.20562E+07         0.00000E+00
   -0.20562E+07        -0.60302E+08         0.00000E+00
    0.00000E+00         0.00000E+00        -0.25286E+08
 
   -0.44951E+08        -0.22330E+07         0.00000E+00
   -0.22330E+07        -0.60466E+08         0.00000E+00
    0.00000E+00         0.00000E+00        -0.25266E+08
 
   -0.42895E+08        -0.21257E+07         0.00000E+00
   -0.21257E+07        -0.60618E+08         0.00000E+00
    0.00000E+00         0.00000E+00        -0.25244E+08
 
   -0.40920E+08        -0.17898E+07         0.00000E+00
   -0.17898E+07        -0.60758E+08         0.00000E+00
    0.00000E+00         0.00000E+00        -0.25221E+08
 
   -0.39032E+08        -0.12675E+07         0.00000E+00
   -0.12675E+07        -0.60900E+08         0.00000E+00
    0.00000E+00         0.00000E+00        -0.25197E+08
 
   -0.37220E+08        -0.58616E+06         0.00000E+00
   -0.58616E+06        -0.61066E+08         0.00000E+00
    0.00000E+00         0.00000E+00        -0.25173E+08
 
   -0.35466E+08         0.24140E+06         0.00000E+00
    0.24140E+06        -0.61275E+08         0.00000E+00
    0.00000E+00         0.00000E+00        -0.25151E+08
 
   -0.33749E+08         0.12153E+07         0.00000E+00
    0.12153E+07        -0.61549E+08         0.00000E+00
    0.00000E+00         0.00000E+00        -0.25131E+08
 
   -0.32053E+08         0.23491E+07         0.00000E+00
    0.23491E+07        -0.61904E+08         0.00000E+00
    0.00000E+00         0.00000E+00        -0.25113E+08
 
   -0.30375E+08         0.36732E+07         0.00000E+00
    0.36732E+07        -0.62350E+08         0.00000E+00
    0.00000E+00         0.00000E+00        -0.25097E+08
 
   -0.28707E+08         0.52315E+07         0.00000E+00
    0.52315E+07        -0.62880E+08         0.00000E+00
    0.00000E+00         0.00000E+00        -0.25085E+08
 
   -0.27715E+08         0.68747E+07         0.00000E+00
    0.68747E+07        -0.63503E+08         0.00000E+00
    0.00000E+00         0.00000E+00        -0.25730E+08
 
   -0.27364E+08         0.85456E+07         0.00000E+00
    0.85456E+07        -0.64185E+08         0.00000E+00
    0.00000E+00         0.00000E+00        -0.26764E+08
 
   -0.52302E+08        -0.68496E+06         0.00000E+00
   -0.68496E+06        -0.60035E+08         0.00000E+00
    0.00000E+00         0.00000E+00        -0.23026E+08
 
   -0.49883E+08        -0.16740E+07         0.00000E+00
   -0.16740E+07        -0.60132E+08         0.00000E+00
    0.00000E+00         0.00000E+00        -0.23017E+08
 
   -0.47395E+08        -0.22032E+07         0.00000E+00
   -0.22032E+07        -0.60254E+08         0.00000E+00
    0.00000E+00         0.00000E+00        -0.23001E+08
 
   -0.44965E+08        -0.23571E+07         0.00000E+00
   -0.23571E+07        -0.60352E+08         0.00000E+00
    0.00000E+00         0.00000E+00        -0.22982E+08
 
   -0.42658E+08        -0.22252E+07         0.00000E+00
   -0.22252E+07        -0.60415E+08         0.00000E+00
    0.00000E+00         0.00000E+00        -0.22960E+08
 
   -0.40488E+08        -0.18806E+07         0.00000E+00
   -0.18806E+07        -0.60457E+08         0.00000E+00
    0.00000E+00         0.00000E+00        -0.22937E+08
 
   -0.38442E+08        -0.13732E+07         0.00000E+00
   -0.13732E+07        -0.60504E+08         0.00000E+00
    0.00000E+00         0.00000E+00        -0.22914E+08
 
   -0.36491E+08        -0.73153E+06         0.00000E+00
   -0.73153E+06        -0.60584E+08         0.00000E+00
    0.00000E+00         0.00000E+00        -0.22891E+08
 
   -0.34603E+08         0.32839E+05         0.00000E+00
    0.32839E+05        -0.60725E+08         0.00000E+00
    0.00000E+00         0.00000E+00        -0.22871E+08
 
   -0.32745E+08         0.92243E+06         0.00000E+00
    0.92243E+06        -0.60949E+08         0.00000E+00
    0.00000E+00         0.00000E+00        -0.22851E+08
 
   -0.30884E+08         0.19541E+07         0.00000E+00
    0.19541E+07        -0.61279E+08         0.00000E+00
    0.00000E+00         0.00000E+00        -0.22834E+08
 
   -0.28991E+08         0.31659E+07         0.00000E+00
    0.31659E+07        -0.61732E+08         0.00000E+00
    0.00000E+00         0.00000E+00        -0.22820E+08
 
   -0.27094E+08         0.46138E+07         0.00000E+00
    0.46138E+07        -0.62320E+08         0.00000E+00
    0.00000E+00         0.00000E+00        -0.22856E+08
 
   -0.26131E+08         0.61641E+07         0.00000E+00
    0.61641E+07        -0.63023E+08         0.00000E+00
    0.00000E+00         0.00000E+00        -0.23838E+08
 
   -0.25614E+08         0.78444E+07         0.00000E+00
    0.78444E+07        -0.63767E+08         0.00000E+00
    0.00000E+00         0.00000E+00        -0.24928E+08
 
   -0.53593E+08        -0.75094E+06         0.00000E+00
   -0.75094E+06        -0.60033E+08         0.00000E+00
    0.00000E+00         0.00000E+00        -0.20718E+08
 
   -0.50633E+08        -0.17841E+07         0.00000E+00
   -0.17841E+07        -0.60108E+08         0.00000E+00
    0.00000E+00         0.00000E+00        -0.20708E+08
 
   -0.47700E+08        -0.22807E+07         0.00000E+00
   -0.22807E+07        -0.60164E+08         0.00000E+00
    0.00000E+00         0.00000E+00        -0.20693E+08
 
   -0.44941E+08        -0.23798E+07         0.00000E+00
   -0.23798E+07        -0.60154E+08         0.00000E+00
    0.00000E+00         0.00000E+00        -0.20673E+08
 
   -0.42400E+08        -0.22089E+07         0.00000E+00
   -0.22089E+07        -0.60086E+08         0.00000E+00
    0.00000E+00         0.00000E+00        -0.20652E+08
 
   -0.40062E+08        -0.18571E+07         0.00000E+00
   -0.18571E+07        -0.59995E+08         0.00000E+00
    0.00000E+00         0.00000E+00        -0.20631E+08
 
   -0.37886E+08        -0.13760E+07         0.00000E+00
   -0.13760E+07        -0.59921E+08         0.00000E+00
    0.00000E+00         0.00000E+00        -0.20610E+08
 
   -0.35822E+08        -0.79091E+06         0.00000E+00
   -0.79091E+06        -0.59899E+08         0.00000E+00
    0.00000E+00         0.00000E+00        -0.20590E+08
 
   -0.33825E+08        -0.10966E+06         0.00000E+00
   -0.10966E+06        -0.59958E+08         0.00000E+00
    0.00000E+00         0.00000E+00        -0.20571E+08
 
   -0.31846E+08         0.67319E+06         0.00000E+00
    0.67319E+06        -0.60124E+08         0.00000E+00
    0.00000E+00         0.00000E+00        -0.20553E+08
 
   -0.29839E+08         0.15757E+07         0.00000E+00
    0.15757E+07        -0.60422E+08         0.00000E+00
    0.00000E+00         0.00000E+00        -0.20538E+08
 
   -0.27747E+08         0.26348E+07         0.00000E+00
    0.26348E+07        -0.60878E+08         0.00000E+00
    0.00000E+00         0.00000E+00        -0.20525E+08
 
   -0.25644E+08         0.39058E+07         0.00000E+00
    0.39058E+07        -0.61518E+08         0.00000E+00
    0.00000E+00         0.00000E+00        -0.20644E+08
 
   -0.24542E+08         0.53700E+07         0.00000E+00
    0.53700E+07        -0.62313E+08         0.00000E+00
    0.00000E+00         0.00000E+00        -0.21814E+08
 
   -0.23832E+08         0.70588E+07         0.00000E+00
    0.70588E+07        -0.63165E+08         0.00000E+00
    0.00000E+00         0.00000E+00        -0.23005E+08
 
   -0.54971E+08        -0.81105E+06         0.00000E+00
   -0.81105E+06        -0.60029E+08         0.00000E+00
    0.00000E+00         0.00000E+00        -0.18383E+08
 
   -0.51351E+08        -0.18365E+07         0.00000E+00
   -0.18365E+07        -0.60058E+08         0.00000E+00
    0.00000E+00         0.00000E+00        -0.18374E+08
 
   -0.47931E+08        -0.22391E+07         0.00000E+00
   -0.22391E+07        -0.59996E+08         0.00000E+00
    0.00000E+00         0.00000E+00        -0.18359E+08
 
   -0.44857E+08        -0.22490E+07         0.00000E+00
   -0.22490E+07        -0.59815E+08         0.00000E+00
    0.00000E+00         0.00000E+00        -0.18341E+08
 
   -0.42121E+08        -0.20359E+07         0.00000E+00
   -0.20359E+07        -0.59566E+08         0.00000E+00
    0.00000E+00         0.00000E+00        -0.18322E+08
 
   -0.39655E+08        -0.16913E+07         0.00000E+00
   -0.16913E+07        -0.59311E+08         0.00000E+00
    0.00000E+00         0.00000E+00        -0.18303E+08
 
   -0.37383E+08        -0.12583E+07         0.00000E+00
   -0.12583E+07        -0.59099E+08         0.00000E+00
    0.00000E+00         0.00000E+00        -0.18285E+08
 
   -0.35236E+08        -0.75395E+06         0.00000E+00
   -0.75395E+06        -0.58965E+08         0.00000E+00
    0.00000E+00         0.00000E+00        -0.18268E+08
 
   -0.33154E+08        -0.18032E+06         0.00000E+00
   -0.18032E+06        -0.58940E+08         0.00000E+00
    0.00000E+00         0.00000E+00        -0.18252E+08
 
   -0.31079E+08         0.47071E+06         0.00000E+00
    0.47071E+06        -0.59048E+08         0.00000E+00
    0.00000E+00         0.00000E+00        -0.18237E+08
 
   -0.28951E+08         0.12160E+07         0.00000E+00
    0.12160E+07        -0.59315E+08         0.00000E+00
    0.00000E+00         0.00000E+00        -0.18224E+08
 
   -0.26698E+08         0.20802E+07         0.00000E+00
    0.20802E+07        -0.59772E+08         0.00000E+00
    0.00000E+00         0.00000E+00        -0.18213E+08
 
   -0.24364E+08         0.31159E+07         0.00000E+00
    0.31159E+07        -0.60460E+08         0.00000E+00
    0.00000E+00         0.00000E+00        -0.18344E+08
 
   -0.22993E+08         0.44622E+07         0.00000E+00
    0.44622E+07        -0.61359E+08         0.00000E+00
    0.00000E+00         0.00000E+00        -0.19627E+08
 
   -0.22018E+08         0.61313E+07         0.00000E+00
    0.61313E+07        -0.62367E+08         0.00000E+00
    0.00000E+00         0.00000E+00        -0.20983E+08
 
   -0.56392E+08        -0.85579E+06         0.00000E+00
   -0.85579E+06        -0.60015E+08         0.00000E+00
    0.00000E+00         0.00000E+00        -0.16022E+08
 
   -0.51952E+08        -0.17707E+07         0.00000E+00
   -0.17707E+07        -0.59945E+08         0.00000E+00
    0.00000E+00         0.00000E+00        -0.16014E+08
 
   -0.48036E+08        -0.19946E+07         0.00000E+00
   -0.19946E+07        -0.59663E+08         0.00000E+00
    0.00000E+00         0.00000E+00        -0.16000E+08
 
   -0.44710E+08        -0.19018E+07         0.00000E+00
   -0.19018E+07        -0.59229E+08         0.00000E+00
    0.00000E+00         0.00000E+00        -0.15985E+08
 
   -0.41842E+08        -0.16709E+07         0.00000E+00
   -0.16709E+07        -0.58758E+08         0.00000E+00
    0.00000E+00         0.00000E+00        -0.15969E+08
 
   -0.39294E+08        -0.13672E+07         0.00000E+00
   -0.13672E+07        -0.58324E+08         0.00000E+00
    0.00000E+00         0.00000E+00        -0.15954E+08
 
   -0.36962E+08        -0.10152E+07         0.00000E+00
   -0.10152E+07        -0.57971E+08         0.00000E+00
    0.00000E+00         0.00000E+00        -0.15940E+08
 
   -0.34760E+08        -0.62153E+06         0.00000E+00
   -0.62153E+06        -0.57732E+08         0.00000E+00
    0.00000E+00         0.00000E+00        -0.15927E+08
 
   -0.32617E+08        -0.18321E+06         0.00000E+00
   -0.18321E+06        -0.57631E+08         0.00000E+00
    0.00000E+00         0.00000E+00        -0.15915E+08
 
   -0.30469E+08         0.30910E+06         0.00000E+00
    0.30910E+06        -0.57691E+08         0.00000E+00
    0.00000E+00         0.00000E+00        -0.15904E+08
 
   -0.28251E+08         0.86965E+06         0.00000E+00
    0.86965E+06        -0.57935E+08         0.00000E+00
    0.00000E+00         0.00000E+00        -0.15894E+08
 
   -0.25890E+08         0.15111E+07         0.00000E+00
    0.15111E+07        -0.58394E+08         0.00000E+00
    0.00000E+00         0.00000E+00        -0.15885E+08
 
   -0.23322E+08         0.22620E+07         0.00000E+00
    0.22620E+07        -0.59123E+08         0.00000E+00
    0.00000E+00         0.00000E+00        -0.15945E+08
 
   -0.21538E+08         0.33923E+07         0.00000E+00
    0.33923E+07        -0.60124E+08         0.00000E+00
    0.00000E+00         0.00000E+00        -0.17236E+08
 
   -0.20193E+08         0.49847E+07         0.00000E+00
    0.49847E+07        -0.61366E+08         0.00000E+00
    0.00000E+00         0.00000E+00        -0.18847E+08
 
   -0.57744E+08        -0.84927E+06         0.00000E+00
   -0.84927E+06        -0.59969E+08         0.00000E+00
    0.00000E+00         0.00000E+00        -0.13633E+08
 
   -0.52306E+08        -0.14325E+07         0.00000E+00
   -0.14325E+07        -0.59623E+08         0.00000E+00
    0.00000E+00         0.00000E+00        -0.13626E+08
 
   -0.48003E+08        -0.14333E+07         0.00000E+00
   -0.14333E+07        -0.58959E+08         0.00000E+00
    0.00000E+00         0.00000E+00        -0.13616E+08
 
   -0.44539E+08        -0.12950E+07         0.00000E+00
   -0.12950E+07        -0.58222E+08         0.00000E+00
    0.00000E+00         0.00000E+00        -0.13605E+08
 
   -0.41604E+08        -0.11068E+07         0.00000E+00
   -0.11068E+07        -0.57532E+08         0.00000E+00
    0.00000E+00         0.00000E+00        -0.13595E+08
 
   -0.39018E+08        -0.89298E+06         0.00000E+00
   -0.89298E+06        -0.56938E+08         0.00000E+00
    0.00000E+00         0.00000E+00        -0.13586E+08
 
   -0.36654E+08        -0.66030E+06         0.00000E+00
   -0.66030E+06        -0.56471E+08         0.00000E+00
    0.00000E+00         0.00000E+00        -0.13576E+08
 
   -0.34420E+08        -0.40813E+06         0.00000E+00
   -0.40813E+06        -0.56149E+08         0.00000E+00
    0.00000E+00         0.00000E+00        -0.13568E+08
 
   -0.32239E+08        -0.13188E+06         0.00000E+00
   -0.13188E+06        -0.55992E+08         0.00000E+00
    0.00000E+00         0.00000E+00        -0.13560E+08
 
   -0.30043E+08         0.17618E+06         0.00000E+00
    0.17618E+06        -0.56018E+08         0.00000E+00
    0.00000E+00         0.00000E+00        -0.13553E+08
 
   -0.27762E+08         0.52637E+06         0.00000E+00
    0.52637E+06        -0.56253E+08         0.00000E+00
    0.00000E+00         0.00000E+00        -0.13547E+08
 
   -0.25334E+08         0.92986E+06         0.00000E+00
    0.92986E+06        -0.56724E+08         0.00000E+00
    0.00000E+00         0.00000E+00        -0.13542E+08
 
   -0.22640E+08         0.13824E+07         0.00000E+00
    0.13824E+07        -0.57481E+08         0.00000E+00
    0.00000E+00         0.00000E+00        -0.13537E+08
 
   -0.20278E+08         0.21203E+07         0.00000E+00
    0.21203E+07        -0.58555E+08         0.00000E+00
    0.00000E+00         0.00000E+00        -0.14578E+08
 
   -0.18422E+08         0.34689E+07         0.00000E+00
    0.34689E+07        -0.60156E+08         0.00000E+00
    0.00000E+00         0.00000E+00        -0.16566E+08
 
   -0.58702E+08        -0.51464E+06         0.00000E+00
   -0.51464E+06        -0.59500E+08         0.00000E+00
    0.00000E+00         0.00000E+00        -0.11216E+08
 
   -0.52358E+08        -0.58329E+06         0.00000E+00
   -0.58329E+06        -0.58584E+08         0.00000E+00
    0.00000E+00         0.00000E+00        -0.11213E+08
 
   -0.47928E+08        -0.52875E+06         0.00000E+00
   -0.52875E+06        -0.57542E+08         0.00000E+00
    0.00000E+00         0.00000E+00        -0.11209E+08
 
   -0.44419E+08        -0.46176E+06         0.00000E+00
   -0.46176E+06        -0.56585E+08         0.00000E+00
    0.00000E+00         0.00000E+00        -0.11205E+08
 
   -0.41465E+08        -0.38798E+06         0.00000E+00
   -0.38798E+06        -0.55755E+08         0.00000E+00
    0.00000E+00         0.00000E+00        -0.11201E+08
 
   -0.38866E+08        -0.31035E+06         0.00000E+00
   -0.31035E+06        -0.55069E+08         0.00000E+00
    0.00000E+00         0.00000E+00        -0.11198E+08
 
   -0.36491E+08        -0.22869E+06         0.00000E+00
   -0.22869E+06        -0.54539E+08         0.00000E+00
    0.00000E+00         0.00000E+00        -0.11195E+08
 
   -0.34243E+08        -0.14171E+06         0.00000E+00
   -0.14171E+06        -0.54174E+08         0.00000E+00
    0.00000E+00         0.00000E+00        -0.11192E+08
 
   -0.32044E+08        -0.47239E+05         0.00000E+00
   -0.47239E+05        -0.53988E+08         0.00000E+00
    0.00000E+00         0.00000E+00        -0.11189E+08
 
   -0.29823E+08         0.57758E+05         0.00000E+00
    0.57758E+05        -0.54000E+08         0.00000E+00
    0.00000E+00         0.00000E+00        -0.11187E+08
 
   -0.27511E+08         0.17709E+06         0.00000E+00
    0.17709E+06        -0.54235E+08         0.00000E+00
    0.00000E+00         0.00000E+00        -0.11185E+08
 
   -0.25038E+08         0.31701E+06         0.00000E+00
    0.31701E+06        -0.54725E+08         0.00000E+00
    0.00000E+00         0.00000E+00        -0.11183E+08
 
   -0.22368E+08         0.47065E+06         0.00000E+00
    0.47065E+06        -0.55503E+08         0.00000E+00
    0.00000E+00         0.00000E+00        -0.11181E+08
 
   -0.19505E+08         0.71614E+06         0.00000E+00
    0.71614E+06        -0.56762E+08         0.00000E+00
    0.00000E+00         0.00000E+00        -0.11626E+08
 
   -0.16889E+08         0.13006E+07         0.00000E+00
    0.13006E+07        -0.58680E+08         0.00000E+00
    0.00000E+00         0.00000E+00        -0.14062E+08
 
SCALARS stresss double 
LOOKUP_TABLE default
  -56483122.6648719     
  -55543178.8813855     
  -55066345.4777462     
  -55143519.0713128     
  -55708884.8517742     
  -56632144.5126973     
  -57836055.1445151     
  -59261864.2983610     
  -60778793.5905046     
  -62327860.4935386     
  -63484141.0047773     
  -64416647.2748600     
  -65230226.1814846     
  -65991942.0468873     
  -66802660.6015122     
  -57009124.3537507     
  -57667927.3047281     
  -58039181.8399488     
  -58287165.4305616     
  -58497531.9837984     
  -58718170.3938825     
  -59024924.5765990     
  -59537434.2884841     
  -60410696.2685321     
  -61424437.7067272     
  -62401451.6953018     
  -63245659.6543659     
  -63996953.6404151     
  -64691282.1590406     
  -65323104.7931639     
  -57935152.1862398     
  -58511501.6234891     
  -58859704.6273624     
  -58843163.5395287     
  -58766149.7227434     
  -58771454.9078741     
  -58932087.8239178     
  -59332308.8259969     
  -59954076.4342157     
  -60689078.9530056     
  -61442651.3893227     
  -62158370.3819308     
  -62814525.4465369     
  -63409436.8380274     
  -63933271.6544345     
  -57190787.6824776     
  -57518907.7184692     
  -57852986.3810648     
  -58056195.6528735     
  -58165902.5794422     
  -58301670.6341305     
  -58533771.7631427     
  -58893762.4203263     
  -59375985.4239119     
  -59941219.8726287     
  -60538095.7797195     
  -61126170.0336862     
  -61680641.0457816     
  -62186323.9232984     
  -62630145.2854618     
  -56556750.3771162     
  -56815318.3830182     
  -57091652.7866315     
  -57318507.9145273     
  -57514432.9192749     
  -57718893.6450090     
  -57974488.4116674     
  -58302850.1012160     
  -58703490.0964524     
  -59158392.0130245     
  -59640796.0576640     
  -60124325.0037607     
  -60588110.3440976     
  -61016728.8480909     
  -61398110.0214198     
  -55879698.7458565     
  -56142433.1406309     
  -56386695.2711395     
  -56617384.2165821     
  -56837267.2176445     
  -57065435.7001289     
  -57322171.3941792     
  -57620757.6900037     
  -57962800.3124797     
  -58339642.8718842     
  -58736377.5502410     
  -59136345.0172957     
  -59524334.7227114     
  -59887930.8404110     
  -60217714.5046379     
  -55212693.9094664     
  -55462018.1293194     
  -55697101.5399204     
  -55921205.5969142     
  -56141737.7042070     
  -56368369.4895291     
  -56612032.1008803     
  -56880216.2468871     
  -57174601.2703808     
  -57490900.6909393     
  -57820572.7735047     
  -58153131.4713234     
  -58478166.3868548     
  -58786676.3403999     
  -59071862.9519731     
  -54550794.2442060     
  -54786019.1719440     
  -55007717.3407362     
  -55220305.0240252     
  -55429396.0783986     
  -55641779.0246295     
  -55863917.5735303     
  -56100408.0351148     
  -56352610.3953132     
  -56618394.9666459     
  -56892827.4241973     
  -57169377.4293703     
  -57441172.8417479     
  -57702034.6669918     
  -57947252.1877150     
  -53894314.9170340     
  -54112303.3535355     
  -54316895.4495661     
  -54512141.9604202     
  -54702732.6006530     
  -54893599.3707360     
  -55089246.4641594     
  -55292866.9356075     
  -55505703.2271306     
  -55726841.7614014     
  -55953519.8782755     
  -56181774.4925833     
  -56407214.8827842     
  -56625747.8696212     
  -56834173.2102245     
  -53242889.9011957     
  -53440473.1392022     
  -53624059.9202924     
  -53797353.0849563     
  -53964339.3501732     
  -54129006.4113226     
  -54294890.8755805     
  -54464602.8693553     
  -54639460.4488252     
  -54819368.6664295     
  -55002968.8538790     
  -55188004.7848333     
  -55371798.4961338     
  -55551732.4175606     
  -55725661.9717803     
  -52596604.4359801     
  -52770685.4137315     
  -52929733.3328600     
  -53077163.9485167     
  -53216588.8571365     
  -53351539.3811562     
  -53485155.4024745     
  -53619882.1948178     
  -53757250.6569844     
  -53897796.5858565     
  -54041140.0361038     
  -54186199.5444123     
  -54331487.2828676     
  -54475421.4190530     
  -54616598.1110093     
  -51955892.2857889     
  -52103622.1754570     
  -52234859.0819395     
  -52352950.2290699     
  -52461405.4798777     
  -52563641.8932921     
  -52662739.3945001     
  -52761227.9118426     
  -52860937.3858697     
  -52962938.5222601     
  -53067583.6068328     
  -53174635.0733440     
  -53283451.1299373     
  -53393188.1689266     
  -53502978.1934443     
  -51321765.7513793     
  -51440365.0893823     
  -51540606.1890495     
  -51626025.5349784     
  -51700285.7760660     
  -51766943.7616851     
  -51829248.2556544     
  -51889975.3153166     
  -51951315.2096745     
  -52014822.7112749     
  -52081434.7722477     
  -52151548.5981674     
  -52225142.4349532     
  -52301912.6983138     
  -52381396.0165876     
  -50695875.1932516     
  -50782362.4256525     
  -50848270.0108458     
  -50897579.2501716     
  -50934334.3962894     
  -50962436.8874853     
  -50985473.6771747     
  -51006583.4053730     
  -51028365.1143921     
  -51052833.1265886     
  -51081418.9805876     
  -51115018.0742009     
  -51154073.6883730     
  -51198682.7130829     
  -51248696.7697688     
  -50080463.0081250     
  -50131371.7156344     
  -50159211.6327061     
  -50168641.8184597     
  -50164290.1656282     
  -50150572.5296899     
  -50131546.9026819     
  -50110804.0206617     
  -50091393.5090016     
  -50075782.3423476     
  -50065843.4789746     
  -50062877.0210434     
  -50067671.3092106     
  -50080604.6919443     
  -50101764.3054749     
  -49478247.0073938     
  -49489369.4658222     
  -49474786.2388939     
  -49440041.4489061     
  -49390522.7666444     
  -49331301.7492518     
  -49267012.0258981     
  -49201764.7887882     
  -49139095.5591103     
  -49081931.6863884     
  -49032566.3437502     
  -48992643.6419082     
  -48963186.1276759     
  -48944709.0106617     
  -48937419.4449976     
  -48892267.4823616     
  -48858429.6231563     
  -48796246.5506369     
  -48712334.6181600     
  -48612995.1631316     
  -48504070.5883914     
  -48390846.7620692     
  -48277999.4416586     
  -48169572.7176681     
  -48068969.5367284     
  -47978928.2475131     
  -47901434.1043060     
  -47837638.7547324     
  -47787957.4184387     
  -47752447.3947424     
  -48325717.1383427     
  -48240576.5669178     
  -48124616.3613894     
  -47985703.2117490     
  -47831189.4462539     
  -47667777.4464845     
  -47501448.2315100     
  -47337450.2721785     
  -47180331.0150759     
  -47033976.7903527     
  -46901621.5211697     
  -46785774.4426865     
  -46687748.7295717     
  -46607392.2649776     
  -46543888.7488668     
  -47781764.2029990     
  -47637614.9513000     
  -47460529.8875578     
  -47259811.7292484     
  -47043992.3231694     
  -46820695.3690504     
  -46596595.1097262     
  -46377464.5952230     
  -46168290.3250722     
  -45973414.2399564     
  -45796613.1389891     
  -45641095.5585258     
  -45509413.5949646     
  -45400661.3680057     
  -45310076.0387549     
  -47263373.7704719     
  -47050933.2312767     
  -46804027.5369304     
  -46533613.0661119     
  -46249530.9886158     
  -45960355.6245079     
  -45673390.8035625     
  -45394801.2037226     
  -45129846.6840791     
  -44883179.7282069     
  -44659159.9471872     
  -44461806.9993192     
  -44295010.2801877     
  -44164364.6530860     
  -44057270.4063434     
  -46773128.7650385     
  -46481269.4734940     
  -46154288.7204150     
  -45805081.6550067     
  -45444941.4418275     
  -45083380.6887308     
  -44728183.2210113     
  -44385652.4881128     
  -44061007.6652021     
  -43758877.0359719     
  -43483896.3831400     
  -43241547.9524673     
  -43036345.1294961     
  -42875267.9750318     
  -42862161.3758787     
  -46313046.6669080     
  -45928414.1415526     
  -45509265.2376446     
  -45070837.5321023     
  -44626040.1720816     
  -44185246.5697936     
  -43756446.6054833     
  -43345671.3770637     
  -42957592.9171441     
  -42596255.7671243     
  -42265862.7482922     
  -41972151.6980603     
  -41726581.9731868     
  -41527418.0284248     
  -41787260.0614115     
  -45884377.3473033     
  -45390798.1726979     
  -44865148.7194009     
  -44325601.6962256     
  -43786858.4117437     
  -43259950.6460149     
  -42752608.0068185     
  -42269971.7888388     
  -41815462.1246992     
  -41391700.9874349     
  -41001653.9472648     
  -40649042.5828967     
  -40343433.4028662     
  -40229543.7662238     
  -40670885.0864931     
  -45487343.1306045     
  -44864861.3849886     
  -44215549.0059244     
  -43561388.0285719     
  -42918990.1076949     
  -42299572.3440354     
  -41709812.7887177     
  -41153080.3118059     
  -40630649.0993298     
  -40142784.4772247     
  -39689740.6023983     
  -39274095.5260069     
  -38890933.8062952     
  -38982576.3132226     
  -39437908.5425968     
  -45120730.9416248     
  -44343974.7460710     
  -43550151.1261349     
  -42766283.7841937     
  -42010716.3595486     
  -41293756.4164647     
  -40619672.0957670     
  -39988832.9495091     
  -39399375.3038552     
  -38848278.4289459     
  -38332119.5970472     
  -37847772.0489444     
  -37423580.3034641     
  -37663612.9407542     
  -38103215.2533658     
  -44781088.9333279     
  -43816415.5911055     
  -42852375.6921861     
  -41922624.1488095     
  -41045941.6117229     
  -40229259.6849935     
  -39472118.8742000     
  -38770299.0839287     
  -38117850.0217625     
  -37507928.0080736     
  -36932835.6883378     
  -36382941.1686677     
  -35935038.3648286     
  -36223002.3724428     
  -36667296.6897959     
  -44460967.2598789     
  -43260978.9725551     
  -42095178.7314423     
  -41004389.4050205     
  -40003286.2324097     
  -39089913.3592586     
  -38255594.5161845     
  -37489872.3462102     
  -36782052.3872936     
  -36121462.2382181     
  -35496807.1603739     
  -34894510.3515239     
  -34389615.6812691     
  -34659654.1509788     
  -35122972.8018275     
  -44142997.4804773     
  -42636933.8776813     
  -41232996.3002191     
  -39974775.5849853     
  -38856462.3746272     
  -37857493.8356314     
  -36957816.7646372     
  -36139709.6191267     
  -35387685.1821447     
  -34687768.7201431     
  -34026601.1310570     
  -33389630.1440830     
  -32796842.2093401     
  -32965924.0275746     
  -33468692.3927696     
  -43781773.7095128     
  -41851808.6350162     
  -40192905.0734778     
  -38788842.7811950     
  -37577097.2611843     
  -36513935.2608732     
  -35567233.9335070     
  -34712594.9761619     
  -33930547.1168525     
  -33204765.2564214     
  -32520870.6326284     
  -31866561.0247266     
  -31219416.3810273     
  -31137017.4250781     
  -31714610.5743072     
  -43138917.5333802     
  -40718148.2881405     
  -38893136.6981714     
  -37402986.7310943     
  -36140686.1783489     
  -35044670.2645882     
  -34074965.1949044     
  -33203099.9813791     
  -32407329.7250481     
  -31670099.6958308     
  -30976818.0535641     
  -30315446.4561464     
  -29684143.1101417     
  -29297927.8842953     
  -29877114.3296781     
SCALARS 2waySource double 
LOOKUP_TABLE default
  9.330077572365017E-004
  9.713640096001342E-004
  1.028228899909036E-003
  1.053740834291616E-003
  1.060408361194028E-003
  1.069961971134541E-003
  1.067045566889173E-003
  1.069958918531594E-003
  1.128969479867950E-003
  1.076655918372882E-003
  1.173243117982955E-003
  1.225990649917687E-003
  1.261247542169227E-003
  1.286268896624399E-003
  1.303526503317098E-003
  9.573063435946901E-004
  9.590045249999172E-004
  9.294785100017835E-004
  9.439723829553125E-004
  1.003341918967093E-003
  1.065608396440946E-003
  1.150940835780153E-003
  1.077919659517514E-003
  1.207243867694389E-003
  1.158037033702535E-003
  1.205420107606759E-003
  1.244940842190200E-003
  1.274941343834966E-003
  1.297784632990647E-003
  1.314903338326334E-003
  1.051121051511484E-003
  1.187119732801317E-003
  1.134051641700069E-003
  1.295246559664513E-003
  1.309658183252658E-003
  1.321313754118513E-003
  1.314174988117131E-003
  1.273626395489743E-003
  1.225688522753892E-003
  1.232007652755205E-003
  1.242865275262063E-003
  1.267441349882336E-003
  1.290524787633600E-003
  1.310365478307579E-003
  1.326903722395563E-003
  1.406489005454610E-003
  1.352904179182191E-003
  1.287218429655856E-003
  1.287382872281300E-003
  1.309117288188858E-003
  1.312037911719293E-003
  1.305688538070745E-003
  1.288090646288937E-003
  1.270856148318178E-003
  1.265578569310875E-003
  1.273891886022161E-003
  1.287957636475878E-003
  1.305067381778662E-003
  1.321864361636509E-003
  1.337553448076883E-003
  1.400506713679512E-003
  1.352971049255416E-003
  1.321500536146940E-003
  1.307439060884502E-003
  1.308353898709088E-003
  1.309624890967431E-003
  1.305377637493093E-003
  1.297619650707359E-003
  1.290268683950475E-003
  1.288289807570329E-003
  1.293024502792599E-003
  1.303144657022677E-003
  1.316119669024302E-003
  1.330417117980679E-003
  1.345134417291005E-003
  1.369377692732405E-003
  1.343861213003121E-003
  1.324176136877309E-003
  1.313074432245640E-003
  1.308787739835177E-003
  1.307216062412837E-003
  1.304921413931927E-003
  1.301584090826311E-003
  1.299060400923876E-003
  1.299372892860959E-003
  1.303637446946108E-003
  1.311563656562877E-003
  1.322224296584375E-003
  1.334667086386604E-003
  1.348386997645474E-003
  1.333737840268953E-003
  1.324176006575385E-003
  1.314391754675726E-003
  1.307612821213310E-003
  1.304055177578056E-003
  1.302385887032845E-003
  1.301282735879677E-003
  1.300396175836743E-003
  1.300373632653207E-003
  1.302207585514324E-003
  1.306549068080281E-003
  1.313497915543894E-003
  1.322730664421353E-003
  1.333838039969993E-003
  1.346561981013002E-003
  1.299281256559375E-003
  1.299401809279076E-003
  1.297208053148452E-003
  1.295023079912102E-003
  1.293768636025469E-003
  1.293383234518165E-003
  1.293539431745627E-003
  1.294173162138192E-003
  1.295608932882723E-003
  1.298360130586918E-003
  1.302852270127682E-003
  1.309264593809527E-003
  1.317559798766360E-003
  1.327610478023963E-003
  1.339339692585281E-003
  1.265969532130270E-003
  1.272358857710639E-003
  1.275630204667683E-003
  1.277412579961653E-003
  1.278715853038022E-003
  1.279988602740406E-003
  1.281405926847885E-003
  1.283138671457023E-003
  1.285467732738390E-003
  1.288744093553797E-003
  1.293282637851179E-003
  1.299286242515220E-003
  1.306840281956078E-003
  1.315965533478073E-003
  1.326686416518291E-003
  1.233471537609331E-003
  1.244138481479891E-003
  1.251290231816277E-003
  1.256163762677420E-003
  1.259698691829461E-003
  1.262518136769003E-003
  1.265031781836880E-003
  1.267563471530858E-003
  1.270427697468458E-003
  1.273937476258482E-003
  1.278372166846338E-003
  1.283945966613649E-003
  1.290802675302230E-003
  1.299037028704389E-003
  1.308727666594791E-003
  1.201649452608419E-003
  1.215235255984714E-003
  1.225067120741677E-003
  1.232167069345920E-003
  1.237392245278984E-003
  1.241409686956225E-003
  1.244729897536225E-003
  1.247764060367125E-003
  1.250868810619054E-003
  1.254363256275237E-003
  1.258524769467756E-003
  1.263579907968253E-003
  1.269703309634162E-003
  1.277027714787487E-003
  1.285659716379248E-003
  1.170483633266353E-003
  1.185933143202098E-003
  1.197474479833374E-003
  1.206006184188030E-003
  1.212320369367869E-003
  1.217083365990617E-003
  1.220844431553538E-003
  1.224060438304105E-003
  1.227120377850460E-003
  1.230360047614034E-003
  1.234066782789016E-003
  1.238479921418175E-003
  1.243792848358103E-003
  1.250158877792338E-003
  1.257699290199083E-003
  1.140004463404548E-003
  1.156427630746408E-003
  1.168845183757215E-003
  1.178081026988198E-003
  1.184880932335076E-003
  1.189898386444690E-003
  1.193694638243328E-003
  1.196748777451618E-003
  1.199470733335406E-003
  1.202211777541935E-003
  1.205270963656761E-003
  1.208898977663507E-003
  1.213301654091125E-003
  1.218644311005048E-003
  1.225056372996475E-003
  1.110264132508936E-003
  1.126869627630203E-003
  1.139415190910703E-003
  1.148679277192127E-003
  1.155376673528385E-003
  1.160147637740230E-003
  1.163555020598095E-003
  1.166087869167162E-003
  1.168168302220118E-003
  1.170158681485448E-003
  1.172367560571551E-003
  1.175054353241653E-003
  1.178433314306033E-003
  1.182677207283730E-003
  1.187920411589899E-003
  1.081328136303430E-003
  1.097385024543843E-003
  1.109363327153243E-003
  1.118015999032068E-003
  1.124039307883336E-003
  1.128063955340211E-003
  1.130651348499162E-003
  1.132294437515361E-003
  1.133421564727619E-003
  1.134401608453315E-003
  1.135549191239094E-003
  1.137129385716081E-003
  1.139361783858520E-003
  1.142423865963882E-003
  1.146453437847275E-003
  1.053273357881683E-003
  1.068084769666204E-003
  1.078831197101822E-003
  1.086255419556959E-003
  1.091045682378828E-003
  1.093828019148178E-003
  1.095162461720713E-003
  1.095542903404027E-003
  1.095399752984473E-003
  1.095104247025963E-003
  1.094973378657594E-003
  1.095274685604714E-003
  1.096230438157448E-003
  1.098020954569401E-003
  1.100786802281520E-003
  1.026187159974389E-003
  1.039069761066989E-003
  1.047933024617623E-003
  1.053522446547296E-003
  1.056527474718976E-003
  1.057574488316579E-003
  1.057223262336704E-003
  1.055966846366280E-003
  1.054234251565302E-003
  1.052395003749187E-003
  1.050764537640338E-003
  1.049609516473255E-003
  1.049152387403700E-003
  1.049574826787536E-003
  1.051019965969833E-003
  1.000165593603953E-003
  1.010432075323705E-003
  1.016759434073233E-003
  1.019907641686202E-003
  1.020575834481427E-003
  1.019395425532309E-003
  1.016926952813598E-003
  1.013660683940206E-003
  1.010020375206287E-003
  1.006369150061558E-003
  1.003016292806777E-003
  1.000223820860502E-003
  9.982118650907457E-004
  9.971622555860358E-004
  9.972207014840011E-004
  9.753102910091077E-004
  9.822531908607139E-004
  9.853767939913272E-004
  9.854672828515845E-004
  9.832417473658976E-004
  9.793407683208700E-004
  9.743257254969401E-004
  9.686808716708856E-004
  9.628193231333640E-004
  9.570915435041893E-004
  9.517947051341921E-004
  9.471814322238906E-004
  9.434667705876551E-004
  9.408321954729217E-004
  9.394264188196011E-004
  9.517240945558746E-004
  9.545994173263929E-004
  9.538225543965105E-004
  9.502189358078757E-004
  9.445322684877267E-004
  9.374156589899325E-004
  9.294295508515747E-004
  9.210463632956878E-004
  9.126603199943433E-004
  9.046002263385859E-004
  8.971428965060224E-004
  8.905252226368077E-004
  8.849533890060121E-004
  8.806084777944639E-004
  8.776453736209829E-004
  9.295055608295684E-004
  9.275142810647667E-004
  9.220961198607559E-004
  9.141320178355184E-004
  9.044021491528958E-004
  8.935742721803685E-004
  8.822028760214756E-004
  8.707383510402197E-004
  8.595431727523592E-004
  8.489113208778196E-004
  8.390876066039047E-004
  8.302845331925985E-004
  8.226946463041449E-004
  8.164976780265956E-004
  8.118581898116548E-004
  9.087423693366437E-004
  9.010069132450458E-004
  8.901437268958933E-004
  8.771117909427109E-004
  8.627396993759684E-004
  8.477095717228883E-004
  8.325591985229614E-004
  8.176996109328828E-004
  8.034417489558029E-004
  7.900257718383048E-004
  7.776483701005398E-004
  7.664855926979501E-004
  7.567101295232883E-004
  7.484993143250455E-004
  7.420261081143732E-004
  8.895033519484567E-004
  8.750341817490865E-004
  8.578340420199355E-004
  8.389737163556489E-004
  8.193449519024168E-004
  7.996383899793842E-004
  7.803538842356248E-004
  7.618342814926716E-004
  7.443092996606307E-004
  7.279387481569422E-004
  7.128497250580912E-004
  6.991661257601221E-004
  6.870312137871603E-004
  6.766167527897480E-004
  6.681070691174197E-004
  8.718280803233392E-004
  8.494716308631267E-004
  8.249178250178080E-004
  7.994027287033411E-004
  7.738974789828473E-004
  7.490818400182301E-004
  7.253766373238131E-004
  7.030097497991701E-004
  6.820870496999313E-004
  6.626529650571704E-004
  6.447375360149725E-004
  6.283926530554645E-004
  6.137191792999473E-004
  6.008766723171689E-004
  5.900728103078347E-004
  8.557113403389992E-004
  8.240618291883708E-004
  7.909582002046619E-004
  7.578881320728064E-004
  7.259116343000399E-004
  6.956434976997620E-004
  6.673473262068427E-004
  6.410634342772128E-004
  6.167177143903732E-004
  5.941970998244537E-004
  5.734017950224051E-004
  5.542854075673575E-004
  5.368874970553830E-004
  5.213487840374417E-004
  5.079151985415548E-004
  8.410735300802285E-004
  7.983135966983114E-004
  7.552016666032535E-004
  7.136211151847508E-004
  6.746817624600106E-004
  6.387948518446502E-004
  6.059227642603779E-004
  5.758179939054627E-004
  5.481645629800951E-004
  5.226494389183826E-004
  4.990062511002497E-004
  4.770565129648599E-004
  4.567478675402126E-004
  4.381907858188978E-004
  4.216755910904133E-004
  8.277000185537875E-004
  7.712678997280144E-004
  7.163318316871367E-004
  6.653427753165392E-004
  6.192434466343174E-004
  5.778914212689002E-004
  5.407248690074542E-004
  5.071076024298412E-004
  4.764339251106545E-004
  4.481615321594070E-004
  4.218252530047937E-004
  3.970606715297720E-004
  3.736786371316572E-004
  3.517115627105557E-004
  3.314956764157392E-004
  8.149908772335894E-004
  7.409220469569550E-004
  6.719559881377437E-004
  6.112225698476337E-004
  5.584346195601972E-004
  5.122472245113416E-004
  4.713982271197775E-004
  4.348141567031443E-004
  4.015948632438864E-004
  3.709706646831126E-004
  3.422652552389145E-004
  3.148792090704099E-004
  2.883210755509016E-004
  2.625199147137907E-004
  2.377126618218258E-004
  8.011924591781043E-004
  7.020631602661438E-004
  6.181078665607473E-004
  5.491499190024529E-004
  4.911168600968268E-004
  4.412796883370018E-004
  3.976915521552669E-004
  3.589065891130135E-004
  3.237882164077583E-004
  2.913851880268001E-004
  2.608403926019402E-004
  2.313129097965790E-004
  2.019138324025466E-004
  1.716872071646969E-004
  1.412257837054932E-004
  7.723749165802984E-004
  6.436541292442976E-004
  5.509756663802235E-004
  4.774319547207710E-004
  4.165403781091542E-004
  3.646828782540765E-004
  3.195402772009136E-004
  2.794720635395477E-004
  2.432207336290385E-004
  2.097400879298251E-004
  1.780714364110324E-004
  1.472221780080808E-004
  1.159936484439733E-004
  8.261863014194203E-005
  4.395561089225000E-005
SCALARS elementIsPlast double 
LOOKUP_TABLE default
   1.00000000000000     
   1.00000000000000     
   1.00000000000000     
   1.00000000000000     
   1.00000000000000     
   1.00000000000000     
   1.00000000000000     
   1.00000000000000     
   1.00000000000000     
  0.000000000000000E+000
  0.000000000000000E+000
  0.000000000000000E+000
  0.000000000000000E+000
  0.000000000000000E+000
  0.000000000000000E+000
   1.00000000000000     
   1.00000000000000     
   1.00000000000000     
   1.00000000000000     
   1.00000000000000     
   1.00000000000000     
   1.00000000000000     
   1.00000000000000     
  0.000000000000000E+000
  0.000000000000000E+000
  0.000000000000000E+000
  0.000000000000000E+000
  0.000000000000000E+000
  0.000000000000000E+000
  0.000000000000000E+000
   1.00000000000000     
   1.00000000000000     
  0.000000000000000E+000
  0.000000000000000E+000
  0.000000000000000E+000
  0.000000000000000E+000
  0.000000000000000E+000
  0.000000000000000E+000
  0.000000000000000E+000
  0.000000000000000E+000
  0.000000000000000E+000
  0.000000000000000E+000
  0.000000000000000E+000
  0.000000000000000E+000
  0.000000000000000E+000
  0.000000000000000E+000
  0.000000000000000E+000
  0.000000000000000E+000
  0.000000000000000E+000
  0.000000000000000E+000
  0.000000000000000E+000
  0.000000000000000E+000
  0.000000000000000E+000
  0.000000000000000E+000
  0.000000000000000E+000
  0.000000000000000E+000
  0.000000000000000E+000
  0.000000000000000E+000
  0.000000000000000E+000
  0.000000000000000E+000
  0.000000000000000E+000
  0.000000000000000E+000
  0.000000000000000E+000
  0.000000000000000E+000
  0.000000000000000E+000
  0.000000000000000E+000
  0.000000000000000E+000
  0.000000000000000E+000
  0.000000000000000E+000
  0.000000000000000E+000
  0.000000000000000E+000
  0.000000000000000E+000
  0.000000000000000E+000
  0.000000000000000E+000
  0.000000000000000E+000
  0.000000000000000E+000
  0.000000000000000E+000
  0.000000000000000E+000
  0.000000000000000E+000
  0.000000000000000E+000
  0.000000000000000E+000
  0.000000000000000E+000
  0.000000000000000E+000
  0.000000000000000E+000
  0.000000000000000E+000
  0.000000000000000E+000
  0.000000000000000E+000
  0.000000000000000E+000
  0.000000000000000E+000
  0.000000000000000E+000
  0.000000000000000E+000
  0.000000000000000E+000
  0.000000000000000E+000
  0.000000000000000E+000
  0.000000000000000E+000
  0.000000000000000E+000
  0.000000000000000E+000
  0.000000000000000E+000
  0.000000000000000E+000
  0.000000000000000E+000
  0.000000000000000E+000
  0.000000000000000E+000
  0.000000000000000E+000
  0.000000000000000E+000
  0.000000000000000E+000
  0.000000000000000E+000
  0.000000000000000E+000
  0.000000000000000E+000
  0.000000000000000E+000
  0.000000000000000E+000
  0.000000000000000E+000
  0.000000000000000E+000
  0.000000000000000E+000
  0.000000000000000E+000
  0.000000000000000E+000
  0.000000000000000E+000
  0.000000000000000E+000
  0.000000000000000E+000
  0.000000000000000E+000
  0.000000000000000E+000
  0.000000000000000E+000
  0.000000000000000E+000
  0.000000000000000E+000
  0.000000000000000E+000
  0.000000000000000E+000
  0.000000000000000E+000
  0.000000000000000E+000
  0.000000000000000E+000
  0.000000000000000E+000
  0.000000000000000E+000
  0.000000000000000E+000
  0.000000000000000E+000
  0.000000000000000E+000
  0.000000000000000E+000
  0.000000000000000E+000
  0.000000000000000E+000
  0.000000000000000E+000
  0.000000000000000E+000
  0.000000000000000E+000
  0.000000000000000E+000
  0.000000000000000E+000
  0.000000000000000E+000
  0.000000000000000E+000
  0.000000000000000E+000
  0.000000000000000E+000
  0.000000000000000E+000
  0.000000000000000E+000
  0.000000000000000E+000
  0.000000000000000E+000
  0.000000000000000E+000
  0.000000000000000E+000
  0.000000000000000E+000
  0.000000000000000E+000
  0.000000000000000E+000
  0.000000000000000E+000
  0.000000000000000E+000
  0.000000000000000E+000
  0.000000000000000E+000
  0.000000000000000E+000
  0.000000000000000E+000
  0.000000000000000E+000
  0.000000000000000E+000
  0.000000000000000E+000
  0.000000000000000E+000
  0.000000000000000E+000
  0.000000000000000E+000
  0.000000000000000E+000
  0.000000000000000E+000
  0.000000000000000E+000
  0.000000000000000E+000
  0.000000000000000E+000
  0.000000000000000E+000
  0.000000000000000E+000
  0.000000000000000E+000
  0.000000000000000E+000
  0.000000000000000E+000
  0.000000000000000E+000
  0.000000000000000E+000
  0.000000000000000E+000
  0.000000000000000E+000
  0.000000000000000E+000
  0.000000000000000E+000
  0.000000000000000E+000
  0.000000000000000E+000
  0.000000000000000E+000
  0.000000000000000E+000
  0.000000000000000E+000
  0.000000000000000E+000
  0.000000000000000E+000
  0.000000000000000E+000
  0.000000000000000E+000
  0.000000000000000E+000
  0.000000000000000E+000
  0.000000000000000E+000
  0.000000000000000E+000
  0.000000000000000E+000
  0.000000000000000E+000
  0.000000000000000E+000
  0.000000000000000E+000
  0.000000000000000E+000
  0.000000000000000E+000
  0.000000000000000E+000
  0.000000000000000E+000
  0.000000000000000E+000
  0.000000000000000E+000
  0.000000000000000E+000
  0.000000000000000E+000
  0.000000000000000E+000
  0.000000000000000E+000
  0.000000000000000E+000
  0.000000000000000E+000
  0.000000000000000E+000
  0.000000000000000E+000
  0.000000000000000E+000
  0.000000000000000E+000
  0.000000000000000E+000
  0.000000000000000E+000
  0.000000000000000E+000
  0.000000000000000E+000
  0.000000000000000E+000
  0.000000000000000E+000
  0.000000000000000E+000
  0.000000000000000E+000
  0.000000000000000E+000
  0.000000000000000E+000
  0.000000000000000E+000
  0.000000000000000E+000
  0.000000000000000E+000
  0.000000000000000E+000
  0.000000000000000E+000
  0.000000000000000E+000
  0.000000000000000E+000
  0.000000000000000E+000
  0.000000000000000E+000
  0.000000000000000E+000
  0.000000000000000E+000
  0.000000000000000E+000
  0.000000000000000E+000
  0.000000000000000E+000
  0.000000000000000E+000
  0.000000000000000E+000
  0.000000000000000E+000
  0.000000000000000E+000
  0.000000000000000E+000
  0.000000000000000E+000
  0.000000000000000E+000
  0.000000000000000E+000
  0.000000000000000E+000
  0.000000000000000E+000
  0.000000000000000E+000
  0.000000000000000E+000
  0.000000000000000E+000
  0.000000000000000E+000
  0.000000000000000E+000
  0.000000000000000E+000
  0.000000000000000E+000
  0.000000000000000E+000
  0.000000000000000E+000
  0.000000000000000E+000
  0.000000000000000E+000
  0.000000000000000E+000
  0.000000000000000E+000
  0.000000000000000E+000
  0.000000000000000E+000
  0.000000000000000E+000
  0.000000000000000E+000
  0.000000000000000E+000
  0.000000000000000E+000
  0.000000000000000E+000
  0.000000000000000E+000
  0.000000000000000E+000
  0.000000000000000E+000
  0.000000000000000E+000
  0.000000000000000E+000
  0.000000000000000E+000
  0.000000000000000E+000
  0.000000000000000E+000
  0.000000000000000E+000
  0.000000000000000E+000
  0.000000000000000E+000
  0.000000000000000E+000
  0.000000000000000E+000
  0.000000000000000E+000
  0.000000000000000E+000
  0.000000000000000E+000
  0.000000000000000E+000
  0.000000000000000E+000
  0.000000000000000E+000
  0.000000000000000E+000
  0.000000000000000E+000
  0.000000000000000E+000
  0.000000000000000E+000
  0.000000000000000E+000
  0.000000000000000E+000
  0.000000000000000E+000
  0.000000000000000E+000
  0.000000000000000E+000
  0.000000000000000E+000
  0.000000000000000E+000
  0.000000000000000E+000
  0.000000000000000E+000
  0.000000000000000E+000
  0.000000000000000E+000
  0.000000000000000E+000
  0.000000000000000E+000
  0.000000000000000E+000
  0.000000000000000E+000
  0.000000000000000E+000
  0.000000000000000E+000
  0.000000000000000E+000
  0.000000000000000E+000
  0.000000000000000E+000
  0.000000000000000E+000
  0.000000000000000E+000
  0.000000000000000E+000
  0.000000000000000E+000
  0.000000000000000E+000
  0.000000000000000E+000
  0.000000000000000E+000
  0.000000000000000E+000
  0.000000000000000E+000
  0.000000000000000E+000
  0.000000000000000E+000
  0.000000000000000E+000
  0.000000000000000E+000
  0.000000000000000E+000
  0.000000000000000E+000
  0.000000000000000E+000
  0.000000000000000E+000
  0.000000000000000E+000
  0.000000000000000E+000
  0.000000000000000E+000
  0.000000000000000E+000
  0.000000000000000E+000
  0.000000000000000E+000
  0.000000000000000E+000
  0.000000000000000E+000
  0.000000000000000E+000
  0.000000000000000E+000
  0.000000000000000E+000
  0.000000000000000E+000
  0.000000000000000E+000
  0.000000000000000E+000
  0.000000000000000E+000
  0.000000000000000E+000
  0.000000000000000E+000
  0.000000000000000E+000
  0.000000000000000E+000
  0.000000000000000E+000
  0.000000000000000E+000
  0.000000000000000E+000
  0.000000000000000E+000
  0.000000000000000E+000
  0.000000000000000E+000
  0.000000000000000E+000
  0.000000000000000E+000
  0.000000000000000E+000
  0.000000000000000E+000
  0.000000000000000E+000
  0.000000000000000E+000
  0.000000000000000E+000
  0.000000000000000E+000
  0.000000000000000E+000
  0.000000000000000E+000
  0.000000000000000E+000
  0.000000000000000E+000
  0.000000000000000E+000
  0.000000000000000E+000
  0.000000000000000E+000
  0.000000000000000E+000
  0.000000000000000E+000
  0.000000000000000E+000
  0.000000000000000E+000
  0.000000000000000E+000
  0.000000000000000E+000
  0.000000000000000E+000
  0.000000000000000E+000
  0.000000000000000E+000
  0.000000000000000E+000
  0.000000000000000E+000
  0.000000000000000E+000
  0.000000000000000E+000
  0.000000000000000E+000
  0.000000000000000E+000
  0.000000000000000E+000
  0.000000000000000E+000
  0.000000000000000E+000
  0.000000000000000E+000
  0.000000000000000E+000
  0.000000000000000E+000
  0.000000000000000E+000
  0.000000000000000E+000
  0.000000000000000E+000
  0.000000000000000E+000
  0.000000000000000E+000
  0.000000000000000E+000
  0.000000000000000E+000
  0.000000000000000E+000
  0.000000000000000E+000
  0.000000000000000E+000
  0.000000000000000E+000
  0.000000000000000E+000
  0.000000000000000E+000
  0.000000000000000E+000
  0.000000000000000E+000
  0.000000000000000E+000
  0.000000000000000E+000
  0.000000000000000E+000
  0.000000000000000E+000
  0.000000000000000E+000
  0.000000000000000E+000
  0.000000000000000E+000
  0.000000000000000E+000
  0.000000000000000E+000
  0.000000000000000E+000
  0.000000000000000E+000
  0.000000000000000E+000
  0.000000000000000E+000
  0.000000000000000E+000
  0.000000000000000E+000
  0.000000000000000E+000
  0.000000000000000E+000
  0.000000000000000E+000
  0.000000000000000E+000
  0.000000000000000E+000
  0.000000000000000E+000
  0.000000000000000E+000
  0.000000000000000E+000
  0.000000000000000E+000
  0.000000000000000E+000
  0.000000000000000E+000
  0.000000000000000E+000
  0.000000000000000E+000
  0.000000000000000E+000
  0.000000000000000E+000
  0.000000000000000E+000
  0.000000000000000E+000
  0.000000000000000E+000
  0.000000000000000E+000
  0.000000000000000E+000
  0.000000000000000E+000
  0.000000000000000E+000
  0.000000000000000E+000
  0.000000000000000E+000
  0.000000000000000E+000
  0.000000000000000E+000
  0.000000000000000E+000
  0.000000000000000E+000
  0.000000000000000E+000
  0.000000000000000E+000
SCALARS poroL double 
LOOKUP_TABLE default
  0.276174574226572     
  0.276271076989544     
  0.274774117367429     
  0.272383951541732     
  0.269536607279295     
  0.266554547529342     
  0.263701544179788     
  0.261124688479196     
  0.259014011783249     
  0.257721830021844     
  0.256879130574947     
  0.256201378225060     
  0.255609476709206     
  0.255052301655972     
  0.254452416914789     
  0.268363669577820     
  0.265465916935160     
  0.263328273848499     
  0.261729747704723     
  0.260577881473186     
  0.259732248905303     
  0.259016378446348     
  0.258377685407933     
  0.257726149529012     
  0.256980084070645     
  0.256261902454589     
  0.255642297118658     
  0.255090261759138     
  0.254577815617981     
  0.254108265779796     
  0.259584167044918     
  0.257953154359966     
  0.257452257734113     
  0.257460734821425     
  0.257518834607337     
  0.257517101555458     
  0.257400610453684     
  0.257105951095766     
  0.256646306622493     
  0.256102453286304     
  0.255544911607264     
  0.255015383245414     
  0.254529394140189     
  0.254087531260848     
  0.253696827536291     
  0.257383417824831     
  0.257031894700490     
  0.256777823227556     
  0.256624063986062     
  0.256542142085423     
  0.256441818167259     
  0.256269991574873     
  0.256002669264518     
  0.255643899264763     
  0.255223013907835     
  0.254778433846731     
  0.254340271002279     
  0.253926814127029     
  0.253549175259145     
  0.253217080449078     
  0.256314954571776     
  0.256119254335844     
  0.255909772519453     
  0.255738128160286     
  0.255590654179826     
  0.255437417689505     
  0.255246073314394     
  0.255000127905414     
  0.254699835576975     
  0.254358722078183     
  0.253996913116784     
  0.253634212689192     
  0.253286251044005     
  0.252964593804454     
  0.252678390554856     
  0.255370104871041     
  0.255171950781803     
  0.254987020618064     
  0.254812226697464     
  0.254645772753993     
  0.254473261844190     
  0.254279268621666     
  0.254053665612659     
  0.253795206831184     
  0.253510456780082     
  0.253210733658229     
  0.252908684462918     
  0.252615865673963     
  0.252341751288909     
  0.252093612342880     
  0.254406760804367     
  0.254218736426931     
  0.254040612750449     
  0.253870255889269     
  0.253702312444766     
  0.253529570075191     
  0.253343777229997     
  0.253139274513691     
  0.252914838238293     
  0.252673808198658     
  0.252422781781875     
  0.252169849450956     
  0.251923059741853     
  0.251689416246243     
  0.251474288828730     
  0.253428062464291     
  0.253250478470777     
  0.253082046121665     
  0.252919674677553     
  0.252759327619802     
  0.252596017017394     
  0.252424953563640     
  0.252242754526783     
  0.252048513104118     
  0.251844003893258     
  0.251633160950258     
  0.251421152522671     
  0.251213423163328     
  0.251014907416163     
  0.250829444192815     
  0.252433492227910     
  0.252268615633295     
  0.252112555753993     
  0.251962478502292     
  0.251815051142245     
  0.251666730477511     
  0.251514277697025     
  0.251355446572874     
  0.251189487211602     
  0.251017311830983     
  0.250841262079049     
  0.250664611144887     
  0.250490970598980     
  0.250323735209758     
  0.250165628628638     
  0.251423139619713     
  0.251273314001435     
  0.251132511397303     
  0.250998175340187     
  0.250867531499059     
  0.250737796570674     
  0.250606523717144     
  0.250471972192454     
  0.250333394488766     
  0.250191133921627     
  0.250046511454521     
  0.249901543529920     
  0.249758574821577     
  0.249619906515750     
  0.249487478824620     
  0.250396785498527     
  0.250264322260362     
  0.250141416241846     
  0.250025758900640     
  0.249914899015001     
  0.249806447808549     
  0.249698314948072     
  0.249588941944028     
  0.249477473122298     
  0.249363819234166     
  0.249248596404232     
  0.249132959836773     
  0.249018374497917     
  0.248906372557270     
  0.248798342333031     
  0.249353946988417     
  0.249240978357199     
  0.249138420257149     
  0.249044056400195     
  0.248955559424961     
  0.248870679211873     
  0.248787425570740     
  0.248704229385220     
  0.248620056925886     
  0.248534454618300     
  0.248447516259282     
  0.248359781990030     
  0.248272092953911     
  0.248185433053278     
  0.248100790197734     
  0.248293689498767     
  0.248202295454629     
  0.248122469018133     
  0.248051898394933     
  0.247988193138337     
  0.247929052206332     
  0.247872412132524     
  0.247816568735322     
  0.247760260852319     
  0.247702706073212     
  0.247643584753670     
  0.247582977505763     
  0.247521269933592     
  0.247459045099599     
  0.247396987851440     
  0.247214573373604     
  0.247146982055030     
  0.247092379266910     
  0.247048171507462     
  0.247011737365291     
  0.246980572747725     
  0.246952413303804     
  0.246925330571993     
  0.246897797403175     
  0.246868719023761     
  0.246837428473850     
  0.246803648125609     
  0.246767423180867     
  0.246729039403902     
  0.246688944946583     
  0.246114682983624     
  0.246073481808644     
  0.246046884523504     
  0.246031847780521     
  0.246025372052920     
  0.246024624946232     
  0.246027041766192     
  0.246030401534417     
  0.246032878151775     
  0.246033068137071     
  0.246029995848443     
  0.246023094343567     
  0.246012156920602     
  0.245997259543027     
  0.245978671842349     
  0.244991710373401     
  0.244980038683477     
  0.244984688296196     
  0.245002018758251     
  0.245028525718631     
  0.245060945258307     
  0.245096334428734     
  0.245132127523214     
  0.245166171430784     
  0.245196746690572     
  0.245222583803499     
  0.245242870957408     
  0.245257230762373     
  0.245265634747961     
  0.245268257575711     
  0.243843066920619     
  0.243864785833412     
  0.243904535538609     
  0.243957948213966     
  0.244020905781914     
  0.244089629613914     
  0.244160741469989     
  0.244231296379760     
  0.244298794966075     
  0.244361188373842     
  0.244416893566249     
  0.244464855799960     
  0.244504604268760     
  0.244536178790969     
  0.244559854769035     
  0.242666008163232     
  0.242725853620922     
  0.242805306219727     
  0.242899149338670     
  0.243002555770688     
  0.243111168610815     
  0.243221141835026     
  0.243329142325031     
  0.243432324528785     
  0.243528300988899     
  0.243615135751195     
  0.243691395516965     
  0.243756493869717     
  0.243810883891360     
  0.243855469884488     
  0.241457763799779     
  0.241561494921439     
  0.241686134300112     
  0.241825491609650     
  0.241973942666667     
  0.242126509230641     
  0.242278877180396     
  0.242427356322892     
  0.242568796655247     
  0.242700487069606     
  0.242820099864748     
  0.242925692499127     
  0.243015764901171     
  0.243091329179682     
  0.243156195940968     
  0.240215668907982     
  0.240370230010607     
  0.240546559239882     
  0.240737346199946     
  0.240936081695607     
  0.241137146168860     
  0.241335801046864     
  0.241528090504889     
  0.241710674068206     
  0.241880615848712     
  0.242035160277135     
  0.242171770436641     
  0.242287964197676     
  0.242379908275754     
  0.242457224542161     
  0.238937295253893     
  0.239151019573207     
  0.239386724727969     
  0.239635786209059     
  0.239890712524988     
  0.240145252162131     
  0.240394346782321     
  0.240633952089657     
  0.240860757848569     
  0.241071839580515     
  0.241264231634572     
  0.241434313643142     
  0.241579157305928     
  0.241693946976569     
  0.241742280216518     
  0.237620585548010     
  0.237903484910302     
  0.238207652365075     
  0.238522869786356     
  0.238840549677976     
  0.239153863319835     
  0.239457625597942     
  0.239747994498029     
  0.240022050313112     
  0.240277280474578     
  0.240511023056865     
  0.240719466340219     
  0.240894521661256     
  0.241039320297675     
  0.241015671797307     
  0.236264001653765     
  0.236628214386491     
  0.237011641032269     
  0.237402052412202     
  0.237789639786316     
  0.238167139324977     
  0.238529569184414     
  0.238873729221675     
  0.239197595255872     
  0.239499673367854     
  0.239778189887328     
  0.240030822747305     
  0.240250957361143     
  0.240388083802920     
  0.240319940632407     
  0.234866715996455     
  0.235327235481251     
  0.235802886068017     
  0.236278802458531     
  0.236743866154873     
  0.237190711715689     
  0.237615123867329     
  0.238015176547294     
  0.238390385925846     
  0.238740954783598     
  0.239067081196875     
  0.239367268933659     
  0.239645757859272     
  0.239743333158589     
  0.239685045391721     
  0.233428913984399     
  0.234004823759160     
  0.234588496297094     
  0.235161537066560     
  0.235711635414156     
  0.236232103889408     
  0.236720468411794     
  0.237176962485798     
  0.237603362645715     
  0.238002247374116     
  0.238376489152640     
  0.238728810612027     
  0.239050628975338     
  0.239124757276081     
  0.239095838488604     
  0.231952393782680     
  0.232669028011946     
  0.233380273907568     
  0.234063036294927     
  0.234704731233550     
  0.235301125114996     
  0.235853165050291     
  0.236364403304389     
  0.236839572691290     
  0.237284022303183     
  0.237703735909404     
  0.238106201654049     
  0.238466846760917     
  0.238552633645160     
  0.238549155141171     
  0.230441885234143     
  0.231334984765562     
  0.232197926446592     
  0.233002488544474     
  0.233739093484431     
  0.234409980972620     
  0.235022078152486     
  0.235583473323196     
  0.236102348829139     
  0.236586836016733     
  0.237045526099944     
  0.237488725700456     
  0.237895234568917     
  0.238019880324058     
  0.238047189088709     
  0.228909504700719     
  0.230032525097951     
  0.231075265367670     
  0.232007500083493     
  0.232834690579737     
  0.233572725441572     
  0.234236864347532     
  0.234840514211834     
  0.235395363520874     
  0.235911952043053     
  0.236400352486248     
  0.236871500182229     
  0.237326860928908     
  0.237523334164828     
  0.237586984805336     
  0.227388417353703     
  0.228830625493518     
  0.230067240383166     
  0.231112423222520     
  0.232013584602618     
  0.232803700916681     
  0.233506934137436     
  0.234141614643271     
  0.234722365820094     
  0.235261450048371     
  0.235769667900029     
  0.236256242183400     
  0.236737889044766     
  0.237054438480264     
  0.237153631036015     
  0.226057487884880     
  0.227870906970470     
  0.229236778808876     
  0.230351556551952     
  0.231295586365579     
  0.232115073322443     
  0.232840005739623     
  0.233491739131883     
  0.234086583858118     
  0.234637708916029     
  0.235156060558673     
  0.235650669183009     
  0.236122863601687     
  0.236518321732418     
  0.236715834086387     
